********************************************************************************
Field Output Report, written Tue May 28 22:56:35 2024

Source 1
---------

   ODB: G:/Abaqus_calc_2019/1740/Vel_10/odb/zeides_2a_8_red_2500_cal_50_vel_10_fric_025.odb
   Step: Step-1
   Frame: Increment  17946465: Step Time =    1.808

Loc 1 : Nodal values from source 1

Output sorted by column "Nodal Label".

Field Output reported at nodes for region: DIE_2A_8_D0_36-1.Region_1
   Computation algorithm: EXTRAPOLATE_COMPUTE_AVERAGE
   Averaged at nodes
   Averaging regions: ODB_REGIONS

      Node Label     COORD.COOR1     COORD.COOR2
                          @Loc 1          @Loc 1
-------------------------------------------------
               1     14.4417E-03     216.461E-03


Field Output reported at nodes for region: DIE_2A_8_D0_36-1.Region_2
   Computation algorithm: EXTRAPOLATE_COMPUTE_AVERAGE
   Averaged at nodes
   Averaging regions: ODB_REGIONS

      Node Label     COORD.COOR1     COORD.COOR2
                          @Loc 1          @Loc 1
-------------------------------------------------
               1     14.4417E-03     216.461E-03


Field Output reported at nodes for part: WIRE-1
   Computation algorithm: EXTRAPOLATE_COMPUTE_AVERAGE
   Averaged at nodes
   Averaging regions: ODB_REGIONS

      Node Label     COORD.COOR1     COORD.COOR2           S.S11           S.S22           S.S33           S.S12         PE.PE11         PE.PE22         PE.PE33         PE.PE12         LE.LE11         LE.LE22         LE.LE33         LE.LE12
                          @Loc 1          @Loc 1          @Loc 1          @Loc 1          @Loc 1          @Loc 1          @Loc 1          @Loc 1          @Loc 1          @Loc 1          @Loc 1          @Loc 1          @Loc 1          @Loc 1
-------------------------------------------------------------------------------------------------------------------------------------------------------------------------------------------------------------------------------------------------
               1     21.0031E-09     97.6261E-03    -120.724E+06    -241.348E+06    -120.737E+06     96.9027E+03    -289.545E-03     579.025E-03    -289.480E-03     1.79468E-03    -289.623E-03     578.168E-03    -289.559E-03     1.98443E-03
               2     13.4809E-03     98.4397E-03    -2.54021E+06     83.3235E+06     98.0494E+06    -202.380E+03    -288.555E-03     578.031E-03    -289.476E-03     26.1513E-03    -288.932E-03     578.411E-03    -289.102E-03     21.2895E-03
               3     13.5061E-03     196.426E-03    -23.6576E+06     25.8302E+06     52.5900E+06    -13.1639E+06    -245.553E-03     533.755E-03    -288.202E-03    -3.35502E-03    -245.783E-03     533.858E-03    -287.943E-03    -2.25674E-03
               4    -775.059E-09     195.315E-03     36.3894E+06    -13.9524E+06     29.5484E+06    -3.29495E+06    -304.585E-03     608.869E-03    -304.285E-03    -10.6311E-03    -304.445E-03     608.682E-03    -304.170E-03    -10.8572E-03
               5    -233.148E-09     416.334E-18    -65.0131E+06    -235.195E+06    -65.0669E+06     237.502E+03    -265.392E-03     531.448E-03    -266.056E-03     330.748E-06    -265.282E-03     530.461E-03    -265.946E-03     304.935E-06
               6     13.3926E-03     416.334E-18     134.606E+03     83.7825E+06     105.633E+06     1.82318E+06    -395.684E-03     687.041E-03    -291.357E-03     75.5830E-03    -396.349E-03     687.699E-03    -290.951E-03     67.3359E-03
               7     673.715E-06     97.6297E-03    -119.795E+06    -238.899E+06    -117.954E+06     153.279E+03    -289.521E-03     579.023E-03    -289.502E-03     2.97890E-03    -289.603E-03     578.173E-03    -289.571E-03     3.29066E-03
               8     1.34744E-03     97.6381E-03    -117.172E+06    -230.783E+06    -110.420E+06     276.564E+03    -289.481E-03     579.011E-03    -289.530E-03     5.47429E-03    -289.572E-03     578.187E-03    -289.578E-03     6.02774E-03
               9     2.02119E-03     97.6516E-03    -113.122E+06    -217.987E+06    -99.0554E+06     417.219E+03    -289.445E-03     578.993E-03    -289.548E-03     8.11632E-03    -289.551E-03     578.211E-03    -289.563E-03     8.88675E-03
              10     2.69497E-03     97.6703E-03    -107.860E+06    -201.953E+06    -84.7536E+06     581.797E+03    -289.402E-03     578.972E-03    -289.569E-03     10.7720E-03    -289.526E-03     578.241E-03    -289.544E-03     11.7067E-03
              11     3.36880E-03     97.6941E-03    -101.656E+06    -183.154E+06    -68.8291E+06     782.485E+03    -289.356E-03     578.945E-03    -289.590E-03     13.4226E-03    -289.499E-03     578.277E-03    -289.521E-03     14.4515E-03
              12     4.04266E-03     97.7227E-03    -94.8081E+06    -162.478E+06    -52.3140E+06     1.01531E+06    -289.311E-03     578.917E-03    -289.606E-03     16.0609E-03    -289.475E-03     578.319E-03    -289.495E-03     17.0989E-03
              13     4.71657E-03     97.7561E-03    -87.5781E+06    -140.039E+06    -36.0084E+06     1.27766E+06    -289.268E-03     578.884E-03    -289.617E-03     18.6888E-03    -289.454E-03     578.367E-03    -289.467E-03     19.6380E-03
              14     5.39052E-03     97.7940E-03    -80.1810E+06    -115.820E+06    -20.3341E+06     1.56422E+06    -289.226E-03     578.846E-03    -289.620E-03     21.3076E-03    -289.436E-03     578.419E-03    -289.437E-03     22.0596E-03
              15     6.06453E-03     97.8362E-03    -72.7819E+06    -91.0808E+06    -5.49491E+06     1.85729E+06    -289.187E-03     578.805E-03    -289.617E-03     23.9138E-03    -289.423E-03     578.475E-03    -289.407E-03     24.3505E-03
              16     6.73856E-03     97.8824E-03    -65.4968E+06    -63.3718E+06     8.64040E+06     2.10830E+06    -289.139E-03     578.746E-03    -289.607E-03     26.4752E-03    -289.408E-03     578.532E-03    -289.376E-03     26.4783E-03
              17     7.41266E-03     97.9323E-03    -58.2789E+06    -29.6688E+06     22.4592E+06     2.29770E+06    -289.065E-03     578.649E-03    -289.584E-03     28.9343E-03    -289.377E-03     578.584E-03    -289.344E-03     28.3908E-03
              18     8.08681E-03     97.9855E-03    -50.9941E+06     12.3782E+06     36.5225E+06     2.42524E+06    -288.955E-03     578.504E-03    -289.549E-03     31.3711E-03    -289.329E-03     578.635E-03    -289.310E-03     30.1590E-03
              19     8.76104E-03     98.0418E-03    -43.8625E+06     37.7350E+06     47.7498E+06     2.35685E+06    -288.911E-03     578.434E-03    -289.523E-03     33.8022E-03    -289.323E-03     578.686E-03    -289.275E-03     31.8009E-03
              20     9.43526E-03     98.1009E-03    -37.2868E+06     39.2938E+06     56.5927E+06     1.97744E+06    -288.947E-03     578.470E-03    -289.524E-03     36.0355E-03    -289.367E-03     578.734E-03    -289.244E-03     33.1528E-03
              21     10.1095E-03     98.1621E-03    -30.9898E+06     52.3667E+06     68.9887E+06     1.49481E+06    -288.903E-03     578.432E-03    -289.529E-03     37.8020E-03    -289.359E-03     578.764E-03    -289.215E-03     33.9755E-03
              22     10.7838E-03     98.2242E-03    -24.3291E+06     69.7188E+06     83.2533E+06     935.966E+03    -288.806E-03     578.343E-03    -289.538E-03     38.7577E-03    -289.305E-03     578.762E-03    -289.187E-03     33.9991E-03
              23     11.4581E-03     98.2854E-03    -17.5111E+06     75.2226E+06     94.6084E+06     583.596E+03    -288.737E-03     578.287E-03    -289.549E-03     38.5945E-03    -289.248E-03     578.728E-03    -289.160E-03     33.0813E-03
              24     12.1324E-03     98.3441E-03    -11.1554E+06     77.2970E+06     99.2886E+06     453.688E+03    -288.687E-03     578.223E-03    -289.536E-03     38.4473E-03    -289.210E-03     578.692E-03    -289.135E-03     31.9366E-03
              25     12.8067E-03     98.4012E-03    -5.34017E+06     80.7745E+06     98.6684E+06     64.9002E+03    -288.611E-03     578.108E-03    -289.497E-03     32.4211E-03    -289.067E-03     578.545E-03    -289.113E-03     26.3899E-03
              26     13.4811E-03     100.130E-03    -2.40349E+06     82.9745E+06     98.4605E+06     86.9097E+03    -288.542E-03     578.015E-03    -289.474E-03     26.1696E-03    -288.918E-03     578.392E-03    -289.098E-03     21.3147E-03
              27     13.4811E-03     101.821E-03    -2.54427E+06     83.9960E+06     98.8951E+06     311.020E+03    -288.510E-03     577.979E-03    -289.468E-03     26.2028E-03    -288.890E-03     578.360E-03    -289.092E-03     21.3528E-03
              28     13.4813E-03     103.511E-03    -2.56036E+06     85.2745E+06     99.2087E+06     211.379E+03    -288.396E-03     577.848E-03    -289.452E-03     26.4166E-03    -288.778E-03     578.237E-03    -289.076E-03     21.5665E-03
              29     13.4818E-03     105.201E-03    -2.40279E+06     87.7200E+06     101.878E+06     893.878E+03    -288.401E-03     577.841E-03    -289.440E-03     26.3694E-03    -288.790E-03     578.238E-03    -289.054E-03     21.5295E-03
              30     13.4817E-03     106.892E-03    -2.85134E+06     91.9467E+06     103.363E+06     782.292E+03    -288.464E-03     577.897E-03    -289.433E-03     26.0476E-03    -288.863E-03     578.313E-03    -289.045E-03     21.1966E-03
              31     13.4817E-03     108.582E-03    -2.72605E+06     93.4040E+06     100.629E+06    -254.362E+03    -288.280E-03     577.694E-03    -289.414E-03     26.2070E-03    -288.678E-03     578.122E-03    -289.042E-03     21.3274E-03
              32     13.4822E-03     110.272E-03    -2.32448E+06     93.2708E+06     100.652E+06     282.964E+03    -288.142E-03     577.532E-03    -289.390E-03     26.6044E-03    -288.539E-03     577.960E-03    -289.018E-03     21.7190E-03
              33     13.4827E-03     111.962E-03    -2.83912E+06     95.2452E+06     104.065E+06     592.499E+03    -288.303E-03     577.663E-03    -289.359E-03     26.7551E-03    -288.711E-03     578.097E-03    -288.973E-03     21.8496E-03
              34     13.4834E-03     113.652E-03    -2.52842E+06     97.2462E+06     104.775E+06     322.576E+03    -288.341E-03     577.653E-03    -289.312E-03     26.6373E-03    -288.752E-03     578.096E-03    -288.925E-03     21.6918E-03
              35     13.4840E-03     115.342E-03    -2.72833E+06     99.2201E+06     104.456E+06     566.167E+03    -288.128E-03     577.396E-03    -289.268E-03     26.5067E-03    -288.542E-03     577.850E-03    -288.886E-03     21.5505E-03
              36     13.4845E-03     117.031E-03    -2.77857E+06     101.854E+06     106.303E+06     499.535E+03    -288.067E-03     577.299E-03    -289.231E-03     26.7015E-03    -288.489E-03     577.764E-03    -288.843E-03     21.7364E-03
              37     13.4852E-03     118.721E-03    -2.88006E+06     102.610E+06     106.264E+06    -56.9872E+03    -288.138E-03     577.316E-03    -289.177E-03     26.7792E-03    -288.563E-03     577.786E-03    -288.790E-03     21.7590E-03
              38     13.4859E-03     120.410E-03    -2.61430E+06     101.374E+06     104.917E+06    -275.400E+03    -288.137E-03     577.260E-03    -289.123E-03     26.5612E-03    -288.557E-03     577.726E-03    -288.742E-03     21.4989E-03
              39     13.4863E-03     122.100E-03    -2.55816E+06     101.249E+06     104.976E+06     243.423E+03    -288.087E-03     577.169E-03    -289.082E-03     26.5833E-03    -288.507E-03     577.635E-03    -288.700E-03     21.5243E-03
              40     13.4871E-03     123.789E-03    -2.74817E+06     102.978E+06     105.935E+06     523.999E+03    -288.056E-03     577.090E-03    -289.034E-03     26.7821E-03    -288.482E-03     577.564E-03    -288.650E-03     21.7124E-03
              41     13.4878E-03     125.478E-03    -2.65232E+06     105.759E+06     107.507E+06     727.330E+03    -288.062E-03     577.040E-03    -288.978E-03     26.8292E-03    -288.494E-03     577.527E-03    -288.590E-03     21.7300E-03
              42     13.4887E-03     127.167E-03    -2.88910E+06     108.860E+06     108.898E+06     656.729E+03    -288.002E-03     576.923E-03    -288.921E-03     26.7831E-03    -288.443E-03     577.424E-03    -288.530E-03     21.6566E-03
              43     13.4895E-03     128.856E-03    -2.83256E+06     111.239E+06     109.967E+06     420.479E+03    -287.897E-03     576.762E-03    -288.864E-03     26.7734E-03    -288.343E-03     577.273E-03    -288.472E-03     21.6251E-03
              44     13.4902E-03     130.544E-03    -2.78455E+06     113.403E+06     110.894E+06     556.964E+03    -287.828E-03     576.634E-03    -288.807E-03     26.8180E-03    -288.278E-03     577.156E-03    -288.413E-03     21.6473E-03
              45     13.4911E-03     132.233E-03    -2.93823E+06     115.781E+06     112.257E+06     551.493E+03    -287.763E-03     576.511E-03    -288.749E-03     26.8446E-03    -288.220E-03     577.044E-03    -288.351E-03     21.6477E-03
              46     13.4919E-03     133.921E-03    -2.91197E+06     117.991E+06     114.237E+06     492.970E+03    -287.726E-03     576.422E-03    -288.696E-03     26.7653E-03    -288.190E-03     576.963E-03    -288.292E-03     21.5466E-03
              47     13.4926E-03     135.609E-03    -2.94826E+06     120.350E+06     116.139E+06     559.482E+03    -287.669E-03     576.319E-03    -288.650E-03     26.6572E-03    -288.140E-03     576.870E-03    -288.240E-03     21.4194E-03
              48     13.4933E-03     137.297E-03    -3.03751E+06     122.859E+06     117.664E+06     547.282E+03    -287.528E-03     576.133E-03    -288.605E-03     26.7111E-03    -288.005E-03     576.694E-03    -288.191E-03     21.4556E-03
              49     13.4940E-03     138.985E-03    -3.13891E+06     124.654E+06     118.858E+06     302.652E+03    -287.375E-03     575.930E-03    -288.555E-03     26.7874E-03    -287.858E-03     576.500E-03    -288.137E-03     21.4984E-03
              50     13.4948E-03     140.672E-03    -3.07340E+06     125.175E+06     119.535E+06     83.0043E+03    -287.256E-03     575.759E-03    -288.503E-03     26.7503E-03    -287.741E-03     576.331E-03    -288.082E-03     21.4268E-03
              51     13.4955E-03     142.359E-03    -2.94792E+06     125.961E+06     120.456E+06     377.381E+03    -287.098E-03     575.554E-03    -288.455E-03     26.7129E-03    -287.586E-03     576.128E-03    -288.031E-03     21.3884E-03
              52     13.4962E-03     144.045E-03    -3.19847E+06     127.995E+06     122.078E+06     565.280E+03    -286.896E-03     575.309E-03    -288.413E-03     26.6913E-03    -287.390E-03     575.892E-03    -287.984E-03     21.3751E-03
              53     13.4968E-03     145.732E-03    -3.10210E+06     130.574E+06     123.801E+06     596.238E+03    -286.701E-03     575.074E-03    -288.373E-03     26.6875E-03    -287.200E-03     575.667E-03    -287.939E-03     21.3783E-03
              54     13.4975E-03     147.418E-03    -3.22180E+06     133.665E+06     125.626E+06     775.947E+03    -286.496E-03     574.831E-03    -288.335E-03     26.6954E-03    -287.003E-03     575.437E-03    -287.896E-03     21.3987E-03
              55     13.4981E-03     149.103E-03    -3.35401E+06     136.638E+06     127.218E+06     559.125E+03    -286.284E-03     574.583E-03    -288.299E-03     26.6743E-03    -286.798E-03     575.201E-03    -287.856E-03     21.3877E-03
              56     13.4987E-03     150.788E-03    -3.15476E+06     139.576E+06     128.837E+06     727.255E+03    -286.072E-03     574.337E-03    -288.265E-03     26.6945E-03    -286.591E-03     574.966E-03    -287.818E-03     21.4266E-03
              57     13.4992E-03     152.473E-03    -3.54266E+06     142.569E+06     130.352E+06     612.003E+03    -285.860E-03     574.093E-03    -288.233E-03     26.7130E-03    -286.388E-03     574.736E-03    -287.783E-03     21.4579E-03
              58     13.4997E-03     154.157E-03    -3.27101E+06     144.970E+06     132.575E+06     443.829E+03    -285.634E-03     573.836E-03    -288.203E-03     26.8327E-03    -286.166E-03     574.488E-03    -287.745E-03     21.5872E-03
              59     13.5004E-03     155.841E-03    -3.46351E+06     147.738E+06     134.952E+06     862.787E+03    -285.456E-03     573.627E-03    -288.171E-03     26.8649E-03    -285.997E-03     574.289E-03    -287.706E-03     21.6374E-03
              60     13.5008E-03     157.524E-03    -3.83906E+06     149.548E+06     135.501E+06    -32.2666E+03    -285.362E-03     573.501E-03    -288.139E-03     26.7626E-03    -285.908E-03     574.171E-03    -287.673E-03     21.5329E-03
              61     13.5012E-03     159.208E-03    -2.93461E+06     150.448E+06     136.626E+06     454.110E+03    -285.191E-03     573.303E-03    -288.112E-03     26.9165E-03    -285.735E-03     573.975E-03    -287.643E-03     21.7053E-03
              62     13.5019E-03     160.891E-03    -4.00619E+06     153.639E+06     138.430E+06     996.469E+03    -285.178E-03     573.262E-03    -288.084E-03     27.0307E-03    -285.735E-03     573.949E-03    -287.608E-03     21.8388E-03
              63     13.5019E-03     162.574E-03    -3.43021E+06     155.928E+06     138.711E+06     39.3201E+03    -285.248E-03     573.300E-03    -288.053E-03     26.9159E-03    -285.805E-03     573.997E-03    -287.580E-03     21.7161E-03
              64     13.5025E-03     164.257E-03    -3.79610E+06     155.376E+06     137.041E+06    -196.861E+03    -285.260E-03     573.285E-03    -288.025E-03     27.0639E-03    -285.815E-03     573.981E-03    -287.559E-03     21.8886E-03
              65     13.5024E-03     165.941E-03    -3.26683E+06     154.344E+06     136.129E+06    -158.573E+03    -285.505E-03     573.503E-03    -287.998E-03     27.2033E-03    -286.055E-03     574.195E-03    -287.537E-03     22.0391E-03
              66     13.5028E-03     167.625E-03    -3.84562E+06     152.207E+06     136.112E+06    -604.886E+03    -285.749E-03     573.728E-03    -287.978E-03     27.3829E-03    -286.299E-03     574.409E-03    -287.513E-03     22.2303E-03
              67     13.5030E-03     169.309E-03    -3.02559E+06     150.413E+06     136.966E+06    -35.9155E+03    -286.052E-03     574.007E-03    -287.955E-03     27.6875E-03    -286.596E-03     574.677E-03    -287.484E-03     22.5892E-03
              68     13.5034E-03     170.994E-03    -4.03936E+06     149.562E+06     136.239E+06    -221.533E+03    -286.502E-03     574.429E-03    -287.927E-03     27.7455E-03    -287.048E-03     575.096E-03    -287.456E-03     22.6687E-03
              69     13.5033E-03     172.679E-03    -2.93545E+06     148.518E+06     135.541E+06    -184.996E+03    -286.948E-03     574.849E-03    -287.901E-03     27.9830E-03    -287.486E-03     575.511E-03    -287.435E-03     22.9322E-03
              70     13.5037E-03     174.365E-03    -4.26410E+06     146.314E+06     134.818E+06    -674.927E+03    -287.600E-03     575.474E-03    -287.874E-03     28.4491E-03    -288.141E-03     576.128E-03    -287.406E-03     23.3939E-03
              71     13.5036E-03     176.053E-03    -2.82123E+06     141.651E+06     135.297E+06    -1.04844E+06    -288.452E-03     576.289E-03    -287.836E-03     28.9949E-03    -288.981E-03     576.918E-03    -287.361E-03     23.9364E-03
              72     13.5046E-03     177.742E-03    -4.34899E+06     134.541E+06     133.683E+06    -1.63856E+06    -289.457E-03     577.236E-03    -287.779E-03     29.6252E-03    -289.981E-03     577.835E-03    -287.300E-03     24.5958E-03
              73     13.5046E-03     179.433E-03    -2.40501E+06     126.948E+06     131.467E+06    -1.25627E+06    -290.848E-03     578.546E-03    -287.698E-03     30.3476E-03    -291.349E-03     579.107E-03    -287.221E-03     25.3714E-03
              74     13.5059E-03     181.126E-03      -4.802E+06     116.958E+06     125.725E+06    -2.46198E+06    -292.930E-03     580.522E-03    -287.593E-03     31.1411E-03    -293.420E-03     581.046E-03    -287.127E-03     26.2078E-03
              75     13.5056E-03     182.824E-03    -1.39796E+06     106.138E+06     121.046E+06    -1.66585E+06    -295.839E-03     583.310E-03    -287.471E-03     32.1006E-03    -296.289E-03     583.781E-03    -287.018E-03     27.2689E-03
              76     13.5069E-03     184.527E-03    -4.83094E+06     95.2745E+06     115.122E+06    -2.33034E+06    -299.220E-03     586.569E-03    -287.349E-03     32.9089E-03    -299.661E-03     586.997E-03    -286.905E-03     28.1739E-03
              77     13.5060E-03     186.237E-03    -1.88163E+06     80.6138E+06     114.562E+06    -3.22959E+06    -302.461E-03     589.702E-03    -287.241E-03     34.3119E-03    -302.863E-03     590.051E-03    -286.782E-03     29.7370E-03
              78     13.5087E-03     187.950E-03    -3.42719E+06     61.4639E+06     114.453E+06    -5.11746E+06    -305.597E-03     592.725E-03    -287.127E-03     35.6217E-03    -305.974E-03     592.976E-03    -286.639E-03     31.2978E-03
              79     13.5077E-03     189.670E-03    -724.946E+03     45.5392E+06     117.231E+06    -1.56192E+06    -307.758E-03     594.784E-03    -287.026E-03     35.9847E-03    -308.092E-03     594.938E-03    -286.505E-03     32.0793E-03
              80     13.5113E-03     191.389E-03    -4.50789E+06     35.9604E+06     112.665E+06    -1.13509E+06    -307.462E-03     594.393E-03    -286.930E-03     35.9140E-03    -307.774E-03     594.489E-03    -286.412E-03     32.8217E-03
              81     13.5105E-03     193.108E-03     238.474E+03     31.8556E+06     102.369E+06    -136.536E+03    -301.870E-03     588.764E-03    -286.895E-03     34.0359E-03    -302.095E-03     588.808E-03    -286.430E-03     32.6921E-03
              82     13.5151E-03     194.810E-03     7.24206E+06     29.1808E+06     80.2853E+06    -1.50890E+06    -271.332E-03     558.892E-03    -287.560E-03     14.5394E-03    -271.457E-03     558.923E-03    -287.212E-03     15.0590E-03
              83     12.7766E-03     196.356E-03    -19.1789E+06    -10.1055E+06     59.8121E+06    -5.77843E+06    -246.105E-03     535.446E-03    -289.341E-03    -29.3271E-03    -246.284E-03     535.377E-03    -288.999E-03    -28.2284E-03
              84     12.0521E-03     196.273E-03    -14.5520E+06    -5.01510E+06     85.7399E+06     1.03793E+06    -248.198E-03     539.691E-03    -291.494E-03    -77.2464E-03    -248.460E-03     539.673E-03    -291.037E-03    -75.6993E-03
              85     11.3453E-03     196.181E-03    -14.4046E+06     12.1779E+06     97.5196E+06    -3.43494E+06    -251.437E-03     544.832E-03    -293.395E-03    -111.016E-03    -251.808E-03     544.937E-03    -292.904E-03    -109.067E-03
              86     10.6496E-03     196.089E-03    -11.9595E+06    -1.81609E+06     97.3181E+06    -8.12132E+06    -255.104E-03     550.223E-03    -295.119E-03    -129.024E-03    -255.468E-03     550.269E-03    -294.613E-03    -127.139E-03
              87     9.96111E-03     196.000E-03    -9.00176E+06     2.91592E+06     103.756E+06    -10.5029E+06    -259.682E-03     556.406E-03    -296.723E-03    -138.011E-03    -260.057E-03     556.460E-03    -296.196E-03    -136.206E-03
              88     9.27855E-03     195.916E-03    -7.15676E+06    -466.451E+03     104.163E+06    -13.4123E+06    -265.204E-03     563.368E-03    -298.164E-03    -141.414E-03    -265.561E-03     563.391E-03    -297.632E-03    -139.743E-03
              89     8.60105E-03     195.836E-03    -4.06780E+06    -2.06358E+06     103.253E+06    -15.0029E+06    -270.901E-03     570.322E-03    -299.421E-03    -140.993E-03    -271.227E-03     570.316E-03    -298.896E-03    -139.476E-03
              90     7.92787E-03     195.761E-03    -370.332E+03    -4.13069E+06     100.716E+06    -15.3748E+06    -276.233E-03     576.731E-03    -300.498E-03    -137.657E-03    -276.516E-03     576.689E-03    -299.988E-03    -136.317E-03
              91     7.25822E-03     195.692E-03     3.25778E+06    -3.57417E+06     97.7525E+06    -15.4915E+06    -281.096E-03     582.510E-03    -301.414E-03    -131.986E-03    -281.336E-03     582.445E-03    -300.925E-03    -130.851E-03
              92     6.59143E-03     195.628E-03     6.40300E+06    -3.95200E+06     93.4029E+06    -15.4431E+06    -285.502E-03     587.687E-03    -302.185E-03    -124.494E-03    -285.698E-03     587.596E-03    -301.721E-03    -123.572E-03
              93     5.92698E-03     195.570E-03     9.43296E+06    -4.06178E+06     87.9465E+06    -15.3293E+06    -289.420E-03     592.242E-03    -302.822E-03    -115.641E-03    -289.572E-03     592.131E-03    -302.390E-03    -114.933E-03
              94     5.26438E-03     195.518E-03     12.8056E+06    -4.38221E+06     81.5875E+06    -15.3078E+06    -292.843E-03     596.181E-03    -303.338E-03    -105.756E-03    -292.950E-03     596.053E-03    -302.942E-03    -105.268E-03
              95     4.60329E-03     195.471E-03     16.4637E+06    -4.41613E+06     74.7779E+06    -15.2971E+06    -295.795E-03     599.540E-03    -303.744E-03    -95.0241E-03    -295.858E-03     599.398E-03    -303.388E-03    -94.7462E-03
              96     3.94349E-03     195.431E-03     20.2574E+06    -5.16243E+06     67.4241E+06    -15.1582E+06    -298.293E-03     602.343E-03    -304.050E-03    -83.4715E-03    -298.313E-03     602.189E-03    -303.735E-03    -83.3836E-03
              97     3.28480E-03     195.397E-03     24.3621E+06    -5.74441E+06     59.7490E+06    -14.8012E+06    -300.340E-03     604.604E-03    -304.264E-03    -71.0811E-03    -300.320E-03     604.442E-03    -303.992E-03    -71.1562E-03
              98     2.62695E-03     195.368E-03     28.5216E+06    -7.65332E+06     53.1917E+06    -13.7197E+06    -301.945E-03     606.351E-03    -304.406E-03    -57.9517E-03    -301.887E-03     606.176E-03    -304.170E-03    -58.1493E-03
              99     1.96971E-03     195.346E-03     31.9654E+06    -9.64947E+06     47.3353E+06    -11.4167E+06    -303.123E-03     607.608E-03    -304.485E-03    -44.2543E-03    -303.035E-03     607.423E-03    -304.280E-03    -44.5273E-03
             100     1.31289E-03     195.330E-03     34.0331E+06    -10.1548E+06     41.3932E+06    -8.46442E+06    -303.910E-03     608.415E-03    -304.505E-03    -30.1933E-03    -303.803E-03     608.232E-03    -304.333E-03    -30.4904E-03
             101     656.392E-06     195.320E-03     35.5192E+06    -12.2730E+06     34.1037E+06    -5.13800E+06    -304.400E-03     608.794E-03    -304.394E-03    -16.8668E-03    -304.273E-03     608.609E-03    -304.257E-03    -17.1279E-03
             102     993.437E-09     193.573E-03    -3.05786E+06    -28.0750E+06    -2.06584E+06    -3.94355E+06    -296.050E-03     591.330E-03    -295.280E-03    -7.57840E-03    -296.035E-03     591.184E-03    -295.245E-03    -7.51793E-03
             103    -99.4303E-09     191.890E-03    -82.1670E+06    -66.0661E+06    -79.4265E+06    -6.25486E+06    -283.137E-03     565.538E-03    -282.401E-03    -2.40044E-03    -283.341E-03     565.439E-03    -282.583E-03    -2.04260E-03
             104     243.927E-09     190.234E-03    -164.757E+06    -112.640E+06    -164.720E+06    -6.53022E+06    -277.914E-03     555.537E-03    -277.623E-03     1.05164E-03    -278.336E-03     555.451E-03    -278.044E-03     1.51419E-03
             105     9.32183E-09     188.584E-03    -210.392E+06    -152.306E+06    -210.161E+06    -4.53093E+06    -277.641E-03     555.017E-03    -277.376E-03     2.65875E-03    -278.167E-03     554.865E-03    -277.901E-03     3.18518E-03
             106     94.0891E-09     186.931E-03    -181.131E+06    -176.602E+06    -181.883E+06    -1.98202E+06    -278.999E-03     557.818E-03    -278.819E-03     2.81802E-03    -279.385E-03     557.461E-03    -279.210E-03     3.30218E-03
             107     33.9804E-09     185.272E-03    -136.353E+06    -186.576E+06    -136.222E+06    -762.008E+03    -280.185E-03     560.178E-03    -279.993E-03     2.61065E-03    -280.399E-03     559.640E-03    -280.206E-03     3.03637E-03
             108     94.7674E-09     183.612E-03    -126.370E+06    -194.985E+06    -126.432E+06    -1.61081E+06    -280.783E-03     561.348E-03    -280.564E-03     2.51478E-03    -280.949E-03     560.739E-03    -280.731E-03     2.86894E-03
             109     67.9596E-09     181.950E-03    -132.636E+06    -208.543E+06    -132.501E+06    -2.14398E+06    -281.197E-03     562.158E-03    -280.961E-03     2.54626E-03    -281.365E-03     561.499E-03    -281.129E-03     2.85188E-03
             110     85.1855E-09     180.287E-03    -140.326E+06    -224.367E+06    -140.431E+06    -2.19757E+06    -281.737E-03     563.257E-03    -281.520E-03     2.60823E-03    -281.909E-03     562.541E-03    -281.693E-03     2.88633E-03
             111     50.4668E-09     178.621E-03    -146.618E+06    -239.142E+06    -146.602E+06    -1.83264E+06    -282.499E-03     564.821E-03    -282.322E-03     2.61582E-03    -282.673E-03     564.050E-03    -282.495E-03     2.88472E-03
             112     49.1625E-09     176.953E-03    -150.700E+06    -251.570E+06    -150.799E+06    -1.54158E+06    -283.432E-03     566.730E-03    -283.298E-03     2.55487E-03    -283.601E-03     565.909E-03    -283.469E-03     2.82157E-03
             113     26.1577E-09     175.282E-03    -153.123E+06    -261.803E+06    -153.150E+06    -1.22156E+06    -284.438E-03     568.779E-03    -284.341E-03     2.44261E-03    -284.601E-03     567.914E-03    -284.505E-03     2.71206E-03
             114     24.1960E-09     173.607E-03    -153.902E+06    -270.061E+06    -153.981E+06    -1.00387E+06    -285.432E-03     570.798E-03    -285.366E-03     2.31085E-03    -285.587E-03     569.894E-03    -285.522E-03     2.58390E-03
             115     9.35603E-09     171.929E-03    -153.419E+06    -276.668E+06    -153.460E+06    -765.451E+03    -286.364E-03     572.686E-03    -286.322E-03     2.17455E-03    -286.507E-03     571.747E-03    -286.466E-03     2.45408E-03
             116     8.79115E-09     170.247E-03    -151.591E+06    -281.481E+06    -151.671E+06    -522.793E+03    -287.198E-03     574.369E-03    -287.172E-03     2.03893E-03    -287.328E-03     573.402E-03    -287.302E-03     2.32553E-03
             117     4.41261E-09     168.564E-03    -149.181E+06    -284.772E+06    -149.208E+06    -357.581E+03    -287.906E-03     575.795E-03    -287.888E-03     1.91487E-03    -288.023E-03     574.803E-03    -288.005E-03     2.20603E-03
             118     3.64568E-09     166.878E-03    -146.570E+06    -286.812E+06    -146.642E+06    -187.031E+03    -288.483E-03     576.951E-03    -288.469E-03     1.81339E-03    -288.587E-03     575.942E-03    -288.573E-03     2.10796E-03
             119     3.65415E-09     165.190E-03    -144.773E+06    -287.515E+06    -144.797E+06    -3.18537E+03    -288.936E-03     577.859E-03    -288.923E-03     1.73776E-03    -289.033E-03     576.841E-03    -289.021E-03     2.03475E-03
             120     2.69645E-09     163.501E-03    -143.829E+06    -287.229E+06    -143.869E+06     78.1272E+03    -289.278E-03     578.543E-03    -289.265E-03     1.68260E-03    -289.372E-03     577.524E-03    -289.359E-03     1.97870E-03
             121     5.86160E-09     161.811E-03    -143.276E+06    -286.496E+06    -143.287E+06     111.478E+03    -289.519E-03     579.021E-03    -289.502E-03     1.64343E-03    -289.612E-03     578.004E-03    -289.595E-03     1.93603E-03
             122     5.41587E-09     160.121E-03    -142.939E+06    -285.661E+06    -142.965E+06     106.547E+03    -289.665E-03     579.309E-03    -289.644E-03     1.62016E-03    -289.759E-03     578.295E-03    -289.737E-03     1.90740E-03
             123     10.0675E-09     158.430E-03    -142.756E+06    -284.928E+06    -142.759E+06      79.302E+03    -289.729E-03     579.429E-03    -289.701E-03     1.60911E-03    -289.822E-03     578.418E-03    -289.794E-03     1.88965E-03
             124     9.95114E-09     156.739E-03    -142.379E+06    -284.424E+06    -142.399E+06     46.9390E+03    -289.722E-03     579.409E-03    -289.687E-03     1.61007E-03    -289.815E-03     578.400E-03    -289.780E-03     1.88327E-03
             125     14.6944E-09     155.048E-03    -141.829E+06    -284.015E+06    -141.838E+06     50.6727E+03    -289.660E-03     579.278E-03    -289.618E-03     1.61851E-03    -289.751E-03     578.269E-03    -289.710E-03     1.88473E-03
             126     14.7118E-09     153.357E-03    -141.185E+06    -283.616E+06    -141.199E+06     45.0118E+03    -289.555E-03     579.062E-03    -289.507E-03     1.63456E-03    -289.645E-03     578.053E-03    -289.597E-03     1.89381E-03
             127     18.1542E-09     151.667E-03    -140.456E+06    -283.158E+06    -140.466E+06     63.3951E+03    -289.422E-03     578.789E-03    -289.367E-03     1.65398E-03    -289.510E-03     577.781E-03    -289.455E-03     1.90670E-03
             128     21.7271E-09     149.977E-03    -139.674E+06    -282.578E+06    -139.688E+06     77.2732E+03    -289.271E-03     578.485E-03    -289.214E-03     1.67909E-03    -289.358E-03     577.478E-03    -289.300E-03     1.92556E-03
             129     13.3239E-09     148.288E-03    -138.828E+06    -281.898E+06    -138.798E+06     87.5949E+03    -289.106E-03     578.175E-03    -289.068E-03     1.70556E-03    -289.190E-03     577.168E-03    -289.152E-03     1.94547E-03
             130     436.438E-12     146.599E-03    -137.998E+06    -281.106E+06    -137.928E+06     120.130E+03    -288.961E-03     577.879E-03    -288.918E-03     1.72169E-03    -289.043E-03     576.873E-03    -289.000E-03     1.95614E-03
             131     41.1241E-09     144.911E-03    -137.012E+06    -280.029E+06    -137.047E+06     156.761E+03    -288.842E-03     577.594E-03    -288.752E-03     1.73619E-03    -288.922E-03     576.592E-03    -288.833E-03     1.96814E-03
             132     35.7871E-09     143.224E-03    -136.037E+06    -278.777E+06    -136.133E+06     148.448E+03    -288.706E-03     577.323E-03    -288.617E-03     1.76909E-03    -288.785E-03     576.324E-03    -288.696E-03     1.99615E-03
             133     3.95776E-09     141.536E-03    -135.416E+06    -277.566E+06    -135.251E+06     169.698E+03    -288.587E-03     577.105E-03    -288.518E-03     1.78384E-03    -288.666E-03     576.110E-03    -288.595E-03     2.00535E-03
             134     48.8536E-09     139.849E-03    -134.659E+06    -276.324E+06    -134.521E+06     168.559E+03    -288.533E-03     576.961E-03    -288.428E-03     1.80124E-03    -288.611E-03     575.970E-03    -288.505E-03     2.01944E-03
             135     38.6367E-09     138.163E-03    -133.649E+06    -274.879E+06    -133.629E+06     224.121E+03    -288.488E-03     576.875E-03    -288.388E-03     1.83079E-03    -288.563E-03     575.888E-03    -288.464E-03     2.04843E-03
             136     5.88785E-09     136.476E-03    -132.691E+06    -273.320E+06    -132.658E+06     185.816E+03    -288.466E-03     576.845E-03    -288.379E-03     1.83237E-03    -288.541E-03     575.863E-03    -288.453E-03     2.04749E-03
             137     64.9989E-09     134.789E-03    -131.731E+06    -271.701E+06    -131.793E+06     243.775E+03    -288.494E-03     576.874E-03    -288.380E-03     1.84639E-03    -288.567E-03     575.898E-03    -288.454E-03     2.06021E-03
             138     13.9838E-09     133.103E-03    -130.621E+06    -269.971E+06    -130.918E+06     221.299E+03    -288.530E-03     576.951E-03    -288.422E-03     1.85785E-03    -288.601E-03     575.981E-03    -288.495E-03     2.06910E-03
             139     47.4712E-09     131.416E-03    -130.161E+06    -268.185E+06    -129.932E+06     246.795E+03    -288.573E-03     577.055E-03    -288.482E-03     1.85692E-03    -288.646E-03     576.091E-03    -288.554E-03     2.06498E-03
             140     12.5395E-09     129.729E-03    -129.211E+06    -266.289E+06    -129.106E+06     254.954E+03    -288.625E-03     577.173E-03    -288.548E-03     1.85530E-03    -288.697E-03     576.216E-03    -288.620E-03     2.06113E-03
             141     28.9793E-09     128.041E-03    -128.200E+06    -264.570E+06    -128.439E+06     187.105E+03    -288.685E-03     577.307E-03    -288.622E-03     1.85049E-03    -288.756E-03     576.356E-03    -288.694E-03     2.05389E-03
             142     10.4458E-09     126.354E-03    -127.477E+06    -262.969E+06    -127.566E+06     208.469E+03    -288.759E-03     577.455E-03    -288.697E-03     1.84312E-03    -288.830E-03     576.510E-03    -288.768E-03     2.04414E-03
             143     30.6430E-09     124.666E-03    -126.396E+06    -261.422E+06    -126.491E+06     177.019E+03    -288.841E-03     577.616E-03    -288.775E-03     1.84320E-03    -288.911E-03     576.676E-03    -288.845E-03     2.04058E-03
             144     14.0098E-09     122.978E-03    -125.692E+06    -259.837E+06    -125.663E+06     235.272E+03    -288.947E-03     577.828E-03    -288.881E-03     1.86218E-03    -289.016E-03     576.893E-03    -288.950E-03     2.06003E-03
             145     27.6883E-09     121.289E-03    -125.263E+06    -257.965E+06    -125.305E+06     264.139E+03    -289.084E-03     578.103E-03    -289.018E-03     1.87185E-03    -289.155E-03     577.176E-03    -289.089E-03     2.07061E-03
             146     15.9888E-09     119.600E-03    -124.803E+06    -255.968E+06    -124.793E+06     260.237E+03    -289.215E-03     578.365E-03    -289.150E-03     1.85599E-03    -289.287E-03     577.447E-03    -289.222E-03     2.05340E-03
             147     24.6209E-09     117.910E-03    -124.320E+06    -254.000E+06    -124.365E+06     254.897E+03    -289.301E-03     578.540E-03    -289.238E-03     1.83008E-03    -289.374E-03     577.630E-03    -289.312E-03     2.02524E-03
             148     16.6743E-09     116.220E-03    -124.028E+06    -252.164E+06    -124.003E+06     223.551E+03    -289.349E-03     578.635E-03    -289.286E-03     1.81566E-03    -289.424E-03     577.734E-03    -289.360E-03     2.00923E-03
             149     25.0923E-09     114.531E-03    -124.111E+06    -251.476E+06    -124.077E+06    -49.8069E+03    -289.389E-03     578.712E-03    -289.323E-03     1.81874E-03    -289.465E-03     577.815E-03    -289.399E-03     2.00833E-03
             150     20.3209E-09     112.841E-03    -123.580E+06    -251.624E+06    -123.646E+06     10.6090E+03    -289.440E-03     578.811E-03    -289.372E-03     1.82183E-03    -289.513E-03     577.912E-03    -289.446E-03     2.01201E-03
             151     22.6676E-09     111.150E-03    -122.636E+06    -250.568E+06    -122.655E+06     261.703E+03    -289.488E-03     578.911E-03    -289.423E-03     1.81708E-03    -289.560E-03     578.014E-03    -289.495E-03     2.01044E-03
             152     18.4083E-09     109.460E-03    -122.091E+06    -248.829E+06    -122.075E+06     189.733E+03    -289.522E-03     578.983E-03    -289.461E-03     1.81055E-03    -289.595E-03     578.093E-03    -289.533E-03     2.00244E-03
             153     20.3013E-09     107.769E-03    -121.606E+06    -247.304E+06    -121.646E+06     210.313E+03    -289.545E-03     579.027E-03    -289.483E-03     1.80134E-03    -289.618E-03     578.144E-03    -289.556E-03     1.99381E-03
             154     21.7082E-09     106.079E-03    -121.778E+06    -245.714E+06    -121.758E+06     202.797E+03    -289.555E-03     579.044E-03    -289.490E-03     1.79443E-03    -289.631E-03     578.169E-03    -289.566E-03     1.98677E-03
             155     21.2103E-09     104.388E-03    -121.918E+06    -244.533E+06    -121.930E+06     103.929E+03    -289.556E-03     579.046E-03    -289.491E-03     1.79408E-03    -289.634E-03     578.177E-03    -289.569E-03     1.98443E-03
             156     20.9082E-09     102.698E-03    -121.969E+06    -243.628E+06    -121.982E+06     130.122E+03    -289.553E-03     579.041E-03    -289.488E-03     1.79141E-03    -289.633E-03     578.177E-03    -289.568E-03     1.98203E-03
             157     21.2227E-09     101.007E-03    -121.758E+06    -242.698E+06    -121.755E+06     107.563E+03    -289.548E-03     579.032E-03    -289.483E-03     1.79101E-03    -289.629E-03     578.171E-03    -289.564E-03     1.98127E-03
             158     21.7004E-09     99.3167E-03    -121.228E+06    -242.006E+06    -121.236E+06     70.7330E+03    -289.546E-03     579.026E-03    -289.480E-03     1.79254E-03    -289.625E-03     578.168E-03    -289.560E-03     1.98210E-03
             159     20.8146E-09     95.9356E-03    -120.323E+06    -240.583E+06    -120.325E+06     99.8117E+03    -289.546E-03     579.028E-03    -289.482E-03     1.79549E-03    -289.624E-03     578.174E-03    -289.560E-03     1.98527E-03
             160     20.4144E-09     94.2450E-03    -120.068E+06    -239.822E+06    -120.079E+06     96.4659E+03    -289.548E-03     579.031E-03    -289.484E-03     1.79460E-03    -289.626E-03     578.180E-03    -289.562E-03     1.98456E-03
             161     21.7506E-09     92.5544E-03    -119.940E+06    -239.090E+06    -119.943E+06     92.1805E+03    -289.550E-03     579.037E-03    -289.487E-03     1.79653E-03    -289.629E-03     578.189E-03    -289.566E-03     1.98615E-03
             162     19.1162E-09     90.8638E-03    -119.901E+06    -238.428E+06    -119.909E+06     78.8190E+03    -289.554E-03     579.045E-03    -289.492E-03     1.79699E-03    -289.633E-03     578.201E-03    -289.571E-03     1.98630E-03
             163     20.8302E-09     89.1732E-03    -119.910E+06    -237.842E+06    -119.915E+06     72.8378E+03    -289.557E-03     579.052E-03    -289.495E-03     1.79434E-03    -289.638E-03     578.210E-03    -289.575E-03     1.98400E-03
             164     20.8124E-09     87.4826E-03    -119.984E+06    -237.386E+06    -119.986E+06     42.5369E+03    -289.560E-03     579.057E-03    -289.497E-03     1.79507E-03    -289.642E-03     578.218E-03    -289.578E-03     1.98404E-03
             165     20.4297E-09     85.7919E-03    -120.029E+06    -237.006E+06    -120.044E+06     57.5914E+03    -289.565E-03     579.066E-03    -289.502E-03     1.79665E-03    -289.647E-03     578.229E-03    -289.584E-03     1.98580E-03
             166     20.4673E-09     84.1013E-03    -119.958E+06    -236.618E+06    -119.953E+06     40.5403E+03    -289.570E-03     579.076E-03    -289.507E-03     1.79712E-03    -289.653E-03     578.241E-03    -289.589E-03     1.98569E-03
             167     21.2776E-09     82.4106E-03    -120.113E+06    -236.578E+06    -120.112E+06    -32.6385E+03    -289.575E-03     579.085E-03    -289.511E-03     1.80132E-03    -289.658E-03     578.251E-03    -289.594E-03     1.98822E-03
             168     20.0508E-09     80.7199E-03    -120.193E+06    -236.624E+06    -120.221E+06     19.3755E+03    -289.581E-03     579.099E-03    -289.518E-03     1.80413E-03    -289.665E-03     578.265E-03    -289.602E-03     1.99152E-03
             169     21.3173E-09     79.0291E-03    -120.029E+06    -236.327E+06    -120.024E+06     54.3911E+03    -289.590E-03     579.116E-03    -289.526E-03     1.80613E-03    -289.673E-03     578.283E-03    -289.610E-03     1.99380E-03
             170     20.3523E-09     77.3384E-03    -119.984E+06    -236.116E+06    -119.989E+06         121.493    -289.598E-03     579.134E-03    -289.536E-03     1.80983E-03    -289.682E-03     578.302E-03    -289.619E-03     1.99620E-03
             171     19.6918E-09     75.6476E-03    -119.995E+06    -236.080E+06    -120.005E+06     7.07502E+03    -289.607E-03     579.155E-03    -289.547E-03     1.81408E-03    -289.691E-03     578.322E-03    -289.631E-03     2.00014E-03
             172     18.2801E-09     73.9567E-03    -120.015E+06    -235.987E+06    -120.021E+06     14.7335E+03    -289.616E-03     579.172E-03    -289.556E-03     1.81373E-03    -289.700E-03     578.340E-03    -289.640E-03     1.99991E-03
             173     21.7082E-09     72.2659E-03    -119.977E+06    -235.868E+06    -119.986E+06     12.1956E+03    -289.623E-03     579.182E-03    -289.559E-03     1.81329E-03    -289.707E-03     578.351E-03    -289.643E-03     1.99920E-03
             174     22.4485E-09     70.5750E-03    -119.899E+06    -235.728E+06    -119.907E+06     24.7575E+03    -289.632E-03     579.196E-03    -289.564E-03     1.81938E-03    -289.716E-03     578.365E-03    -289.648E-03     2.00503E-03
             175     22.8597E-09     68.8841E-03    -119.872E+06    -235.560E+06    -119.876E+06     13.8930E+03    -289.644E-03     579.219E-03    -289.576E-03     1.82526E-03    -289.728E-03     578.389E-03    -289.660E-03     2.00970E-03
             176     21.0673E-09     67.1931E-03    -119.825E+06    -235.370E+06    -119.842E+06     37.6429E+03    -289.657E-03     579.247E-03    -289.590E-03     1.82878E-03    -289.741E-03     578.417E-03    -289.674E-03     2.01315E-03
             177     23.0559E-09     65.5021E-03    -119.759E+06    -235.211E+06    -119.747E+06    -2.89748E+03    -289.671E-03     579.273E-03    -289.602E-03     1.83106E-03    -289.755E-03     578.444E-03    -289.686E-03     2.01455E-03
             178     23.1541E-09     63.8111E-03    -119.915E+06    -235.470E+06    -119.921E+06    -68.9613E+03    -289.690E-03     579.309E-03    -289.619E-03     1.84097E-03    -289.774E-03     578.479E-03    -289.703E-03     2.02303E-03
             179     23.3022E-09     62.1200E-03    -119.611E+06    -235.852E+06    -119.625E+06    -33.7097E+03    -289.722E-03     579.373E-03    -289.651E-03     1.85103E-03    -289.805E-03     578.541E-03    -289.734E-03     2.03298E-03
             180     22.7659E-09     60.4287E-03    -119.099E+06    -236.090E+06    -119.102E+06    -34.1972E+03    -289.759E-03     579.448E-03    -289.689E-03     1.85594E-03    -289.840E-03     578.613E-03    -289.769E-03     2.03647E-03
             181     22.8219E-09     58.7373E-03    -119.297E+06    -235.985E+06    -119.330E+06     59.3370E+03    -289.799E-03     579.527E-03    -289.728E-03     1.86799E-03    -289.880E-03     578.693E-03    -289.809E-03     2.04881E-03
             182     24.1744E-09     57.0458E-03    -119.893E+06    -235.295E+06    -119.889E+06     120.274E+03    -289.849E-03     579.626E-03    -289.777E-03     1.88353E-03    -289.933E-03     578.797E-03    -289.861E-03     2.06371E-03
             183     22.9377E-09     55.3541E-03    -120.727E+06    -234.625E+06    -120.731E+06     54.8973E+03    -289.905E-03     579.739E-03    -289.834E-03     1.89699E-03    -289.994E-03     578.916E-03    -289.922E-03     2.07381E-03
             184     23.4722E-09     53.6622E-03    -121.316E+06    -234.343E+06    -121.319E+06     16.2321E+03    -289.963E-03     579.854E-03    -289.891E-03     1.90844E-03    -290.054E-03     579.034E-03    -289.982E-03     2.08173E-03
             185     24.7209E-09     51.9700E-03    -121.193E+06    -234.430E+06    -121.187E+06    -43.6936E+03    -290.028E-03     579.982E-03    -289.954E-03     1.92718E-03    -290.119E-03     579.161E-03    -290.044E-03     2.09607E-03
             186     24.5323E-09     50.2777E-03    -120.751E+06    -234.828E+06    -120.754E+06    -62.9518E+03    -290.115E-03     580.157E-03    -290.042E-03     1.95951E-03    -290.203E-03     579.333E-03    -290.130E-03     2.12544E-03
             187     21.5689E-09     48.5849E-03    -120.198E+06    -235.227E+06    -120.198E+06    -41.9787E+03    -290.240E-03     580.409E-03    -290.170E-03     1.99438E-03    -290.325E-03     579.581E-03    -290.255E-03     2.15971E-03
             188     23.5063E-09     46.8917E-03    -119.514E+06    -235.387E+06    -119.531E+06     1.39610E+03    -290.398E-03     580.724E-03    -290.327E-03     2.02305E-03    -290.481E-03     579.894E-03    -290.410E-03     2.18750E-03
             189     23.8506E-09     45.1979E-03    -118.993E+06    -235.191E+06    -119.002E+06     50.4481E+03    -290.570E-03     581.065E-03    -290.495E-03     2.04899E-03    -290.652E-03     580.234E-03    -290.576E-03     2.21089E-03
             190     27.3762E-09     43.5036E-03    -118.739E+06    -234.755E+06    -118.746E+06     64.1456E+03    -290.751E-03     581.421E-03    -290.669E-03     2.08196E-03    -290.833E-03     580.591E-03    -290.750E-03     2.23978E-03
             191     28.5963E-09     41.8086E-03    -118.724E+06    -234.258E+06    -118.724E+06     70.0163E+03    -290.955E-03     581.819E-03    -290.864E-03     2.13016E-03    -291.036E-03     580.992E-03    -290.946E-03     2.28357E-03
             192     33.9781E-09     40.1128E-03    -118.976E+06    -233.838E+06    -118.971E+06     41.9190E+03    -291.198E-03     582.296E-03    -291.097E-03     2.19223E-03    -291.282E-03     581.471E-03    -291.180E-03     2.33980E-03
             193     36.1683E-09     38.4162E-03    -119.356E+06    -233.574E+06    -119.358E+06     32.5245E+03    -291.497E-03     582.880E-03    -291.383E-03     2.26676E-03    -291.582E-03     582.059E-03    -291.468E-03     2.40749E-03
             194     43.1260E-09     36.7185E-03    -119.725E+06    -233.485E+06    -119.709E+06    -8.24016E+03    -291.865E-03     583.600E-03    -291.736E-03     2.35572E-03    -291.951E-03     582.780E-03    -291.822E-03     2.48720E-03
             195     47.4602E-09     35.0194E-03    -120.094E+06    -233.571E+06    -120.097E+06    -11.0515E+03    -292.323E-03     584.503E-03    -292.180E-03     2.47068E-03    -292.411E-03     583.683E-03    -292.267E-03     2.59147E-03
             196     50.3037E-09     33.3185E-03    -120.098E+06    -233.303E+06    -120.103E+06     90.2420E+03    -292.896E-03     585.646E-03    -292.749E-03     2.60697E-03    -292.984E-03     584.827E-03    -292.837E-03     2.71788E-03
             197     44.7660E-09     31.6155E-03    -119.914E+06    -232.725E+06    -119.898E+06     67.9925E+03    -293.576E-03     587.024E-03    -293.448E-03     2.74470E-03    -293.664E-03     586.208E-03    -293.536E-03     2.84284E-03
             198     26.9783E-09     29.9100E-03    -119.976E+06    -232.417E+06    -119.998E+06     24.6938E+03    -294.307E-03     588.534E-03    -294.227E-03     2.85436E-03    -294.396E-03     587.720E-03    -294.316E-03     2.94098E-03
             199     1.83407E-09     28.2017E-03    -119.886E+06    -232.173E+06    -119.917E+06     45.4330E+03    -294.998E-03     589.984E-03    -294.986E-03     2.90405E-03    -295.087E-03     589.171E-03    -295.075E-03     2.98506E-03
             200    -20.4596E-09     26.4912E-03    -119.797E+06    -231.905E+06    -119.846E+06     26.1697E+03    -295.531E-03     591.110E-03    -295.580E-03     2.87916E-03    -295.620E-03     590.298E-03    -295.669E-03     2.95723E-03
             201    -32.8624E-09     24.7791E-03    -119.405E+06    -231.909E+06    -119.458E+06    -32.6364E+03    -295.782E-03     591.689E-03    -295.907E-03     2.82291E-03    -295.869E-03     590.876E-03    -295.995E-03     2.89577E-03
             202    -87.7234E-09     23.0666E-03    -118.590E+06    -232.210E+06    -118.672E+06    -55.3943E+03    -295.635E-03     591.471E-03    -295.835E-03     2.65182E-03    -295.719E-03     590.654E-03    -295.920E-03     2.72712E-03
             203    -65.4188E-09     21.3553E-03    -117.470E+06    -232.362E+06    -117.580E+06    -9.51744E+03    -294.970E-03     590.151E-03    -295.181E-03     2.38493E-03    -295.050E-03     589.330E-03    -295.262E-03     2.46000E-03
             204    -69.3372E-09     19.6474E-03    -116.211E+06    -232.467E+06    -116.333E+06    -54.7341E+03    -293.646E-03     587.504E-03    -293.858E-03     2.06588E-03    -293.722E-03     586.679E-03    -293.934E-03     2.12468E-03
             205    -82.4271E-09     17.9452E-03    -115.406E+06    -232.461E+06    -115.612E+06     11.7491E+03    -291.504E-03     583.247E-03    -291.743E-03     1.59213E-03    -291.577E-03     582.420E-03    -291.817E-03     1.62719E-03
             206    -88.8414E-09     16.2519E-03    -114.953E+06    -231.803E+06    -115.149E+06     94.4118E+03    -288.371E-03     577.003E-03    -288.631E-03     961.100E-06    -288.443E-03     576.177E-03    -288.704E-03     954.999E-06
             207    -88.8929E-09     14.5711E-03    -114.664E+06    -230.871E+06    -114.898E+06     78.5179E+03    -284.106E-03     568.465E-03    -284.360E-03     194.207E-06    -284.179E-03     567.643E-03    -284.433E-03     122.024E-06
             208    -71.8666E-09     12.9068E-03    -114.580E+06    -229.495E+06    -114.780E+06     206.438E+03    -278.715E-03     557.632E-03    -278.917E-03    -595.647E-06    -278.790E-03     556.815E-03    -278.992E-03    -758.286E-06
             209    -32.4250E-09     11.2622E-03    -115.072E+06    -227.582E+06    -114.973E+06     206.353E+03    -272.654E-03     545.432E-03    -272.778E-03    -1.03713E-03    -272.734E-03     544.626E-03    -272.856E-03    -1.30122E-03
             210    -21.3067E-09     9.63822E-03    -116.989E+06    -226.668E+06    -116.469E+06     1.57788E+03    -267.122E-03     534.355E-03    -267.233E-03    -661.185E-06    -267.211E-03     533.559E-03    -267.317E-03    -983.432E-06
             211    -64.5789E-09     8.02981E-03    -119.346E+06    -228.455E+06    -118.638E+06    -422.875E+03    -263.560E-03     527.315E-03    -263.755E-03     342.034E-06    -263.654E-03     526.518E-03    -263.844E-03     36.5233E-06
             212    -110.321E-09     6.42835E-03    -114.325E+06    -232.794E+06    -113.956E+06    -682.772E+03    -262.451E-03     525.222E-03    -262.772E-03     1.18124E-03    -262.520E-03     524.390E-03    -262.838E-03     936.423E-06
             213    -155.609E-09     4.82646E-03    -97.8747E+06    -236.589E+06    -97.8433E+06    -316.052E+03    -263.025E-03     526.494E-03    -263.469E-03     1.41354E-03    -263.030E-03     525.595E-03    -263.474E-03     1.23795E-03
             214    -192.953E-09     3.22093E-03    -80.3526E+06    -237.345E+06    -80.4161E+06     131.761E+03    -264.146E-03     528.846E-03    -264.700E-03     1.15672E-03    -264.087E-03     527.892E-03    -264.642E-03     1.04461E-03
             215    -225.256E-09     1.61159E-03    -69.1927E+06    -236.068E+06    -69.2839E+06     248.067E+03    -265.053E-03     530.741E-03    -265.688E-03     635.613E-06    -264.956E-03     529.761E-03    -265.591E-03     581.582E-06
             216     689.935E-06     416.334E-18    -64.9842E+06    -232.961E+06    -64.7862E+06     267.257E+03    -265.674E-03     531.602E-03    -265.928E-03     554.432E-06    -265.567E-03     530.625E-03    -265.820E-03     509.383E-06
             217     1.37971E-03     416.334E-18    -64.8799E+06    -226.606E+06    -64.1038E+06     331.838E+03    -266.183E-03     532.057E-03    -265.874E-03     1.02908E-03    -266.086E-03     531.111E-03    -265.772E-03     942.877E-06
             218     2.06916E-03     416.334E-18    -64.6469E+06    -216.390E+06    -63.0992E+06     291.623E+03    -266.758E-03     532.818E-03    -266.060E-03     1.54148E-03    -266.676E-03     531.921E-03    -265.968E-03     1.40868E-03
             219     2.75811E-03     416.334E-18    -64.2241E+06    -202.292E+06    -61.7862E+06     137.116E+03    -267.586E-03     533.909E-03    -266.323E-03     2.07765E-03    -267.525E-03     533.081E-03    -266.246E-03     1.89378E-03
             220     3.44639E-03     416.334E-18    -63.5284E+06    -184.327E+06    -60.2546E+06    -204.107E+03    -268.685E-03     535.352E-03    -266.667E-03     2.63625E-03    -268.648E-03     534.610E-03    -266.609E-03     2.39493E-03
             221     4.13380E-03     416.334E-18    -62.4603E+06    -162.326E+06    -58.5353E+06    -680.297E+03    -270.075E-03     537.170E-03    -267.096E-03     3.22381E-03    -270.068E-03     536.535E-03    -267.062E-03     2.91814E-03
             222     4.82011E-03     416.334E-18    -60.8212E+06    -136.463E+06    -56.7526E+06    -1.64164E+06    -271.784E-03     539.398E-03    -267.614E-03     3.85520E-03    -271.809E-03     538.887E-03    -267.611E-03     3.47140E-03
             223     5.50512E-03     416.334E-18    -58.2209E+06    -106.659E+06    -54.8847E+06    -3.25996E+06    -273.850E-03     542.076E-03    -268.227E-03     4.52655E-03    -273.909E-03     541.709E-03    -268.262E-03     4.04528E-03
             224     6.18857E-03     416.334E-18    -54.1783E+06    -71.7936E+06    -52.5823E+06    -5.56669E+06    -276.322E-03     545.264E-03    -268.942E-03     5.25272E-03    -276.415E-03     545.063E-03    -269.023E-03     4.65208E-03
             225     6.87015E-03     416.334E-18    -49.2638E+06    -28.0265E+06    -48.8501E+06    -5.92804E+06    -279.269E-03     549.041E-03    -269.772E-03     6.02934E-03    -279.408E-03     549.047E-03    -269.904E-03     5.32313E-03
             226     7.54952E-03     416.334E-18    -45.6716E+06     2.10280E+06    -37.8061E+06    -1.70793E+06    -282.854E-03     553.651E-03    -270.797E-03     6.96308E-03    -283.035E-03     553.788E-03    -270.923E-03     6.20125E-03
             227     8.22594E-03     416.334E-18    -43.5988E+06     12.0772E+06    -21.7050E+06    -21.7136E+03    -287.183E-03     559.222E-03    -272.039E-03     8.31724E-03    -287.394E-03     559.385E-03    -272.102E-03     7.43118E-03
             228     8.89915E-03     416.334E-18    -39.8948E+06     23.1451E+06    -10.1956E+06    -4.31287E+06    -292.353E-03     565.787E-03    -273.434E-03     9.85872E-03    -292.581E-03     565.986E-03    -273.461E-03     8.70123E-03
             229     9.56896E-03     416.334E-18    -33.1648E+06     38.3022E+06     7.48099E+06    -6.13541E+06    -298.690E-03     573.751E-03    -275.061E-03     11.4186E-03    -298.935E-03     573.994E-03    -275.031E-03     9.95194E-03
             230     10.2338E-03     416.334E-18    -25.6453E+06     53.6141E+06     39.6963E+06    -2.49680E+06    -306.686E-03     583.705E-03    -277.018E-03     14.0993E-03    -306.969E-03     583.973E-03    -276.860E-03     12.3973E-03
             231     10.8914E-03     416.334E-18    -19.1780E+06     64.3571E+06     72.9989E+06    -96.0814E+03    -316.885E-03     596.200E-03    -279.315E-03     18.9895E-03    -317.211E-03     596.478E-03    -279.016E-03     16.8836E-03
             232     11.5414E-03     416.334E-18    -14.1630E+06     71.7610E+06     93.2228E+06     191.095E+03    -330.101E-03     612.067E-03    -281.966E-03     23.9215E-03    -330.463E-03     612.367E-03    -281.583E-03     21.0531E-03
             233     12.1844E-03     416.334E-18    -8.48494E+06     78.1768E+06     100.985E+06     744.443E+03    -349.202E-03     634.326E-03    -285.123E-03     29.9721E-03    -349.608E-03     634.694E-03    -284.719E-03     25.5605E-03
             234     12.8104E-03     416.334E-18    -2.38104E+06     82.6075E+06     104.441E+06     1.30231E+06    -378.243E-03     667.353E-03    -289.110E-03     54.8581E-03    -378.794E-03     667.891E-03    -288.704E-03     47.9814E-03
             235     13.4526E-03     1.93038E-03    -1.33281E+06     85.2675E+06     102.700E+06     1.03993E+06    -371.760E-03     662.145E-03    -290.384E-03     70.2578E-03    -372.392E-03     662.775E-03    -289.993E-03     62.5934E-03
             236     13.4730E-03     3.71488E-03    -3.00905E+06     86.0668E+06     97.1549E+06     343.078E+03    -339.033E-03     628.155E-03    -289.122E-03     52.8890E-03    -339.566E-03     628.698E-03    -288.757E-03     46.1703E-03
             237     13.4780E-03     5.47187E-03    -2.94821E+06     85.2798E+06     95.5876E+06     274.661E+03    -324.154E-03     613.030E-03    -288.876E-03     37.8363E-03    -324.616E-03     613.506E-03    -288.517E-03     31.3461E-03
             238     13.4787E-03     7.20922E-03    -2.59929E+06     83.9616E+06     96.4987E+06    -131.377E+03    -313.504E-03     602.512E-03    -289.007E-03     34.1355E-03    -313.954E-03     602.970E-03    -288.643E-03     27.6283E-03
             239     13.4795E-03     8.93259E-03    -2.62798E+06     81.5504E+06     96.0675E+06    -410.744E+03    -305.035E-03     594.212E-03    -289.177E-03     32.8852E-03    -305.471E-03     594.649E-03    -288.811E-03     26.6366E-03
             240     13.4796E-03     10.6428E-03    -2.47531E+06     80.4503E+06     95.6954E+06    -41.7749E+03    -298.140E-03     587.472E-03    -289.332E-03     31.9089E-03    -298.561E-03     587.892E-03    -288.966E-03     25.9728E-03
             241     13.4796E-03     12.3430E-03    -2.69696E+06     80.3185E+06     95.4149E+06    -45.4164E+03    -292.829E-03     582.293E-03    -289.465E-03     31.0438E-03    -293.240E-03     582.703E-03    -289.100E-03     25.3861E-03
             242     13.4795E-03     14.0357E-03    -2.47887E+06     79.4258E+06     94.9336E+06    -278.291E+03    -288.683E-03     578.254E-03    -289.571E-03     30.1719E-03    -289.083E-03     578.651E-03    -289.208E-03     24.7361E-03
             243     13.4796E-03     15.7225E-03    -2.49077E+06     78.8200E+06     94.7943E+06     64.8296E+03    -285.529E-03     575.187E-03    -289.658E-03     29.2761E-03    -285.919E-03     575.573E-03    -289.294E-03     24.0402E-03
             244     13.4793E-03     17.4051E-03     -2.5856E+06     79.0953E+06     94.8219E+06     50.3129E+03    -283.310E-03     573.038E-03    -289.728E-03     28.4633E-03    -283.694E-03     573.419E-03    -289.365E-03     23.3756E-03
             245     13.4791E-03     19.0849E-03    -2.43948E+06     79.1303E+06     92.7011E+06    -52.0079E+03    -281.809E-03     571.575E-03    -289.765E-03     28.0002E-03    -282.185E-03     571.954E-03    -289.413E-03     23.0252E-03
             246     13.4792E-03     20.7629E-03    -2.51649E+06     78.8839E+06     92.1063E+06     22.7021E+03    -281.057E-03     570.834E-03    -289.778E-03     27.7549E-03    -281.428E-03     571.210E-03    -289.428E-03     22.8629E-03
             247     13.4794E-03     22.4405E-03    -2.39790E+06     79.1609E+06     94.8009E+06     179.943E+03    -281.048E-03     570.825E-03    -289.777E-03     27.4305E-03    -281.420E-03     571.195E-03    -289.414E-03     22.5926E-03
             248     13.4796E-03     24.1188E-03    -2.55366E+06     80.0596E+06     96.0414E+06     258.240E+03    -281.442E-03     571.201E-03    -289.758E-03     27.0081E-03    -281.816E-03     571.571E-03    -289.391E-03     22.2006E-03
             249     13.4797E-03     25.7981E-03    -2.55451E+06     80.6377E+06     96.2381E+06     28.0173E+03    -282.044E-03     571.780E-03    -289.737E-03     26.6090E-03    -282.417E-03     572.152E-03    -289.369E-03     21.8170E-03
             250     13.4797E-03     27.4785E-03    -2.52399E+06     80.5127E+06     96.5617E+06    -98.2880E+03    -282.859E-03     572.575E-03    -289.715E-03     26.4851E-03    -283.231E-03     572.944E-03    -289.346E-03     21.7029E-03
             251     13.4798E-03     29.1605E-03    -2.34030E+06     80.6758E+06      96.647E+06     198.012E+03    -283.785E-03     573.471E-03    -289.686E-03     26.3837E-03    -284.157E-03     573.840E-03    -289.316E-03     21.5921E-03
             252     13.4799E-03     30.8441E-03    -2.69469E+06     80.8594E+06     96.5555E+06    -59.2442E+03    -284.628E-03     574.286E-03    -289.658E-03     26.1556E-03    -285.000E-03     574.656E-03    -289.288E-03     21.3453E-03
             253     13.4799E-03     32.5290E-03    -2.30257E+06     80.3122E+06     96.6153E+06    -161.188E+03    -285.348E-03     574.986E-03    -289.637E-03     26.0314E-03    -285.717E-03     575.351E-03    -289.267E-03     21.2212E-03
             254     13.4799E-03     34.2150E-03    -2.51118E+06     80.2894E+06     96.5991E+06     162.268E+03    -285.974E-03     575.596E-03    -289.622E-03     25.8981E-03    -286.344E-03     575.962E-03    -289.252E-03     21.0888E-03
             255     13.4798E-03     35.9019E-03    -2.51048E+06     80.4880E+06     96.3997E+06    -100.658E+03    -286.464E-03     576.074E-03    -289.610E-03     25.8344E-03    -286.833E-03     576.440E-03    -289.241E-03     21.0171E-03
             256     13.4799E-03     37.5895E-03    -2.30161E+06     80.5821E+06     95.7308E+06     133.684E+03    -286.783E-03     576.376E-03    -289.593E-03     25.9370E-03    -287.151E-03     576.744E-03    -289.228E-03     21.1231E-03
             257     13.4801E-03     39.2775E-03    -2.58322E+06     81.4420E+06     95.6526E+06     249.053E+03    -287.069E-03     576.641E-03    -289.571E-03     26.0266E-03    -287.440E-03     577.014E-03    -289.207E-03     21.2149E-03
             258     13.4803E-03     40.9660E-03    -2.40998E+06     81.9579E+06     95.7043E+06    -8.22957E+03    -287.339E-03     576.887E-03    -289.548E-03     26.0061E-03    -287.709E-03     577.262E-03    -289.184E-03     21.1869E-03
             259     13.4805E-03     42.6549E-03    -2.49043E+06     81.8705E+06     95.3210E+06        -692.908    -287.543E-03     577.069E-03    -289.527E-03     25.9335E-03    -287.912E-03     577.445E-03    -289.165E-03     21.1093E-03
             260     13.4806E-03     44.3440E-03    -2.33221E+06     82.2728E+06     95.6034E+06     187.300E+03    -287.728E-03     577.243E-03    -289.515E-03     25.8489E-03    -288.098E-03     577.619E-03    -289.153E-03     21.0293E-03
             261     13.4806E-03     46.0335E-03    -2.70005E+06     82.3609E+06     95.6908E+06    -155.410E+03    -287.877E-03     577.387E-03    -289.509E-03     25.8215E-03    -288.249E-03     577.763E-03    -289.146E-03     21.0047E-03
             262     13.4806E-03     47.7231E-03    -2.32385E+06     81.0283E+06     95.7871E+06    -397.527E+03    -288.020E-03     577.526E-03    -289.505E-03     25.8821E-03    -288.388E-03     577.895E-03    -289.140E-03     21.0611E-03
             263     13.4807E-03     49.4130E-03    -2.29016E+06     80.8525E+06     96.1998E+06     331.114E+03    -288.120E-03     577.617E-03    -289.497E-03     25.9727E-03    -288.488E-03     577.985E-03    -289.130E-03     21.1577E-03
             264     13.4809E-03     51.1029E-03    -2.68144E+06     82.4032E+06     97.3141E+06     344.717E+03    -288.208E-03     577.698E-03    -289.491E-03     25.8964E-03    -288.582E-03     578.073E-03    -289.120E-03     21.0783E-03
             265     13.4808E-03     52.7932E-03    -2.54838E+06     82.7812E+06     98.0997E+06    -206.781E+03    -288.322E-03     577.815E-03    -289.493E-03     25.7700E-03    -288.697E-03     578.190E-03    -289.119E-03     20.9401E-03
             266     13.4807E-03     54.4834E-03    -2.39503E+06     82.2595E+06     97.7401E+06    -35.1386E+03    -288.388E-03     577.883E-03    -289.495E-03     25.8510E-03    -288.761E-03     578.256E-03    -289.122E-03     21.0220E-03
             267     13.4808E-03     56.1738E-03    -2.53455E+06     82.2664E+06     96.7888E+06     74.2624E+03    -288.386E-03     577.877E-03    -289.491E-03     25.8388E-03    -288.758E-03     578.252E-03    -289.123E-03     21.0063E-03
             268     13.4807E-03     57.8642E-03    -2.48495E+06     82.4089E+06     96.0488E+06    -41.7207E+03    -288.407E-03     577.899E-03    -289.492E-03     25.7905E-03    -288.778E-03     578.276E-03    -289.128E-03     20.9532E-03
             269     13.4806E-03     59.5546E-03    -2.43297E+06     82.3807E+06     95.9826E+06     2.95060E+03    -288.506E-03     578.000E-03    -289.495E-03     25.9326E-03    -288.877E-03     578.377E-03    -289.131E-03     21.0927E-03
             270     13.4807E-03     61.2452E-03    -2.51411E+06     82.0597E+06     96.2447E+06    -93.7866E+03    -288.577E-03     578.069E-03    -289.492E-03     26.0026E-03    -288.949E-03     578.444E-03    -289.127E-03     21.1547E-03
             271     13.4807E-03     62.9360E-03    -2.33088E+06     82.0609E+06     96.3655E+06     111.851E+03    -288.566E-03     578.055E-03    -289.489E-03     25.9556E-03    -288.937E-03     578.430E-03    -289.123E-03     21.1124E-03
             272     13.4807E-03     64.6266E-03    -2.63663E+06     82.4883E+06     96.2005E+06     46.5206E+03    -288.539E-03     578.027E-03    -289.488E-03     25.9350E-03    -288.912E-03     578.405E-03    -289.123E-03     21.0940E-03
             273     13.4807E-03     66.3172E-03    -2.35967E+06     82.4588E+06     96.4259E+06    -57.6622E+03    -288.556E-03     578.046E-03    -289.490E-03     25.9726E-03    -288.928E-03     578.422E-03    -289.124E-03     21.1295E-03
             274     13.4807E-03     68.0078E-03    -2.51547E+06     82.5239E+06     96.3956E+06     86.2428E+03    -288.571E-03     578.060E-03    -289.489E-03     26.0038E-03    -288.944E-03     578.437E-03    -289.123E-03     21.1605E-03
             275     13.4807E-03     69.6985E-03    -2.43316E+06     82.9574E+06     96.5614E+06     98.8311E+03    -288.576E-03     578.063E-03    -289.487E-03     26.0052E-03    -288.949E-03     578.442E-03    -289.121E-03     21.1605E-03
             276     13.4807E-03     71.3892E-03    -2.56096E+06     83.1352E+06     96.5306E+06    -26.7474E+03    -288.576E-03     578.062E-03    -289.487E-03     26.0103E-03    -288.950E-03     578.443E-03    -289.121E-03     21.1629E-03
             277     13.4807E-03     73.0798E-03    -2.45465E+06     82.6310E+06     96.4609E+06    -168.595E+03    -288.582E-03     578.068E-03    -289.486E-03     26.0295E-03    -288.955E-03     578.446E-03    -289.120E-03     21.1783E-03
             278     13.4807E-03     74.7705E-03    -2.42268E+06     82.1783E+06     96.4256E+06    -9.81546E+03    -288.589E-03     578.075E-03    -289.486E-03     26.0396E-03    -288.961E-03     578.451E-03    -289.120E-03     21.1896E-03
             279     13.4807E-03     76.4611E-03    -2.54637E+06     82.0110E+06     96.4305E+06    -56.9582E+03    -288.596E-03     578.082E-03    -289.486E-03     26.0515E-03    -288.969E-03     578.457E-03    -289.119E-03     21.1992E-03
             280     13.4807E-03     78.1519E-03    -2.30383E+06     82.3145E+06     96.6328E+06     184.242E+03    -288.597E-03     578.082E-03    -289.485E-03     26.0619E-03    -288.969E-03     578.458E-03    -289.118E-03     21.2123E-03
             281     13.4808E-03     79.8425E-03    -2.68282E+06     83.0150E+06     96.5529E+06     98.2264E+03    -288.585E-03     578.068E-03    -289.483E-03     26.0692E-03    -288.960E-03     578.448E-03    -289.117E-03     21.2171E-03
             282     13.4808E-03     81.5332E-03    -2.35898E+06     83.0283E+06     96.8621E+06    -79.5249E+03    -288.593E-03     578.075E-03    -289.483E-03     26.0852E-03    -288.967E-03     578.455E-03    -289.115E-03     21.2289E-03
             283     13.4808E-03     83.2239E-03    -2.47293E+06     83.4251E+06     96.8952E+06     238.573E+03    -288.584E-03     578.065E-03    -289.481E-03     26.0850E-03    -288.959E-03     578.447E-03    -289.114E-03     21.2328E-03
             284     13.4808E-03     84.9145E-03    -2.54622E+06     84.3449E+06     96.9770E+06     136.300E+03    -288.571E-03     578.050E-03    -289.479E-03     26.0899E-03    -288.948E-03     578.436E-03    -289.113E-03     21.2350E-03
             285     13.4808E-03     86.6052E-03    -2.64369E+06     83.6529E+06     96.9295E+06    -394.913E+03    -288.581E-03     578.061E-03    -289.479E-03     26.0945E-03    -288.958E-03     578.444E-03    -289.112E-03     21.2299E-03
             286     13.4808E-03     88.2958E-03    -2.34017E+06     81.6233E+06     96.7700E+06    -417.930E+03    -288.600E-03     578.081E-03    -289.480E-03     26.1041E-03    -288.972E-03     578.453E-03    -289.111E-03     21.2381E-03
             287     13.4809E-03     89.9865E-03    -2.26822E+06     81.7434E+06     96.8670E+06     458.078E+03    -288.591E-03     578.070E-03    -289.479E-03     26.1135E-03    -288.963E-03     578.443E-03    -289.110E-03     21.2608E-03
             288     13.4809E-03     91.6771E-03    -2.75470E+06     83.6886E+06     97.1293E+06     333.021E+03    -288.569E-03     578.045E-03    -289.477E-03     26.1010E-03    -288.946E-03     578.429E-03    -289.109E-03     21.2458E-03
             289     13.4809E-03     93.3678E-03    -2.58200E+06     83.2007E+06     97.2879E+06    -506.320E+03    -288.583E-03     578.060E-03    -289.478E-03     26.1006E-03    -288.959E-03     578.440E-03    -289.108E-03     21.2317E-03
             290     13.4809E-03     95.0584E-03    -2.18960E+06     82.0728E+06     97.4190E+06     48.9890E+03    -288.593E-03     578.071E-03    -289.479E-03     26.1202E-03    -288.966E-03     578.445E-03    -289.107E-03     21.2603E-03
             291     13.4809E-03     96.7491E-03    -2.69331E+06     83.0213E+06     97.7526E+06     337.305E+03    -288.580E-03     578.058E-03    -289.478E-03     26.1225E-03    -288.957E-03     578.437E-03    -289.105E-03     21.2679E-03
             292     673.712E-06     99.3203E-03    -120.309E+06    -239.542E+06    -118.474E+06     123.012E+03    -289.522E-03     579.024E-03    -289.502E-03     2.97707E-03    -289.604E-03     578.173E-03    -289.573E-03     3.28850E-03
             293     1.34744E-03     99.3286E-03    -117.693E+06    -231.417E+06    -110.954E+06     226.941E+03    -289.482E-03     579.013E-03    -289.531E-03     5.47278E-03    -289.574E-03     578.188E-03    -289.580E-03     6.02546E-03
             294     2.02119E-03     99.3422E-03    -113.638E+06    -218.657E+06    -99.5869E+06     337.962E+03    -289.447E-03     578.996E-03    -289.549E-03     8.11352E-03    -289.554E-03     578.212E-03    -289.565E-03     8.88274E-03
             295     2.69497E-03     99.3609E-03    -108.376E+06    -202.730E+06    -85.2959E+06     476.744E+03    -289.405E-03     578.976E-03    -289.571E-03     10.7672E-03    -289.529E-03     578.243E-03    -289.546E-03     11.7004E-03
             296     3.36879E-03     99.3846E-03    -102.165E+06    -184.057E+06    -69.3881E+06     653.545E+03    -289.359E-03     578.950E-03    -289.591E-03     13.4164E-03    -289.503E-03     578.279E-03    -289.523E-03     14.4435E-03
             297     4.04265E-03     99.4133E-03    -95.2816E+06    -163.497E+06    -52.8865E+06     867.745E+03    -289.314E-03     578.922E-03    -289.608E-03     16.0537E-03    -289.478E-03     578.321E-03    -289.497E-03     17.0895E-03
             298     4.71656E-03     99.4467E-03    -87.9791E+06    -141.214E+06    -36.5862E+06     1.13131E+06    -289.271E-03     578.890E-03    -289.619E-03     18.6810E-03    -289.457E-03     578.368E-03    -289.469E-03     19.6281E-03
             299     5.39051E-03     99.4846E-03    -80.4749E+06    -117.178E+06    -20.9044E+06     1.47333E+06    -289.229E-03     578.852E-03    -289.622E-03     21.2992E-03    -289.438E-03     578.420E-03    -289.440E-03     22.0500E-03
             300     6.06451E-03     99.5268E-03    -72.9378E+06    -92.5378E+06    -6.02610E+06     1.88801E+06    -289.190E-03     578.809E-03    -289.620E-03     23.9043E-03    -289.424E-03     578.473E-03    -289.410E-03     24.3420E-03
             301     6.73855E-03     99.5730E-03    -65.4914E+06    -64.8489E+06     8.18823E+06     2.36714E+06    -289.139E-03     578.748E-03    -289.609E-03     26.4648E-03    -289.405E-03     578.527E-03    -289.379E-03     26.4729E-03
             302     7.41264E-03     99.6229E-03    -58.3005E+06    -30.9302E+06     22.1203E+06     2.81992E+06    -289.064E-03     578.650E-03    -289.586E-03     28.9271E-03    -289.374E-03     578.579E-03    -289.346E-03     28.3928E-03
             303     8.08679E-03     99.6761E-03    -51.3646E+06     11.9876E+06     36.3289E+06     2.90161E+06    -288.953E-03     578.503E-03    -289.551E-03     31.3721E-03    -289.327E-03     578.632E-03    -289.312E-03     30.1679E-03
             304     8.76101E-03     99.7324E-03    -44.4670E+06     37.9044E+06     47.4822E+06     2.64163E+06    -288.906E-03     578.429E-03    -289.524E-03     33.8018E-03    -289.320E-03     578.683E-03    -289.277E-03     31.8047E-03
             305     9.43526E-03     99.7915E-03    -37.5792E+06     39.8157E+06     56.3673E+06     2.40093E+06    -288.935E-03     578.458E-03    -289.523E-03     36.0240E-03    -289.357E-03     578.725E-03    -289.244E-03     33.1476E-03
             306     10.1095E-03     99.8527E-03    -30.7790E+06     53.8903E+06     69.2928E+06     1.80779E+06    -288.885E-03     578.412E-03    -289.528E-03     37.7986E-03    -289.342E-03     578.751E-03    -289.215E-03     33.9768E-03
             307     10.7838E-03     99.9148E-03    -24.0552E+06     71.8070E+06     84.0198E+06     749.787E+03    -288.787E-03     578.324E-03    -289.537E-03     38.7744E-03    -289.289E-03     578.752E-03    -289.186E-03     34.0129E-03
             308     11.4581E-03     99.9760E-03    -17.3162E+06     74.9592E+06     94.8644E+06     275.556E+03    -288.729E-03     578.277E-03    -289.549E-03     38.6182E-03    -289.239E-03     578.717E-03    -289.158E-03     33.1004E-03
             309     12.1324E-03     100.035E-03    -10.7681E+06     77.3401E+06     99.6828E+06     410.709E+03    -288.668E-03     578.203E-03    -289.534E-03     38.4765E-03    -289.190E-03     578.671E-03    -289.132E-03     31.9664E-03
             310     12.8067E-03     100.092E-03    -5.00818E+06     81.9473E+06     99.4605E+06     275.024E+03    -288.585E-03     578.080E-03    -289.495E-03     32.4477E-03    -289.042E-03     578.522E-03    -289.109E-03     26.4220E-03
             311     673.711E-06     101.011E-03    -120.840E+06    -240.096E+06    -119.005E+06     125.021E+03    -289.525E-03     579.030E-03    -289.505E-03     2.97729E-03    -289.608E-03     578.177E-03    -289.577E-03     3.28870E-03
             312     1.34743E-03     101.019E-03    -118.240E+06    -231.948E+06    -111.499E+06     194.986E+03    -289.485E-03     579.019E-03    -289.534E-03     5.47505E-03    -289.578E-03     578.192E-03    -289.583E-03     6.02694E-03
             313     2.02118E-03     101.033E-03    -114.223E+06    -219.261E+06    -100.153E+06     310.757E+03    -289.450E-03     579.002E-03    -289.552E-03     8.11471E-03    -289.558E-03     578.216E-03    -289.569E-03     8.88330E-03
             314     2.69495E-03     101.051E-03    -109.002E+06    -203.348E+06    -85.8821E+06     420.673E+03    -289.408E-03     578.981E-03    -289.574E-03     10.7665E-03    -289.533E-03     578.247E-03    -289.550E-03     11.6988E-03
             315     3.36877E-03     101.075E-03    -102.821E+06    -184.782E+06    -69.9982E+06     530.891E+03    -289.362E-03     578.957E-03    -289.594E-03     13.4153E-03    -289.508E-03     578.284E-03    -289.527E-03     14.4404E-03
             316     4.04263E-03     101.104E-03    -95.9657E+06    -164.317E+06    -53.5541E+06     664.679E+03    -289.318E-03     578.929E-03    -289.611E-03     16.0529E-03    -289.483E-03     578.326E-03    -289.502E-03     17.0856E-03
             317     4.71654E-03     101.137E-03    -88.6799E+06    -142.190E+06    -37.3165E+06     824.232E+03    -289.275E-03     578.897E-03    -289.622E-03     18.6809E-03    -289.462E-03     578.372E-03    -289.474E-03     19.6231E-03
             318     5.39048E-03     101.175E-03    -81.1400E+06    -118.452E+06    -21.6956E+06     1.05175E+06    -289.233E-03     578.858E-03    -289.625E-03     21.2982E-03    -289.442E-03     578.422E-03    -289.445E-03     22.0424E-03
             319     6.06448E-03     101.217E-03    -73.4512E+06    -93.9434E+06    -6.84133E+06     1.32769E+06    -289.191E-03     578.813E-03    -289.623E-03     23.9013E-03    -289.424E-03     578.472E-03    -289.414E-03     24.3310E-03
             320     6.73853E-03     101.264E-03    -65.6229E+06    -66.4146E+06     7.43523E+06     1.60244E+06    -289.138E-03     578.749E-03    -289.611E-03     26.4597E-03    -289.400E-03     578.521E-03    -289.382E-03     26.4573E-03
             321     7.41263E-03     101.313E-03    -57.6298E+06    -33.1001E+06     21.5570E+06     2.16125E+06    -289.061E-03     578.649E-03    -289.588E-03     28.9198E-03    -289.364E-03     578.567E-03    -289.349E-03     28.3770E-03
             322     8.08679E-03     101.367E-03    -49.8855E+06     9.89290E+06     36.2656E+06     3.27833E+06    -288.951E-03     578.503E-03    -289.553E-03     31.3629E-03    -289.314E-03     578.620E-03    -289.313E-03     30.1663E-03
             323     8.76103E-03     101.423E-03    -42.9668E+06     38.3669E+06     48.1330E+06     3.69786E+06    -288.901E-03     578.426E-03    -289.524E-03     33.8034E-03    -289.310E-03     578.679E-03    -289.277E-03     31.8242E-03
             324     9.43523E-03     101.482E-03    -36.5208E+06     41.6228E+06     57.1174E+06     2.61153E+06    -288.926E-03     578.449E-03    -289.522E-03     36.0489E-03    -289.347E-03     578.722E-03    -289.244E-03     33.1766E-03
             325     10.1095E-03     101.543E-03    -29.8605E+06     55.4793E+06     69.8715E+06     1.53609E+06    -288.865E-03     578.390E-03    -289.525E-03     37.8263E-03    -289.321E-03     578.735E-03    -289.213E-03     34.0007E-03
             326     10.7838E-03     101.605E-03    -23.2268E+06     72.9724E+06     84.5991E+06     1.32552E+06    -288.759E-03     578.293E-03    -289.534E-03     38.7925E-03    -289.259E-03     578.724E-03    -289.183E-03     34.0409E-03
             327     11.4581E-03     101.667E-03    -17.1079E+06     75.4806E+06     95.4214E+06     1.06768E+06    -288.703E-03     578.249E-03    -289.546E-03     38.6510E-03    -289.214E-03     578.690E-03    -289.154E-03     33.1471E-03
             328     12.1324E-03     101.725E-03    -11.2699E+06     77.6564E+06     100.082E+06     552.728E+03    -288.650E-03     578.181E-03    -289.531E-03     38.5167E-03    -289.175E-03     578.652E-03    -289.127E-03     32.0104E-03
             329     12.8068E-03     101.782E-03    -5.44395E+06     82.3595E+06     99.7710E+06     330.455E+03    -288.564E-03     578.054E-03    -289.490E-03     32.4802E-03    -289.024E-03     578.499E-03    -289.103E-03     26.4568E-03
             330     673.706E-06     102.701E-03    -121.096E+06    -240.722E+06    -119.309E+06     167.800E+03    -289.528E-03     579.037E-03    -289.509E-03     2.97948E-03    -289.612E-03     578.182E-03    -289.581E-03     3.29147E-03
             331     1.34743E-03     102.710E-03    -118.569E+06    -232.550E+06    -111.807E+06     283.081E+03    -289.489E-03     579.026E-03    -289.537E-03     5.47948E-03    -289.582E-03     578.197E-03    -289.587E-03     6.03247E-03
             332     2.02117E-03     102.723E-03    -114.596E+06    -219.940E+06    -100.453E+06     427.583E+03    -289.453E-03     579.009E-03    -289.555E-03     8.11926E-03    -289.562E-03     578.221E-03    -289.573E-03     8.88956E-03
             333     2.69494E-03     102.742E-03    -109.432E+06    -203.899E+06    -86.2660E+06     542.097E+03    -289.410E-03     578.987E-03    -289.577E-03     10.7715E-03    -289.537E-03     578.251E-03    -289.554E-03     11.7059E-03
             334     3.36876E-03     102.766E-03    -103.360E+06    -185.403E+06    -70.4355E+06     648.206E+03    -289.365E-03     578.962E-03    -289.597E-03     13.4223E-03    -289.511E-03     578.288E-03    -289.531E-03     14.4495E-03
             335     4.04261E-03     102.794E-03    -96.6563E+06    -164.921E+06    -54.0666E+06     751.146E+03    -289.320E-03     578.934E-03    -289.614E-03     16.0629E-03    -289.487E-03     578.330E-03    -289.505E-03     17.0972E-03
             336     4.71651E-03     102.828E-03    -89.5666E+06    -142.827E+06    -37.9337E+06     832.884E+03    -289.277E-03     578.902E-03    -289.625E-03     18.6946E-03    -289.466E-03     578.376E-03    -289.478E-03     19.6372E-03
             337     5.39046E-03     102.866E-03    -82.2824E+06    -119.233E+06    -22.4688E+06     909.209E+03    -289.233E-03     578.862E-03    -289.628E-03     21.3150E-03    -289.446E-03     578.424E-03    -289.448E-03     22.0574E-03
             338     6.06445E-03     102.908E-03    -74.9039E+06     -94.449E+06    -7.80454E+06     862.657E+03    -289.188E-03     578.812E-03    -289.624E-03     23.9215E-03    -289.427E-03     578.472E-03    -289.418E-03     24.3451E-03
             339     6.73849E-03     102.954E-03    -67.4564E+06    -66.6584E+06     6.24685E+06     590.420E+03    -289.132E-03     578.743E-03    -289.612E-03     26.4828E-03    -289.402E-03     578.519E-03    -289.386E-03     26.4668E-03
             340     7.41259E-03     103.004E-03    -59.8197E+06    -34.1754E+06     20.0025E+06     238.773E+03    -289.054E-03     578.642E-03    -289.588E-03     28.9443E-03    -289.364E-03     578.561E-03    -289.352E-03     28.3738E-03
             341     8.08676E-03     103.057E-03    -51.5657E+06     5.52179E+06     34.0805E+06     882.566E+03    -288.945E-03     578.498E-03    -289.553E-03     31.3792E-03    -289.307E-03     578.598E-03    -289.316E-03     30.1462E-03
             342     8.76102E-03     103.114E-03    -43.0431E+06     35.9343E+06     46.4179E+06     2.61174E+06    -288.870E-03     578.391E-03    -289.520E-03     33.7999E-03    -289.274E-03     578.634E-03    -289.278E-03     31.8031E-03
             343     9.43530E-03     103.173E-03    -35.7036E+06     43.7974E+06     56.7867E+06     3.29212E+06    -288.875E-03     578.389E-03    -289.514E-03     36.0535E-03    -289.294E-03     578.672E-03    -289.242E-03     33.1915E-03
             344     10.1095E-03     103.234E-03    -29.6731E+06     57.3187E+06     70.1756E+06     2.47141E+06    -288.827E-03     578.346E-03    -289.519E-03     37.8701E-03    -289.286E-03     578.700E-03    -289.208E-03     34.0603E-03
             345     10.7838E-03     103.296E-03    -23.5766E+06     72.2956E+06     84.4634E+06     2.03077E+06    -288.737E-03     578.264E-03    -289.528E-03     38.8460E-03    -289.237E-03     578.693E-03    -289.176E-03     34.1070E-03
             346     11.4582E-03     103.357E-03    -17.0191E+06     76.1688E+06     96.0264E+06     2.12256E+06    -288.668E-03     578.208E-03    -289.540E-03     38.6855E-03    -289.181E-03     578.652E-03    -289.145E-03     33.1994E-03
             347     12.1326E-03     103.416E-03    -10.7179E+06     79.7416E+06     101.386E+06     1.40995E+06    -288.593E-03     578.117E-03    -289.524E-03     38.5873E-03    -289.121E-03     578.595E-03    -289.117E-03     32.0956E-03
             348     12.8068E-03     103.473E-03    -5.14722E+06     83.0117E+06     100.283E+06     478.490E+03    -288.476E-03     577.954E-03    -289.478E-03     32.6447E-03    -288.938E-03     578.401E-03    -289.090E-03     26.6250E-03
             349     673.706E-06     104.392E-03    -121.038E+06    -241.679E+06    -119.233E+06     241.213E+03    -289.531E-03     579.042E-03    -289.511E-03     2.98340E-03    -289.613E-03     578.182E-03    -289.582E-03     3.29652E-03
             350     1.34742E-03     104.400E-03    -118.503E+06    -233.485E+06    -111.738E+06     471.311E+03    -289.491E-03     579.031E-03    -289.540E-03     5.48654E-03    -289.583E-03     578.197E-03    -289.588E-03     6.04239E-03
             351     2.02116E-03     104.414E-03    -114.550E+06    -220.818E+06    -100.424E+06     659.925E+03    -289.455E-03     579.012E-03    -289.558E-03     8.12929E-03    -289.562E-03     578.220E-03    -289.573E-03     8.90351E-03
             352     2.69494E-03     104.433E-03    -109.432E+06    -204.750E+06    -86.2538E+06     864.632E+03    -289.411E-03     578.989E-03    -289.578E-03     10.7839E-03    -289.536E-03     578.249E-03    -289.554E-03     11.7240E-03
             353     3.36875E-03     104.456E-03    -103.417E+06    -186.220E+06    -70.4266E+06     1.06673E+06    -289.365E-03     578.964E-03    -289.599E-03     13.4380E-03    -289.510E-03     578.285E-03    -289.531E-03     14.4727E-03
             354     4.04261E-03     104.485E-03    -96.7901E+06    -165.695E+06    -54.0645E+06     1.25567E+06    -289.319E-03     578.934E-03    -289.615E-03     16.0834E-03    -289.486E-03     578.326E-03    -289.505E-03     17.1268E-03
             355     4.71651E-03     104.518E-03    -89.8229E+06    -143.517E+06    -37.9587E+06     1.43040E+06    -289.274E-03     578.899E-03    -289.625E-03     18.7214E-03    -289.463E-03     578.370E-03    -289.477E-03     19.6749E-03
             356     5.39046E-03     104.556E-03    -82.7371E+06    -119.903E+06    -22.5518E+06     1.58872E+06    -289.229E-03     578.857E-03    -289.628E-03     21.3488E-03    -289.443E-03     578.417E-03    -289.447E-03     22.1037E-03
             357     6.06445E-03     104.599E-03    -75.7249E+06    -94.4513E+06    -7.97265E+06     1.61822E+06    -289.180E-03     578.803E-03    -289.623E-03     23.9643E-03    -289.422E-03     578.464E-03    -289.416E-03     24.4027E-03
             358     6.73849E-03     104.645E-03    -68.9504E+06    -66.0609E+06     5.90131E+06     1.43157E+06    -289.120E-03     578.730E-03    -289.609E-03     26.5355E-03    -289.398E-03     578.511E-03    -289.384E-03     26.5369E-03
             359     7.41259E-03     104.695E-03    -62.5577E+06    -33.0733E+06     19.3105E+06     973.956E+03    -289.040E-03     578.626E-03    -289.585E-03     29.0138E-03    -289.365E-03     578.555E-03    -289.350E-03     28.4594E-03
             360     8.08673E-03     104.748E-03    -56.2313E+06     5.72766E+06     32.4913E+06    -302.603E+03    -288.931E-03     578.481E-03    -289.550E-03     31.4852E-03    -289.315E-03     578.591E-03    -289.314E-03     30.2370E-03
             361     8.76096E-03     104.804E-03    -48.9059E+06     32.6869E+06     43.1939E+06    -1.06884E+06    -288.852E-03     578.368E-03    -289.516E-03     33.9052E-03    -289.275E-03     578.609E-03    -289.277E-03     31.8508E-03
             362     9.43529E-03     104.863E-03    -40.3903E+06     40.4894E+06     52.7847E+06     422.712E+03    -288.826E-03     578.328E-03    -289.503E-03     36.0765E-03    -289.258E-03     578.608E-03    -289.239E-03     33.1666E-03
             363     10.1097E-03     104.924E-03    -32.1503E+06     57.1211E+06     67.2114E+06     2.22325E+06    -288.751E-03     578.253E-03    -289.502E-03     37.8292E-03    -289.217E-03     578.613E-03    -289.202E-03     34.0134E-03
             364     10.7840E-03     104.986E-03    -24.8398E+06     73.4193E+06     83.2546E+06     1.98448E+06    -288.662E-03     578.174E-03    -289.512E-03     38.8495E-03    -289.169E-03     578.612E-03    -289.166E-03     34.1100E-03
             365     11.4583E-03     105.048E-03    -17.6313E+06     76.1535E+06     95.6833E+06     1.15143E+06    -288.585E-03     578.110E-03    -289.525E-03     38.7788E-03    -289.100E-03     578.555E-03    -289.132E-03     33.2772E-03
             366     12.1327E-03     105.106E-03    -10.7575E+06     80.0114E+06     101.764E+06     1.55691E+06    -288.488E-03     577.995E-03    -289.507E-03     38.7023E-03    -289.017E-03     578.475E-03    -289.099E-03     32.2139E-03
             367     12.8073E-03     105.163E-03    -4.99467E+06     85.1427E+06     102.178E+06     1.47601E+06    -288.423E-03     577.886E-03    -289.463E-03     32.6700E-03    -288.889E-03     578.340E-03    -289.068E-03     26.6671E-03
             368     673.707E-06     106.083E-03    -120.870E+06    -242.948E+06    -119.064E+06     301.505E+03    -289.530E-03     579.040E-03    -289.510E-03     2.98733E-03    -289.609E-03     578.173E-03    -289.578E-03     3.30192E-03
             369     1.34743E-03     106.091E-03    -118.281E+06    -234.763E+06    -111.578E+06     547.097E+03    -289.488E-03     579.026E-03    -289.538E-03     5.49611E-03    -289.577E-03     578.186E-03    -289.584E-03     6.05398E-03
             370     2.02118E-03     106.104E-03    -114.272E+06    -222.086E+06    -100.195E+06     848.225E+03    -289.450E-03     579.006E-03    -289.555E-03     8.14278E-03    -289.554E-03     578.206E-03    -289.569E-03     8.92114E-03
             371     2.69495E-03     106.123E-03    -109.076E+06    -206.025E+06    -85.9055E+06     1.14221E+06    -289.406E-03     578.982E-03    -289.576E-03     10.8023E-03    -289.528E-03     578.234E-03    -289.549E-03     11.7482E-03
             372     3.36877E-03     106.147E-03    -102.943E+06    -187.435E+06    -69.9865E+06     1.42091E+06    -289.358E-03     578.954E-03    -289.596E-03     13.4628E-03    -289.500E-03     578.268E-03    -289.525E-03     14.5048E-03
             373     4.04264E-03     106.176E-03    -96.1574E+06    -166.900E+06    -53.5150E+06     1.69672E+06    -289.311E-03     578.922E-03    -289.612E-03     16.1152E-03    -289.473E-03     578.306E-03    -289.498E-03     17.1676E-03
             374     4.71655E-03     106.209E-03     -88.983E+06    -144.730E+06    -37.2700E+06     1.99730E+06    -289.263E-03     578.884E-03    -289.621E-03     18.7605E-03    -289.448E-03     578.347E-03    -289.469E-03     19.7255E-03
             375     5.39051E-03     106.247E-03    -81.6356E+06    -121.111E+06    -21.6733E+06     2.32701E+06    -289.216E-03     578.840E-03    -289.623E-03     21.3954E-03    -289.424E-03     578.390E-03    -289.438E-03     22.1652E-03
             376     6.06452E-03     106.289E-03    -74.2759E+06    -95.3273E+06    -6.84368E+06     2.66845E+06    -289.165E-03     578.782E-03    -289.617E-03     24.0190E-03    -289.400E-03     578.435E-03    -289.405E-03     24.4783E-03
             377     6.73858E-03     106.335E-03    -67.0429E+06    -66.6569E+06     7.34563E+06     3.03466E+06    -289.103E-03     578.705E-03    -289.602E-03     26.5994E-03    -289.372E-03     578.478E-03    -289.371E-03     26.6313E-03
             378     7.41269E-03     106.385E-03    -60.0095E+06    -32.9065E+06     21.2462E+06     3.34047E+06    -289.020E-03     578.597E-03    -289.577E-03     29.0941E-03    -289.335E-03     578.520E-03    -289.336E-03     28.5833E-03
             379     8.08689E-03     106.438E-03    -53.5534E+06     9.50915E+06     35.6197E+06     2.87887E+06    -288.909E-03     578.450E-03    -289.541E-03     31.5972E-03    -289.290E-03     578.571E-03    -289.299E-03     30.4055E-03
             380     8.76112E-03     106.495E-03    -48.1583E+06     36.2646E+06     46.5110E+06     778.339E+03    -288.863E-03     578.374E-03    -289.511E-03     34.0781E-03    -289.293E-03     578.627E-03    -289.261E-03     32.0594E-03
             381     9.43531E-03     106.553E-03    -42.6625E+06     39.3969E+06     53.8815E+06    -1.66673E+06    -288.871E-03     578.372E-03    -289.501E-03     36.2893E-03    -289.315E-03     578.649E-03    -289.227E-03     33.3505E-03
             382     10.1096E-03     106.615E-03    -35.0586E+06     54.3758E+06     65.2434E+06    -2.19328E+06    -288.752E-03     578.243E-03    -289.491E-03     37.9835E-03    -289.227E-03     578.597E-03    -289.193E-03     34.0931E-03
             383     10.7840E-03     106.677E-03    -26.2281E+06     72.8208E+06     79.9202E+06    -947.819E+03    -288.569E-03     578.057E-03    -289.487E-03     38.9036E-03    -289.078E-03     578.499E-03    -289.155E-03     34.1086E-03
             384     11.4586E-03     106.738E-03    -18.7935E+06     74.9782E+06     92.9251E+06     471.485E+03    -288.501E-03     578.000E-03    -289.500E-03     38.7465E-03    -289.016E-03     578.446E-03    -289.116E-03     33.2323E-03
             385     12.1332E-03     106.796E-03    -12.5265E+06     77.8756E+06     100.498E+06     1.24909E+06    -288.519E-03     578.010E-03    -289.491E-03     38.5284E-03    -289.051E-03     578.483E-03    -289.083E-03     32.0321E-03
             386     12.8075E-03     106.853E-03    -6.11442E+06     87.0782E+06     102.829E+06     1.12025E+06    -288.499E-03     577.953E-03    -289.453E-03     32.3732E-03    -288.974E-03     578.417E-03    -289.057E-03     26.3551E-03
             387     673.713E-06     107.773E-03    -120.725E+06    -244.328E+06    -118.940E+06     316.447E+03    -289.520E-03     579.022E-03    -289.502E-03     2.99658E-03    -289.596E-03     578.148E-03    -289.567E-03     3.31184E-03
             388     1.34744E-03     107.781E-03    -118.149E+06    -236.129E+06    -111.356E+06     548.336E+03    -289.477E-03     579.006E-03    -289.529E-03     5.51055E-03    -289.564E-03     578.159E-03    -289.572E-03     6.06949E-03
             389     2.02120E-03     107.795E-03    -114.059E+06    -223.562E+06    -99.9016E+06     816.724E+03    -289.438E-03     578.984E-03    -289.546E-03     8.16422E-03    -289.539E-03     578.176E-03    -289.556E-03     8.94344E-03
             390     2.69499E-03     107.814E-03    -108.716E+06    -207.414E+06    -85.5757E+06     1.08485E+06    -289.391E-03     578.957E-03    -289.565E-03     10.8316E-03    -289.510E-03     578.201E-03    -289.535E-03     11.7784E-03
             391     3.36882E-03     107.837E-03    -102.397E+06    -188.774E+06    -69.5274E+06     1.31874E+06    -289.342E-03     578.926E-03    -289.584E-03     13.4996E-03    -289.480E-03     578.232E-03    -289.510E-03     14.5423E-03
             392     4.04270E-03     107.866E-03    -95.3779E+06    -168.250E+06    -52.8819E+06     1.54775E+06    -289.292E-03     578.891E-03    -289.599E-03     16.1588E-03    -289.450E-03     578.267E-03    -289.482E-03     17.2119E-03
             393     4.71663E-03     107.900E-03    -87.9064E+06    -146.178E+06    -36.4278E+06     1.79819E+06    -289.243E-03     578.851E-03    -289.608E-03     18.8107E-03    -289.421E-03     578.304E-03    -289.451E-03     19.7762E-03
             394     5.39061E-03     107.937E-03    -80.1593E+06    -122.561E+06    -20.5918E+06     2.05102E+06    -289.194E-03     578.803E-03    -289.610E-03     21.4516E-03    -289.394E-03     578.343E-03    -289.419E-03     22.2214E-03
             395     6.06465E-03     107.980E-03    -72.2446E+06    -96.8366E+06    -5.48459E+06     2.30755E+06    -289.140E-03     578.742E-03    -289.602E-03     24.0799E-03    -289.364E-03     578.382E-03    -289.384E-03     24.5387E-03
             396     6.73874E-03     108.026E-03    -64.1825E+06    -68.2860E+06     9.06168E+06     2.59946E+06    -289.075E-03     578.661E-03    -289.586E-03     26.6623E-03    -289.330E-03     578.420E-03    -289.349E-03     26.6936E-03
             397     7.41290E-03     108.076E-03    -55.9907E+06    -34.4469E+06     23.4980E+06     2.95360E+06    -288.992E-03     578.551E-03    -289.560E-03     29.1565E-03    -289.287E-03     578.457E-03    -289.311E-03     28.6465E-03
             398     8.08712E-03     108.129E-03    -47.8347E+06     8.06118E+06     38.6446E+06     4.04997E+06    -288.881E-03     578.403E-03    -289.522E-03     31.6412E-03    -289.235E-03     578.504E-03    -289.271E-03     30.4755E-03
             399     8.76144E-03     108.185E-03    -40.3625E+06     40.0763E+06     51.5645E+06     4.83300E+06    -288.822E-03     578.312E-03    -289.490E-03     34.1209E-03    -289.225E-03     578.564E-03    -289.231E-03     32.1754E-03
             400     9.43573E-03     108.244E-03    -34.5597E+06     47.2261E+06     61.1658E+06     2.65245E+06    -288.853E-03     578.336E-03    -289.483E-03     36.4514E-03    -289.279E-03     578.629E-03    -289.195E-03     33.5928E-03
             401     10.1099E-03     108.305E-03    -30.0899E+06     58.8631E+06     72.7123E+06    -1.43231E+06    -288.820E-03     578.305E-03    -289.485E-03     38.2972E-03    -289.288E-03     578.664E-03    -289.163E-03     34.4244E-03
             402     10.7842E-03     108.367E-03    -25.2286E+06     67.3050E+06     82.5632E+06    -2.01531E+06    -288.758E-03     578.244E-03    -289.486E-03     39.0964E-03    -289.259E-03     578.655E-03    -289.134E-03     34.2747E-03
             403     11.4587E-03     108.428E-03    -19.0024E+06     70.2627E+06     92.8454E+06     592.957E+03    -288.702E-03     578.199E-03    -289.497E-03     38.6115E-03    -289.211E-03     578.621E-03    -289.108E-03     33.0870E-03
             404     12.1330E-03     108.487E-03    -12.0953E+06     79.7263E+06     100.761E+06     721.843E+03    -288.594E-03     578.082E-03    -289.488E-03     38.3143E-03    -289.127E-03     578.563E-03    -289.082E-03     31.7956E-03
             405     12.8072E-03     108.544E-03    -5.69064E+06     87.6520E+06     100.944E+06    -286.545E+03    -288.411E-03     577.853E-03    -289.442E-03     32.3852E-03    -288.882E-03     578.322E-03    -289.056E-03     26.3282E-03
             406     673.731E-06     109.464E-03    -121.163E+06    -245.718E+06    -119.343E+06     300.904E+03    -289.496E-03     578.976E-03    -289.480E-03     3.00866E-03    -289.573E-03     578.096E-03    -289.544E-03     3.32383E-03
             407     1.34747E-03     109.472E-03    -118.492E+06    -237.268E+06    -111.671E+06     468.432E+03    -289.453E-03     578.960E-03    -289.506E-03     5.53192E-03    -289.540E-03     578.107E-03    -289.549E-03     6.09043E-03
             408     2.02124E-03     109.485E-03    -114.316E+06    -224.675E+06    -100.072E+06     583.766E+03    -289.413E-03     578.937E-03    -289.523E-03     8.19778E-03    -289.514E-03     578.124E-03    -289.532E-03     8.97451E-03
             409     2.69505E-03     109.504E-03    -108.886E+06    -208.515E+06    -85.6502E+06     713.466E+03    -289.365E-03     578.908E-03    -289.542E-03     10.8742E-03    -289.483E-03     578.147E-03    -289.510E-03     11.8169E-03
             410     3.36890E-03     109.528E-03    -102.486E+06    -189.773E+06    -69.5366E+06     841.664E+03    -289.314E-03     578.874E-03    -289.560E-03     13.5480E-03    -289.450E-03     578.175E-03    -289.484E-03     14.5860E-03
             411     4.04281E-03     109.557E-03    -95.3973E+06    -169.245E+06    -52.7742E+06     947.350E+03    -289.262E-03     578.837E-03    -289.575E-03     16.2126E-03    -289.418E-03     578.207E-03    -289.455E-03     17.2599E-03
             412     4.71676E-03     109.590E-03    -87.8534E+06    -147.134E+06    -36.2119E+06     1.02042E+06    -289.211E-03     578.794E-03    -289.583E-03     18.8701E-03    -289.388E-03     578.242E-03    -289.424E-03     19.8276E-03
             413     5.39076E-03     109.628E-03    -80.0706E+06    -123.523E+06    -20.3166E+06     1.08014E+06    -289.160E-03     578.744E-03    -289.584E-03     21.5145E-03    -289.358E-03     578.279E-03    -289.390E-03     22.2737E-03
             414     6.06482E-03     109.670E-03    -72.2310E+06    -97.7881E+06    -5.19358E+06     1.13234E+06    -289.105E-03     578.681E-03    -289.576E-03     24.1415E-03    -289.328E-03     578.316E-03    -289.355E-03     24.5870E-03
             415     6.73894E-03     109.716E-03    -64.4774E+06    -69.3359E+06     9.28064E+06     1.17675E+06    -289.041E-03     578.600E-03    -289.559E-03     26.7174E-03    -289.296E-03     578.353E-03    -289.319E-03     26.7315E-03
             416     7.41312E-03     109.766E-03    -56.8706E+06    -35.8591E+06     23.4413E+06     1.32469E+06    -288.960E-03     578.492E-03    -289.533E-03     29.1994E-03    -289.257E-03     578.393E-03    -289.281E-03     28.6682E-03
             417     8.08737E-03     109.819E-03    -49.1101E+06     3.81751E+06     37.7360E+06     1.93624E+06    -288.854E-03     578.350E-03    -289.496E-03     31.6641E-03    -289.207E-03     578.432E-03    -289.241E-03     30.4678E-03
             418     8.76168E-03     109.875E-03    -40.7738E+06     38.0599E+06     50.5807E+06     2.92500E+06    -288.764E-03     578.221E-03    -289.457E-03     34.0781E-03    -289.165E-03     578.466E-03    -289.200E-03     32.1031E-03
             419     9.43612E-03     109.934E-03    -32.3940E+06     51.0235E+06     62.1812E+06     3.79572E+06    -288.762E-03     578.207E-03    -289.445E-03     36.2676E-03    -289.183E-03     578.514E-03    -289.161E-03     33.4243E-03
             420     10.1106E-03     109.995E-03    -25.6008E+06     64.4832E+06     78.0883E+06     4.12233E+06    -288.807E-03     578.269E-03    -289.462E-03     38.0324E-03    -289.267E-03     578.641E-03    -289.128E-03     34.2553E-03
             421     10.7848E-03     110.057E-03    -20.5541E+06     66.8316E+06     88.5285E+06     2.95728E+06    -288.927E-03     578.408E-03    -289.481E-03     39.0429E-03    -289.411E-03     578.800E-03    -289.105E-03     34.3184E-03
             422     11.4586E-03     110.119E-03    -15.3517E+06     68.1673E+06     95.9320E+06     1.31034E+06    -288.871E-03     578.363E-03    -289.492E-03     38.9645E-03    -289.364E-03     578.766E-03    -289.089E-03     33.4489E-03
             423     12.1328E-03     110.177E-03    -9.66553E+06     82.2616E+06     102.187E+06     838.541E+03    -288.551E-03     578.024E-03    -289.473E-03     38.8920E-03    -289.080E-03     578.514E-03    -289.067E-03     32.3613E-03
             424     12.8075E-03     110.234E-03    -4.60886E+06     88.5040E+06     101.104E+06     588.807E+03    -288.267E-03     577.687E-03    -289.420E-03     32.8842E-03    -288.737E-03     578.161E-03    -289.036E-03     26.8305E-03
             425     673.752E-06     111.154E-03    -121.775E+06    -246.955E+06    -120.057E+06     278.278E+03    -289.460E-03     578.901E-03    -289.441E-03     3.02103E-03    -289.536E-03     578.017E-03    -289.507E-03     3.33646E-03
             426     1.34752E-03     111.162E-03    -119.217E+06    -237.959E+06    -112.528E+06     306.574E+03    -289.415E-03     578.881E-03    -289.467E-03     5.55538E-03    -289.502E-03     578.027E-03    -289.511E-03     6.11244E-03
             427     2.02132E-03     111.176E-03    -115.115E+06    -225.319E+06    -100.852E+06     350.169E+03    -289.375E-03     578.860E-03    -289.484E-03     8.23057E-03    -289.478E-03     578.046E-03    -289.495E-03     9.00526E-03
             428     2.69515E-03     111.195E-03    -109.748E+06    -209.120E+06    -86.2487E+06     399.046E+03    -289.328E-03     578.832E-03    -289.504E-03     10.9144E-03    -289.448E-03     578.071E-03    -289.473E-03     11.8544E-03
             429     3.36903E-03     111.218E-03    -103.407E+06    -190.322E+06    -70.0172E+06     434.591E+03    -289.275E-03     578.799E-03    -289.524E-03     13.5929E-03    -289.415E-03     578.099E-03    -289.448E-03     14.6271E-03
             430     4.04296E-03     111.247E-03    -96.3834E+06    -169.700E+06    -53.2336E+06     451.425E+03    -289.223E-03     578.762E-03    -289.538E-03     16.2596E-03    -289.383E-03     578.131E-03    -289.419E-03     17.3019E-03
             431     4.71694E-03     111.280E-03    -88.9808E+06    -147.571E+06    -36.6905E+06     475.068E+03    -289.173E-03     578.720E-03    -289.547E-03     18.9155E-03    -289.354E-03     578.168E-03    -289.387E-03     19.8670E-03
             432     5.39097E-03     111.318E-03    -81.4529E+06    -124.080E+06    -20.8535E+06     568.171E+03    -289.125E-03     578.673E-03    -289.548E-03     21.5512E-03    -289.329E-03     578.208E-03    -289.354E-03     22.3044E-03
             433     6.06505E-03     111.360E-03    -73.9906E+06    -98.4484E+06    -5.87517E+06     762.399E+03    -289.075E-03     578.616E-03    -289.541E-03     24.1624E-03    -289.305E-03     578.251E-03    -289.320E-03     24.6030E-03
             434     6.73918E-03     111.406E-03    -66.7331E+06    -70.2588E+06     8.35694E+06     1.11303E+06    -289.019E-03     578.545E-03    -289.526E-03     26.7179E-03    -289.283E-03     578.298E-03    -289.286E-03     26.7300E-03
             435     7.41338E-03     111.456E-03    -59.7494E+06    -37.0609E+06     22.1345E+06     1.56776E+06    -288.947E-03     578.448E-03    -289.501E-03     29.1801E-03    -289.256E-03     578.349E-03    -289.250E-03     28.6491E-03
             436     8.08761E-03     111.509E-03    -52.8832E+06     3.22923E+06     36.1562E+06     1.37954E+06    -288.850E-03     578.317E-03    -289.466E-03     31.6343E-03    -289.219E-03     578.404E-03    -289.214E-03     30.4231E-03
             437     8.76192E-03     111.565E-03    -46.0515E+06     36.2431E+06     48.1368E+06     981.883E+03    -288.782E-03     578.214E-03    -289.432E-03     34.0243E-03    -289.204E-03     578.461E-03    -289.177E-03     32.0106E-03
             438     9.43621E-03     111.624E-03    -39.3719E+06     46.9538E+06     57.7565E+06     1.94846E+06    -288.785E-03     578.205E-03    -289.420E-03     36.1477E-03    -289.229E-03     578.508E-03    -289.142E-03     33.2722E-03
             439     10.1104E-03     111.686E-03    -32.1645E+06     60.6002E+06     70.5448E+06     4.12145E+06    -288.718E-03     578.140E-03    -289.422E-03     37.8823E-03    -289.194E-03     578.512E-03    -289.110E-03     34.1252E-03
             440     10.7848E-03     111.748E-03    -24.5346E+06     71.1114E+06     82.4972E+06     4.58612E+06    -288.603E-03     578.025E-03    -289.422E-03     39.0452E-03    -289.104E-03     578.452E-03    -289.077E-03     34.3821E-03
             441     11.4595E-03     111.809E-03    -17.9150E+06     72.3704E+06     93.5230E+06     2.81300E+06    -288.536E-03     577.969E-03    -289.432E-03     39.2306E-03    -289.046E-03     578.400E-03    -289.043E-03     33.7528E-03
             442     12.1340E-03     111.867E-03    -12.0316E+06     81.6993E+06     102.092E+06     1.82866E+06    -288.480E-03     577.902E-03    -289.422E-03     39.2479E-03    -289.022E-03     578.396E-03    -289.013E-03     32.7153E-03
             443     12.8083E-03     111.924E-03    -5.94471E+06     90.6768E+06     103.853E+06     1.22353E+06    -288.381E-03     577.763E-03    -289.382E-03     33.1200E-03    -288.866E-03     578.248E-03    -288.986E-03     27.0492E-03
             444     673.790E-06     112.844E-03    -122.699E+06    -247.847E+06    -121.027E+06     120.729E+03    -289.411E-03     578.802E-03    -289.391E-03     3.02769E-03    -289.490E-03     577.916E-03    -289.458E-03     3.34152E-03
             445     1.34759E-03     112.852E-03    -120.151E+06    -238.531E+06    -113.389E+06     281.134E+03    -289.367E-03     578.784E-03    -289.418E-03     5.56540E-03    -289.457E-03     577.930E-03    -289.464E-03     6.12320E-03
             446     2.02142E-03     112.866E-03    -116.097E+06    -225.732E+06    -101.575E+06     340.022E+03    -289.330E-03     578.766E-03    -289.437E-03     8.24148E-03    -289.435E-03     577.953E-03    -289.449E-03     9.01748E-03
             447     2.69529E-03     112.885E-03    -110.754E+06    -209.498E+06    -86.8882E+06     377.132E+03    -289.284E-03     578.742E-03    -289.458E-03     10.9243E-03    -289.408E-03     577.981E-03    -289.429E-03     11.8653E-03
             448     3.36919E-03     112.908E-03    -104.466E+06    -190.665E+06    -70.5760E+06     430.562E+03    -289.235E-03     578.714E-03    -289.479E-03     13.6011E-03    -289.379E-03     578.015E-03    -289.404E-03     14.6361E-03
             449     4.04314E-03     112.937E-03    -97.5779E+06    -170.047E+06    -53.7739E+06     510.335E+03    -289.188E-03     578.684E-03    -289.496E-03     16.2620E-03    -289.353E-03     578.055E-03    -289.377E-03     17.3051E-03
             450     4.71714E-03     112.970E-03    -90.3567E+06    -148.042E+06    -37.3191E+06     647.636E+03    -289.145E-03     578.651E-03    -289.507E-03     18.9058E-03    -289.331E-03     578.100E-03    -289.348E-03     19.8589E-03
             451     5.39118E-03     113.008E-03    -82.9872E+06    -124.771E+06    -21.6503E+06     850.928E+03    -289.104E-03     578.614E-03    -289.510E-03     21.5268E-03    -289.313E-03     578.149E-03    -289.317E-03     22.2822E-03
             452     6.06527E-03     113.050E-03    -75.5802E+06    -99.5124E+06    -6.90460E+06     1.17090E+06    -289.061E-03     578.566E-03    -289.505E-03     24.1263E-03    -289.297E-03     578.200E-03    -289.286E-03     24.5704E-03
             453     6.73940E-03     113.096E-03    -68.1680E+06    -71.8052E+06     7.09603E+06     1.63548E+06    -289.011E-03     578.504E-03    -289.492E-03     26.6807E-03    -289.278E-03     578.253E-03    -289.254E-03     26.6980E-03
             454     7.41356E-03     113.146E-03    -60.7550E+06    -38.9556E+06     20.7938E+06     2.26964E+06    -288.941E-03     578.411E-03    -289.470E-03     29.1587E-03    -289.250E-03     578.305E-03    -289.221E-03     28.6374E-03
             455     8.08780E-03     113.199E-03    -53.8172E+06     2.65861E+06     35.0037E+06     3.13701E+06    -288.836E-03     578.271E-03    -289.435E-03     31.6480E-03    -289.207E-03     578.359E-03    -289.186E-03     30.4678E-03
             456     8.76205E-03     113.256E-03    -47.8301E+06     35.8256E+06     46.7685E+06     3.69554E+06    -288.759E-03     578.161E-03    -289.401E-03     34.1328E-03    -289.187E-03     578.410E-03    -289.150E-03     32.1761E-03
             457     9.43633E-03     113.315E-03    -42.0261E+06     45.3630E+06     55.0828E+06     3.26810E+06    -288.733E-03     578.119E-03    -289.385E-03     36.4604E-03    -289.184E-03     578.421E-03    -289.115E-03     33.6327E-03
             458     10.1107E-03     113.376E-03    -35.3368E+06     59.2987E+06     65.4932E+06     1.78712E+06    -288.600E-03     577.971E-03    -289.371E-03     38.3656E-03    -289.083E-03     578.349E-03    -289.078E-03     34.5917E-03
             459     10.7853E-03     113.438E-03    -27.7851E+06     70.3454E+06     78.2955E+06     1.56906E+06    -288.430E-03     577.797E-03    -289.368E-03     39.3049E-03    -288.940E-03     578.232E-03    -289.038E-03     34.5932E-03
             460     11.4600E-03     113.499E-03    -19.9769E+06     74.4279E+06     93.1643E+06     2.36021E+06    -288.362E-03     577.747E-03    -289.384E-03     38.9763E-03    -288.884E-03     578.191E-03    -288.997E-03     33.4965E-03
             461     12.1347E-03     113.557E-03    -12.3765E+06     84.1404E+06     103.269E+06     1.30044E+06    -288.382E-03     577.757E-03    -289.375E-03     38.7757E-03    -288.930E-03     578.260E-03    -288.963E-03     32.2280E-03
             462     12.8090E-03     113.614E-03    -5.60020E+06     91.8686E+06     104.792E+06     273.846E+03    -288.381E-03     577.716E-03    -289.335E-03     32.8417E-03    -288.867E-03     578.205E-03    -288.936E-03     26.7214E-03
             463     673.821E-06     114.534E-03    -123.198E+06    -248.490E+06    -121.293E+06     87.8341E+03    -289.365E-03     578.709E-03    -289.344E-03     3.02217E-03    -289.444E-03     577.821E-03    -289.412E-03     3.33556E-03
             464     1.34766E-03     114.543E-03    -120.561E+06    -239.483E+06    -113.611E+06     355.769E+03    -289.323E-03     578.696E-03    -289.373E-03     5.55402E-03    -289.414E-03     577.838E-03    -289.419E-03     6.11297E-03
             465     2.02152E-03     114.556E-03    -116.459E+06    -226.285E+06    -101.853E+06     548.719E+03    -289.287E-03     578.679E-03    -289.392E-03     8.22408E-03    -289.393E-03     577.864E-03    -289.404E-03     9.00346E-03
             466     2.69540E-03     114.575E-03    -111.179E+06    -210.116E+06    -87.1275E+06     691.058E+03    -289.244E-03     578.660E-03    -289.415E-03     10.9013E-03    -289.369E-03     577.897E-03    -289.385E-03     11.8473E-03
             467     3.36934E-03     114.599E-03    -104.994E+06    -191.300E+06    -70.8641E+06     870.551E+03    -289.200E-03     578.638E-03    -289.438E-03     13.5730E-03    -289.346E-03     577.937E-03    -289.362E-03     14.6148E-03
             468     4.04330E-03     114.627E-03    -98.1738E+06    -170.755E+06    -54.1000E+06     1.06983E+06    -289.159E-03     578.615E-03    -289.456E-03     16.2324E-03    -289.325E-03     577.984E-03    -289.337E-03     17.2841E-03
             469     4.71731E-03     114.661E-03    -90.9687E+06    -148.815E+06    -37.7222E+06     1.26374E+06    -289.119E-03     578.588E-03    -289.469E-03     18.8827E-03    -289.307E-03     578.034E-03    -289.310E-03     19.8459E-03
             470     5.39135E-03     114.698E-03    -83.5765E+06    -125.618E+06    -22.2033E+06     1.43888E+06    -289.078E-03     578.552E-03    -289.473E-03     21.5226E-03    -289.288E-03     578.083E-03    -289.281E-03     22.2898E-03
             471     6.06544E-03     114.740E-03    -76.1116E+06    -100.562E+06    -7.62557E+06     1.58990E+06    -289.030E-03     578.499E-03    -289.469E-03     24.1584E-03    -289.266E-03     578.129E-03    -289.251E-03     24.6149E-03
             472     6.73958E-03     114.787E-03    -68.6253E+06    -73.1275E+06     6.18749E+06     1.74980E+06    -288.969E-03     578.424E-03    -289.455E-03     26.7671E-03    -289.235E-03     578.169E-03    -289.218E-03     26.7965E-03
             473     7.41379E-03     114.836E-03    -61.1263E+06    -40.9162E+06     19.6312E+06     2.04870E+06    -288.882E-03     578.311E-03    -289.430E-03     29.3107E-03    -289.187E-03     578.198E-03    -289.184E-03     28.8018E-03
             474     8.08806E-03     114.889E-03    -53.4505E+06    -2.44286E+06     33.2743E+06     3.55228E+06    -288.760E-03     578.153E-03    -289.393E-03     31.8510E-03    -289.119E-03     578.217E-03    -289.145E-03     30.6982E-03
             475     8.76249E-03     114.946E-03    -45.7011E+06     33.6835E+06     45.5958E+06     5.29489E+06    -288.639E-03     577.987E-03    -289.349E-03     34.3619E-03    -289.051E-03     578.224E-03    -289.103E-03     32.4523E-03
             476     9.43700E-03     115.005E-03    -38.2727E+06     50.2999E+06     56.3159E+06     4.04448E+06    -288.589E-03     577.914E-03    -289.324E-03     36.6664E-03    -289.030E-03     578.234E-03    -289.060E-03     33.8633E-03
             477     10.1116E-03     115.066E-03    -31.1270E+06     64.7391E+06     70.7080E+06     1.11366E+06    -288.570E-03     577.896E-03    -289.326E-03     38.4570E-03    -289.048E-03     578.287E-03    -289.021E-03     34.6681E-03
             478     10.7860E-03     115.128E-03    -24.0528E+06     67.3564E+06     83.9675E+06     177.295E+03    -288.613E-03     577.958E-03    -289.345E-03     39.3278E-03    -289.109E-03     578.364E-03    -288.988E-03     34.5857E-03
             479     11.4602E-03     115.189E-03    -17.0503E+06     72.6927E+06     96.9768E+06     806.038E+03    -288.544E-03     577.908E-03    -289.364E-03     39.0381E-03    -289.054E-03     578.334E-03    -288.960E-03     33.5344E-03
             480     12.1346E-03     115.247E-03    -10.7208E+06     87.0642E+06     105.084E+06     1.05423E+06    -288.340E-03     577.686E-03    -289.346E-03     38.7965E-03    -288.886E-03     578.198E-03    -288.931E-03     32.2536E-03
             481     12.8093E-03     115.304E-03    -5.29690E+06     92.3036E+06     104.424E+06     767.773E+03    -288.200E-03     577.497E-03    -289.297E-03     32.7537E-03    -288.685E-03     577.988E-03    -288.901E-03     26.6396E-03
             482     673.849E-06     116.224E-03    -123.101E+06    -249.452E+06    -121.173E+06     303.729E+03    -289.326E-03     578.633E-03    -289.307E-03     3.01931E-03    -289.404E-03     577.740E-03    -289.373E-03     3.33605E-03
             483     1.34770E-03     116.232E-03    -120.490E+06    -240.775E+06    -113.503E+06     540.008E+03    -289.285E-03     578.620E-03    -289.335E-03     5.55154E-03    -289.373E-03     577.755E-03    -289.379E-03     6.11390E-03
             484     2.02159E-03     116.246E-03    -116.454E+06    -227.511E+06    -101.879E+06     875.266E+03    -289.247E-03     578.600E-03    -289.353E-03     8.22053E-03    -289.351E-03     577.779E-03    -289.364E-03     9.00655E-03
             485     2.69551E-03     116.265E-03    -111.187E+06    -211.209E+06    -87.1637E+06     1.17534E+06    -289.203E-03     578.579E-03    -289.376E-03     10.9013E-03    -289.326E-03     577.810E-03    -289.344E-03     11.8579E-03
             486     3.36945E-03     116.288E-03    -104.949E+06    -192.446E+06    -70.8419E+06     1.42453E+06    -289.157E-03     578.555E-03    -289.398E-03     13.5890E-03    -289.301E-03     577.848E-03    -289.321E-03     14.6442E-03
             487     4.04344E-03     116.317E-03    -98.0596E+06    -171.847E+06    -54.1233E+06     1.66141E+06    -289.110E-03     578.525E-03    -289.415E-03     16.2763E-03    -289.274E-03     577.887E-03    -289.294E-03     17.3447E-03
             488     4.71748E-03     116.350E-03    -90.7896E+06    -149.757E+06    -37.7688E+06     1.83392E+06    -289.060E-03     578.485E-03    -289.425E-03     18.9651E-03    -289.245E-03     577.926E-03    -289.265E-03     19.9483E-03
             489     5.39157E-03     116.388E-03    -83.3427E+06    -126.436E+06    -22.1931E+06     1.93597E+06    -289.007E-03     578.433E-03    -289.426E-03     21.6518E-03    -289.215E-03     577.961E-03    -289.233E-03     22.4413E-03
             490     6.06572E-03     116.430E-03    -75.8864E+06    -101.242E+06    -7.52798E+06     1.98257E+06    -288.947E-03     578.365E-03    -289.418E-03     24.3344E-03    -289.180E-03     577.991E-03    -289.199E-03     24.8146E-03
             491     6.73995E-03     116.476E-03    -68.5280E+06    -73.7916E+06     6.35304E+06     1.98604E+06    -288.877E-03     578.278E-03    -289.400E-03     26.9767E-03    -289.142E-03     578.018E-03    -289.162E-03     27.0290E-03
             492     7.41425E-03     116.526E-03    -61.2921E+06    -42.0539E+06     19.7268E+06     2.05013E+06    -288.794E-03     578.166E-03    -289.372E-03     29.5224E-03    -289.099E-03     578.047E-03    -289.124E-03     29.0315E-03
             493     8.08865E-03     116.579E-03    -53.7444E+06    -5.82860E+06     33.0695E+06     1.91865E+06    -288.697E-03     578.032E-03    -289.335E-03     32.0276E-03    -289.052E-03     578.079E-03    -289.083E-03     30.8618E-03
             494     8.76309E-03     116.635E-03    -45.1438E+06     31.6373E+06     45.9738E+06     1.67311E+06    -288.604E-03     577.895E-03    -289.291E-03     34.4273E-03    -289.010E-03     578.120E-03    -289.042E-03     32.4615E-03
             495     9.43763E-03     116.694E-03    -36.4380E+06     52.8580E+06     58.6652E+06     2.00552E+06    -288.587E-03     577.858E-03    -289.271E-03     36.5551E-03    -289.026E-03     578.185E-03    -289.002E-03     33.7142E-03
             496     10.1120E-03     116.755E-03    -29.4404E+06     67.8003E+06     73.9771E+06     2.27643E+06    -288.580E-03     577.861E-03    -289.281E-03     38.2949E-03    -289.057E-03     578.260E-03    -288.966E-03     34.5327E-03
             497     10.7864E-03     116.818E-03    -23.8946E+06     67.5066E+06     85.0573E+06     1.83850E+06    -288.586E-03     577.885E-03    -289.298E-03     39.3495E-03    -289.082E-03     578.289E-03    -288.936E-03     34.6594E-03
             498     11.4609E-03     116.879E-03    -18.4308E+06     71.5367E+06     96.4011E+06     1.64940E+06    -288.525E-03     577.840E-03    -289.315E-03     39.3000E-03    -289.040E-03     578.264E-03    -288.910E-03     33.8188E-03
             499     12.1354E-03     116.937E-03    -12.2939E+06     87.1837E+06     105.350E+06     1.68531E+06    -288.376E-03     577.679E-03    -289.303E-03     39.1589E-03    -288.932E-03     578.195E-03    -288.885E-03     32.6153E-03
             500     12.8098E-03     116.993E-03    -5.89310E+06     93.9933E+06     105.774E+06     1.03919E+06    -288.198E-03     577.456E-03    -289.259E-03     33.0342E-03    -288.691E-03     577.956E-03    -288.857E-03     26.9163E-03
             501     673.870E-06     117.914E-03    -123.402E+06    -250.958E+06    -121.568E+06     379.684E+03    -289.275E-03     578.533E-03    -289.258E-03     3.04069E-03    -289.352E-03     577.633E-03    -289.323E-03     3.36087E-03
             502     1.34777E-03     117.922E-03    -120.729E+06    -242.391E+06    -113.692E+06     703.492E+03    -289.231E-03     578.516E-03    -289.285E-03     5.59044E-03    -289.318E-03     577.644E-03    -289.327E-03     6.15971E-03
             503     2.02168E-03     117.936E-03    -116.538E+06    -229.387E+06    -101.797E+06     1.12208E+06    -289.188E-03     578.490E-03    -289.302E-03     8.28232E-03    -289.290E-03     577.660E-03    -289.310E-03     9.07896E-03
             504     2.69563E-03     117.954E-03    -111.140E+06    -212.775E+06    -87.1170E+06     1.50141E+06    -289.135E-03     578.456E-03    -289.321E-03     10.9915E-03    -289.255E-03     577.679E-03    -289.287E-03     11.9630E-03
             505     3.36963E-03     117.978E-03    -104.831E+06    -193.912E+06    -70.8021E+06     1.79549E+06    -289.078E-03     578.416E-03    -289.338E-03     13.7131E-03    -289.218E-03     577.701E-03    -289.259E-03     14.7865E-03
             506     4.04369E-03     118.007E-03    -97.8733E+06    -173.160E+06    -53.9384E+06     2.03347E+06    -289.019E-03     578.370E-03    -289.351E-03     16.4325E-03    -289.180E-03     577.726E-03    -289.228E-03     17.5213E-03
             507     4.71781E-03     118.040E-03    -90.5326E+06    -150.843E+06    -37.3906E+06     2.22164E+06    -288.961E-03     578.318E-03    -289.357E-03     19.1431E-03    -289.144E-03     577.752E-03    -289.194E-03     20.1484E-03
             508     5.39199E-03     118.078E-03    -83.0548E+06    -127.361E+06    -21.5820E+06     2.37635E+06    -288.907E-03     578.261E-03    -289.355E-03     21.8338E-03    -289.112E-03     577.782E-03    -289.157E-03     22.6464E-03
             509     6.06624E-03     118.120E-03    -75.6075E+06    -102.055E+06    -6.67003E+06     2.53020E+06    -288.856E-03     578.201E-03    -289.344E-03     24.4954E-03    -289.088E-03     577.821E-03    -289.120E-03     24.9983E-03
             510     6.74054E-03     118.166E-03    -68.2816E+06    -74.3906E+06     7.49770E+06     2.64844E+06    -288.811E-03     578.138E-03    -289.327E-03     27.0898E-03    -289.075E-03     577.874E-03    -289.083E-03     27.1631E-03
             511     7.41489E-03     118.216E-03    -61.0358E+06    -42.5272E+06     21.2336E+06     2.61459E+06    -288.763E-03     578.067E-03    -289.303E-03     29.5738E-03    -289.068E-03     577.942E-03    -289.047E-03     29.0980E-03
             512     8.08924E-03     118.269E-03    -53.9781E+06    -3.87719E+06     35.2900E+06     1.79192E+06    -288.701E-03     577.973E-03    -289.272E-03     32.0395E-03    -289.063E-03     578.028E-03    -289.012E-03     30.8764E-03
             513     8.76363E-03     118.325E-03    -47.5380E+06     33.1972E+06     47.9567E+06     353.284E+03    -288.642E-03     577.881E-03    -289.239E-03     34.4618E-03    -289.066E-03     578.115E-03    -288.978E-03     32.4831E-03
             514     9.43794E-03     118.384E-03    -41.1154E+06     50.1122E+06     57.6238E+06     190.774E+03    -288.607E-03     577.829E-03    -289.221E-03     36.6631E-03    -289.064E-03     578.150E-03    -288.946E-03     33.8058E-03
             515     10.1124E-03     118.445E-03     -33.731E+06     65.1114E+06     69.3148E+06     1.76701E+06    -288.506E-03     577.721E-03    -289.215E-03     38.4427E-03    -288.995E-03     578.120E-03    -288.914E-03     34.6873E-03
             516     10.7871E-03     118.507E-03    -26.2928E+06     67.1528E+06     80.5884E+06     3.19435E+06    -288.465E-03     577.690E-03    -289.225E-03     39.4201E-03    -288.966E-03     578.102E-03    -288.881E-03     34.7704E-03
             517     11.4616E-03     118.568E-03    -19.4136E+06     72.7052E+06     94.7504E+06     2.85915E+06    -288.431E-03     577.680E-03    -289.248E-03     39.2381E-03    -288.950E-03     578.113E-03    -288.852E-03     33.7822E-03
             518     12.1362E-03     118.627E-03    -12.5421E+06     89.4436E+06     105.542E+06     1.26554E+06    -288.333E-03     577.575E-03    -289.242E-03     39.0803E-03    -288.894E-03     578.103E-03    -288.826E-03     32.5029E-03
             519     12.8107E-03     118.683E-03    -5.97835E+06     95.7283E+06     106.135E+06     161.556E+03    -288.226E-03     577.429E-03    -289.203E-03     33.0547E-03    -288.724E-03     577.938E-03    -288.802E-03     26.8772E-03
             520     673.934E-06     119.603E-03    -123.874E+06    -252.799E+06    -121.962E+06     436.005E+03    -289.186E-03     578.356E-03    -289.170E-03     3.08238E-03    -289.262E-03     577.449E-03    -289.233E-03     3.40702E-03
             521     1.34787E-03     119.612E-03    -121.189E+06    -244.231E+06    -114.072E+06     774.475E+03    -289.137E-03     578.333E-03    -289.196E-03     5.66737E-03    -289.223E-03     577.453E-03    -289.236E-03     6.24383E-03
             522     2.02186E-03     119.625E-03    -116.955E+06    -231.415E+06    -102.145E+06     1.14560E+06    -289.089E-03     578.299E-03    -289.211E-03     8.39415E-03    -289.189E-03     577.460E-03    -289.216E-03     9.19946E-03
             523     2.69589E-03     119.644E-03    -111.446E+06    -214.695E+06    -87.2562E+06     1.56693E+06    -289.031E-03     578.258E-03    -289.227E-03     11.1287E-03    -289.150E-03     577.473E-03    -289.191E-03     12.1110E-03
             524     3.36998E-03     119.668E-03    -104.973E+06    -195.500E+06    -70.6357E+06     1.90304E+06    -288.973E-03     578.216E-03    -289.243E-03     13.8603E-03    -289.112E-03     577.493E-03    -289.161E-03     14.9458E-03
             525     4.04412E-03     119.696E-03    -97.8312E+06    -174.613E+06    -53.4495E+06     2.15636E+06    -288.919E-03     578.175E-03    -289.256E-03     16.5698E-03    -289.078E-03     577.522E-03    -289.128E-03     17.6706E-03
             526     4.71832E-03     119.730E-03    -90.3194E+06    -152.294E+06    -36.5747E+06     2.45241E+06    -288.874E-03     578.137E-03    -289.263E-03     19.2511E-03    -289.055E-03     577.563E-03    -289.094E-03     20.2686E-03
             527     5.39257E-03     119.767E-03    -82.6833E+06    -128.746E+06    -20.4961E+06     2.79034E+06    -288.842E-03     578.106E-03    -289.264E-03     21.8970E-03    -289.045E-03     577.618E-03    -289.060E-03     22.7225E-03
             528     6.06685E-03     119.809E-03    -75.0754E+06    -103.394E+06    -5.37859E+06     3.11532E+06    -288.820E-03     578.080E-03    -289.260E-03     24.5103E-03    -289.049E-03     577.690E-03    -289.028E-03     25.0273E-03
             529     6.74114E-03     119.855E-03    -67.5670E+06    -75.4642E+06     8.90122E+06     3.37681E+06    -288.799E-03     578.048E-03    -289.249E-03     27.0742E-03    -289.060E-03     577.775E-03    -288.997E-03     27.1644E-03
             530     7.41545E-03     119.905E-03    -60.2201E+06    -42.7416E+06     22.7879E+06     3.38093E+06    -288.761E-03     577.992E-03    -289.231E-03     29.5682E-03    -289.064E-03     577.863E-03    -288.968E-03     29.1135E-03
             531     8.08980E-03     119.958E-03    -53.1921E+06    -2.81719E+06     36.8701E+06     3.43161E+06    -288.682E-03     577.886E-03    -289.204E-03     32.0807E-03    -289.044E-03     577.942E-03    -288.938E-03     30.9579E-03
             532     8.76419E-03     120.015E-03    -46.5242E+06     35.7412E+06     49.4943E+06     3.21430E+06    -288.589E-03     577.759E-03    -289.171E-03     34.5845E-03    -289.013E-03     578.001E-03    -288.907E-03     32.6703E-03
             533     9.43871E-03     120.074E-03    -39.9562E+06     53.0893E+06     59.6616E+06     1.15988E+06    -288.564E-03     577.720E-03    -289.156E-03     36.8730E-03    -289.022E-03     578.052E-03    -288.877E-03     34.0470E-03
             534     10.1132E-03     120.135E-03    -33.1113E+06     60.3624E+06     70.8664E+06     237.036E+03    -288.571E-03     577.734E-03    -289.164E-03     38.5967E-03    -289.052E-03     578.107E-03    -288.849E-03     34.8220E-03
             535     10.7877E-03     120.197E-03    -25.8299E+06     62.7764E+06     81.5433E+06     2.03616E+06    -288.559E-03     577.738E-03    -289.179E-03     39.3981E-03    -289.052E-03     578.126E-03    -288.825E-03     34.7257E-03
             536     11.4621E-03     120.258E-03    -18.5118E+06     76.1141E+06     95.4233E+06     2.26355E+06    -288.430E-03     577.625E-03    -289.195E-03     39.1217E-03    -288.950E-03     578.073E-03    -288.802E-03     33.6437E-03
             537     12.1367E-03     120.316E-03    -11.6715E+06     93.0578E+06     105.815E+06     832.025E+03    -288.265E-03     577.453E-03    -289.188E-03     38.9206E-03    -288.829E-03     577.999E-03    -288.777E-03     32.3084E-03
             538     12.8113E-03     120.373E-03    -5.51067E+06     96.9851E+06     105.704E+06    -31.1843E+03    -288.182E-03     577.331E-03    -289.149E-03     32.8488E-03    -288.680E-03     577.847E-03    -288.753E-03     26.6299E-03
             539     674.024E-06     121.292E-03    -124.307E+06    -254.821E+06    -122.435E+06     449.215E+03    -289.056E-03     578.095E-03    -289.038E-03     3.10826E-03    -289.131E-03     577.178E-03    -289.101E-03     3.43500E-03
             540     1.34808E-03     121.301E-03    -121.539E+06    -246.024E+06    -114.369E+06     778.056E+03    -289.009E-03     578.075E-03    -289.066E-03     5.70974E-03    -289.094E-03     577.186E-03    -289.105E-03     6.28911E-03
             541     2.02216E-03     121.314E-03    -117.203E+06    -233.293E+06    -102.091E+06     1.09924E+06    -288.968E-03     578.053E-03    -289.084E-03     8.44328E-03    -289.068E-03     577.204E-03    -289.087E-03     9.25069E-03
             542     2.69627E-03     121.333E-03    -111.556E+06    -216.591E+06    -86.9425E+06     1.43151E+06    -288.924E-03     578.029E-03    -289.105E-03     11.1729E-03    -289.041E-03     577.234E-03    -289.064E-03     12.1553E-03
             543     3.37043E-03     121.357E-03    -104.892E+06    -197.031E+06    -70.1667E+06     1.70847E+06    -288.883E-03     578.010E-03    -289.126E-03     13.8867E-03    -289.020E-03     577.278E-03    -289.039E-03     14.9709E-03
             544     4.04463E-03     121.385E-03    -97.5544E+06    -176.237E+06    -52.7946E+06     2.00159E+06    -288.852E-03     577.998E-03    -289.146E-03     16.5686E-03    -289.008E-03     577.336E-03    -289.013E-03     17.6686E-03
             545     4.71886E-03     121.419E-03    -89.8245E+06    -154.046E+06    -35.8181E+06     2.35938E+06    -288.830E-03     577.992E-03    -289.162E-03     19.2240E-03    -289.007E-03     577.407E-03    -288.987E-03     20.2423E-03
             546     5.39311E-03     121.456E-03    -81.8955E+06    -130.542E+06    -19.7034E+06     2.74064E+06    -288.816E-03     577.988E-03    -289.172E-03     21.8593E-03    -289.014E-03     577.488E-03    -288.962E-03     22.6883E-03
             547     6.06738E-03     121.499E-03    -73.9275E+06    -105.143E+06    -4.55464E+06     3.12843E+06    -288.801E-03     577.976E-03    -289.174E-03     24.4878E-03    -289.023E-03     577.575E-03    -288.937E-03     25.0130E-03
             548     6.74168E-03     121.545E-03    -66.0626E+06    -77.0308E+06     9.77412E+06     3.49355E+06    -288.773E-03     577.942E-03    -289.169E-03     27.0911E-03    -289.025E-03     577.658E-03    -288.913E-03     27.1954E-03
             549     7.41603E-03     121.595E-03    -58.4429E+06    -43.8439E+06     23.7113E+06     3.89466E+06    -288.716E-03     577.870E-03    -289.154E-03     29.6258E-03    -289.010E-03     577.732E-03    -288.887E-03     29.1947E-03
             550     8.09045E-03     121.648E-03    -50.9479E+06    -4.29589E+06     37.8234E+06     4.28810E+06    -288.629E-03     577.757E-03    -289.128E-03     32.1456E-03    -288.978E-03     577.801E-03    -288.859E-03     31.0506E-03
             551     8.76498E-03     121.704E-03    -43.2794E+06     37.4359E+06     51.5288E+06     3.88385E+06    -288.545E-03     577.640E-03    -289.096E-03     34.5814E-03    -288.958E-03     577.883E-03    -288.830E-03     32.6860E-03
             552     9.43953E-03     121.763E-03    -35.9959E+06     58.7593E+06     63.7322E+06     2.65027E+06    -288.567E-03     577.654E-03    -289.088E-03     36.7597E-03    -289.018E-03     578.002E-03    -288.802E-03     33.9670E-03
             553     10.1140E-03     121.824E-03    -29.7372E+06     58.4187E+06     74.8656E+06     2.02957E+06    -288.659E-03     577.774E-03    -289.114E-03     38.5135E-03    -289.126E-03     578.125E-03    -288.782E-03     34.7780E-03
             554     10.7882E-03     121.886E-03    -23.9250E+06     59.2404E+06     83.9151E+06     2.24023E+06    -288.656E-03     577.791E-03    -289.135E-03     39.4742E-03    -289.139E-03     578.156E-03    -288.767E-03     34.7986E-03
             555     11.4626E-03     121.947E-03    -17.7456E+06     78.8518E+06     96.6412E+06     2.01252E+06    -288.479E-03     577.625E-03    -289.146E-03     39.2502E-03    -289.002E-03     578.085E-03    -288.751E-03     33.7513E-03
             556     12.1372E-03     122.006E-03    -11.3201E+06     95.6664E+06     106.533E+06     1.12461E+06    -288.294E-03     577.436E-03    -289.142E-03     38.9816E-03    -288.861E-03     577.993E-03    -288.732E-03     32.3505E-03
             557     12.8118E-03     122.062E-03    -5.34903E+06     98.0602E+06     106.122E+06     437.000E+03    -288.166E-03     577.272E-03    -289.107E-03     32.8694E-03    -288.666E-03     577.794E-03    -288.710E-03     26.6388E-03
             558     674.137E-06     122.981E-03    -124.697E+06    -256.627E+06    -122.750E+06     356.606E+03    -288.923E-03     577.825E-03    -288.902E-03     3.09072E-03    -288.996E-03     576.901E-03    -288.963E-03     3.41525E-03
             559     1.34827E-03     122.989E-03    -121.862E+06    -247.757E+06    -114.588E+06     661.395E+03    -288.886E-03     577.821E-03    -288.934E-03     5.67275E-03    -288.970E-03     576.925E-03    -288.971E-03     6.24951E-03
             560     2.02244E-03     123.003E-03    -117.434E+06    -234.915E+06    -102.192E+06     963.075E+03    -288.862E-03     577.821E-03    -288.959E-03     8.38954E-03    -288.960E-03     576.965E-03    -288.959E-03     9.19421E-03
             561     2.69662E-03     123.022E-03    -111.693E+06    -218.058E+06    -86.9354E+06     1.17693E+06    -288.836E-03     577.824E-03    -288.988E-03     11.1104E-03    -288.952E-03     577.022E-03    -288.944E-03     12.0886E-03
             562     3.37082E-03     123.045E-03    -105.009E+06    -198.500E+06    -70.1546E+06     1.41775E+06    -288.814E-03     577.831E-03    -289.017E-03     13.8178E-03    -288.949E-03     577.092E-03    -288.928E-03     14.8991E-03
             563     4.04505E-03     123.074E-03    -97.6763E+06    -177.763E+06    -52.8523E+06     1.68359E+06    -288.797E-03     577.842E-03    -289.045E-03     16.5049E-03    -288.952E-03     577.172E-03    -288.910E-03     17.6046E-03
             564     4.71929E-03     123.107E-03    -89.9183E+06    -155.595E+06    -35.9497E+06     1.91554E+06    -288.783E-03     577.850E-03    -289.067E-03     19.1846E-03    -288.957E-03     577.257E-03    -288.891E-03     20.2039E-03
             565     5.39357E-03     123.145E-03    -81.9537E+06    -132.164E+06    -19.8872E+06     2.15736E+06    -288.768E-03     577.850E-03    -289.083E-03     21.8547E-03    -288.963E-03     577.343E-03    -288.872E-03     22.6860E-03
             566     6.06789E-03     123.188E-03    -73.9562E+06    -106.866E+06    -4.75547E+06     2.45438E+06    -288.747E-03     577.836E-03    -289.089E-03     24.5122E-03    -288.966E-03     577.427E-03    -288.851E-03     25.0402E-03
             567     6.74227E-03     123.234E-03    -66.0395E+06    -78.9255E+06     9.65876E+06     2.87808E+06    -288.718E-03     577.805E-03    -289.088E-03     27.1165E-03    -288.966E-03     577.511E-03    -288.829E-03     27.2236E-03
             568     7.41668E-03     123.284E-03    -58.2166E+06    -46.1148E+06     23.7651E+06     3.47860E+06    -288.677E-03     577.753E-03    -289.076E-03     29.6090E-03    -288.966E-03     577.603E-03    -288.806E-03     29.1799E-03
             569     8.09115E-03     123.337E-03    -50.5571E+06    -6.05321E+06     38.3480E+06     4.01399E+06    -288.624E-03     577.681E-03    -289.057E-03     32.0594E-03    -288.970E-03     577.715E-03    -288.783E-03     30.9653E-03
             570     8.76559E-03     123.393E-03    -43.5161E+06     37.8144E+06     52.4975E+06     4.29938E+06    -288.570E-03     577.601E-03    -289.031E-03     34.4543E-03    -288.985E-03     577.844E-03    -288.760E-03     32.5730E-03
             571     9.43998E-03     123.452E-03    -37.2283E+06     59.7498E+06     63.1192E+06     4.42683E+06    -288.567E-03     577.590E-03    -289.022E-03     36.6561E-03    -289.025E-03     577.944E-03    -288.739E-03     33.9042E-03
             572     10.1144E-03     123.514E-03    -31.0913E+06     58.7342E+06     72.1241E+06     4.19026E+06    -288.592E-03     577.634E-03    -289.042E-03     38.4589E-03    -289.062E-03     577.992E-03    -288.721E-03     34.7702E-03
             573     10.7890E-03     123.576E-03    -24.6673E+06     59.8393E+06     82.0744E+06     3.42378E+06    -288.592E-03     577.657E-03    -289.065E-03     39.4696E-03    -289.077E-03     578.029E-03    -288.706E-03     34.8151E-03
             574     11.4634E-03     123.637E-03    -18.0733E+06     80.4685E+06     97.0380E+06     2.50989E+06    -288.486E-03     577.573E-03    -289.087E-03     39.3252E-03    -289.014E-03     578.041E-03    -288.692E-03     33.8255E-03
             575     12.1378E-03     123.695E-03    -11.6385E+06     97.5584E+06     107.649E+06     1.75388E+06    -288.316E-03     577.407E-03    -289.091E-03     39.1329E-03    -288.891E-03     577.974E-03    -288.677E-03     32.4874E-03
             576     12.8124E-03     123.751E-03    -5.62467E+06     99.5987E+06     107.099E+06     969.978E+03    -288.153E-03     577.212E-03    -289.058E-03     33.0573E-03    -288.660E-03     577.741E-03    -288.659E-03     26.8091E-03
             577     674.195E-06     124.669E-03    -125.484E+06    -258.201E+06    -123.591E+06     334.192E+03    -288.820E-03     577.617E-03    -288.798E-03     3.06287E-03    -288.894E-03     576.687E-03    -288.859E-03     3.38812E-03
             578     1.34841E-03     124.678E-03    -122.761E+06    -249.353E+06    -115.488E+06     620.611E+03    -288.790E-03     577.622E-03    -288.832E-03     5.63022E-03    -288.875E-03     576.720E-03    -288.870E-03     6.20892E-03
             579     2.02262E-03     124.691E-03    -118.408E+06    -236.127E+06    -103.228E+06     796.017E+03    -288.773E-03     577.632E-03    -288.859E-03     8.34045E-03    -288.873E-03     576.772E-03    -288.861E-03     9.14732E-03
             580     2.69685E-03     124.710E-03    -112.748E+06    -219.265E+06    -87.9354E+06     966.720E+03    -288.753E-03     577.645E-03    -288.891E-03     11.0630E-03    -288.871E-03     576.839E-03    -288.850E-03     12.0453E-03
             581     3.37111E-03     124.734E-03    -106.104E+06    -199.926E+06    -70.9436E+06     1.23625E+06    -288.734E-03     577.660E-03    -288.925E-03     13.7818E-03    -288.872E-03     576.917E-03    -288.836E-03     14.8705E-03
             582     4.04539E-03     124.763E-03    -98.7897E+06    -178.888E+06    -53.5183E+06     1.43829E+06    -288.718E-03     577.674E-03    -288.956E-03     16.4890E-03    -288.876E-03     577.001E-03    -288.821E-03     17.5973E-03
             583     4.71970E-03     124.796E-03    -91.1034E+06    -156.746E+06    -36.5500E+06     1.58711E+06    -288.706E-03     577.687E-03    -288.981E-03     19.1850E-03    -288.884E-03     577.091E-03    -288.804E-03     20.2123E-03
             584     5.39405E-03     124.834E-03    -83.2982E+06    -133.434E+06    -20.4689E+06     1.80035E+06    -288.697E-03     577.696E-03    -288.999E-03     21.8547E-03    -288.897E-03     577.185E-03    -288.787E-03     22.6925E-03
             585     6.06843E-03     124.876E-03    -75.5434E+06    -108.360E+06    -5.41718E+06     2.09653E+06    -288.693E-03     577.702E-03    -289.009E-03     24.4896E-03    -288.916E-03     577.288E-03    -288.769E-03     25.0215E-03
             586     6.74281E-03     124.922E-03    -67.9109E+06    -80.8766E+06     8.74453E+06     2.51749E+06    -288.689E-03     577.701E-03    -289.012E-03     27.0585E-03    -288.943E-03     577.401E-03    -288.752E-03     27.1673E-03
             587     7.41721E-03     124.972E-03    -60.4396E+06    -48.6114E+06     22.4724E+06     3.11059E+06    -288.674E-03     577.680E-03    -289.006E-03     29.5314E-03    -288.968E-03     577.522E-03    -288.735E-03     29.1050E-03
             588     8.09158E-03     125.026E-03    -53.2592E+06    -9.42878E+06     36.3741E+06     4.27048E+06    -288.625E-03     577.617E-03    -288.991E-03     32.0041E-03    -288.977E-03     577.640E-03    -288.719E-03     30.9282E-03
             589     8.76602E-03     125.082E-03    -46.2519E+06     35.5077E+06     49.9430E+06     5.56050E+06    -288.534E-03     577.499E-03    -288.965E-03     34.4589E-03    -288.956E-03     577.738E-03    -288.700E-03     32.6185E-03
             590     9.44059E-03     125.142E-03    -39.1405E+06     59.9961E+06     60.8559E+06     5.60215E+06    -288.502E-03     577.456E-03    -288.954E-03     36.7087E-03    -288.967E-03     577.818E-03    -288.680E-03     33.9912E-03
             591     10.1151E-03     125.203E-03    -32.0110E+06     60.0265E+06     70.7510E+06     4.61232E+06    -288.540E-03     577.515E-03    -288.975E-03     38.4981E-03    -289.014E-03     577.883E-03    -288.662E-03     34.8229E-03
             592     10.7895E-03     125.265E-03    -25.2369E+06     61.3183E+06     81.3875E+06     3.72101E+06    -288.526E-03     577.528E-03    -289.002E-03     39.4594E-03    -289.014E-03     577.908E-03    -288.647E-03     34.8177E-03
             593     11.4641E-03     125.326E-03    -18.6882E+06     82.3039E+06     96.9509E+06     2.96443E+06    -288.382E-03     577.406E-03    -289.025E-03     39.3027E-03    -288.915E-03     577.885E-03    -288.632E-03     33.8110E-03
             594     12.1387E-03     125.385E-03    -12.0177E+06     99.3069E+06     108.388E+06     2.09177E+06    -288.231E-03     577.262E-03    -289.031E-03     39.1460E-03    -288.813E-03     577.839E-03    -288.615E-03     32.4807E-03
             595     12.8133E-03     125.441E-03    -5.65317E+06     101.678E+06     108.461E+06     1.18310E+06    -288.130E-03     577.131E-03    -289.001E-03     33.0990E-03    -288.643E-03     577.671E-03    -288.598E-03     26.8173E-03
             596     674.249E-06     126.357E-03    -126.541E+06    -259.767E+06    -124.642E+06     339.073E+03    -288.739E-03     577.457E-03    -288.718E-03     3.06428E-03    -288.814E-03     576.522E-03    -288.781E-03     3.39446E-03
             597     1.34850E-03     126.366E-03    -123.759E+06    -250.809E+06    -116.410E+06     600.336E+03    -288.710E-03     577.462E-03    -288.752E-03     5.63428E-03    -288.796E-03     576.556E-03    -288.791E-03     6.22065E-03
             598     2.02277E-03     126.379E-03    -119.370E+06    -237.187E+06    -103.923E+06     819.735E+03    -288.691E-03     577.471E-03    -288.779E-03     8.34706E-03    -288.793E-03     576.608E-03    -288.782E-03     9.16500E-03
             599     2.69706E-03     126.398E-03    -113.728E+06    -220.528E+06    -88.4448E+06     1.04602E+06    -288.671E-03     577.484E-03    -288.813E-03     11.0699E-03    -288.791E-03     576.674E-03    -288.770E-03     12.0660E-03
             600     3.37138E-03     126.422E-03    -107.111E+06    -201.222E+06    -71.4585E+06     1.28969E+06    -288.651E-03     577.497E-03    -288.846E-03     13.7858E-03    -288.791E-03     576.750E-03    -288.757E-03     14.8888E-03
             601     4.04572E-03     126.451E-03    -99.8337E+06    -179.854E+06    -54.0746E+06     1.48261E+06    -288.637E-03     577.514E-03    -288.876E-03     16.4844E-03    -288.798E-03     576.839E-03    -288.741E-03     17.6066E-03
             602     4.72009E-03     126.484E-03    -92.2132E+06    -157.913E+06    -37.0931E+06     1.71147E+06    -288.637E-03     577.540E-03    -288.903E-03     19.1630E-03    -288.818E-03     576.941E-03    -288.726E-03     20.2043E-03
             603     5.39447E-03     126.522E-03    -84.4851E+06    -134.741E+06    -21.1168E+06     2.01977E+06    -288.646E-03     577.570E-03    -288.923E-03     21.8154E-03    -288.848E-03     577.055E-03    -288.711E-03     22.6679E-03
             604     6.06884E-03     126.565E-03    -76.8017E+06    -109.951E+06    -6.25960E+06     2.40433E+06    -288.659E-03     577.596E-03    -288.937E-03     24.4483E-03    -288.885E-03     577.178E-03    -288.698E-03     24.9974E-03
             605     6.74323E-03     126.611E-03    -69.2725E+06    -82.8255E+06     7.63172E+06     2.89056E+06    -288.664E-03     577.608E-03    -288.944E-03     27.0440E-03    -288.920E-03     577.302E-03    -288.685E-03     27.1745E-03
             606     7.41762E-03     126.661E-03    -61.9554E+06    -51.3374E+06     20.9305E+06     3.61177E+06    -288.642E-03     577.582E-03    -288.941E-03     29.5673E-03    -288.937E-03     577.415E-03    -288.672E-03     29.1692E-03
             607     8.09209E-03     126.715E-03    -54.6604E+06    -14.0858E+06     34.2397E+06     4.77322E+06    -288.582E-03     577.510E-03    -288.928E-03     32.0785E-03    -288.930E-03     577.514E-03    -288.657E-03     31.0319E-03
             608     8.76661E-03     126.771E-03    -47.1852E+06     32.7787E+06     48.2563E+06     5.65002E+06    -288.479E-03     577.380E-03    -288.901E-03     34.5221E-03    -288.899E-03     577.609E-03    -288.639E-03     32.7011E-03
             609     9.44117E-03     126.831E-03    -39.8241E+06     60.8799E+06     60.0322E+06     5.48446E+06    -288.448E-03     577.337E-03    -288.889E-03     36.7349E-03    -288.915E-03     577.705E-03    -288.619E-03     34.0316E-03
             610     10.1157E-03     126.892E-03    -32.9584E+06     61.7927E+06     70.2999E+06     4.67654E+06    -288.492E-03     577.404E-03    -288.912E-03     38.5275E-03    -288.972E-03     577.782E-03    -288.602E-03     34.8646E-03
             611     10.7902E-03     126.954E-03    -26.2555E+06     62.8890E+06     81.1721E+06     3.66836E+06    -288.472E-03     577.413E-03    -288.941E-03     39.5169E-03    -288.968E-03     577.804E-03    -288.588E-03     34.8753E-03
             612     11.4648E-03     127.015E-03    -19.2910E+06     83.8022E+06     96.9600E+06     2.77667E+06    -288.309E-03     577.273E-03    -288.965E-03     39.3210E-03    -288.848E-03     577.760E-03    -288.573E-03     33.8192E-03
             613     12.1394E-03     127.074E-03    -12.3653E+06     101.072E+06     108.937E+06     2.06411E+06    -288.145E-03     577.117E-03    -288.972E-03     39.0796E-03    -288.732E-03     577.703E-03    -288.556E-03     32.3945E-03
             614     12.8140E-03     127.130E-03    -5.93940E+06     103.945E+06     109.562E+06     1.18274E+06    -288.059E-03     577.002E-03    -288.944E-03     33.0245E-03    -288.578E-03     577.552E-03    -288.538E-03     26.7153E-03
             615     674.296E-06     128.045E-03    -127.324E+06    -261.334E+06    -125.436E+06     338.178E+03    -288.665E-03     577.309E-03    -288.644E-03     3.07488E-03    -288.741E-03     576.369E-03    -288.708E-03     3.40900E-03
             616     1.34861E-03     128.053E-03    -124.600E+06    -252.297E+06    -117.088E+06     632.842E+03    -288.636E-03     577.315E-03    -288.679E-03     5.64911E-03    -288.723E-03     576.403E-03    -288.717E-03     6.24256E-03
             617     2.02292E-03     128.067E-03    -120.184E+06    -238.619E+06    -104.562E+06     958.480E+03    -288.617E-03     577.323E-03    -288.706E-03     8.36010E-03    -288.720E-03     576.455E-03    -288.709E-03     9.18918E-03
             618     2.69727E-03     128.086E-03    -114.466E+06    -221.891E+06    -89.0120E+06     1.25608E+06    -288.598E-03     577.338E-03    -288.740E-03     11.0760E-03    -288.719E-03     576.523E-03    -288.697E-03     12.0861E-03
             619     3.37163E-03     128.110E-03    -107.768E+06    -202.431E+06    -71.9599E+06     1.46719E+06    -288.584E-03     577.358E-03    -288.774E-03     13.7836E-03    -288.725E-03     576.606E-03    -288.684E-03     14.9014E-03
             620     4.04601E-03     128.139E-03    -100.450E+06    -181.097E+06    -54.6149E+06     1.70937E+06    -288.577E-03     577.383E-03    -288.806E-03     16.4744E-03    -288.739E-03     576.703E-03    -288.670E-03     17.6137E-03
             621     4.72040E-03     128.172E-03    -92.7872E+06    -159.285E+06    -37.6840E+06     1.99766E+06    -288.584E-03     577.418E-03    -288.834E-03     19.1546E-03    -288.764E-03     576.813E-03    -288.657E-03     20.2162E-03
             622     5.39480E-03     128.211E-03    -84.9713E+06    -136.239E+06    -21.7113E+06     2.30430E+06    -288.595E-03     577.452E-03    -288.856E-03     21.8256E-03    -288.797E-03     576.931E-03    -288.644E-03     22.7014E-03
             623     6.06922E-03     128.253E-03    -77.1539E+06    -111.732E+06    -6.82387E+06     2.68411E+06    -288.605E-03     577.477E-03    -288.872E-03     24.4888E-03    -288.830E-03     577.051E-03    -288.632E-03     25.0640E-03
             624     6.74366E-03     128.299E-03    -69.4279E+06    -84.9581E+06     7.14756E+06     3.18963E+06    -288.605E-03     577.484E-03    -288.879E-03     27.1094E-03    -288.857E-03     577.168E-03    -288.620E-03     27.2674E-03
             625     7.41815E-03     128.350E-03    -61.7776E+06    -54.1945E+06     20.6183E+06     3.84881E+06    -288.585E-03     577.463E-03    -288.878E-03     29.6319E-03    -288.875E-03     577.281E-03    -288.607E-03     29.2578E-03
             626     8.09264E-03     128.403E-03    -54.1516E+06    -17.6591E+06     34.2063E+06     4.54906E+06    -288.544E-03     577.411E-03    -288.868E-03     32.1256E-03    -288.883E-03     577.397E-03    -288.592E-03     31.0925E-03
             627     8.76714E-03     128.460E-03    -46.6466E+06     30.0385E+06     48.7130E+06     5.36292E+06    -288.453E-03     577.297E-03    -288.844E-03     34.5625E-03    -288.867E-03     577.510E-03    -288.576E-03     32.7534E-03
             628     9.44171E-03     128.519E-03    -39.5248E+06     60.7129E+06     60.3960E+06     5.82470E+06    -288.409E-03     577.238E-03    -288.830E-03     36.7814E-03    -288.875E-03     577.604E-03    -288.558E-03     34.0995E-03
             629     10.1163E-03     128.581E-03    -32.7148E+06     63.7194E+06     70.3209E+06     5.19263E+06    -288.432E-03     577.280E-03    -288.849E-03     38.5616E-03    -288.913E-03     577.668E-03    -288.542E-03     34.9182E-03
             630     10.7909E-03     128.643E-03    -25.9877E+06     66.0098E+06     81.6002E+06     3.63676E+06    -288.414E-03     577.292E-03    -288.878E-03     39.5247E-03    -288.913E-03     577.697E-03    -288.528E-03     34.8811E-03
             631     11.4654E-03     128.704E-03    -19.2181E+06     84.9469E+06     96.8725E+06     2.44069E+06    -288.281E-03     577.184E-03    -288.903E-03     39.3309E-03    -288.821E-03     577.677E-03    -288.514E-03     33.8091E-03
             632     12.1401E-03     128.763E-03    -12.4055E+06     102.050E+06     109.111E+06     1.98930E+06    -288.107E-03     577.021E-03    -288.914E-03     39.1001E-03    -288.696E-03     577.612E-03    -288.498E-03     32.3921E-03
             633     12.8147E-03     128.818E-03    -5.92551E+06     106.857E+06     110.740E+06     1.10516E+06    -287.971E-03     576.859E-03    -288.888E-03     33.0292E-03    -288.497E-03     577.422E-03    -288.481E-03     26.6977E-03
             634     674.347E-06     129.732E-03    -128.183E+06    -263.025E+06    -126.141E+06      400.53E+03    -288.601E-03     577.175E-03    -288.574E-03     3.07979E-03    -288.678E-03     576.228E-03    -288.637E-03     3.41694E-03
             635     1.34869E-03     129.741E-03    -125.303E+06    -253.955E+06    -117.840E+06     719.747E+03    -288.570E-03     577.181E-03    -288.611E-03     5.65358E-03    -288.657E-03     576.264E-03    -288.651E-03     6.25248E-03
             636     2.02306E-03     129.754E-03    -120.870E+06    -240.340E+06    -105.330E+06     1.05860E+06    -288.553E-03     577.192E-03    -288.639E-03     8.36336E-03    -288.655E-03     576.318E-03    -288.642E-03     9.20102E-03
             637     2.69744E-03     129.773E-03    -115.124E+06    -223.275E+06    -89.7993E+06     1.31953E+06    -288.535E-03     577.209E-03    -288.673E-03     11.0792E-03    -288.657E-03     576.389E-03    -288.632E-03     12.1011E-03
             638     3.37184E-03     129.797E-03    -108.377E+06    -203.690E+06    -72.5985E+06     1.52584E+06    -288.522E-03     577.231E-03    -288.709E-03     13.7933E-03    -288.664E-03     576.475E-03    -288.619E-03     14.9264E-03
             639     4.04626E-03     129.826E-03    -100.951E+06    -182.555E+06    -54.9892E+06     1.77315E+06    -288.517E-03     577.259E-03    -288.742E-03     16.4991E-03    -288.678E-03     576.573E-03    -288.606E-03     17.6569E-03
             640     4.72069E-03     129.860E-03    -93.1310E+06    -160.656E+06    -37.8880E+06     2.02359E+06    -288.520E-03     577.291E-03    -288.771E-03     19.1964E-03    -288.700E-03     576.680E-03    -288.593E-03     20.2787E-03
             641     5.39516E-03     129.898E-03    -85.1541E+06    -137.699E+06    -21.7555E+06     2.26634E+06    -288.528E-03     577.322E-03    -288.794E-03     21.8783E-03    -288.728E-03     576.793E-03    -288.579E-03     22.7752E-03
             642     6.06963E-03     129.941E-03    -77.1784E+06    -113.446E+06    -6.70237E+06     2.57212E+06    -288.538E-03     577.348E-03    -288.809E-03     24.5392E-03    -288.760E-03     576.912E-03    -288.567E-03     25.1335E-03
             643     6.74413E-03     129.988E-03    -69.2776E+06    -86.9942E+06     7.39717E+06     2.95945E+06    -288.545E-03     577.363E-03    -288.818E-03     27.1443E-03    -288.795E-03     577.036E-03    -288.554E-03     27.3179E-03
             644     7.41862E-03     130.038E-03    -61.4978E+06    -56.6776E+06     20.9582E+06     3.45202E+06    -288.539E-03     577.357E-03    -288.818E-03     29.6567E-03    -288.824E-03     577.162E-03    -288.542E-03     29.2946E-03
             645     8.09314E-03     130.092E-03    -53.9175E+06    -20.4850E+06     34.5679E+06     4.15361E+06    -288.504E-03     577.314E-03    -288.810E-03     32.1597E-03    -288.839E-03     577.284E-03    -288.529E-03     31.1393E-03
             646     8.76770E-03     130.148E-03    -46.5125E+06     26.1215E+06     48.8650E+06     5.26586E+06    -288.416E-03     577.204E-03    -288.788E-03     34.6031E-03    -288.823E-03     577.397E-03    -288.514E-03     32.8107E-03
             647     9.44233E-03     130.208E-03    -39.2175E+06     59.3519E+06     60.4525E+06     6.06854E+06    -288.365E-03     577.136E-03    -288.770E-03     36.8062E-03    -288.827E-03     577.494E-03    -288.497E-03     34.1400E-03
             648     10.1169E-03     130.269E-03    -32.1726E+06     66.3253E+06     70.5330E+06     5.38661E+06    -288.381E-03     577.165E-03    -288.785E-03     38.5810E-03    -288.863E-03     577.565E-03    -288.482E-03     34.9472E-03
             649     10.7915E-03     130.332E-03    -25.4755E+06     69.3885E+06     82.1380E+06     3.94849E+06    -288.357E-03     577.172E-03    -288.815E-03     39.5543E-03    -288.859E-03     577.592E-03    -288.468E-03     34.9185E-03
             650     11.4661E-03     130.393E-03    -18.9659E+06     86.3867E+06     96.8803E+06     2.86585E+06    -288.226E-03     577.067E-03    -288.841E-03     39.3638E-03    -288.768E-03     577.568E-03    -288.455E-03     33.8411E-03
             651     12.1408E-03     130.451E-03    -12.3478E+06     103.304E+06     109.384E+06     1.98948E+06    -288.052E-03     576.906E-03    -288.854E-03     39.1355E-03    -288.644E-03     577.504E-03    -288.439E-03     32.4001E-03
             652     12.8155E-03     130.507E-03    -5.87716E+06     109.641E+06     111.873E+06     1.05327E+06    -287.904E-03     576.734E-03    -288.831E-03     33.0702E-03    -288.437E-03     577.311E-03    -288.422E-03     26.7057E-03
             653     674.377E-06     131.419E-03    -129.044E+06    -264.848E+06    -126.955E+06     406.596E+03    -288.545E-03     577.056E-03    -288.511E-03     3.08590E-03    -288.622E-03     576.103E-03    -288.575E-03     3.42643E-03
             654     1.34877E-03     131.428E-03    -126.052E+06    -255.724E+06    -118.581E+06     729.808E+03    -288.510E-03     577.063E-03    -288.552E-03     5.66588E-03    -288.598E-03     576.139E-03    -288.592E-03     6.27090E-03
             655     2.02317E-03     131.442E-03    -121.549E+06    -241.970E+06    -105.896E+06     1.01748E+06    -288.493E-03     577.074E-03    -288.581E-03     8.37907E-03    -288.596E-03     576.193E-03    -288.583E-03     9.22584E-03
             656     2.69760E-03     131.461E-03    -115.705E+06    -224.635E+06    -90.1598E+06     1.25449E+06    -288.473E-03     577.088E-03    -288.615E-03     11.0992E-03    -288.595E-03     576.263E-03    -288.572E-03     12.1337E-03
             657     3.37204E-03     131.485E-03    -108.874E+06    -204.980E+06    -72.8166E+06     1.46550E+06    -288.457E-03     577.107E-03    -288.650E-03     13.8185E-03    -288.599E-03     576.346E-03    -288.559E-03     14.9673E-03
             658     4.04651E-03     131.514E-03    -101.371E+06    -183.858E+06    -55.0811E+06     1.65447E+06    -288.451E-03     577.133E-03    -288.683E-03     16.5273E-03    -288.612E-03     576.442E-03    -288.545E-03     17.7015E-03
             659     4.72100E-03     131.548E-03    -93.4712E+06    -161.875E+06    -37.8221E+06     1.83229E+06    -288.454E-03     577.166E-03    -288.712E-03     19.2216E-03    -288.634E-03     576.549E-03    -288.530E-03     20.3198E-03
             660     5.39551E-03     131.586E-03    -85.4153E+06    -138.987E+06    -21.5740E+06     2.02925E+06    -288.466E-03     577.200E-03    -288.734E-03     21.8940E-03    -288.665E-03     576.666E-03    -288.517E-03     22.8059E-03
             661     6.07002E-03     131.629E-03    -77.3789E+06    -114.945E+06    -6.47635E+06     2.28064E+06    -288.482E-03     577.232E-03    -288.751E-03     24.5468E-03    -288.703E-03     576.789E-03    -288.504E-03     25.1552E-03
             662     6.74453E-03     131.676E-03    -69.4810E+06    -88.7074E+06     7.60593E+06     2.60452E+06    -288.492E-03     577.252E-03    -288.760E-03     27.1557E-03    -288.740E-03     576.916E-03    -288.492E-03     27.3429E-03
             663     7.41908E-03     131.726E-03    -61.7900E+06    -58.9420E+06     21.0315E+06     3.10371E+06    -288.486E-03     577.247E-03    -288.761E-03     29.6781E-03    -288.769E-03     577.040E-03    -288.481E-03     29.3301E-03
             664     8.09364E-03     131.780E-03    -54.2714E+06    -23.6405E+06     34.3990E+06     3.92910E+06    -288.454E-03     577.207E-03    -288.753E-03     32.1779E-03    -288.785E-03     577.162E-03    -288.468E-03     31.1723E-03
             665     8.76824E-03     131.837E-03    -46.8493E+06     21.5889E+06     48.4673E+06     5.16577E+06    -288.377E-03     577.109E-03    -288.733E-03     34.6090E-03    -288.778E-03     577.281E-03    -288.454E-03     32.8310E-03
             666     9.44285E-03     131.896E-03    -39.6341E+06     57.6403E+06     60.0574E+06     5.98988E+06    -288.318E-03     577.030E-03    -288.712E-03     36.8112E-03    -288.779E-03     577.381E-03    -288.438E-03     34.1553E-03
             667     10.1175E-03     131.958E-03    -32.7477E+06     68.8868E+06     70.1163E+06     5.47931E+06    -288.310E-03     577.031E-03    -288.721E-03     38.5879E-03    -288.799E-03     577.445E-03    -288.423E-03     34.9597E-03
             668     10.7922E-03     132.020E-03    -26.1034E+06     71.7219E+06     81.6196E+06     4.34564E+06    -288.281E-03     577.031E-03    -288.751E-03     39.5569E-03    -288.789E-03     577.465E-03    -288.409E-03     34.9249E-03
             669     11.4668E-03     132.082E-03    -19.4024E+06     88.4476E+06     96.8452E+06     3.25841E+06    -288.148E-03     576.926E-03    -288.779E-03     39.3701E-03    -288.695E-03     577.438E-03    -288.395E-03     33.8429E-03
             670     12.1415E-03     132.140E-03    -12.6154E+06     105.655E+06     110.161E+06     2.08586E+06    -287.968E-03     576.762E-03    -288.794E-03     39.1491E-03    -288.568E-03     577.373E-03    -288.378E-03     32.3867E-03
             671     12.8163E-03     132.196E-03    -6.09327E+06     111.900E+06     113.116E+06     1.01244E+06    -287.828E-03     576.601E-03    -288.772E-03     33.0910E-03    -288.369E-03     577.189E-03    -288.360E-03     26.6924E-03
             672     674.424E-06     133.106E-03    -129.742E+06    -266.635E+06    -127.837E+06     375.267E+03    -288.497E-03     576.952E-03    -288.455E-03     3.08941E-03    -288.574E-03     575.992E-03    -288.519E-03     3.43400E-03
             673     1.34884E-03     133.115E-03    -126.929E+06    -257.386E+06    -119.261E+06     662.702E+03    -288.456E-03     576.956E-03    -288.500E-03     5.67434E-03    -288.544E-03     576.026E-03    -288.539E-03     6.28552E-03
             674     2.02329E-03     133.129E-03    -122.331E+06    -243.441E+06    -106.397E+06     923.689E+03    -288.436E-03     576.964E-03    -288.528E-03     8.38814E-03    -288.540E-03     576.079E-03    -288.530E-03     9.24415E-03
             675     2.69775E-03     133.148E-03    -116.417E+06    -225.959E+06    -90.5039E+06     1.15467E+06    -288.415E-03     576.977E-03    -288.562E-03     11.1046E-03    -288.538E-03     576.147E-03    -288.518E-03     12.1510E-03
             676     3.37224E-03     133.172E-03    -109.493E+06    -206.175E+06    -73.0154E+06     1.34603E+06    -288.400E-03     576.997E-03    -288.597E-03     13.8185E-03    -288.543E-03     576.231E-03    -288.504E-03     14.9804E-03
             677     4.04674E-03     133.201E-03    -101.902E+06    -184.948E+06    -55.1770E+06     1.50427E+06    -288.395E-03     577.025E-03    -288.630E-03     16.5186E-03    -288.557E-03     576.328E-03    -288.490E-03     17.7070E-03
             678     4.72127E-03     133.235E-03    -93.9492E+06    -162.916E+06    -37.8543E+06     1.64499E+06    -288.400E-03     577.059E-03    -288.659E-03     19.2046E-03    -288.581E-03     576.438E-03    -288.476E-03     20.3176E-03
             679     5.39580E-03     133.274E-03    -85.8663E+06    -140.127E+06    -21.5577E+06     1.81001E+06    -288.413E-03     577.095E-03    -288.682E-03     21.8749E-03    -288.612E-03     576.555E-03    -288.462E-03     22.8021E-03
             680     6.07035E-03     133.316E-03    -77.8230E+06    -116.268E+06    -6.45586E+06     2.03951E+06    -288.426E-03     577.125E-03    -288.699E-03     24.5321E-03    -288.647E-03     576.676E-03    -288.450E-03     25.1563E-03
             681     6.74492E-03     133.363E-03    -69.9307E+06    -90.3519E+06     7.57931E+06     2.39413E+06    -288.433E-03     577.141E-03    -288.708E-03     27.1436E-03    -288.681E-03     576.798E-03    -288.438E-03     27.3466E-03
             682     7.41950E-03     133.414E-03    -62.2360E+06    -61.3121E+06     20.9131E+06     2.96919E+06    -288.431E-03     577.140E-03    -288.709E-03     29.6608E-03    -288.712E-03     576.922E-03    -288.426E-03     29.3281E-03
             683     8.09409E-03     133.468E-03    -54.7419E+06    -26.9833E+06     34.0779E+06     3.82703E+06    -288.405E-03     577.107E-03    -288.702E-03     32.1574E-03    -288.734E-03     577.047E-03    -288.413E-03     31.1667E-03
             684     8.76871E-03     133.525E-03    -47.4093E+06     16.8195E+06     47.8205E+06     5.12177E+06    -288.330E-03     577.013E-03    -288.683E-03     34.5922E-03    -288.726E-03     577.162E-03    -288.399E-03     32.8290E-03
             685     9.44340E-03     133.585E-03    -40.2357E+06     55.7782E+06     59.5714E+06     6.09882E+06    -288.254E-03     576.913E-03    -288.659E-03     36.7946E-03    -288.715E-03     577.256E-03    -288.383E-03     34.1508E-03
             686     10.1181E-03     133.646E-03    -33.2701E+06     71.1132E+06     69.8225E+06     5.62275E+06    -288.233E-03     576.894E-03    -288.661E-03     38.5669E-03    -288.727E-03     577.320E-03    -288.367E-03     34.9423E-03
             687     10.7928E-03     133.709E-03    -26.4156E+06     73.7972E+06     81.1423E+06     4.37399E+06    -288.202E-03     576.891E-03    -288.689E-03     39.5328E-03    -288.714E-03     577.336E-03    -288.352E-03     34.8937E-03
             688     11.4675E-03     133.770E-03    -19.5696E+06     90.7582E+06     96.5700E+06     3.23548E+06    -288.058E-03     576.774E-03    -288.716E-03     39.3399E-03    -288.610E-03     577.299E-03    -288.337E-03     33.7962E-03
             689     12.1423E-03     133.828E-03    -12.6899E+06     108.336E+06     110.789E+06     2.11297E+06    -287.881E-03     576.615E-03    -288.734E-03     39.1018E-03    -288.487E-03     577.239E-03    -288.319E-03     32.3096E-03
             690     12.8171E-03     133.884E-03    -6.07075E+06     114.222E+06     114.754E+06     1.01707E+06    -287.771E-03     576.489E-03    -288.717E-03     33.0216E-03    -288.318E-03     577.087E-03    -288.300E-03     26.5930E-03
             691     674.440E-06     134.793E-03    -130.712E+06    -268.282E+06    -128.665E+06     356.732E+03    -288.459E-03     576.874E-03    -288.415E-03     3.07830E-03    -288.537E-03     575.908E-03    -288.480E-03     3.42641E-03
             692     1.34890E-03     134.802E-03    -127.755E+06    -258.902E+06    -119.990E+06     610.777E+03    -288.414E-03     576.875E-03    -288.461E-03     5.65883E-03    -288.503E-03     575.939E-03    -288.500E-03     6.27607E-03
             693     2.02337E-03     134.816E-03    -123.122E+06    -244.831E+06    -106.995E+06     868.500E+03    -288.392E-03     576.880E-03    -288.489E-03     8.36326E-03    -288.497E-03     575.989E-03    -288.490E-03     9.22816E-03
             694     2.69787E-03     134.835E-03    -117.142E+06    -227.187E+06    -90.9387E+06     1.08018E+06    -288.371E-03     576.893E-03    -288.522E-03     11.0715E-03    -288.495E-03     576.058E-03    -288.477E-03     12.1290E-03
             695     3.37238E-03     134.859E-03    -110.164E+06    -207.257E+06    -73.2932E+06     1.24784E+06    -288.357E-03     576.914E-03    -288.557E-03     13.7792E-03    -288.501E-03     576.144E-03    -288.463E-03     14.9540E-03
             696     4.04691E-03     134.888E-03    -102.527E+06    -185.928E+06    -55.3320E+06     1.38817E+06    -288.352E-03     576.942E-03    -288.590E-03     16.4754E-03    -288.515E-03     576.242E-03    -288.449E-03     17.6782E-03
             697     4.72147E-03     134.922E-03    -94.5311E+06    -163.862E+06    -37.9438E+06     1.52540E+06    -288.354E-03     576.973E-03    -288.619E-03     19.1590E-03    -288.536E-03     576.348E-03    -288.435E-03     20.2881E-03
             698     5.39603E-03     134.961E-03    -86.4190E+06    -141.146E+06    -21.6159E+06     1.67936E+06    -288.361E-03     577.004E-03    -288.642E-03     21.8257E-03    -288.562E-03     576.460E-03    -288.420E-03     22.7699E-03
             699     6.07063E-03     135.004E-03    -78.3483E+06    -117.481E+06    -6.50208E+06     1.88795E+06    -288.371E-03     577.029E-03    -288.658E-03     24.4765E-03    -288.593E-03     576.575E-03    -288.407E-03     25.1170E-03
             700     6.74522E-03     135.051E-03    -70.4128E+06     -92.056E+06     7.48653E+06     2.23512E+06    -288.379E-03     577.045E-03    -288.667E-03     27.0840E-03    -288.625E-03     576.694E-03    -288.394E-03     27.3025E-03
             701     7.41984E-03     135.102E-03    -62.6670E+06    -63.7987E+06     20.7087E+06     2.82792E+06    -288.376E-03     577.043E-03    -288.667E-03     29.6067E-03    -288.655E-03     576.813E-03    -288.381E-03     29.2893E-03
             702     8.09447E-03     135.156E-03    -55.1200E+06    -30.3892E+06     33.7124E+06     3.74061E+06    -288.348E-03     577.008E-03    -288.660E-03     32.1099E-03    -288.673E-03     576.931E-03    -288.367E-03     31.1343E-03
             703     8.76914E-03     135.213E-03    -47.7361E+06     11.7230E+06     47.1579E+06     5.14968E+06    -288.275E-03     576.915E-03    -288.640E-03     34.5423E-03    -288.664E-03     577.039E-03    -288.352E-03     32.7931E-03
             704     9.44384E-03     135.273E-03    -40.5062E+06     53.8318E+06     59.2645E+06     6.12813E+06    -288.184E-03     576.796E-03    -288.612E-03     36.7426E-03    -288.642E-03     577.129E-03    -288.335E-03     34.1087E-03
             705     10.1186E-03     135.334E-03    -33.4224E+06     73.7075E+06     69.9258E+06     5.47895E+06    -288.145E-03     576.753E-03    -288.608E-03     38.5209E-03    -288.643E-03     577.191E-03    -288.317E-03     34.8974E-03
             706     10.7933E-03     135.397E-03    -26.5433E+06     75.9265E+06     81.2019E+06     4.18217E+06    -288.124E-03     576.759E-03    -288.634E-03     39.4857E-03    -288.641E-03     577.215E-03    -288.300E-03     34.8379E-03
             707     11.4681E-03     135.458E-03    -19.7245E+06     92.7746E+06     97.3464E+06     3.18973E+06    -287.994E-03     576.659E-03    -288.665E-03     39.2623E-03    -288.551E-03     577.193E-03    -288.284E-03     33.6986E-03
             708     12.1429E-03     135.516E-03    -12.8492E+06     110.875E+06     112.251E+06     2.16687E+06    -287.825E-03     576.511E-03    -288.685E-03     38.9794E-03    -288.438E-03     577.146E-03    -288.266E-03     32.1567E-03
             709     12.8178E-03     135.572E-03    -6.18621E+06     116.655E+06     116.472E+06     1.08030E+06    -287.717E-03     576.388E-03    -288.671E-03     32.8963E-03    -288.271E-03     576.996E-03    -288.248E-03     26.4410E-03
             710     674.462E-06     136.480E-03    -131.641E+06    -269.835E+06    -129.552E+06     329.823E+03    -288.437E-03     576.843E-03    -288.406E-03     3.05730E-03    -288.516E-03     575.872E-03    -288.472E-03     3.40881E-03
             711     1.34892E-03     136.488E-03    -128.632E+06    -260.348E+06    -120.813E+06     594.070E+03    -288.395E-03     576.840E-03    -288.445E-03     5.62255E-03    -288.485E-03     575.900E-03    -288.485E-03     6.24688E-03
             712     2.02341E-03     136.502E-03    -123.951E+06    -246.152E+06     -107.63E+06     827.953E+03    -288.368E-03     576.840E-03    -288.472E-03     8.31390E-03    -288.475E-03     575.945E-03    -288.473E-03     9.18858E-03
             713     2.69792E-03     136.522E-03    -117.912E+06    -228.342E+06    -91.3837E+06     1.03044E+06    -288.344E-03     576.849E-03    -288.504E-03     11.0137E-03    -288.470E-03     576.010E-03    -288.459E-03     12.0833E-03
             714     3.37245E-03     136.546E-03    -110.858E+06    -208.264E+06    -73.5685E+06     1.19137E+06    -288.327E-03     576.866E-03    -288.538E-03     13.7136E-03    -288.473E-03     576.092E-03    -288.443E-03     14.9028E-03
             715     4.04700E-03     136.575E-03    -103.147E+06    -186.852E+06    -55.4763E+06     1.32719E+06    -288.318E-03     576.888E-03    -288.571E-03     16.4012E-03    -288.483E-03     576.184E-03    -288.427E-03     17.6202E-03
             716     4.72158E-03     136.609E-03    -95.0908E+06    -164.784E+06    -38.0085E+06     1.46517E+06    -288.316E-03     576.914E-03    -288.598E-03     19.0756E-03    -288.499E-03     576.285E-03    -288.411E-03     20.2218E-03
             717     5.39618E-03     136.648E-03    -86.9236E+06    -142.086E+06     -21.633E+06     1.61417E+06    -288.319E-03     576.939E-03    -288.619E-03     21.7326E-03    -288.521E-03     576.391E-03    -288.396E-03     22.6944E-03
             718     6.07079E-03     136.691E-03    -78.8196E+06    -118.647E+06    -6.51176E+06     1.81581E+06    -288.325E-03     576.958E-03    -288.634E-03     24.3760E-03    -288.547E-03     576.499E-03    -288.380E-03     25.0346E-03
             719     6.74542E-03     136.738E-03    -70.8870E+06    -93.6678E+06     7.43926E+06     2.13625E+06    -288.325E-03     576.966E-03    -288.640E-03     26.9838E-03    -288.572E-03     576.607E-03    -288.365E-03     27.2196E-03
             720     7.42008E-03     136.789E-03    -63.1540E+06    -66.2339E+06     20.5280E+06     2.67905E+06    -288.316E-03     576.956E-03    -288.639E-03     29.5115E-03    -288.594E-03     576.715E-03    -288.349E-03     29.2084E-03
             721     8.09476E-03     136.843E-03    -55.5841E+06    -33.7821E+06     33.3377E+06     3.53220E+06    -288.288E-03     576.918E-03    -288.630E-03     32.0114E-03    -288.609E-03     576.825E-03    -288.333E-03     31.0469E-03
             722     8.76946E-03     136.900E-03    -48.1208E+06     6.36854E+06     46.5294E+06     4.92596E+06    -288.220E-03     576.829E-03    -288.610E-03     34.4325E-03    -288.602E-03     576.928E-03    -288.316E-03     32.6907E-03
             723     9.44424E-03     136.960E-03    -40.7922E+06     51.9157E+06     59.3422E+06     5.98393E+06    -288.112E-03     576.689E-03    -288.578E-03     36.6222E-03    -288.568E-03     577.013E-03    -288.297E-03     33.9921E-03
             724     10.1190E-03     137.022E-03    -33.7806E+06     76.4008E+06     70.2612E+06     5.46176E+06    -288.054E-03     576.620E-03    -288.566E-03     38.3842E-03    -288.558E-03     577.072E-03    -288.276E-03     34.7575E-03
             725     10.7939E-03     137.085E-03    -27.0425E+06     77.8982E+06     81.0753E+06     4.25457E+06    -288.040E-03     576.629E-03    -288.589E-03     39.3437E-03    -288.562E-03     577.096E-03    -288.257E-03     34.6895E-03
             726     11.4686E-03     137.146E-03    -20.2343E+06     94.8205E+06     98.1370E+06     3.18723E+06    -287.920E-03     576.542E-03    -288.622E-03     39.1516E-03    -288.484E-03     577.086E-03    -288.240E-03     33.5777E-03
             727     12.1434E-03     137.204E-03    -13.1692E+06     113.244E+06     113.774E+06     2.09886E+06    -287.746E-03     576.391E-03    -288.645E-03     38.9255E-03    -288.367E-03     577.037E-03    -288.221E-03     32.0787E-03
             728     12.8183E-03     137.260E-03    -6.30368E+06     119.074E+06     117.980E+06     1.05411E+06    -287.602E-03     576.229E-03    -288.627E-03     32.9122E-03    -288.163E-03     576.848E-03    -288.201E-03     26.4322E-03
             729     674.439E-06     138.166E-03    -132.577E+06    -271.343E+06    -130.444E+06     331.197E+03    -288.453E-03     576.871E-03    -288.418E-03     3.03848E-03    -288.533E-03     575.895E-03    -288.484E-03     3.39444E-03
             730     1.34891E-03     138.175E-03    -129.513E+06    -261.733E+06    -121.540E+06     564.659E+03    -288.403E-03     576.862E-03    -288.459E-03     5.57671E-03    -288.494E-03     575.917E-03    -288.499E-03     6.20931E-03
             731     2.02338E-03     138.189E-03    -124.754E+06    -247.413E+06    -108.178E+06     795.745E+03    -288.371E-03     576.854E-03    -288.484E-03     8.25233E-03    -288.478E-03     575.955E-03    -288.485E-03     9.13837E-03
             732     2.69790E-03     138.208E-03    -118.622E+06    -229.466E+06    -91.7404E+06     991.910E+03    -288.340E-03     576.854E-03    -288.514E-03     10.9387E-03    -288.467E-03     576.011E-03    -288.468E-03     12.0220E-03
             733     3.37243E-03     138.233E-03    -111.485E+06    -209.240E+06    -73.7601E+06     1.15292E+06    -288.316E-03     576.862E-03    -288.546E-03     13.6224E-03    -288.463E-03     576.084E-03    -288.449E-03     14.8274E-03
             734     4.04700E-03     138.262E-03    -103.699E+06    -187.777E+06    -55.5460E+06     1.29655E+06    -288.300E-03     576.876E-03    -288.575E-03     16.2932E-03    -288.466E-03     576.168E-03    -288.430E-03     17.5296E-03
             735     4.72159E-03     138.296E-03    -95.5758E+06    -165.699E+06    -37.9940E+06     1.44193E+06    -288.292E-03     576.892E-03    -288.600E-03     18.9526E-03    -288.476E-03     576.259E-03    -288.411E-03     20.1174E-03
             736     5.39620E-03     138.335E-03    -87.3654E+06    -143.043E+06    -21.5820E+06     1.60779E+06    -288.289E-03     576.907E-03    -288.619E-03     21.5973E-03    -288.491E-03     576.355E-03    -288.393E-03     22.5787E-03
             737     6.07084E-03     138.378E-03    -79.2363E+06    -119.806E+06    -6.45310E+06     1.82659E+06    -288.285E-03     576.916E-03    -288.630E-03     24.2295E-03    -288.508E-03     576.451E-03    -288.374E-03     24.9081E-03
             738     6.74549E-03     138.426E-03    -71.2779E+06    -95.1735E+06     7.47088E+06      2.1375E+06    -288.277E-03     576.910E-03    -288.634E-03     26.8276E-03    -288.523E-03     576.544E-03    -288.355E-03     27.0822E-03
             739     7.42019E-03     138.476E-03    -63.5305E+06    -68.4692E+06     20.4598E+06     2.62343E+06    -288.263E-03     576.893E-03    -288.630E-03     29.3568E-03    -288.539E-03     576.641E-03    -288.336E-03     29.0685E-03
             740     8.09489E-03     138.531E-03    -55.9820E+06    -36.8479E+06     33.0552E+06     3.34222E+06    -288.232E-03     576.849E-03    -288.617E-03     31.8583E-03    -288.550E-03     576.741E-03    -288.317E-03     30.9040E-03
             741     8.76964E-03     138.588E-03    -48.5376E+06     1.32326E+06     45.8943E+06     4.52281E+06    -288.162E-03     576.757E-03    -288.595E-03     34.2773E-03    -288.538E-03     576.832E-03    -288.297E-03     32.5403E-03
             742     9.44441E-03     138.648E-03    -41.1610E+06     49.3287E+06     59.3454E+06     5.67448E+06    -288.032E-03     576.590E-03    -288.559E-03     36.4748E-03    -288.486E-03     576.902E-03    -288.274E-03     33.8478E-03
             743     10.1193E-03     138.710E-03    -34.0512E+06     78.0112E+06     70.5937E+06     5.73991E+06    -287.948E-03     576.486E-03    -288.538E-03     38.2571E-03    -288.456E-03     576.946E-03    -288.249E-03     34.6383E-03
             744     10.7941E-03     138.772E-03    -27.3747E+06     80.2126E+06     80.9462E+06     4.71071E+06    -287.916E-03     576.469E-03    -288.553E-03     39.2628E-03    -288.442E-03     576.948E-03    -288.225E-03     34.6173E-03
             745     11.4690E-03     138.834E-03    -20.6502E+06     97.7118E+06     98.1172E+06     3.21954E+06    -287.764E-03     576.345E-03    -288.580E-03     39.1439E-03    -288.334E-03     576.903E-03    -288.201E-03     33.5765E-03
             746     12.1440E-03     138.892E-03    -13.5737E+06     115.903E+06     114.253E+06     1.79136E+06    -287.578E-03     576.177E-03    -288.599E-03     38.9817E-03    -288.206E-03     576.837E-03    -288.176E-03     32.1231E-03
             747     12.8190E-03     138.947E-03    -6.56517E+06     121.215E+06     119.041E+06     726.490E+03    -287.442E-03     576.021E-03    -288.579E-03     32.9898E-03    -288.011E-03     576.651E-03    -288.150E-03     26.4780E-03
             748     674.419E-06     139.853E-03    -133.493E+06    -272.761E+06    -131.258E+06     293.735E+03    -288.496E-03     576.955E-03    -288.459E-03     3.00499E-03    -288.577E-03     575.975E-03    -288.527E-03     3.36475E-03
             749     1.34884E-03     139.862E-03    -130.294E+06    -263.068E+06    -122.187E+06     534.389E+03    -288.441E-03     576.943E-03    -288.501E-03     5.52644E-03    -288.534E-03     575.993E-03    -288.542E-03     6.16824E-03
             750     2.02330E-03     139.876E-03    -125.455E+06    -248.637E+06    -108.638E+06     757.783E+03    -288.405E-03     576.930E-03    -288.525E-03     8.17707E-03    -288.513E-03     576.026E-03    -288.526E-03     9.07591E-03
             751     2.69779E-03     139.895E-03    -119.245E+06    -230.579E+06    -92.0245E+06     958.313E+03    -288.366E-03     576.919E-03    -288.554E-03     10.8403E-03    -288.494E-03     576.072E-03    -288.507E-03     11.9389E-03
             752     3.37232E-03     139.920E-03    -112.026E+06    -210.228E+06    -73.8968E+06     1.13098E+06    -288.331E-03     576.914E-03    -288.583E-03     13.5024E-03    -288.479E-03     576.132E-03    -288.485E-03     14.7249E-03
             753     4.04687E-03     139.949E-03    -104.164E+06    -188.709E+06    -55.5723E+06     1.28002E+06    -288.305E-03     576.914E-03    -288.609E-03     16.1530E-03    -288.472E-03     576.202E-03    -288.462E-03     17.4087E-03
             754     4.72146E-03     139.983E-03    -95.9686E+06    -166.627E+06    -37.9563E+06     1.42746E+06    -288.286E-03     576.916E-03    -288.630E-03     18.7947E-03    -288.471E-03     576.279E-03    -288.439E-03     19.9802E-03
             755     5.39608E-03     140.022E-03    -87.6789E+06    -144.060E+06    -21.5088E+06     1.60371E+06    -288.270E-03     576.914E-03    -288.644E-03     21.4244E-03    -288.473E-03     576.357E-03    -288.416E-03     22.4274E-03
             756     6.07072E-03     140.066E-03    -79.4578E+06    -120.948E+06    -6.35934E+06     1.81696E+06    -288.254E-03     576.905E-03    -288.651E-03     24.0452E-03    -288.476E-03     576.434E-03    -288.392E-03     24.7460E-03
             757     6.74540E-03     140.113E-03    -71.4113E+06    -96.6394E+06     7.55770E+06     2.10771E+06    -288.232E-03     576.882E-03    -288.649E-03     26.6414E-03    -288.477E-03     576.508E-03    -288.368E-03     26.9186E-03
             758     7.42011E-03     140.164E-03    -63.5785E+06    -70.4587E+06     20.5209E+06     2.53022E+06    -288.205E-03     576.845E-03    -288.640E-03     29.1937E-03    -288.478E-03     576.583E-03    -288.343E-03     28.9259E-03
             759     8.09487E-03     140.218E-03    -55.9439E+06    -39.5448E+06     33.0160E+06     3.15043E+06    -288.160E-03     576.781E-03    -288.622E-03     31.7215E-03    -288.473E-03     576.660E-03    -288.318E-03     30.7862E-03
             760     8.76964E-03     140.275E-03    -48.4409E+06    -2.81384E+06     45.6698E+06     4.06647E+06    -288.074E-03     576.668E-03    -288.594E-03     34.1705E-03    -288.442E-03     576.722E-03    -288.292E-03     32.4496E-03
             761     9.44451E-03     140.335E-03    -41.0286E+06     45.6351E+06     59.3730E+06     5.26884E+06    -287.918E-03     576.470E-03    -288.552E-03     36.4108E-03    -288.366E-03     576.762E-03    -288.262E-03     33.7997E-03
             762     10.1194E-03     140.397E-03    -33.8602E+06     77.9530E+06     70.7473E+06     5.86080E+06    -287.799E-03     576.317E-03    -288.518E-03     38.2258E-03    -288.306E-03     576.775E-03    -288.229E-03     34.6283E-03
             763     10.7945E-03     140.460E-03    -26.9791E+06     82.9631E+06     80.9790E+06     5.09466E+06    -287.742E-03     576.262E-03    -288.520E-03     39.2595E-03    -288.270E-03     576.754E-03    -288.196E-03     34.6306E-03
             764     11.4695E-03     140.521E-03    -20.2190E+06     101.324E+06     98.4062E+06     3.53669E+06    -287.579E-03     576.117E-03    -288.538E-03     39.1473E-03    -288.152E-03     576.693E-03    -288.163E-03     33.5857E-03
             765     12.1446E-03     140.579E-03    -13.2792E+06     119.551E+06     115.146E+06     1.76633E+06    -287.390E-03     575.942E-03    -288.552E-03     38.9654E-03    -288.024E-03     576.619E-03    -288.130E-03     32.0950E-03
             766     12.8197E-03     140.635E-03    -6.39067E+06     123.170E+06     120.050E+06     469.057E+03    -287.291E-03     575.820E-03    -288.529E-03     32.9567E-03    -287.863E-03     576.458E-03    -288.098E-03     26.4152E-03
             767     674.363E-06     141.540E-03    -134.247E+06    -274.058E+06    -131.978E+06     271.687E+03    -288.560E-03     577.101E-03    -288.541E-03     2.97169E-03    -288.642E-03     576.117E-03    -288.609E-03     3.33692E-03
             768     1.34875E-03     141.549E-03    -131.028E+06    -264.357E+06    -122.841E+06     494.610E+03    -288.514E-03     577.089E-03    -288.575E-03     5.46164E-03    -288.607E-03     576.135E-03    -288.616E-03     6.11337E-03
             769     2.02315E-03     141.563E-03    -126.138E+06    -249.819E+06    -109.141E+06     716.268E+03    -288.471E-03     577.070E-03    -288.598E-03     8.08366E-03    -288.581E-03     576.161E-03    -288.599E-03     8.99657E-03
             770     2.69760E-03     141.582E-03    -119.847E+06    -231.660E+06    -92.3390E+06     903.707E+03    -288.421E-03     577.046E-03    -288.625E-03     10.7231E-03    -288.550E-03     576.195E-03    -288.577E-03     11.8390E-03
             771     3.37208E-03     141.607E-03    -112.529E+06    -211.220E+06    -74.0489E+06     1.06776E+06    -288.372E-03     577.022E-03    -288.651E-03     13.3659E-03    -288.520E-03     576.237E-03    -288.552E-03     14.6082E-03
             772     4.04661E-03     141.636E-03    -104.561E+06    -189.625E+06    -55.5983E+06     1.21471E+06    -288.329E-03     577.001E-03    -288.672E-03     16.0009E-03    -288.496E-03     576.285E-03    -288.524E-03     17.2786E-03
             773     4.72118E-03     141.671E-03    -96.2613E+06    -167.517E+06    -37.8955E+06     1.34407E+06    -288.292E-03     576.979E-03    -288.687E-03     18.6315E-03    -288.477E-03     576.338E-03    -288.494E-03     19.8406E-03
             774     5.39580E-03     141.709E-03    -87.8670E+06    -145.022E+06    -21.4039E+06     1.47752E+06    -288.256E-03     576.951E-03    -288.695E-03     21.2569E-03    -288.459E-03     576.389E-03    -288.464E-03     22.2847E-03
             775     6.07046E-03     141.753E-03    -79.5479E+06    -122.039E+06    -6.23292E+06     1.65781E+06    -288.218E-03     576.911E-03    -288.694E-03     23.8817E-03    -288.439E-03     576.435E-03    -288.432E-03     24.6088E-03
             776     6.74516E-03     141.800E-03    -71.4091E+06    -98.0124E+06     7.70989E+06     1.91709E+06    -288.173E-03     576.857E-03    -288.684E-03     26.4926E-03    -288.416E-03     576.476E-03    -288.400E-03     26.7974E-03
             777     7.41993E-03     141.851E-03    -63.4866E+06    -72.1302E+06     20.7125E+06     2.24889E+06    -288.125E-03     576.791E-03    -288.666E-03     29.0793E-03    -288.395E-03     576.519E-03    -288.366E-03     28.8370E-03
             778     8.09474E-03     141.905E-03    -55.7640E+06    -41.9396E+06     33.1855E+06     2.74306E+06    -288.056E-03     576.694E-03    -288.639E-03     31.6286E-03    -288.364E-03     576.560E-03    -288.331E-03     30.7171E-03
             779     8.76964E-03     141.963E-03    -48.2401E+06    -6.27272E+06     45.7800E+06     3.58143E+06    -287.946E-03     576.549E-03    -288.602E-03     34.0879E-03    -288.308E-03     576.584E-03    -288.294E-03     32.3888E-03
             780     9.44459E-03     142.022E-03    -40.9061E+06     40.9883E+06     59.2972E+06     4.92575E+06    -287.776E-03     576.327E-03    -288.550E-03     36.3390E-03    -288.216E-03     576.595E-03    -288.254E-03     33.7473E-03
             781     10.1197E-03     142.084E-03    -33.7978E+06     76.7342E+06     70.5992E+06     5.86350E+06    -287.637E-03     576.139E-03    -288.502E-03     38.1446E-03    -288.141E-03     576.590E-03    -288.211E-03     34.5633E-03
             782     10.7947E-03     142.147E-03    -26.9819E+06     86.0040E+06     80.7113E+06     5.13366E+06    -287.566E-03     576.053E-03    -288.487E-03     39.1638E-03    -288.098E-03     576.560E-03    -288.169E-03     34.5392E-03
             783     11.4699E-03     142.208E-03    -20.0124E+06     104.875E+06     98.3675E+06     3.50931E+06    -287.409E-03     575.906E-03    -288.497E-03     39.0447E-03    -287.986E-03     576.500E-03    -288.129E-03     33.4723E-03
             784     12.1451E-03     142.266E-03    -12.8954E+06     123.286E+06     116.015E+06     2.03075E+06    -287.218E-03     575.727E-03    -288.508E-03     38.8665E-03    -287.857E-03     576.421E-03    -288.088E-03     31.9769E-03
             785     12.8203E-03     142.322E-03    -6.18037E+06     125.307E+06     121.177E+06     853.667E+03    -287.124E-03     575.607E-03    -288.483E-03     32.8906E-03    -287.700E-03     576.254E-03    -288.050E-03     26.3380E-03
             786     674.298E-06     143.227E-03    -134.964E+06    -275.300E+06    -132.785E+06     261.345E+03    -288.672E-03     577.316E-03    -288.645E-03     2.93634E-03    -288.755E-03     576.328E-03    -288.714E-03     3.30919E-03
             787     1.34860E-03     143.236E-03    -131.810E+06    -265.546E+06    -123.501E+06      466.56E+03    -288.614E-03     577.296E-03    -288.682E-03     5.39257E-03    -288.709E-03     576.338E-03    -288.723E-03     6.05593E-03
             788     2.02294E-03     143.250E-03    -126.842E+06    -250.889E+06    -109.633E+06     639.135E+03    -288.561E-03     577.264E-03    -288.703E-03     7.98985E-03    -288.672E-03     576.352E-03    -288.703E-03     8.91870E-03
             789     2.69732E-03     143.269E-03    -120.455E+06    -232.646E+06    -92.6487E+06     792.624E+03    -288.497E-03     577.222E-03    -288.725E-03     10.6080E-03    -288.627E-03     576.367E-03    -288.677E-03     11.7443E-03
             790     3.37176E-03     143.294E-03    -113.037E+06    -212.128E+06    -74.1907E+06     928.660E+03    -288.429E-03     577.174E-03    -288.745E-03     13.2348E-03    -288.578E-03     576.385E-03    -288.645E-03     14.5010E-03
             791     4.04625E-03     143.323E-03    -104.964E+06    -190.449E+06    -55.6162E+06     1.03828E+06    -288.362E-03     577.122E-03    -288.760E-03     15.8599E-03    -288.530E-03     576.403E-03    -288.609E-03     17.1640E-03
             792     4.72081E-03     143.358E-03    -96.5554E+06    -168.276E+06    -37.8240E+06     1.12716E+06    -288.298E-03     577.064E-03    -288.766E-03     18.4855E-03    -288.484E-03     576.420E-03    -288.571E-03     19.7231E-03
             793     5.39543E-03     143.397E-03    -88.0704E+06    -145.828E+06    -21.2577E+06     1.22348E+06    -288.235E-03     576.998E-03    -288.763E-03     21.1093E-03    -288.437E-03     576.432E-03    -288.531E-03     22.1668E-03
             794     6.07011E-03     143.440E-03    -79.6790E+06    -123.013E+06    -6.05258E+06     1.36695E+06    -288.168E-03     576.920E-03    -288.752E-03     23.7351E-03    -288.389E-03     576.438E-03    -288.488E-03     24.4923E-03
             795     6.74487E-03     143.487E-03    -71.4702E+06    -99.1692E+06     7.89520E+06     1.56498E+06    -288.099E-03     576.830E-03    -288.731E-03     26.3541E-03    -288.341E-03     576.443E-03    -288.444E-03     26.6872E-03
             796     7.41969E-03     143.538E-03    -63.4977E+06    -73.5479E+06     20.8789E+06     1.84648E+06    -288.029E-03     576.731E-03    -288.702E-03     28.9557E-03    -288.297E-03     576.452E-03    -288.398E-03     28.7380E-03
             797     8.09459E-03     143.592E-03    -55.8139E+06    -44.1261E+06     33.2661E+06     2.34396E+06    -287.939E-03     576.602E-03    -288.663E-03     31.4947E-03    -288.244E-03     576.457E-03    -288.352E-03     30.6055E-03
             798     8.76955E-03     143.649E-03    -48.4017E+06    -9.76245E+06     45.6178E+06     3.26166E+06    -287.815E-03     576.431E-03    -288.616E-03     33.9363E-03    -288.171E-03     576.449E-03    -288.304E-03     32.2573E-03
             799     9.44462E-03     143.709E-03    -41.1754E+06     35.7475E+06     58.7199E+06     4.77709E+06    -287.641E-03     576.196E-03    -288.555E-03     36.1824E-03    -288.073E-03     576.439E-03    -288.253E-03     33.6083E-03
             800     10.1198E-03     143.771E-03    -34.1214E+06     74.9890E+06     70.1122E+06     5.83847E+06    -287.485E-03     575.978E-03    -288.492E-03     37.9862E-03    -287.987E-03     576.421E-03    -288.201E-03     34.4175E-03
             801     10.7950E-03     143.834E-03    -27.2410E+06     89.3962E+06     80.4399E+06     5.12370E+06    -287.394E-03     575.856E-03    -288.462E-03     39.0266E-03    -287.931E-03     576.381E-03    -288.150E-03     34.4049E-03
             802     11.4702E-03     143.895E-03    -20.5313E+06     108.193E+06     97.8159E+06     3.51153E+06    -287.231E-03     575.694E-03    -288.463E-03     38.9361E-03    -287.816E-03     576.306E-03    -288.101E-03     33.3560E-03
             803     12.1455E-03     143.953E-03    -13.6055E+06     126.051E+06     116.154E+06     2.21667E+06    -287.028E-03     575.498E-03    -288.470E-03     38.7756E-03    -287.675E-03     576.208E-03    -288.052E-03     31.8633E-03
             804     12.8208E-03     144.008E-03    -6.59315E+06     127.773E+06     122.484E+06     1.12282E+06    -286.922E-03     575.364E-03    -288.443E-03     32.8372E-03    -287.506E-03     576.024E-03    -288.006E-03     26.2728E-03
             805     674.188E-06     144.915E-03    -135.893E+06    -276.458E+06    -133.655E+06     232.519E+03    -288.802E-03     577.580E-03    -288.778E-03     2.89944E-03    -288.887E-03     576.589E-03    -288.849E-03     3.27957E-03
             806     1.34842E-03     144.924E-03    -132.646E+06    -266.574E+06    -124.217E+06     390.947E+03    -288.733E-03     577.545E-03    -288.812E-03     5.33933E-03    -288.829E-03     576.584E-03    -288.854E-03     6.01564E-03
             807     2.02267E-03     144.938E-03    -127.592E+06    -251.794E+06    -110.135E+06     535.112E+03    -288.666E-03     577.494E-03    -288.828E-03     7.91163E-03    -288.779E-03     576.580E-03    -288.828E-03     8.85937E-03
             808     2.69699E-03     144.957E-03    -121.118E+06    -233.467E+06    -92.9529E+06     648.269E+03    -288.585E-03     577.430E-03    -288.845E-03     10.5061E-03    -288.717E-03     576.573E-03    -288.796E-03     11.6661E-03
             809     3.37137E-03     144.981E-03    -113.607E+06    -212.864E+06    -74.3466E+06     737.487E+03    -288.495E-03     577.352E-03    -288.858E-03     13.1130E-03    -288.646E-03     576.560E-03    -288.756E-03     14.4067E-03
             810     4.04583E-03     145.011E-03    -105.451E+06    -191.083E+06    -55.6684E+06     801.610E+03    -288.401E-03     577.264E-03    -288.863E-03     15.7218E-03    -288.571E-03     576.542E-03    -288.711E-03     17.0558E-03
             811     4.72037E-03     145.045E-03    -96.9852E+06    -168.870E+06    -37.8075E+06     854.027E+03    -288.307E-03     577.166E-03    -288.859E-03     18.3320E-03    -288.494E-03     576.519E-03    -288.662E-03     19.6008E-03
             812     5.39499E-03     145.084E-03    -88.4508E+06    -146.468E+06    -21.2179E+06     920.271E+03    -288.213E-03     577.058E-03    -288.845E-03     20.9387E-03    -288.417E-03     576.489E-03    -288.610E-03     22.0282E-03
             813     6.06970E-03     145.127E-03    -80.0093E+06    -123.767E+06    -6.00220E+06     1.01259E+06    -288.120E-03     576.941E-03    -288.821E-03     23.5504E-03    -288.341E-03     576.455E-03    -288.555E-03     24.3387E-03
             814     6.74450E-03     145.174E-03    -71.7709E+06    -100.118E+06     7.92778E+06     1.16922E+06    -288.028E-03     576.816E-03    -288.788E-03     26.1647E-03    -288.270E-03     576.424E-03    -288.499E-03     26.5262E-03
             815     7.41938E-03     145.225E-03    -63.8065E+06    -74.9189E+06     20.8311E+06     1.47006E+06    -287.938E-03     576.685E-03    -288.747E-03     28.7642E-03    -288.205E-03     576.399E-03    -288.441E-03     28.5724E-03
             816     8.09433E-03     145.279E-03    -56.1269E+06    -46.4424E+06     33.0804E+06     2.06627E+06    -287.830E-03     576.527E-03    -288.698E-03     31.2850E-03    -288.133E-03     576.370E-03    -288.383E-03     30.4223E-03
             817     8.76939E-03     145.336E-03    -48.6908E+06    -13.3369E+06     45.2211E+06     3.04123E+06    -287.694E-03     576.334E-03    -288.640E-03     33.7227E-03    -288.046E-03     576.335E-03    -288.324E-03     32.0690E-03
             818     9.44451E-03     145.396E-03    -41.4143E+06     30.1550E+06     57.9025E+06     4.58641E+06    -287.514E-03     576.083E-03    -288.569E-03     35.9857E-03    -287.937E-03     576.298E-03    -288.263E-03     33.4338E-03
             819     10.1198E-03     145.458E-03    -34.2789E+06     73.1508E+06     69.7127E+06     5.70306E+06    -287.326E-03     575.819E-03    -288.493E-03     37.8136E-03    -287.825E-03     576.253E-03    -288.201E-03     34.2623E-03
             820     10.7951E-03     145.520E-03    -27.3875E+06     92.7708E+06     80.3155E+06     5.01613E+06    -287.199E-03     575.644E-03    -288.446E-03     38.8886E-03    -287.741E-03     576.186E-03    -288.139E-03     34.2737E-03
             821     11.4705E-03     145.581E-03    -20.4264E+06     110.886E+06     97.1232E+06     3.65396E+06    -287.027E-03     575.460E-03    -288.433E-03     38.8359E-03    -287.613E-03     576.086E-03    -288.079E-03     33.2535E-03
             822     12.1458E-03     145.639E-03    -13.3632E+06     128.591E+06     116.252E+06     2.51431E+06    -286.818E-03     575.253E-03    -288.435E-03     38.7126E-03    -287.468E-03     575.975E-03    -288.021E-03     31.7841E-03
             823     12.8214E-03     145.694E-03    -6.49653E+06     130.610E+06     123.857E+06     1.24989E+06    -286.718E-03     575.123E-03    -288.404E-03     32.8115E-03    -287.308E-03     575.794E-03    -287.965E-03     26.2366E-03
             824     674.103E-06     146.603E-03    -136.811E+06    -277.418E+06    -134.495E+06     185.114E+03    -288.930E-03     577.862E-03    -288.932E-03     2.87258E-03    -289.017E-03     576.868E-03    -289.004E-03     3.25953E-03
             825     1.34822E-03     146.612E-03    -133.482E+06    -267.425E+06    -124.940E+06     312.009E+03    -288.865E-03     577.816E-03    -288.951E-03     5.28548E-03    -288.963E-03     576.853E-03    -288.995E-03     5.97608E-03
             826     2.02240E-03     146.626E-03    -128.375E+06    -252.545E+06    -110.704E+06     426.166E+03    -288.784E-03     577.747E-03    -288.963E-03     7.82951E-03    -288.898E-03     576.831E-03    -288.965E-03     8.79748E-03
             827     2.69664E-03     146.645E-03    -121.824E+06    -234.069E+06    -93.3399E+06     499.237E+03    -288.683E-03     577.658E-03    -288.975E-03     10.3970E-03    -288.817E-03     576.799E-03    -288.925E-03     11.5820E-03
             828     3.37096E-03     146.669E-03    -114.239E+06    -213.416E+06    -74.5568E+06     548.728E+03    -288.570E-03     577.550E-03    -288.980E-03     12.9772E-03    -288.723E-03     576.757E-03    -288.878E-03     14.2994E-03
             829     4.04537E-03     146.699E-03    -106.023E+06    -191.559E+06    -55.7669E+06     596.362E+03    -288.450E-03     577.426E-03    -288.977E-03     15.5601E-03    -288.622E-03     576.704E-03    -288.824E-03     16.9255E-03
             830     4.71988E-03     146.733E-03    -97.5077E+06    -169.299E+06    -37.8537E+06     627.735E+03    -288.328E-03     577.290E-03    -288.962E-03     18.1461E-03    -288.517E-03     576.641E-03    -288.765E-03     19.4481E-03
             831     5.39450E-03     146.771E-03    -88.9396E+06    -146.917E+06    -21.2612E+06     652.789E+03    -288.205E-03     577.142E-03    -288.937E-03     20.7298E-03    -288.411E-03     576.572E-03    -288.701E-03     21.8533E-03
             832     6.06922E-03     146.814E-03    -80.4906E+06    -124.324E+06    -6.07103E+06      712.34E+03    -288.085E-03     576.986E-03    -288.901E-03     23.3249E-03    -288.308E-03     576.499E-03    -288.634E-03     24.1472E-03
             833     6.74404E-03     146.861E-03    -72.2662E+06    -100.963E+06     7.81194E+06     862.539E+03    -287.970E-03     576.826E-03    -288.856E-03     25.9354E-03    -288.212E-03     576.431E-03    -288.566E-03     26.3297E-03
             834     7.41896E-03     146.912E-03    -64.3080E+06    -76.2871E+06     20.6231E+06     1.16996E+06    -287.856E-03     576.659E-03    -288.804E-03     28.5332E-03    -288.123E-03     576.367E-03    -288.497E-03     28.3738E-03
             835     8.09398E-03     146.966E-03    -56.5962E+06    -48.7465E+06     32.7145E+06     1.71239E+06    -287.724E-03     576.467E-03    -288.743E-03     31.0475E-03    -288.025E-03     576.299E-03    -288.427E-03     30.2172E-03
             836     8.76909E-03     147.023E-03    -49.0967E+06    -16.9106E+06     44.6162E+06     2.66010E+06    -287.569E-03     576.243E-03    -288.674E-03     33.4965E-03    -287.916E-03     576.226E-03    -288.355E-03     31.8741E-03
             837     9.44433E-03     147.082E-03    -41.8024E+06     24.4832E+06     56.8882E+06     4.23474E+06    -287.373E-03     575.965E-03    -288.592E-03     35.7890E-03    -287.787E-03     576.153E-03    -288.283E-03     33.2655E-03
             838     10.1197E-03     147.144E-03    -34.6426E+06     71.4160E+06     69.3557E+06     5.30160E+06    -287.143E-03     575.645E-03    -288.501E-03     37.6526E-03    -287.640E-03     576.070E-03    -288.208E-03     34.1222E-03
             839     10.7952E-03     147.206E-03    -27.6347E+06     95.5121E+06     80.1287E+06     4.81965E+06    -286.979E-03     575.415E-03    -288.436E-03     38.7672E-03    -287.526E-03     575.970E-03    -288.133E-03     34.1640E-03
             840     11.4706E-03     147.267E-03    -20.9049E+06     113.069E+06     96.2032E+06     3.66443E+06    -286.801E-03     575.210E-03    -288.409E-03     38.7434E-03    -287.392E-03     575.849E-03    -288.061E-03     33.1604E-03
             841     12.1463E-03     147.325E-03    -13.8774E+06     131.183E+06     116.094E+06     2.51701E+06    -286.592E-03     574.994E-03    -288.402E-03     38.6400E-03    -287.249E-03     575.731E-03    -287.992E-03     31.6958E-03
             842     12.8219E-03     147.380E-03    -6.67980E+06     133.493E+06     125.061E+06     1.35860E+06    -286.505E-03     574.873E-03    -288.368E-03     32.7839E-03    -287.102E-03     575.558E-03    -287.927E-03     26.2044E-03
             843     673.995E-06     148.292E-03    -137.656E+06    -278.211E+06    -135.331E+06     151.225E+03    -289.075E-03     578.156E-03    -289.081E-03     2.83678E-03    -289.164E-03     577.160E-03    -289.154E-03     3.23231E-03
             844     1.34803E-03     148.300E-03    -134.314E+06    -268.117E+06    -125.668E+06     259.438E+03    -289.004E-03     578.101E-03    -289.097E-03     5.21480E-03    -289.104E-03     577.137E-03    -289.142E-03     5.92024E-03
             845     2.02210E-03     148.314E-03    -129.149E+06    -253.106E+06    -111.269E+06     327.121E+03    -288.909E-03     578.014E-03    -289.106E-03     7.72851E-03    -289.026E-03     577.097E-03    -289.108E-03     8.71707E-03
             846     2.69627E-03     148.333E-03    -122.537E+06    -234.505E+06    -93.7370E+06     368.918E+03    -288.789E-03     577.901E-03    -289.112E-03     10.2651E-03    -288.926E-03     577.042E-03    -289.063E-03     11.4760E-03
             847     3.37052E-03     148.357E-03    -114.886E+06    -213.805E+06    -74.7915E+06     396.123E+03    -288.655E-03     577.765E-03    -289.111E-03     12.8146E-03    -288.811E-03     576.971E-03    -289.008E-03     14.1672E-03
             848     4.04488E-03     148.387E-03    -106.590E+06    -191.907E+06    -55.8783E+06     411.905E+03    -288.510E-03     577.609E-03    -289.099E-03     15.3696E-03    -288.685E-03     576.886E-03    -288.945E-03     16.7689E-03
             849     4.71935E-03     148.420E-03    -97.9977E+06    -169.605E+06    -37.9069E+06     426.952E+03    -288.361E-03     577.436E-03    -289.075E-03     17.9315E-03    -288.552E-03     576.787E-03    -288.876E-03     19.2703E-03
             850     5.39395E-03     148.459E-03    -89.3772E+06    -147.233E+06    -21.2834E+06     450.817E+03    -288.212E-03     577.250E-03    -289.038E-03     20.4959E-03    -288.419E-03     576.679E-03    -288.802E-03     21.6585E-03
             851     6.06867E-03     148.501E-03    -80.8987E+06    -124.788E+06    -6.10357E+06     510.772E+03    -288.064E-03     577.055E-03    -288.991E-03     23.0808E-03    -288.287E-03     576.566E-03    -288.724E-03     23.9434E-03
             852     6.74351E-03     148.548E-03    -72.6510E+06    -101.710E+06     7.73096E+06     646.892E+03    -287.920E-03     576.855E-03    -288.935E-03     25.6940E-03    -288.162E-03     576.456E-03    -288.643E-03     26.1286E-03
             853     7.41847E-03     148.598E-03    -64.6754E+06    -77.5480E+06     20.4575E+06     917.629E+03    -287.775E-03     576.645E-03    -288.870E-03     28.2966E-03    -288.041E-03     576.347E-03    -288.561E-03     28.1774E-03
             854     8.09354E-03     148.652E-03    -56.9965E+06    -50.7666E+06     32.4089E+06     1.40873E+06    -287.614E-03     576.411E-03    -288.797E-03     30.8142E-03    -287.912E-03     576.233E-03    -288.478E-03     30.0242E-03
             855     8.76875E-03     148.709E-03    -49.5426E+06    -20.1277E+06     44.0519E+06     2.18092E+06    -287.433E-03     576.148E-03    -288.715E-03     33.2820E-03    -287.775E-03     576.115E-03    -288.394E-03     31.6958E-03
             856     9.44406E-03     148.768E-03    -42.1250E+06     19.1633E+06     55.9348E+06     3.49451E+06    -287.214E-03     575.835E-03    -288.621E-03     35.6039E-03    -287.620E-03     575.996E-03    -288.308E-03     33.1086E-03
             857     10.1196E-03     148.830E-03    -34.8004E+06     69.1952E+06     69.1608E+06     4.72715E+06    -286.946E-03     575.461E-03    -288.515E-03     37.4973E-03    -287.438E-03     575.875E-03    -288.219E-03     33.9897E-03
             858     10.7951E-03     148.892E-03    -27.8154E+06     97.4886E+06     80.0842E+06     4.58489E+06    -286.755E-03     575.186E-03    -288.431E-03     38.6381E-03    -287.304E-03     575.750E-03    -288.131E-03     34.0499E-03
             859     11.4709E-03     148.953E-03    -20.8430E+06     114.909E+06     95.1957E+06     3.67262E+06    -286.584E-03     574.970E-03    -288.386E-03     38.6376E-03    -287.175E-03     575.619E-03    -288.046E-03     33.0574E-03
             860     12.1465E-03     149.010E-03    -13.8452E+06     133.750E+06     115.731E+06     2.66398E+06    -286.375E-03     574.745E-03    -288.371E-03     38.5588E-03    -287.035E-03     575.496E-03    -287.966E-03     31.6030E-03
             861     12.8224E-03     149.065E-03    -6.89278E+06     136.619E+06     126.069E+06     1.30291E+06    -286.288E-03     574.621E-03    -288.333E-03     32.7386E-03    -286.892E-03     575.320E-03    -287.891E-03     26.1539E-03
             862     673.892E-06     149.981E-03    -138.498E+06    -278.885E+06    -136.158E+06     125.508E+03    -289.231E-03     578.461E-03    -289.230E-03     2.79457E-03    -289.322E-03     577.465E-03    -289.306E-03     3.19967E-03
             863     1.34781E-03     149.989E-03    -135.124E+06    -268.666E+06    -126.365E+06     204.966E+03    -289.146E-03     578.394E-03    -289.249E-03     5.13899E-03    -289.248E-03     577.430E-03    -289.295E-03     5.86033E-03
             864     2.02180E-03     150.003E-03    -129.893E+06    -253.477E+06    -111.779E+06     242.569E+03    -289.038E-03     578.291E-03    -289.253E-03     7.61815E-03    -289.157E-03     577.374E-03    -289.256E-03     8.62915E-03
             865     2.69587E-03     150.022E-03    -123.193E+06    -234.816E+06    -94.0333E+06     252.487E+03    -288.901E-03     578.155E-03    -289.254E-03     10.1223E-03    -289.040E-03     577.296E-03    -289.205E-03     11.3616E-03
             866     3.37005E-03     150.046E-03    -115.443E+06    -214.016E+06    -74.9375E+06     240.357E+03    -288.746E-03     577.992E-03    -289.246E-03     12.6414E-03    -288.904E-03     577.198E-03    -289.143E-03     14.0277E-03
             867     4.04435E-03     150.075E-03    -107.059E+06    -192.091E+06    -55.9218E+06     212.580E+03    -288.578E-03     577.804E-03    -289.226E-03     15.1691E-03    -288.754E-03     577.080E-03    -289.072E-03     16.6064E-03
             868     4.71879E-03     150.108E-03    -98.3924E+06    -169.841E+06    -37.8840E+06     212.275E+03    -288.403E-03     577.595E-03    -289.192E-03     17.7084E-03    -288.596E-03     576.946E-03    -288.993E-03     19.0888E-03
             869     5.39336E-03     150.146E-03    -89.6947E+06    -147.468E+06    -21.2381E+06     229.895E+03    -288.225E-03     577.371E-03    -289.146E-03     20.2580E-03    -288.433E-03     576.798E-03    -288.908E-03     21.4651E-03
             870     6.06808E-03     150.189E-03    -81.1264E+06    -125.157E+06    -6.05136E+06     267.197E+03    -288.047E-03     577.135E-03    -289.088E-03     22.8365E-03    -288.271E-03     576.644E-03    -288.819E-03     23.7450E-03
             871     6.74294E-03     150.235E-03    -72.7858E+06    -102.315E+06     7.77338E+06     366.168E+03    -287.871E-03     576.889E-03    -289.019E-03     25.4538E-03    -288.112E-03     576.487E-03    -288.726E-03     25.9344E-03
             872     7.41794E-03     150.285E-03    -64.7269E+06    -78.6799E+06     20.4576E+06     610.771E+03    -287.692E-03     576.633E-03    -288.941E-03     28.0592E-03    -287.956E-03     576.329E-03    -288.631E-03     27.9861E-03
             873     8.09309E-03     150.339E-03    -56.9409E+06    -52.5809E+06     32.3396E+06     1.06659E+06    -287.499E-03     576.354E-03    -288.855E-03     30.5793E-03    -287.794E-03     576.165E-03    -288.534E-03     29.8347E-03
             874     8.76836E-03     150.395E-03    -49.4196E+06    -22.6982E+06     43.8894E+06     1.73332E+06    -287.289E-03     576.048E-03    -288.759E-03     33.0633E-03    -287.626E-03     576.002E-03    -288.435E-03     31.5188E-03
             875     9.44382E-03     150.454E-03    -42.0877E+06     15.2230E+06     55.5497E+06     2.58118E+06    -287.049E-03     575.701E-03    -288.652E-03     35.4115E-03    -287.447E-03     575.842E-03    -288.335E-03     32.9454E-03
             876     10.1194E-03     150.515E-03    -34.7127E+06     65.6864E+06     68.9913E+06     3.72291E+06    -286.759E-03     575.292E-03    -288.533E-03     37.3261E-03    -287.245E-03     575.687E-03    -288.233E-03     33.8381E-03
             877     10.7952E-03     150.577E-03    -27.5495E+06     97.9092E+06     79.9764E+06     4.43403E+06    -286.547E-03     574.976E-03    -288.429E-03     38.4852E-03    -287.094E-03     575.541E-03    -288.132E-03     33.9174E-03
             878     11.4709E-03     150.638E-03    -20.9399E+06     117.075E+06     94.2051E+06     3.76271E+06    -286.369E-03     574.735E-03    -288.366E-03     38.5199E-03    -286.962E-03     575.396E-03    -288.035E-03     32.9478E-03
             879     12.1469E-03     150.696E-03    -13.9210E+06     136.177E+06     115.191E+06     2.54162E+06    -286.160E-03     574.502E-03    -288.342E-03     38.4806E-03    -286.823E-03     575.265E-03    -287.943E-03     31.5116E-03
             880     12.8227E-03     150.750E-03    -6.61909E+06     139.863E+06     127.113E+06     1.37417E+06    -286.072E-03     574.373E-03    -288.301E-03     32.7178E-03    -286.682E-03     575.087E-03    -287.858E-03     26.1319E-03
             881     673.781E-06     151.670E-03    -139.263E+06    -279.416E+06    -136.888E+06     93.0216E+03    -289.380E-03     578.761E-03    -289.381E-03     2.75492E-03    -289.472E-03     577.764E-03    -289.459E-03     3.16986E-03
             882     1.34761E-03     151.679E-03    -135.838E+06    -269.087E+06    -126.955E+06     147.633E+03    -289.286E-03     578.683E-03    -289.397E-03     5.06799E-03    -289.391E-03     577.719E-03    -289.445E-03     5.80692E-03
             883     2.02150E-03     151.692E-03    -130.538E+06    -253.716E+06    -112.197E+06     166.435E+03    -289.165E-03     578.563E-03    -289.398E-03     7.51381E-03    -289.287E-03     577.646E-03    -289.402E-03     8.55022E-03
             884     2.69549E-03     151.711E-03    -123.761E+06    -234.928E+06    -94.2702E+06     130.031E+03    -289.012E-03     578.406E-03    -289.394E-03     9.98686E-03    -289.153E-03     577.547E-03    -289.345E-03     11.2581E-03
             885     3.36959E-03     151.735E-03    -115.929E+06    -214.052E+06    -75.0031E+06     70.7471E+03    -288.836E-03     578.216E-03    -289.379E-03     12.4774E-03    -288.997E-03     577.422E-03    -289.276E-03     13.9013E-03
             886     4.04384E-03     151.763E-03    -107.470E+06    -192.115E+06    -55.8714E+06     18.3506E+03    -288.645E-03     577.997E-03    -289.351E-03     14.9793E-03    -288.824E-03     577.274E-03    -289.196E-03     16.4591E-03
             887     4.71823E-03     151.797E-03    -98.7273E+06    -169.904E+06    -37.7776E+06    -34.6101E+03    -288.445E-03     577.754E-03    -289.309E-03     17.4981E-03    -288.640E-03     577.104E-03    -289.108E-03     18.9245E-03
             888     5.39278E-03     151.834E-03    -89.9462E+06    -147.541E+06    -21.1258E+06    -81.4576E+03    -288.239E-03     577.491E-03    -289.252E-03     20.0343E-03    -288.448E-03     576.919E-03    -289.013E-03     21.2894E-03
             889     6.06749E-03     151.876E-03    -81.3038E+06     -125.35E+06    -5.94921E+06    -95.1837E+03    -288.031E-03     577.213E-03    -289.182E-03     22.6041E-03    -288.255E-03     576.721E-03    -288.913E-03     23.5620E-03
             890     6.74237E-03     151.922E-03    -72.8940E+06    -102.669E+06     7.86770E+06    -68.0377E+03    -287.822E-03     576.924E-03    -289.102E-03     25.2206E-03    -288.064E-03     576.519E-03    -288.808E-03     25.7501E-03
             891     7.41742E-03     151.972E-03    -64.7251E+06    -79.5204E+06     20.5238E+06     48.0365E+03    -287.611E-03     576.623E-03    -289.011E-03     27.8232E-03    -287.874E-03     576.313E-03    -288.700E-03     27.7971E-03
             892     8.09262E-03     152.025E-03    -56.7818E+06    -53.9902E+06     32.3637E+06     323.762E+03    -287.386E-03     576.298E-03    -288.912E-03     30.3413E-03    -287.677E-03     576.101E-03    -288.589E-03     29.6406E-03
             893     8.76801E-03     152.081E-03    -49.0297E+06    -24.9646E+06     43.8439E+06     881.413E+03    -287.149E-03     575.952E-03    -288.803E-03     32.8339E-03    -287.479E-03     575.892E-03    -288.477E-03     31.3289E-03
             894     9.44354E-03     152.140E-03    -41.6020E+06     11.8594E+06     55.4562E+06     1.94769E+06    -286.890E-03     575.572E-03    -288.683E-03     35.1972E-03    -287.279E-03     575.695E-03    -288.362E-03     32.7690E-03
             895     10.1193E-03     152.201E-03    -34.7149E+06     61.3355E+06     68.6592E+06     3.43432E+06    -286.588E-03     575.140E-03    -288.552E-03     37.1435E-03    -287.066E-03     575.513E-03    -288.247E-03     33.6907E-03
             896     10.7951E-03     152.262E-03    -28.1189E+06     96.7200E+06     79.1683E+06     4.35200E+06    -286.352E-03     574.782E-03    -288.430E-03     38.3405E-03    -286.898E-03     575.342E-03    -288.134E-03     33.7990E-03
             897     11.4711E-03     152.323E-03    -21.2550E+06     119.893E+06     93.2012E+06     3.81327E+06    -286.153E-03     574.501E-03    -288.348E-03     38.4160E-03    -286.749E-03     575.177E-03    -288.025E-03     32.8550E-03
             898     12.1470E-03     152.380E-03    -14.3166E+06     138.939E+06     114.649E+06     2.40583E+06    -285.940E-03     574.255E-03    -288.314E-03     38.4254E-03    -286.609E-03     575.034E-03    -287.922E-03     31.4461E-03
             899     12.8232E-03     152.435E-03    -7.24130E+06     142.588E+06     127.812E+06     1.13605E+06    -285.856E-03     574.126E-03    -288.270E-03     32.7119E-03    -286.474E-03     574.854E-03    -287.827E-03     26.1209E-03
             900     673.691E-06     153.361E-03    -139.978E+06    -279.810E+06    -137.570E+06     66.9958E+03    -289.512E-03     579.031E-03    -289.519E-03     2.72151E-03    -289.606E-03     578.034E-03    -289.598E-03     3.14708E-03
             901     1.34742E-03     153.369E-03    -136.512E+06    -269.369E+06    -127.517E+06     93.0413E+03    -289.413E-03     578.944E-03    -289.531E-03     5.00624E-03    -289.520E-03     577.980E-03    -289.580E-03     5.76421E-03
             902     2.02123E-03     153.382E-03    -131.146E+06    -253.837E+06    -112.598E+06     84.3786E+03    -289.280E-03     578.809E-03    -289.529E-03     7.42351E-03    -289.405E-03     577.893E-03    -289.533E-03     8.48744E-03
             903     2.69513E-03     153.401E-03    -124.296E+06    -234.850E+06    -94.4725E+06     25.7036E+03    -289.112E-03     578.632E-03    -289.520E-03     9.86854E-03    -289.256E-03     577.775E-03    -289.471E-03     11.1750E-03
             904     3.36918E-03     153.424E-03    -116.393E+06    -213.915E+06    -75.0145E+06    -69.7700E+03    -288.919E-03     578.419E-03    -289.500E-03     12.3325E-03    -289.082E-03     577.627E-03    -289.396E-03     13.7979E-03
             905     4.04337E-03     153.452E-03    -107.853E+06    -191.961E+06    -55.7577E+06    -172.752E+03    -288.707E-03     578.172E-03    -289.465E-03     14.8107E-03    -288.888E-03     577.451E-03    -289.309E-03     16.3369E-03
             906     4.71772E-03     153.485E-03    -99.0391E+06    -169.701E+06    -37.6061E+06    -283.555E+03    -288.484E-03     577.898E-03    -289.415E-03     17.3092E-03    -288.680E-03     577.250E-03    -289.213E-03     18.7856E-03
             907     5.39225E-03     153.523E-03    -90.2277E+06    -147.398E+06    -20.9525E+06    -382.483E+03    -288.252E-03     577.600E-03    -289.348E-03     19.8291E-03    -288.463E-03     577.029E-03    -289.109E-03     21.1365E-03
             908     6.06696E-03     153.564E-03    -81.5749E+06    -125.270E+06    -5.81221E+06    -461.407E+03    -288.016E-03     577.285E-03    -289.269E-03     22.3864E-03    -288.242E-03     576.793E-03    -288.998E-03     23.3978E-03
             909     6.74186E-03     153.609E-03    -73.1574E+06    -102.646E+06     7.95303E+06    -538.306E+03    -287.778E-03     576.955E-03    -289.177E-03     24.9974E-03    -288.021E-03     576.550E-03    -288.882E-03     25.5796E-03
             910     7.41693E-03     153.659E-03    -65.0171E+06    -79.7346E+06     20.5651E+06    -598.395E+03    -287.537E-03     576.612E-03    -289.075E-03     27.5917E-03    -287.799E-03     576.301E-03    -288.762E-03     27.6157E-03
             911     8.09221E-03     153.711E-03    -57.1416E+06    -54.6970E+06     32.2938E+06    -558.430E+03    -287.283E-03     576.246E-03    -288.963E-03     30.1035E-03    -287.573E-03     576.045E-03    -288.640E-03     29.4483E-03
             912     8.76765E-03     153.767E-03    -49.4963E+06    -26.6796E+06     43.5365E+06    -261.130E+03    -287.020E-03     575.863E-03    -288.843E-03     32.6001E-03    -287.349E-03     575.795E-03    -288.515E-03     31.1335E-03
             913     9.44331E-03     153.825E-03    -41.8991E+06     7.95598E+06     54.7286E+06     697.661E+03    -286.741E-03     575.452E-03    -288.711E-03     34.9752E-03    -287.123E-03     575.555E-03    -288.388E-03     32.5789E-03
             914     10.1191E-03     153.885E-03    -34.3187E+06     54.8848E+06     67.5887E+06     2.98251E+06    -286.427E-03     574.995E-03    -288.569E-03     36.9477E-03    -286.889E-03     575.335E-03    -288.260E-03     33.5319E-03
             915     10.7952E-03     153.947E-03    -27.2984E+06     95.1920E+06     78.5622E+06     4.69701E+06    -286.162E-03     574.591E-03    -288.429E-03     38.2002E-03    -286.699E-03     575.141E-03    -288.134E-03     33.6959E-03
             916     11.4711E-03     154.007E-03    -20.9050E+06     123.343E+06     92.5087E+06     3.89056E+06    -285.937E-03     574.265E-03    -288.327E-03     38.3489E-03    -286.535E-03     574.958E-03    -288.013E-03     32.8026E-03
             917     12.1474E-03     154.064E-03    -13.9791E+06     141.792E+06     114.183E+06     2.39844E+06    -285.725E-03     574.010E-03    -288.285E-03     38.4157E-03    -286.396E-03     574.803E-03    -287.899E-03     31.4329E-03
             918     12.8235E-03     154.119E-03    -6.72494E+06     145.417E+06     129.111E+06     1.15412E+06    -285.636E-03     573.875E-03    -288.239E-03     32.7787E-03    -286.257E-03     574.614E-03    -287.795E-03     26.1891E-03
             919     673.610E-06     155.051E-03    -140.610E+06    -280.122E+06    -138.172E+06     60.2070E+03    -289.616E-03     579.244E-03    -289.628E-03     2.69548E-03    -289.713E-03     578.248E-03    -289.709E-03     3.13236E-03
             920     1.34727E-03     155.059E-03    -137.111E+06    -269.526E+06    -127.989E+06     66.3150E+03    -289.514E-03     579.151E-03    -289.637E-03     4.95867E-03    -289.623E-03     578.188E-03    -289.688E-03     5.73692E-03
             921     2.02100E-03     155.072E-03    -131.697E+06    -253.858E+06    -112.882E+06     40.4738E+03    -289.373E-03     579.006E-03    -289.633E-03     7.35247E-03    -289.500E-03     578.091E-03    -289.638E-03     8.44561E-03
             922     2.69485E-03     155.091E-03    -124.785E+06    -234.677E+06    -94.5827E+06    -29.2644E+03    -289.193E-03     578.814E-03    -289.621E-03     9.77373E-03    -289.340E-03     577.959E-03    -289.572E-03     11.1177E-03
             923     3.36884E-03     155.114E-03    -116.811E+06    -213.583E+06    -74.9683E+06    -159.525E+03    -288.986E-03     578.582E-03    -289.597E-03     12.2144E-03    -289.152E-03     577.793E-03    -289.492E-03     13.7242E-03
             924     4.04299E-03     155.142E-03    -108.211E+06    -191.588E+06    -55.5847E+06    -320.858E+03    -288.758E-03     578.315E-03    -289.557E-03     14.6699E-03    -288.941E-03     577.595E-03    -289.400E-03     16.2457E-03
             925     4.71731E-03     155.174E-03    -99.3562E+06    -169.341E+06    -37.3797E+06    -457.909E+03    -288.516E-03     578.016E-03    -289.500E-03     17.1459E-03    -288.715E-03     577.369E-03    -289.297E-03     18.6763E-03
             926     5.39182E-03     155.211E-03    -90.5132E+06    -147.057E+06    -20.7238E+06    -577.569E+03    -288.263E-03     577.690E-03    -289.427E-03     19.6464E-03    -288.476E-03     577.120E-03    -289.186E-03     21.0111E-03
             927     6.06653E-03     155.252E-03    -81.8542E+06    -124.932E+06    -5.61888E+06    -700.311E+03    -288.004E-03     577.343E-03    -289.339E-03     22.1889E-03    -288.232E-03     576.853E-03    -289.067E-03     23.2591E-03
             928     6.74143E-03     155.297E-03    -73.4858E+06    -102.320E+06     8.07973E+06    -814.656E+03    -287.741E-03     576.978E-03    -289.237E-03     24.7887E-03    -287.985E-03     576.575E-03    -288.942E-03     25.4305E-03
             929     7.41655E-03     155.345E-03    -65.4745E+06    -79.5836E+06     20.6009E+06    -867.725E+03    -287.472E-03     576.598E-03    -289.126E-03     27.3695E-03    -287.737E-03     576.288E-03    -288.813E-03     27.4542E-03
             930     8.09185E-03     155.397E-03    -57.8619E+06    -54.8320E+06     32.1908E+06    -844.370E+03    -287.192E-03     576.196E-03    -289.004E-03     29.8754E-03    -287.484E-03     575.995E-03    -288.680E-03     29.2802E-03
             931     8.76738E-03     155.452E-03    -50.6381E+06    -27.8340E+06     43.1048E+06    -586.784E+03    -286.906E-03     575.780E-03    -288.874E-03     32.3801E-03    -287.236E-03     575.707E-03    -288.545E-03     30.9697E-03
             932     9.44308E-03     155.510E-03    -43.7681E+06     5.25442E+06     53.7004E+06    -51.6331E+03    -286.606E-03     575.338E-03    -288.732E-03     34.7770E-03    -286.991E-03     575.430E-03    -288.407E-03     32.4251E-03
             933     10.1190E-03     155.570E-03    -36.6906E+06     48.3043E+06     65.3268E+06     1.11839E+06    -286.277E-03     574.856E-03    -288.579E-03     36.7893E-03    -286.737E-03     575.168E-03    -288.269E-03     33.3925E-03
             934     10.7951E-03     155.631E-03    -28.9913E+06     91.5219E+06     76.1045E+06     2.95330E+06    -285.968E-03     574.390E-03    -288.422E-03     38.0777E-03    -286.503E-03     574.926E-03    -288.132E-03     33.5809E-03
             935     11.4714E-03     155.691E-03    -21.3220E+06     126.296E+06     91.1191E+06     3.45548E+06    -285.708E-03     574.011E-03    -288.302E-03     38.2716E-03    -286.310E-03     574.720E-03    -287.999E-03     32.7333E-03
             936     12.1476E-03     155.748E-03    -14.2532E+06     144.593E+06     113.581E+06     2.23856E+06    -285.500E-03     573.752E-03    -288.252E-03     38.4085E-03    -286.176E-03     574.561E-03    -287.873E-03     31.4191E-03
             937     12.8241E-03     155.803E-03    -7.17187E+06     147.885E+06     130.203E+06     1.17424E+06    -285.434E-03     573.640E-03    -288.206E-03     32.8103E-03    -286.063E-03     574.391E-03    -287.759E-03     26.2210E-03
             938     673.567E-06     156.742E-03    -141.149E+06    -280.441E+06    -138.677E+06     71.5130E+03    -289.679E-03     579.375E-03    -289.695E-03     2.68025E-03    -289.777E-03     578.378E-03    -289.777E-03     3.12886E-03
             939     1.34717E-03     156.750E-03    -137.613E+06    -269.660E+06    -128.350E+06     90.8013E+03    -289.576E-03     579.278E-03    -289.702E-03     4.92927E-03    -289.687E-03     578.315E-03    -289.754E-03     5.72875E-03
             940     2.02087E-03     156.763E-03    -132.137E+06    -253.852E+06    -113.051E+06     68.2918E+03    -289.431E-03     579.128E-03    -289.697E-03     7.30777E-03    -289.560E-03     578.214E-03    -289.703E-03     8.43140E-03
             941     2.69467E-03     156.781E-03    -125.160E+06    -234.464E+06    -94.5750E+06    -5.65993E+03    -289.245E-03     578.929E-03    -289.684E-03     9.71208E-03    -289.394E-03     578.075E-03    -289.635E-03     11.0950E-03
             942     3.36863E-03     156.804E-03    -117.136E+06    -213.134E+06    -74.8139E+06    -148.286E+03    -289.030E-03     578.687E-03    -289.658E-03     12.1339E-03    -289.198E-03     577.900E-03    -289.553E-03     13.6900E-03
             943     4.04274E-03     156.831E-03    -108.506E+06    -191.078E+06    -55.3032E+06    -325.073E+03    -288.793E-03     578.408E-03    -289.615E-03     14.5687E-03    -288.979E-03     577.691E-03    -289.458E-03     16.1970E-03
             944     4.71704E-03     156.863E-03    -99.6228E+06    -168.851E+06    -37.0380E+06    -504.848E+03    -288.539E-03     578.094E-03    -289.555E-03     17.0230E-03    -288.741E-03     577.450E-03    -289.351E-03     18.6105E-03
             945     5.39154E-03     156.899E-03    -90.7516E+06    -146.577E+06    -20.3957E+06    -668.743E+03    -288.272E-03     577.750E-03    -289.478E-03     19.5029E-03    -288.488E-03     577.182E-03    -289.235E-03     20.9281E-03
             946     6.06624E-03     156.940E-03    -82.0677E+06    -124.461E+06    -5.32351E+06    -808.728E+03    -287.997E-03     577.381E-03    -289.384E-03     22.0259E-03    -288.226E-03     576.892E-03    -289.111E-03     23.1593E-03
             947     6.74116E-03     156.984E-03    -73.6704E+06    -101.945E+06     8.33257E+06    -907.547E+03    -287.713E-03     576.990E-03    -289.277E-03     24.6075E-03    -287.958E-03     576.588E-03    -288.981E-03     25.3147E-03
             948     7.41629E-03     157.032E-03    -65.5918E+06    -79.4634E+06     20.8026E+06    -926.036E+03    -287.421E-03     576.580E-03    -289.159E-03     27.1698E-03    -287.686E-03     576.270E-03    -288.845E-03     27.3222E-03
             949     8.09165E-03     157.084E-03    -57.8503E+06    -55.1579E+06     32.3346E+06    -751.217E+03    -287.117E-03     576.147E-03    -289.030E-03     29.6649E-03    -287.408E-03     575.943E-03    -288.704E-03     29.1400E-03
             950     8.76722E-03     157.138E-03    -50.4797E+06    -29.0561E+06     43.1989E+06    -301.184E+03    -286.810E-03     575.702E-03    -288.892E-03     32.1713E-03    -287.136E-03     575.620E-03    -288.561E-03     30.8314E-03
             951     9.44303E-03     157.195E-03    -43.5434E+06     2.85189E+06     53.6487E+06     640.980E+03    -286.492E-03     575.233E-03    -288.742E-03     34.5877E-03    -286.869E-03     575.311E-03    -288.415E-03     32.3071E-03
             952     10.1190E-03     157.255E-03    -37.2903E+06     45.3386E+06     64.9910E+06     1.53646E+06    -286.150E-03     574.731E-03    -288.581E-03     36.6564E-03    -286.606E-03     575.027E-03    -288.268E-03     33.3175E-03
             953     10.7952E-03     157.315E-03    -31.0731E+06     90.1851E+06     75.1381E+06     1.10972E+06    -285.824E-03     574.236E-03    -288.412E-03     38.0154E-03    -286.365E-03     574.769E-03    -288.122E-03     33.5251E-03
             954     11.4715E-03     157.375E-03    -23.7785E+06     126.496E+06     88.6244E+06     599.251E+03    -285.540E-03     573.815E-03    -288.275E-03     38.2205E-03    -286.149E-03     574.532E-03    -287.981E-03     32.6515E-03
             955     12.1481E-03     157.432E-03    -15.6117E+06     145.699E+06     111.369E+06     958.319E+03    -285.343E-03     573.559E-03    -288.216E-03     38.3060E-03    -286.023E-03     574.378E-03    -287.848E-03     31.2898E-03
             956     12.8245E-03     157.486E-03    -7.63531E+06     149.840E+06     130.037E+06     562.483E+03    -285.319E-03     573.492E-03    -288.172E-03     32.6920E-03    -285.953E-03     574.253E-03    -287.728E-03     26.0909E-03
             957     673.553E-06     158.433E-03    -141.509E+06    -280.869E+06    -139.000E+06     109.606E+03    -289.688E-03     579.395E-03    -289.707E-03     2.67853E-03    -289.786E-03     578.397E-03    -289.790E-03     3.13892E-03
             958     1.34716E-03     158.441E-03    -137.935E+06    -269.899E+06    -128.563E+06     156.765E+03    -289.586E-03     579.299E-03    -289.713E-03     4.92484E-03    -289.698E-03     578.336E-03    -289.764E-03     5.74552E-03
             959     2.02084E-03     158.454E-03    -132.412E+06    -253.893E+06    -113.087E+06     152.671E+03    -289.442E-03     579.151E-03    -289.709E-03     7.29797E-03    -289.572E-03     578.238E-03    -289.714E-03     8.45210E-03
             960     2.69464E-03     158.471E-03    -125.365E+06    -234.280E+06    -94.4003E+06     86.5378E+03    -289.258E-03     578.955E-03    -289.696E-03     9.69343E-03    -289.409E-03     578.102E-03    -289.647E-03     11.1154E-03
             961     3.36857E-03     158.494E-03    -117.262E+06    -212.725E+06    -74.4441E+06    -34.4435E+03    -289.044E-03     578.715E-03    -289.671E-03     12.1023E-03    -289.214E-03     577.930E-03    -289.565E-03     13.7053E-03
             962     4.04268E-03     158.521E-03    -108.552E+06    -190.536E+06    -54.7879E+06    -206.309E+03    -288.806E-03     578.436E-03    -289.630E-03     14.5199E-03    -288.994E-03     577.721E-03    -289.470E-03     16.2017E-03
             963     4.71697E-03     158.552E-03    -99.6150E+06    -168.239E+06    -36.4367E+06    -407.712E+03    -288.550E-03     578.121E-03    -289.570E-03     16.9534E-03    -288.753E-03     577.479E-03    -289.364E-03     18.5995E-03
             964     5.39146E-03     158.588E-03    -90.7213E+06    -145.991E+06    -19.7770E+06    -607.376E+03    -288.279E-03     577.772E-03    -289.493E-03     19.4101E-03    -288.496E-03     577.206E-03    -289.248E-03     20.8975E-03
             965     6.06615E-03     158.628E-03    -82.0274E+06    -123.873E+06    -4.75222E+06    -800.632E+03    -287.995E-03     577.393E-03    -289.398E-03     21.9080E-03    -288.225E-03     576.907E-03    -289.123E-03     23.1061E-03
             966     6.74108E-03     158.671E-03    -73.5826E+06    -101.372E+06     8.84835E+06    -1.01820E+06    -287.698E-03     576.987E-03    -289.289E-03     24.4630E-03    -287.944E-03     576.586E-03    -288.991E-03     25.2359E-03
             967     7.41623E-03     158.719E-03    -65.3934E+06    -79.1830E+06     21.2691E+06    -1.19047E+06    -287.390E-03     576.558E-03    -289.168E-03     26.9974E-03    -287.654E-03     576.247E-03    -288.852E-03     27.2148E-03
             968     8.09161E-03     158.770E-03    -57.3859E+06    -55.2992E+06     32.7879E+06    -1.29336E+06    -287.069E-03     576.104E-03    -289.035E-03     29.4687E-03    -287.356E-03     575.896E-03    -288.708E-03     29.0049E-03
             969     8.76724E-03     158.823E-03    -49.4316E+06    -30.2662E+06     43.6682E+06    -1.12793E+06    -286.744E-03     575.637E-03    -288.893E-03     31.9591E-03    -287.062E-03     575.546E-03    -288.559E-03     30.6739E-03
             970     9.44307E-03     158.880E-03    -41.3410E+06     242.951E+03     54.2798E+06    -569.234E+03    -286.411E-03     575.149E-03    -288.739E-03     34.3734E-03    -286.772E-03     575.208E-03    -288.408E-03     32.1361E-03
             971     10.1192E-03     158.939E-03    -32.9628E+06     41.8213E+06     66.2767E+06     833.495E+03    -286.059E-03     574.633E-03    -288.573E-03     36.4614E-03    -286.489E-03     574.901E-03    -288.255E-03     33.1645E-03
             972     10.7954E-03     158.999E-03    -25.4102E+06     92.3909E+06     78.5638E+06     1.58003E+06    -285.727E-03     574.125E-03    -288.399E-03     37.8884E-03    -286.246E-03     574.655E-03    -288.103E-03     33.4452E-03
             973     11.4719E-03     159.058E-03    -19.3312E+06     127.783E+06     93.4908E+06     587.206E+03    -285.498E-03     573.766E-03    -288.268E-03     38.1783E-03    -286.094E-03     574.476E-03    -287.958E-03     32.6303E-03
             974     12.1482E-03     159.115E-03    -13.2587E+06     143.972E+06     113.835E+06     236.148E+03    -285.321E-03     573.524E-03    -288.203E-03     38.3017E-03    -285.991E-03     574.328E-03    -287.824E-03     31.2699E-03
             975     12.8247E-03     159.170E-03    -6.45377E+06     151.433E+06     130.735E+06     509.930E+03    -285.203E-03     573.348E-03    -288.145E-03     32.7700E-03    -285.834E-03     574.115E-03    -287.701E-03     26.1642E-03
             976     673.595E-06     160.124E-03    -141.685E+06    -281.482E+06    -139.155E+06     158.815E+03    -289.628E-03     579.277E-03    -289.649E-03     2.69520E-03    -289.726E-03     578.277E-03    -289.731E-03     3.16659E-03
             977     1.34723E-03     160.132E-03    -138.072E+06    -270.305E+06    -128.577E+06     239.175E+03    -289.533E-03     579.188E-03    -289.656E-03     4.95176E-03    -289.645E-03     578.223E-03    -289.706E-03     5.79218E-03
             978     2.02095E-03     160.144E-03    -132.469E+06    -254.038E+06    -112.908E+06     258.725E+03    -289.397E-03     579.052E-03    -289.655E-03     7.33220E-03    -289.527E-03     578.137E-03    -289.659E-03     8.51484E-03
             979     2.69476E-03     160.162E-03    -125.339E+06    -234.204E+06    -94.0182E+06     214.599E+03    -289.223E-03     578.869E-03    -289.647E-03     9.72962E-03    -289.374E-03     578.016E-03    -289.595E-03     11.1883E-03
             980     3.36873E-03     160.184E-03    -117.151E+06    -212.425E+06    -73.8860E+06     113.220E+03    -289.019E-03     578.645E-03    -289.626E-03     12.1333E-03    -289.190E-03     577.860E-03    -289.518E-03     13.7807E-03
             981     4.04284E-03     160.210E-03    -108.363E+06    -190.049E+06    -54.0852E+06    -39.9659E+03    -288.793E-03     578.383E-03    -289.590E-03     14.5377E-03    -288.981E-03     577.668E-03    -289.428E-03     16.2707E-03
             982     4.71714E-03     160.241E-03    -99.3589E+06    -167.676E+06    -35.6248E+06    -212.382E+03    -288.547E-03     578.082E-03    -289.535E-03     16.9504E-03    -288.750E-03     577.441E-03    -289.326E-03     18.6538E-03
             983     5.39162E-03     160.277E-03    -90.4154E+06    -145.329E+06    -18.9055E+06    -413.432E+03    -288.283E-03     577.745E-03    -289.462E-03     19.3816E-03    -288.500E-03     577.180E-03    -289.215E-03     20.9309E-03
             984     6.06632E-03     160.316E-03    -81.6951E+06    -123.133E+06    -3.88300E+06    -656.702E+03    -288.001E-03     577.373E-03    -289.372E-03     21.8490E-03    -288.232E-03     576.888E-03    -289.094E-03     23.1122E-03
             985     6.74123E-03     160.359E-03    -73.3229E+06    -100.547E+06     9.65021E+06    -909.536E+03    -287.701E-03     576.967E-03    -289.266E-03     24.3685E-03    -287.947E-03     576.568E-03    -288.966E-03     25.2095E-03
             986     7.41638E-03     160.406E-03    -65.3361E+06    -78.3424E+06     21.9725E+06    -1.22274E+06    -287.386E-03     576.533E-03    -289.147E-03     26.8662E-03    -287.650E-03     576.224E-03    -288.829E-03     27.1521E-03
             987     8.09177E-03     160.456E-03    -57.7364E+06    -54.4738E+06     33.3243E+06    -1.59441E+06    -287.054E-03     576.070E-03    -289.016E-03     29.3050E-03    -287.344E-03     575.864E-03    -288.686E-03     28.9068E-03
             988     8.76739E-03     160.509E-03     -50.478E+06    -30.0303E+06     43.8569E+06    -2.00359E+06    -286.717E-03     575.592E-03    -288.874E-03     31.7686E-03    -287.039E-03     575.500E-03    -288.538E-03     30.5386E-03
             989     9.44328E-03     160.565E-03    -43.5345E+06    -554.572E+03     53.8128E+06    -2.21688E+06    -286.371E-03     575.090E-03    -288.720E-03     34.1671E-03    -286.740E-03     575.147E-03    -288.387E-03     31.9685E-03
             990     10.1193E-03     160.623E-03    -36.6879E+06     38.7009E+06     64.5959E+06    -2.06863E+06    -286.010E-03     574.563E-03    -288.553E-03     36.2559E-03    -286.449E-03     574.822E-03    -288.233E-03     32.9689E-03
             991     10.7957E-03     160.682E-03    -29.1781E+06     89.7263E+06     76.3687E+06    -688.557E+03    -285.653E-03     574.027E-03    -288.374E-03     37.6660E-03    -286.182E-03     574.549E-03    -288.080E-03     33.2287E-03
             992     11.4722E-03     160.742E-03    -21.3846E+06     128.720E+06     90.8952E+06     798.944E+03    -285.382E-03     573.612E-03    -288.230E-03     38.0270E-03    -285.984E-03     574.331E-03    -287.931E-03     32.5032E-03
             993     12.1487E-03     160.799E-03    -14.2740E+06     143.392E+06     110.823E+06     988.437E+03    -285.206E-03     573.365E-03    -288.159E-03     38.3704E-03    -285.876E-03     574.172E-03    -287.792E-03     31.3451E-03
             994     12.8252E-03     160.852E-03    -7.46145E+06     151.351E+06     130.262E+06     965.285E+03    -285.150E-03     573.260E-03    -288.110E-03     32.9253E-03    -285.787E-03     574.030E-03    -287.667E-03     26.3228E-03
             995     673.688E-06     161.814E-03    -141.987E+06    -282.260E+06    -139.422E+06     180.571E+03    -289.486E-03     578.994E-03    -289.508E-03     2.73264E-03    -289.584E-03     577.991E-03    -289.590E-03     3.21302E-03
             996     1.34742E-03     161.822E-03    -138.302E+06    -270.855E+06    -128.703E+06     288.202E+03    -289.403E-03     578.919E-03    -289.517E-03     5.01727E-03    -289.515E-03     577.952E-03    -289.567E-03     5.87421E-03
             997     2.02121E-03     161.835E-03    -132.618E+06    -254.290E+06    -112.841E+06     324.325E+03    -289.282E-03     578.804E-03    -289.521E-03     7.42211E-03    -289.413E-03     577.888E-03    -289.525E-03     8.62887E-03
             998     2.69511E-03     161.852E-03    -125.377E+06    -234.245E+06    -93.7201E+06     300.294E+03    -289.128E-03     578.649E-03    -289.521E-03     9.83529E-03    -289.279E-03     577.796E-03    -289.468E-03     11.3255E-03
             999     3.36912E-03     161.874E-03    -117.067E+06    -212.221E+06    -73.3630E+06     218.996E+03    -288.948E-03     578.458E-03    -289.510E-03     12.2436E-03    -289.119E-03     577.673E-03    -289.399E-03     13.9296E-03
            1000     4.04328E-03     161.900E-03    -108.158E+06    -189.703E+06    -53.3815E+06     98.6598E+03    -288.746E-03     578.230E-03    -289.484E-03     14.6407E-03    -288.935E-03     577.516E-03    -289.319E-03     16.4192E-03
            1001     4.71759E-03     161.930E-03    -99.0421E+06    -167.256E+06    -34.7961E+06    -33.7407E+03    -288.524E-03     577.964E-03    -289.440E-03     17.0352E-03    -288.728E-03     577.323E-03    -289.228E-03     18.7906E-03
            1002     5.39209E-03     161.965E-03    -90.0178E+06    -144.792E+06    -17.9923E+06    -170.578E+03    -288.281E-03     577.659E-03    -289.377E-03     19.4370E-03    -288.498E-03     577.094E-03    -289.127E-03     21.0447E-03
            1003     6.06678E-03     162.004E-03    -81.3079E+06    -122.559E+06    -2.93720E+06    -285.480E+03    -288.016E-03     577.314E-03    -289.298E-03     21.8625E-03    -288.246E-03     576.829E-03    -289.017E-03     23.1907E-03
            1004     6.74168E-03     162.046E-03    -73.0007E+06    -99.9193E+06     10.5928E+06    -392.159E+03    -287.728E-03     576.929E-03    -289.201E-03     24.3310E-03    -287.974E-03     576.530E-03    -288.898E-03     25.2431E-03
            1005     7.41682E-03     162.092E-03    -65.1389E+06    -77.4209E+06     22.9167E+06    -542.401E+03    -287.419E-03     576.510E-03    -289.091E-03     26.7730E-03    -287.684E-03     576.203E-03    -288.770E-03     27.1355E-03
            1006     8.09218E-03     162.142E-03    -57.7228E+06    -53.3982E+06     34.2221E+06    -768.196E+03    -287.088E-03     576.055E-03    -288.967E-03     29.1554E-03    -287.379E-03     575.853E-03    -288.635E-03     28.8371E-03
            1007     8.76781E-03     162.194E-03    -50.7522E+06    -28.7346E+06     44.6841E+06    -1.05905E+06    -286.747E-03     575.580E-03    -288.833E-03     31.5743E-03    -287.071E-03     575.492E-03    -288.494E-03     30.4249E-03
            1008     9.44361E-03     162.249E-03    -44.1046E+06     282.779E+03     54.3206E+06    -1.41536E+06    -286.391E-03     575.074E-03    -288.683E-03     33.9614E-03    -286.762E-03     575.132E-03    -288.348E-03     31.8372E-03
            1009     10.1197E-03     162.307E-03    -37.6029E+06     39.1987E+06     64.6076E+06    -1.81818E+06    -286.013E-03     574.532E-03    -288.519E-03     36.1135E-03    -286.455E-03     574.792E-03    -288.198E-03     32.8890E-03
            1010     10.7959E-03     162.366E-03    -31.0915E+06     88.2272E+06     74.5755E+06    -2.63623E+06    -285.631E-03     573.968E-03    -288.336E-03     37.6857E-03    -286.163E-03     574.486E-03    -288.046E-03     33.2738E-03
            1011     11.4724E-03     162.425E-03    -23.8839E+06     125.704E+06     86.8977E+06    -2.32856E+06    -285.335E-03     573.520E-03    -288.185E-03     38.0933E-03    -285.938E-03     574.232E-03    -287.898E-03     32.5536E-03
            1012     12.1491E-03     162.481E-03    -15.8517E+06     141.225E+06     106.727E+06    -529.142E+03    -285.192E-03     573.303E-03    -288.111E-03     38.2529E-03    -285.860E-03     574.106E-03    -287.759E-03     31.1998E-03
            1013     12.8259E-03     162.536E-03    -7.57943E+06     151.377E+06     128.605E+06     194.420E+03    -285.200E-03     573.272E-03    -288.071E-03     32.7463E-03    -285.835E-03     574.043E-03    -287.637E-03     26.1249E-03
            1014     673.849E-06     163.504E-03    -142.517E+06    -282.981E+06    -139.937E+06     130.483E+03    -289.252E-03     578.524E-03    -289.272E-03     2.79588E-03    -289.351E-03     577.518E-03    -289.355E-03     3.28198E-03
            1015     1.34773E-03     163.512E-03    -138.749E+06    -271.389E+06    -129.069E+06     212.219E+03    -289.184E-03     578.470E-03    -289.285E-03     5.12780E-03    -289.297E-03     577.501E-03    -289.336E-03     5.99542E-03
            1016     2.02166E-03     163.524E-03    -132.925E+06    -254.532E+06    -112.979E+06     236.535E+03    -289.088E-03     578.386E-03    -289.298E-03     7.57480E-03    -289.219E-03     577.470E-03    -289.301E-03     8.79784E-03
            1017     2.69567E-03     163.541E-03    -125.516E+06    -234.268E+06    -93.5769E+06     191.900E+03    -288.966E-03     578.276E-03    -289.310E-03     10.0191E-03    -289.118E-03     577.422E-03    -289.256E-03     11.5311E-03
            1018     3.36979E-03     163.563E-03    -117.007E+06    -212.049E+06    -72.9538E+06     104.772E+03    -288.823E-03     578.135E-03    -289.313E-03     12.4440E-03    -288.994E-03     577.350E-03    -289.200E-03     14.1577E-03
            1019     4.04402E-03     163.589E-03    -107.882E+06    -189.415E+06    -52.7353E+06    -9.43347E+03    -288.662E-03     577.964E-03    -289.302E-03     14.8411E-03    -288.850E-03     577.250E-03    -289.135E-03     16.6534E-03
            1020     4.71838E-03     163.619E-03    -98.5391E+06    -166.950E+06    -33.9593E+06    -119.344E+03    -288.482E-03     577.758E-03    -289.276E-03     17.2170E-03    -288.684E-03     577.115E-03    -289.060E-03     19.0123E-03
            1021     5.39290E-03     163.653E-03    -89.2780E+06    -144.558E+06    -17.0271E+06    -172.319E+03    -288.279E-03     577.510E-03    -289.231E-03     19.5814E-03    -288.493E-03     576.943E-03    -288.977E-03     21.2357E-03
            1022     6.06758E-03     163.692E-03    -80.2586E+06    -122.403E+06    -1.89248E+06    -170.413E+03    -288.048E-03     577.217E-03    -289.169E-03     21.9535E-03    -288.274E-03     576.729E-03    -288.884E-03     23.3358E-03
            1023     6.74246E-03     163.733E-03    -71.5754E+06    -99.6925E+06     11.7323E+06    -164.333E+03    -287.785E-03     576.875E-03    -289.089E-03     24.3629E-03    -288.025E-03     576.472E-03    -288.782E-03     25.3363E-03
            1024     7.41754E-03     163.779E-03    -63.2594E+06    -77.1567E+06     24.1665E+06    -146.976E+03    -287.494E-03     576.489E-03    -288.995E-03     26.7481E-03    -287.750E-03     576.177E-03    -288.671E-03     27.1800E-03
            1025     8.09285E-03     163.828E-03    -55.3197E+06    -52.7912E+06     35.7278E+06    -185.939E+03    -287.169E-03     576.054E-03    -288.885E-03     29.0849E-03    -287.449E-03     575.847E-03    -288.550E-03     28.8449E-03
            1026     8.76837E-03     163.879E-03    -47.6936E+06    -27.9152E+06     46.5920E+06    -350.110E+03    -286.823E-03     575.586E-03    -288.763E-03     31.4784E-03    -287.134E-03     575.493E-03    -288.420E-03     30.4140E-03
            1027     9.44420E-03     163.934E-03    -40.2871E+06     2.16422E+06     57.0230E+06    -914.547E+03    -286.454E-03     575.078E-03    -288.624E-03     33.8702E-03    -286.811E-03     575.134E-03    -288.283E-03     31.8302E-03
            1028     10.1202E-03     163.991E-03    -32.7828E+06     41.8929E+06     68.2184E+06    -2.14268E+06    -286.064E-03     574.532E-03    -288.468E-03     36.0443E-03    -286.488E-03     574.791E-03    -288.140E-03     32.8825E-03
            1029     10.7967E-03     164.049E-03    -25.2883E+06     90.6896E+06     79.0496E+06    -3.06672E+06    -285.704E-03     574.000E-03    -288.296E-03     37.5961E-03    -286.215E-03     574.513E-03    -287.995E-03     33.2235E-03
            1030     11.4732E-03     164.108E-03    -18.7840E+06     121.868E+06     91.4816E+06    -2.44789E+06    -285.509E-03     573.672E-03    -288.164E-03     37.9943E-03    -286.085E-03     574.350E-03    -287.856E-03     32.4775E-03
            1031     12.1494E-03     164.164E-03    -12.9751E+06     136.872E+06     108.781E+06    -913.464E+03    -285.376E-03     573.469E-03    -288.093E-03     38.2550E-03    -286.027E-03     574.244E-03    -287.728E-03     31.1949E-03
            1032     12.8256E-03     164.218E-03    -6.91603E+06     151.912E+06     127.754E+06    -176.378E+03    -285.268E-03     573.310E-03    -288.042E-03     32.8614E-03    -285.898E-03     574.085E-03    -287.614E-03     26.2395E-03
            1033     674.075E-06     165.193E-03    -143.415E+06    -283.242E+06    -140.804E+06    -18.8599E+03    -288.917E-03     577.850E-03    -288.933E-03     2.88580E-03    -289.019E-03     576.845E-03    -289.018E-03     3.37314E-03
            1034     1.34817E-03     165.201E-03    -139.546E+06    -271.547E+06    -129.796E+06    -52.0648E+03    -288.871E-03     577.824E-03    -288.953E-03     5.28671E-03    -288.986E-03     576.856E-03    -289.006E-03     6.15702E-03
            1035     2.02231E-03     165.213E-03    -133.597E+06    -254.471E+06    -113.547E+06    -119.753E+03    -288.806E-03     577.784E-03    -288.977E-03     7.79715E-03    -288.940E-03     576.869E-03    -288.982E-03     9.02540E-03
            1036     2.69650E-03     165.230E-03    -126.022E+06    -233.962E+06    -93.9516E+06    -252.041E+03    -288.727E-03     577.731E-03    -289.004E-03     10.2922E-03    -288.881E-03     576.879E-03    -288.951E-03     11.8126E-03
            1037     3.37075E-03     165.252E-03    -117.322E+06    -211.653E+06    -73.1156E+06    -417.686E+03    -288.635E-03     577.660E-03    -289.025E-03     12.7504E-03    -288.808E-03     576.877E-03    -288.913E-03     14.4764E-03
            1038     4.04509E-03     165.278E-03    -107.979E+06    -188.923E+06    -52.7010E+06    -589.328E+03    -288.531E-03     577.567E-03    -289.036E-03     15.1612E-03    -288.720E-03     576.855E-03    -288.869E-03     16.9909E-03
            1039     4.71952E-03     165.308E-03    -98.3922E+06    -166.476E+06    -33.7606E+06    -768.234E+03    -288.410E-03     577.443E-03    -289.032E-03     17.5321E-03    -288.612E-03     576.802E-03    -288.817E-03     19.3503E-03
            1040     5.39406E-03     165.341E-03    -88.8289E+06    -144.290E+06    -16.7100E+06    -901.856E+03    -288.263E-03     577.275E-03    -289.012E-03     19.8749E-03    -288.475E-03     576.708E-03    -288.758E-03     21.5585E-03
            1041     6.06873E-03     165.379E-03    -79.4731E+06    -122.167E+06    -1.45687E+06    -1.00561E+06    -288.080E-03     577.054E-03    -288.975E-03     22.2098E-03    -288.302E-03     576.565E-03    -288.689E-03     23.6290E-03
            1042     6.74357E-03     165.421E-03    -70.4206E+06    -99.6295E+06     12.3013E+06    -1.04561E+06    -287.855E-03     576.774E-03    -288.919E-03     24.5717E-03    -288.088E-03     576.368E-03    -288.611E-03     25.5907E-03
            1043     7.41861E-03     165.466E-03    -61.7332E+06    -77.1451E+06     24.9421E+06    -1.02499E+06    -287.590E-03     576.437E-03    -288.847E-03     26.9034E-03    -287.838E-03     576.121E-03    -288.521E-03     27.3897E-03
            1044     8.09386E-03     165.514E-03    -53.4488E+06    -52.7874E+06     36.7235E+06    -938.872E+03    -287.283E-03     576.041E-03    -288.758E-03     29.1703E-03    -287.553E-03     575.828E-03    -288.421E-03     28.9938E-03
            1045     8.76939E-03     165.565E-03    -45.6571E+06    -27.5021E+06     47.9175E+06    -884.249E+03    -286.949E-03     575.604E-03    -288.655E-03     31.4757E-03    -287.250E-03     575.507E-03    -288.309E-03     30.4818E-03
            1046     9.44511E-03     165.619E-03    -38.5524E+06     3.47440E+06     58.6224E+06    -918.657E+03    -286.590E-03     575.123E-03    -288.533E-03     33.7643E-03    -286.939E-03     575.178E-03    -288.189E-03     31.7998E-03
            1047     10.1212E-03     165.675E-03    -32.5039E+06     45.6163E+06     70.2286E+06    -1.48787E+06    -286.216E-03     574.610E-03    -288.395E-03     35.8545E-03    -286.644E-03     574.881E-03    -288.062E-03     32.7675E-03
            1048     10.7972E-03     165.733E-03    -27.2508E+06     91.7304E+06     79.8764E+06    -2.13245E+06    -285.887E-03     574.126E-03    -288.239E-03     37.4185E-03    -286.407E-03     574.643E-03    -287.933E-03     33.1103E-03
            1049     11.4734E-03     165.791E-03    -21.5433E+06     118.244E+06     89.0947E+06    -1.40110E+06    -285.659E-03     573.772E-03    -288.113E-03     37.9549E-03    -286.239E-03     574.437E-03    -287.808E-03     32.4872E-03
            1050     12.1499E-03     165.847E-03    -14.8300E+06     135.146E+06     106.102E+06    -536.022E+03    -285.491E-03     573.538E-03    -288.046E-03     38.3706E-03    -286.144E-03     574.310E-03    -287.690E-03     31.3199E-03
            1051     12.8265E-03     165.902E-03    -7.26370E+06     151.423E+06     126.634E+06    -319.422E+03    -285.455E-03     573.465E-03    -288.010E-03     33.0172E-03    -286.086E-03     574.240E-03    -287.585E-03     26.3901E-03
            1052     674.376E-06     166.881E-03    -145.203E+06    -282.596E+06    -142.599E+06    -279.156E+03    -288.473E-03     576.954E-03    -288.481E-03     3.00937E-03    -288.582E-03     575.958E-03    -288.574E-03     3.49351E-03
            1053     1.34876E-03     166.889E-03    -141.280E+06    -270.869E+06    -131.489E+06    -498.379E+03    -288.451E-03     576.961E-03    -288.510E-03     5.50750E-03    -288.573E-03     576.002E-03    -288.570E-03     6.37308E-03
            1054     2.02316E-03     166.901E-03    -135.216E+06    -253.621E+06    -115.113E+06    -773.897E+03    -288.425E-03     576.973E-03    -288.548E-03     8.11191E-03    -288.565E-03     576.067E-03    -288.560E-03     9.33455E-03
            1055     2.69758E-03     166.918E-03    -127.501E+06    -232.980E+06    -95.3605E+06    -1.07248E+06    -288.397E-03     576.989E-03    -288.592E-03     10.6876E-03    -288.557E-03     576.145E-03    -288.546E-03     12.2034E-03
            1056     3.37204E-03     166.940E-03    -118.644E+06    -210.654E+06    -74.3339E+06    -1.36419E+06    -288.367E-03     577.002E-03    -288.635E-03     13.2089E-03    -288.546E-03     576.227E-03    -288.529E-03     14.9335E-03
            1057     4.04653E-03     166.965E-03    -109.139E+06    -187.894E+06    -53.7241E+06    -1.65282E+06    -288.332E-03     577.004E-03    -288.671E-03     15.6635E-03    -288.526E-03     576.299E-03    -288.509E-03     17.4966E-03
            1058     4.72107E-03     166.995E-03    -99.3999E+06    -165.450E+06    -34.6208E+06    -1.93671E+06    -288.284E-03     576.980E-03    -288.696E-03     18.0545E-03    -288.489E-03     576.346E-03    -288.485E-03     19.8826E-03
            1059     5.39567E-03     167.029E-03    -89.7378E+06    -143.388E+06    -17.4408E+06    -2.21451E+06    -288.210E-03     576.916E-03    -288.706E-03     20.3894E-03    -288.425E-03     576.354E-03    -288.455E-03     22.0897E-03
            1060     6.07037E-03     167.067E-03    -80.3421E+06    -121.453E+06    -2.15202E+06    -2.41281E+06    -288.097E-03     576.797E-03    -288.700E-03     22.6791E-03    -288.322E-03     576.311E-03    -288.418E-03     24.1228E-03
            1061     6.74520E-03     167.108E-03    -71.3222E+06    -99.1394E+06     11.5657E+06    -2.53540E+06    -287.936E-03     576.612E-03    -288.676E-03     24.9605E-03    -288.173E-03     576.210E-03    -288.371E-03     26.0114E-03
            1062     7.42018E-03     167.152E-03    -62.6819E+06    -76.9103E+06     24.1065E+06    -2.56604E+06    -287.729E-03     576.364E-03    -288.636E-03     27.1814E-03    -287.980E-03     576.050E-03    -288.313E-03     27.7052E-03
            1063     8.09535E-03     167.200E-03    -54.3822E+06    -52.8528E+06     35.7946E+06    -2.48132E+06    -287.473E-03     576.050E-03    -288.577E-03     29.3099E-03    -287.745E-03     575.837E-03    -288.243E-03     29.1756E-03
            1064     8.77067E-03     167.250E-03    -46.3737E+06    -27.8595E+06     46.9087E+06    -2.18145E+06    -287.178E-03     575.681E-03    -288.504E-03     31.4724E-03    -287.478E-03     575.582E-03    -288.161E-03     30.5284E-03
            1065     9.44625E-03     167.303E-03    -38.6329E+06     2.63960E+06     57.5966E+06    -1.50722E+06    -286.841E-03     575.250E-03    -288.409E-03     33.6528E-03    -287.185E-03     575.299E-03    -288.069E-03     31.7513E-03
            1066     10.1219E-03     167.359E-03    -31.3373E+06     44.2457E+06     69.3032E+06     116.302E+03    -286.456E-03     574.750E-03    -288.294E-03     35.7244E-03    -286.872E-03     575.010E-03    -287.966E-03     32.7366E-03
            1067     10.7981E-03     167.417E-03    -25.1694E+06     91.8891E+06     79.4182E+06     1.50577E+06    -286.085E-03     574.241E-03    -288.156E-03     37.3906E-03    -286.591E-03     574.754E-03    -287.856E-03     33.2054E-03
            1068     11.4743E-03     167.475E-03    -19.9022E+06     119.584E+06     89.1050E+06     443.818E+03    -285.866E-03     573.913E-03    -288.047E-03     38.0236E-03    -286.438E-03     574.580E-03    -287.746E-03     32.6212E-03
            1069     12.1505E-03     167.531E-03    -13.9035E+06     135.509E+06     105.839E+06    -1.02648E+06    -285.737E-03     573.734E-03    -287.997E-03     38.4286E-03    -286.385E-03     574.507E-03    -287.644E-03     31.3730E-03
            1070     12.8265E-03     167.585E-03    -7.17525E+06     150.325E+06     126.330E+06    -924.676E+03    -285.703E-03     573.682E-03    -287.978E-03     33.1229E-03    -286.331E-03     574.452E-03    -287.554E-03     26.4903E-03
            1071     674.753E-06     168.567E-03    -147.763E+06    -280.663E+06    -145.095E+06    -594.855E+03    -287.905E-03     575.811E-03    -287.905E-03     3.17657E-03    -288.026E-03     574.832E-03    -288.010E-03     3.65473E-03
            1072     1.34950E-03     168.575E-03    -143.745E+06    -268.924E+06    -133.870E+06    -1.09626E+06    -287.909E-03     575.854E-03    -287.945E-03     5.80860E-03    -288.044E-03     574.912E-03    -288.016E-03     6.66373E-03
            1073     2.02425E-03     168.587E-03    -137.602E+06    -251.604E+06    -117.363E+06    -1.61986E+06    -287.927E-03     575.924E-03    -287.997E-03     8.54329E-03    -288.079E-03     575.035E-03    -288.020E-03     9.75253E-03
            1074     2.69899E-03     168.604E-03    -129.813E+06    -231.037E+06    -97.4610E+06    -2.10954E+06    -287.958E-03     576.019E-03    -288.061E-03     11.2329E-03    -288.129E-03     575.191E-03    -288.025E-03     12.7346E-03
            1075     3.37371E-03     168.626E-03    -120.883E+06    -208.784E+06    -76.3347E+06    -2.55503E+06    -288.001E-03     576.130E-03    -288.129E-03     13.8451E-03    -288.189E-03     575.369E-03    -288.033E-03     15.5571E-03
            1076     4.04843E-03     168.652E-03    -111.317E+06    -186.117E+06    -55.6473E+06    -2.95257E+06    -288.051E-03     576.245E-03    -288.194E-03     16.3598E-03    -288.254E-03     575.554E-03    -288.041E-03     18.1839E-03
            1077     4.72313E-03     168.682E-03    -101.534E+06    -163.739E+06    -36.4612E+06    -3.31421E+06    -288.097E-03     576.350E-03    -288.253E-03     18.7718E-03    -288.312E-03     575.729E-03    -288.050E-03     20.5965E-03
            1078     5.39784E-03     168.716E-03    -91.8477E+06    -141.856E+06    -19.2345E+06    -3.60875E+06    -288.126E-03     576.426E-03    -288.300E-03     21.0846E-03    -288.350E-03     575.876E-03    -288.058E-03     22.7886E-03
            1079     6.07256E-03     168.753E-03    -82.4691E+06    -120.262E+06    -4.00546E+06    -3.81043E+06    -288.118E-03     576.452E-03    -288.334E-03     23.3057E-03    -288.351E-03     575.978E-03    -288.060E-03     24.7615E-03
            1080     6.74733E-03     168.794E-03    -73.4950E+06    -98.2133E+06     9.55651E+06    -3.89856E+06    -288.057E-03     576.409E-03    -288.352E-03     25.4843E-03    -288.302E-03     576.017E-03    -288.056E-03     26.5571E-03
            1081     7.42218E-03     168.839E-03    -64.9716E+06    -76.2377E+06     21.8587E+06    -3.93288E+06    -287.937E-03     576.292E-03    -288.355E-03     27.5894E-03    -288.196E-03     575.986E-03    -288.041E-03     28.1448E-03
            1082     8.09714E-03     168.886E-03    -56.8777E+06    -52.5435E+06     33.2455E+06    -3.90532E+06    -287.747E-03     576.085E-03    -288.339E-03     29.6001E-03    -288.026E-03     575.880E-03    -288.014E-03     29.5080E-03
            1083     8.77229E-03     168.936E-03    -49.1496E+06    -28.2295E+06     44.0077E+06    -3.75513E+06    -287.492E-03     575.797E-03    -288.305E-03     31.6567E-03    -287.799E-03     575.702E-03    -287.972E-03     30.7633E-03
            1084     9.44760E-03     168.989E-03    -41.6795E+06     983.160E+03     54.2398E+06    -3.30332E+06    -287.164E-03     575.411E-03    -288.247E-03     33.7464E-03    -287.514E-03     575.459E-03    -287.916E-03     31.9002E-03
            1085     10.1233E-03     169.044E-03    -34.1371E+06     38.6884E+06     65.1192E+06    -1.86611E+06    -286.775E-03     574.939E-03    -288.164E-03     35.7169E-03    -287.187E-03     575.179E-03    -287.845E-03     32.7738E-03
            1086     10.7991E-03     169.101E-03    -26.3039E+06     86.8385E+06     75.9764E+06     939.352E+03    -286.388E-03     574.442E-03    -288.054E-03     37.2533E-03    -286.885E-03     574.933E-03    -287.762E-03     33.1104E-03
            1087     11.4751E-03     169.159E-03    -19.0632E+06     124.350E+06     87.2584E+06     1.92727E+06    -286.125E-03     574.083E-03    -287.958E-03     37.9025E-03    -286.695E-03     574.773E-03    -287.674E-03     32.5494E-03
            1088     12.1510E-03     169.215E-03    -12.9888E+06     139.522E+06     104.461E+06    -93.9522E+03    -285.990E-03     573.920E-03    -287.929E-03     38.5540E-03    -286.637E-03     574.713E-03    -287.590E-03     31.5233E-03
            1089     12.8273E-03     169.269E-03    -6.59762E+06     147.953E+06     126.160E+06    -704.424E+03    -285.993E-03     573.936E-03    -287.943E-03     33.4173E-03    -286.614E-03     574.693E-03    -287.517E-03     26.8139E-03
            1090     675.226E-06     170.251E-03    -150.193E+06    -277.248E+06    -147.536E+06    -918.821E+03    -287.205E-03     574.399E-03    -287.194E-03     3.38157E-03    -287.340E-03     573.444E-03    -287.312E-03     3.85153E-03
            1091     1.35043E-03     170.259E-03    -146.183E+06    -265.502E+06    -136.204E+06    -1.71355E+06    -287.239E-03     574.484E-03    -287.246E-03     6.17797E-03    -287.386E-03     573.565E-03    -287.330E-03     7.01821E-03
            1092     2.02562E-03     170.271E-03    -140.009E+06    -248.360E+06    -119.565E+06    -2.46697E+06    -287.308E-03     574.623E-03    -287.315E-03     9.06930E-03    -287.473E-03     573.756E-03    -287.350E-03     10.2587E-03
            1093     2.70075E-03     170.289E-03    -132.179E+06    -227.937E+06    -99.6077E+06    -3.16679E+06    -287.409E-03     574.812E-03    -287.403E-03     11.8923E-03    -287.592E-03     574.005E-03    -287.378E-03     13.3709E-03
            1094     3.37582E-03     170.311E-03    -123.204E+06    -205.929E+06    -78.4933E+06    -3.79595E+06    -287.541E-03     575.041E-03    -287.500E-03     14.6089E-03    -287.741E-03     574.300E-03    -287.415E-03     16.2964E-03
            1095     4.05081E-03     170.337E-03    -113.591E+06    -183.533E+06    -57.8744E+06    -4.32147E+06    -287.696E-03     575.296E-03    -287.600E-03     17.1929E-03    -287.910E-03     574.623E-03    -287.459E-03     18.9944E-03
            1096     4.72572E-03     170.368E-03    -103.767E+06    -161.395E+06    -38.7667E+06    -4.74453E+06    -287.861E-03     575.560E-03    -287.699E-03     19.6374E-03    -288.086E-03     574.955E-03    -287.508E-03     21.4450E-03
            1097     5.40053E-03     170.402E-03    -94.0473E+06    -139.920E+06    -21.6276E+06    -5.04595E+06    -288.017E-03     575.808E-03    -287.791E-03     21.9475E-03    -288.250E-03     575.273E-03    -287.560E-03     23.6433E-03
            1098     6.07528E-03     170.440E-03    -84.6375E+06    -118.743E+06    -6.46478E+06    -5.19301E+06    -288.138E-03     576.013E-03    -287.875E-03     24.1272E-03    -288.379E-03     575.551E-03    -287.612E-03     25.5878E-03
            1099     6.74998E-03     170.481E-03    -75.6505E+06    -97.0687E+06     7.05134E+06    -5.22988E+06    -288.198E-03     576.143E-03    -287.945E-03     26.2356E-03    -288.449E-03     575.761E-03    -287.659E-03     27.3281E-03
            1100     7.42471E-03     170.525E-03    -67.1204E+06    -75.4279E+06     19.3153E+06    -5.13401E+06    -288.181E-03     576.182E-03    -288.001E-03     28.2485E-03    -288.447E-03     575.885E-03    -287.697E-03     28.8400E-03
            1101     8.09950E-03     170.572E-03    -59.1019E+06    -52.1115E+06     30.6471E+06    -4.89872E+06    -288.075E-03     576.112E-03    -288.036E-03     30.1379E-03    -288.361E-03     575.914E-03    -287.722E-03     30.0974E-03
            1102     8.77439E-03     170.622E-03    -51.6066E+06    -28.1864E+06     41.2927E+06    -4.57093E+06    -287.882E-03     575.935E-03    -288.053E-03     32.0437E-03    -288.196E-03     575.846E-03    -287.730E-03     31.2138E-03
            1103     9.44949E-03     170.674E-03    -44.5786E+06     248.813E+03     51.1835E+06    -4.16841E+06    -287.598E-03     575.639E-03    -288.041E-03     33.9630E-03    -287.954E-03     575.689E-03    -287.721E-03     32.1824E-03
            1104     10.1247E-03     170.729E-03    -37.8232E+06     35.4283E+06     61.1815E+06    -3.57896E+06    -287.241E-03     575.243E-03    -288.002E-03     35.8256E-03    -287.659E-03     575.475E-03    -287.693E-03     32.9323E-03
            1105     10.8002E-03     170.785E-03    -30.7218E+06     81.2128E+06     70.9894E+06    -2.74751E+06    -286.831E-03     574.760E-03    -287.929E-03     37.4167E-03    -287.331E-03     575.234E-03    -287.648E-03     33.2842E-03
            1106     11.4759E-03     170.843E-03    -22.6887E+06     124.698E+06     82.3088E+06    -1.85593E+06    -286.461E-03     574.314E-03    -287.853E-03     38.1150E-03    -287.041E-03     575.017E-03    -287.589E-03     32.7491E-03
            1107     12.1520E-03     170.899E-03    -14.4599E+06     141.546E+06     101.286E+06    -859.848E+03    -286.306E-03     574.157E-03    -287.851E-03     38.6581E-03    -286.958E-03     574.966E-03    -287.529E-03     31.6398E-03
            1108     12.8276E-03     170.953E-03    -7.27891E+06     146.139E+06     124.855E+06    -265.187E+03    -286.400E-03     574.301E-03    -287.901E-03     33.4570E-03    -287.020E-03     575.051E-03    -287.478E-03     26.8813E-03
            1109     675.791E-06     171.932E-03    -151.988E+06    -272.318E+06    -149.310E+06    -1.27221E+06    -286.379E-03     572.732E-03    -286.352E-03     3.60331E-03    -286.528E-03     571.807E-03    -286.484E-03     4.06250E-03
            1110     1.35155E-03     171.940E-03    -147.920E+06    -260.663E+06    -137.864E+06    -2.30361E+06    -286.447E-03     572.867E-03    -286.420E-03     6.57772E-03    -286.608E-03     571.977E-03    -286.517E-03     7.39940E-03
            1111     2.02724E-03     171.953E-03    -141.670E+06    -243.788E+06    -121.113E+06    -3.33409E+06    -286.577E-03     573.088E-03    -286.510E-03     9.64171E-03    -286.754E-03     572.248E-03    -286.557E-03     10.8053E-03
            1112     2.70285E-03     171.971E-03    -133.741E+06    -223.579E+06    -101.148E+06    -4.29776E+06    -286.761E-03     573.385E-03    -286.625E-03     12.6155E-03    -286.955E-03     572.604E-03    -286.612E-03     14.0633E-03
            1113     3.37831E-03     171.994E-03    -124.676E+06    -201.964E+06    -80.0805E+06    -5.15422E+06    -286.994E-03     573.749E-03    -286.755E-03     15.4604E-03    -287.204E-03     573.032E-03    -286.682E-03     17.1148E-03
            1114     4.05364E-03     172.021E-03    -114.974E+06    -179.988E+06    -59.5513E+06    -5.87567E+06    -287.267E-03     574.163E-03    -286.896E-03     18.1464E-03    -287.489E-03     573.510E-03    -286.766E-03     19.9157E-03
            1115     4.72879E-03     172.052E-03    -105.036E+06    -158.317E+06    -40.5383E+06    -6.44716E+06    -287.562E-03     574.602E-03    -287.040E-03     20.6620E-03    -287.794E-03     574.016E-03    -286.861E-03     22.4423E-03
            1116     5.40377E-03     172.087E-03    -95.1575E+06    -137.417E+06    -23.4620E+06    -6.83881E+06    -287.858E-03     575.042E-03    -287.183E-03     23.0077E-03    -288.096E-03     574.522E-03    -286.963E-03     24.6850E-03
            1117     6.07858E-03     172.125E-03    -85.5183E+06    -116.778E+06    -8.30431E+06    -7.07014E+06    -288.124E-03     575.446E-03    -287.322E-03     25.1755E-03    -288.369E-03     574.996E-03    -287.070E-03     26.6292E-03
            1118     6.75328E-03     172.167E-03    -76.2075E+06    -95.6197E+06     5.28676E+06    -7.12425E+06    -288.328E-03     575.779E-03    -287.451E-03     27.2233E-03    -288.580E-03     575.406E-03    -287.175E-03     28.3229E-03
            1119     7.42788E-03     172.211E-03    -67.2939E+06    -74.7108E+06     17.6352E+06    -6.95312E+06    -288.448E-03     576.015E-03    -287.567E-03     29.1289E-03    -288.711E-03     575.723E-03    -287.273E-03     29.7418E-03
            1120     8.10245E-03     172.258E-03    -58.7471E+06    -51.9591E+06     29.1582E+06    -6.54644E+06    -288.461E-03     576.125E-03    -287.664E-03     30.8726E-03    -288.741E-03     575.928E-03    -287.358E-03     30.8695E-03
            1121     8.77707E-03     172.308E-03    -50.5558E+06    -28.6360E+06     40.1197E+06    -5.91126E+06    -288.364E-03     576.105E-03    -287.741E-03     32.6102E-03    -288.668E-03     576.012E-03    -287.426E-03     31.8352E-03
            1122     9.45176E-03     172.360E-03    -42.7172E+06    -206.805E+03     50.5305E+06    -5.24041E+06    -288.143E-03     575.930E-03    -287.788E-03     34.3819E-03    -288.485E-03     575.974E-03    -287.473E-03     32.6733E-03
            1123     10.1267E-03     172.414E-03    -35.1090E+06     34.9733E+06     61.2404E+06    -4.88714E+06    -287.802E-03     575.605E-03    -287.803E-03     36.1605E-03    -288.203E-03     575.828E-03    -287.496E-03     33.3384E-03
            1124     10.8018E-03     172.470E-03    -27.5686E+06     82.4868E+06     72.4531E+06    -5.56933E+06    -287.386E-03     575.166E-03    -287.780E-03     37.7031E-03    -287.873E-03     575.637E-03    -287.497E-03     33.5983E-03
            1125     11.4774E-03     172.527E-03    -20.4370E+06     121.340E+06     85.1331E+06    -5.25129E+06    -287.076E-03     574.836E-03    -287.760E-03     38.3473E-03    -287.642E-03     575.514E-03    -287.481E-03     32.9732E-03
            1126     12.1525E-03     172.583E-03    -13.8617E+06     135.941E+06     102.480E+06    -2.59397E+06    -286.934E-03     574.729E-03    -287.795E-03     38.8466E-03    -287.575E-03     575.507E-03    -287.460E-03     31.8248E-03
            1127     12.8282E-03     172.638E-03    -6.78780E+06     145.120E+06     124.141E+06    -584.861E+03    -286.913E-03     574.775E-03    -287.862E-03     33.6639E-03    -287.527E-03     575.520E-03    -287.442E-03     27.1026E-03
            1128     676.426E-06     173.610E-03    -152.484E+06    -265.850E+06    -149.801E+06    -1.63353E+06    -285.456E-03     570.863E-03    -285.407E-03     3.82930E-03    -285.615E-03     569.972E-03    -285.550E-03     4.27834E-03
            1129     1.35280E-03     173.619E-03    -148.400E+06    -254.353E+06    -138.356E+06    -2.96009E+06    -285.557E-03     571.051E-03    -285.494E-03     6.99172E-03    -285.728E-03     570.194E-03    -285.602E-03     7.79499E-03
            1130     2.02908E-03     173.632E-03    -142.105E+06    -237.682E+06    -121.625E+06     -4.3184E+06    -285.749E-03     571.354E-03    -285.604E-03     10.2438E-03    -285.936E-03     570.545E-03    -285.662E-03     11.3815E-03
            1131     2.70521E-03     173.651E-03    -134.146E+06    -217.836E+06    -101.684E+06    -5.58308E+06    -286.018E-03     571.765E-03    -285.746E-03     13.3901E-03    -286.221E-03     571.013E-03    -285.745E-03     14.8071E-03
            1132     3.38116E-03     173.674E-03    -125.035E+06    -196.592E+06    -80.7010E+06    -6.74616E+06    -286.356E-03     572.268E-03    -285.912E-03     16.3884E-03    -286.574E-03     571.578E-03    -285.849E-03     18.0086E-03
            1133     4.05688E-03     173.702E-03    -115.251E+06    -175.138E+06    -60.2915E+06    -7.78506E+06    -286.751E-03     572.844E-03    -286.093E-03     19.2014E-03    -286.979E-03     572.217E-03    -285.974E-03     20.9347E-03
            1134     4.73236E-03     173.734E-03    -105.198E+06    -154.086E+06    -41.4036E+06    -8.63749E+06    -287.184E-03     573.468E-03    -286.284E-03     21.8124E-03    -287.419E-03     572.903E-03    -286.115E-03     23.5578E-03
            1135     5.40755E-03     173.770E-03    -95.1538E+06    -133.795E+06    -24.4138E+06    -9.32345E+06    -287.631E-03     574.111E-03    -286.481E-03     24.2168E-03    -287.871E-03     573.610E-03    -286.271E-03     25.8619E-03
            1136     6.08249E-03     173.809E-03    -85.2831E+06    -113.748E+06    -9.24321E+06    -9.84503E+06    -288.059E-03     574.737E-03    -286.678E-03     26.3925E-03    -288.303E-03     574.301E-03    -286.435E-03     27.8204E-03
            1137     6.75717E-03     173.852E-03    -75.6926E+06    -93.4528E+06     4.39129E+06    -10.1280E+06    -288.433E-03     575.303E-03    -286.870E-03     28.3949E-03    -288.683E-03     574.939E-03    -286.603E-03     29.4780E-03
            1138     7.43166E-03     173.897E-03    -66.3902E+06    -73.3816E+06     16.8502E+06    -10.1452E+06    -288.719E-03     575.772E-03    -287.053E-03     30.2073E-03    -288.976E-03     575.485E-03    -286.766E-03     30.8154E-03
            1139     8.10602E-03     173.945E-03    -57.3966E+06    -51.5474E+06     28.5155E+06    -9.89638E+06    -288.881E-03     576.101E-03    -287.220E-03     31.8144E-03    -289.152E-03     575.903E-03    -286.920E-03     31.8192E-03
            1140     8.78032E-03     173.995E-03    -48.6822E+06    -29.2000E+06     39.6461E+06    -9.33352E+06    -288.904E-03     576.270E-03    -287.367E-03     33.3705E-03    -289.195E-03     576.170E-03    -287.055E-03     32.6173E-03
            1141     9.45470E-03     174.047E-03    -40.3541E+06    -1.41463E+06     50.2551E+06    -8.36083E+06    -288.762E-03     576.242E-03    -287.480E-03     34.9207E-03    -289.088E-03     576.274E-03    -287.168E-03     33.2489E-03
            1142     10.1292E-03     174.100E-03    -32.6733E+06     34.8634E+06     61.6678E+06    -7.38591E+06    -288.474E-03     576.032E-03    -287.558E-03     36.4656E-03    -288.860E-03     576.247E-03    -287.253E-03     33.6883E-03
            1143     10.8039E-03     174.156E-03    -26.0539E+06     84.3614E+06     73.6441E+06    -6.65827E+06    -288.098E-03     575.692E-03    -287.594E-03     37.8657E-03    -288.578E-03     576.166E-03    -287.311E-03     33.8167E-03
            1144     11.4786E-03     174.213E-03    -20.2106E+06     116.872E+06     85.7344E+06    -5.22793E+06    -287.809E-03     575.445E-03    -287.636E-03     38.5717E-03    -288.366E-03     576.096E-03    -287.347E-03     33.2566E-03
            1145     12.1538E-03     174.269E-03    -13.9854E+06     129.119E+06     101.922E+06    -2.89663E+06    -287.642E-03     575.357E-03    -287.715E-03     39.2546E-03    -288.272E-03     576.101E-03    -287.373E-03     32.2577E-03
            1146     12.8285E-03     174.324E-03    -7.45428E+06     142.875E+06     123.276E+06    -1.15804E+06    -287.578E-03     575.393E-03    -287.815E-03     34.1489E-03    -288.192E-03     576.130E-03    -287.395E-03     27.5840E-03
            1147     677.113E-06     175.285E-03    -151.668E+06    -257.685E+06    -149.008E+06    -2.04246E+06    -284.467E-03     568.860E-03    -284.393E-03     4.05047E-03    -284.635E-03     568.007E-03    -284.545E-03     4.49258E-03
            1148     1.35416E-03     175.294E-03    -147.557E+06    -246.330E+06    -137.635E+06    -3.73021E+06    -284.596E-03     569.095E-03    -284.499E-03     7.39859E-03    -284.775E-03     568.275E-03    -284.616E-03     8.18866E-03
            1149     2.03107E-03     175.308E-03    -141.265E+06    -229.912E+06    -120.965E+06    -5.43170E+06    -284.846E-03     569.474E-03    -284.628E-03     10.8389E-03    -285.040E-03     568.701E-03    -284.695E-03     11.9577E-03
            1150     2.70781E-03     175.328E-03    -133.272E+06    -210.444E+06    -101.080E+06    -7.05193E+06    -285.196E-03     569.991E-03    -284.796E-03     14.1631E-03    -285.406E-03     569.274E-03    -284.803E-03     15.5556E-03
            1151     3.38428E-03     175.352E-03    -124.125E+06    -189.601E+06    -80.1799E+06    -8.55451E+06    -285.637E-03     570.631E-03    -284.994E-03     17.3191E-03    -285.860E-03     569.973E-03    -284.940E-03     18.9107E-03
            1152     4.06047E-03     175.381E-03    -114.346E+06    -168.639E+06    -59.8732E+06    -9.92790E+06    -286.153E-03     571.368E-03    -285.215E-03     20.2663E-03    -286.386E-03     570.769E-03    -285.104E-03     21.9681E-03
            1153     4.73631E-03     175.415E-03    -104.322E+06    -148.293E+06    -41.1227E+06    -11.1327E+06    -286.724E-03     572.177E-03    -285.452E-03     22.9880E-03    -286.963E-03     571.638E-03    -285.291E-03     24.6993E-03
            1154     5.41179E-03     175.452E-03    -94.3459E+06    -128.588E+06    -24.2675E+06    -12.1379E+06    -287.326E-03     573.027E-03    -285.701E-03     25.4727E-03    -287.568E-03     572.548E-03    -285.499E-03     27.0836E-03
            1155     6.08689E-03     175.492E-03    -84.6214E+06    -109.250E+06    -9.25132E+06    -12.9510E+06    -287.925E-03     573.881E-03    -285.956E-03     27.6880E-03    -288.171E-03     573.466E-03    -285.721E-03     29.0845E-03
            1156     6.76163E-03     175.536E-03    -75.2392E+06    -89.9716E+06     4.17279E+06    -13.4873E+06    -288.482E-03     574.696E-03    -286.213E-03     29.6789E-03    -288.733E-03     574.348E-03    -285.953E-03     30.7367E-03
            1157     7.43603E-03     175.582E-03    -66.2570E+06    -70.7267E+06     16.3781E+06    -13.7620E+06    -288.954E-03     575.420E-03    -286.466E-03     31.4211E-03    -289.213E-03     575.145E-03    -286.185E-03     32.0126E-03
            1158     8.11019E-03     175.631E-03    -57.6436E+06    -50.0725E+06     27.7299E+06    -13.7131E+06    -289.295E-03     576.001E-03    -286.706E-03     32.8974E-03    -289.567E-03     575.810E-03    -286.411E-03     32.8958E-03
            1159     8.78417E-03     175.681E-03    -49.4101E+06    -28.9048E+06     38.4369E+06    -13.2831E+06    -289.473E-03     576.401E-03    -286.928E-03     34.2574E-03    -289.765E-03     576.303E-03    -286.622E-03     33.5104E-03
            1160     9.45807E-03     175.734E-03    -41.4772E+06    -3.09414E+06     48.3778E+06    -12.2459E+06    -289.458E-03     576.574E-03    -287.115E-03     35.5742E-03    -289.783E-03     576.600E-03    -286.809E-03     33.9225E-03
            1161     10.1321E-03     175.788E-03    -33.9467E+06     31.6012E+06     59.0596E+06    -10.0466E+06    -289.246E-03     576.510E-03    -287.264E-03     36.9227E-03    -289.627E-03     576.711E-03    -286.965E-03     34.1998E-03
            1162     10.8061E-03     175.843E-03    -27.1077E+06     80.4320E+06     70.4209E+06    -6.88666E+06    -288.881E-03     576.244E-03    -287.363E-03     38.2386E-03    -289.353E-03     576.701E-03    -287.088E-03     34.2893E-03
            1163     11.4807E-03     175.900E-03    -20.9035E+06     113.447E+06     82.2683E+06    -4.58029E+06    -288.579E-03     576.038E-03    -287.460E-03     38.9714E-03    -289.126E-03     576.676E-03    -287.183E-03     33.7480E-03
            1164     12.1549E-03     175.956E-03    -14.5528E+06     126.009E+06     99.0706E+06    -3.82625E+06    -288.416E-03     576.009E-03    -287.592E-03     39.7004E-03    -289.040E-03     576.741E-03    -287.259E-03     32.7319E-03
            1165     12.8297E-03     176.011E-03    -6.99437E+06     138.550E+06     122.374E+06    -2.35774E+06    -288.398E-03     576.146E-03    -287.748E-03     34.6520E-03    -289.002E-03     576.863E-03    -287.327E-03     28.0810E-03
            1166     677.814E-06     176.957E-03    -149.293E+06    -247.539E+06    -146.694E+06    -2.53678E+06    -283.463E-03     566.826E-03    -283.363E-03     4.23729E-03    -283.637E-03     566.017E-03    -283.521E-03     4.67574E-03
            1167     1.35555E-03     176.966E-03    -145.228E+06    -236.396E+06    -135.425E+06    -4.59994E+06    -283.613E-03     567.100E-03    -283.487E-03     7.73731E-03    -283.798E-03     566.323E-03    -283.611E-03     8.52191E-03
            1168     2.03313E-03     176.981E-03    -138.941E+06    -220.307E+06    -118.892E+06    -6.68996E+06    -283.911E-03     567.542E-03    -283.631E-03     11.3359E-03    -284.111E-03     566.811E-03    -283.705E-03     12.4468E-03
            1169     2.71049E-03     177.002E-03    -130.989E+06    -201.321E+06    -99.1505E+06    -8.64168E+06    -284.331E-03     568.151E-03    -283.820E-03     14.8176E-03    -284.545E-03     567.473E-03    -283.834E-03     16.1995E-03
            1170     3.38754E-03     177.027E-03    -121.912E+06    -180.954E+06    -78.3746E+06    -10.4410E+06    -284.862E-03     568.908E-03    -284.046E-03     18.1192E-03    -285.088E-03     568.287E-03    -283.999E-03     19.6985E-03
            1171     4.06423E-03     177.058E-03    -112.209E+06    -160.581E+06    -58.1798E+06    -12.0678E+06    -285.487E-03     569.788E-03    -284.302E-03     21.2031E-03    -285.722E-03     569.224E-03    -284.197E-03     22.8913E-03
            1172     4.74050E-03     177.093E-03    -102.331E+06    -141.014E+06    -39.5638E+06    -13.4552E+06    -286.185E-03     570.765E-03    -284.580E-03     24.0528E-03    -286.425E-03     570.256E-03    -284.425E-03     25.7492E-03
            1173     5.41630E-03     177.132E-03    -92.5911E+06    -122.042E+06    -22.9122E+06    -14.6035E+06    -286.930E-03     571.806E-03    -284.876E-03     26.6501E-03    -287.174E-03     571.354E-03    -284.679E-03     28.2462E-03
            1174     6.09164E-03     177.174E-03    -83.1872E+06    -103.627E+06    -8.20103E+06    -15.4557E+06    -287.693E-03     572.876E-03    -285.184E-03     28.9559E-03    -287.939E-03     572.484E-03    -284.954E-03     30.3405E-03
            1175     6.76647E-03     177.219E-03    -74.2526E+06    -85.3583E+06     4.81556E+06    -16.0075E+06    -288.432E-03     573.931E-03    -285.500E-03     30.9986E-03    -288.684E-03     573.603E-03    -285.244E-03     32.0513E-03
            1176     7.44086E-03     177.267E-03    -65.8127E+06    -67.1026E+06     16.5142E+06    -16.2383E+06    -289.096E-03     574.913E-03    -285.817E-03     32.7462E-03    -289.356E-03     574.654E-03    -285.542E-03     33.3458E-03
            1177     8.11483E-03     177.317E-03    -57.8889E+06    -47.6021E+06     27.2904E+06    -16.1634E+06    -289.631E-03     575.758E-03    -286.127E-03     34.1845E-03    -289.905E-03     575.579E-03    -285.838E-03     34.2090E-03
            1178     8.78850E-03     177.368E-03    -50.3865E+06    -27.7575E+06     37.3264E+06    -15.7339E+06    -289.996E-03     576.419E-03    -286.423E-03     35.4505E-03    -290.291E-03     576.328E-03    -286.123E-03     34.7526E-03
            1179     9.46200E-03     177.421E-03    -43.2586E+06    -3.95217E+06     46.5023E+06    -14.8616E+06    -290.145E-03     576.832E-03    -286.687E-03     36.6315E-03    -290.472E-03     576.856E-03    -286.386E-03     35.0518E-03
            1180     10.1355E-03     177.475E-03    -36.0612E+06     27.1503E+06     55.9921E+06    -13.2559E+06    -290.058E-03     576.969E-03    -286.911E-03     37.8003E-03    -290.435E-03     577.153E-03    -286.619E-03     35.1600E-03
            1181     10.8092E-03     177.531E-03    -28.4230E+06     71.6938E+06     66.1630E+06    -9.87868E+06    -289.782E-03     576.865E-03    -287.083E-03     38.9138E-03    -290.238E-03     577.282E-03    -286.814E-03     35.0547E-03
            1182     11.4829E-03     177.587E-03    -20.7077E+06     110.237E+06     78.0302E+06    -6.68421E+06    -289.502E-03     576.739E-03    -287.236E-03     39.5372E-03    -290.035E-03     577.363E-03    -286.976E-03     34.3956E-03
            1183     12.1569E-03     177.644E-03    -13.4790E+06     124.878E+06     95.9118E+06    -5.25274E+06    -289.354E-03     576.785E-03    -287.431E-03     40.2921E-03    -289.964E-03     577.513E-03    -287.113E-03     33.3818E-03
            1184     12.8304E-03     177.699E-03    -7.21218E+06     131.719E+06     120.319E+06    -3.17602E+06    -289.382E-03     577.042E-03    -287.660E-03     35.2833E-03    -289.975E-03     577.728E-03    -287.239E-03     28.7513E-03
            1185     678.484E-06     178.626E-03    -145.172E+06    -235.176E+06    -142.583E+06    -3.06308E+06    -282.526E-03     564.925E-03    -282.399E-03     4.34181E-03    -282.703E-03     564.165E-03    -282.561E-03     4.78375E-03
            1186     1.35687E-03     178.635E-03    -141.110E+06    -224.430E+06    -131.493E+06    -5.53726E+06    -282.683E-03     565.224E-03    -282.540E-03     7.93225E-03    -282.871E-03     564.495E-03    -282.667E-03     8.72450E-03
            1187     2.03509E-03     178.651E-03    -134.933E+06    -208.912E+06    -115.173E+06    -7.93966E+06    -283.013E-03     565.706E-03    -282.693E-03     11.6344E-03    -283.214E-03     565.020E-03    -282.770E-03     12.7577E-03
            1188     2.71306E-03     178.673E-03    -127.097E+06    -190.507E+06    -95.6546E+06    -10.1924E+06    -283.473E-03     566.368E-03    -282.895E-03     15.2352E-03    -283.688E-03     565.732E-03    -282.912E-03     16.6331E-03
            1189     3.39068E-03     178.700E-03    -118.136E+06    -170.887E+06    -75.1097E+06    -12.2211E+06    -284.058E-03     567.194E-03    -283.137E-03     18.6689E-03    -284.284E-03     566.612E-03    -283.093E-03     20.2680E-03
            1190     4.06791E-03     178.732E-03    -108.616E+06    -151.370E+06    -55.1598E+06    -13.9508E+06    -284.753E-03     568.166E-03    -283.412E-03     21.9042E-03    -284.987E-03     567.636E-03    -283.311E-03     23.6165E-03
            1191     4.74464E-03     178.769E-03    -98.9285E+06    -132.692E+06    -36.7804E+06    -15.4164E+06    -285.540E-03     569.256E-03    -283.716E-03     24.9259E-03    -285.778E-03     568.779E-03    -283.564E-03     26.6501E-03
            1192     5.42086E-03     178.809E-03    -89.3656E+06    -114.745E+06    -20.3814E+06    -16.5606E+06    -286.394E-03     570.435E-03    -284.042E-03     27.7134E-03    -286.634E-03     570.010E-03    -283.848E-03     29.3424E-03
            1193     6.09650E-03     178.854E-03    -80.1492E+06    -97.5747E+06    -5.96979E+06    -17.3176E+06    -287.287E-03     571.673E-03    -284.386E-03     30.2234E-03    -287.528E-03     571.301E-03    -284.158E-03     31.6485E-03
            1194     6.77158E-03     178.901E-03    -71.3913E+06    -80.4163E+06     6.72675E+06    -17.6782E+06    -288.179E-03     572.922E-03    -284.744E-03     32.4562E-03    -288.424E-03     572.609E-03    -284.490E-03     33.5639E-03
            1195     7.44607E-03     178.951E-03    -63.1609E+06    -63.3266E+06      18.082E+06    -17.7064E+06    -289.018E-03     574.128E-03    -285.110E-03     34.3676E-03    -289.270E-03     573.878E-03    -284.836E-03     35.0440E-03
            1196     8.12006E-03     179.002E-03    -55.4498E+06    -45.0989E+06     28.5366E+06    -17.3199E+06    -289.757E-03     575.233E-03    -285.476E-03     35.9248E-03    -290.021E-03     575.057E-03    -285.187E-03     36.0555E-03
            1197     8.79360E-03     179.055E-03    -48.2728E+06    -26.1325E+06     38.2805E+06    -16.7085E+06    -290.352E-03     576.186E-03    -285.835E-03     37.2168E-03    -290.636E-03     576.096E-03    -285.535E-03     36.6595E-03
            1198     9.46681E-03     179.109E-03    -41.4576E+06    -3.64093E+06     47.2442E+06    -15.9360E+06    -290.750E-03     576.922E-03    -286.171E-03     38.3053E-03    -291.066E-03     576.940E-03    -285.870E-03     36.8964E-03
            1199     10.1399E-03     179.164E-03    -35.0222E+06     25.7253E+06     56.3851E+06    -14.9817E+06    -290.918E-03     577.394E-03    -286.476E-03     39.2863E-03    -291.284E-03     577.563E-03    -286.181E-03     36.8340E-03
            1200     10.8127E-03     179.220E-03    -28.4917E+06     65.4042E+06     65.2303E+06    -13.6131E+06    -290.852E-03     577.584E-03    -286.733E-03     40.2209E-03    -291.292E-03     577.967E-03    -286.460E-03     36.5294E-03
            1201     11.4859E-03     179.277E-03    -21.3135E+06     105.451E+06     75.8316E+06    -11.3116E+06    -290.668E-03     577.630E-03    -286.962E-03     40.7119E-03    -291.189E-03     578.229E-03    -286.705E-03     35.7041E-03
            1202     12.1589E-03     179.333E-03    -13.9738E+06     119.495E+06     92.8751E+06    -7.98690E+06    -290.603E-03     577.836E-03    -287.233E-03     41.2782E-03    -291.200E-03     578.538E-03    -286.921E-03     34.4880E-03
            1203     12.8323E-03     179.390E-03    -6.37541E+06     122.118E+06     117.393E+06    -3.65351E+06    -290.739E-03     578.281E-03    -287.542E-03     36.0753E-03    -291.308E-03     578.920E-03    -287.123E-03     29.6282E-03
            1204     679.023E-06     180.291E-03    -139.004E+06    -220.608E+06    -136.536E+06    -3.57547E+06    -281.750E-03     563.356E-03    -281.605E-03     4.33818E-03    -281.927E-03     562.652E-03    -281.767E-03     4.79713E-03
            1205     1.35797E-03     180.301E-03    -135.143E+06    -210.578E+06    -125.698E+06    -6.35998E+06    -281.891E-03     563.644E-03    -281.753E-03     7.94351E-03    -282.077E-03     562.968E-03    -281.880E-03     8.76831E-03
            1206     2.03674E-03     180.318E-03    -129.111E+06    -195.916E+06    -109.747E+06    -9.06523E+06    -282.209E-03     564.110E-03    -281.901E-03     11.6896E-03    -282.407E-03     563.473E-03    -281.978E-03     12.8608E-03
            1207     2.71525E-03     180.341E-03    -121.495E+06    -178.342E+06    -90.7007E+06    -11.5013E+06    -282.651E-03     564.746E-03    -282.095E-03     15.3793E-03    -282.863E-03     564.156E-03    -282.114E-03     16.8411E-03
            1208     3.39345E-03     180.369E-03    -112.849E+06    -159.722E+06    -70.5685E+06    -13.6479E+06    -283.220E-03     565.549E-03    -282.329E-03     18.9560E-03    -283.442E-03     565.007E-03    -282.286E-03     20.6349E-03
            1209     4.07123E-03     180.403E-03    -103.574E+06    -141.205E+06    -50.9707E+06    -15.5293E+06    -283.910E-03     566.506E-03    -282.596E-03     22.3990E-03    -284.138E-03     566.013E-03    -282.496E-03     24.2057E-03
            1210     4.74854E-03     180.442E-03    -94.0707E+06    -123.563E+06    -32.8987E+06    -17.1045E+06    -284.708E-03     567.601E-03    -282.893E-03     25.6890E-03    -284.939E-03     567.154E-03    -282.742E-03     27.5238E-03
            1211     5.42530E-03     180.484E-03    -84.6687E+06    -107.018E+06    -16.7899E+06    -18.2768E+06    -285.598E-03     568.813E-03    -283.216E-03     28.8062E-03    -285.828E-03     568.412E-03    -283.022E-03     30.5632E-03
            1212     6.10148E-03     180.531E-03    -75.5576E+06    -91.2396E+06    -2.62829E+06    -18.9979E+06    -286.562E-03     570.124E-03    -283.562E-03     31.6927E-03    -286.790E-03     569.768E-03    -283.333E-03     33.2651E-03
            1213     6.77701E-03     180.581E-03    -66.8691E+06    -75.6215E+06     9.77876E+06    -19.2430E+06    -287.564E-03     571.493E-03    -283.929E-03     34.2968E-03    -287.793E-03     571.188E-03    -283.674E-03     35.5781E-03
            1214     7.45193E-03     180.633E-03    -58.7382E+06    -60.1612E+06     20.8732E+06    -18.8591E+06    -288.570E-03     572.884E-03    -284.314E-03     36.5470E-03    -288.802E-03     572.634E-03    -284.037E-03     37.4323E-03
            1215     8.12619E-03     180.686E-03    -51.2309E+06    -43.1126E+06     31.1774E+06    -18.0863E+06    -289.548E-03     574.260E-03    -284.712E-03     38.3765E-03    -289.792E-03     574.079E-03    -284.419E-03     38.7552E-03
            1216     8.79985E-03     180.741E-03    -44.1577E+06    -24.4854E+06     40.9879E+06    -17.2541E+06    -290.460E-03     575.578E-03    -285.118E-03     39.8079E-03    -290.723E-03     575.478E-03    -284.814E-03     39.5420E-03
            1217     9.47294E-03     180.797E-03    -37.4312E+06    -2.48412E+06     50.2761E+06    -16.5394E+06    -291.239E-03     576.761E-03    -285.522E-03     40.8799E-03    -291.533E-03     576.767E-03    -285.212E-03     39.8039E-03
            1218     10.1455E-03     180.853E-03    -30.7919E+06     25.9253E+06     59.8320E+06    -15.7026E+06    -291.803E-03     577.714E-03    -285.911E-03     41.6836E-03    -292.145E-03     577.866E-03    -285.605E-03     39.5977E-03
            1219     10.8180E-03     180.910E-03    -24.4954E+06     64.5795E+06     69.3157E+06    -14.7288E+06    -292.106E-03     578.375E-03    -286.269E-03     42.3190E-03    -292.522E-03     578.732E-03    -285.980E-03     38.9920E-03
            1220     11.4901E-03     180.967E-03    -18.8080E+06     100.657E+06     80.0063E+06    -13.0647E+06    -292.262E-03     578.875E-03    -286.612E-03     42.4660E-03    -292.762E-03     579.433E-03    -286.331E-03     37.7730E-03
            1221     12.1623E-03     181.024E-03    -13.1808E+06     109.380E+06     93.6098E+06    -9.34725E+06    -292.467E-03     579.455E-03    -286.988E-03     42.6624E-03    -293.040E-03     580.098E-03    -286.659E-03     36.1229E-03
            1222     12.8337E-03     181.082E-03    -7.56430E+06     111.007E+06     113.325E+06    -4.67035E+06    -292.765E-03     580.154E-03    -287.389E-03     37.0673E-03    -293.315E-03     580.742E-03    -286.973E-03     30.7506E-03
            1223     679.401E-06     181.954E-03    -131.409E+06    -205.032E+06    -128.820E+06    -3.55818E+06    -281.185E-03     562.230E-03    -281.045E-03     4.25648E-03    -281.358E-03     561.582E-03    -281.201E-03     4.75969E-03
            1224     1.35872E-03     181.965E-03    -127.912E+06    -195.608E+06    -118.571E+06    -6.47373E+06    -281.267E-03     562.444E-03    -281.177E-03     7.83923E-03    -281.449E-03     561.821E-03    -281.301E-03     8.74219E-03
            1225     2.03793E-03     181.983E-03    -122.516E+06    -181.790E+06    -103.433E+06    -9.36898E+06    -281.499E-03     562.792E-03    -281.293E-03     11.6094E-03    -281.694E-03     562.207E-03    -281.369E-03     12.8935E-03
            1226     2.71695E-03     182.006E-03    -115.555E+06    -165.249E+06    -85.2417E+06    -12.0233E+06    -281.832E-03     563.278E-03    -281.446E-03     15.3989E-03    -282.040E-03     562.736E-03    -281.465E-03     17.0084E-03
            1227     3.39572E-03     182.036E-03    -107.462E+06    -147.743E+06    -65.9078E+06    -14.3498E+06    -282.278E-03     563.908E-03    -281.630E-03     19.1764E-03    -282.496E-03     563.411E-03    -281.589E-03     21.0385E-03
            1228     4.07418E-03     182.071E-03    -98.8363E+06    -130.387E+06    -46.9963E+06    -16.2813E+06    -282.849E-03     564.692E-03    -281.843E-03     22.9238E-03    -283.073E-03     564.238E-03    -281.745E-03     24.9524E-03
            1229     4.75222E-03     182.112E-03    -90.1211E+06    -113.912E+06    -29.4905E+06    -17.8481E+06    -283.550E-03     565.634E-03    -282.084E-03     26.6108E-03    -283.776E-03     565.222E-03    -281.936E-03     28.7095E-03
            1230     5.42982E-03     182.157E-03    -81.5503E+06    -98.7329E+06    -13.8662E+06    -19.0746E+06    -284.388E-03     566.743E-03    -282.355E-03     30.2102E-03    -284.613E-03     566.368E-03    -282.163E-03     32.2729E-03
            1231     6.10683E-03     182.205E-03    -73.2968E+06    -84.6552E+06    -201.881E+03    -19.8171E+06    -285.362E-03     568.019E-03    -282.657E-03     33.6241E-03    -285.585E-03     567.682E-03    -282.429E-03     35.5455E-03
            1232     6.78324E-03     182.257E-03    -65.4976E+06    -70.8132E+06     11.7176E+06    -19.9618E+06    -286.460E-03     569.452E-03    -282.992E-03     36.7362E-03    -286.683E-03     569.157E-03    -282.736E-03     38.4136E-03
            1233     7.45890E-03     182.312E-03    -58.0235E+06    -57.0221E+06     22.3712E+06     -19.725E+06    -287.669E-03     571.032E-03    -283.363E-03     39.4480E-03    -287.894E-03     570.784E-03    -283.084E-03     40.7709E-03
            1234     8.13381E-03     182.368E-03    -50.6388E+06    -41.1611E+06     32.4193E+06    -19.1119E+06    -288.971E-03     572.739E-03    -283.769E-03     41.6431E-03    -289.204E-03     572.553E-03    -283.474E-03     42.4974E-03
            1235     8.80785E-03     182.426E-03    -43.5260E+06    -23.2497E+06     42.2471E+06    -18.1609E+06    -290.326E-03     574.536E-03    -284.210E-03     43.2667E-03    -290.576E-03     574.427E-03    -283.902E-03     43.5173E-03
            1236     9.48100E-03     182.484E-03    -36.9469E+06    -1.76190E+06     51.9679E+06    -16.9019E+06    -291.649E-03     576.329E-03    -284.681E-03     44.2960E-03    -291.930E-03     576.323E-03    -284.365E-03     43.7768E-03
            1237     10.1534E-03     182.543E-03    -30.7192E+06     28.9774E+06     62.5576E+06    -16.7301E+06    -292.812E-03     577.979E-03    -285.166E-03     44.7847E-03    -293.149E-03     578.128E-03    -284.851E-03     43.2613E-03
            1238     10.8249E-03     182.602E-03    -24.0341E+06     63.8129E+06     72.2621E+06    -16.3261E+06    -293.742E-03     579.393E-03    -285.651E-03     44.8478E-03    -294.146E-03     579.728E-03    -285.347E-03     42.0590E-03
            1239     11.4960E-03     182.661E-03    -17.2881E+06     94.0771E+06     82.8676E+06    -13.1680E+06    -294.433E-03     580.576E-03    -286.142E-03     44.3800E-03    -294.907E-03     581.082E-03    -285.839E-03     40.1840E-03
            1240     12.1663E-03     182.719E-03    -11.2007E+06     99.6134E+06     94.3468E+06    -9.10011E+06    -295.032E-03     581.695E-03    -286.663E-03     44.0822E-03    -295.570E-03     582.274E-03    -286.320E-03     37.9400E-03
            1241     12.8368E-03     182.778E-03    -4.82708E+06     98.8611E+06     110.120E+06    -4.43354E+06    -295.591E-03     582.793E-03    -287.201E-03     38.1442E-03    -296.099E-03     583.315E-03    -286.787E-03     32.0430E-03
            1242     679.611E-06     183.616E-03    -125.486E+06    -191.662E+06    -123.006E+06    -2.60546E+06    -280.736E-03     561.366E-03    -280.630E-03     4.22508E-03    -280.906E-03     560.767E-03    -280.785E-03     4.81096E-03
            1243     1.35923E-03     183.627E-03    -122.863E+06    -182.381E+06    -113.432E+06    -4.73740E+06    -280.707E-03     561.424E-03    -280.717E-03     7.83057E-03    -280.890E-03     560.852E-03    -280.841E-03     8.88630E-03
            1244     2.03882E-03     183.645E-03    -118.683E+06    -168.550E+06    -99.2376E+06    -7.14667E+06    -280.766E-03     561.535E-03    -280.770E-03     11.6886E-03    -280.966E-03     561.004E-03    -280.849E-03     13.1961E-03
            1245     2.71835E-03     183.670E-03    -113.322E+06    -152.385E+06    -82.2462E+06    -9.67212E+06    -280.886E-03     561.726E-03    -280.840E-03     15.6609E-03    -281.104E-03     561.239E-03    -280.866E-03     17.5630E-03
            1246     3.39782E-03     183.700E-03    -107.143E+06    -135.788E+06    -64.2319E+06    -12.0439E+06    -281.103E-03     562.033E-03    -280.930E-03     19.7217E-03    -281.336E-03     561.590E-03    -280.899E-03     21.9459E-03
            1247     4.07714E-03     183.737E-03    -100.357E+06    -119.492E+06    -46.4848E+06    -14.1305E+06    -281.455E-03     562.496E-03    -281.041E-03     23.8405E-03    -281.698E-03     562.094E-03    -280.955E-03     26.3026E-03
            1248     4.75625E-03     183.778E-03    -93.1834E+06    -103.966E+06    -29.8296E+06    -15.9404E+06    -281.981E-03     563.162E-03    -281.181E-03     27.9722E-03    -282.229E-03     562.796E-03    -281.044E-03     30.5768E-03
            1249     5.43499E-03     183.825E-03    -85.8777E+06    -89.8557E+06    -14.7426E+06    -17.4760E+06    -282.721E-03     564.078E-03    -281.357E-03     32.0642E-03    -282.970E-03     563.746E-03    -281.176E-03     34.7028E-03
            1250     6.11328E-03     183.876E-03    -78.5365E+06    -77.2339E+06    -1.47092E+06    -18.7115E+06    -283.705E-03     565.285E-03    -281.580E-03     35.9726E-03    -283.951E-03     564.982E-03    -281.361E-03     38.5334E-03
            1251     6.79088E-03     183.930E-03    -71.0674E+06    -65.0062E+06     10.1526E+06    -19.5947E+06    -284.945E-03     566.801E-03    -281.856E-03     39.5381E-03    -285.186E-03     566.530E-03    -281.608E-03     41.9081E-03
            1252     7.46769E-03     183.987E-03    -63.6041E+06    -52.4361E+06     20.5611E+06    -20.0457E+06    -286.449E-03     568.645E-03    -282.196E-03     42.6349E-03    -286.689E-03     568.413E-03    -281.925E-03     44.6904E-03
            1253     8.14343E-03     184.047E-03    -56.3603E+06    -37.8908E+06     30.2034E+06    -20.1968E+06    -288.204E-03     570.808E-03    -282.604E-03     45.0951E-03    -288.448E-03     570.630E-03    -282.316E-03     46.7021E-03
            1254     8.81801E-03     184.109E-03    -49.0974E+06    -21.6954E+06     39.7219E+06    -19.8252E+06    -290.156E-03     573.243E-03    -283.087E-03     46.7899E-03    -290.414E-03     573.135E-03    -282.786E-03     47.7973E-03
            1255     9.49123E-03     184.171E-03    -41.3869E+06    -616.165E+03     50.0105E+06    -19.2650E+06    -292.195E-03     575.836E-03    -283.640E-03     47.6592E-03    -292.478E-03     575.825E-03    -283.329E-03     47.8825E-03
            1256     10.1630E-03     184.233E-03    -33.3893E+06     33.6330E+06     62.2057E+06    -19.0706E+06    -294.139E-03     578.386E-03    -284.247E-03     47.7494E-03    -294.476E-03     578.543E-03    -283.936E-03     46.9513E-03
            1257     10.8335E-03     184.295E-03    -26.1722E+06     63.2552E+06     71.5591E+06    -18.6390E+06    -295.867E-03     580.759E-03    -284.891E-03     47.2147E-03    -296.261E-03     581.076E-03    -284.587E-03     45.1115E-03
            1258     11.5028E-03     184.357E-03    -19.3755E+06     83.9897E+06     80.8110E+06    -15.6244E+06    -297.220E-03     582.790E-03    -285.570E-03     46.0452E-03    -297.668E-03     583.233E-03    -285.260E-03     42.4417E-03
            1259     12.1716E-03     184.418E-03    -12.7269E+06     87.5893E+06     91.3700E+06    -9.78539E+06    -298.201E-03     584.479E-03    -286.278E-03     45.1285E-03    -298.708E-03     584.988E-03    -285.930E-03     39.4670E-03
            1260     12.8388E-03     184.479E-03    -7.23429E+06     87.0705E+06     105.211E+06    -4.45363E+06    -298.927E-03     585.921E-03    -286.994E-03     38.9440E-03    -299.414E-03     586.386E-03    -286.583E-03     33.1032E-03
            1261     679.919E-06     185.277E-03    -135.283E+06    -182.998E+06    -132.732E+06    -1.40392E+06    -280.091E-03     560.124E-03    -280.033E-03     4.39186E-03    -280.308E-03     559.596E-03    -280.235E-03     5.09399E-03
            1262     1.35989E-03     185.288E-03    -132.182E+06    -173.451E+06    -122.861E+06    -2.73388E+06    -279.924E-03     559.986E-03    -280.062E-03     8.16710E-03    -280.152E-03     559.485E-03    -280.234E-03     9.43609E-03
            1263     2.03999E-03     185.306E-03    -127.539E+06    -159.631E+06    -107.970E+06    -3.93947E+06    -279.778E-03     559.817E-03    -280.039E-03     12.2331E-03    -280.021E-03     559.354E-03    -280.163E-03     14.0669E-03
            1264     2.72026E-03     185.330E-03    -121.973E+06    -143.124E+06    -89.7316E+06    -5.09234E+06    -279.662E-03     559.681E-03    -280.019E-03     16.4393E-03    -279.923E-03     559.260E-03    -280.083E-03     18.7894E-03
            1265     3.40063E-03     185.361E-03    -115.877E+06    -126.261E+06    -70.2682E+06    -6.52340E+06    -279.647E-03     559.655E-03    -280.008E-03     20.7552E-03    -279.923E-03     559.276E-03    -280.009E-03     23.5473E-03
            1266     4.08107E-03     185.398E-03    -109.583E+06    -109.828E+06    -51.5695E+06    -8.26896E+06    -279.801E-03     559.818E-03    -280.016E-03     25.1267E-03    -280.090E-03     559.476E-03    -279.956E-03     28.2702E-03
            1267     4.76143E-03     185.440E-03    -103.222E+06    -94.0145E+06    -34.5790E+06    -10.3642E+06    -280.199E-03     560.254E-03    -280.055E-03     29.4864E-03    -280.495E-03     559.950E-03    -279.942E-03     32.8745E-03
            1268     5.44157E-03     185.488E-03    -96.5922E+06    -79.4430E+06    -19.4542E+06    -12.9684E+06    -280.907E-03     561.050E-03    -280.143E-03     33.7612E-03    -281.205E-03     560.779E-03    -279.985E-03     37.2670E-03
            1269     6.12122E-03     185.541E-03    -89.3524E+06    -66.4362E+06    -6.18509E+06    -16.1898E+06    -281.978E-03     562.274E-03    -280.297E-03     37.8043E-03    -282.271E-03     562.032E-03    -280.102E-03     41.2899E-03
            1270     6.80015E-03     185.598E-03    -81.2896E+06    -54.9614E+06     5.50302E+06    -19.6376E+06    -283.448E-03     563.981E-03    -280.533E-03     41.4607E-03    -283.730E-03     563.763E-03    -280.307E-03     44.7836E-03
            1271     7.47803E-03     185.659E-03    -72.1682E+06    -44.1223E+06     16.0830E+06    -22.6416E+06    -285.333E-03     566.198E-03    -280.865E-03     44.6071E-03    -285.601E-03     566.006E-03    -280.616E-03     47.6186E-03
            1272     8.15458E-03     185.723E-03    -62.0098E+06    -31.5004E+06     26.1673E+06    -24.6688E+06    -287.605E-03     568.907E-03    -281.302E-03     47.0942E-03    -287.859E-03     568.754E-03    -281.036E-03     49.6428E-03
            1273     8.82944E-03     185.789E-03    -51.4629E+06    -18.3180E+06     36.1186E+06    -25.5149E+06    -290.199E-03     572.051E-03    -281.853E-03     48.8084E-03    -290.445E-03     571.945E-03    -281.571E-03     50.7268E-03
            1274     9.50244E-03     185.856E-03    -41.4681E+06     1.63308E+06     47.0863E+06    -25.1668E+06    -292.963E-03     575.474E-03    -282.511E-03     49.6665E-03    -293.222E-03     575.456E-03    -282.218E-03     50.7677E-03
            1275     10.1735E-03     185.924E-03    -32.9171E+06     33.2668E+06     59.1782E+06    -23.0979E+06    -295.693E-03     578.951E-03    -283.258E-03     49.6273E-03    -295.999E-03     579.087E-03    -282.963E-03     49.6854E-03
            1276     10.8426E-03     185.991E-03    -26.0289E+06     60.1397E+06     69.1884E+06    -19.4292E+06    -298.212E-03     582.293E-03    -284.081E-03     48.7714E-03    -298.574E-03     582.576E-03    -283.785E-03     47.5089E-03
            1277     11.5102E-03     186.058E-03    -20.3911E+06     77.1584E+06     78.5451E+06    -16.3706E+06    -300.251E-03     585.214E-03    -284.962E-03     47.2342E-03    -300.669E-03     585.605E-03    -284.652E-03     44.3783E-03
            1278     12.1760E-03     186.122E-03    -13.8971E+06     74.5544E+06     86.9847E+06    -13.2228E+06    -301.602E-03     587.475E-03    -285.873E-03     46.0377E-03    -302.070E-03     587.906E-03    -285.526E-03     40.9183E-03
            1279     12.8420E-03     186.186E-03    -5.92809E+06     72.3949E+06     102.293E+06    -7.13885E+06    -302.281E-03     589.067E-03    -286.786E-03     40.0383E-03    -302.725E-03     589.451E-03    -286.371E-03     34.4891E-03
            1280     680.555E-06     186.935E-03    -179.327E+06    -172.547E+06    -177.519E+06    -3.36844E+06    -278.878E-03     557.724E-03    -278.846E-03     4.72368E-03    -279.266E-03     557.377E-03    -279.223E-03     5.52850E-03
            1281     1.36129E-03     186.946E-03    -174.006E+06    -163.561E+06    -165.086E+06    -5.93852E+06    -278.646E-03     557.497E-03    -278.851E-03     8.72318E-03    -279.036E-03     557.167E-03    -279.187E-03     10.1907E-03
            1282     2.04225E-03     186.963E-03    -165.355E+06    -151.085E+06    -146.077E+06    -8.14640E+06    -278.417E-03     557.220E-03    -278.803E-03     12.9396E-03    -278.804E-03     556.907E-03    -279.075E-03     15.0754E-03
            1283     2.72347E-03     186.987E-03    -153.784E+06    -135.370E+06    -122.401E+06    -9.89155E+06    -278.220E-03     556.974E-03    -278.754E-03     17.1859E-03    -278.600E-03     556.683E-03    -278.947E-03     19.9499E-03
            1284     3.40493E-03     187.017E-03    -140.160E+06    -118.802E+06    -96.4872E+06    -11.1742E+06    -278.154E-03     556.871E-03    -278.717E-03     21.4133E-03    -278.520E-03     556.597E-03    -278.823E-03     24.7446E-03
            1285     4.08650E-03     187.054E-03    -125.517E+06    -102.247E+06    -70.8247E+06    -12.2197E+06    -278.314E-03     557.019E-03    -278.704E-03     25.5691E-03    -278.659E-03     556.760E-03    -278.728E-03     29.3844E-03
            1286     4.76802E-03     187.097E-03    -110.826E+06    -85.5767E+06    -47.2216E+06    -13.3557E+06    -278.783E-03     557.515E-03    -278.733E-03     29.6059E-03    -279.103E-03     557.275E-03    -278.684E-03     33.7965E-03
            1287     5.44922E-03     187.146E-03    -96.9168E+06    -68.7579E+06    -26.5588E+06    -15.1901E+06    -279.618E-03     558.438E-03    -278.820E-03     33.4783E-03    -279.914E-03     558.223E-03    -278.713E-03     37.9062E-03
            1288     6.12985E-03     187.201E-03    -84.4971E+06    -54.2038E+06    -9.13275E+06    -17.7184E+06    -280.874E-03     559.863E-03    -278.989E-03     37.0952E-03    -281.146E-03     559.669E-03    -278.834E-03     41.6071E-03
            1289     6.80954E-03     187.261E-03    -74.0831E+06    -42.3207E+06     5.24627E+06    -20.5084E+06    -282.590E-03     561.848E-03    -279.258E-03     40.3812E-03    -282.843E-03     561.672E-03    -279.063E-03     44.8130E-03
            1290     7.48796E-03     187.326E-03    -65.7367E+06    -30.6910E+06     17.0256E+06    -23.9690E+06    -284.763E-03     564.402E-03    -279.639E-03     43.2985E-03    -285.006E-03     564.253E-03    -279.414E-03     47.4612E-03
            1291     8.16475E-03     187.395E-03    -58.7340E+06    -19.9838E+06     26.4110E+06    -27.7896E+06    -287.364E-03     567.506E-03    -280.142E-03     45.7598E-03    -287.603E-03     567.388E-03    -279.895E-03     49.4551E-03
            1292     8.83969E-03     187.467E-03    -51.7780E+06    -9.45677E+06     35.0735E+06    -31.0076E+06    -290.338E-03     571.112E-03    -280.774E-03     47.6715E-03    -290.577E-03     571.032E-03    -280.510E-03     50.6968E-03
            1293     9.51245E-03     187.541E-03    -43.6380E+06     5.91946E+06     44.3990E+06    -32.7408E+06    -293.567E-03     575.097E-03    -281.530E-03     48.9173E-03    -293.818E-03     575.085E-03    -281.253E-03     51.0576E-03
            1294     10.1829E-03     187.616E-03    -34.2534E+06     25.8942E+06     54.5269E+06    -30.0420E+06    -296.877E-03     579.277E-03    -282.400E-03     49.3599E-03    -297.149E-03     579.361E-03    -282.115E-03     50.3999E-03
            1295     10.8510E-03     187.690E-03    -24.7594E+06     49.5084E+06     66.0525E+06    -23.8253E+06    -300.018E-03     583.385E-03    -283.368E-03     48.9850E-03    -300.327E-03     583.591E-03    -283.073E-03     48.6830E-03
            1296     11.5168E-03     187.762E-03    -15.8810E+06     71.8706E+06     76.3838E+06    -18.7160E+06    -302.640E-03     587.035E-03    -284.396E-03     47.7898E-03    -302.997E-03     587.370E-03    -284.095E-03     45.8311E-03
            1297     12.1814E-03     187.831E-03    -9.58916E+06     63.7554E+06     83.0154E+06    -14.2757E+06    -304.426E-03     589.896E-03    -285.471E-03     46.7795E-03    -304.826E-03     590.249E-03    -285.134E-03     42.3936E-03
            1298     12.8442E-03     187.897E-03    -5.49165E+06     53.9712E+06     99.9672E+06    -8.43172E+06    -305.339E-03     591.914E-03    -286.575E-03     41.1017E-03    -305.737E-03     592.194E-03    -286.146E-03     35.9923E-03
            1299     681.712E-06     188.589E-03    -208.300E+06    -148.936E+06    -205.811E+06    -7.44976E+06    -277.526E-03     554.961E-03    -277.435E-03     4.42162E-03    -278.052E-03     554.816E-03    -277.946E-03     5.28879E-03
            1300     1.36349E-03     188.599E-03    -202.218E+06    -141.076E+06    -193.146E+06    -13.6004E+06    -277.349E-03     554.840E-03    -277.491E-03     8.10157E-03    -277.872E-03     554.704E-03    -277.959E-03     9.67084E-03
            1301     2.04540E-03     188.616E-03    -192.601E+06    -130.349E+06    -174.149E+06    -19.7539E+06    -277.239E-03     554.725E-03    -277.486E-03     11.8932E-03    -277.753E-03     554.597E-03    -277.888E-03     14.1762E-03
            1302     2.72748E-03     188.639E-03    -180.063E+06    -117.672E+06    -151.186E+06    -25.0459E+06    -277.199E-03     554.691E-03    -277.491E-03     15.5556E-03    -277.697E-03     554.570E-03    -277.816E-03     18.5245E-03
            1303     3.40965E-03     188.669E-03    -165.152E+06    -104.097E+06    -126.017E+06    -29.1950E+06    -277.312E-03     554.832E-03    -277.520E-03     19.0266E-03    -277.785E-03     554.715E-03    -277.760E-03     22.6359E-03
            1304     4.09179E-03     188.706E-03    -148.355E+06    -90.0296E+06    -100.283E+06    -32.2528E+06    -277.657E-03     555.243E-03    -277.586E-03     22.2918E-03    -278.097E-03     555.127E-03    -277.742E-03     26.4770E-03
            1305     4.77369E-03     188.750E-03    -130.235E+06    -75.1760E+06    -74.8636E+06    -34.2980E+06    -278.298E-03     556.002E-03    -277.703E-03     25.3733E-03    -278.700E-03     555.891E-03    -277.780E-03     30.0465E-03
            1306     5.45515E-03     188.801E-03    -111.598E+06    -59.1903E+06    -50.0699E+06    -35.2625E+06    -279.284E-03     557.174E-03    -277.890E-03     28.2912E-03    -279.644E-03     557.073E-03    -277.893E-03     33.3439E-03
            1307     6.13585E-03     188.858E-03    -93.4074E+06    -46.2841E+06    -26.7160E+06    -35.0286E+06    -280.663E-03     558.827E-03    -278.164E-03     31.0510E-03    -280.979E-03     558.725E-03    -278.095E-03     36.3526E-03
            1308     6.81553E-03     188.921E-03    -76.2866E+06    -34.8267E+06    -5.45915E+06    -34.0570E+06    -282.447E-03     560.982E-03    -278.535E-03     33.6898E-03    -282.719E-03     560.875E-03    -278.401E-03     39.0772E-03
            1309     7.49389E-03     188.991E-03    -60.7846E+06    -21.9084E+06     13.6589E+06    -32.8737E+06    -284.625E-03     563.631E-03    -279.006E-03     36.2508E-03    -284.861E-03     563.534E-03    -278.818E-03     41.5295E-03
            1310     8.17066E-03     189.065E-03    -47.8522E+06    -10.5310E+06     29.7936E+06    -32.0134E+06    -287.190E-03     566.775E-03    -279.585E-03     38.7426E-03    -287.399E-03     566.690E-03    -279.351E-03     43.6876E-03
            1311     8.84547E-03     189.143E-03    -38.0104E+06     1.67308E+06     42.5562E+06    -32.5797E+06    -290.088E-03     570.357E-03    -280.269E-03     41.1700E-03    -290.285E-03     570.302E-03    -280.004E-03     45.5188E-03
            1312     9.51814E-03     189.224E-03    -30.9712E+06     14.8859E+06     52.0909E+06    -34.2377E+06    -293.270E-03     574.326E-03    -281.056E-03     43.4696E-03    -293.471E-03     574.320E-03    -280.773E-03     46.9450E-03
            1313     10.1885E-03     189.307E-03    -25.3384E+06     21.5940E+06     59.0721E+06    -34.5313E+06    -296.715E-03     578.671E-03    -281.955E-03     45.4149E-03    -296.923E-03     578.694E-03    -281.655E-03     47.7420E-03
            1314     10.8564E-03     189.389E-03    -19.0827E+06     34.7218E+06     67.2998E+06    -29.9144E+06    -300.241E-03     583.197E-03    -282.956E-03     46.6098E-03    -300.475E-03     583.291E-03    -282.642E-03     47.5369E-03
            1315     11.5221E-03     189.469E-03    -12.7742E+06     58.9719E+06     73.7971E+06    -21.8132E+06    -303.465E-03     587.481E-03    -284.016E-03     46.5567E-03    -303.753E-03     587.720E-03    -283.714E-03     45.7255E-03
            1316     12.1854E-03     189.543E-03    -7.30276E+06     48.7273E+06     78.5571E+06    -13.5175E+06    -306.048E-03     591.216E-03    -285.168E-03     45.9443E-03    -306.376E-03     591.464E-03    -284.836E-03     42.5438E-03
            1317     12.8483E-03     189.613E-03    -2.68548E+06     36.1366E+06     99.6048E+06    -5.42499E+06    -307.454E-03     593.857E-03    -286.404E-03     40.8601E-03    -307.789E-03     594.023E-03    -285.954E-03     36.4232E-03
            1318     682.204E-06     190.238E-03    -163.052E+06    -110.109E+06    -160.734E+06    -10.5172E+06    -277.832E-03     555.538E-03    -277.706E-03     1.85196E-03    -278.255E-03     555.457E-03    -278.114E-03     2.63079E-03
            1319     1.36442E-03     190.249E-03    -158.663E+06    -103.857E+06    -150.184E+06    -18.5315E+06    -277.772E-03     555.587E-03    -277.815E-03     3.47436E-03    -278.198E-03     555.516E-03    -278.185E-03     4.91514E-03
            1320     2.04660E-03     190.265E-03    -152.447E+06    -95.4078E+06    -135.092E+06    -26.3952E+06    -277.859E-03     555.743E-03    -277.885E-03     5.07054E-03    -278.289E-03     555.685E-03    -278.201E-03     7.19217E-03
            1321     2.72865E-03     190.289E-03    -144.624E+06    -85.7709E+06    -117.202E+06    -33.7806E+06    -278.039E-03     556.029E-03    -277.990E-03     6.55137E-03    -278.471E-03     555.983E-03    -278.242E-03     9.32880E-03
            1322     3.41048E-03     190.319E-03    -135.429E+06    -75.7763E+06    -98.3937E+06    -40.4836E+06    -278.329E-03     556.457E-03    -278.128E-03     7.91208E-03    -278.760E-03     556.423E-03    -278.314E-03     11.3155E-03
            1323     4.09199E-03     190.357E-03    -125.144E+06    -65.6028E+06    -79.6663E+06    -46.2486E+06    -278.748E-03     557.047E-03    -278.299E-03     9.21453E-03    -279.172E-03     557.024E-03    -278.421E-03     13.2117E-03
            1324     4.77307E-03     190.402E-03    -114.066E+06    -55.3154E+06    -61.1378E+06    -50.7074E+06    -279.327E-03     557.836E-03    -278.509E-03     10.5627E-03    -279.741E-03     557.825E-03    -278.569E-03     15.1154E-03
            1325     5.45357E-03     190.455E-03    -102.316E+06    -45.1405E+06    -42.5995E+06    -53.2412E+06    -280.103E-03     558.867E-03    -278.764E-03     12.0733E-03    -280.502E-03     558.866E-03    -278.764E-03     17.1337E-03
            1326     6.13334E-03     190.515E-03    -89.8614E+06    -37.0069E+06    -24.1803E+06    -53.9871E+06    -281.113E-03     560.188E-03    -279.075E-03     13.8910E-03    -281.489E-03     560.184E-03    -279.012E-03     19.3810E-03
            1327     6.81216E-03     190.582E-03    -76.7476E+06    -29.3333E+06    -6.31301E+06    -53.3148E+06    -282.386E-03     561.829E-03    -279.443E-03     16.1600E-03    -282.732E-03     561.816E-03    -279.320E-03     21.9659E-03
            1328     7.48990E-03     190.655E-03    -63.1460E+06    -20.5925E+06     10.8700E+06    -50.8580E+06    -283.958E-03     563.828E-03    -279.870E-03     18.9598E-03    -284.268E-03     563.809E-03    -279.694E-03     24.9428E-03
            1329     8.16635E-03     190.734E-03    -49.6022E+06    -11.0647E+06     27.3487E+06    -46.7039E+06    -285.878E-03     566.244E-03    -280.366E-03     22.2988E-03    -286.148E-03     566.220E-03    -280.141E-03     28.2766E-03
            1330     8.84144E-03     190.818E-03    -37.3357E+06     2.93877E+06     43.0554E+06    -41.6867E+06    -288.188E-03     569.122E-03    -280.935E-03     26.0815E-03    -288.428E-03     569.116E-03    -280.670E-03     31.7975E-03
            1331     9.51498E-03     190.905E-03    -28.1272E+06     16.3991E+06     57.4885E+06    -36.5358E+06    -290.943E-03     572.538E-03    -281.595E-03     30.0583E-03    -291.167E-03     572.554E-03    -281.291E-03     35.1752E-03
            1332     10.1868E-03     190.995E-03    -21.9134E+06     20.4702E+06     69.3294E+06    -31.7682E+06    -294.175E-03     576.539E-03    -282.364E-03     33.9238E-03    -294.385E-03     576.544E-03    -282.016E-03     38.0289E-03
            1333     10.8562E-03     191.085E-03    -18.2070E+06     24.8828E+06     75.5119E+06    -27.5412E+06    -297.712E-03     580.931E-03    -283.219E-03     37.4152E-03    -297.925E-03     580.950E-03    -282.851E-03     40.0313E-03
            1334     11.5229E-03     191.174E-03    -15.1923E+06     41.8530E+06     77.5147E+06    -21.6411E+06    -301.240E-03     585.379E-03    -284.139E-03     40.0540E-03    -301.493E-03     585.503E-03    -283.790E-03     40.6938E-03
            1335     12.1872E-03     191.256E-03    -11.3791E+06     27.5622E+06     77.8667E+06    -12.6977E+06    -304.564E-03     589.743E-03    -285.179E-03     42.2641E-03    -304.837E-03     589.848E-03    -284.813E-03     40.3305E-03
            1336     12.8478E-03     191.332E-03    -7.00035E+06     18.6819E+06     94.9911E+06    -4.38348E+06    -306.814E-03     593.149E-03    -286.335E-03     39.6854E-03    -307.102E-03     593.203E-03    -285.877E-03     36.4388E-03
            1337     679.632E-06     191.894E-03    -81.1622E+06    -65.0659E+06    -77.6366E+06    -10.1494E+06    -282.957E-03     565.570E-03    -282.613E-03    -3.98243E-03    -283.162E-03     565.473E-03    -282.789E-03    -3.42947E-03
            1338     1.35922E-03     191.904E-03    -78.4987E+06    -61.8672E+06    -70.3757E+06    -18.0322E+06    -282.811E-03     565.686E-03    -282.875E-03    -7.25756E-03    -283.022E-03     565.596E-03    -283.024E-03    -6.29657E-03
            1339     2.03863E-03     191.921E-03    -74.2255E+06    -56.2574E+06    -57.6953E+06    -25.6115E+06    -282.874E-03     565.871E-03    -282.997E-03    -10.6278E-03    -283.098E-03     565.791E-03    -283.096E-03    -9.23400E-03
            1340     2.71778E-03     191.945E-03    -68.5437E+06    -49.1462E+06    -42.5810E+06    -32.4750E+06    -282.915E-03     566.062E-03    -283.148E-03    -13.8941E-03    -283.152E-03     565.998E-03    -283.190E-03    -12.0516E-03
            1341     3.39663E-03     191.977E-03    -62.3815E+06    -42.0218E+06    -27.1063E+06    -38.5936E+06    -282.906E-03     566.217E-03    -283.311E-03    -16.9163E-03    -283.158E-03     566.170E-03    -283.295E-03    -14.6045E-03
            1342     4.07521E-03     192.015E-03    -56.4831E+06    -35.7508E+06    -12.6790E+06    -43.6420E+06    -282.830E-03     566.304E-03    -283.473E-03    -19.5529E-03    -283.097E-03     566.274E-03    -283.403E-03    -16.7470E-03
            1343     4.75354E-03     192.062E-03    -51.4235E+06    -30.3569E+06     106.835E+03    -47.2723E+06    -282.669E-03     566.295E-03    -283.625E-03    -21.6366E-03    -282.955E-03     566.284E-03    -283.506E-03    -18.3072E-03
            1344     5.43167E-03     192.115E-03    -47.4329E+06    -25.7926E+06     10.9571E+06    -49.5498E+06    -282.425E-03     566.184E-03    -283.759E-03    -22.9614E-03    -282.730E-03     566.194E-03    -283.598E-03    -19.0865E-03
            1345     6.10964E-03     192.176E-03    -44.4300E+06    -21.9654E+06     20.1839E+06    -50.7043E+06    -282.140E-03     566.010E-03    -283.871E-03    -23.3016E-03    -282.466E-03     566.039E-03    -283.673E-03    -18.8802E-03
            1346     6.78755E-03     192.245E-03    -42.3876E+06    -18.8703E+06     28.3106E+06    -50.8199E+06    -281.898E-03     565.861E-03    -283.964E-03    -22.4590E-03    -282.243E-03     565.906E-03    -283.733E-03    -17.5153E-03
            1347     7.46533E-03     192.320E-03    -40.9990E+06    -15.7656E+06     35.9064E+06    -49.8565E+06    -281.805E-03     565.850E-03    -284.046E-03    -20.2731E-03    -282.167E-03     565.906E-03    -283.784E-03    -14.8633E-03
            1348     8.14288E-03     192.401E-03    -39.4114E+06    -10.9953E+06     43.9314E+06    -47.7749E+06    -281.993E-03     566.123E-03    -284.129E-03    -16.6141E-03    -282.366E-03     566.189E-03    -283.837E-03    -10.8322E-03
            1349     8.81986E-03     192.489E-03    -36.3073E+06    -2.54724E+06     53.4702E+06    -43.6150E+06    -282.637E-03     566.869E-03    -284.232E-03    -11.3910E-03    -283.010E-03     566.951E-03    -283.908E-03    -5.36617E-03
            1350     9.49572E-03     192.581E-03    -30.9978E+06     7.88104E+06     65.7010E+06    -37.3867E+06    -283.909E-03     568.293E-03    -284.383E-03    -4.48994E-03    -284.268E-03     568.382E-03    -284.021E-03     1.55507E-03
            1351     10.1698E-03     192.677E-03    -24.2628E+06     10.5373E+06     77.4269E+06    -29.9864E+06    -285.916E-03     570.523E-03    -284.607E-03     4.08318E-03    -286.230E-03     570.567E-03    -284.200E-03     9.77636E-03
            1352     10.8421E-03     192.775E-03    -17.2195E+06     17.1303E+06     86.4401E+06    -23.0396E+06    -288.655E-03     573.555E-03    -284.900E-03     13.9195E-03    -288.920E-03     573.572E-03    -284.467E-03     18.7228E-03
            1353     11.5128E-03     192.871E-03    -11.2733E+06     30.7165E+06     92.2495E+06    -18.3506E+06    -292.270E-03     577.555E-03    -285.285E-03     23.8457E-03    -292.509E-03     577.598E-03    -284.852E-03     27.0795E-03
            1354     12.1813E-03     192.961E-03    -6.00219E+06     4.30538E+06     85.4554E+06    -11.0785E+06    -296.756E-03     582.571E-03    -285.815E-03     32.6092E-03    -296.931E-03     582.493E-03    -285.386E-03     33.3855E-03
            1355     12.8491E-03     193.044E-03    -1.47624E+06     2.51542E+06     89.7254E+06    -2.85459E+06    -300.521E-03     587.030E-03    -286.509E-03     35.3173E-03    -300.694E-03     586.947E-03    -286.062E-03     34.2879E-03
            1356     671.314E-06     193.577E-03    -2.94345E+06    -27.4518E+06    -184.731E+03    -6.72630E+06    -295.806E-03     591.315E-03    -295.509E-03    -12.3014E-03    -295.795E-03     591.169E-03    -295.466E-03    -12.2117E-03
            1357     1.34248E-03     193.587E-03    -2.39060E+06    -25.6678E+06     5.60581E+06    -12.5161E+06    -295.411E-03     591.180E-03    -295.769E-03    -22.2259E-03    -295.410E-03     591.037E-03    -295.701E-03    -22.0608E-03
            1358     2.01354E-03     193.605E-03    -1.56195E+06    -23.2995E+06     14.1381E+06    -17.8902E+06    -294.992E-03     590.816E-03    -295.824E-03    -32.5466E-03    -295.008E-03     590.677E-03    -295.717E-03    -32.2562E-03
            1359     2.68461E-03     193.629E-03    -1.00492E+06    -19.4828E+06     23.6611E+06    -22.1246E+06    -294.310E-03     590.164E-03    -295.854E-03    -42.5678E-03    -294.349E-03     590.038E-03    -295.706E-03    -42.0937E-03
            1360     3.35580E-03     193.660E-03    -1.00235E+06    -15.6872E+06     33.7127E+06    -25.2485E+06    -293.333E-03     589.181E-03    -295.848E-03    -52.0669E-03    -293.403E-03     589.071E-03    -295.656E-03    -51.3575E-03
            1361     4.02724E-03     193.698E-03    -1.73646E+06    -13.2941E+06     43.4787E+06    -27.2846E+06    -292.041E-03     587.835E-03    -295.793E-03    -60.8752E-03    -292.147E-03     587.739E-03    -295.554E-03    -59.8808E-03
            1362     4.69909E-03     193.743E-03    -3.04337E+06    -11.4063E+06     52.1037E+06    -28.4906E+06    -290.409E-03     586.080E-03    -295.671E-03    -68.8512E-03    -290.554E-03     586.003E-03    -295.390E-03    -67.5295E-03
            1363     5.37161E-03     193.794E-03    -4.63521E+06    -10.0720E+06     59.6444E+06    -29.0373E+06    -288.426E-03     583.898E-03    -295.472E-03    -75.8868E-03    -288.612E-03     583.841E-03    -295.152E-03    -74.1996E-03
            1364     6.04508E-03     193.853E-03    -6.41219E+06    -8.93620E+06     66.1921E+06    -29.0749E+06    -286.112E-03     581.297E-03    -295.185E-03    -81.8557E-03    -286.341E-03     581.264E-03    -294.832E-03    -79.7756E-03
            1365     6.71969E-03     193.919E-03    -8.18081E+06    -8.16419E+06     71.9296E+06    -28.7401E+06    -283.511E-03     578.319E-03    -294.808E-03    -86.5711E-03    -283.782E-03     578.309E-03    -294.425E-03    -84.0897E-03
            1366     7.39563E-03     193.991E-03    -9.72734E+06    -7.44114E+06     77.2283E+06    -28.2695E+06    -280.692E-03     575.029E-03    -294.338E-03    -89.7557E-03    -281.001E-03     575.042E-03    -293.927E-03    -86.8831E-03
            1367     8.07304E-03     194.070E-03    -10.8989E+06    -6.23608E+06     82.3655E+06    -27.3735E+06    -277.755E-03     571.531E-03    -293.775E-03    -91.0220E-03    -278.096E-03     571.564E-03    -293.338E-03    -87.7767E-03
            1368     8.75209E-03     194.156E-03    -12.0765E+06    -3.35181E+06     86.9391E+06    -26.0396E+06    -274.796E-03     567.915E-03    -293.119E-03    -89.8597E-03    -275.163E-03     567.970E-03    -292.662E-03    -86.2705E-03
            1369     9.43300E-03     194.247E-03    -13.0206E+06     1.49719E+06     90.9885E+06    -23.4922E+06    -271.964E-03     564.334E-03    -292.370E-03    -85.6232E-03    -272.345E-03     564.410E-03    -291.898E-03    -81.7379E-03
            1370     10.1160E-03     194.344E-03    -13.6471E+06     2.88844E+06     93.1895E+06    -20.3951E+06    -269.663E-03     561.207E-03    -291.543E-03    -77.7023E-03    -270.032E-03     561.271E-03    -291.062E-03    -73.6611E-03
            1371     10.8001E-03     194.444E-03    -12.3873E+06     4.74341E+06     94.4960E+06    -15.5480E+06    -268.409E-03     559.077E-03    -290.668E-03    -65.7394E-03    -268.738E-03     559.114E-03    -290.184E-03    -61.7844E-03
            1372     11.4837E-03     194.546E-03    -9.37628E+06     20.0638E+06     100.309E+06    -8.99127E+06    -268.443E-03     558.237E-03    -289.794E-03    -49.0708E-03    -268.742E-03     558.298E-03    -289.308E-03    -45.5802E-03
            1373     12.1645E-03     194.647E-03    -6.25926E+06    -6.18571E+06     88.7165E+06    -5.37318E+06    -269.556E-03     558.472E-03    -288.916E-03    -25.8420E-03    -269.739E-03     558.374E-03    -288.455E-03    -23.7922E-03
            1374     12.8385E-03     194.742E-03     1.36866E+06    -7.68755E+06     76.3677E+06    -3.08970E+06    -270.829E-03     558.843E-03    -288.014E-03     1.13761E-03    -270.927E-03     558.713E-03    -287.623E-03     1.87998E-03
            1375     12.8066E-03     96.7106E-03    -5.45444E+06     80.3334E+06     98.2674E+06     269.456E+03    -288.631E-03     578.129E-03    -289.498E-03     32.4060E-03    -289.087E-03     578.565E-03    -289.115E-03     26.3765E-03
            1376     12.1324E-03     96.6535E-03    -11.2323E+06     77.0851E+06     98.9088E+06     184.506E+03    -288.701E-03     578.237E-03    -289.536E-03     38.4450E-03    -289.224E-03     578.706E-03    -289.137E-03     31.9290E-03
            1377     11.4580E-03     96.5948E-03    -17.4637E+06     74.3698E+06     94.2044E+06     526.833E+03    -288.753E-03     578.303E-03    -289.549E-03     38.5845E-03    -289.262E-03     578.740E-03    -289.161E-03     33.0703E-03
            1378     10.7838E-03     96.5335E-03    -23.8949E+06     68.9370E+06     83.0983E+06     927.325E+03    -288.817E-03     578.354E-03    -289.537E-03     38.7457E-03    -289.312E-03     578.769E-03    -289.187E-03     33.9873E-03
            1379     10.1095E-03     96.4715E-03    -30.3367E+06     52.0521E+06     69.0571E+06     947.830E+03    -288.907E-03     578.436E-03    -289.529E-03     37.7997E-03    -289.359E-03     578.765E-03    -289.215E-03     33.9651E-03
            1380     9.43526E-03     96.4103E-03    -36.8102E+06     38.1669E+06     56.5358E+06     1.19939E+06    -288.955E-03     578.479E-03    -289.524E-03     36.0447E-03    -289.371E-03     578.736E-03    -289.243E-03     33.1504E-03
            1381     8.76104E-03     96.3512E-03    -43.4330E+06     36.8150E+06     47.8764E+06     1.88224E+06    -288.922E-03     578.446E-03    -289.524E-03     33.8175E-03    -289.331E-03     578.692E-03    -289.275E-03     31.8095E-03
            1382     8.08682E-03     96.2949E-03    -50.3802E+06     12.8641E+06     36.9768E+06     2.35850E+06    -288.960E-03     578.509E-03    -289.548E-03     31.3836E-03    -289.332E-03     578.640E-03    -289.309E-03     30.1709E-03
            1383     7.41267E-03     96.2417E-03    -57.6259E+06    -28.4124E+06     23.0212E+06     2.21640E+06    -289.064E-03     578.647E-03    -289.583E-03     28.9440E-03    -289.376E-03     578.587E-03    -289.343E-03     28.3992E-03
            1384     6.73858E-03     96.1918E-03    -65.0108E+06    -62.3084E+06     9.09266E+06     1.89199E+06    -289.138E-03     578.743E-03    -289.605E-03     26.4834E-03    -289.406E-03     578.533E-03    -289.375E-03     26.4833E-03
            1385     6.06453E-03     96.1456E-03    -72.4408E+06    -89.9547E+06    -5.07222E+06     1.67114E+06    -289.185E-03     578.801E-03    -289.616E-03     23.9209E-03    -289.422E-03     578.476E-03    -289.406E-03     24.3550E-03
            1386     5.39053E-03     96.1034E-03    -79.8816E+06    -114.685E+06    -19.9195E+06     1.45571E+06    -289.223E-03     578.841E-03    -289.619E-03     21.3150E-03    -289.434E-03     578.419E-03    -289.436E-03     22.0654E-03
            1387     4.71657E-03     96.0655E-03    -87.2783E+06    -138.953E+06    -35.5959E+06     1.23626E+06    -289.265E-03     578.880E-03    -289.616E-03     18.6968E-03    -289.451E-03     578.367E-03    -289.466E-03     19.6451E-03
            1388     4.04266E-03     96.0322E-03    -94.4915E+06    -161.465E+06    -51.9047E+06     1.02434E+06    -289.308E-03     578.914E-03    -289.605E-03     16.0680E-03    -289.473E-03     578.320E-03    -289.494E-03     17.1059E-03
            1389     3.36880E-03     96.0035E-03    -101.316E+06    -182.207E+06    -68.4264E+06     820.576E+03    -289.354E-03     578.943E-03    -289.589E-03     13.4283E-03    -289.498E-03     578.279E-03    -289.520E-03     14.4576E-03
            1390     2.69497E-03     95.9797E-03    -107.491E+06    -201.101E+06    -84.3465E+06     629.667E+03    -289.400E-03     578.970E-03    -289.569E-03     10.7760E-03    -289.524E-03     578.242E-03    -289.544E-03     11.7114E-03
            1391     2.02119E-03     95.9610E-03    -112.732E+06    -217.218E+06    -98.6412E+06     459.622E+03    -289.444E-03     578.993E-03    -289.548E-03     8.11802E-03    -289.550E-03     578.213E-03    -289.563E-03     8.88920E-03
            1392     1.34744E-03     95.9475E-03    -116.780E+06    -230.049E+06    -110.011E+06     307.263E+03    -289.481E-03     579.013E-03    -289.531E-03     5.47503E-03    -289.572E-03     578.191E-03    -289.578E-03     6.02911E-03
            1393     673.712E-06     95.9392E-03    -119.399E+06    -238.162E+06    -117.546E+06     166.887E+03    -289.522E-03     579.025E-03    -289.503E-03     2.97978E-03    -289.603E-03     578.178E-03    -289.573E-03     3.29178E-03
            1394     12.8066E-03     95.0199E-03    -4.72824E+06     80.7536E+06     98.3491E+06    -36.5320E+03    -288.640E-03     578.139E-03    -289.499E-03     32.4023E-03    -289.093E-03     578.576E-03    -289.117E-03     26.3674E-03
            1395     12.1323E-03     94.9629E-03    -10.2252E+06     76.8453E+06      98.866E+06    -21.9129E+03    -288.718E-03     578.253E-03    -289.536E-03     38.4432E-03    -289.234E-03     578.720E-03    -289.138E-03     31.9237E-03
            1396     11.4580E-03     94.9042E-03    -16.3920E+06     72.8817E+06     93.9272E+06     341.332E+03    -288.773E-03     578.323E-03    -289.549E-03     38.5921E-03    -289.274E-03     578.752E-03    -289.162E-03     33.0751E-03
            1397     10.7838E-03     94.8429E-03    -22.9291E+06     68.7058E+06     83.2349E+06     713.365E+03    -288.825E-03     578.363E-03    -289.537E-03     38.7609E-03    -289.316E-03     578.774E-03    -289.188E-03     33.9995E-03
            1398     10.1095E-03     94.7809E-03    -29.6293E+06     51.8705E+06     69.1314E+06     981.857E+03    -288.911E-03     578.439E-03    -289.529E-03     37.8129E-03    -289.360E-03     578.767E-03    -289.215E-03     33.9794E-03
            1399     9.43527E-03     94.7197E-03    -36.4276E+06     37.3570E+06     56.3519E+06     1.29191E+06    -288.959E-03     578.483E-03    -289.524E-03     36.0529E-03    -289.372E-03     578.736E-03    -289.244E-03     33.1609E-03
            1400     8.76104E-03     94.6606E-03    -43.3921E+06     35.6504E+06     47.5684E+06     1.62887E+06    -288.927E-03     578.451E-03    -289.524E-03     33.8284E-03    -289.334E-03     578.692E-03    -289.275E-03     31.8169E-03
            1401     8.08682E-03     94.6043E-03    -50.4824E+06     12.8377E+06     36.9181E+06     1.94632E+06    -288.963E-03     578.512E-03    -289.548E-03     31.4005E-03    -289.335E-03     578.643E-03    -289.309E-03     30.1812E-03
            1402     7.41267E-03     94.5511E-03    -57.6174E+06    -27.2005E+06     23.2719E+06     1.99182E+06    -289.063E-03     578.645E-03    -289.582E-03     28.9591E-03    -289.377E-03     578.591E-03    -289.343E-03     28.4106E-03
            1403     6.73858E-03     94.5012E-03    -64.8579E+06    -61.2240E+06     9.36683E+06     1.77751E+06    -289.136E-03     578.741E-03    -289.605E-03     26.4935E-03    -289.406E-03     578.536E-03    -289.375E-03     26.4917E-03
            1404     6.06453E-03     94.4550E-03    -72.2316E+06    -88.9620E+06    -4.80116E+06     1.53872E+06    -289.183E-03     578.798E-03    -289.616E-03     23.9289E-03    -289.420E-03     578.478E-03    -289.406E-03     24.3610E-03
            1405     5.39053E-03     94.4129E-03    -79.6715E+06    -113.717E+06    -19.6543E+06     1.33232E+06    -289.220E-03     578.839E-03    -289.618E-03     21.3231E-03    -289.432E-03     578.421E-03    -289.436E-03     22.0715E-03
            1406     4.71657E-03     94.3750E-03    -87.0690E+06    -138.011E+06    -35.3344E+06     1.14303E+06    -289.263E-03     578.879E-03    -289.616E-03     18.7052E-03    -289.450E-03     578.370E-03    -289.466E-03     19.6517E-03
            1407     4.04266E-03     94.3416E-03    -94.2773E+06    -160.554E+06    -51.6438E+06     961.722E+03    -289.307E-03     578.913E-03    -289.606E-03     16.0751E-03    -289.472E-03     578.323E-03    -289.495E-03     17.1117E-03
            1408     3.36879E-03     94.3129E-03    -101.092E+06    -181.315E+06    -68.1692E+06     784.378E+03    -289.353E-03     578.943E-03    -289.590E-03     13.4338E-03    -289.497E-03     578.282E-03    -289.521E-03     14.4623E-03
            1409     2.69497E-03     94.2892E-03    -107.262E+06    -200.262E+06    -84.0922E+06     612.743E+03    -289.400E-03     578.970E-03    -289.570E-03     10.7794E-03    -289.524E-03     578.246E-03    -289.545E-03     11.7145E-03
            1410     2.02119E-03     94.2705E-03    -112.497E+06    -216.434E+06    -98.3872E+06     455.025E+03    -289.444E-03     578.994E-03    -289.550E-03     8.11937E-03    -289.550E-03     578.218E-03    -289.565E-03     8.89059E-03
            1411     1.34744E-03     94.2569E-03    -116.529E+06    -229.276E+06    -109.755E+06     305.990E+03    -289.482E-03     579.015E-03    -289.533E-03     5.47555E-03    -289.573E-03     578.197E-03    -289.580E-03     6.02972E-03
            1412     673.712E-06     94.2486E-03    -119.142E+06    -237.395E+06    -117.294E+06     164.202E+03    -289.524E-03     579.029E-03    -289.505E-03     2.97964E-03    -289.605E-03     578.184E-03    -289.574E-03     3.29176E-03
            1413     12.8066E-03     93.3293E-03    -5.31697E+06     80.8491E+06     97.8991E+06    -488.182E+03    -288.633E-03     578.131E-03    -289.498E-03     32.3892E-03    -289.088E-03     578.570E-03    -289.118E-03     26.3470E-03
            1414     12.1323E-03     93.2722E-03    -11.1285E+06     75.8311E+06     98.0174E+06    -168.721E+03    -288.712E-03     578.248E-03    -289.536E-03     38.4395E-03    -289.231E-03     578.712E-03    -289.139E-03     31.9178E-03
            1415     11.4580E-03     93.2135E-03    -17.4922E+06     72.0476E+06     93.0204E+06     225.446E+03    -288.767E-03     578.317E-03    -289.549E-03     38.5990E-03    -289.272E-03     578.745E-03    -289.163E-03     33.0806E-03
            1416     10.7837E-03     93.1523E-03    -24.0720E+06     67.9658E+06     82.3439E+06     540.111E+03    -288.823E-03     578.361E-03    -289.537E-03     38.7738E-03    -289.317E-03     578.772E-03    -289.189E-03     34.0099E-03
            1417     10.1095E-03     93.0902E-03    -30.6020E+06     51.2297E+06      68.388E+06     929.047E+03    -288.913E-03     578.442E-03    -289.529E-03     37.8217E-03    -289.365E-03     578.769E-03    -289.217E-03     33.9878E-03
            1418     9.43524E-03     93.0291E-03    -37.0247E+06     37.0060E+06     55.9099E+06     1.17375E+06    -288.963E-03     578.487E-03    -289.525E-03     36.0608E-03    -289.377E-03     578.740E-03    -289.245E-03     33.1673E-03
            1419     8.76103E-03     92.9700E-03    -43.5787E+06     35.1434E+06     47.2967E+06     1.37969E+06    -288.931E-03     578.456E-03    -289.525E-03     33.8384E-03    -289.337E-03     578.695E-03    -289.276E-03     31.8231E-03
            1420     8.08681E-03     92.9137E-03    -50.5175E+06     12.7972E+06     36.7835E+06     1.53990E+06    -288.965E-03     578.513E-03    -289.549E-03     31.4124E-03    -289.337E-03     578.645E-03    -289.310E-03     30.1864E-03
            1421     7.41266E-03     92.8605E-03    -57.6801E+06    -26.4787E+06     23.2823E+06     1.52173E+06    -289.061E-03     578.644E-03    -289.582E-03     28.9698E-03    -289.377E-03     578.593E-03    -289.344E-03     28.4137E-03
            1422     6.73857E-03     92.8106E-03    -64.9028E+06    -60.3755E+06     9.42675E+06     1.41833E+06    -289.134E-03     578.739E-03    -289.605E-03     26.5013E-03    -289.405E-03     578.538E-03    -289.376E-03     26.4940E-03
            1423     6.06452E-03     92.7644E-03    -72.2192E+06    -88.1164E+06    -4.71144E+06     1.29476E+06    -289.181E-03     578.797E-03    -289.616E-03     23.9360E-03    -289.420E-03     578.480E-03    -289.407E-03     24.3644E-03
            1424     5.39052E-03     92.7223E-03    -79.6150E+06    -112.896E+06    -19.5499E+06     1.15065E+06    -289.219E-03     578.839E-03    -289.619E-03     21.3311E-03    -289.432E-03     578.425E-03    -289.438E-03     22.0763E-03
            1425     4.71656E-03     92.6844E-03    -86.9890E+06    -137.204E+06    -35.2242E+06     1.00411E+06    -289.262E-03     578.879E-03    -289.617E-03     18.7136E-03    -289.451E-03     578.374E-03    -289.468E-03     19.6576E-03
            1426     4.04265E-03     92.6510E-03    -94.1844E+06    -159.757E+06    -51.5306E+06     858.613E+03    -289.307E-03     578.914E-03    -289.607E-03     16.0827E-03    -289.473E-03     578.328E-03    -289.496E-03     17.1173E-03
            1427     3.36879E-03     92.6223E-03    -100.992E+06    -180.514E+06    -68.0550E+06     710.228E+03    -289.353E-03     578.944E-03    -289.591E-03     13.4405E-03    -289.498E-03     578.287E-03    -289.523E-03     14.4675E-03
            1428     2.69496E-03     92.5986E-03    -107.149E+06    -199.488E+06    -83.9728E+06     560.231E+03    -289.401E-03     578.973E-03    -289.572E-03     10.7854E-03    -289.525E-03     578.252E-03    -289.547E-03     11.7192E-03
            1429     2.02118E-03     92.5799E-03    -112.374E+06    -215.695E+06    -98.2598E+06     417.598E+03    -289.446E-03     578.998E-03    -289.552E-03     8.12502E-03    -289.552E-03     578.225E-03    -289.568E-03     8.89510E-03
            1430     1.34743E-03     92.5664E-03    -116.409E+06    -228.536E+06    -109.629E+06     282.359E+03    -289.484E-03     579.020E-03    -289.535E-03     5.48094E-03    -289.576E-03     578.205E-03    -289.583E-03     6.03410E-03
            1431     673.709E-06     92.5580E-03    -119.020E+06    -236.659E+06    -117.164E+06     153.722E+03    -289.526E-03     579.034E-03    -289.508E-03     2.98321E-03    -289.608E-03     578.193E-03    -289.578E-03     3.29468E-03
            1432     12.8066E-03     91.6386E-03    -5.74013E+06     81.2095E+06     97.6215E+06     190.420E+03    -288.620E-03     578.118E-03    -289.498E-03     32.3871E-03    -289.077E-03     578.560E-03    -289.119E-03     26.3563E-03
            1433     12.1323E-03     91.5816E-03    -11.7993E+06     75.2923E+06     97.4080E+06    -42.6429E+03    -288.706E-03     578.241E-03    -289.536E-03     38.4357E-03    -289.226E-03     578.704E-03    -289.141E-03     31.9167E-03
            1434     11.4580E-03     91.5229E-03    -18.0136E+06     71.5153E+06     92.4402E+06    -1.64990E+03    -288.764E-03     578.313E-03    -289.549E-03     38.5897E-03    -289.269E-03     578.740E-03    -289.165E-03     33.0680E-03
            1435     10.7837E-03     91.4617E-03    -24.3708E+06     67.3474E+06     81.8518E+06     161.291E+03    -288.824E-03     578.362E-03    -289.538E-03     38.7614E-03    -289.318E-03     578.771E-03    -289.191E-03     33.9917E-03
            1436     10.1094E-03     91.3996E-03    -30.7100E+06     50.5363E+06     67.9768E+06     332.637E+03    -288.917E-03     578.446E-03    -289.529E-03     37.8166E-03    -289.368E-03     578.770E-03    -289.218E-03     33.9732E-03
            1437     9.43523E-03     91.3384E-03    -37.0267E+06     36.7641E+06     55.6735E+06     534.377E+03    -288.964E-03     578.490E-03    -289.525E-03     36.0633E-03    -289.379E-03     578.741E-03    -289.246E-03     33.1595E-03
            1438     8.76101E-03     91.2794E-03    -43.5970E+06     34.5416E+06     47.0356E+06     774.995E+03    -288.935E-03     578.461E-03    -289.526E-03     33.8477E-03    -289.340E-03     578.697E-03    -289.277E-03     31.8225E-03
            1439     8.08680E-03     91.2230E-03    -50.4797E+06     12.7353E+06     36.6734E+06     1.04977E+06    -288.966E-03     578.516E-03    -289.550E-03     31.4245E-03    -289.338E-03     578.647E-03    -289.312E-03     30.1901E-03
            1440     7.41265E-03     91.1699E-03    -57.5888E+06    -25.9990E+06     23.2721E+06     1.11816E+06    -289.060E-03     578.643E-03    -289.583E-03     28.9783E-03    -289.375E-03     578.594E-03    -289.346E-03     28.4155E-03
            1441     6.73856E-03     91.1200E-03    -64.8501E+06    -59.8693E+06     9.39939E+06     1.06227E+06    -289.132E-03     578.738E-03    -289.606E-03     26.5074E-03    -289.403E-03     578.539E-03    -289.378E-03     26.4944E-03
            1442     6.06451E-03     91.0738E-03    -72.2059E+06    -87.5399E+06    -4.73708E+06     1.00006E+06    -289.179E-03     578.797E-03    -289.617E-03     23.9426E-03    -289.419E-03     578.483E-03    -289.409E-03     24.3661E-03
            1443     5.39051E-03     91.0317E-03    -79.6113E+06    -112.274E+06    -19.5672E+06     921.876E+03    -289.219E-03     578.840E-03    -289.621E-03     21.3381E-03    -289.433E-03     578.429E-03    -289.440E-03     22.0794E-03
            1444     4.71655E-03     90.9938E-03    -86.9817E+06    -136.570E+06    -35.2300E+06     830.066E+03    -289.263E-03     578.882E-03    -289.618E-03     18.7205E-03    -289.452E-03     578.379E-03    -289.470E-03     19.6612E-03
            1445     4.04264E-03     90.9604E-03    -94.1709E+06    -159.101E+06    -51.5276E+06     730.057E+03    -289.308E-03     578.916E-03    -289.609E-03     16.0883E-03    -289.475E-03     578.334E-03    -289.499E-03     17.1204E-03
            1446     3.36877E-03     90.9318E-03    -100.969E+06    -179.817E+06    -68.0468E+06     611.350E+03    -289.354E-03     578.947E-03    -289.593E-03     13.4450E-03    -289.500E-03     578.293E-03    -289.526E-03     14.4700E-03
            1447     2.69495E-03     90.9080E-03    -107.121E+06    -198.812E+06    -83.9544E+06     484.298E+03    -289.402E-03     578.976E-03    -289.575E-03     10.7892E-03    -289.527E-03     578.259E-03    -289.551E-03     11.7214E-03
            1448     2.02117E-03     90.8893E-03    -112.343E+06    -215.041E+06    -98.2314E+06     367.138E+03    -289.447E-03     579.002E-03    -289.555E-03     8.12867E-03    -289.555E-03     578.232E-03    -289.572E-03     8.89753E-03
            1449     1.34742E-03     90.8758E-03    -116.369E+06    -227.869E+06    -109.595E+06     251.381E+03    -289.487E-03     579.026E-03    -289.539E-03     5.48456E-03    -289.579E-03     578.214E-03    -289.588E-03     6.03684E-03
            1450     673.706E-06     90.8674E-03    -118.977E+06    -235.991E+06    -117.129E+06     135.414E+03    -289.530E-03     579.042E-03    -289.512E-03     2.98524E-03    -289.612E-03     578.204E-03    -289.583E-03     3.29616E-03
            1451     12.8066E-03     89.9480E-03    -4.82960E+06     81.4428E+06     97.9770E+06     559.841E+03    -288.632E-03     578.131E-03    -289.499E-03     32.3867E-03    -289.085E-03     578.572E-03    -289.120E-03     26.3624E-03
            1452     12.1323E-03     89.8910E-03    -10.4466E+06     76.5329E+06     98.0764E+06     274.109E+03    -288.712E-03     578.248E-03    -289.536E-03     38.4245E-03    -289.228E-03     578.715E-03    -289.142E-03     31.9113E-03
            1453     11.4580E-03     89.8323E-03    -16.7392E+06     71.2178E+06     92.7174E+06    -137.417E+03    -288.776E-03     578.326E-03    -289.550E-03     38.5838E-03    -289.275E-03     578.749E-03    -289.166E-03     33.0605E-03
            1454     10.7837E-03     89.7710E-03    -23.2700E+06     66.8645E+06     82.0542E+06     8.43524E+03    -288.831E-03     578.369E-03    -289.539E-03     38.7571E-03    -289.318E-03     578.774E-03    -289.192E-03     33.9854E-03
            1455     10.1094E-03     89.7090E-03    -29.9103E+06     50.2474E+06     68.0759E+06     172.422E+03    -288.917E-03     578.447E-03    -289.530E-03     37.8150E-03    -289.364E-03     578.768E-03    -289.219E-03     33.9694E-03
            1456     9.43522E-03     89.6478E-03    -36.5411E+06     36.4339E+06     55.6135E+06     258.661E+03    -288.964E-03     578.490E-03    -289.526E-03     36.0664E-03    -289.375E-03     578.740E-03    -289.248E-03     33.1582E-03
            1457     8.76100E-03     89.5887E-03    -43.2700E+06     33.9187E+06     46.8640E+06     460.735E+03    -288.936E-03     578.463E-03    -289.527E-03     33.8545E-03    -289.339E-03     578.696E-03    -289.279E-03     31.8239E-03
            1458     8.08679E-03     89.5324E-03    -50.3098E+06     12.3842E+06     36.5024E+06     685.631E+03    -288.967E-03     578.518E-03    -289.551E-03     31.4340E-03    -289.337E-03     578.647E-03    -289.313E-03     30.1933E-03
            1459     7.41264E-03     89.4793E-03    -57.5290E+06     -25.763E+06     23.1762E+06     818.618E+03    -289.058E-03     578.642E-03    -289.584E-03     28.9849E-03    -289.374E-03     578.595E-03    -289.348E-03     28.4171E-03
            1460     6.73854E-03     89.4294E-03    -64.8201E+06    -59.5304E+06     9.31123E+06     822.816E+03    -289.130E-03     578.737E-03    -289.607E-03     26.5126E-03    -289.402E-03     578.541E-03    -289.380E-03     26.4955E-03
            1461     6.06449E-03     89.3832E-03    -72.1981E+06    -87.1446E+06    -4.82327E+06     783.867E+03    -289.179E-03     578.798E-03    -289.619E-03     23.9484E-03    -289.419E-03     578.486E-03    -289.412E-03     24.3679E-03
            1462     5.39049E-03     89.3411E-03    -79.6274E+06    -111.826E+06    -19.6522E+06     728.344E+03    -289.220E-03     578.842E-03    -289.623E-03     21.3435E-03    -289.434E-03     578.434E-03    -289.443E-03     22.0812E-03
            1463     4.71654E-03     89.3032E-03    -87.0114E+06    -136.105E+06    -35.3107E+06     668.627E+03    -289.264E-03     578.885E-03    -289.621E-03     18.7255E-03    -289.454E-03     578.385E-03    -289.474E-03     19.6630E-03
            1464     4.04263E-03     89.2698E-03    -94.2046E+06    -158.585E+06    -51.6016E+06     600.880E+03    -289.309E-03     578.920E-03    -289.611E-03     16.0928E-03    -289.477E-03     578.341E-03    -289.503E-03     17.1222E-03
            1465     3.36876E-03     89.2412E-03    -101.004E+06    -179.228E+06    -68.1158E+06     509.880E+03    -289.355E-03     578.951E-03    -289.596E-03     13.4488E-03    -289.502E-03     578.301E-03    -289.530E-03     14.4716E-03
            1466     2.69494E-03     89.2174E-03    -107.152E+06    -198.243E+06    -84.0079E+06     405.657E+03    -289.403E-03     578.981E-03    -289.577E-03     10.7919E-03    -289.530E-03     578.267E-03    -289.555E-03     11.7225E-03
            1467     2.02116E-03     89.1987E-03    -112.367E+06    -214.490E+06    -98.2676E+06     308.063E+03    -289.450E-03     579.008E-03    -289.558E-03     8.13107E-03    -289.558E-03     578.241E-03    -289.576E-03     8.89862E-03
            1468     1.34742E-03     89.1851E-03    -116.390E+06    -227.291E+06    -109.622E+06     212.671E+03    -289.490E-03     579.032E-03    -289.542E-03     5.48662E-03    -289.583E-03     578.223E-03    -289.592E-03     6.03801E-03
            1469     673.701E-06     89.1768E-03    -118.993E+06    -235.406E+06    -117.143E+06     118.025E+03    -289.533E-03     579.048E-03    -289.515E-03     2.98468E-03    -289.617E-03     578.213E-03    -289.587E-03     3.29548E-03
            1470     12.8066E-03     88.2573E-03    -4.88187E+06     80.6502E+06     97.7276E+06    -220.871E+03    -288.644E-03     578.144E-03    -289.500E-03     32.3826E-03    -289.096E-03     578.581E-03    -289.121E-03     26.3467E-03
            1471     12.1323E-03     88.2003E-03    -10.3411E+06     77.1628E+06     98.2558E+06     141.047E+03    -288.712E-03     578.249E-03    -289.537E-03     38.4227E-03    -289.229E-03     578.718E-03    -289.143E-03     31.9082E-03
            1472     11.4580E-03     88.1416E-03    -16.5651E+06     71.7138E+06     92.8325E+06     133.226E+03    -288.772E-03     578.323E-03    -289.551E-03     38.5863E-03    -289.271E-03     578.748E-03    -289.167E-03     33.0680E-03
            1473     10.7837E-03     88.0804E-03    -23.2115E+06     66.0150E+06     81.7536E+06     149.015E+03    -288.833E-03     578.373E-03    -289.540E-03     38.7673E-03    -289.319E-03     578.774E-03    -289.193E-03     33.9983E-03
            1474     10.1094E-03     88.0184E-03    -29.8079E+06     50.2624E+06     68.0016E+06     367.466E+03    -288.916E-03     578.447E-03    -289.531E-03     37.8222E-03    -289.362E-03     578.769E-03    -289.221E-03     33.9798E-03
            1475     9.43521E-03     87.9572E-03    -36.3979E+06     36.3410E+06     55.4812E+06     373.623E+03    -288.963E-03     578.490E-03    -289.527E-03     36.0710E-03    -289.373E-03     578.739E-03    -289.249E-03     33.1646E-03
            1476     8.76099E-03     87.8981E-03    -43.2063E+06     33.4876E+06     46.6272E+06     448.511E+03    -288.937E-03     578.465E-03    -289.528E-03     33.8617E-03    -289.338E-03     578.696E-03    -289.281E-03     31.8304E-03
            1477     8.08677E-03     87.8418E-03    -50.2831E+06     12.0918E+06     36.2812E+06     609.204E+03    -288.967E-03     578.519E-03    -289.552E-03     31.4407E-03    -289.336E-03     578.647E-03    -289.315E-03     30.1982E-03
            1478     7.41262E-03     87.7886E-03    -57.5343E+06    -25.6227E+06     23.0205E+06     665.107E+03    -289.057E-03     578.642E-03    -289.586E-03     28.9882E-03    -289.372E-03     578.596E-03    -289.350E-03     28.4176E-03
            1479     6.73852E-03     87.7388E-03    -64.8609E+06    -59.2991E+06     9.15932E+06     654.337E+03    -289.130E-03     578.739E-03    -289.609E-03     26.5157E-03    -289.402E-03     578.543E-03    -289.383E-03     26.4955E-03
            1480     6.06448E-03     87.6926E-03    -72.2522E+06    -86.8355E+06    -4.96508E+06     631.017E+03    -289.179E-03     578.800E-03    -289.621E-03     23.9529E-03    -289.420E-03     578.490E-03    -289.415E-03     24.3693E-03
            1481     5.39047E-03     87.6505E-03    -79.6881E+06    -111.481E+06    -19.7831E+06     588.117E+03    -289.221E-03     578.846E-03    -289.625E-03     21.3486E-03    -289.436E-03     578.439E-03    -289.447E-03     22.0832E-03
            1482     4.71652E-03     87.6126E-03    -87.0794E+06    -135.755E+06    -35.4384E+06     541.617E+03    -289.266E-03     578.889E-03    -289.623E-03     18.7307E-03    -289.457E-03     578.391E-03    -289.477E-03     19.6654E-03
            1483     4.04261E-03     87.5792E-03    -94.2757E+06    -158.179E+06    -51.7261E+06     490.366E+03    -289.311E-03     578.925E-03    -289.614E-03     16.0978E-03    -289.480E-03     578.347E-03    -289.506E-03     17.1248E-03
            1484     3.36875E-03     87.5505E-03    -101.070E+06    -178.743E+06    -68.2207E+06      416.36E+03    -289.358E-03     578.956E-03    -289.598E-03     13.4538E-03    -289.506E-03     578.308E-03    -289.534E-03     14.4745E-03
            1485     2.69493E-03     87.5268E-03    -107.216E+06    -197.767E+06    -84.0808E+06     327.257E+03    -289.407E-03     578.987E-03    -289.580E-03     10.7970E-03    -289.534E-03     578.275E-03    -289.558E-03     11.7255E-03
            1486     2.02116E-03     87.5081E-03    -112.433E+06    -214.035E+06    -98.3210E+06     243.738E+03    -289.453E-03     579.014E-03    -289.561E-03     8.13704E-03    -289.562E-03     578.250E-03    -289.580E-03     8.90268E-03
            1487     1.34741E-03     87.4945E-03    -116.456E+06    -226.817E+06    -109.673E+06     163.613E+03    -289.493E-03     579.038E-03    -289.545E-03     5.49247E-03    -289.588E-03     578.232E-03    -289.596E-03     6.04221E-03
            1488     673.702E-06     87.4862E-03    -119.062E+06    -234.937E+06    -117.204E+06     82.7103E+03    -289.536E-03     579.054E-03    -289.518E-03     2.98753E-03    -289.621E-03     578.222E-03    -289.590E-03     3.29730E-03
            1489     12.8065E-03     86.5667E-03    -5.43546E+06     80.1953E+06     97.2335E+06    -444.817E+03    -288.635E-03     578.135E-03    -289.500E-03     32.3799E-03    -289.089E-03     578.572E-03    -289.122E-03     26.3416E-03
            1490     12.1323E-03     86.5097E-03    -11.2429E+06     76.0642E+06     97.5599E+06    -220.367E+03    -288.708E-03     578.245E-03    -289.538E-03     38.4270E-03    -289.226E-03     578.711E-03    -289.144E-03     31.9077E-03
            1491     11.4580E-03     86.4510E-03    -17.4382E+06     71.9428E+06     92.4498E+06     145.531E+03    -288.763E-03     578.314E-03    -289.551E-03     38.5835E-03    -289.266E-03     578.742E-03    -289.168E-03     33.0657E-03
            1492     10.7837E-03     86.3898E-03    -23.8851E+06     65.7206E+06     81.2474E+06     183.320E+03    -288.829E-03     578.369E-03    -289.540E-03     38.7618E-03    -289.317E-03     578.770E-03    -289.195E-03     33.9936E-03
            1493     10.1094E-03     86.3277E-03    -30.3745E+06     50.0863E+06     67.5619E+06     184.604E+03    -288.915E-03     578.447E-03    -289.532E-03     37.8248E-03    -289.362E-03     578.768E-03    -289.223E-03     33.9793E-03
            1494     9.43518E-03     86.2666E-03    -36.8187E+06     36.3087E+06     55.1356E+06     303.214E+03    -288.962E-03     578.490E-03    -289.528E-03     36.0760E-03    -289.374E-03     578.740E-03    -289.252E-03     33.1679E-03
            1495     8.76097E-03     86.2075E-03    -43.4692E+06     33.2358E+06     46.3131E+06     401.117E+03    -288.937E-03     578.467E-03    -289.530E-03     33.8674E-03    -289.338E-03     578.698E-03    -289.283E-03     31.8344E-03
            1496     8.08675E-03     86.1512E-03    -50.4684E+06     11.9260E+06     36.0291E+06     488.829E+03    -288.967E-03     578.521E-03    -289.554E-03     31.4466E-03    -289.336E-03     578.649E-03    -289.318E-03     30.2012E-03
            1497     7.41260E-03     86.0980E-03    -57.6688E+06    -25.4600E+06     22.8395E+06     538.330E+03    -289.056E-03     578.643E-03    -289.587E-03     28.9917E-03    -289.372E-03     578.598E-03    -289.353E-03     28.4185E-03
            1498     6.73850E-03     86.0482E-03    -64.9723E+06    -59.1044E+06      8.9787E+06     520.438E+03    -289.130E-03     578.740E-03    -289.611E-03     26.5195E-03    -289.402E-03     578.546E-03    -289.386E-03     26.4965E-03
            1499     6.06446E-03     86.0020E-03    -72.3545E+06    -86.5913E+06    -5.14024E+06     490.308E+03    -289.179E-03     578.803E-03    -289.623E-03     23.9580E-03    -289.421E-03     578.494E-03    -289.418E-03     24.3712E-03
            1500     5.39045E-03     85.9599E-03    -79.7778E+06    -111.218E+06    -19.9414E+06     460.176E+03    -289.222E-03     578.849E-03    -289.627E-03     21.3543E-03    -289.437E-03     578.444E-03    -289.450E-03     22.0858E-03
            1501     4.71650E-03     85.9220E-03    -87.1562E+06    -135.474E+06    -35.5602E+06     427.048E+03    -289.267E-03     578.894E-03    -289.626E-03     18.7363E-03    -289.459E-03     578.398E-03    -289.481E-03     19.6681E-03
            1502     4.04260E-03     85.8886E-03    -94.3388E+06    -157.841E+06    -51.8230E+06     376.759E+03    -289.313E-03     578.930E-03    -289.617E-03     16.1032E-03    -289.483E-03     578.355E-03    -289.510E-03     17.1274E-03
            1503     3.36874E-03     85.8599E-03    -101.117E+06    -178.372E+06    -68.3254E+06     318.451E+03    -289.360E-03     578.962E-03    -289.602E-03     13.4589E-03    -289.509E-03     578.316E-03    -289.538E-03     14.4771E-03
            1504     2.69492E-03     85.8361E-03    -107.250E+06    -197.399E+06    -84.1839E+06     265.562E+03    -289.410E-03     578.993E-03    -289.584E-03     10.8020E-03    -289.538E-03     578.284E-03    -289.563E-03     11.7288E-03
            1505     2.02115E-03     85.8174E-03    -112.466E+06    -213.658E+06    -98.4029E+06     207.398E+03    -289.457E-03     579.022E-03    -289.565E-03     8.14297E-03    -289.566E-03     578.259E-03    -289.584E-03     8.90716E-03
            1506     1.34741E-03     85.8039E-03    -116.498E+06    -226.430E+06    -109.754E+06     141.918E+03    -289.497E-03     579.046E-03    -289.549E-03     5.49864E-03    -289.592E-03     578.242E-03    -289.600E-03     6.04728E-03
            1507     673.696E-06     85.7955E-03    -119.108E+06    -234.555E+06    -117.279E+06     83.2187E+03    -289.540E-03     579.062E-03    -289.522E-03     2.99119E-03    -289.625E-03     578.232E-03    -289.596E-03     3.30062E-03
            1508     12.8065E-03     84.8760E-03    -5.34551E+06     80.5951E+06     97.2206E+06     31.2247E+03    -288.627E-03     578.127E-03    -289.500E-03     32.3702E-03    -289.081E-03     578.566E-03    -289.123E-03     26.3409E-03
            1509     12.1322E-03     84.8190E-03    -11.2132E+06     75.4536E+06     97.2865E+06    -110.097E+03    -288.708E-03     578.246E-03    -289.539E-03     38.4157E-03    -289.225E-03     578.709E-03    -289.145E-03     31.8991E-03
            1510     11.4579E-03     84.7604E-03    -17.5020E+06     71.3964E+06     92.1918E+06    -15.2719E+03    -288.765E-03     578.317E-03    -289.552E-03     38.5758E-03    -289.267E-03     578.743E-03    -289.170E-03     33.0559E-03
            1511     10.7837E-03     84.6992E-03    -23.9911E+06     65.9875E+06     81.1654E+06     72.4634E+03    -288.825E-03     578.366E-03    -289.541E-03     38.7535E-03    -289.314E-03     578.769E-03    -289.196E-03     33.9837E-03
            1512     10.1094E-03     84.6371E-03    -30.5038E+06     49.9906E+06     67.3337E+06     15.6470E+03    -288.911E-03     578.444E-03    -289.533E-03     37.8173E-03    -289.359E-03     578.765E-03    -289.225E-03     33.9689E-03
            1513     9.43516E-03     84.5760E-03    -37.0024E+06     36.0322E+06     54.8484E+06     56.8440E+03    -288.960E-03     578.490E-03    -289.529E-03     36.0725E-03    -289.372E-03     578.739E-03    -289.254E-03     33.1599E-03
            1514     8.76094E-03     84.5169E-03    -43.6552E+06     33.0152E+06     46.0532E+06     182.878E+03    -288.936E-03     578.467E-03    -289.531E-03     33.8688E-03    -289.338E-03     578.698E-03    -289.286E-03     31.8315E-03
            1515     8.08673E-03     84.4606E-03    -50.6213E+06     11.7601E+06     35.7971E+06     299.617E+03    -288.966E-03     578.522E-03    -289.556E-03     31.4504E-03    -289.336E-03     578.650E-03    -289.321E-03     30.2011E-03
            1516     7.41257E-03     84.4074E-03    -57.8105E+06    -25.3683E+06     22.6726E+06     350.577E+03    -289.055E-03     578.644E-03    -289.590E-03     28.9955E-03    -289.372E-03     578.600E-03    -289.356E-03     28.4183E-03
            1517     6.73848E-03     84.3576E-03    -65.0905E+06    -58.9516E+06     8.83304E+06     351.484E+03    -289.129E-03     578.743E-03    -289.613E-03     26.5236E-03    -289.403E-03     578.550E-03    -289.389E-03     26.4970E-03
            1518     6.06443E-03     84.3114E-03    -72.4528E+06    -86.4192E+06    -5.27463E+06     339.870E+03    -289.180E-03     578.806E-03    -289.626E-03     23.9630E-03    -289.422E-03     578.499E-03    -289.422E-03     24.3728E-03
            1519     5.39043E-03     84.2692E-03    -79.8719E+06    -111.055E+06    -20.0635E+06     330.727E+03    -289.223E-03     578.853E-03    -289.630E-03     21.3598E-03    -289.439E-03     578.450E-03    -289.454E-03     22.0881E-03
            1520     4.71648E-03     84.2313E-03    -87.2449E+06    -135.207E+06    -35.6748E+06     295.902E+03    -289.269E-03     578.898E-03    -289.629E-03     18.7425E-03    -289.461E-03     578.404E-03    -289.485E-03     19.6712E-03
            1521     4.04258E-03     84.1980E-03    -94.4135E+06    -157.567E+06    -51.9219E+06     233.911E+03    -289.315E-03     578.936E-03    -289.620E-03     16.1104E-03    -289.485E-03     578.362E-03    -289.515E-03     17.1312E-03
            1522     3.36872E-03     84.1693E-03    -101.177E+06    -178.170E+06    -68.4197E+06     205.758E+03    -289.364E-03     578.969E-03    -289.605E-03     13.4656E-03    -289.512E-03     578.325E-03    -289.542E-03     14.4810E-03
            1523     2.69491E-03     84.1455E-03    -107.288E+06    -197.164E+06    -84.2944E+06     199.797E+03    -289.413E-03     579.001E-03    -289.587E-03     10.8075E-03    -289.542E-03     578.293E-03    -289.568E-03     11.7322E-03
            1524     2.02114E-03     84.1268E-03    -112.467E+06    -213.385E+06    -98.4998E+06     186.670E+03    -289.460E-03     579.029E-03    -289.569E-03     8.14788E-03    -289.570E-03     578.268E-03    -289.589E-03     8.91084E-03
            1525     1.34740E-03     84.1132E-03    -116.460E+06    -226.080E+06    -109.772E+06     154.221E+03    -289.501E-03     579.055E-03    -289.553E-03     5.50281E-03    -289.596E-03     578.252E-03    -289.606E-03     6.05083E-03
            1526     673.693E-06     84.1049E-03    -119.045E+06    -234.168E+06    -117.212E+06     84.1310E+03    -289.545E-03     579.072E-03    -289.527E-03     2.99316E-03    -289.631E-03     578.244E-03    -289.601E-03     3.30209E-03
            1527     12.8065E-03     83.1854E-03    -5.12760E+06     81.0497E+06     97.4758E+06     187.088E+03    -288.632E-03     578.133E-03    -289.502E-03     32.3588E-03    -289.085E-03     578.573E-03    -289.124E-03     26.3333E-03
            1528     12.1322E-03     83.1284E-03    -10.7931E+06     75.7219E+06     97.4808E+06     62.0904E+03    -288.708E-03     578.248E-03    -289.539E-03     38.4011E-03    -289.224E-03     578.711E-03    -289.146E-03     31.8884E-03
            1529     11.4579E-03     83.0697E-03    -17.0334E+06     70.9733E+06     92.2114E+06     42.2401E+03    -288.766E-03     578.320E-03    -289.553E-03     38.5677E-03    -289.265E-03     578.743E-03    -289.171E-03     33.0492E-03
            1530     10.7836E-03     83.0085E-03    -23.5547E+06     66.1193E+06     81.3359E+06     92.7646E+03    -288.825E-03     578.367E-03    -289.542E-03     38.7498E-03    -289.312E-03     578.769E-03    -289.198E-03     33.9804E-03
            1531     10.1094E-03     82.9465E-03    -30.1485E+06     49.9770E+06     67.4266E+06     120.007E+03    -288.911E-03     578.445E-03    -289.534E-03     37.8144E-03    -289.357E-03     578.766E-03    -289.226E-03     33.9675E-03
            1532     9.43515E-03     82.8853E-03    -36.7656E+06     36.0223E+06     54.8555E+06     112.275E+03    -288.958E-03     578.489E-03    -289.531E-03     36.0708E-03    -289.369E-03     578.738E-03    -289.255E-03     33.1587E-03
            1533     8.76093E-03     82.8263E-03    -43.5448E+06     32.7868E+06     45.9508E+06     104.410E+03    -288.935E-03     578.468E-03    -289.533E-03     33.8703E-03    -289.335E-03     578.697E-03    -289.288E-03     31.8311E-03
            1534     8.08671E-03     82.7699E-03    -50.5834E+06     11.6292E+06     35.6969E+06     160.979E+03    -288.965E-03     578.523E-03    -289.558E-03     31.4529E-03    -289.334E-03     578.650E-03    -289.323E-03     30.2006E-03
            1535     7.41256E-03     82.7168E-03    -57.7894E+06    -25.3369E+06     22.6071E+06     192.307E+03    -289.054E-03     578.645E-03    -289.592E-03     28.9985E-03    -289.370E-03     578.602E-03    -289.358E-03     28.4179E-03
            1536     6.73846E-03     82.6669E-03    -65.0953E+06    -58.8870E+06     8.77654E+06     202.542E+03    -289.129E-03     578.745E-03    -289.616E-03     26.5278E-03    -289.402E-03     578.553E-03    -289.392E-03     26.4977E-03
            1537     6.06441E-03     82.6207E-03    -72.4835E+06    -86.3489E+06    -5.33082E+06     216.918E+03    -289.181E-03     578.809E-03    -289.629E-03     23.9679E-03    -289.422E-03     578.503E-03    -289.425E-03     24.3747E-03
            1538     5.39041E-03     82.5786E-03    -79.9130E+06    -110.928E+06    -20.1242E+06     213.128E+03    -289.223E-03     578.857E-03    -289.634E-03     21.3664E-03    -289.440E-03     578.455E-03    -289.458E-03     22.0918E-03
            1539     4.71646E-03     82.5407E-03    -87.2866E+06    -134.947E+06    -35.7467E+06     162.625E+03    -289.270E-03     578.902E-03    -289.633E-03     18.7505E-03    -289.462E-03     578.410E-03    -289.489E-03     19.6759E-03
            1540     4.04256E-03     82.5073E-03    -94.4677E+06    -157.401E+06    -51.9992E+06     115.005E+03    -289.317E-03     578.942E-03    -289.624E-03     16.1183E-03    -289.488E-03     578.369E-03    -289.519E-03     17.1360E-03
            1541     3.36870E-03     82.4786E-03    -101.258E+06    -178.108E+06    -68.4747E+06     113.244E+03    -289.367E-03     578.977E-03    -289.610E-03     13.4734E-03    -289.516E-03     578.333E-03    -289.547E-03     14.4860E-03
            1542     2.69489E-03     82.4548E-03    -107.398E+06    -197.055E+06    -84.3240E+06     127.683E+03    -289.417E-03     579.009E-03    -289.592E-03     10.8149E-03    -289.546E-03     578.302E-03    -289.573E-03     11.7373E-03
            1543     2.02113E-03     82.4361E-03    -112.616E+06    -213.283E+06    -98.5309E+06     158.756E+03    -289.465E-03     579.039E-03    -289.574E-03     8.15399E-03    -289.576E-03     578.278E-03    -289.594E-03     8.91554E-03
            1544     1.34740E-03     82.4225E-03    -116.642E+06    -225.687E+06    -109.917E+06     153.270E+03    -289.505E-03     579.062E-03    -289.557E-03     5.50813E-03    -289.601E-03     578.262E-03    -289.611E-03     6.05535E-03
            1545     673.690E-06     82.4142E-03    -119.218E+06    -233.803E+06    -117.416E+06     45.1103E+03    -289.549E-03     579.080E-03    -289.531E-03     2.99796E-03    -289.636E-03     578.254E-03    -289.606E-03     3.30567E-03
            1546     12.8065E-03     81.4947E-03    -5.05485E+06     80.8572E+06     97.4640E+06     55.6046E+03    -288.638E-03     578.141E-03    -289.503E-03     32.3596E-03    -289.090E-03     578.580E-03    -289.125E-03     26.3331E-03
            1547     12.1322E-03     81.4377E-03    -10.8292E+06     75.8401E+06     97.4977E+06     237.976E+03    -288.710E-03     578.250E-03    -289.540E-03     38.4005E-03    -289.226E-03     578.714E-03    -289.147E-03     31.8917E-03
            1548     11.4579E-03     81.3791E-03    -17.1835E+06     71.0807E+06     92.1963E+06     202.957E+03    -288.765E-03     578.320E-03    -289.555E-03     38.5644E-03    -289.265E-03     578.743E-03    -289.172E-03     33.0490E-03
            1549     10.7836E-03     81.3179E-03    -23.7558E+06     66.1041E+06     81.2621E+06     143.883E+03    -288.822E-03     578.366E-03    -289.544E-03     38.7448E-03    -289.310E-03     578.768E-03    -289.199E-03     33.9765E-03
            1550     10.1094E-03     81.2559E-03    -30.2800E+06     49.9740E+06     67.3704E+06     152.413E+03    -288.908E-03     578.443E-03    -289.536E-03     37.8120E-03    -289.354E-03     578.765E-03    -289.227E-03     33.9655E-03
            1551     9.43513E-03     81.1947E-03    -36.7517E+06     36.1452E+06     54.8797E+06     139.865E+03    -288.956E-03     578.489E-03    -289.532E-03     36.0720E-03    -289.367E-03     578.738E-03    -289.257E-03     33.1598E-03
            1552     8.76091E-03     81.1356E-03    -43.4160E+06     32.8001E+06     45.9882E+06     116.675E+03    -288.934E-03     578.469E-03    -289.535E-03     33.8731E-03    -289.334E-03     578.698E-03    -289.290E-03     31.8333E-03
            1553     8.08670E-03     81.0793E-03    -50.4269E+06     11.5403E+06     35.7147E+06     114.824E+03    -288.964E-03     578.524E-03    -289.560E-03     31.4576E-03    -289.332E-03     578.651E-03    -289.325E-03     30.2035E-03
            1554     7.41253E-03     81.0262E-03    -57.6684E+06    -25.3135E+06     22.6235E+06     139.863E+03    -289.052E-03     578.647E-03    -289.595E-03     29.0038E-03    -289.369E-03     578.603E-03    -289.361E-03     28.4212E-03
            1555     6.73844E-03     80.9763E-03    -65.0049E+06    -58.8612E+06     8.78066E+06     144.519E+03    -289.129E-03     578.748E-03    -289.619E-03     26.5336E-03    -289.401E-03     578.555E-03    -289.396E-03     26.5014E-03
            1556     6.06439E-03     80.9301E-03    -72.4074E+06    -86.3200E+06    -5.32314E+06     147.682E+03    -289.181E-03     578.813E-03    -289.632E-03     23.9750E-03    -289.422E-03     578.507E-03    -289.429E-03     24.3795E-03
            1557     5.39039E-03     80.8880E-03    -79.8439E+06    -110.779E+06    -20.1204E+06     124.962E+03    -289.224E-03     578.861E-03    -289.637E-03     21.3752E-03    -289.440E-03     578.460E-03    -289.462E-03     22.0979E-03
            1558     4.71644E-03     80.8500E-03    -87.2344E+06    -134.772E+06    -35.7492E+06     86.4623E+03    -289.271E-03     578.908E-03    -289.637E-03     18.7601E-03    -289.464E-03     578.416E-03    -289.494E-03     19.6830E-03
            1559     4.04254E-03     80.8166E-03    -94.4440E+06    -157.346E+06    -51.9939E+06     75.7634E+03    -289.320E-03     578.949E-03    -289.629E-03     16.1278E-03    -289.490E-03     578.376E-03    -289.524E-03     17.1434E-03
            1560     3.36869E-03     80.7879E-03    -101.264E+06    -178.087E+06    -68.4612E+06     85.6520E+03    -289.369E-03     578.985E-03    -289.615E-03     13.4826E-03    -289.519E-03     578.341E-03    -289.553E-03     14.4935E-03
            1561     2.69488E-03     80.7642E-03    -107.443E+06    -197.034E+06    -84.2981E+06     108.085E+03    -289.421E-03     579.019E-03    -289.598E-03     10.8246E-03    -289.550E-03     578.312E-03    -289.578E-03     11.7455E-03
            1562     2.02112E-03     80.7454E-03    -112.705E+06    -213.256E+06    -98.4981E+06     141.442E+03    -289.470E-03     579.050E-03    -289.580E-03     8.16487E-03    -289.581E-03     578.290E-03    -289.600E-03     8.92505E-03
            1563     1.34739E-03     80.7318E-03    -116.753E+06    -225.313E+06    -110.007E+06     137.224E+03    -289.510E-03     579.073E-03    -289.563E-03     5.51859E-03    -289.607E-03     578.275E-03    -289.617E-03     6.06474E-03
            1564     673.685E-06     80.7235E-03    -119.314E+06    -233.465E+06    -117.575E+06     68.2746E+03    -289.554E-03     579.091E-03    -289.537E-03     3.00403E-03    -289.642E-03     578.267E-03    -289.613E-03     3.31161E-03
            1565     12.8065E-03     79.8041E-03    -5.39860E+06     80.6133E+06     97.1498E+06     65.7174E+03    -288.635E-03     578.138E-03    -289.503E-03     32.3450E-03    -289.088E-03     578.577E-03    -289.127E-03     26.3202E-03
            1566     12.1322E-03     79.7471E-03    -11.0019E+06     75.6160E+06     97.3234E+06     80.3794E+03    -288.712E-03     578.254E-03    -289.542E-03     38.3919E-03    -289.228E-03     578.717E-03    -289.149E-03     31.8816E-03
            1567     11.4579E-03     79.6885E-03    -17.0124E+06     71.3071E+06     92.2901E+06     133.463E+03    -288.766E-03     578.322E-03    -289.556E-03     38.5618E-03    -289.266E-03     578.747E-03    -289.173E-03     33.0458E-03
            1568     10.7836E-03     79.6273E-03    -23.3833E+06     66.0861E+06     81.4211E+06     129.550E+03    -288.824E-03     578.369E-03    -289.545E-03     38.7454E-03    -289.310E-03     578.771E-03    -289.200E-03     33.9771E-03
            1569     10.1094E-03     79.5653E-03    -29.9058E+06     49.8997E+06     67.5298E+06     183.248E+03    -288.908E-03     578.446E-03    -289.538E-03     37.8123E-03    -289.353E-03     578.766E-03    -289.229E-03     33.9660E-03
            1570     9.43511E-03     79.5041E-03    -36.4865E+06     36.3512E+06     55.0449E+06     177.613E+03    -288.954E-03     578.488E-03    -289.534E-03     36.0738E-03    -289.364E-03     578.738E-03    -289.259E-03     33.1616E-03
            1571     8.76089E-03     79.4450E-03    -43.2542E+06     32.8131E+06     46.0531E+06     141.793E+03    -288.932E-03     578.469E-03    -289.537E-03     33.8797E-03    -289.331E-03     578.698E-03    -289.292E-03     31.8395E-03
            1572     8.08667E-03     79.3887E-03    -50.3219E+06     11.5393E+06     35.7469E+06     168.536E+03    -288.963E-03     578.525E-03    -289.563E-03     31.4654E-03    -289.330E-03     578.652E-03    -289.328E-03     30.2109E-03
            1573     7.41251E-03     79.3355E-03    -57.5792E+06    -25.2500E+06     22.6631E+06     151.023E+03    -289.051E-03     578.649E-03    -289.597E-03     29.0121E-03    -289.367E-03     578.605E-03    -289.364E-03     28.4284E-03
            1574     6.73841E-03     79.2857E-03    -64.9168E+06    -58.8182E+06     8.80067E+06     135.723E+03    -289.128E-03     578.750E-03    -289.622E-03     26.5427E-03    -289.400E-03     578.558E-03    -289.399E-03     26.5091E-03
            1575     6.06437E-03     79.2395E-03    -72.3215E+06    -86.2277E+06    -5.31494E+06     111.420E+03    -289.180E-03     578.816E-03    -289.636E-03     23.9851E-03    -289.421E-03     578.510E-03    -289.433E-03     24.3877E-03
            1576     5.39037E-03     79.1973E-03    -79.7632E+06    -110.659E+06    -20.1158E+06     79.7937E+03    -289.224E-03     578.866E-03    -289.642E-03     21.3869E-03    -289.441E-03     578.465E-03    -289.466E-03     22.1074E-03
            1577     4.71642E-03     79.1594E-03    -87.1608E+06    -134.723E+06    -35.7571E+06     77.4729E+03    -289.273E-03     578.914E-03    -289.641E-03     18.7721E-03    -289.465E-03     578.422E-03    -289.499E-03     19.6932E-03
            1578     4.04252E-03     79.1260E-03    -94.3718E+06    -157.330E+06    -51.9952E+06     91.9152E+03    -289.322E-03     578.957E-03    -289.635E-03     16.1396E-03    -289.492E-03     578.384E-03    -289.530E-03     17.1540E-03
            1579     3.36867E-03     79.0973E-03    -101.190E+06    -178.063E+06    -68.4320E+06     103.633E+03    -289.373E-03     578.995E-03    -289.622E-03     13.4946E-03    -289.522E-03     578.351E-03    -289.559E-03     14.5043E-03
            1580     2.69486E-03     79.0735E-03    -107.358E+06    -197.008E+06    -84.2567E+06     112.258E+03    -289.425E-03     579.031E-03    -289.605E-03     10.8369E-03    -289.554E-03     578.323E-03    -289.585E-03     11.7565E-03
            1581     2.02110E-03     79.0547E-03    -112.593E+06    -213.164E+06    -98.4281E+06     108.206E+03    -289.476E-03     579.064E-03    -289.588E-03     8.17682E-03    -289.587E-03     578.304E-03    -289.608E-03     8.93510E-03
            1582     1.34737E-03     79.0411E-03    -116.616E+06    -225.069E+06    -109.862E+06     88.4674E+03    -289.517E-03     579.089E-03    -289.571E-03     5.52822E-03    -289.615E-03     578.292E-03    -289.625E-03     6.07250E-03
            1583     673.680E-06     79.0327E-03    -119.159E+06    -233.154E+06    -117.383E+06     64.5669E+03    -289.563E-03     579.108E-03    -289.545E-03     3.00893E-03    -289.650E-03     578.285E-03    -289.621E-03     3.31588E-03
            1584     12.8065E-03     78.1134E-03    -5.01949E+06     80.7323E+06     97.3649E+06     190.607E+03    -288.639E-03     578.144E-03    -289.505E-03     32.3308E-03    -289.091E-03     578.582E-03    -289.128E-03     26.3095E-03
            1585     12.1322E-03     78.0564E-03    -10.8182E+06     76.0623E+06     97.4759E+06    -28.1777E+03    -288.708E-03     578.251E-03    -289.542E-03     38.3782E-03    -289.224E-03     578.716E-03    -289.150E-03     31.8676E-03
            1586     11.4579E-03     77.9978E-03    -17.0690E+06     71.2005E+06     92.2138E+06    -231.383E+03    -288.763E-03     578.320E-03    -289.557E-03     38.5573E-03    -289.262E-03     578.744E-03    -289.174E-03     33.0361E-03
            1587     10.7836E-03     77.9367E-03    -23.4806E+06     65.6313E+06     81.2586E+06    -17.0895E+03    -288.821E-03     578.368E-03    -289.547E-03     38.7430E-03    -289.307E-03     578.768E-03    -289.202E-03     33.9726E-03
            1588     10.1093E-03     77.8747E-03    -29.9698E+06     49.6640E+06     67.4561E+06     226.179E+03    -288.906E-03     578.445E-03    -289.540E-03     37.8156E-03    -289.351E-03     578.765E-03    -289.231E-03     33.9698E-03
            1589     9.43510E-03     77.8135E-03    -36.5006E+06     36.5338E+06     55.0884E+06     298.012E+03    -288.950E-03     578.487E-03    -289.537E-03     36.0817E-03    -289.361E-03     578.738E-03    -289.261E-03     33.1708E-03
            1590     8.76086E-03     77.7544E-03    -43.2473E+06     32.9156E+06     46.0781E+06     266.801E+03    -288.929E-03     578.469E-03    -289.540E-03     33.8884E-03    -289.329E-03     578.698E-03    -289.295E-03     31.8490E-03
            1591     8.08665E-03     77.6981E-03    -50.2878E+06     11.6544E+06     35.7809E+06     194.076E+03    -288.961E-03     578.526E-03    -289.566E-03     31.4759E-03    -289.329E-03     578.654E-03    -289.331E-03     30.2205E-03
            1592     7.41249E-03     77.6449E-03    -57.5137E+06    -25.1491E+06     22.6989E+06     160.132E+03    -289.050E-03     578.651E-03    -289.601E-03     29.0236E-03    -289.366E-03     578.607E-03    -289.368E-03     28.4386E-03
            1593     6.73839E-03     77.5950E-03    -64.8440E+06    -58.7378E+06     8.83317E+06     135.049E+03    -289.127E-03     578.753E-03    -289.626E-03     26.5553E-03    -289.399E-03     578.561E-03    -289.403E-03     26.5200E-03
            1594     6.06434E-03     77.5488E-03    -72.2502E+06    -86.0997E+06    -5.29855E+06     106.840E+03    -289.180E-03     578.820E-03    -289.640E-03     23.9989E-03    -289.421E-03     578.515E-03    -289.437E-03     24.3997E-03
            1595     5.39034E-03     77.5066E-03    -79.7041E+06    -110.589E+06    -20.1146E+06     85.0168E+03    -289.225E-03     578.872E-03    -289.647E-03     21.4008E-03    -289.441E-03     578.471E-03    -289.471E-03     22.1197E-03
            1596     4.71639E-03     77.4687E-03    -87.1056E+06    -134.733E+06    -35.7582E+06     88.7451E+03    -289.275E-03     578.922E-03    -289.647E-03     18.7853E-03    -289.467E-03     578.430E-03    -289.504E-03     19.7050E-03
            1597     4.04249E-03     77.4353E-03    -94.3015E+06    -157.319E+06    -52.0015E+06     107.630E+03    -289.325E-03     578.966E-03    -289.641E-03     16.1519E-03    -289.495E-03     578.393E-03    -289.536E-03     17.1649E-03
            1598     3.36864E-03     77.4066E-03    -101.096E+06    -178.026E+06    -68.4200E+06     121.760E+03    -289.377E-03     579.006E-03    -289.629E-03     13.5061E-03    -289.526E-03     578.362E-03    -289.566E-03     14.5145E-03
            1599     2.69484E-03     77.3828E-03    -107.250E+06    -196.897E+06    -84.1724E+06     111.188E+03    -289.431E-03     579.044E-03    -289.613E-03     10.8485E-03    -289.560E-03     578.337E-03    -289.593E-03     11.7663E-03
            1600     2.02108E-03     77.3640E-03    -112.498E+06    -213.005E+06    -98.3032E+06     69.9201E+03    -289.483E-03     579.079E-03    -289.596E-03     8.18851E-03    -289.594E-03     578.320E-03    -289.616E-03     8.94443E-03
            1601     1.34736E-03     77.3504E-03    -116.543E+06    -224.928E+06    -109.778E+06     31.5428E+03    -289.525E-03     579.106E-03    -289.580E-03     5.53832E-03    -289.623E-03     578.309E-03    -289.634E-03     6.08029E-03
            1602     673.673E-06     77.3420E-03    -119.105E+06    -232.991E+06    -117.339E+06     9.82822E+03    -289.571E-03     579.126E-03    -289.554E-03     3.01504E-03    -289.659E-03     578.303E-03    -289.630E-03     3.32034E-03
            1603     12.8065E-03     76.4227E-03    -5.16552E+06     80.5082E+06     97.2354E+06     27.2742E+03    -288.639E-03     578.145E-03    -289.506E-03     32.3245E-03    -289.091E-03     578.582E-03    -289.129E-03     26.3020E-03
            1604     12.1322E-03     76.3658E-03    -10.7320E+06     76.9311E+06     97.7079E+06     1.78063E+03    -288.703E-03     578.247E-03    -289.543E-03     38.3764E-03    -289.220E-03     578.715E-03    -289.151E-03     31.8674E-03
            1605     11.4579E-03     76.3072E-03    -16.9664E+06     71.2199E+06     92.2157E+06    -156.380E+03    -288.759E-03     578.318E-03    -289.558E-03     38.5575E-03    -289.258E-03     578.742E-03    -289.176E-03     33.0382E-03
            1606     10.7836E-03     76.2460E-03    -23.5659E+06     64.6375E+06     80.9434E+06     7.71257E+03    -288.821E-03     578.370E-03    -289.549E-03     38.7439E-03    -289.306E-03     578.765E-03    -289.204E-03     33.9742E-03
            1607     10.1093E-03     76.1840E-03    -30.1459E+06     49.5248E+06     67.3345E+06     246.994E+03    -288.901E-03     578.443E-03    -289.542E-03     37.8146E-03    -289.347E-03     578.762E-03    -289.233E-03     33.9690E-03
            1608     9.43506E-03     76.1229E-03    -36.6528E+06     36.6517E+06     55.0486E+06     225.026E+03    -288.946E-03     578.485E-03    -289.539E-03     36.0845E-03    -289.357E-03     578.736E-03    -289.264E-03     33.1716E-03
            1609     8.76085E-03     76.0638E-03    -43.2672E+06     33.1142E+06     46.1023E+06     164.084E+03    -288.925E-03     578.468E-03    -289.543E-03     33.8984E-03    -289.325E-03     578.698E-03    -289.298E-03     31.8561E-03
            1610     8.08662E-03     76.0074E-03    -50.2203E+06     11.7214E+06     35.7888E+06     161.656E+03    -288.958E-03     578.527E-03    -289.569E-03     31.4883E-03    -289.325E-03     578.654E-03    -289.335E-03     30.2309E-03
            1611     7.41246E-03     75.9543E-03    -57.4439E+06    -25.0578E+06     22.7136E+06     165.508E+03    -289.047E-03     578.652E-03    -289.605E-03     29.0375E-03    -289.363E-03     578.609E-03    -289.372E-03     28.4509E-03
            1612     6.73836E-03     75.9044E-03    -64.7798E+06    -58.6529E+06     8.84966E+06     154.176E+03    -289.125E-03     578.756E-03    -289.631E-03     26.5714E-03    -289.398E-03     578.565E-03    -289.408E-03     26.5345E-03
            1613     6.06431E-03     75.8582E-03    -72.2003E+06    -86.0023E+06    -5.27495E+06     143.720E+03    -289.180E-03     578.826E-03    -289.646E-03     24.0161E-03    -289.421E-03     578.521E-03    -289.443E-03     24.4155E-03
            1614     5.39031E-03     75.8160E-03    -79.6675E+06    -110.522E+06    -20.0906E+06     132.967E+03    -289.228E-03     578.880E-03    -289.653E-03     21.4178E-03    -289.444E-03     578.479E-03    -289.477E-03     22.1355E-03
            1615     4.71636E-03     75.7780E-03    -87.0861E+06    -134.708E+06    -35.7332E+06     125.914E+03    -289.279E-03     578.933E-03    -289.654E-03     18.8002E-03    -289.471E-03     578.441E-03    -289.511E-03     19.7186E-03
            1616     4.04246E-03     75.7446E-03    -94.3035E+06    -157.296E+06    -51.9747E+06     127.295E+03    -289.330E-03     578.978E-03    -289.648E-03     16.1644E-03    -289.500E-03     578.405E-03    -289.543E-03     17.1761E-03
            1617     3.36862E-03     75.7158E-03    -101.120E+06    -178.009E+06    -68.4145E+06     147.929E+03    -289.382E-03     579.019E-03    -289.636E-03     13.5173E-03    -289.531E-03     578.375E-03    -289.573E-03     14.5244E-03
            1618     2.69482E-03     75.6920E-03    -107.286E+06    -196.657E+06    -84.2462E+06     125.337E+03    -289.436E-03     579.057E-03    -289.620E-03     10.8609E-03    -289.565E-03     578.351E-03    -289.601E-03     11.7772E-03
            1619     2.02106E-03     75.6732E-03    -112.520E+06    -212.792E+06    -98.3818E+06     33.4981E+03    -289.489E-03     579.094E-03    -289.604E-03     8.20378E-03    -289.600E-03     578.335E-03    -289.625E-03     8.95743E-03
            1620     1.34735E-03     75.6596E-03    -116.550E+06    -224.908E+06    -109.801E+06     1.51047E+03    -289.533E-03     579.123E-03    -289.589E-03     5.55254E-03    -289.631E-03     578.327E-03    -289.643E-03     6.09243E-03
            1621     673.667E-06     75.6512E-03    -119.113E+06    -232.926E+06    -117.358E+06     13.9781E+03    -289.580E-03     579.145E-03    -289.565E-03     3.02306E-03    -289.668E-03     578.323E-03    -289.641E-03     3.32755E-03
            1622     12.8065E-03     74.7321E-03    -5.11846E+06     80.6256E+06     97.1727E+06    -142.746E+03    -288.631E-03     578.137E-03    -289.506E-03     32.3122E-03    -289.083E-03     578.575E-03    -289.130E-03     26.2887E-03
            1623     12.1321E-03     74.6752E-03    -10.8362E+06     76.8774E+06     97.5404E+06    -152.430E+03    -288.696E-03     578.241E-03    -289.544E-03     38.3665E-03    -289.213E-03     578.709E-03    -289.153E-03     31.8566E-03
            1624     11.4579E-03     74.6166E-03    -17.0633E+06     71.2522E+06     92.0930E+06     12.2994E+03    -288.756E-03     578.315E-03    -289.560E-03     38.5501E-03    -289.255E-03     578.740E-03    -289.178E-03     33.0341E-03
            1625     10.7836E-03     74.5554E-03    -23.4994E+06     64.1300E+06     80.8260E+06     43.2896E+03    -288.823E-03     578.374E-03    -289.551E-03     38.7410E-03    -289.306E-03     578.767E-03    -289.206E-03     33.9720E-03
            1626     10.1093E-03     74.4934E-03    -29.8977E+06     49.2734E+06     67.3926E+06     122.483E+03    -288.901E-03     578.445E-03    -289.544E-03     37.8185E-03    -289.345E-03     578.763E-03    -289.235E-03     33.9702E-03
            1627     9.43505E-03     74.4323E-03    -36.3331E+06     36.9576E+06     55.2116E+06     151.393E+03    -288.940E-03     578.482E-03    -289.542E-03     36.0938E-03    -289.351E-03     578.734E-03    -289.267E-03     33.1787E-03
            1628     8.76080E-03     74.3732E-03    -43.0820E+06     33.0328E+06     46.0864E+06     149.651E+03    -288.920E-03     578.466E-03    -289.546E-03     33.9122E-03    -289.319E-03     578.696E-03    -289.301E-03     31.8683E-03
            1629     8.08659E-03     74.3168E-03    -50.1715E+06     11.7302E+06     35.7399E+06     215.488E+03    -288.953E-03     578.526E-03    -289.573E-03     31.5033E-03    -289.321E-03     578.654E-03    -289.339E-03     30.2452E-03
            1630     7.41242E-03     74.2636E-03    -57.4447E+06    -24.9944E+06     22.6578E+06     223.912E+03    -289.043E-03     578.653E-03    -289.610E-03     29.0540E-03    -289.359E-03     578.611E-03    -289.377E-03     28.4665E-03
            1631     6.73831E-03     74.2137E-03    -64.8086E+06    -58.5549E+06     8.80403E+06     215.186E+03    -289.123E-03     578.760E-03    -289.637E-03     26.5908E-03    -289.396E-03     578.569E-03    -289.414E-03     26.5526E-03
            1632     6.06427E-03     74.1675E-03    -72.2383E+06    -85.9140E+06    -5.31047E+06     195.763E+03    -289.181E-03     578.834E-03    -289.652E-03     24.0375E-03    -289.423E-03     578.529E-03    -289.450E-03     24.4355E-03
            1633     5.39027E-03     74.1253E-03    -79.7024E+06    -110.444E+06    -20.1122E+06     184.256E+03    -289.232E-03     578.892E-03    -289.660E-03     21.4378E-03    -289.448E-03     578.491E-03    -289.485E-03     22.1540E-03
            1634     4.71632E-03     74.0873E-03    -87.1146E+06    -134.632E+06    -35.7375E+06     176.759E+03    -289.284E-03     578.946E-03    -289.661E-03     18.8174E-03    -289.477E-03     578.454E-03    -289.519E-03     19.7343E-03
            1635     4.04243E-03     74.0539E-03    -94.3364E+06    -157.241E+06    -51.9635E+06     174.894E+03    -289.336E-03     578.992E-03    -289.656E-03     16.1806E-03    -289.506E-03     578.420E-03    -289.551E-03     17.1908E-03
            1636     3.36859E-03     74.0251E-03    -101.158E+06    -177.959E+06    -68.4032E+06     175.284E+03    -289.389E-03     579.033E-03    -289.644E-03     13.5345E-03    -289.538E-03     578.390E-03    -289.582E-03     14.5400E-03
            1637     2.69480E-03     74.0012E-03    -107.307E+06    -196.348E+06    -84.3281E+06     132.795E+03    -289.442E-03     579.071E-03    -289.628E-03     10.8779E-03    -289.572E-03     578.367E-03    -289.610E-03     11.7929E-03
            1638     2.02104E-03     73.9824E-03    -112.532E+06    -212.558E+06    -98.5036E+06     53.2837E+03    -289.497E-03     579.109E-03    -289.613E-03     8.21779E-03    -289.608E-03     578.353E-03    -289.634E-03     8.97046E-03
            1639     1.34734E-03     73.9688E-03    -116.577E+06    -224.934E+06    -109.858E+06     14.9069E+03    -289.543E-03     579.142E-03    -289.598E-03     5.56165E-03    -289.640E-03     578.345E-03    -289.653E-03     6.10064E-03
            1640     673.658E-06     73.9603E-03    -119.142E+06    -232.857E+06    -117.385E+06     15.5490E+03    -289.589E-03     579.163E-03    -289.574E-03     3.02597E-03    -289.677E-03     578.341E-03    -289.650E-03     3.33007E-03
            1641     12.8064E-03     73.0414E-03    -5.13484E+06     80.9778E+06     97.2001E+06    -185.141E+03    -288.625E-03     578.132E-03    -289.507E-03     32.2980E-03    -289.077E-03     578.571E-03    -289.131E-03     26.2755E-03
            1642     12.1321E-03     72.9845E-03    -10.7995E+06     76.4596E+06     97.3980E+06    -168.523E+03    -288.694E-03     578.239E-03    -289.545E-03     38.3481E-03    -289.209E-03     578.706E-03    -289.154E-03     31.8394E-03
            1643     11.4578E-03     72.9260E-03    -16.9850E+06     70.8459E+06     91.9682E+06    -8.39298E+03    -288.752E-03     578.313E-03    -289.561E-03     38.5330E-03    -289.250E-03     578.735E-03    -289.179E-03     33.0173E-03
            1644     10.7835E-03     72.8648E-03    -23.4788E+06     64.3298E+06     80.8120E+06     55.8960E+03    -288.813E-03     578.366E-03    -289.553E-03     38.7335E-03    -289.297E-03     578.760E-03    -289.208E-03     33.9645E-03
            1645     10.1093E-03     72.8028E-03    -30.0429E+06     49.0854E+06     67.1907E+06    -21.8942E+03    -288.892E-03     578.439E-03    -289.546E-03     37.8260E-03    -289.336E-03     578.756E-03    -289.238E-03     33.9749E-03
            1646     9.43500E-03     72.7417E-03    -36.5921E+06     36.6884E+06     54.9653E+06     145.368E+03    -288.933E-03     578.478E-03    -289.545E-03     36.1088E-03    -289.344E-03     578.730E-03    -289.270E-03     33.1924E-03
            1647     8.76078E-03     72.6826E-03    -43.3266E+06     32.9983E+06     45.9077E+06     308.053E+03    -288.914E-03     578.464E-03    -289.550E-03     33.9281E-03    -289.315E-03     578.695E-03    -289.305E-03     31.8849E-03
            1648     8.08654E-03     72.6262E-03    -50.3737E+06     11.7722E+06     35.5756E+06     290.213E+03    -288.947E-03     578.525E-03    -289.578E-03     31.5181E-03    -289.316E-03     578.653E-03    -289.344E-03     30.2590E-03
            1649     7.41237E-03     72.5730E-03    -57.6093E+06    -24.8708E+06     22.5278E+06     269.183E+03    -289.038E-03     578.653E-03    -289.615E-03     29.0706E-03    -289.355E-03     578.612E-03    -289.383E-03     28.4817E-03
            1650     6.73827E-03     72.5231E-03    -64.9299E+06    -58.4327E+06     8.69542E+06     231.164E+03    -289.122E-03     578.765E-03    -289.643E-03     26.6110E-03    -289.395E-03     578.575E-03    -289.421E-03     26.5711E-03
            1651     6.06422E-03     72.4768E-03    -72.3193E+06    -85.8127E+06    -5.39339E+06     208.881E+03    -289.183E-03     578.843E-03    -289.660E-03     24.0576E-03    -289.425E-03     578.539E-03    -289.457E-03     24.4531E-03
            1652     5.39022E-03     72.4346E-03    -79.7559E+06    -110.359E+06    -20.1707E+06     196.028E+03    -289.235E-03     578.903E-03    -289.668E-03     21.4582E-03    -289.452E-03     578.503E-03    -289.493E-03     22.1716E-03
            1653     4.71628E-03     72.3966E-03    -87.1464E+06    -134.548E+06    -35.7817E+06     191.188E+03    -289.289E-03     578.959E-03    -289.670E-03     18.8394E-03    -289.481E-03     578.468E-03    -289.527E-03     19.7540E-03
            1654     4.04239E-03     72.3631E-03    -94.3374E+06    -157.150E+06    -51.9917E+06     185.173E+03    -289.342E-03     579.008E-03    -289.665E-03     16.2042E-03    -289.513E-03     578.436E-03    -289.560E-03     17.2123E-03
            1655     3.36856E-03     72.3343E-03    -101.126E+06    -177.821E+06    -68.4001E+06     162.531E+03    -289.398E-03     579.052E-03    -289.654E-03     13.5573E-03    -289.547E-03     578.409E-03    -289.591E-03     14.5605E-03
            1656     2.69477E-03     72.3105E-03    -107.266E+06    -196.128E+06    -84.2800E+06     135.107E+03    -289.455E-03     579.092E-03    -289.638E-03     10.8960E-03    -289.584E-03     578.389E-03    -289.619E-03     11.8091E-03
            1657     2.02103E-03     72.2916E-03    -112.486E+06    -212.350E+06    -98.4346E+06     106.627E+03    -289.510E-03     579.131E-03    -289.621E-03     8.22931E-03    -289.621E-03     578.375E-03    -289.642E-03     8.98116E-03
            1658     1.34733E-03     72.2779E-03    -116.519E+06    -224.818E+06    -109.799E+06     62.7871E+03    -289.554E-03     579.159E-03    -289.606E-03     5.56661E-03    -289.651E-03     578.363E-03    -289.660E-03     6.10528E-03
            1659     673.658E-06     72.2695E-03    -119.092E+06    -232.761E+06    -117.342E+06     23.9776E+03    -289.597E-03     579.175E-03    -289.578E-03     3.02662E-03    -289.685E-03     578.354E-03    -289.655E-03     3.33041E-03
            1660     12.8064E-03     71.3508E-03    -5.29569E+06     81.2514E+06     97.2113E+06    -124.510E+03    -288.619E-03     578.127E-03    -289.507E-03     32.2768E-03    -289.073E-03     578.568E-03    -289.132E-03     26.2569E-03
            1661     12.1321E-03     71.2939E-03    -11.0870E+06     76.1419E+06     97.2359E+06    -138.710E+03    -288.688E-03     578.235E-03    -289.546E-03     38.3331E-03    -289.205E-03     578.700E-03    -289.155E-03     31.8260E-03
            1662     11.4578E-03     71.2353E-03    -17.3933E+06     70.2973E+06     91.6845E+06     46.2331E+03    -288.742E-03     578.305E-03    -289.562E-03     38.5291E-03    -289.241E-03     578.725E-03    -289.181E-03     33.0150E-03
            1663     10.7835E-03     71.1742E-03    -23.9228E+06     64.5981E+06     80.6224E+06     120.347E+03    -288.797E-03     578.351E-03    -289.554E-03     38.7321E-03    -289.283E-03     578.747E-03    -289.210E-03     33.9643E-03
            1664     10.1092E-03     71.1122E-03    -30.4797E+06     49.1395E+06     66.9205E+06     89.6227E+03    -288.879E-03     578.428E-03    -289.549E-03     37.8246E-03    -289.325E-03     578.746E-03    -289.241E-03     33.9748E-03
            1665     9.43498E-03     71.0511E-03    -37.0246E+06     36.2146E+06     54.5984E+06     104.254E+03    -288.927E-03     578.475E-03    -289.548E-03     36.1127E-03    -289.339E-03     578.726E-03    -289.274E-03     33.1942E-03
            1666     8.76072E-03     70.9920E-03    -43.6591E+06     32.9843E+06     45.7071E+06     163.492E+03    -288.908E-03     578.462E-03    -289.554E-03     33.9377E-03    -289.309E-03     578.693E-03    -289.310E-03     31.8893E-03
            1667     8.08650E-03     70.9355E-03    -50.5724E+06     11.8643E+06     35.4637E+06     188.140E+03    -288.941E-03     578.524E-03    -289.583E-03     31.5312E-03    -289.311E-03     578.653E-03    -289.349E-03     30.2678E-03
            1668     7.41232E-03     70.8824E-03    -57.7259E+06    -24.7680E+06     22.4286E+06     169.000E+03    -289.035E-03     578.656E-03    -289.621E-03     29.0863E-03    -289.353E-03     578.616E-03    -289.389E-03     28.4932E-03
            1669     6.73821E-03     70.8324E-03    -64.9929E+06    -58.3340E+06     8.60642E+06     162.051E+03    -289.121E-03     578.771E-03    -289.650E-03     26.6274E-03    -289.394E-03     578.581E-03    -289.428E-03     26.5829E-03
            1670     6.06417E-03     70.7861E-03    -72.3553E+06    -85.7422E+06    -5.48175E+06     158.090E+03    -289.182E-03     578.849E-03    -289.667E-03     24.0779E-03    -289.424E-03     578.546E-03    -289.465E-03     24.4691E-03
            1671     5.39018E-03     70.7438E-03    -79.7701E+06    -110.301E+06    -20.2433E+06     166.118E+03    -289.235E-03     578.911E-03    -289.676E-03     21.4820E-03    -289.452E-03     578.512E-03    -289.502E-03     22.1918E-03
            1672     4.71623E-03     70.7058E-03    -87.1419E+06    -134.463E+06    -35.8135E+06     166.074E+03    -289.292E-03     578.971E-03    -289.680E-03     18.8634E-03    -289.484E-03     578.481E-03    -289.538E-03     19.7747E-03
            1673     4.04235E-03     70.6723E-03    -94.3211E+06    -157.039E+06    -51.9912E+06     150.637E+03    -289.350E-03     579.026E-03    -289.676E-03     16.2269E-03    -289.521E-03     578.455E-03    -289.571E-03     17.2316E-03
            1674     3.36852E-03     70.6435E-03    -101.111E+06    -177.685E+06    -68.3753E+06     135.315E+03    -289.411E-03     579.076E-03    -289.665E-03     13.5778E-03    -289.560E-03     578.434E-03    -289.603E-03     14.5776E-03
            1675     2.69474E-03     70.6196E-03    -107.249E+06    -195.984E+06    -84.2297E+06     115.131E+03    -289.469E-03     579.118E-03    -289.648E-03     10.9145E-03    -289.600E-03     578.415E-03    -289.630E-03     11.8243E-03
            1676     2.02101E-03     70.6007E-03    -112.453E+06    -212.182E+06    -98.3662E+06     88.2376E+03    -289.523E-03     579.153E-03    -289.630E-03     8.24472E-03    -289.635E-03     578.398E-03    -289.651E-03     8.99376E-03
            1677     1.34732E-03     70.5871E-03    -116.468E+06    -224.640E+06    -109.723E+06     64.6333E+03    -289.563E-03     579.177E-03    -289.613E-03     5.57680E-03    -289.661E-03     578.382E-03    -289.667E-03     6.11403E-03
            1678     673.653E-06     70.5786E-03    -119.023E+06    -232.608E+06    -117.263E+06     40.0512E+03    -289.605E-03     579.190E-03    -289.584E-03     3.03316E-03    -289.693E-03     578.369E-03    -289.661E-03     3.33656E-03
            1679     12.8064E-03     69.6601E-03    -5.23611E+06     81.2193E+06     97.2194E+06     229.621E+03    -288.614E-03     578.122E-03    -289.508E-03     32.2686E-03    -289.067E-03     578.563E-03    -289.132E-03     26.2557E-03
            1680     12.1321E-03     69.6033E-03    -11.1568E+06     76.2859E+06     97.2080E+06     241.562E+03    -288.678E-03     578.226E-03    -289.547E-03     38.3264E-03    -289.195E-03     578.692E-03    -289.156E-03     31.8265E-03
            1681     11.4578E-03     69.5448E-03    -17.4198E+06     70.4145E+06     91.6813E+06    -27.4906E+03    -288.733E-03     578.297E-03    -289.564E-03     38.5305E-03    -289.232E-03     578.719E-03    -289.183E-03     33.0154E-03
            1682     10.7835E-03     69.4836E-03    -23.7478E+06     64.3016E+06       80.63E+06    -31.8504E+03    -288.793E-03     578.350E-03    -289.557E-03     38.7332E-03    -289.278E-03     578.744E-03    -289.212E-03     33.9632E-03
            1683     10.1092E-03     69.4216E-03    -30.1627E+06     49.0303E+06     67.0245E+06     174.437E+03    -288.876E-03     578.428E-03    -289.552E-03     37.8203E-03    -289.321E-03     578.745E-03    -289.244E-03     33.9702E-03
            1684     9.43493E-03     69.3605E-03    -36.6710E+06     36.4249E+06     54.7811E+06     147.637E+03    -288.919E-03     578.471E-03    -289.552E-03     36.1144E-03    -289.331E-03     578.722E-03    -289.277E-03     33.1930E-03
            1685     8.76070E-03     69.3013E-03    -43.3970E+06     32.9488E+06     45.7699E+06     43.2858E+03    -288.900E-03     578.458E-03    -289.558E-03     33.9508E-03    -289.301E-03     578.689E-03    -289.314E-03     31.8970E-03
            1686     8.08645E-03     69.2449E-03    -50.4067E+06     11.8351E+06     35.4637E+06     58.2789E+03    -288.938E-03     578.526E-03    -289.588E-03     31.5463E-03    -289.307E-03     578.655E-03    -289.355E-03     30.2773E-03
            1687     7.41228E-03     69.1917E-03    -57.6094E+06    -24.7427E+06     22.4354E+06     96.4999E+03    -289.033E-03     578.660E-03    -289.627E-03     29.1044E-03    -289.350E-03     578.620E-03    -289.395E-03     28.5057E-03
            1688     6.73818E-03     69.1417E-03    -64.9287E+06    -58.2932E+06     8.59831E+06     104.895E+03    -289.118E-03     578.774E-03    -289.656E-03     26.6529E-03    -289.391E-03     578.585E-03    -289.435E-03     26.6029E-03
            1689     6.06412E-03     69.0954E-03    -72.3126E+06    -85.7156E+06    -5.49587E+06     112.705E+03    -289.181E-03     578.856E-03    -289.675E-03     24.1040E-03    -289.423E-03     578.552E-03    -289.473E-03     24.4900E-03
            1690     5.39012E-03     69.0531E-03    -79.7267E+06    -110.275E+06    -20.2582E+06     119.142E+03    -289.236E-03     578.922E-03    -289.685E-03     21.5032E-03    -289.453E-03     578.523E-03    -289.511E-03     22.2080E-03
            1691     4.71618E-03     69.0150E-03    -87.0857E+06    -134.404E+06    -35.8179E+06     126.768E+03    -289.297E-03     578.987E-03    -289.690E-03     18.8814E-03    -289.489E-03     578.497E-03    -289.548E-03     19.7877E-03
            1692     4.04230E-03     68.9815E-03    -94.2603E+06    -156.939E+06    -51.9618E+06     125.968E+03    -289.359E-03     579.046E-03    -289.687E-03     16.2453E-03    -289.529E-03     578.475E-03    -289.582E-03     17.2449E-03
            1693     3.36848E-03     68.9527E-03    -101.046E+06    -177.569E+06    -68.3284E+06     106.288E+03    -289.421E-03     579.097E-03    -289.676E-03     13.5978E-03    -289.571E-03     578.456E-03    -289.614E-03     14.5927E-03
            1694     2.69471E-03     68.9287E-03    -107.179E+06    -195.862E+06    -84.1977E+06     86.1823E+03    -289.481E-03     579.140E-03    -289.659E-03     10.9346E-03    -289.611E-03     578.438E-03    -289.641E-03     11.8403E-03
            1695     2.02099E-03     68.9098E-03    -112.396E+06    -212.058E+06    -98.3473E+06     72.1062E+03    -289.534E-03     579.175E-03    -289.641E-03     8.26061E-03    -289.646E-03     578.421E-03    -289.663E-03     9.00703E-03
            1696     1.34730E-03     68.8962E-03    -116.429E+06    -224.500E+06    -109.697E+06     53.4065E+03    -289.574E-03     579.199E-03    -289.625E-03     5.58561E-03    -289.672E-03     578.404E-03    -289.679E-03     6.12152E-03
            1697     673.644E-06     68.8877E-03    -118.994E+06    -232.447E+06    -117.232E+06     27.3617E+03    -289.617E-03     579.213E-03    -289.596E-03     3.03885E-03    -289.705E-03     578.393E-03    -289.672E-03     3.34119E-03
            1698     12.8064E-03     67.9695E-03    -5.04511E+06     80.8430E+06     97.1679E+06     111.028E+03    -288.612E-03     578.122E-03    -289.510E-03     32.2628E-03    -289.064E-03     578.560E-03    -289.134E-03     26.2499E-03
            1699     12.1321E-03     67.9127E-03    -10.3939E+06     76.6451E+06     97.5331E+06     124.579E+03    -288.675E-03     578.224E-03    -289.549E-03     38.3178E-03    -289.189E-03     578.691E-03    -289.157E-03     31.8172E-03
            1700     11.4578E-03     67.8542E-03    -16.4930E+06     70.8201E+06     92.0704E+06     112.031E+03    -288.732E-03     578.298E-03    -289.566E-03     38.5235E-03    -289.227E-03     578.719E-03    -289.185E-03     33.0106E-03
            1701     10.7835E-03     67.7931E-03    -23.1656E+06     63.7643E+06     80.7314E+06     183.712E+03    -288.796E-03     578.356E-03    -289.559E-03     38.7303E-03    -289.277E-03     578.747E-03    -289.215E-03     33.9625E-03
            1702     10.1092E-03     67.7311E-03    -29.8292E+06     48.9185E+06     67.1784E+06     275.212E+03    -288.872E-03     578.427E-03    -289.555E-03     37.8293E-03    -289.315E-03     578.743E-03    -289.247E-03     33.9781E-03
            1703     9.43492E-03     67.6699E-03    -36.3901E+06     36.8082E+06     54.9831E+06     246.254E+03    -288.911E-03     578.466E-03    -289.555E-03     36.1329E-03    -289.322E-03     578.719E-03    -289.281E-03     33.2092E-03
            1704     8.76064E-03     67.6108E-03    -43.1332E+06     33.0265E+06     45.8631E+06     198.980E+03    -288.895E-03     578.458E-03    -289.563E-03     33.9696E-03    -289.295E-03     578.688E-03    -289.319E-03     31.9138E-03
            1705     8.08642E-03     67.5543E-03    -50.2208E+06     11.8588E+06     35.4909E+06     176.758E+03    -288.932E-03     578.525E-03    -289.593E-03     31.5702E-03    -289.300E-03     578.654E-03    -289.360E-03     30.2982E-03
            1706     7.41224E-03     67.5010E-03    -57.5072E+06    -24.7007E+06     22.4358E+06     146.454E+03    -289.028E-03     578.662E-03    -289.633E-03     29.1356E-03    -289.345E-03     578.621E-03    -289.402E-03     28.5324E-03
            1707     6.73811E-03     67.4510E-03    -64.8406E+06    -58.2356E+06     8.64359E+06     127.861E+03    -289.117E-03     578.781E-03    -289.664E-03     26.6819E-03    -289.391E-03     578.593E-03    -289.442E-03     26.6264E-03
            1708     6.06407E-03     67.4047E-03    -72.2362E+06    -85.6756E+06    -5.44201E+06     109.279E+03    -289.184E-03     578.867E-03    -289.683E-03     24.1294E-03    -289.426E-03     578.564E-03    -289.482E-03     24.5092E-03
            1709     5.39008E-03     67.3623E-03    -79.6713E+06    -110.265E+06    -20.2481E+06     112.420E+03    -289.242E-03     578.936E-03    -289.694E-03     21.5275E-03    -289.458E-03     578.536E-03    -289.520E-03     22.2260E-03
            1710     4.71614E-03     67.3242E-03    -87.0639E+06    -134.409E+06    -35.8836E+06     141.349E+03    -289.302E-03     579.001E-03    -289.699E-03     18.9072E-03    -289.494E-03     578.511E-03    -289.557E-03     19.8077E-03
            1711     4.04226E-03     67.2907E-03    -94.2593E+06    -156.797E+06    -52.0890E+06     139.996E+03    -289.364E-03     579.060E-03    -289.696E-03     16.2751E-03    -289.534E-03     578.490E-03    -289.592E-03     17.2692E-03
            1712     3.36844E-03     67.2618E-03    -101.049E+06    -177.424E+06    -68.4385E+06     93.4340E+03    -289.428E-03     579.114E-03    -289.686E-03     13.6276E-03    -289.578E-03     578.474E-03    -289.625E-03     14.6173E-03
            1713     2.69468E-03     67.2378E-03    -107.181E+06    -195.817E+06    -84.2613E+06     81.3644E+03    -289.490E-03     579.161E-03    -289.671E-03     10.9563E-03    -289.620E-03     578.460E-03    -289.653E-03     11.8585E-03
            1714     2.02096E-03     67.2189E-03    -112.381E+06    -211.946E+06    -98.3772E+06     88.2583E+03    -289.545E-03     579.199E-03    -289.654E-03     8.27021E-03    -289.657E-03     578.445E-03    -289.675E-03     9.01521E-03
            1715     1.34728E-03     67.2052E-03    -116.392E+06    -224.357E+06    -109.699E+06     70.6682E+03    -289.587E-03     579.224E-03    -289.638E-03     5.58787E-03    -289.684E-03     578.430E-03    -289.692E-03     6.12343E-03
            1716     673.635E-06     67.1968E-03    -118.946E+06    -232.272E+06    -117.213E+06     49.5308E+03    -289.630E-03     579.239E-03    -289.610E-03     3.04101E-03    -289.718E-03     578.420E-03    -289.686E-03     3.34327E-03
            1717     12.8064E-03     66.2789E-03    -5.12635E+06     80.9374E+06     97.1471E+06    -121.124E+03    -288.599E-03     578.110E-03    -289.511E-03     32.2408E-03    -289.051E-03     578.549E-03    -289.135E-03     26.2279E-03
            1718     12.1321E-03     66.2221E-03    -11.0224E+06     76.4059E+06     97.2353E+06    -85.2270E+03    -288.670E-03     578.221E-03    -289.551E-03     38.3071E-03    -289.187E-03     578.687E-03    -289.159E-03     31.8059E-03
            1719     11.4577E-03     66.1636E-03    -17.3469E+06     70.2908E+06     91.6228E+06     236.212E+03    -288.728E-03     578.296E-03    -289.568E-03     38.5106E-03    -289.226E-03     578.716E-03    -289.187E-03     32.9976E-03
            1720     10.7834E-03     66.1024E-03    -23.7556E+06     63.8883E+06     80.5193E+06     378.563E+03    -288.781E-03     578.343E-03    -289.562E-03     38.7239E-03    -289.265E-03     578.735E-03    -289.217E-03     33.9557E-03
            1721     10.1091E-03     66.0405E-03    -30.1724E+06     49.0982E+06     67.0459E+06     220.532E+03    -288.857E-03     578.415E-03    -289.558E-03     37.8410E-03    -289.302E-03     578.733E-03    -289.250E-03     33.9867E-03
            1722     9.43485E-03     65.9793E-03    -36.6122E+06     36.7483E+06     54.8235E+06     232.683E+03    -288.903E-03     578.463E-03    -289.559E-03     36.1557E-03    -289.315E-03     578.716E-03    -289.285E-03     33.2283E-03
            1723     8.76063E-03     65.9201E-03    -43.3008E+06     33.1457E+06     45.7970E+06     302.742E+03    -288.888E-03     578.456E-03    -289.568E-03     34.0014E-03    -289.289E-03     578.688E-03    -289.324E-03     31.9419E-03
            1724     8.08636E-03     65.8637E-03    -50.3039E+06     12.0340E+06     35.5085E+06     258.139E+03    -288.926E-03     578.526E-03    -289.599E-03     31.6030E-03    -289.295E-03     578.656E-03    -289.366E-03     30.3262E-03
            1725     7.41217E-03     65.8104E-03    -57.4901E+06    -24.5413E+06     22.4589E+06     197.359E+03    -289.026E-03     578.667E-03    -289.640E-03     29.1661E-03    -289.343E-03     578.627E-03    -289.409E-03     28.5569E-03
            1726     6.73808E-03     65.7603E-03    -64.8031E+06    -58.1621E+06     8.60042E+06     158.639E+03    -289.119E-03     578.790E-03    -289.672E-03     26.7164E-03    -289.392E-03     578.602E-03    -289.450E-03     26.6545E-03
            1727     6.06402E-03     65.7139E-03    -72.2083E+06    -85.6545E+06    -5.52255E+06     174.905E+03    -289.186E-03     578.878E-03    -289.692E-03     24.1673E-03    -289.428E-03     578.575E-03    -289.490E-03     24.5412E-03
            1728     5.39003E-03     65.6715E-03    -79.6766E+06    -110.242E+06    -20.3053E+06     199.492E+03    -289.243E-03     578.946E-03    -289.704E-03     21.5706E-03    -289.459E-03     578.547E-03    -289.530E-03     22.2636E-03
            1729     4.71609E-03     65.6334E-03    -87.0867E+06    -134.365E+06    -35.8638E+06     198.838E+03    -289.304E-03     579.014E-03    -289.710E-03     18.9576E-03    -289.496E-03     578.524E-03    -289.568E-03     19.8525E-03
            1730     4.04222E-03     65.5998E-03    -94.2745E+06    -156.574E+06    -52.0380E+06     154.511E+03    -289.369E-03     579.077E-03    -289.708E-03     16.3264E-03    -289.540E-03     578.508E-03    -289.605E-03     17.3153E-03
            1731     3.36840E-03     65.5709E-03    -101.054E+06    -177.241E+06    -68.3624E+06     86.2633E+03    -289.438E-03     579.138E-03    -289.700E-03     13.6704E-03    -289.588E-03     578.498E-03    -289.638E-03     14.6561E-03
            1732     2.69464E-03     65.5469E-03    -107.183E+06    -195.778E+06    -84.1313E+06     44.7900E+03    -289.504E-03     579.189E-03    -289.685E-03     10.9859E-03    -289.634E-03     578.488E-03    -289.667E-03     11.8847E-03
            1733     2.02094E-03     65.5279E-03    -112.378E+06    -211.855E+06    -98.2597E+06     26.4576E+03    -289.559E-03     579.227E-03    -289.668E-03     8.28602E-03    -289.672E-03     578.473E-03    -289.689E-03     9.02866E-03
            1734     1.34727E-03     65.5142E-03    -116.372E+06    -224.262E+06    -109.609E+06     18.8581E+03    -289.601E-03     579.252E-03    -289.651E-03     5.59369E-03    -289.698E-03     578.458E-03    -289.706E-03     6.12792E-03
            1735     673.625E-06     65.5058E-03    -118.899E+06    -232.133E+06    -117.120E+06     7.98387E+03    -289.644E-03     579.266E-03    -289.623E-03     3.04340E-03    -289.732E-03     578.448E-03    -289.699E-03     3.34477E-03
            1736     12.8064E-03     64.5883E-03    -5.34504E+06     80.9859E+06     96.9708E+06     101.746E+03    -288.580E-03     578.090E-03    -289.510E-03     32.1938E-03    -289.032E-03     578.529E-03    -289.135E-03     26.1859E-03
            1737     12.1320E-03     64.5315E-03    -11.0152E+06     76.2592E+06     97.1284E+06     127.589E+03    -288.650E-03     578.201E-03    -289.551E-03     38.2711E-03    -289.166E-03     578.667E-03    -289.160E-03     31.7766E-03
            1738     11.4577E-03     64.4730E-03    -17.1610E+06     69.5946E+06     91.4786E+06     168.505E+03    -288.715E-03     578.285E-03    -289.570E-03     38.5102E-03    -289.211E-03     578.702E-03    -289.189E-03     32.9971E-03
            1739     10.7834E-03     64.4119E-03    -23.6062E+06     64.0329E+06     80.5734E+06     279.802E+03    -288.770E-03     578.334E-03    -289.564E-03     38.7326E-03    -289.254E-03     578.728E-03    -289.220E-03     33.9587E-03
            1740     10.1091E-03     64.3499E-03    -30.1483E+06     49.5479E+06     67.1630E+06     236.651E+03    -288.842E-03     578.403E-03    -289.562E-03     37.8515E-03    -289.288E-03     578.723E-03    -289.254E-03     33.9930E-03
            1741     9.43484E-03     64.2888E-03    -36.7134E+06     36.5246E+06     54.7280E+06     170.625E+03    -288.891E-03     578.456E-03    -289.565E-03     36.1822E-03    -289.303E-03     578.708E-03    -289.291E-03     33.2503E-03
            1742     8.76052E-03     64.2296E-03    -43.3609E+06     33.2020E+06     45.7522E+06     203.705E+03    -288.881E-03     578.455E-03    -289.574E-03     34.0332E-03    -289.282E-03     578.687E-03    -289.330E-03     31.9657E-03
            1743     8.08631E-03     64.1730E-03    -50.3111E+06     12.1514E+06     35.5297E+06     216.923E+03    -288.921E-03     578.528E-03    -289.607E-03     31.6414E-03    -289.291E-03     578.659E-03    -289.374E-03     30.3559E-03
            1744     7.41213E-03     64.1197E-03    -57.5548E+06    -24.4440E+06     22.4232E+06     235.243E+03    -289.022E-03     578.671E-03    -289.649E-03     29.2190E-03    -289.340E-03     578.632E-03    -289.418E-03     28.6027E-03
            1745     6.73800E-03     64.0696E-03    -64.9159E+06    -58.0814E+06     8.53786E+06     249.552E+03    -289.114E-03     578.795E-03    -289.681E-03     26.7746E-03    -289.388E-03     578.608E-03    -289.460E-03     26.7063E-03
            1746     6.06396E-03     64.0232E-03    -72.3435E+06    -85.5957E+06    -5.46936E+06     232.120E+03    -289.180E-03     578.884E-03    -289.704E-03     24.2308E-03    -289.422E-03     578.581E-03    -289.502E-03     24.5987E-03
            1747     5.38996E-03     63.9808E-03    -79.7667E+06    -110.085E+06    -20.0550E+06     179.239E+03    -289.239E-03     578.958E-03    -289.719E-03     21.6416E-03    -289.457E-03     578.560E-03    -289.544E-03     22.3287E-03
            1748     4.71602E-03     63.9426E-03    -87.1039E+06    -134.163E+06    -35.4430E+06     83.5451E+03    -289.309E-03     579.037E-03    -289.728E-03     19.0289E-03    -289.502E-03     578.547E-03    -289.584E-03     19.9171E-03
            1749     4.04214E-03     63.9089E-03    -94.2396E+06    -156.386E+06    -51.5373E+06     2.86841E+03    -289.381E-03     579.109E-03    -289.727E-03     16.3902E-03    -289.553E-03     578.540E-03    -289.622E-03     17.3723E-03
            1750     3.36834E-03     63.8799E-03    -100.998E+06    -177.084E+06    -67.9138E+06    -52.8759E+03    -289.453E-03     579.173E-03    -289.719E-03     13.7235E-03    -289.604E-03     578.533E-03    -289.656E-03     14.7032E-03
            1751     2.69459E-03     63.8558E-03    -107.132E+06    -195.734E+06    -83.8105E+06    -94.8885E+03    -289.520E-03     579.225E-03    -289.705E-03     11.0275E-03    -289.650E-03     578.523E-03    -289.684E-03     11.9215E-03
            1752     2.02090E-03     63.8369E-03    -112.365E+06    -211.851E+06    -98.0230E+06    -113.409E+03    -289.577E-03     579.264E-03    -289.687E-03     8.31541E-03    -289.689E-03     578.510E-03    -289.707E-03     9.05452E-03
            1753     1.34725E-03     63.8232E-03    -116.426E+06    -224.316E+06    -109.490E+06    -126.906E+03    -289.619E-03     579.289E-03    -289.671E-03     5.61344E-03    -289.717E-03     578.495E-03    -289.724E-03     6.14493E-03
            1754     673.619E-06     63.8147E-03    -119.021E+06    -232.318E+06    -117.195E+06    -101.646E+03    -289.662E-03     579.303E-03    -289.640E-03     3.05631E-03    -289.751E-03     578.484E-03    -289.717E-03     3.35567E-03
            1755     12.8064E-03     62.8977E-03    -5.01622E+06     80.7627E+06      97.144E+06     159.320E+03    -288.589E-03     578.099E-03    -289.510E-03     32.2014E-03    -289.040E-03     578.537E-03    -289.134E-03     26.1931E-03
            1756     12.1321E-03     62.8410E-03    -10.8000E+06     76.2323E+06     97.2254E+06     272.941E+03    -288.630E-03     578.181E-03    -289.551E-03     38.2591E-03    -289.144E-03     578.646E-03    -289.160E-03     31.7682E-03
            1757     11.4577E-03     62.7825E-03    -17.1468E+06     69.5885E+06     91.4151E+06     299.283E+03    -288.682E-03     578.253E-03    -289.571E-03     38.4974E-03    -289.178E-03     578.670E-03    -289.190E-03     32.9886E-03
            1758     10.7834E-03     62.7213E-03    -23.6325E+06     64.0466E+06     80.4930E+06     236.725E+03    -288.748E-03     578.315E-03    -289.567E-03     38.7443E-03    -289.231E-03     578.709E-03    -289.224E-03     33.9702E-03
            1759     10.1091E-03     62.6594E-03    -30.0878E+06     49.7377E+06     67.3493E+06     227.024E+03    -288.833E-03     578.401E-03    -289.567E-03     37.8809E-03    -289.280E-03     578.722E-03    -289.259E-03     34.0172E-03
            1760     9.43473E-03     62.5982E-03    -36.5500E+06     36.6584E+06     55.0557E+06     184.255E+03    -288.880E-03     578.452E-03    -289.572E-03     36.2135E-03    -289.292E-03     578.704E-03    -289.297E-03     33.2732E-03
            1761     8.76052E-03     62.5389E-03    -43.2826E+06     33.0624E+06     45.7642E+06     194.033E+03    -288.862E-03     578.444E-03    -289.582E-03     34.0806E-03    -289.263E-03     578.676E-03    -289.338E-03     32.0062E-03
            1762     8.08623E-03     62.4824E-03    -50.3798E+06     12.1099E+06     35.4616E+06     304.260E+03    -288.905E-03     578.521E-03    -289.616E-03     31.7096E-03    -289.274E-03     578.652E-03    -289.384E-03     30.4188E-03
            1763     7.41202E-03     62.4290E-03    -57.6389E+06    -24.2197E+06     22.7909E+06     264.683E+03    -289.008E-03     578.671E-03    -289.663E-03     29.3017E-03    -289.327E-03     578.633E-03    -289.430E-03     28.6775E-03
            1764     6.73793E-03     62.3789E-03    -64.9140E+06    -57.8113E+06     9.27061E+06     96.4326E+03    -289.103E-03     578.802E-03    -289.699E-03     26.8674E-03    -289.378E-03     578.615E-03    -289.475E-03     26.7894E-03
            1765     6.06385E-03     62.3324E-03    -72.1682E+06    -85.3716E+06    -4.58481E+06    -62.5031E+03    -289.178E-03     578.903E-03    -289.725E-03     24.3223E-03    -289.421E-03     578.600E-03    -289.520E-03     24.6801E-03
            1766     5.38985E-03     62.2899E-03    -79.4356E+06    -109.830E+06    -19.1731E+06    -207.529E+03    -289.249E-03     578.990E-03    -289.741E-03     21.7232E-03    -289.466E-03     578.591E-03    -289.563E-03     22.3988E-03
            1767     4.71591E-03     62.2517E-03    -86.6805E+06    -134.054E+06    -34.6874E+06    -292.274E+03    -289.326E-03     579.077E-03    -289.751E-03     19.0999E-03    -289.518E-03     578.586E-03    -289.604E-03     19.9760E-03
            1768     4.04206E-03     62.2179E-03    -93.7922E+06    -156.414E+06    -50.9285E+06    -295.324E+03    -289.400E-03     579.151E-03    -289.751E-03     16.4527E-03    -289.570E-03     578.581E-03    -289.643E-03     17.4240E-03
            1769     3.36826E-03     62.1889E-03    -100.570E+06    -177.139E+06    -67.4049E+06    -265.422E+03    -289.471E-03     579.215E-03    -289.744E-03     13.7801E-03    -289.620E-03     578.574E-03    -289.678E-03     14.7510E-03
            1770     2.69453E-03     62.1648E-03    -106.755E+06    -195.895E+06    -83.3918E+06    -208.594E+03    -289.539E-03     579.269E-03    -289.730E-03     11.0740E-03    -289.668E-03     578.566E-03    -289.708E-03     11.9619E-03
            1771     2.02085E-03     62.1458E-03    -112.039E+06    -211.920E+06    -97.8123E+06    -174.059E+03    -289.598E-03     579.311E-03    -289.714E-03     8.34872E-03    -289.709E-03     578.556E-03    -289.733E-03     9.08429E-03
            1772     1.34721E-03     62.1321E-03    -116.115E+06    -224.544E+06    -109.357E+06    -172.398E+03    -289.644E-03     579.342E-03    -289.699E-03     5.63705E-03    -289.740E-03     578.547E-03    -289.752E-03     6.16621E-03
            1773     673.592E-06     62.1236E-03    -118.714E+06    -232.789E+06    -116.948E+06    -100.244E+03    -289.692E-03     579.364E-03    -289.672E-03     3.07111E-03    -289.779E-03     578.542E-03    -289.747E-03     3.36944E-03
            1774     12.8064E-03     61.2071E-03    -5.16093E+06     80.3633E+06     96.9942E+06     6.44925E+03    -288.601E-03     578.115E-03    -289.514E-03     32.2515E-03    -289.052E-03     578.552E-03    -289.138E-03     26.2371E-03
            1775     12.1320E-03     61.1505E-03    -10.7337E+06     75.5512E+06     97.2146E+06     340.745E+03    -288.639E-03     578.195E-03    -289.555E-03     38.3163E-03    -289.153E-03     578.656E-03    -289.163E-03     31.8259E-03
            1776     11.4577E-03     61.0920E-03    -16.8642E+06     70.0846E+06     91.8633E+06     450.110E+03    -288.678E-03     578.254E-03    -289.576E-03     38.5450E-03    -289.174E-03     578.672E-03    -289.194E-03     33.0417E-03
            1777     10.7833E-03     61.0309E-03    -23.2961E+06     64.5015E+06     80.8367E+06     171.153E+03    -288.729E-03     578.302E-03    -289.572E-03     38.7650E-03    -289.213E-03     578.697E-03    -289.228E-03     33.9893E-03
            1778     10.1089E-03     60.9688E-03    -29.7246E+06     49.4904E+06     67.3902E+06     126.494E+03    -288.805E-03     578.379E-03    -289.574E-03     37.9126E-03    -289.249E-03     578.698E-03    -289.265E-03     34.0415E-03
            1779     9.43474E-03     60.9077E-03    -36.2779E+06     36.7209E+06     55.3357E+06     289.788E+03    -288.851E-03     578.433E-03    -289.582E-03     36.2928E-03    -289.263E-03     578.685E-03    -289.306E-03     33.3466E-03
            1780     8.76037E-03     60.8484E-03    -43.0498E+06     33.0452E+06     46.4597E+06     307.480E+03    -288.841E-03     578.438E-03    -289.597E-03     34.1782E-03    -289.242E-03     578.669E-03    -289.350E-03     32.1000E-03
            1781     8.08611E-03     60.7918E-03    -49.9443E+06     12.4955E+06     36.5540E+06     89.7784E+03    -288.885E-03     578.520E-03    -289.636E-03     31.8096E-03    -289.255E-03     578.651E-03    -289.398E-03     30.5097E-03
            1782     7.41192E-03     60.7384E-03    -56.8868E+06    -23.6472E+06     24.0410E+06    -246.671E+03    -288.996E-03     578.680E-03    -289.685E-03     29.4095E-03    -289.314E-03     578.643E-03    -289.448E-03     28.7709E-03
            1783     6.73775E-03     60.6882E-03    -63.8958E+06    -57.4542E+06     10.5639E+06    -502.190E+03    -289.107E-03     578.831E-03    -289.724E-03     26.9635E-03    -289.380E-03     578.643E-03    -289.496E-03     26.8688E-03
            1784     6.06370E-03     60.6416E-03    -71.0581E+06    -85.2180E+06    -3.40690E+06    -646.487E+03    -289.194E-03     578.945E-03    -289.751E-03     24.4038E-03    -289.434E-03     578.640E-03    -289.542E-03     24.7428E-03
            1785     5.38972E-03     60.5990E-03    -78.3781E+06    -110.025E+06    -18.2942E+06    -604.348E+03    -289.269E-03     579.037E-03    -289.768E-03     21.8032E-03    -289.482E-03     578.635E-03    -289.586E-03     22.4614E-03
            1786     4.71581E-03     60.5607E-03    -85.7932E+06    -134.309E+06    -34.1139E+06    -452.703E+03    -289.346E-03     579.124E-03    -289.777E-03     19.1800E-03    -289.535E-03     578.630E-03    -289.629E-03     20.0431E-03
            1787     4.04196E-03     60.5269E-03    -93.0929E+06    -156.708E+06    -50.5754E+06    -335.395E+03    -289.421E-03     579.199E-03    -289.778E-03     16.5263E-03    -289.588E-03     578.626E-03    -289.669E-03     17.4880E-03
            1788     3.36817E-03     60.4978E-03    -100.010E+06    -177.460E+06    -67.2096E+06    -214.953E+03    -289.494E-03     579.266E-03    -289.772E-03     13.8418E-03    -289.640E-03     578.622E-03    -289.705E-03     14.8058E-03
            1789     2.69445E-03     60.4736E-03    -106.256E+06    -196.123E+06    -83.2237E+06    -133.529E+03    -289.564E-03     579.324E-03    -289.760E-03     11.1211E-03    -289.690E-03     578.618E-03    -289.738E-03     12.0039E-03
            1790     2.02078E-03     60.4546E-03    -111.528E+06    -212.106E+06    -97.5483E+06    -77.7995E+03    -289.625E-03     579.371E-03    -289.746E-03     8.38013E-03    -289.734E-03     578.614E-03    -289.765E-03     9.11236E-03
            1791     1.34716E-03     60.4409E-03    -115.590E+06    -224.731E+06    -108.962E+06    -11.4346E+03    -289.676E-03     579.410E-03    -289.734E-03     5.65429E-03    -289.770E-03     578.612E-03    -289.785E-03     6.18242E-03
            1792     673.570E-06     60.4324E-03    -118.196E+06    -233.030E+06    -116.448E+06    -11.3441E+03    -289.729E-03     579.437E-03    -289.709E-03     3.07889E-03    -289.813E-03     578.612E-03    -289.782E-03     3.37645E-03
            1793     12.8063E-03     59.5164E-03    -5.12552E+06     80.3048E+06     96.6891E+06    -76.4960E+03    -288.559E-03     578.077E-03    -289.518E-03     32.2063E-03    -289.009E-03     578.513E-03    -289.143E-03     26.1923E-03
            1794     12.1319E-03     59.4599E-03    -10.6920E+06     74.8549E+06     96.8897E+06    -152.186E+03    -288.633E-03     578.195E-03    -289.562E-03     38.3237E-03    -289.145E-03     578.653E-03    -289.170E-03     31.8197E-03
            1795     11.4576E-03     59.4014E-03    -16.5496E+06     70.1328E+06     92.1885E+06    -20.8799E+03    -288.667E-03     578.252E-03    -289.585E-03     38.6112E-03    -289.163E-03     578.670E-03    -289.202E-03     33.0996E-03
            1796     10.7833E-03     59.3403E-03    -22.7983E+06     64.8635E+06     81.7198E+06     110.572E+03    -288.707E-03     578.292E-03    -289.585E-03     38.8857E-03    -289.190E-03     578.687E-03    -289.238E-03     34.1124E-03
            1797     10.1090E-03     59.2784E-03    -29.3635E+06     49.1693E+06     67.9886E+06     154.671E+03    -288.781E-03     578.370E-03    -289.589E-03     38.0469E-03    -289.224E-03     578.686E-03    -289.278E-03     34.1766E-03
            1798     9.43448E-03     59.2172E-03    -35.7709E+06     36.7992E+06     56.1258E+06     127.423E+03    -288.833E-03     578.432E-03    -289.600E-03     36.4015E-03    -289.243E-03     578.684E-03    -289.321E-03     33.4505E-03
            1799     8.76025E-03     59.1578E-03    -42.1065E+06     33.9531E+06     47.9932E+06    -284.503E+03    -288.830E-03     578.449E-03    -289.619E-03     34.2769E-03    -289.231E-03     578.682E-03    -289.368E-03     32.1809E-03
            1800     8.08595E-03     59.1012E-03    -48.6750E+06     13.3376E+06     38.0435E+06    -844.606E+03    -288.882E-03     578.542E-03    -289.660E-03     31.9121E-03    -289.249E-03     578.673E-03    -289.418E-03     30.5861E-03
            1801     7.41170E-03     59.0477E-03    -55.5272E+06    -23.6334E+06     24.8126E+06    -1.00293E+06    -289.003E-03     578.711E-03    -289.709E-03     29.4991E-03    -289.316E-03     578.671E-03    -289.470E-03     28.8367E-03
            1802     6.73761E-03     58.9973E-03    -62.7072E+06    -57.5248E+06     10.8134E+06    -888.896E+03    -289.114E-03     578.862E-03    -289.748E-03     27.0500E-03    -289.382E-03     578.672E-03    -289.520E-03     26.9364E-03
            1803     6.06356E-03     58.9507E-03    -70.1784E+06    -85.6547E+06    -3.45240E+06    -698.765E+03    -289.202E-03     578.979E-03    -289.777E-03     24.5082E-03    -289.437E-03     578.671E-03    -289.568E-03     24.8328E-03
            1804     5.38958E-03     58.9080E-03    -77.8435E+06    -110.920E+06    -18.4648E+06    -341.372E+03    -289.284E-03     579.081E-03    -289.797E-03     21.9182E-03    -289.494E-03     578.674E-03    -289.616E-03     22.5666E-03
            1805     4.71566E-03     58.8696E-03    -85.5052E+06    -134.752E+06    -34.2879E+06    -25.6527E+03    -289.367E-03     579.176E-03    -289.809E-03     19.2881E-03    -289.554E-03     578.680E-03    -289.661E-03     20.1453E-03
            1806     4.04182E-03     58.8357E-03    -92.9616E+06    -156.966E+06    -50.6957E+06     106.807E+03    -289.448E-03     579.259E-03    -289.812E-03     16.6185E-03    -289.613E-03     578.685E-03    -289.703E-03     17.5762E-03
            1807     3.36806E-03     58.8066E-03    -99.9808E+06    -177.626E+06    -67.2983E+06     150.052E+03    -289.525E-03     579.331E-03    -289.807E-03     13.9179E-03    -289.670E-03     578.687E-03    -289.741E-03     14.8782E-03
            1808     2.69436E-03     58.7823E-03    -106.299E+06    -196.142E+06    -83.3231E+06     157.950E+03    -289.595E-03     579.391E-03    -289.796E-03     11.1805E-03    -289.721E-03     578.685E-03    -289.774E-03     12.0602E-03
            1809     2.02071E-03     58.7633E-03    -111.672E+06    -212.174E+06    -97.5916E+06     168.078E+03    -289.659E-03     579.443E-03    -289.784E-03     8.42584E-03    -289.768E-03     578.685E-03    -289.803E-03     9.15594E-03
            1810     1.34711E-03     58.7495E-03    -115.801E+06    -224.597E+06    -109.041E+06     147.734E+03    -289.713E-03     579.486E-03    -289.773E-03     5.68880E-03    -289.808E-03     578.689E-03    -289.825E-03     6.21526E-03
            1811     673.546E-06     58.7410E-03    -118.405E+06    -232.817E+06    -116.648E+06     90.9958E+03    -289.767E-03     579.515E-03    -289.748E-03     3.09876E-03    -289.853E-03     578.692E-03    -289.822E-03     3.39583E-03
            1812     12.8062E-03     57.8259E-03    -5.14705E+06     80.5680E+06     96.6992E+06    -49.0812E+03    -288.451E-03     577.969E-03    -289.517E-03     32.0784E-03    -288.901E-03     578.405E-03    -289.143E-03     26.0713E-03
            1813     12.1318E-03     57.7693E-03    -10.8922E+06     75.2922E+06     96.7015E+06    -231.260E+03    -288.532E-03     578.098E-03    -289.566E-03     38.2642E-03    -289.045E-03     578.559E-03    -289.176E-03     31.7621E-03
            1814     11.4575E-03     57.7110E-03    -17.2524E+06     69.9167E+06     91.6529E+06    -505.522E+03    -288.597E-03     578.191E-03    -289.594E-03     38.6313E-03    -289.095E-03     578.610E-03    -289.212E-03     33.1106E-03
            1815     10.7830E-03     57.6499E-03    -23.5845E+06     64.6916E+06     81.5183E+06    -540.044E+03    -288.666E-03     578.266E-03    -289.601E-03     38.9223E-03    -289.152E-03     578.662E-03    -289.253E-03     34.1404E-03
            1816     10.1086E-03     57.5879E-03    -29.5389E+06     49.3983E+06     69.0015E+06    -686.334E+03    -288.776E-03     578.388E-03    -289.611E-03     38.0873E-03    -289.223E-03     578.705E-03    -289.295E-03     34.1988E-03
            1817     9.43442E-03     57.5266E-03     -35.439E+06     37.3215E+06     57.5659E+06    -1.11824E+06    -288.836E-03     578.460E-03    -289.624E-03     36.4658E-03    -289.248E-03     578.712E-03    -289.339E-03     33.4808E-03
            1818     8.76002E-03     57.4672E-03    -41.6385E+06     35.0660E+06     48.7224E+06    -1.53056E+06    -288.816E-03     578.457E-03    -289.641E-03     34.3552E-03    -289.217E-03     578.693E-03    -289.388E-03     32.2221E-03
            1819     8.08575E-03     57.4105E-03    -48.4018E+06     13.0576E+06     37.6624E+06    -1.54437E+06    -288.870E-03     578.551E-03    -289.681E-03     32.0099E-03    -289.236E-03     578.682E-03    -289.442E-03     30.6555E-03
            1820     7.41159E-03     57.3569E-03    -55.7489E+06    -25.0332E+06     23.6009E+06    -942.736E+03    -288.993E-03     578.725E-03    -289.732E-03     29.6295E-03    -289.304E-03     578.681E-03    -289.497E-03     28.9532E-03
            1821     6.73741E-03     57.3065E-03    -63.4341E+06    -58.2805E+06     9.29651E+06    -312.944E+03    -289.103E-03     578.877E-03    -289.774E-03     27.1977E-03    -289.371E-03     578.686E-03    -289.551E-03     27.0806E-03
            1822     6.06334E-03     57.2598E-03    -71.2504E+06    -86.4357E+06    -5.01660E+06     53.0749E+03    -289.202E-03     579.009E-03    -289.807E-03     24.6507E-03    -289.439E-03     578.701E-03    -289.604E-03     24.9742E-03
            1823     5.38935E-03     57.2170E-03    -79.0021E+06    -111.647E+06    -19.7476E+06     295.337E+03    -289.298E-03     579.131E-03    -289.832E-03     22.0474E-03    -289.511E-03     578.723E-03    -289.654E-03     22.6916E-03
            1824     4.71546E-03     57.1785E-03    -86.5734E+06    -135.022E+06    -35.2470E+06     434.264E+03    -289.391E-03     579.238E-03    -289.847E-03     19.4038E-03    -289.581E-03     578.744E-03    -289.702E-03     20.2547E-03
            1825     4.04165E-03     57.1445E-03    -93.8767E+06    -156.888E+06    -51.4599E+06     482.939E+03    -289.477E-03     579.330E-03    -289.853E-03     16.7216E-03    -289.647E-03     578.758E-03    -289.746E-03     17.6731E-03
            1826     3.36791E-03     57.1152E-03    -100.770E+06    -177.376E+06    -67.8824E+06     435.538E+03    -289.559E-03     579.409E-03    -289.850E-03     14.0082E-03    -289.708E-03     578.767E-03    -289.786E-03     14.9628E-03
            1827     2.69423E-03     57.0910E-03    -107.022E+06    -195.985E+06     -83.793E+06     403.714E+03    -289.633E-03     579.475E-03    -289.842E-03     11.2566E-03    -289.763E-03     578.772E-03    -289.821E-03     12.1321E-03
            1828     2.02061E-03     57.0719E-03    -112.325E+06      -211.8E+06    -98.1719E+06     360.508E+03    -289.700E-03     579.530E-03    -289.831E-03     8.49056E-03    -289.812E-03     578.777E-03    -289.852E-03     9.21718E-03
            1829     1.34704E-03     57.0580E-03    -116.399E+06    -224.133E+06    -109.690E+06     245.982E+03    -289.757E-03     579.578E-03    -289.821E-03     5.73777E-03    -289.855E-03     578.785E-03    -289.875E-03     6.26093E-03
            1830     673.508E-06     57.0495E-03    -118.996E+06    -232.296E+06    -117.225E+06     151.234E+03    -289.816E-03     579.613E-03    -289.797E-03     3.12536E-03    -289.904E-03     578.794E-03    -289.873E-03     3.42073E-03
            1831     12.8064E-03     56.1357E-03    -5.31191E+06     80.6766E+06     97.3849E+06     41.8756E+03    -288.404E-03     577.921E-03    -289.517E-03     32.0679E-03    -288.855E-03     578.357E-03    -289.140E-03     26.0657E-03
            1832     12.1318E-03     56.0791E-03    -11.0385E+06     76.1856E+06     97.4122E+06    -149.132E+03    -288.449E-03     578.017E-03    -289.568E-03     38.1456E-03    -288.965E-03     578.481E-03    -289.175E-03     31.6465E-03
            1833     11.4572E-03     56.0206E-03    -17.1357E+06     70.4348E+06     92.2180E+06    -443.369E+03    -288.523E-03     578.123E-03    -289.600E-03     38.4479E-03    -289.022E-03     578.544E-03    -289.216E-03     32.9133E-03
            1834     10.7829E-03     55.9595E-03    -23.8739E+06     63.9079E+06     81.2640E+06    -377.356E+03    -288.611E-03     578.219E-03    -289.608E-03     38.7548E-03    -289.098E-03     578.612E-03    -289.260E-03     33.9568E-03
            1835     10.1086E-03     55.8974E-03    -31.1005E+06     51.7829E+06     67.6685E+06    -931.687E+03    -288.694E-03     578.309E-03    -289.615E-03     38.0083E-03    -289.151E-03     578.643E-03    -289.307E-03     34.0988E-03
            1836     9.43413E-03     55.8360E-03    -37.8809E+06     39.6847E+06     54.9683E+06    -2.61779E+06    -288.747E-03     578.376E-03    -289.629E-03     36.5147E-03    -289.172E-03     578.648E-03    -289.357E-03     33.4844E-03
            1837     8.75990E-03     55.7766E-03    -44.3244E+06     33.2010E+06     45.3179E+06    -2.84147E+06    -288.756E-03     578.411E-03    -289.655E-03     34.5037E-03    -289.164E-03     578.648E-03    -289.412E-03     32.3366E-03
            1838     8.08556E-03     55.7199E-03    -51.3753E+06     10.4854E+06     34.2313E+06    -1.39778E+06    -288.828E-03     578.530E-03    -289.702E-03     32.1876E-03    -289.200E-03     578.658E-03    -289.472E-03     30.8260E-03
            1839     7.41124E-03     55.6662E-03    -58.9120E+06    -26.9857E+06     20.6577E+06    -344.563E+03    -288.971E-03     578.731E-03    -289.760E-03     29.7946E-03    -289.290E-03     578.686E-03    -289.532E-03     29.1164E-03
            1840     6.73711E-03     55.6156E-03    -66.3789E+06    -59.2448E+06     7.13712E+06     154.720E+03    -289.100E-03     578.909E-03    -289.809E-03     27.3379E-03    -289.379E-03     578.721E-03    -289.591E-03     27.2130E-03
            1841     6.06306E-03     55.5688E-03    -73.7374E+06    -86.8070E+06    -6.79623E+06     358.781E+03    -289.212E-03     579.058E-03    -289.846E-03     24.7776E-03    -289.459E-03     578.754E-03    -289.647E-03     25.0893E-03
            1842     5.38911E-03     55.5259E-03    -81.0834E+06    -111.657E+06    -21.4232E+06     345.328E+03    -289.315E-03     579.189E-03    -289.873E-03     22.1713E-03    -289.536E-03     578.787E-03    -289.701E-03     22.8007E-03
            1843     4.71522E-03     55.4872E-03    -88.3570E+06    -135.019E+06    -36.8241E+06     301.990E+03    -289.415E-03     579.306E-03    -289.891E-03     19.5224E-03    -289.612E-03     578.817E-03    -289.752E-03     20.3567E-03
            1844     4.04143E-03     55.4531E-03    -95.4336E+06    -156.757E+06    -52.9307E+06     317.568E+03    -289.509E-03     579.409E-03    -289.900E-03     16.8285E-03    -289.684E-03     578.842E-03    -289.798E-03     17.7644E-03
            1845     3.36771E-03     55.4238E-03    -102.133E+06    -177.031E+06    -69.2778E+06     319.671E+03    -289.597E-03     579.497E-03    -289.899E-03     14.0961E-03    -289.752E-03     578.861E-03    -289.841E-03     15.0379E-03
            1846     2.69407E-03     55.3994E-03    -108.194E+06    -195.717E+06    -85.0241E+06     263.423E+03    -289.679E-03     579.573E-03    -289.894E-03     11.3266E-03    -289.813E-03     578.874E-03    -289.878E-03     12.1905E-03
            1847     2.02048E-03     55.3803E-03    -113.334E+06    -211.454E+06    -99.1866E+06     253.537E+03    -289.751E-03     579.636E-03    -289.885E-03     8.54681E-03    -289.867E-03     578.887E-03    -289.910E-03     9.26334E-03
            1848     1.34696E-03     55.3664E-03    -117.304E+06    -223.563E+06    -110.566E+06     241.892E+03    -289.811E-03     579.688E-03    -289.876E-03     5.77755E-03    -289.913E-03     578.900E-03    -289.935E-03     6.29406E-03
            1849     673.466E-06     55.3578E-03    -119.847E+06    -231.655E+06    -118.065E+06     130.692E+03    -289.872E-03     579.725E-03    -289.853E-03     3.14704E-03    -289.964E-03     578.911E-03    -289.934E-03     3.43828E-03
            1850     12.8063E-03     54.4454E-03    -4.99259E+06     80.8725E+06     98.5734E+06    -96.0957E+03    -288.427E-03     577.947E-03    -289.520E-03     32.0881E-03    -288.879E-03     578.383E-03    -289.138E-03     26.0868E-03
            1851     12.1320E-03     54.3889E-03    -10.7041E+06     76.3779E+06     98.7426E+06    -114.885E+03    -288.474E-03     578.045E-03    -289.571E-03     38.1755E-03    -288.991E-03     578.508E-03    -289.172E-03     31.6759E-03
            1852     11.4576E-03     54.3304E-03    -17.3910E+06     70.1531E+06     92.8636E+06     203.635E+03    -288.487E-03     578.088E-03    -289.601E-03     38.4747E-03    -288.988E-03     578.507E-03    -289.213E-03     32.9411E-03
            1853     10.7830E-03     54.2692E-03    -24.3715E+06     63.1094E+06     80.7039E+06     654.758E+03    -288.507E-03     578.116E-03    -289.608E-03     38.8032E-03    -288.995E-03     578.507E-03    -289.261E-03     34.0098E-03
            1854     10.1085E-03     54.2071E-03    -31.1770E+06     55.2530E+06     65.9647E+06     283.146E+03    -288.545E-03     578.156E-03    -289.611E-03     38.1063E-03    -289.005E-03     578.510E-03    -289.316E-03     34.2064E-03
            1855     9.43409E-03     54.1457E-03    -38.6913E+06     43.4191E+06     51.8748E+06    -920.979E+03    -288.609E-03     578.239E-03    -289.630E-03     36.6323E-03    -289.040E-03     578.536E-03    -289.377E-03     33.6193E-03
            1856     8.75952E-03     54.0862E-03    -46.9564E+06     31.1840E+06     41.6154E+06    -1.61755E+06    -288.682E-03     578.355E-03    -289.673E-03     34.6157E-03    -289.095E-03     578.592E-03    -289.442E-03     32.4584E-03
            1857     8.08515E-03     54.0293E-03    -54.6028E+06     7.76001E+06     31.4755E+06    -1.43997E+06    -288.800E-03     578.534E-03    -289.734E-03     32.2894E-03    -289.182E-03     578.658E-03    -289.508E-03     30.9125E-03
            1858     7.41096E-03     53.9754E-03    -61.3942E+06    -28.5443E+06     18.8095E+06    -995.809E+03    -288.963E-03     578.761E-03    -289.797E-03     29.8968E-03    -289.291E-03     578.715E-03    -289.573E-03     29.1893E-03
            1859     6.73682E-03     53.9247E-03    -68.1173E+06    -60.1616E+06     5.67393E+06    -630.755E+03    -289.104E-03     578.953E-03    -289.850E-03     27.4616E-03    -289.388E-03     578.766E-03    -289.635E-03     27.3051E-03
            1860     6.06278E-03     53.8777E-03    -75.0516E+06    -87.1490E+06    -8.02797E+06    -398.012E+03    -289.227E-03     579.117E-03    -289.890E-03     24.9169E-03    -289.478E-03     578.816E-03    -289.695E-03     25.1982E-03
            1861     5.38882E-03     53.8346E-03     -82.125E+06    -111.713E+06    -22.6085E+06    -256.322E+03    -289.340E-03     579.260E-03    -289.920E-03     22.3058E-03    -289.564E-03     578.862E-03    -289.752E-03     22.9078E-03
            1862     4.71496E-03     53.7958E-03    -89.2607E+06    -135.076E+06    -38.0142E+06    -177.953E+03    -289.448E-03     579.390E-03    -289.941E-03     19.6410E-03    -289.648E-03     578.903E-03    -289.806E-03     20.4503E-03
            1863     4.04119E-03     53.7616E-03    -96.2618E+06    -156.876E+06    -54.0256E+06    -117.405E+03    -289.552E-03     579.504E-03    -289.952E-03     16.9270E-03    -289.730E-03     578.940E-03    -289.855E-03     17.8393E-03
            1864     3.36751E-03     53.7321E-03    -102.874E+06    -176.966E+06    -70.2566E+06    -65.0313E+03    -289.647E-03     579.601E-03    -289.954E-03     14.1714E-03    -289.804E-03     578.968E-03    -289.899E-03     15.0921E-03
            1865     2.69390E-03     53.7077E-03    -108.882E+06    -195.598E+06    -85.8549E+06    -35.3661E+03    -289.733E-03     579.683E-03    -289.950E-03     11.3841E-03    -289.869E-03     578.988E-03    -289.938E-03     12.2300E-03
            1866     2.02036E-03     53.6884E-03    -114.032E+06    -211.467E+06    -99.8509E+06    -4.14017E+03    -289.809E-03     579.752E-03    -289.943E-03     8.59435E-03    -289.927E-03     579.004E-03    -289.970E-03     9.29529E-03
            1867     1.34687E-03     53.6745E-03    -117.983E+06    -223.282E+06    -111.208E+06     29.4124E+03    -289.869E-03     579.803E-03    -289.934E-03     5.81408E-03    -289.974E-03     579.019E-03    -289.995E-03     6.31873E-03
            1868     673.425E-06     53.6659E-03    -120.466E+06    -231.267E+06    -118.693E+06     26.8424E+03    -289.929E-03     579.840E-03    -289.910E-03     3.16751E-03    -290.024E-03     579.030E-03    -289.994E-03     3.45230E-03
            1869     12.8064E-03     52.7550E-03    -5.41689E+06     80.6822E+06     98.5357E+06    -65.7654E+03    -288.346E-03     577.867E-03    -289.521E-03     32.0668E-03    -288.800E-03     578.302E-03    -289.137E-03     26.0710E-03
            1870     12.1319E-03     52.6985E-03    -11.5025E+06     75.5513E+06     98.2761E+06     404.587E+03    -288.378E-03     577.953E-03    -289.575E-03     38.3225E-03    -288.897E-03     578.415E-03    -289.176E-03     31.8373E-03
            1871     11.4573E-03     52.6401E-03    -17.9074E+06     69.6200E+06     92.5825E+06     725.062E+03    -288.410E-03     578.021E-03    -289.611E-03     38.7913E-03    -288.913E-03     578.439E-03    -289.223E-03     33.2773E-03
            1872     10.7829E-03     52.5792E-03    -24.2785E+06     62.8698E+06     80.6600E+06     655.824E+03    -288.454E-03     578.078E-03    -289.624E-03     39.1387E-03    -288.942E-03     578.469E-03    -289.276E-03     34.3497E-03
            1873     10.1083E-03     52.5170E-03    -30.8026E+06     55.7870E+06     65.9814E+06     1.02518E+06    -288.496E-03     578.126E-03    -289.630E-03     38.3317E-03    -288.955E-03     578.483E-03    -289.337E-03     34.4364E-03
            1874     9.43366E-03     52.4555E-03    -37.4628E+06     44.8446E+06     52.7992E+06     1.66365E+06    -288.574E-03     578.231E-03    -289.656E-03     36.7336E-03    -289.003E-03     578.532E-03    -289.403E-03     33.7545E-03
            1875     8.75932E-03     52.3958E-03    -44.3647E+06     33.7090E+06     43.7654E+06     960.955E+03    -288.659E-03     578.366E-03    -289.707E-03     34.6637E-03    -289.067E-03     578.609E-03    -289.472E-03     32.5319E-03
            1876     8.08497E-03     52.3386E-03     -51.822E+06     8.70947E+06     33.0469E+06    -619.844E+03    -288.779E-03     578.551E-03    -289.771E-03     32.3809E-03    -289.151E-03     578.673E-03    -289.544E-03     30.9960E-03
            1877     7.41066E-03     52.2846E-03    -59.5063E+06    -29.6357E+06     19.1266E+06    -1.18425E+06    -288.953E-03     578.793E-03    -289.839E-03     30.0489E-03    -289.271E-03     578.739E-03    -289.614E-03     29.3184E-03
            1878     6.73651E-03     52.2337E-03    -67.0138E+06    -60.8606E+06     5.50366E+06    -1.03571E+06    -289.109E-03     579.004E-03    -289.895E-03     27.6300E-03    -289.388E-03     578.813E-03    -289.682E-03     27.4469E-03
            1879     6.06246E-03     52.1865E-03    -74.3887E+06    -87.8480E+06    -8.32076E+06    -895.698E+03    -289.250E-03     579.190E-03    -289.940E-03     25.0753E-03    -289.497E-03     578.885E-03    -289.746E-03     25.3276E-03
            1880     5.38853E-03     52.1432E-03    -81.7213E+06    -112.278E+06    -22.7498E+06    -692.147E+03    -289.377E-03     579.351E-03    -289.975E-03     22.4488E-03    -289.598E-03     578.950E-03    -289.807E-03     23.0221E-03
            1881     4.71470E-03     52.1043E-03    -88.9665E+06    -135.450E+06    -38.0163E+06    -526.775E+03    -289.495E-03     579.494E-03    -289.998E-03     19.7680E-03    -289.693E-03     579.005E-03    -289.863E-03     20.5501E-03
            1882     4.04096E-03     52.0699E-03    -96.0099E+06    -157.142E+06    -53.9877E+06    -443.110E+03    -289.604E-03     579.615E-03    -290.011E-03     17.0391E-03    -289.780E-03     579.049E-03    -289.914E-03     17.9253E-03
            1883     3.36732E-03     52.0403E-03    -102.681E+06    -177.308E+06    -70.1869E+06    -353.077E+03    -289.702E-03     579.717E-03    -290.015E-03     14.2685E-03    -289.858E-03     579.082E-03    -289.960E-03     15.1657E-03
            1884     2.69375E-03     52.0158E-03    -108.722E+06    -195.779E+06    -85.8064E+06    -250.744E+03    -289.791E-03     579.804E-03    -290.013E-03     11.4701E-03    -289.927E-03     579.108E-03    -290.000E-03     12.2960E-03
            1885     2.02024E-03     51.9964E-03    -113.847E+06    -211.622E+06    -99.7915E+06    -224.342E+03    -289.871E-03     579.877E-03    -290.006E-03     8.66879E-03    -289.989E-03     579.129E-03    -290.033E-03     9.35258E-03
            1886     1.34680E-03     51.9824E-03    -117.802E+06    -223.528E+06    -111.088E+06    -171.675E+03    -289.934E-03     579.932E-03    -289.998E-03     5.86951E-03    -290.038E-03     579.146E-03    -290.059E-03     6.36106E-03
            1887     673.387E-06     51.9738E-03    -120.325E+06    -231.370E+06    -118.566E+06    -75.7027E+03    -289.994E-03     579.968E-03    -289.974E-03     3.19869E-03    -290.088E-03     579.157E-03    -290.057E-03     3.47624E-03
            1888     12.8064E-03     51.0650E-03    -5.53097E+06     79.9606E+06     97.6222E+06     528.827E+03    -288.213E-03     577.735E-03    -289.522E-03     32.1733E-03    -288.665E-03     578.168E-03    -289.142E-03     26.1908E-03
            1889     12.1317E-03     51.0086E-03    -11.2765E+06     75.3679E+06     97.4224E+06     511.487E+03    -288.228E-03     577.811E-03    -289.584E-03     38.3766E-03    -288.744E-03     578.273E-03    -289.189E-03     31.8924E-03
            1890     11.4571E-03     50.9502E-03    -17.1892E+06     69.8995E+06     91.7689E+06     217.811E+03    -288.286E-03     577.913E-03    -289.627E-03     38.8187E-03    -288.785E-03     578.333E-03    -289.245E-03     33.2936E-03
            1891     10.7824E-03     50.8889E-03    -23.2448E+06     63.4923E+06     80.8296E+06    -34.6074E+03    -288.402E-03     578.053E-03    -289.651E-03     39.2227E-03    -288.886E-03     578.445E-03    -289.306E-03     34.4195E-03
            1892     10.1079E-03     50.8269E-03    -29.0720E+06     53.5083E+06     68.7000E+06     214.364E+03    -288.536E-03     578.213E-03    -289.677E-03     38.4991E-03    -288.989E-03     578.553E-03    -289.369E-03     34.5845E-03
            1893     9.43357E-03     50.7652E-03    -34.7892E+06     42.8777E+06     56.9748E+06     1.30494E+06    -288.621E-03     578.329E-03    -289.708E-03     36.9399E-03    -289.040E-03     578.612E-03    -289.435E-03     33.9436E-03
            1894     8.75905E-03     50.7052E-03    -41.2629E+06     36.2722E+06     46.9269E+06     2.07269E+06    -288.641E-03     578.390E-03    -289.749E-03     34.8871E-03    -289.042E-03     578.637E-03    -289.507E-03     32.7562E-03
            1895     8.08459E-03     50.6480E-03    -48.8761E+06     11.3855E+06     35.0001E+06     1.88743E+06    -288.750E-03     578.564E-03    -289.814E-03     32.6018E-03    -289.115E-03     578.694E-03    -289.585E-03     31.2387E-03
            1896     7.41031E-03     50.5937E-03    -57.0278E+06    -28.1185E+06     20.8191E+06     946.350E+03    -288.950E-03     578.840E-03    -289.889E-03     30.2524E-03    -289.261E-03     578.788E-03    -289.662E-03     29.5335E-03
            1897     6.73615E-03     50.5426E-03    -65.0362E+06    -60.5718E+06     6.92782E+06     91.9947E+03    -289.128E-03     579.080E-03    -289.951E-03     27.8255E-03    -289.400E-03     578.885E-03    -289.735E-03     27.6352E-03
            1898     6.06213E-03     50.4951E-03    -72.8572E+06    -88.0113E+06    -7.22805E+06    -164.320E+03    -289.281E-03     579.282E-03    -290.000E-03     25.2648E-03    -289.523E-03     578.973E-03    -289.803E-03     25.5031E-03
            1899     5.38821E-03     50.4517E-03    -80.5628E+06    -112.412E+06    -21.9188E+06    -349.324E+03    -289.417E-03     579.455E-03    -290.038E-03     22.6333E-03    -289.634E-03     579.050E-03    -289.868E-03     23.1875E-03
            1900     4.71441E-03     50.4125E-03    -88.0517E+06    -135.756E+06    -37.3174E+06    -473.597E+03    -289.541E-03     579.606E-03    -290.065E-03     19.9511E-03    -289.735E-03     579.114E-03    -289.927E-03     20.7104E-03
            1901     4.04071E-03     50.3780E-03    -95.2554E+06    -157.479E+06    -53.3827E+06    -446.798E+03    -289.652E-03     579.734E-03    -290.082E-03     17.2194E-03    -289.825E-03     579.165E-03    -289.983E-03     18.0842E-03
            1902     3.36709E-03     50.3483E-03    -102.036E+06    -177.752E+06    -69.6516E+06    -375.003E+03    -289.757E-03     579.848E-03    -290.090E-03     14.4400E-03    -289.910E-03     579.209E-03    -290.033E-03     15.3184E-03
            1903     2.69355E-03     50.3236E-03    -108.145E+06    -196.077E+06    -85.3772E+06    -320.458E+03    -289.857E-03     579.948E-03    -290.092E-03     11.6263E-03    -289.990E-03     579.249E-03    -290.077E-03     12.4357E-03
            1904     2.02009E-03     50.3042E-03    -113.332E+06    -211.893E+06    -99.4146E+06    -279.709E+03    -289.946E-03     580.034E-03    -290.089E-03     8.79859E-03    -290.061E-03     579.284E-03    -290.114E-03     9.46931E-03
            1905     1.34669E-03     50.2901E-03    -117.341E+06    -224.044E+06    -110.668E+06    -204.764E+03    -290.016E-03     580.100E-03    -290.084E-03     5.96365E-03    -290.118E-03     579.310E-03    -290.142E-03     6.44612E-03
            1906     673.334E-06     50.2814E-03    -119.884E+06    -231.782E+06    -118.138E+06    -106.622E+03    -290.080E-03     580.141E-03    -290.061E-03     3.25231E-03    -290.172E-03     579.327E-03    -290.142E-03     3.52476E-03
            1907     12.8061E-03     49.3750E-03    -4.69629E+06     79.7685E+06     97.2159E+06     234.833E+03    -288.144E-03     577.675E-03    -289.531E-03     32.2318E-03    -288.591E-03     578.107E-03    -289.154E-03     26.2462E-03
            1908     12.1315E-03     49.3187E-03    -9.97417E+06     76.2016E+06     97.7415E+06    -10.7643E+03    -288.185E-03     577.784E-03    -289.599E-03     38.4239E-03    -288.697E-03     578.248E-03    -289.206E-03     31.9296E-03
            1909     11.4569E-03     49.2603E-03    -16.0376E+06     70.0963E+06     91.9410E+06    -166.711E+03    -288.245E-03     577.891E-03    -289.646E-03     38.8410E-03    -288.739E-03     578.311E-03    -289.265E-03     33.3022E-03
            1910     10.7822E-03     49.1990E-03    -22.6497E+06     63.3627E+06     80.3987E+06     37.3312E+03    -288.332E-03     578.006E-03    -289.674E-03     39.1846E-03    -288.813E-03     578.398E-03    -289.331E-03     34.3710E-03
            1911     10.1076E-03     49.1365E-03    -29.7713E+06     52.5628E+06     66.9296E+06     247.132E+03    -288.437E-03     578.140E-03    -289.703E-03     38.5239E-03    -288.890E-03     578.480E-03    -289.401E-03     34.5949E-03
            1912     9.43301E-03     49.0747E-03    -36.8770E+06     40.7924E+06     54.5338E+06     448.594E+03    -288.539E-03     578.283E-03    -289.743E-03     37.1510E-03    -288.963E-03     578.563E-03    -289.476E-03     34.1223E-03
            1913     8.75860E-03     49.0149E-03    -43.4769E+06     33.7981E+06     45.5857E+06     1.65525E+06    -288.619E-03     578.417E-03    -289.798E-03     35.1769E-03    -289.027E-03     578.658E-03    -289.556E-03     33.0206E-03
            1914     8.08418E-03     48.9573E-03    -50.0257E+06     12.5534E+06     35.6958E+06     2.70758E+06    -288.754E-03     578.625E-03    -289.871E-03     32.8630E-03    -289.127E-03     578.762E-03    -289.638E-03     31.4902E-03
            1915     7.40989E-03     48.9027E-03    -56.9576E+06    -24.6732E+06     22.4932E+06     2.21300E+06    -288.952E-03     578.903E-03    -289.950E-03     30.5036E-03    -289.271E-03     578.866E-03    -289.720E-03     29.7774E-03
            1916     6.73574E-03     48.8513E-03    -64.3473E+06    -59.1615E+06     8.33871E+06     1.39333E+06    -289.140E-03     579.159E-03    -290.019E-03     28.0823E-03    -289.413E-03     578.969E-03    -289.798E-03     27.8844E-03
            1917     6.06172E-03     48.8036E-03    -71.9617E+06    -86.9848E+06    -5.94013E+06     843.207E+03    -289.299E-03     579.372E-03    -290.073E-03     25.5337E-03    -289.539E-03     579.066E-03    -289.873E-03     25.7608E-03
            1918     5.38783E-03     48.7600E-03    -79.5522E+06    -111.543E+06    -20.8116E+06     347.540E+03    -289.440E-03     579.557E-03    -290.117E-03     22.9147E-03    -289.655E-03     579.154E-03    -289.944E-03     23.4557E-03
            1919     4.71403E-03     48.7206E-03    -87.0886E+06    -135.544E+06    -36.4258E+06     23.8211E+03    -289.575E-03     579.728E-03    -290.152E-03     20.2332E-03    -289.766E-03     579.234E-03    -290.012E-03     20.9797E-03
            1920     4.04034E-03     48.6859E-03    -94.4074E+06    -157.590E+06    -52.6100E+06    -114.852E+03    -289.701E-03     579.879E-03    -290.178E-03     17.4894E-03    -289.871E-03     579.307E-03    -290.075E-03     18.3422E-03
            1921     3.36675E-03     48.6560E-03    -101.268E+06    -177.946E+06    -68.9401E+06    -162.223E+03    -289.824E-03     580.019E-03    -290.194E-03     14.6882E-03    -289.974E-03     579.377E-03    -290.134E-03     15.5553E-03
            1922     2.69326E-03     48.6312E-03    -107.448E+06    -196.295E+06    -84.7052E+06    -166.840E+03    -289.943E-03     580.146E-03    -290.203E-03     11.8412E-03    -290.073E-03     579.444E-03    -290.186E-03     12.6412E-03
            1923     2.01986E-03     48.6117E-03    -112.690E+06    -212.177E+06    -98.7784E+06    -143.320E+03    -290.049E-03     580.255E-03    -290.206E-03     8.96624E-03    -290.162E-03     579.501E-03    -290.229E-03     9.63071E-03
            1924     1.34653E-03     48.5975E-03    -116.733E+06    -224.418E+06    -110.074E+06    -111.462E+03    -290.132E-03     580.337E-03    -290.206E-03     6.07918E-03    -290.230E-03     579.544E-03    -290.261E-03     6.55777E-03
            1925     673.249E-06     48.5887E-03    -119.311E+06    -232.185E+06    -117.572E+06    -69.9695E+03    -290.202E-03     580.389E-03    -290.187E-03     3.31449E-03    -290.292E-03     579.571E-03    -290.265E-03     3.58505E-03
            1926     12.8060E-03     47.6852E-03    -5.01326E+06     80.1491E+06     96.7897E+06    -473.206E+03    -288.052E-03     577.594E-03    -289.542E-03     32.1783E-03    -288.500E-03     578.029E-03    -289.167E-03     26.1873E-03
            1927     12.1313E-03     47.6289E-03    -10.7356E+06     75.9035E+06     97.1790E+06    -304.221E+03    -288.119E-03     577.734E-03    -289.615E-03     38.4603E-03    -288.633E-03     578.198E-03    -289.224E-03     31.9633E-03
            1928     11.4566E-03     47.5704E-03    -17.1449E+06     69.4099E+06     91.7136E+06     226.917E+03    -288.195E-03     577.866E-03    -289.671E-03     38.9901E-03    -288.694E-03     578.285E-03    -289.288E-03     33.4518E-03
            1929     10.7820E-03     47.5089E-03    -23.9663E+06     62.1358E+06     80.1182E+06     824.539E+03    -288.260E-03     577.964E-03    -289.704E-03     39.4371E-03    -288.747E-03     578.354E-03    -289.359E-03     34.6241E-03
            1930     10.1074E-03     47.4467E-03    -30.7422E+06     51.9927E+06     65.8412E+06     1.51461E+06    -288.329E-03     578.065E-03    -289.736E-03     38.7724E-03    -288.786E-03     578.406E-03    -289.438E-03     34.8501E-03
            1931     9.43263E-03     47.3847E-03     -37.687E+06     40.9913E+06     53.2355E+06     1.73456E+06    -288.443E-03     578.227E-03    -289.784E-03     37.3094E-03    -288.871E-03     578.512E-03    -289.523E-03     34.2854E-03
            1932     8.75803E-03     47.3242E-03    -44.8039E+06     32.6020E+06     44.5211E+06     1.12068E+06    -288.569E-03     578.421E-03    -289.852E-03     35.3562E-03    -288.982E-03     578.661E-03    -289.611E-03     33.1686E-03
            1933     8.08366E-03     47.2665E-03    -51.4750E+06     12.1671E+06     35.2146E+06     862.973E+03    -288.725E-03     578.659E-03    -289.935E-03     33.1539E-03    -289.105E-03     578.798E-03    -289.702E-03     31.7235E-03
            1934     7.40937E-03     47.2116E-03    -57.9903E+06    -23.4990E+06     22.6526E+06     1.25433E+06    -288.928E-03     578.951E-03    -290.023E-03     30.8490E-03    -289.255E-03     578.922E-03    -289.791E-03     30.0786E-03
            1935     6.73522E-03     47.1600E-03    -64.8129E+06    -57.6905E+06     8.84374E+06     1.26039E+06    -289.123E-03     579.224E-03    -290.101E-03     28.4464E-03    -289.402E-03     579.042E-03    -289.879E-03     28.2203E-03
            1936     6.06119E-03     47.1120E-03    -71.8878E+06    -85.6506E+06    -5.25034E+06     907.856E+03    -289.293E-03     579.460E-03    -290.167E-03     25.9135E-03    -289.537E-03     579.160E-03    -289.965E-03     26.1190E-03
            1937     5.38727E-03     47.0681E-03    -79.1794E+06    -110.572E+06    -20.0446E+06     638.574E+03    -289.456E-03     579.678E-03    -290.223E-03     23.2846E-03    -289.672E-03     579.279E-03    -290.048E-03     23.8104E-03
            1938     4.71348E-03     47.0285E-03    -86.5338E+06    -134.959E+06    -35.6233E+06     433.665E+03    -289.619E-03     579.889E-03    -290.270E-03     20.5715E-03    -289.809E-03     579.396E-03    -290.127E-03     21.3071E-03
            1939     4.03982E-03     46.9935E-03    -93.7446E+06    -157.292E+06    -51.8353E+06     263.997E+03    -289.774E-03     580.080E-03    -290.306E-03     17.7880E-03    -289.942E-03     579.508E-03    -290.201E-03     18.6313E-03
            1940     3.36628E-03     46.9634E-03    -100.589E+06    -177.820E+06    -68.2104E+06     150.494E+03    -289.923E-03     580.255E-03    -290.332E-03     14.9442E-03    -290.070E-03     579.612E-03    -290.269E-03     15.8020E-03
            1941     2.69286E-03     46.9384E-03    -106.776E+06    -196.283E+06    -84.0051E+06     83.8447E+03    -290.064E-03     580.412E-03    -290.348E-03     12.0484E-03    -290.192E-03     579.708E-03    -290.329E-03     12.8400E-03
            1942     2.01954E-03     46.9187E-03    -112.021E+06    -212.227E+06    -98.0966E+06     44.1296E+03    -290.187E-03     580.544E-03    -290.357E-03     9.11641E-03    -290.298E-03     579.788E-03    -290.377E-03     9.77497E-03
            1943     1.34631E-03     46.9044E-03    -116.064E+06    -224.502E+06    -109.397E+06     22.7054E+03    -290.281E-03     580.641E-03    -290.360E-03     6.17710E-03    -290.377E-03     579.845E-03    -290.413E-03     6.65197E-03
            1944     673.139E-06     46.8955E-03    -118.634E+06    -232.319E+06    -116.901E+06     9.83076E+03    -290.358E-03     580.701E-03    -290.343E-03     3.36614E-03    -290.445E-03     579.881E-03    -290.419E-03     3.63486E-03
            1945     12.8058E-03     45.9956E-03    -5.53573E+06     80.1763E+06     96.2594E+06    -87.2114E+03    -287.902E-03     577.452E-03    -289.550E-03     32.1369E-03    -288.352E-03     577.888E-03    -289.177E-03     26.1577E-03
            1946     12.1311E-03     45.9392E-03    -11.5537E+06     74.7748E+06     96.1232E+06     197.994E+03    -287.955E-03     577.587E-03    -289.632E-03     38.5079E-03    -288.471E-03     578.049E-03    -289.244E-03     32.0258E-03
            1947     11.4563E-03     45.8805E-03    -17.8887E+06     68.7384E+06     90.5339E+06     442.700E+03    -288.028E-03     577.725E-03    -289.697E-03     39.1633E-03    -288.529E-03     578.145E-03    -289.318E-03     33.6263E-03
            1948     10.7815E-03     45.8192E-03    -23.8816E+06     62.0376E+06     79.9340E+06     243.274E+03    -288.144E-03     577.889E-03    -289.745E-03     39.6858E-03    -288.631E-03     578.280E-03    -289.400E-03     34.8540E-03
            1949     10.1066E-03     45.7566E-03    -29.3996E+06     49.7368E+06     68.2073E+06     494.484E+03    -288.310E-03     578.109E-03    -289.799E-03     39.0721E-03    -288.762E-03     578.435E-03    -289.487E-03     35.1237E-03
            1950     9.43217E-03     45.6943E-03    -34.9203E+06     39.7658E+06     57.1703E+06     1.74435E+06    -288.435E-03     578.291E-03    -289.857E-03     37.6575E-03    -288.854E-03     578.562E-03    -289.578E-03     34.6173E-03
            1951     8.75765E-03     45.6338E-03    -41.3886E+06     35.3112E+06     47.4934E+06     2.08973E+06    -288.495E-03     578.417E-03    -289.922E-03     35.7287E-03    -288.899E-03     578.662E-03    -289.676E-03     33.5309E-03
            1952     8.08307E-03     45.5756E-03    -49.0569E+06     13.1460E+06     36.4058E+06     1.14423E+06    -288.642E-03     578.656E-03    -290.014E-03     33.5639E-03    -289.016E-03     578.796E-03    -289.779E-03     32.1116E-03
            1953     7.40871E-03     45.5205E-03    -56.7763E+06    -23.8050E+06     23.1924E+06     610.220E+03    -288.879E-03     578.996E-03    -290.117E-03     31.3006E-03    -289.201E-03     578.965E-03    -289.884E-03     30.4954E-03
            1954     6.73450E-03     45.4685E-03    -64.0697E+06    -57.1276E+06     9.44402E+06     624.681E+03    -289.105E-03     579.314E-03    -290.209E-03     28.8977E-03    -289.383E-03     579.134E-03    -289.986E-03     28.6382E-03
            1955     6.06043E-03     45.4202E-03    -71.3908E+06    -85.1094E+06    -4.71590E+06     671.112E+03    -289.311E-03     579.598E-03    -290.288E-03     26.3279E-03    -289.554E-03     579.300E-03    -290.084E-03     26.5060E-03
            1956     5.38653E-03     45.3759E-03    -78.7972E+06    -110.032E+06    -19.5550E+06     646.207E+03    -289.505E-03     579.861E-03    -290.355E-03     23.6465E-03    -289.721E-03     579.463E-03    -290.179E-03     24.1485E-03
            1957     4.71278E-03     45.3360E-03    -86.1638E+06    -134.466E+06    -35.1957E+06     573.451E+03    -289.698E-03     580.111E-03    -290.413E-03     20.8820E-03    -289.888E-03     579.620E-03    -290.269E-03     21.5964E-03
            1958     4.03918E-03     45.3007E-03    -93.3522E+06    -156.849E+06    -51.4205E+06     494.210E+03    -289.884E-03     580.342E-03    -290.458E-03     18.0487E-03    -290.051E-03     579.770E-03    -290.352E-03     18.8732E-03
            1959     3.36573E-03     45.2704E-03    -100.147E+06    -177.459E+06    -67.7763E+06     395.407E+03    -290.058E-03     580.549E-03    -290.491E-03     15.1562E-03    -290.205E-03     579.906E-03    -290.427E-03     15.9973E-03
            1960     2.69241E-03     45.2451E-03    -106.295E+06    -195.997E+06    -83.5523E+06     299.274E+03    -290.215E-03     580.727E-03    -290.511E-03     12.2150E-03    -290.342E-03     580.022E-03    -290.491E-03     12.9920E-03
            1961     2.01920E-03     45.2252E-03    -111.519E+06    -211.990E+06    -97.6245E+06     217.757E+03    -290.347E-03     580.871E-03    -290.523E-03     9.23630E-03    -290.456E-03     580.114E-03    -290.542E-03     9.88374E-03
            1962     1.34608E-03     45.2107E-03    -115.551E+06    -224.290E+06    -108.904E+06     143.475E+03    -290.447E-03     580.976E-03    -290.529E-03     6.25499E-03    -290.541E-03     580.180E-03    -290.581E-03     6.72236E-03
            1963     673.025E-06     45.2018E-03    -118.115E+06    -232.119E+06    -116.384E+06     77.5682E+03    -290.529E-03     581.041E-03    -290.512E-03     3.40901E-03    -290.614E-03     580.220E-03    -290.586E-03     3.67340E-03
            1964     12.8058E-03     44.3062E-03    -4.99510E+06     79.6974E+06     96.0770E+06     325.171E+03    -287.735E-03     577.296E-03    -289.561E-03     32.1898E-03    -288.181E-03     577.729E-03    -289.189E-03     26.2200E-03
            1965     12.1308E-03     44.2498E-03    -10.4504E+06     74.7868E+06     96.2004E+06     285.269E+03    -287.764E-03     577.418E-03    -289.654E-03     38.6106E-03    -288.274E-03     577.878E-03    -289.266E-03     32.1388E-03
            1966     11.4558E-03     44.1912E-03    -16.1733E+06     69.1261E+06     91.0354E+06    -77.1884E+03    -287.861E-03     577.593E-03    -289.732E-03     39.2875E-03    -288.356E-03     578.011E-03    -289.353E-03     33.7421E-03
            1967     10.7809E-03     44.1294E-03    -22.4802E+06     62.2717E+06     80.3007E+06    -178.096E+03    -288.012E-03     577.803E-03    -289.791E-03     39.8337E-03    -288.494E-03     578.193E-03    -289.447E-03     34.9868E-03
            1968     10.1063E-03     44.0665E-03    -29.4052E+06     48.6498E+06     67.3532E+06    -157.256E+03    -288.170E-03     578.026E-03    -289.856E-03     39.3413E-03    -288.620E-03     578.349E-03    -289.547E-03     35.3674E-03
            1969     9.43144E-03     44.0040E-03    -36.0338E+06     37.4716E+06     55.7508E+06    -40.9661E+03    -288.302E-03     578.232E-03    -289.929E-03     38.1171E-03    -288.723E-03     578.496E-03    -289.653E-03     35.0302E-03
            1970     8.75677E-03     43.9432E-03    -41.9525E+06     34.3755E+06     47.4018E+06     994.778E+03    -288.413E-03     578.426E-03    -290.013E-03     36.2965E-03    -288.820E-03     578.669E-03    -289.765E-03     34.0596E-03
            1971     8.08224E-03     43.8848E-03    -48.1842E+06     14.5445E+06     37.4691E+06     1.96693E+06    -288.597E-03     578.717E-03    -290.119E-03     34.1064E-03    -288.971E-03     578.862E-03    -289.883E-03     32.6398E-03
            1972     7.40779E-03     43.8292E-03    -55.5176E+06    -22.3041E+06     24.0319E+06     1.60614E+06    -288.862E-03     579.097E-03    -290.234E-03     31.7695E-03    -289.183E-03     579.071E-03    -290.001E-03     30.9477E-03
            1973     6.73357E-03     43.7768E-03    -63.3307E+06    -56.8525E+06     9.73397E+06     1.06964E+06    -289.131E-03     579.469E-03    -290.339E-03     29.3059E-03    -289.406E-03     579.290E-03    -290.116E-03     29.0175E-03
            1974     6.05956E-03     43.7281E-03    -70.9918E+06    -84.7506E+06    -4.55594E+06     931.049E+03    -289.371E-03     579.800E-03    -290.428E-03     26.6925E-03    -289.614E-03     579.503E-03    -290.225E-03     26.8364E-03
            1975     5.38571E-03     43.6834E-03    -78.5521E+06    -109.688E+06    -19.4841E+06     844.642E+03    -289.594E-03     580.099E-03    -290.505E-03     23.9741E-03    -289.810E-03     579.703E-03    -290.329E-03     24.4414E-03
            1976     4.71203E-03     43.6431E-03    -86.0182E+06    -134.012E+06    -35.1115E+06     778.044E+03    -289.811E-03     580.382E-03    -290.571E-03     21.1762E-03    -290.002E-03     579.894E-03    -290.427E-03     21.8575E-03
            1977     4.03852E-03     43.6075E-03    -93.2409E+06    -156.332E+06    -51.3000E+06     651.399E+03    -290.019E-03     580.641E-03    -290.622E-03     18.3085E-03    -290.187E-03     580.072E-03    -290.517E-03     19.1021E-03
            1978     3.36517E-03     43.5768E-03    -100.028E+06    -176.979E+06    -67.6327E+06     528.843E+03    -290.212E-03     580.871E-03    -290.659E-03     15.3765E-03    -290.358E-03     580.230E-03    -290.596E-03     16.1913E-03
            1979     2.69196E-03     43.5513E-03    -106.147E+06    -195.536E+06    -83.3845E+06     424.279E+03    -290.379E-03     581.062E-03    -290.683E-03     12.3956E-03    -290.505E-03     580.359E-03    -290.663E-03     13.1514E-03
            1980     2.01886E-03     43.5311E-03    -111.336E+06    -211.540E+06    -97.4237E+06     319.627E+03    -290.516E-03     581.214E-03    -290.697E-03     9.37569E-03    -290.625E-03     580.459E-03    -290.716E-03     10.0069E-03
            1981     1.34585E-03     43.5165E-03    -115.332E+06    -223.843E+06    -108.676E+06     215.218E+03    -290.620E-03     581.325E-03    -290.705E-03     6.34998E-03    -290.715E-03     580.531E-03    -290.756E-03     6.80648E-03
            1982     672.908E-06     43.5075E-03    -117.870E+06    -231.682E+06    -116.137E+06     114.827E+03    -290.707E-03     581.395E-03    -290.688E-03     3.46184E-03    -290.792E-03     580.575E-03    -290.762E-03     3.72015E-03
            1983     12.8055E-03     42.6171E-03    -4.99392E+06     79.5956E+06     96.0658E+06    -104.965E+03    -287.557E-03     577.136E-03    -289.578E-03     32.2948E-03    -288.004E-03     577.569E-03    -289.206E-03     26.3224E-03
            1984     12.1305E-03     42.5608E-03    -10.4437E+06     75.1718E+06     96.6050E+06    -210.405E+03    -287.595E-03     577.278E-03    -289.683E-03     38.7730E-03    -288.107E-03     577.740E-03    -289.294E-03     32.3002E-03
            1985     11.4555E-03     42.5018E-03    -16.8160E+06     69.1052E+06     91.1418E+06    -38.3794E+03    -287.673E-03     577.447E-03    -289.774E-03     39.5576E-03    -288.173E-03     577.868E-03    -289.394E-03     34.0203E-03
            1986     10.7805E-03     42.4398E-03    -23.5277E+06     62.0255E+06     79.7970E+06     193.776E+03    -287.798E-03     577.645E-03    -289.847E-03     40.2347E-03    -288.285E-03     578.038E-03    -289.504E-03     35.3991E-03
            1987     10.1054E-03     42.3768E-03    -29.9552E+06     48.7178E+06     66.7602E+06     306.998E+03    -287.973E-03     577.901E-03    -289.928E-03     39.7872E-03    -288.427E-03     578.228E-03    -289.622E-03     35.8093E-03
            1988     9.43053E-03     42.3140E-03    -36.7341E+06     37.1354E+06     54.5578E+06     326.879E+03    -288.157E-03     578.175E-03    -290.018E-03     38.5151E-03    -288.581E-03     578.442E-03    -289.746E-03     35.4047E-03
            1989     8.75574E-03     42.2527E-03    -44.1378E+06     32.6342E+06     45.1303E+06     147.428E+03    -288.329E-03     578.446E-03    -290.117E-03     36.6771E-03    -288.744E-03     578.689E-03    -289.875E-03     34.3843E-03
            1990     8.08113E-03     42.1937E-03    -51.1773E+06     13.3779E+06     35.5268E+06     379.868E+03    -288.574E-03     578.812E-03    -290.238E-03     34.5172E-03    -288.960E-03     578.961E-03    -290.006E-03     32.9738E-03
            1991     7.40679E-03     42.1377E-03    -57.6458E+06    -21.6332E+06     23.2081E+06     1.03815E+06    -288.880E-03     579.247E-03    -290.366E-03     32.1808E-03    -289.213E-03     579.230E-03    -290.135E-03     31.2954E-03
            1992     6.73261E-03     42.0848E-03    -64.3914E+06    -56.1038E+06     9.29059E+06     1.18032E+06    -289.175E-03     579.657E-03    -290.481E-03     29.7055E-03    -289.457E-03     579.484E-03    -290.260E-03     29.3652E-03
            1993     6.05863E-03     42.0356E-03    -71.6176E+06    -84.2912E+06    -4.91371E+06     1.03449E+06    -289.442E-03     580.023E-03    -290.581E-03     27.0896E-03    -289.689E-03     579.731E-03    -290.380E-03     27.1839E-03
            1994     5.38484E-03     41.9905E-03    -78.9904E+06    -109.259E+06    -19.6526E+06     968.487E+03    -289.694E-03     580.362E-03    -290.668E-03     24.3580E-03    -289.913E-03     579.970E-03    -290.493E-03     24.7793E-03
            1995     4.71124E-03     41.9498E-03    -86.3110E+06    -133.366E+06    -35.1576E+06     815.549E+03    -289.937E-03     580.678E-03    -290.742E-03     21.5433E-03    -290.130E-03     580.194E-03    -290.599E-03     22.1812E-03
            1996     4.03782E-03     41.9137E-03    -93.4157E+06    -155.722E+06    -51.3015E+06     641.983E+03    -290.164E-03     580.964E-03    -290.800E-03     18.6507E-03    -290.335E-03     580.399E-03    -290.695E-03     19.4046E-03
            1997     3.36456E-03     41.8826E-03    -100.129E+06    -176.485E+06    -67.6100E+06     518.139E+03    -290.372E-03     581.214E-03    -290.843E-03     15.6774E-03    -290.520E-03     580.577E-03    -290.780E-03     16.4587E-03
            1998     2.69146E-03     41.8568E-03    -106.204E+06    -195.017E+06    -83.3542E+06     417.345E+03    -290.551E-03     581.423E-03    -290.872E-03     12.6465E-03    -290.679E-03     580.723E-03    -290.852E-03     13.3758E-03
            1999     2.01848E-03     41.8364E-03    -111.360E+06    -211.018E+06    -97.3965E+06     308.915E+03    -290.699E-03     581.589E-03    -290.890E-03     9.57370E-03    -290.809E-03     580.837E-03    -290.910E-03     10.1845E-03
            2000     1.34559E-03     41.8216E-03    -115.336E+06    -223.328E+06    -108.656E+06     204.633E+03    -290.811E-03     581.712E-03    -290.901E-03     6.48834E-03    -290.906E-03     580.920E-03    -290.953E-03     6.93086E-03
            2001     672.779E-06     41.8125E-03    -117.860E+06    -231.172E+06    -116.117E+06     111.219E+03    -290.906E-03     581.789E-03    -290.884E-03     3.53927E-03    -290.991E-03     580.973E-03    -290.958E-03     3.79008E-03
            2002     12.8052E-03     40.9283E-03    -5.29506E+06     79.7722E+06     96.2583E+06     22.4801E+03    -287.351E-03     576.956E-03    -289.605E-03     32.4110E-03    -287.800E-03     577.390E-03    -289.231E-03     26.4486E-03
            2003     12.1301E-03     40.8719E-03    -11.4164E+06     74.8139E+06     96.3456E+06     203.617E+03    -287.378E-03     577.101E-03    -289.723E-03     39.0140E-03    -287.896E-03     577.564E-03    -289.333E-03     32.5507E-03
            2004     11.4548E-03     40.8129E-03    -17.8195E+06     68.8697E+06     90.9437E+06     311.283E+03    -287.450E-03     577.279E-03    -289.829E-03     39.9003E-03    -287.955E-03     577.701E-03    -289.448E-03     34.3577E-03
            2005     10.7795E-03     40.7507E-03    -24.2337E+06     62.0396E+06     79.8742E+06     225.802E+03    -287.605E-03     577.524E-03    -289.919E-03     40.5701E-03    -288.098E-03     577.920E-03    -289.574E-03     35.7175E-03
            2006     10.1045E-03     40.6872E-03    -30.8338E+06     48.2762E+06     66.6998E+06     299.900E+03    -287.842E-03     577.858E-03    -290.016E-03     40.0860E-03    -288.301E-03     578.186E-03    -289.708E-03     36.0750E-03
            2007     9.42956E-03     40.6239E-03    -37.2149E+06     36.9471E+06     54.6758E+06     563.233E+03    -288.072E-03     578.192E-03    -290.120E-03     38.8476E-03    -288.501E-03     578.462E-03    -289.846E-03     35.6870E-03
            2008     8.75481E-03     40.5621E-03    -43.5254E+06     33.3329E+06     45.6156E+06     617.365E+03    -288.265E-03     578.497E-03    -290.232E-03     37.0772E-03    -288.681E-03     578.745E-03    -289.989E-03     34.7284E-03
            2009     8.08017E-03     40.5026E-03    -50.6076E+06     13.4313E+06     35.2230E+06     119.067E+03    -288.531E-03     578.897E-03    -290.366E-03     34.9710E-03    -288.916E-03     579.048E-03    -290.136E-03     33.3594E-03
            2010     7.40574E-03     40.4459E-03    -58.0812E+06    -22.6479E+06     22.2684E+06    -187.163E+03    -288.872E-03     579.381E-03    -290.509E-03     32.6893E-03    -289.206E-03     579.363E-03    -290.280E-03     31.7223E-03
            2011     6.73156E-03     40.3925E-03    -65.2531E+06    -56.5162E+06     8.77630E+06     240.245E+03    -289.204E-03     579.844E-03    -290.640E-03     30.2468E-03    -289.491E-03     579.673E-03    -290.420E-03     29.8299E-03
            2012     6.05760E-03     40.3428E-03    -72.3589E+06    -84.1437E+06    -5.20204E+06     578.722E+03    -289.507E-03     580.261E-03    -290.754E-03     27.6330E-03    -289.759E-03     579.972E-03    -290.553E-03     27.6615E-03
            2013     5.38386E-03     40.2971E-03    -79.5639E+06    -108.833E+06    -19.8985E+06     548.098E+03    -289.794E-03     580.646E-03    -290.852E-03     24.8871E-03    -290.017E-03     580.258E-03    -290.678E-03     25.2474E-03
            2014     4.71033E-03     40.2558E-03    -86.7313E+06    -132.848E+06    -35.4225E+06     464.073E+03    -290.067E-03     581.003E-03    -290.936E-03     22.0451E-03    -290.264E-03     580.523E-03    -290.795E-03     22.6275E-03
            2015     4.03700E-03     40.2193E-03    -93.7605E+06    -155.291E+06    -51.5610E+06     397.429E+03    -290.319E-03     581.323E-03    -291.004E-03     19.1109E-03    -290.492E-03     580.761E-03    -290.901E-03     19.8163E-03
            2016     3.36385E-03     40.1879E-03    -100.438E+06    -176.115E+06    -67.8492E+06     346.164E+03    -290.547E-03     581.604E-03    -291.057E-03     16.0825E-03    -290.697E-03     580.969E-03    -290.995E-03     16.8229E-03
            2017     2.69087E-03     40.1617E-03    -106.485E+06    -194.596E+06    -83.5908E+06     286.919E+03    -290.746E-03     581.839E-03    -291.094E-03     12.9841E-03    -290.876E-03     581.143E-03    -291.075E-03     13.6806E-03
            2018     2.01802E-03     40.1411E-03    -111.625E+06    -210.592E+06    -97.6389E+06     218.464E+03    -290.912E-03     582.031E-03    -291.119E-03     9.83691E-03    -291.023E-03     581.281E-03    -291.140E-03     10.4229E-03
            2019     1.34528E-03     40.1261E-03    -115.592E+06    -222.901E+06    -108.906E+06     148.779E+03    -291.038E-03     582.172E-03    -291.135E-03     6.67091E-03    -291.134E-03     581.383E-03    -291.188E-03     7.09659E-03
            2020     672.618E-06     40.1168E-03    -118.113E+06    -230.748E+06    -116.367E+06     78.7458E+03    -291.144E-03     582.262E-03    -291.118E-03     3.64037E-03    -291.231E-03     581.448E-03    -291.194E-03     3.88190E-03
            2021     12.8048E-03     39.2398E-03    -5.20524E+06     79.4463E+06     96.2296E+06     376.923E+03    -287.086E-03     576.722E-03    -289.636E-03     32.4793E-03    -287.534E-03     577.155E-03    -289.262E-03     26.5259E-03
            2022     12.1294E-03     39.1834E-03    -10.6485E+06     74.8052E+06     96.8105E+06     399.663E+03    -287.151E-03     576.921E-03    -289.770E-03     39.1623E-03    -287.666E-03     577.383E-03    -289.379E-03     32.6946E-03
            2023     11.4540E-03     39.1242E-03    -16.6933E+06     68.7859E+06     92.4942E+06     362.744E+03    -287.285E-03     577.181E-03    -289.896E-03     40.0905E-03    -287.789E-03     577.602E-03    -289.509E-03     34.5113E-03
            2024     10.7789E-03     39.0616E-03    -23.2882E+06     61.9773E+06     81.8922E+06     511.761E+03    -287.466E-03     577.468E-03    -290.003E-03     40.8290E-03    -287.960E-03     577.862E-03    -289.649E-03     35.9296E-03
            2025     10.1036E-03     38.9976E-03    -29.8985E+06     48.2417E+06     67.9929E+06     530.889E+03    -287.692E-03     577.803E-03    -290.112E-03     40.4670E-03    -288.152E-03     578.131E-03    -289.798E-03     36.4100E-03
            2026     9.42861E-03     38.9339E-03    -36.5602E+06     37.0631E+06     55.1679E+06     308.016E+03    -287.929E-03     578.159E-03    -290.230E-03     39.3669E-03    -288.359E-03     578.431E-03    -289.954E-03     36.1458E-03
            2027     8.75369E-03     38.8715E-03    -43.3952E+06     33.5344E+06     45.9584E+06     166.357E+03    -288.156E-03     578.517E-03    -290.361E-03     37.7203E-03    -288.576E-03     578.768E-03    -290.117E-03     35.3001E-03
            2028     8.07900E-03     38.8113E-03    -50.2547E+06     14.1083E+06     35.6978E+06     321.351E+03    -288.457E-03     578.971E-03    -290.514E-03     35.6770E-03    -288.845E-03     579.127E-03    -290.283E-03     34.0003E-03
            2029     7.40453E-03     38.7540E-03    -57.4801E+06    -22.4144E+06     22.3828E+06     251.684E+03    -288.837E-03     579.512E-03    -290.675E-03     33.4106E-03    -289.171E-03     579.497E-03    -290.448E-03     32.3831E-03
            2030     6.73032E-03     38.6999E-03    -65.0412E+06    -57.2202E+06     8.49972E+06    -22.9421E+03    -289.221E-03     580.047E-03    -290.826E-03     30.9745E-03    -289.507E-03     579.875E-03    -290.606E-03     30.4853E-03
            2031     6.05638E-03     38.6495E-03    -72.4374E+06    -84.3206E+06    -5.45544E+06    -36.3454E+03    -289.572E-03     580.530E-03    -290.958E-03     28.3578E-03    -289.825E-03     580.242E-03    -290.758E-03     28.3086E-03
            2032     5.38268E-03     38.6032E-03    -79.7139E+06    -108.785E+06    -20.1899E+06     45.9774E+03    -289.901E-03     580.973E-03    -291.072E-03     25.5863E-03    -290.125E-03     580.587E-03    -290.900E-03     25.8734E-03
            2033     4.70923E-03     38.5614E-03    -87.0018E+06    -132.788E+06    -35.7634E+06     107.315E+03    -290.212E-03     581.384E-03    -291.172E-03     22.6994E-03    -290.410E-03     580.906E-03    -291.032E-03     23.2160E-03
            2034     4.03600E-03     38.5243E-03    -94.1099E+06    -155.165E+06    -51.9282E+06     140.344E+03    -290.499E-03     581.753E-03    -291.254E-03     19.7034E-03    -290.673E-03     581.193E-03    -291.152E-03     20.3516E-03
            2035     3.36298E-03     38.4924E-03    -100.818E+06    -175.958E+06    -68.2368E+06     136.301E+03    -290.758E-03     582.076E-03    -291.319E-03     16.5990E-03    -290.910E-03     581.444E-03    -291.259E-03     17.2903E-03
            2036     2.69013E-03     38.4658E-03    -106.878E+06    -194.394E+06    -83.9891E+06     125.066E+03    -290.985E-03     582.351E-03    -291.366E-03     13.4097E-03    -291.116E-03     581.657E-03    -291.349E-03     14.0660E-03
            2037     2.01745E-03     38.4449E-03    -112.021E+06    -210.360E+06    -98.0371E+06     105.584E+03    -291.174E-03     582.574E-03    -291.400E-03     10.1625E-03    -291.287E-03     581.827E-03    -291.423E-03     10.7180E-03
            2038     1.34489E-03     38.4297E-03    -115.985E+06    -222.639E+06    -109.300E+06     75.0207E+03    -291.317E-03     582.739E-03    -291.422E-03     6.89322E-03    -291.415E-03     581.952E-03    -291.478E-03     7.29799E-03
            2039     672.424E-06     38.4203E-03    -118.498E+06    -230.482E+06    -116.757E+06     43.5945E+03    -291.436E-03     582.842E-03    -291.406E-03     3.76266E-03    -291.525E-03     582.031E-03    -291.484E-03     3.99271E-03
            2040     12.8044E-03     37.5518E-03    -4.91053E+06     79.1908E+06     96.5720E+06     119.577E+03    -286.813E-03     576.480E-03    -289.666E-03     32.4114E-03    -287.261E-03     576.910E-03    -289.291E-03     26.4504E-03
            2041     12.1289E-03     37.4952E-03    -10.5834E+06     74.8189E+06     97.2936E+06     189.275E+03    -286.897E-03     576.715E-03    -289.818E-03     39.2195E-03    -287.414E-03     577.177E-03    -289.424E-03     32.7337E-03
            2042     11.4534E-03     37.4355E-03    -16.8666E+06     68.5875E+06     92.9956E+06     312.140E+03    -287.031E-03     576.993E-03    -289.962E-03     40.3783E-03    -287.539E-03     577.415E-03    -289.572E-03     34.7627E-03
            2043     10.7779E-03     37.3726E-03    -23.3028E+06     61.7110E+06     82.5297E+06     396.233E+03    -287.218E-03     577.307E-03    -290.089E-03     41.3448E-03    -287.717E-03     577.703E-03    -289.732E-03     36.3910E-03
            2044     10.1026E-03     37.3082E-03    -29.8293E+06     48.3372E+06     68.6767E+06     489.316E+03    -287.465E-03     577.685E-03    -290.220E-03     41.1237E-03    -287.930E-03     578.016E-03    -289.903E-03     37.0082E-03
            2045     9.42739E-03     37.2439E-03    -36.3580E+06     37.6856E+06     55.7206E+06     484.224E+03    -287.728E-03     578.089E-03    -290.360E-03     40.1161E-03    -288.163E-03     578.367E-03    -290.084E-03     36.8337E-03
            2046     8.75238E-03     37.1808E-03    -43.1078E+06     33.7982E+06     46.1470E+06     331.031E+03    -287.995E-03     578.511E-03    -290.516E-03     38.5555E-03    -288.418E-03     578.767E-03    -290.272E-03     36.0654E-03
            2047     8.07755E-03     37.1199E-03    -50.3484E+06     13.7179E+06     35.7859E+06     240.626E+03    -288.356E-03     579.051E-03    -290.695E-03     36.5696E-03    -288.748E-03     579.209E-03    -290.463E-03     34.8130E-03
            2048     7.40302E-03     37.0618E-03    -57.6061E+06    -22.1168E+06     22.6150E+06     329.392E+03    -288.797E-03     579.678E-03    -290.882E-03     34.3332E-03    -289.134E-03     579.667E-03    -290.653E-03     33.2249E-03
            2049     6.72880E-03     37.0069E-03    -64.8069E+06    -56.5166E+06     8.58120E+06     181.044E+03    -289.233E-03     580.288E-03    -291.055E-03     31.9037E-03    -289.522E-03     580.121E-03    -290.836E-03     31.3354E-03
            2050     6.05486E-03     36.9557E-03    -72.2528E+06    -84.4275E+06    -5.62179E+06    -95.6819E+03    -289.639E-03     580.849E-03    -291.210E-03     29.2761E-03    -289.893E-03     580.563E-03    -291.011E-03     29.1447E-03
            2051     5.38123E-03     36.9087E-03    -79.7773E+06    -109.093E+06    -20.3965E+06    -77.7348E+03    -290.024E-03     581.371E-03    -291.347E-03     26.4711E-03    -290.249E-03     580.986E-03    -291.176E-03     26.6787E-03
            2052     4.70785E-03     36.8662E-03    -87.1711E+06    -132.946E+06    -35.9893E+06     2.61697E+03    -290.389E-03     581.856E-03    -291.467E-03     23.5223E-03    -290.589E-03     581.379E-03    -291.328E-03     23.9659E-03
            2053     4.03475E-03     36.8285E-03    -94.3392E+06    -155.184E+06    -52.1766E+06     15.3911E+03    -290.725E-03     582.292E-03    -291.567E-03     20.4390E-03    -290.901E-03     581.733E-03    -291.466E-03     21.0211E-03
            2054     3.36188E-03     36.7960E-03    -101.096E+06    -175.959E+06    -68.5073E+06     13.2010E+03    -291.027E-03     582.673E-03    -291.647E-03     17.2336E-03    -291.180E-03     582.042E-03    -291.587E-03     17.8663E-03
            2055     2.68923E-03     36.7690E-03    -107.196E+06    -194.363E+06    -84.2823E+06     10.6922E+03    -291.288E-03     582.994E-03    -291.706E-03     13.9307E-03    -291.421E-03     582.301E-03    -291.690E-03     14.5375E-03
            2056     2.01675E-03     36.7476E-03    -112.363E+06    -210.300E+06    -98.3567E+06     3.85532E+03    -291.503E-03     583.252E-03    -291.749E-03     10.5602E-03    -291.618E-03     582.507E-03    -291.773E-03     11.0770E-03
            2057     1.34442E-03     36.7322E-03    -116.339E+06    -222.562E+06    -109.641E+06        -456.454    -291.663E-03     583.441E-03    -291.777E-03     7.16383E-03    -291.764E-03     582.656E-03    -291.834E-03     7.54169E-03
            2058     672.182E-06     36.7226E-03    -118.861E+06    -230.400E+06    -117.105E+06    -3.43122E+03    -291.796E-03     583.558E-03    -291.761E-03     3.91037E-03    -291.887E-03     582.748E-03    -291.840E-03     4.12543E-03
            2059     12.8042E-03     35.8642E-03    -5.25524E+06     78.7876E+06     96.8905E+06     63.4593E+03    -286.472E-03     576.163E-03    -289.692E-03     32.4179E-03    -286.921E-03     576.593E-03    -289.314E-03     26.4543E-03
            2060     12.1284E-03     35.8074E-03    -10.9727E+06     74.8230E+06     97.2173E+06     168.256E+03    -286.508E-03     576.370E-03    -289.862E-03     39.4715E-03    -287.029E-03     576.836E-03    -289.469E-03     32.9689E-03
            2061     11.4526E-03     35.7475E-03    -17.0993E+06     68.7536E+06     92.4529E+06     12.5531E+03    -286.628E-03     576.658E-03    -290.030E-03     40.8486E-03    -287.140E-03     577.085E-03    -289.643E-03     35.1900E-03
            2062     10.7769E-03     35.6841E-03    -23.5056E+06     61.2640E+06     81.6699E+06     48.3690E+03    -286.854E-03     577.040E-03    -290.186E-03     41.9699E-03    -287.356E-03     577.439E-03    -289.832E-03     36.9534E-03
            2063     10.1013E-03     35.6190E-03    -29.9077E+06     48.2188E+06     68.4184E+06     171.524E+03    -287.156E-03     577.506E-03    -290.349E-03     41.8963E-03    -287.626E-03     577.842E-03    -290.034E-03     37.7045E-03
            2064     9.42591E-03     35.5541E-03    -36.3487E+06     37.6979E+06     56.0324E+06     224.878E+03    -287.479E-03     578.002E-03    -290.523E-03     41.0391E-03    -287.919E-03     578.285E-03    -290.245E-03     37.6745E-03
            2065     8.75068E-03     35.4902E-03    -43.0430E+06     33.7277E+06     46.4208E+06     438.885E+03    -287.811E-03     578.521E-03    -290.710E-03     39.5842E-03    -288.238E-03     578.781E-03    -290.464E-03     37.0117E-03
            2066     8.07576E-03     35.4284E-03    -50.0370E+06     13.7834E+06     35.8992E+06     557.293E+03    -288.232E-03     579.152E-03    -290.919E-03     37.6523E-03    -288.627E-03     579.313E-03    -290.687E-03     35.8086E-03
            2067     7.40115E-03     35.3693E-03    -57.3966E+06    -21.9467E+06     22.6508E+06     378.542E+03    -288.731E-03     579.868E-03    -291.137E-03     35.4615E-03    -289.072E-03     579.862E-03    -290.909E-03     34.2564E-03
            2068     6.72688E-03     35.3135E-03    -64.9047E+06    -56.0253E+06     8.62038E+06     249.951E+03    -289.236E-03     580.578E-03    -291.342E-03     33.0531E-03    -289.529E-03     580.417E-03    -291.123E-03     32.3884E-03
            2069     6.05296E-03     35.2614E-03    -72.3960E+06    -84.1624E+06    -5.63303E+06     189.128E+03    -289.720E-03     581.247E-03    -291.527E-03     30.4029E-03    -289.977E-03     580.964E-03    -291.328E-03     30.1816E-03
            2070     5.37936E-03     35.2134E-03    -79.9125E+06    -109.217E+06    -20.5012E+06     63.5299E+03    -290.180E-03     581.873E-03    -291.693E-03     27.5403E-03    -290.408E-03     581.489E-03    -291.521E-03     27.6596E-03
            2071     4.70611E-03     35.1701E-03    -87.3441E+06    -133.031E+06    -36.1235E+06     9.09523E+03    -290.614E-03     582.451E-03    -291.837E-03     24.5084E-03    -290.815E-03     581.975E-03    -291.698E-03     24.8668E-03
            2072     4.03317E-03     35.1316E-03    -94.5368E+06    -155.231E+06    -52.3505E+06    -2.59930E+03    -291.010E-03     582.968E-03    -291.959E-03     21.3242E-03    -291.187E-03     582.411E-03    -291.858E-03     21.8279E-03
            2073     3.36051E-03     35.0985E-03    -101.328E+06    -175.989E+06    -68.7156E+06    -15.8411E+03    -291.364E-03     583.420E-03    -292.057E-03     18.0052E-03    -291.518E-03     582.790E-03    -291.998E-03     18.5682E-03
            2074     2.68809E-03     35.0709E-03    -107.463E+06    -194.387E+06    -84.5242E+06    -33.4283E+03    -291.667E-03     583.799E-03    -292.131E-03     14.5735E-03    -291.801E-03     583.106E-03    -292.116E-03     15.1213E-03
            2075     2.01588E-03     35.0491E-03    -112.670E+06    -210.329E+06    -98.6410E+06    -45.1638E+03    -291.915E-03     584.101E-03    -292.186E-03     11.0588E-03    -292.031E-03     583.356E-03    -292.211E-03     11.5291E-03
            2076     1.34383E-03     35.0333E-03    -116.682E+06    -222.623E+06    -109.966E+06    -46.8773E+03    -292.098E-03     584.320E-03    -292.222E-03     7.50691E-03    -292.199E-03     583.535E-03    -292.280E-03     7.85245E-03
            2077     671.889E-06     35.0236E-03    -119.225E+06    -230.485E+06    -117.472E+06    -28.6658E+03    -292.247E-03     584.454E-03    -292.207E-03     4.09953E-03    -292.339E-03     583.645E-03    -292.288E-03     4.29672E-03
            2078     12.8039E-03     34.1772E-03    -5.14554E+06     78.8110E+06     96.9997E+06     5.93339E+03    -285.968E-03     575.685E-03    -289.716E-03     32.5970E-03    -286.418E-03     576.115E-03    -289.338E-03     26.6313E-03
            2079     12.1277E-03     34.1204E-03    -10.6908E+06     75.0275E+06     97.3251E+06    -179.922E+03    -286.004E-03     575.921E-03    -289.916E-03     39.8832E-03    -286.527E-03     576.390E-03    -289.523E-03     33.3546E-03
            2080     11.4516E-03     34.0601E-03    -16.8871E+06     68.4160E+06     92.4062E+06     4.57016E+03    -286.157E-03     576.274E-03    -290.117E-03     41.4634E-03    -286.672E-03     576.705E-03    -289.730E-03     35.7612E-03
            2081     10.7756E-03     33.9961E-03    -23.5668E+06     61.0912E+06     81.4086E+06     169.972E+03    -286.412E-03     576.719E-03    -290.307E-03     42.7589E-03    -286.919E-03     577.124E-03    -289.955E-03     37.6842E-03
            2082     10.0997E-03     33.9303E-03    -30.3794E+06     48.2916E+06     67.8148E+06     103.371E+03    -286.762E-03     577.269E-03    -290.507E-03     42.8369E-03    -287.239E-03     577.613E-03    -290.194E-03     38.5694E-03
            2083     9.42398E-03     33.8645E-03    -37.1256E+06     37.3317E+06     55.1705E+06     162.480E+03    -287.167E-03     577.887E-03    -290.719E-03     42.1052E-03    -287.616E-03     578.176E-03    -290.444E-03     38.6504E-03
            2084     8.74862E-03     33.7996E-03    -43.9209E+06     33.3114E+06     45.7168E+06     263.885E+03    -287.573E-03     578.518E-03    -290.946E-03     40.7684E-03    -288.009E-03     578.784E-03    -290.702E-03     38.0929E-03
            2085     8.07354E-03     33.7367E-03    -50.9487E+06     13.7363E+06     35.3835E+06     338.577E+03    -288.060E-03     579.255E-03    -291.195E-03     38.9388E-03    -288.463E-03     579.424E-03    -290.964E-03     36.9863E-03
            2086     7.39880E-03     33.6765E-03    -58.0882E+06    -21.6221E+06     22.3872E+06     382.966E+03    -288.646E-03     580.099E-03    -291.453E-03     36.7980E-03    -288.995E-03     580.100E-03    -291.226E-03     35.4851E-03
            2087     6.72447E-03     33.6196E-03    -65.3264E+06    -55.8039E+06     8.49238E+06     249.614E+03    -289.251E-03     580.948E-03    -291.697E-03     34.3742E-03    -289.550E-03     580.792E-03    -291.479E-03     33.6009E-03
            2088     6.05056E-03     33.5663E-03    -72.6498E+06    -84.0018E+06    -5.67532E+06     105.511E+03    -289.829E-03     581.748E-03    -291.918E-03     31.6743E-03    -290.090E-03     581.469E-03    -291.720E-03     31.3435E-03
            2089     5.37708E-03     33.5172E-03    -79.9964E+06    -109.128E+06    -20.5104E+06     71.1717E+03    -290.374E-03     582.491E-03    -292.117E-03     28.7464E-03    -290.604E-03     582.109E-03    -291.945E-03     28.7606E-03
            2090     4.70397E-03     33.4729E-03    -87.3466E+06    -133.055E+06    -36.1990E+06     40.3177E+03    -290.884E-03     583.176E-03    -292.292E-03     25.6349E-03    -291.087E-03     582.702E-03    -292.154E-03     25.8947E-03
            2091     4.03122E-03     33.4335E-03    -94.5323E+06    -155.329E+06    -52.4968E+06     44.9413E+03    -291.351E-03     583.793E-03    -292.442E-03     22.3496E-03    -291.529E-03     583.236E-03    -292.342E-03     22.7639E-03
            2092     3.35880E-03     33.3996E-03    -101.313E+06    -175.963E+06    -68.9289E+06     44.3098E+03    -291.769E-03     584.334E-03    -292.565E-03     18.9086E-03    -291.924E-03     583.704E-03    -292.507E-03     19.3936E-03
            2093     2.68667E-03     33.3713E-03    -107.440E+06    -194.439E+06    -84.7138E+06     27.8526E+03    -292.129E-03     584.790E-03    -292.661E-03     15.3328E-03    -292.263E-03     584.099E-03    -292.647E-03     15.8154E-03
            2094     2.01478E-03     33.3490E-03    -112.638E+06    -210.333E+06    -98.7969E+06     28.7838E+03    -292.423E-03     585.156E-03    -292.733E-03     11.6514E-03    -292.539E-03     584.412E-03    -292.759E-03     12.0714E-03
            2095     1.34308E-03     33.3328E-03    -116.645E+06    -222.683E+06    -110.042E+06     6.51617E+03    -292.641E-03     585.424E-03    -292.783E-03     7.91610E-03    -292.742E-03     584.639E-03    -292.841E-03     8.22710E-03
            2096     671.501E-06     33.3228E-03    -119.208E+06    -230.557E+06    -117.459E+06     37.8101E+03    -292.813E-03     585.589E-03    -292.776E-03     4.32485E-03    -292.904E-03     584.779E-03    -292.856E-03     4.50374E-03
            2097     12.8034E-03     32.4912E-03    -4.98773E+06     79.2056E+06     97.1186E+06    -168.233E+03    -285.349E-03     575.098E-03    -289.749E-03     32.8302E-03    -285.800E-03     575.531E-03    -289.371E-03     26.8602E-03
            2098     12.1269E-03     32.4341E-03    -10.8815E+06     74.4860E+06     97.1657E+06     58.7495E+03    -285.405E-03     575.391E-03    -289.986E-03     40.3572E-03    -285.932E-03     575.862E-03    -289.592E-03     33.8088E-03
            2099     11.4504E-03     32.3733E-03    -17.4540E+06     67.7120E+06     92.1119E+06     401.502E+03    -285.586E-03     575.812E-03    -290.226E-03     42.1991E-03    -286.108E-03     576.246E-03    -289.838E-03     36.4545E-03
            2100     10.7740E-03     32.3086E-03    -24.1632E+06     61.5044E+06     81.3974E+06     422.063E+03    -285.894E-03     576.352E-03    -290.459E-03     43.7033E-03    -286.411E-03     576.766E-03    -290.106E-03     38.5675E-03
            2101     10.0977E-03     32.2420E-03    -30.7775E+06     48.2771E+06     67.7059E+06     336.927E+03    -286.324E-03     577.026E-03    -290.702E-03     43.9396E-03    -286.810E-03     577.377E-03    -290.389E-03     39.5932E-03
            2102     9.42179E-03     32.1751E-03    -37.3919E+06     37.3488E+06     54.8802E+06     284.499E+03    -286.797E-03     577.755E-03    -290.958E-03     43.3451E-03    -287.253E-03     578.052E-03    -290.684E-03     39.7945E-03
            2103     8.74612E-03     32.1090E-03    -44.1617E+06     33.5297E+06     45.5069E+06     128.828E+03    -287.280E-03     578.511E-03    -291.231E-03     42.1236E-03    -287.724E-03     578.785E-03    -290.988E-03     39.3400E-03
            2104     8.07080E-03     32.0449E-03    -51.1084E+06     13.6127E+06     35.3073E+06    -37.1003E+03    -287.880E-03     579.409E-03    -291.529E-03     40.3524E-03    -288.290E-03     579.583E-03    -291.298E-03     38.2813E-03
            2105     7.39594E-03     31.9833E-03    -58.1831E+06    -21.7261E+06     22.3001E+06    -127.998E+03    -288.584E-03     580.415E-03    -291.831E-03     38.2085E-03    -288.938E-03     580.421E-03    -291.604E-03     36.7685E-03
            2106     6.72161E-03     31.9249E-03    -65.3191E+06    -55.7330E+06     8.36651E+06    -120.135E+03    -289.289E-03     581.407E-03    -292.117E-03     35.7555E-03    -289.592E-03     581.255E-03    -291.900E-03     34.8558E-03
            2107     6.04776E-03     31.8702E-03    -72.6111E+06    -84.1409E+06    -5.93159E+06    -63.9186E+03    -289.957E-03     582.337E-03    -292.380E-03     33.0187E-03    -290.221E-03     582.062E-03    -292.182E-03     32.5673E-03
            2108     5.37435E-03     31.8199E-03    -80.0485E+06    -109.339E+06    -20.9113E+06     24.5459E+03    -290.591E-03     583.210E-03    -292.619E-03     30.0356E-03    -290.823E-03     582.830E-03    -292.449E-03     29.9368E-03
            2109     4.70139E-03     31.7743E-03    -87.4343E+06    -133.157E+06    -36.6420E+06     117.027E+03    -291.191E-03     584.023E-03    -292.832E-03     26.8384E-03    -291.395E-03     583.551E-03    -292.695E-03     26.9952E-03
            2110     4.02886E-03     31.7339E-03    -94.6076E+06    -155.471E+06    -52.9367E+06     168.365E+03    -291.746E-03     584.763E-03    -293.017E-03     23.4378E-03    -291.925E-03     584.207E-03    -292.919E-03     23.7597E-03
            2111     3.35672E-03     31.6990E-03    -101.363E+06    -175.900E+06    -69.3587E+06     187.140E+03    -292.244E-03     585.415E-03    -293.172E-03     19.8561E-03    -292.400E-03     584.788E-03    -293.116E-03     20.2611E-03
            2112     2.68492E-03     31.6699E-03    -107.436E+06    -194.454E+06    -85.0547E+06     181.015E+03    -292.676E-03     585.972E-03    -293.296E-03     16.1172E-03    -292.811E-03     585.282E-03    -293.284E-03     16.5334E-03
            2113     2.01342E-03     31.6469E-03    -112.558E+06    -210.242E+06    -99.0157E+06     178.756E+03    -293.030E-03     586.421E-03    -293.391E-03     12.2548E-03    -293.145E-03     585.677E-03    -293.418E-03     12.6235E-03
            2114     1.34214E-03     31.6302E-03    -116.488E+06    -222.547E+06    -110.026E+06     149.851E+03    -293.293E-03     586.751E-03    -293.458E-03     8.32646E-03    -293.393E-03     585.967E-03    -293.517E-03     8.60270E-03
            2115     671.033E-06     31.6200E-03    -119.023E+06    -230.355E+06    -117.248E+06     95.2249E+03    -293.488E-03     586.955E-03    -293.467E-03     4.54958E-03    -293.579E-03     586.146E-03    -293.546E-03     4.70891E-03
            2116     12.8029E-03     30.8063E-03    -5.49136E+06     79.0643E+06     96.8554E+06     5.86339E+03    -284.621E-03     574.411E-03    -289.790E-03     33.0875E-03    -285.076E-03     574.847E-03    -289.413E-03     27.1153E-03
            2117     12.1259E-03     30.7489E-03    -11.2097E+06     73.5056E+06     96.7815E+06     259.842E+03    -284.690E-03     574.761E-03    -290.070E-03     40.9120E-03    -285.220E-03     575.231E-03    -289.677E-03     34.3441E-03
            2118     11.4489E-03     30.6875E-03    -17.2425E+06     67.5901E+06     92.1559E+06     414.976E+03    -284.930E-03     575.287E-03    -290.358E-03     43.0236E-03    -285.456E-03     575.725E-03    -289.970E-03     37.2316E-03
            2119     10.7720E-03     30.6219E-03    -23.5904E+06     61.6383E+06     81.6189E+06     414.897E+03    -285.316E-03     575.955E-03    -290.638E-03     44.7213E-03    -285.838E-03     576.375E-03    -290.286E-03     39.5185E-03
            2120     10.0954E-03     30.5540E-03    -30.1475E+06     48.4686E+06     68.0443E+06     391.762E+03    -285.827E-03     576.759E-03    -290.933E-03     45.1425E-03    -286.317E-03     577.118E-03    -290.619E-03     40.7123E-03
            2121     9.41906E-03     30.4859E-03    -36.6910E+06     37.9188E+06     55.6015E+06     166.449E+03    -286.407E-03     577.648E-03    -291.241E-03     44.6702E-03    -286.869E-03     577.954E-03    -290.965E-03     41.0191E-03
            2122     8.74312E-03     30.4184E-03    -43.2976E+06     33.8212E+06     46.2149E+06    -45.6335E+03    -287.019E-03     578.583E-03    -291.565E-03     43.4753E-03    -287.466E-03     578.863E-03    -291.320E-03     40.5784E-03
            2123     8.06767E-03     30.3527E-03    -50.2818E+06     13.7001E+06     35.5504E+06    -138.367E+03    -287.730E-03     579.639E-03    -291.909E-03     41.7201E-03    -288.143E-03     579.819E-03    -291.678E-03     39.5265E-03
            2124     7.39277E-03     30.2894E-03    -57.6226E+06    -22.0930E+06     21.9694E+06    -99.2247E+03    -288.532E-03     580.789E-03    -292.257E-03     39.5922E-03    -288.888E-03     580.798E-03    -292.032E-03     38.0302E-03
            2125     6.71838E-03     30.2294E-03    -65.1961E+06    -56.1132E+06     7.66453E+06     55.3529E+03    -289.333E-03     581.922E-03    -292.589E-03     37.1229E-03    -289.638E-03     581.775E-03    -292.375E-03     36.1074E-03
            2126     6.04453E-03     30.1732E-03    -72.8232E+06    -84.4716E+06    -6.79052E+06     191.872E+03    -290.103E-03     583.001E-03    -292.898E-03     34.3316E-03    -290.370E-03     582.729E-03    -292.704E-03     33.7708E-03
            2127     5.37124E-03     30.1213E-03    -80.3731E+06    -109.613E+06    -21.7988E+06     286.263E+03    -290.844E-03     584.024E-03    -293.181E-03     31.2591E-03    -291.078E-03     583.648E-03    -293.014E-03     31.0571E-03
            2128     4.69846E-03     30.0743E-03    -87.7979E+06    -133.300E+06    -37.5244E+06     333.905E+03    -291.547E-03     584.982E-03    -293.435E-03     27.9435E-03    -291.753E-03     584.513E-03    -293.302E-03     28.0050E-03
            2129     4.02619E-03     30.0325E-03      -94.95E+06    -155.516E+06    -53.7195E+06     362.164E+03    -292.199E-03     585.856E-03    -293.658E-03     24.4035E-03    -292.379E-03     585.304E-03    -293.563E-03     24.6402E-03
            2130     3.35437E-03     29.9964E-03    -101.641E+06    -175.822E+06    -69.9783E+06     368.765E+03    -292.784E-03     586.629E-03    -293.845E-03     20.6695E-03    -292.941E-03     586.004E-03    -293.793E-03     21.0011E-03
            2131     2.68297E-03     29.9663E-03    -107.656E+06    -194.302E+06    -85.4822E+06     354.146E+03    -293.290E-03     587.288E-03    -293.998E-03     16.7709E-03    -293.426E-03     586.600E-03    -293.987E-03     17.1271E-03
            2132     2.01190E-03     29.9425E-03    -112.738E+06    -210.040E+06    -99.2634E+06     327.874E+03    -293.703E-03     587.819E-03    -294.115E-03     12.7456E-03    -293.820E-03     587.077E-03    -294.143E-03     13.0684E-03
            2133     1.34112E-03     29.9252E-03    -116.634E+06    -222.078E+06    -110.224E+06     266.460E+03    -294.009E-03     588.207E-03    -294.198E-03     8.65525E-03    -294.111E-03     587.427E-03    -294.258E-03     8.90042E-03
            2134     670.507E-06     29.9145E-03    -119.115E+06    -229.855E+06    -117.412E+06     119.774E+03    -294.221E-03     588.450E-03    -294.230E-03     4.72883E-03    -294.313E-03     587.644E-03    -294.311E-03     4.87057E-03
            2135     12.8023E-03     29.1226E-03    -5.03412E+06     78.9129E+06     96.9725E+06     192.305E+03    -283.806E-03     573.648E-03    -289.841E-03     33.4320E-03    -284.261E-03     574.084E-03    -289.464E-03     27.4645E-03
            2136     12.1247E-03     29.0649E-03    -10.7155E+06     73.4036E+06     96.9119E+06     28.9574E+03    -283.930E-03     574.099E-03    -290.169E-03     41.5024E-03    -284.462E-03     574.573E-03    -289.775E-03     34.9049E-03
            2137     11.4471E-03     29.0025E-03    -16.8700E+06     67.2880E+06     92.1492E+06     22.1675E+03    -284.230E-03     574.736E-03    -290.506E-03     43.8435E-03    -284.760E-03     575.178E-03    -290.118E-03     37.9960E-03
            2138     10.7698E-03     28.9358E-03    -23.3654E+06     61.2988E+06     81.5936E+06     299.910E+03    -284.702E-03     575.542E-03    -290.840E-03     45.7059E-03    -285.229E-03     575.967E-03    -290.487E-03     40.4358E-03
            2139     10.0927E-03     28.8667E-03    -29.9054E+06     48.9848E+06     68.3550E+06     266.533E+03    -285.332E-03     576.519E-03    -291.187E-03     46.2235E-03    -285.830E-03     576.887E-03    -290.873E-03     41.7067E-03
            2140     9.41606E-03     28.7969E-03    -36.4211E+06     38.4715E+06     55.6311E+06     30.5479E+03    -286.044E-03     577.589E-03    -291.545E-03     45.7945E-03    -286.512E-03     577.904E-03    -291.270E-03     42.0413E-03
            2141     8.73999E-03     28.7276E-03    -43.2991E+06     33.5219E+06     45.5025E+06     113.867E+03    -286.772E-03     578.688E-03    -291.916E-03     44.6565E-03    -287.225E-03     578.974E-03    -291.675E-03     41.6567E-03
            2142     8.06437E-03     28.6601E-03    -50.7004E+06     13.2096E+06     34.4069E+06     489.683E+03    -287.591E-03     579.899E-03    -292.308E-03     42.9492E-03    -288.009E-03     580.084E-03    -292.082E-03     40.6600E-03
            2143     7.38930E-03     28.5950E-03    -58.3926E+06    -22.4285E+06     20.6335E+06     741.964E+03    -288.505E-03     581.209E-03    -292.704E-03     40.7827E-03    -288.866E-03     581.223E-03    -292.483E-03     39.1325E-03
            2144     6.71489E-03     28.5331E-03    -66.0217E+06    -56.2328E+06     6.39995E+06     757.890E+03    -289.422E-03     582.503E-03    -293.082E-03     38.2144E-03    -289.733E-03     582.362E-03    -292.872E-03     37.1137E-03
            2145     6.04113E-03     28.4749E-03    -73.5416E+06    -84.4819E+06    -7.96120E+06     684.264E+03    -290.307E-03     583.740E-03    -293.433E-03     35.3038E-03    -290.579E-03     583.473E-03    -293.243E-03     34.6604E-03
            2146     5.36798E-03     28.4212E-03    -80.9980E+06    -109.573E+06    -22.8174E+06     604.793E+03    -291.155E-03     584.909E-03    -293.754E-03     32.1025E-03    -291.393E-03     584.537E-03    -293.592E-03     31.8230E-03
            2147     4.69545E-03     28.3725E-03    -88.3003E+06    -133.222E+06    -38.3122E+06     550.166E+03    -291.955E-03     585.998E-03    -294.043E-03     28.6513E-03    -292.164E-03     585.532E-03    -293.914E-03     28.6434E-03
            2148     4.02348E-03     28.3291E-03    -95.3378E+06    -155.346E+06    -54.2964E+06     485.166E+03    -292.690E-03     586.985E-03    -294.296E-03     24.9792E-03    -292.873E-03     586.436E-03    -294.204E-03     25.1560E-03
            2149     3.35203E-03     28.2916E-03    -101.929E+06    -175.687E+06    -70.3391E+06     443.450E+03    -293.345E-03     587.855E-03    -294.509E-03     21.1239E-03    -293.504E-03     587.232E-03    -294.458E-03     21.4059E-03
            2150     2.68103E-03     28.2603E-03    -107.848E+06    -193.980E+06    -85.6622E+06     408.085E+03    -293.908E-03     588.591E-03    -294.683E-03     17.1168E-03    -294.045E-03     587.905E-03    -294.673E-03     17.4341E-03
            2151     2.01043E-03     28.2356E-03    -112.845E+06    -209.658E+06    -99.2814E+06     318.351E+03    -294.365E-03     589.182E-03    -294.817E-03     12.9955E-03    -294.483E-03     588.443E-03    -294.845E-03     13.2891E-03
            2152     1.34011E-03     28.2176E-03    -116.657E+06    -221.518E+06    -110.216E+06     230.120E+03    -294.703E-03     589.615E-03    -294.912E-03     8.81831E-03    -294.806E-03     588.837E-03    -294.972E-03     9.04376E-03
            2153     670.000E-06     28.2065E-03    -119.061E+06    -229.246E+06    -117.402E+06     123.807E+03    -294.920E-03     589.887E-03    -294.968E-03     4.81437E-03    -295.012E-03     589.084E-03    -295.050E-03     4.94604E-03
            2154     12.8014E-03     27.4402E-03    -5.14076E+06     78.7169E+06     96.8844E+06     1.12446E+03    -282.924E-03     572.819E-03    -289.896E-03     33.6667E-03    -283.381E-03     573.257E-03    -289.518E-03     27.6996E-03
            2155     12.1234E-03     27.3819E-03    -10.8633E+06     73.6766E+06     96.9275E+06     146.341E+03    -283.149E-03     573.423E-03    -290.273E-03     42.0259E-03    -283.687E-03     573.902E-03    -289.880E-03     35.4057E-03
            2156     11.4453E-03     27.3186E-03    -17.3734E+06     66.9344E+06     92.0293E+06     177.328E+03    -283.570E-03     574.231E-03    -290.661E-03     44.5664E-03    -284.109E-03     574.678E-03    -290.272E-03     38.6688E-03
            2157     10.7674E-03     27.2505E-03    -23.9938E+06     61.1509E+06     81.4423E+06     95.0815E+03    -284.159E-03     575.202E-03    -291.042E-03     46.4784E-03    -284.695E-03     575.634E-03    -290.689E-03     41.1386E-03
            2158     10.0901E-03     27.1797E-03    -30.4931E+06     49.2839E+06     67.5430E+06     27.1512E+03    -284.897E-03     576.330E-03    -291.433E-03     47.0471E-03    -285.403E-03     576.707E-03    -291.123E-03     42.4566E-03
            2159     9.41324E-03     27.1080E-03    -37.2518E+06     37.7261E+06     53.4717E+06     439.834E+03    -285.721E-03     577.556E-03    -291.834E-03     46.6564E-03    -286.195E-03     577.876E-03    -291.567E-03     42.8451E-03
            2160     8.73681E-03     27.0368E-03    -44.4824E+06     32.3010E+06     42.9626E+06     1.27158E+06    -286.585E-03     578.835E-03    -292.249E-03     45.4563E-03    -287.042E-03     579.124E-03    -292.017E-03     42.4167E-03
            2161     8.06102E-03     26.9671E-03    -52.0416E+06     12.9079E+06     32.6782E+06     1.67354E+06    -287.547E-03     580.231E-03    -292.685E-03     43.6165E-03    -287.971E-03     580.422E-03    -292.464E-03     41.2892E-03
            2162     7.38600E-03     26.8998E-03     -59.504E+06    -21.7229E+06     19.8283E+06     1.37975E+06    -288.583E-03     581.701E-03    -293.118E-03     41.2930E-03    -288.952E-03     581.724E-03    -292.901E-03     39.6003E-03
            2163     6.71168E-03     26.8357E-03    -66.7993E+06    -55.8598E+06     5.82383E+06     1.01372E+06    -289.604E-03     583.131E-03    -293.527E-03     38.5736E-03    -289.920E-03     582.995E-03    -293.320E-03     37.4332E-03
            2164     6.03806E-03     26.7754E-03    -74.0750E+06    -84.0505E+06    -8.39185E+06     852.677E+03    -290.578E-03     584.482E-03    -293.904E-03     35.5300E-03    -290.853E-03     584.219E-03    -293.716E-03     34.8553E-03
            2165     5.36514E-03     26.7197E-03    -81.3379E+06    -109.112E+06    -23.0213E+06     659.882E+03    -291.500E-03     585.747E-03    -294.247E-03     32.2167E-03    -291.741E-03     585.379E-03    -294.086E-03     31.9124E-03
            2166     4.69288E-03     26.6690E-03    -88.5034E+06    -132.916E+06    -38.3307E+06     482.509E+03    -292.359E-03     586.914E-03    -294.555E-03     28.6800E-03    -292.570E-03     586.450E-03    -294.426E-03     28.6517E-03
            2167     4.02122E-03     26.6239E-03    -95.4318E+06    -155.027E+06    -54.1901E+06     376.956E+03    -293.140E-03     587.963E-03    -294.822E-03     24.9511E-03    -293.325E-03     587.415E-03    -294.730E-03     25.1113E-03
            2168     3.35011E-03     26.5848E-03    -101.950E+06    -175.475E+06    -70.1512E+06     293.794E+03    -293.832E-03     588.880E-03    -295.047E-03     21.0637E-03    -293.992E-03     588.258E-03    -294.996E-03     21.3313E-03
            2169     2.67948E-03     26.5523E-03    -107.806E+06    -193.625E+06    -85.5228E+06     217.368E+03    -294.422E-03     589.651E-03    -295.229E-03     17.0461E-03    -294.559E-03     588.967E-03    -295.220E-03     17.3503E-03
            2170     2.00924E-03     26.5265E-03    -112.753E+06    -209.247E+06    -99.1674E+06     125.229E+03    -294.900E-03     590.271E-03    -295.371E-03     12.9293E-03    -295.018E-03     589.533E-03    -295.399E-03     13.2116E-03
            2171     1.33931E-03     26.5077E-03    -116.571E+06    -221.208E+06    -110.062E+06     50.8557E+03    -295.254E-03     590.725E-03    -295.471E-03     8.76619E-03    -295.357E-03     589.949E-03    -295.532E-03     8.98271E-03
            2172     669.596E-06     26.4962E-03    -118.982E+06    -228.891E+06    -117.301E+06     26.3747E+03    -295.464E-03     591.010E-03    -295.545E-03     4.78033E-03    -295.557E-03     590.208E-03    -295.627E-03     4.90680E-03
            2173     12.8010E-03     25.7595E-03    -5.37162E+06     78.4143E+06     96.4387E+06     66.1971E+03    -282.111E-03     572.051E-03    -289.940E-03     33.8393E-03    -282.570E-03     572.490E-03    -289.564E-03     27.8562E-03
            2174     12.1221E-03     25.7002E-03    -11.1697E+06     73.1508E+06     96.3379E+06     326.004E+03    -282.401E-03     572.764E-03    -290.364E-03     42.3445E-03    -282.941E-03     573.246E-03    -289.972E-03     35.6991E-03
            2175     11.4435E-03     25.6354E-03    -17.3021E+06     67.2771E+06     91.5707E+06     436.965E+03    -282.970E-03     573.766E-03    -290.796E-03     45.0669E-03    -283.512E-03     574.220E-03    -290.411E-03     39.1350E-03
            2176     10.7656E-03     25.5657E-03    -23.9642E+06     61.2218E+06     80.1880E+06     365.375E+03    -283.724E-03     574.941E-03    -291.217E-03     47.0939E-03    -284.263E-03     575.379E-03    -290.870E-03     41.7200E-03
            2177     10.0878E-03     25.4930E-03    -31.1285E+06     48.1410E+06     65.3240E+06     925.494E+03    -284.622E-03     576.265E-03    -291.643E-03     47.6217E-03    -285.130E-03     576.643E-03    -291.341E-03     43.0192E-03
            2178     9.41062E-03     25.4193E-03    -38.3816E+06     36.1980E+06     51.9273E+06     1.76235E+06    -285.617E-03     577.695E-03    -292.079E-03     47.0222E-03    -286.093E-03     578.014E-03    -291.816E-03     43.2128E-03
            2179     8.73425E-03     25.3457E-03    -45.4180E+06     31.1933E+06     42.3196E+06     2.25518E+06    -286.629E-03     579.148E-03    -292.520E-03     45.5683E-03    -287.089E-03     579.435E-03    -292.288E-03     42.5252E-03
            2180     8.05861E-03     25.2735E-03    -52.3096E+06     14.2883E+06     32.7245E+06     2.04682E+06    -287.680E-03     580.649E-03    -292.969E-03     43.5280E-03    -288.108E-03     580.847E-03    -292.750E-03     41.1929E-03
            2181     7.38368E-03     25.2038E-03    -59.3128E+06    -19.9349E+06     20.4053E+06     1.27495E+06    -288.781E-03     582.195E-03    -293.415E-03     41.0556E-03    -289.152E-03     582.226E-03    -293.198E-03     39.3550E-03
            2182     6.70953E-03     25.1373E-03    -66.4623E+06    -55.4869E+06     6.60311E+06     876.957E+03    -289.860E-03     583.692E-03    -293.833E-03     38.2188E-03    -290.175E-03     583.555E-03    -293.623E-03     37.0762E-03
            2183     6.03613E-03     25.0748E-03    -73.6967E+06    -83.3260E+06    -7.46389E+06     705.736E+03    -290.866E-03     585.078E-03    -294.212E-03     35.0923E-03    -291.140E-03     584.817E-03    -294.022E-03     34.4201E-03
            2184     5.36343E-03     25.0169E-03    -80.9292E+06    -108.396E+06    -22.1525E+06     413.654E+03    -291.805E-03     586.361E-03    -294.555E-03     31.7353E-03    -292.046E-03     585.993E-03    -294.392E-03     31.4334E-03
            2185     4.69139E-03     24.9642E-03    -88.0671E+06    -132.530E+06    -37.5771E+06     205.588E+03    -292.672E-03     587.533E-03    -294.861E-03     28.1875E-03    -292.882E-03     587.069E-03    -294.729E-03     28.1594E-03
            2186     4.01996E-03     24.9173E-03    -94.9964E+06    -154.770E+06    -53.5494E+06     93.4898E+03    -293.454E-03     588.578E-03    -295.125E-03     24.4750E-03    -293.637E-03     588.030E-03    -295.030E-03     24.6324E-03
            2187     3.34907E-03     24.8766E-03    -101.509E+06    -175.209E+06    -69.6117E+06     1.11651E+03    -294.141E-03     589.487E-03    -295.346E-03     20.6281E-03    -294.299E-03     588.865E-03    -295.292E-03     20.8900E-03
            2188     2.67865E-03     24.8427E-03    -107.374E+06    -193.490E+06    -85.0265E+06    -63.7667E+03    -294.724E-03     590.248E-03    -295.524E-03     16.6722E-03    -294.860E-03     589.563E-03    -295.513E-03     16.9688E-03
            2189     2.00863E-03     24.8159E-03    -112.343E+06    -209.094E+06    -98.7886E+06    -70.8963E+03    -295.195E-03     590.857E-03    -295.662E-03     12.6355E-03    -295.312E-03     590.120E-03    -295.690E-03     12.9102E-03
            2190     1.33891E-03     24.7963E-03    -116.157E+06    -221.163E+06    -109.751E+06    -91.5601E+03    -295.545E-03     591.306E-03    -295.761E-03     8.56599E-03    -295.647E-03     590.528E-03    -295.820E-03     8.77575E-03
            2191     669.401E-06     24.7843E-03    -118.575E+06    -229.015E+06    -116.926E+06    -73.3119E+03    -295.735E-03     591.589E-03    -295.854E-03     4.67672E-03    -295.826E-03     590.785E-03    -295.934E-03     4.79732E-03
            2192     12.8005E-03     24.0798E-03    -5.27324E+06     78.0313E+06     96.2173E+06     387.071E+03    -281.560E-03     571.537E-03    -289.977E-03     34.2692E-03    -282.020E-03     571.977E-03    -289.601E-03     28.2659E-03
            2193     12.1214E-03     24.0196E-03    -11.1089E+06     72.4322E+06     95.4267E+06     579.094E+03    -281.927E-03     572.356E-03    -290.429E-03     42.8051E-03    -282.470E-03     572.840E-03    -290.041E-03     36.1268E-03
            2194     11.4425E-03     23.9531E-03    -17.7186E+06     66.9350E+06     89.1747E+06     1.02746E+06    -282.578E-03     573.463E-03    -290.885E-03     45.4459E-03    -283.122E-03     573.923E-03    -290.510E-03     39.4948E-03
            2195     10.7638E-03     23.8813E-03    -24.8277E+06     60.3969E+06     77.1571E+06     1.85112E+06    -283.531E-03     574.860E-03    -291.329E-03     47.2490E-03    -284.070E-03     575.301E-03    -290.995E-03     41.8903E-03
            2196     10.0861E-03     23.8064E-03    -31.8757E+06     46.7791E+06     64.3681E+06     2.42729E+06    -284.680E-03     576.459E-03    -291.779E-03     47.4908E-03    -285.188E-03     576.833E-03    -291.479E-03     42.9094E-03
            2197     9.40922E-03     23.7300E-03    -38.4827E+06     36.3299E+06     53.4593E+06     2.35081E+06    -285.821E-03     578.045E-03    -292.224E-03     46.6474E-03    -286.300E-03     578.361E-03    -291.953E-03     42.8432E-03
            2198     8.73301E-03     23.6539E-03    -44.8404E+06     31.9657E+06     44.1513E+06     1.78442E+06    -286.889E-03     579.545E-03    -292.656E-03     45.0174E-03    -287.349E-03     579.831E-03    -292.416E-03     41.9695E-03
            2199     8.05753E-03     23.5793E-03    -51.3765E+06     15.8340E+06     34.3337E+06     1.29736E+06    -287.959E-03     581.048E-03    -293.089E-03     42.8193E-03    -288.385E-03     581.249E-03    -292.866E-03     40.4857E-03
            2200     7.38282E-03     23.5071E-03    -58.3316E+06    -18.4615E+06     21.8575E+06     1.03291E+06    -289.061E-03     582.577E-03    -293.516E-03     40.2009E-03    -289.429E-03     582.609E-03    -293.295E-03     38.5138E-03
            2201     6.70888E-03     23.4382E-03    -65.5603E+06    -54.6980E+06     7.89151E+06     662.331E+03    -290.128E-03     584.041E-03    -293.914E-03     37.2686E-03    -290.440E-03     583.904E-03    -293.700E-03     36.1388E-03
            2202     6.03567E-03     23.3734E-03    -72.7508E+06    -82.4661E+06    -6.11217E+06     271.835E+03    -291.106E-03     585.377E-03    -294.270E-03     34.0944E-03    -291.378E-03     585.115E-03    -294.076E-03     33.4279E-03
            2203     5.36313E-03     23.3134E-03    -79.9115E+06    -107.822E+06    -20.8764E+06     40.3443E+03    -292.008E-03     586.597E-03    -294.589E-03     30.7157E-03    -292.246E-03     586.229E-03    -294.421E-03     30.4165E-03
            2204     4.69123E-03     23.2587E-03    -87.0594E+06    -132.229E+06    -36.4249E+06    -84.2622E+03    -292.831E-03     587.700E-03    -294.869E-03     27.1723E-03    -293.037E-03     587.233E-03    -294.733E-03     27.1458E-03
            2205     4.01991E-03     23.2100E-03    -94.0111E+06    -154.592E+06    -52.5096E+06    -170.041E+03    -293.563E-03     588.670E-03    -295.107E-03     23.4965E-03    -293.743E-03     588.119E-03    -295.009E-03     23.6554E-03
            2206     3.34909E-03     23.1679E-03    -100.564E+06    -175.103E+06    -68.6847E+06    -220.425E+03    -294.198E-03     589.501E-03    -295.303E-03     19.7198E-03    -294.353E-03     588.877E-03    -295.247E-03     19.9844E-03
            2207     2.67872E-03     23.1327E-03    -106.482E+06    -193.561E+06    -84.1576E+06    -226.640E+03    -294.730E-03     590.189E-03    -295.459E-03     15.8734E-03    -294.863E-03     589.501E-03    -295.445E-03     16.1742E-03
            2208     2.00870E-03     23.1048E-03    -111.483E+06    -209.233E+06    -97.9372E+06    -209.307E+03    -295.153E-03     590.732E-03    -295.578E-03     11.9878E-03    -295.267E-03     589.990E-03    -295.603E-03     12.2670E-03
            2209     1.33897E-03     23.0845E-03    -115.311E+06    -221.372E+06    -108.921E+06    -149.322E+03    -295.466E-03     591.129E-03    -295.663E-03     8.10331E-03    -295.564E-03     590.348E-03    -295.719E-03     8.31763E-03
            2210     669.423E-06     23.0720E-03    -117.747E+06    -229.346E+06    -116.122E+06    -80.5094E+03    -295.615E-03     591.381E-03    -295.766E-03     4.40973E-03    -295.703E-03     590.573E-03    -295.844E-03     4.53386E-03
            2211     12.8000E-03     22.4008E-03    -5.02425E+06     77.2083E+06     94.8339E+06     418.059E+03    -281.268E-03     571.272E-03    -290.004E-03     34.7592E-03    -281.728E-03     571.713E-03    -289.634E-03     28.7241E-03
            2212     12.1206E-03     22.3392E-03    -10.4786E+06     72.5992E+06     94.6249E+06     573.982E+03    -281.874E-03     572.343E-03    -290.469E-03     43.3389E-03    -282.417E-03     572.833E-03    -290.086E-03     36.6146E-03
            2213     11.4418E-03     22.2713E-03    -16.2190E+06     63.6546E+06     88.2991E+06     1.45141E+06    -282.817E-03     573.743E-03    -290.926E-03     45.7199E-03    -283.350E-03     574.189E-03    -290.553E-03     39.7419E-03
            2214     10.7636E-03     22.1970E-03    -22.3755E+06     57.2756E+06     78.8314E+06     3.44338E+06    -283.947E-03     575.311E-03    -291.364E-03     46.9986E-03    -284.472E-03     575.731E-03    -291.020E-03     41.6543E-03
            2215     10.0861E-03     22.1192E-03    -29.0740E+06     48.9127E+06     68.5990E+06     3.77606E+06    -285.112E-03     576.903E-03    -291.791E-03     46.8015E-03    -285.614E-03     577.277E-03    -291.477E-03     42.2338E-03
            2216     9.40941E-03     22.0403E-03    -35.8842E+06     38.9348E+06     56.2465E+06     2.43452E+06    -286.253E-03     578.448E-03    -292.196E-03     45.7046E-03    -286.724E-03     578.768E-03    -291.919E-03     41.9029E-03
            2217     8.73352E-03     21.9617E-03    -42.6764E+06     34.0690E+06     46.1378E+06     1.40423E+06    -287.323E-03     579.908E-03    -292.586E-03     43.8535E-03    -287.775E-03     580.196E-03    -292.343E-03     40.8113E-03
            2218     8.05838E-03     21.8846E-03    -49.7048E+06     16.6124E+06     36.1137E+06     917.873E+03    -288.369E-03     581.344E-03    -292.975E-03     41.4398E-03    -288.788E-03     581.541E-03    -292.746E-03     39.1160E-03
            2219     7.38396E-03     21.8100E-03    -56.8547E+06    -17.7379E+06     23.6188E+06     769.260E+03    -289.411E-03     582.763E-03    -293.352E-03     38.6578E-03    -289.773E-03     582.792E-03    -293.126E-03     36.9806E-03
            2220     6.71026E-03     21.7389E-03    -63.9755E+06    -53.0230E+06     9.55882E+06     364.990E+03    -290.394E-03     584.087E-03    -293.694E-03     35.6092E-03    -290.701E-03     583.952E-03    -293.476E-03     34.4858E-03
            2221     6.03723E-03     21.6720E-03    -71.1568E+06    -81.6345E+06    -4.60290E+06    -160.495E+03    -291.283E-03     585.277E-03    -293.995E-03     32.3545E-03    -291.549E-03     585.014E-03    -293.796E-03     31.6876E-03
            2222     5.36482E-03     21.6099E-03    -78.3772E+06    -107.695E+06    -19.3926E+06    -297.357E+03    -292.084E-03     586.341E-03    -294.256E-03     28.9388E-03    -292.316E-03     585.968E-03    -294.084E-03     28.6372E-03
            2223     4.69298E-03     21.5535E-03    -85.5417E+06    -132.097E+06    -34.9669E+06    -272.815E+03    -292.795E-03     587.273E-03    -294.478E-03     25.4097E-03    -292.996E-03     586.803E-03    -294.337E-03     25.3820E-03
            2224     4.02164E-03     21.5032E-03    -92.5390E+06    -154.548E+06    -51.1027E+06    -267.202E+03    -293.409E-03     588.066E-03    -294.658E-03     21.8087E-03    -293.583E-03     587.512E-03    -294.555E-03     21.9665E-03
            2225     3.35072E-03     21.4597E-03    -99.1546E+06    -175.157E+06    -67.3354E+06    -240.396E+03    -293.922E-03     588.721E-03    -294.799E-03     18.1742E-03    -294.072E-03     588.093E-03    -294.738E-03     18.4376E-03
            2226     2.68016E-03     21.4234E-03    -105.129E+06    -193.678E+06    -82.8817E+06    -210.456E+03    -294.336E-03     589.243E-03    -294.906E-03     14.5389E-03    -294.464E-03     588.550E-03    -294.887E-03     14.8378E-03
            2227     2.00988E-03     21.3947E-03    -110.205E+06    -209.417E+06    -96.7026E+06    -176.047E+03    -294.657E-03     589.639E-03    -294.983E-03     10.9253E-03    -294.765E-03     588.894E-03    -295.003E-03     11.2020E-03
            2228     1.33981E-03     21.3738E-03    -114.124E+06    -221.692E+06    -107.681E+06    -133.402E+03    -294.886E-03     589.921E-03    -295.035E-03     7.35872E-03    -294.980E-03     589.135E-03    -295.086E-03     7.57015E-03
            2229     669.874E-06     21.3608E-03    -116.616E+06    -229.615E+06    -114.953E+06    -57.7195E+03    -294.974E-03     590.092E-03    -295.118E-03     3.98821E-03    -295.058E-03     589.280E-03    -295.191E-03     4.11072E-03
            2230     12.7997E-03     20.7221E-03    -4.95885E+06     76.8260E+06     92.7874E+06    -51.1488E+03    -281.421E-03     571.425E-03    -290.004E-03     35.0009E-03    -281.881E-03     571.871E-03    -289.644E-03     28.8973E-03
            2231     12.1205E-03     20.6588E-03    -10.1426E+06     72.5700E+06     94.0445E+06    -36.5760E+03    -282.346E-03     572.805E-03    -290.458E-03     43.3708E-03    -282.892E-03     573.299E-03    -290.079E-03     36.5627E-03
            2232     11.4420E-03     20.5882E-03    -15.7499E+06     59.5585E+06     87.6307E+06     672.309E+03    -283.599E-03     574.481E-03    -290.882E-03     45.5239E-03    -284.126E-03     574.910E-03    -290.508E-03     39.4698E-03
            2233     10.7646E-03     20.5113E-03    -21.1138E+06     53.4366E+06     80.3025E+06     1.90721E+06    -284.850E-03     576.122E-03    -291.272E-03     46.5571E-03    -285.366E-03     576.521E-03    -290.918E-03     41.1396E-03
            2234     10.0878E-03     20.4314E-03    -26.2760E+06     50.3087E+06     72.8909E+06     2.86104E+06    -285.975E-03     577.611E-03    -291.636E-03     45.9561E-03    -286.470E-03     577.981E-03    -291.307E-03     41.3389E-03
            2235     9.41170E-03     20.3500E-03    -32.3057E+06     41.1735E+06     59.9893E+06     3.19154E+06    -287.044E-03     579.005E-03    -291.960E-03     44.3462E-03    -287.504E-03     579.322E-03    -291.673E-03     40.5368E-03
            2236     8.73629E-03     20.2690E-03    -39.4493E+06     36.7458E+06     49.1081E+06     2.74067E+06    -288.013E-03     580.278E-03    -292.265E-03     42.0678E-03    -288.454E-03     580.568E-03    -292.016E-03     39.0279E-03
            2237     8.06159E-03     20.1896E-03    -47.0148E+06     18.6619E+06     38.3543E+06     1.78566E+06    -288.944E-03     581.509E-03    -292.566E-03     39.3591E-03    -289.353E-03     581.707E-03    -292.333E-03     37.0257E-03
            2238     7.38757E-03     20.1130E-03    -54.4920E+06    -16.1179E+06     25.5954E+06     849.151E+03    -289.855E-03     582.704E-03    -292.850E-03     36.3642E-03    -290.209E-03     582.734E-03    -292.619E-03     34.6574E-03
            2239     6.71417E-03     20.0399E-03    -61.8142E+06    -51.3404E+06     11.4596E+06     205.200E+03    -290.684E-03     583.778E-03    -293.094E-03     33.1526E-03    -290.985E-03     583.644E-03    -292.873E-03     31.9881E-03
            2240     6.04135E-03     19.9712E-03    -69.1595E+06    -80.8741E+06    -2.95915E+06    -89.7783E+03    -291.401E-03     584.696E-03    -293.295E-03     29.7895E-03    -291.660E-03     584.431E-03    -293.092E-03     29.0786E-03
            2241     5.36902E-03     19.9075E-03    -76.6126E+06    -107.657E+06    -17.9719E+06    -168.173E+03    -292.010E-03     585.465E-03    -293.454E-03     26.3397E-03    -292.235E-03     585.087E-03    -293.277E-03     25.9884E-03
            2242     4.69713E-03     19.8497E-03    -84.0028E+06    -132.045E+06    -33.6426E+06    -138.835E+03    -292.509E-03     586.082E-03    -293.574E-03     22.8641E-03    -292.704E-03     585.609E-03    -293.429E-03     22.7805E-03
            2243     4.02558E-03     19.7982E-03    -91.1436E+06    -154.519E+06    -49.8430E+06    -91.9303E+03    -292.900E-03     586.557E-03    -293.657E-03     19.4148E-03    -293.070E-03     585.999E-03    -293.550E-03     19.5132E-03
            2244     3.35431E-03     19.7538E-03    -97.8552E+06    -175.139E+06    -66.1189E+06    -58.8643E+03    -293.198E-03     586.907E-03    -293.709E-03     16.0278E-03    -293.343E-03     586.275E-03    -293.644E-03     16.2316E-03
            2245     2.68324E-03     19.7167E-03    -103.898E+06    -193.687E+06    -81.6887E+06    -28.6886E+03    -293.417E-03     587.155E-03    -293.738E-03     12.7225E-03    -293.541E-03     586.459E-03    -293.715E-03     12.9660E-03
            2246     2.01232E-03     19.6874E-03    -108.993E+06    -209.422E+06    -95.5672E+06    -12.1027E+03    -293.572E-03     587.323E-03    -293.750E-03     9.50428E-03    -293.677E-03     586.574E-03    -293.766E-03     9.73391E-03
            2247     1.34149E-03     19.6661E-03    -112.891E+06    -221.747E+06    -106.564E+06    -15.5643E+03    -293.675E-03     587.429E-03    -293.753E-03     6.37705E-03    -293.765E-03     586.639E-03    -293.801E-03     6.55328E-03
            2248     670.728E-06     19.6530E-03    -115.364E+06    -229.740E+06    -113.755E+06    -39.7676E+03    -293.681E-03     587.487E-03    -293.806E-03     3.45161E-03    -293.760E-03     586.670E-03    -293.874E-03     3.55170E-03
            2249     12.8001E-03     19.0427E-03    -5.13578E+06     77.1965E+06     93.4607E+06    -154.741E+03    -282.299E-03     572.266E-03    -289.968E-03     35.1295E-03    -282.766E-03     572.718E-03    -289.605E-03     28.9255E-03
            2250     12.1217E-03     18.9771E-03    -10.9143E+06     71.8593E+06     93.9228E+06    -117.089E+03    -283.423E-03     573.786E-03    -290.363E-03     43.2530E-03    -283.977E-03     574.283E-03    -289.982E-03     36.3264E-03
            2251     11.4441E-03     18.9039E-03    -16.9737E+06     58.5221E+06     86.1703E+06    -155.441E+03    -284.773E-03     575.481E-03    -290.707E-03     45.0547E-03    -285.307E-03     575.912E-03    -290.336E-03     38.8691E-03
            2252     10.7672E-03     18.8245E-03    -22.8218E+06     52.6693E+06     77.9964E+06    -719.391E+03    -286.087E-03     577.090E-03    -291.004E-03     45.5927E-03    -286.610E-03     577.493E-03    -290.657E-03     40.0217E-03
            2253     10.0913E-03     18.7421E-03    -28.4127E+06     47.8105E+06     71.0916E+06    -542.617E+03    -287.259E-03     578.525E-03    -291.266E-03     44.4703E-03    -287.760E-03     578.889E-03    -290.939E-03     39.7041E-03
            2254     9.41617E-03     18.6587E-03    -33.6016E+06     39.0205E+06     60.2126E+06     907.220E+03    -288.266E-03     579.741E-03    -291.475E-03     42.3706E-03    -288.730E-03     580.049E-03    -291.182E-03     38.4394E-03
            2255     8.74167E-03     18.5758E-03    -38.9751E+06     37.0372E+06     50.7956E+06      2.3141E+06    -289.062E-03     580.708E-03    -291.647E-03     39.6116E-03    -289.503E-03     580.996E-03    -291.390E-03     36.4709E-03
            2256     8.06767E-03     18.4947E-03    -45.4413E+06     21.6014E+06     40.3750E+06     2.51363E+06    -289.774E-03     581.575E-03    -291.801E-03     36.4696E-03    -290.182E-03     581.781E-03    -291.565E-03     34.0393E-03
            2257     7.39419E-03     18.4164E-03    -52.8018E+06    -12.7110E+06     27.2603E+06     1.56271E+06    -290.452E-03     582.386E-03    -291.934E-03     33.1384E-03    -290.805E-03     582.428E-03    -291.703E-03     31.3207E-03
            2258     6.72122E-03     18.3419E-03    -60.4315E+06    -49.7845E+06     12.5722E+06     736.113E+03    -291.030E-03     583.055E-03    -292.025E-03     29.6817E-03    -291.328E-03     582.925E-03    -291.802E-03     28.3899E-03
            2259     6.04862E-03     18.2719E-03    -68.0712E+06    -80.1286E+06    -2.08232E+06     490.662E+03    -291.456E-03     583.523E-03    -292.067E-03     26.1640E-03    -291.713E-03     583.260E-03    -291.863E-03     25.3127E-03
            2260     5.37633E-03     18.2073E-03    -75.6420E+06    -107.158E+06    -17.1725E+06     406.187E+03    -291.735E-03     583.804E-03    -292.069E-03     22.6814E-03    -291.958E-03     583.428E-03    -291.889E-03     22.1787E-03
            2261     4.70423E-03     18.1487E-03    -83.0924E+06    -131.666E+06    -32.8880E+06     339.178E+03    -291.883E-03     583.919E-03    -292.036E-03     19.3130E-03    -292.078E-03     583.446E-03    -291.889E-03     19.0724E-03
            2262     4.03224E-03     18.0967E-03    -90.2931E+06    -154.169E+06    -49.0993E+06     294.539E+03    -291.930E-03     583.907E-03    -291.977E-03     16.1010E-03    -292.099E-03     583.350E-03    -291.868E-03     16.0454E-03
            2263     3.36028E-03     18.0519E-03    -97.0388E+06    -174.824E+06    -65.3694E+06     266.853E+03    -291.908E-03     583.811E-03    -291.902E-03     13.0635E-03    -292.053E-03     583.179E-03    -291.835E-03     13.1248E-03
            2264     2.68830E-03     18.0147E-03    -103.091E+06    -193.348E+06    -80.9382E+06     224.589E+03    -291.846E-03     583.667E-03    -291.821E-03     10.2066E-03    -291.968E-03     582.972E-03    -291.796E-03     10.3262E-03
            2265     2.01629E-03     17.9853E-03    -108.197E+06    -209.139E+06    -94.7780E+06     176.065E+03    -291.768E-03     583.513E-03    -291.745E-03     7.52149E-03    -291.871E-03     582.764E-03    -291.758E-03     7.65223E-03
            2266     1.34423E-03     17.9640E-03    -112.111E+06    -221.428E+06    -105.793E+06     134.526E+03    -291.696E-03     583.377E-03    -291.681E-03     4.99068E-03    -291.783E-03     582.586E-03    -291.726E-03     5.09808E-03
            2267     672.130E-06     17.9508E-03    -114.572E+06    -229.500E+06    -113.040E+06     63.4205E+03    -291.583E-03     583.282E-03    -291.698E-03     2.67699E-03    -291.660E-03     582.464E-03    -291.765E-03     2.73888E-03
            2268     12.8013E-03     17.3612E-03    -5.27713E+06     77.2503E+06     94.9675E+06     130.793E+03    -283.880E-03     573.763E-03    -289.883E-03     35.5242E-03    -284.357E-03     574.220E-03    -289.512E-03     29.1832E-03
            2269     12.1240E-03     17.2935E-03    -10.7708E+06     72.3677E+06     94.5756E+06    -117.508E+03    -285.161E-03     575.335E-03    -290.174E-03     43.3499E-03    -285.725E-03     575.843E-03    -289.790E-03     36.2444E-03
            2270     11.4475E-03     17.2177E-03    -16.4235E+06     59.6593E+06     86.7196E+06    -756.338E+03    -286.633E-03     577.029E-03    -290.396E-03     44.5111E-03    -287.174E-03     577.472E-03    -290.025E-03     38.1276E-03
            2271     10.7721E-03     17.1358E-03     -22.514E+06     53.4037E+06     77.7856E+06    -1.11219E+06    -287.967E-03     578.516E-03    -290.549E-03     44.1799E-03    -288.494E-03     578.927E-03    -290.205E-03     38.4169E-03
            2272     10.0974E-03     17.0513E-03    -29.3156E+06     47.0241E+06     69.1766E+06    -1.44609E+06    -289.046E-03     579.692E-03    -290.646E-03     42.2378E-03    -289.550E-03     580.058E-03    -290.326E-03     37.2694E-03
            2273     9.42344E-03     16.9661E-03    -36.1812E+06     36.3718E+06     57.2709E+06    -1.73082E+06    -289.908E-03     580.586E-03    -290.678E-03     39.4941E-03    -290.377E-03     580.890E-03    -290.392E-03     35.3195E-03
            2274     8.75007E-03     16.8819E-03    -42.3931E+06     33.5524E+06     48.1507E+06    -964.245E+03    -290.517E-03     581.177E-03    -290.660E-03     36.1982E-03    -290.969E-03     581.457E-03    -290.406E-03     32.7814E-03
            2275     8.07713E-03     16.7997E-03    -48.2313E+06     21.3831E+06     39.0039E+06     375.934E+03    -290.962E-03     581.567E-03    -290.605E-03     32.5431E-03    -291.384E-03     581.781E-03    -290.371E-03     29.8309E-03
            2276     7.40448E-03     16.7206E-03    -54.5156E+06    -10.3259E+06     26.6548E+06     981.116E+03    -291.301E-03     581.816E-03    -290.515E-03     28.7246E-03    -291.667E-03     581.876E-03    -290.288E-03     26.6254E-03
            2277     6.73208E-03     16.6455E-03    -61.4478E+06    -48.2949E+06     12.0699E+06     909.776E+03    -291.476E-03     581.853E-03    -290.377E-03     24.8906E-03    -291.783E-03     581.736E-03    -290.158E-03     23.3043E-03
            2278     6.05981E-03     16.5752E-03    -68.6667E+06    -79.1410E+06    -2.43744E+06     757.807E+03    -291.427E-03     581.617E-03    -290.190E-03     21.1761E-03    -291.691E-03     581.363E-03    -289.988E-03     20.0139E-03
            2279     5.38749E-03     16.5106E-03    -75.9550E+06    -106.278E+06    -17.4035E+06     663.489E+03    -291.197E-03     581.164E-03    -289.967E-03     17.6877E-03    -291.425E-03     580.795E-03    -289.789E-03     16.8696E-03
            2280     4.71499E-03     16.4523E-03    -83.1767E+06    -130.866E+06    -32.9805E+06     596.704E+03    -290.837E-03     580.559E-03    -289.721E-03     14.4855E-03    -291.036E-03     580.092E-03    -289.576E-03     13.9379E-03
            2281     4.04224E-03     16.4009E-03    -90.1828E+06    -153.447E+06    -49.0649E+06     539.574E+03    -290.401E-03     579.868E-03    -289.467E-03     11.6004E-03    -290.572E-03     579.316E-03    -289.359E-03     11.2565E-03
            2282     3.36920E-03     16.3566E-03    -96.7814E+06    -174.129E+06     -65.214E+06     476.415E+03    -289.935E-03     579.153E-03    -289.218E-03     9.04354E-03    -290.081E-03     578.525E-03    -289.151E-03     8.84525E-03
            2283     2.69585E-03     16.3200E-03    -102.735E+06    -192.678E+06    -80.6715E+06     413.691E+03    -289.485E-03     578.472E-03    -288.988E-03     6.80388E-03    -289.608E-03     577.780E-03    -288.963E-03     6.70242E-03
            2284     2.02219E-03     16.2911E-03    -107.785E+06    -208.504E+06    -94.4157E+06     340.903E+03    -289.089E-03     577.879E-03    -288.790E-03     4.84838E-03    -289.192E-03     577.132E-03    -288.803E-03     4.80477E-03
            2285     1.34829E-03     16.2703E-03    -111.673E+06    -220.795E+06    -105.347E+06     243.721E+03    -288.778E-03     577.414E-03    -288.636E-03     3.13082E-03    -288.865E-03     576.626E-03    -288.681E-03     3.11621E-03
            2286     674.197E-06     16.2574E-03    -114.126E+06    -228.841E+06    -112.567E+06     140.956E+03    -288.509E-03     577.111E-03    -288.602E-03     1.64324E-03    -288.586E-03     576.295E-03    -288.667E-03     1.63718E-03
            2287     12.8030E-03     15.6769E-03    -4.98263E+06     77.6393E+06     95.2815E+06    -171.975E+03    -286.235E-03     575.982E-03    -289.747E-03     36.1596E-03    -286.721E-03     576.450E-03    -289.376E-03     29.6163E-03
            2288     12.1273E-03     15.6067E-03    -10.3497E+06     73.3575E+06     95.2231E+06    -539.780E+03    -287.756E-03     577.648E-03    -289.892E-03     43.4230E-03    -288.332E-03     578.172E-03    -289.507E-03     36.0481E-03
            2289     11.4527E-03     15.5283E-03    -16.4771E+06     60.4099E+06     87.1969E+06    -672.014E+03    -289.347E-03     579.285E-03    -289.938E-03     43.6978E-03    -289.901E-03     579.742E-03    -289.566E-03     37.0339E-03
            2290     10.7791E-03     15.4443E-03    -22.9080E+06     53.6977E+06     77.9729E+06    -840.789E+03    -290.643E-03     580.530E-03    -289.887E-03     42.3657E-03    -291.180E-03     580.950E-03    -289.541E-03     36.3125E-03
            2291     10.1063E-03     15.3583E-03    -29.3031E+06     47.6094E+06     69.2655E+06    -927.259E+03    -291.569E-03     581.324E-03    -289.756E-03     39.4466E-03    -292.079E-03     581.699E-03    -289.436E-03     34.1646E-03
            2292     9.43413E-03     15.2722E-03    -36.0783E+06     36.9481E+06     56.6417E+06    -1.13580E+06    -292.205E-03     581.739E-03    -289.535E-03     35.7821E-03    -292.679E-03     582.052E-03    -289.253E-03     31.2599E-03
            2293     8.76230E-03     15.1873E-03    -43.2645E+06     32.7062E+06     46.0978E+06    -1.98543E+06    -292.544E-03     581.785E-03    -289.241E-03     31.6610E-03    -292.999E-03     582.070E-03    -288.995E-03     27.8307E-03
            2294     8.09072E-03     15.1049E-03    -50.2162E+06     19.0693E+06     36.2464E+06    -2.26659E+06    -292.634E-03     581.527E-03    -288.893E-03     27.2861E-03    -293.063E-03     581.741E-03    -288.667E-03     24.0864E-03
            2295     7.41925E-03     15.0260E-03    -56.7065E+06    -11.5077E+06     24.3727E+06    -1.29803E+06    -292.472E-03     580.967E-03    -288.494E-03     22.8741E-03    -292.849E-03     581.031E-03    -288.274E-03     20.2477E-03
            2296     6.74771E-03     14.9516E-03    -63.1635E+06    -47.8290E+06     10.4541E+06    -399.620E+03    -292.022E-03     580.063E-03    -288.040E-03     18.6459E-03    -292.340E-03     579.956E-03    -287.827E-03     16.5161E-03
            2297     6.07578E-03     14.8826E-03    -69.8626E+06     -78.608E+06    -3.72202E+06    -40.8052E+03    -291.293E-03     578.834E-03    -287.541E-03     14.7541E-03    -291.565E-03     578.589E-03    -287.344E-03     13.0418E-03
            2298     5.40330E-03     14.8194E-03    -76.7315E+06    -105.582E+06    -18.4031E+06     187.920E+03    -290.364E-03     577.381E-03    -287.017E-03     11.2895E-03    -290.598E-03     577.021E-03    -286.844E-03     9.92813E-03
            2299     4.73018E-03     14.7628E-03    -83.6403E+06    -130.142E+06    -33.7594E+06     317.232E+03    -289.313E-03     575.801E-03    -286.488E-03     8.32240E-03    -289.516E-03     575.342E-03    -286.347E-03     7.25210E-03
            2300     4.05633E-03     14.7131E-03    -90.4146E+06    -152.685E+06    -49.6534E+06     407.069E+03    -288.217E-03     574.192E-03    -285.975E-03     5.88752E-03    -288.391E-03     573.646E-03    -285.871E-03     5.05787E-03
            2301     3.38173E-03     14.6707E-03    -96.8447E+06    -173.350E+06    -65.6385E+06     469.026E+03    -287.151E-03     572.649E-03    -285.498E-03     3.97736E-03    -287.299E-03     572.027E-03    -285.434E-03     3.34663E-03
            2302     2.70640E-03     14.6357E-03    -102.677E+06    -191.867E+06    -80.9292E+06     488.183E+03    -286.184E-03     571.259E-03    -285.075E-03     2.55028E-03    -286.309E-03     570.572E-03    -285.053E-03     2.08439E-03
            2303     2.03043E-03     14.6082E-03    -107.629E+06    -207.623E+06    -94.5069E+06     447.403E+03    -285.372E-03     570.097E-03    -284.725E-03     1.53684E-03    -285.477E-03     569.355E-03    -284.740E-03     1.20893E-03
            2304     1.35393E-03     14.5884E-03    -111.446E+06    -219.854E+06    -105.289E+06     339.363E+03    -284.759E-03     569.220E-03    -284.460E-03     845.865E-06    -284.847E-03     568.435E-03    -284.506E-03     635.239E-06
            2305     677.072E-06     14.5763E-03    -113.852E+06    -227.905E+06    -112.376E+06     173.476E+03    -284.306E-03     568.661E-03    -284.355E-03     381.382E-06    -284.383E-03     567.849E-03    -284.422E-03     267.051E-06
            2306     12.8052E-03     13.9881E-03    -5.22458E+06     78.1998E+06     95.5050E+06    -305.569E+03    -289.546E-03     579.115E-03    -289.569E-03     36.8165E-03    -290.047E-03     579.598E-03    -289.197E-03     30.0101E-03
            2307     12.1319E-03     13.9152E-03    -11.0459E+06     73.8613E+06     95.3749E+06    -440.808E+03    -291.317E-03     580.829E-03    -289.512E-03     43.3776E-03    -291.915E-03     581.373E-03    -289.126E-03     35.6546E-03
            2308     11.4597E-03     13.8346E-03    -17.0274E+06     60.5510E+06     87.1467E+06    -612.715E+03    -292.991E-03     582.310E-03    -289.318E-03     42.5567E-03    -293.562E-03     582.782E-03    -288.946E-03     35.4984E-03
            2309     10.7886E-03     13.7490E-03    -23.0427E+06     54.2971E+06     78.0289E+06    -831.021E+03    -294.203E-03     583.197E-03    -288.995E-03     39.9964E-03    -294.752E-03     583.632E-03    -288.650E-03     33.5075E-03
            2310     10.1183E-03     13.6622E-03    -29.4235E+06     47.8287E+06     69.2068E+06    -1.10162E+06    -294.984E-03     583.544E-03    -288.560E-03     35.9334E-03    -295.503E-03     583.929E-03    -288.241E-03     30.1668E-03
            2311     9.44843E-03     13.5759E-03    -35.6285E+06     37.5002E+06     56.7592E+06    -1.27153E+06    -295.399E-03     583.401E-03    -288.002E-03     31.1633E-03    -295.878E-03     583.723E-03    -287.721E-03     26.0893E-03
            2312     8.77884E-03     13.4914E-03    -41.7259E+06     34.7154E+06     46.4434E+06    -1.66372E+06    -295.325E-03     582.663E-03    -287.338E-03     26.0042E-03    -295.782E-03     582.962E-03    -287.096E-03     21.5514E-03
            2313     8.10927E-03     13.4101E-03    -48.5518E+06     18.9514E+06     35.6184E+06    -2.16828E+06    -294.811E-03     581.411E-03    -286.600E-03     20.8199E-03    -295.235E-03     581.628E-03    -286.379E-03     16.9233E-03
            2314     7.43934E-03     13.3331E-03    -55.9010E+06    -13.0305E+06     22.8837E+06    -2.12968E+06    -293.902E-03     579.704E-03    -285.802E-03     15.8836E-03    -294.275E-03     579.766E-03    -285.587E-03     12.4925E-03
            2315     6.76868E-03     13.2613E-03    -63.0515E+06    -48.5199E+06     8.93890E+06    -1.57211E+06    -292.617E-03     577.566E-03    -284.949E-03     11.3643E-03    -292.934E-03     577.461E-03    -284.742E-03     8.43056E-03
            2316     6.09711E-03     13.1953E-03    -69.9707E+06    -78.9134E+06    -5.13565E+06    -946.313E+03    -291.009E-03     575.068E-03    -284.059E-03     7.40540E-03    -291.280E-03     574.826E-03    -283.869E-03     4.87807E-03
            2317     5.42439E-03     13.1356E-03    -76.8904E+06    -105.543E+06    -19.7499E+06    -441.913E+03    -289.180E-03     572.342E-03    -283.162E-03     4.12530E-03    -289.414E-03     571.985E-03    -282.996E-03     1.95928E-03
            2318     4.75037E-03     13.0826E-03    -83.7897E+06    -129.852E+06    -35.0102E+06    -23.8947E+03    -287.244E-03     569.531E-03    -282.287E-03     1.58118E-03    -287.446E-03     569.075E-03    -282.153E-03    -258.818E-06
            2319     4.07497E-03     13.0365E-03    -90.5541E+06    -152.216E+06    -50.7647E+06     296.819E+03    -285.318E-03     566.781E-03    -281.463E-03    -227.559E-06    -285.492E-03     566.239E-03    -281.365E-03    -1.76773E-03
            2320     3.39823E-03     12.9974E-03    -96.9636E+06    -172.704E+06    -66.5481E+06     520.891E+03    -283.511E-03     564.226E-03    -280.715E-03    -1.34784E-03    -283.659E-03     563.608E-03    -280.657E-03    -2.60711E-03
            2321     2.72025E-03     12.9653E-03    -102.756E+06    -191.011E+06    -81.5976E+06     637.263E+03    -281.916E-03     561.984E-03    -280.068E-03    -1.86046E-03    -282.041E-03     561.301E-03    -280.050E-03    -2.85253E-03
            2322     2.04118E-03     12.9403E-03    -107.661E+06    -206.566E+06    -94.9243E+06     633.545E+03    -280.607E-03     560.149E-03    -279.541E-03    -1.87053E-03    -280.713E-03     559.411E-03    -279.560E-03    -2.60633E-03
            2323     1.36128E-03     12.9224E-03    -111.416E+06    -218.610E+06    -105.464E+06     516.628E+03    -279.636E-03     558.785E-03    -279.149E-03    -1.49917E-03    -279.726E-03     558.007E-03    -279.198E-03    -1.98944E-03
            2324     680.793E-06     12.9114E-03    -113.779E+06    -226.553E+06    -112.347E+06     318.197E+03    -278.977E-03     557.930E-03    -278.952E-03    -914.805E-06    -279.057E-03     557.124E-03    -279.021E-03    -1.18127E-03
            2325     12.8079E-03     12.2932E-03    -5.33716E+06     78.4081E+06     95.8012E+06    -120.949E+03    -293.868E-03     583.211E-03    -289.343E-03     37.4303E-03    -294.386E-03     583.711E-03    -288.970E-03     30.3101E-03
            2326     12.1376E-03     12.2177E-03    -10.7677E+06     74.6304E+06     95.7678E+06    -456.194E+03    -295.910E-03     584.933E-03    -289.023E-03     43.1194E-03    -296.527E-03     585.499E-03    -288.637E-03     34.9495E-03
            2327     11.4687E-03     12.1349E-03    -16.6227E+06     61.1219E+06     87.3848E+06    -837.593E+03    -297.685E-03     586.208E-03    -288.523E-03     40.9314E-03    -298.271E-03     586.699E-03    -288.151E-03     33.3485E-03
            2328     10.8009E-03     12.0485E-03    -22.7233E+06     54.6538E+06     78.1379E+06    -1.12174E+06    -298.852E-03     586.702E-03    -287.850E-03     36.9093E-03    -299.413E-03     587.151E-03    -287.506E-03     29.8172E-03
            2329     10.1336E-03     11.9617E-03    -28.7573E+06     48.6643E+06     69.3197E+06    -1.46759E+06    -299.426E-03     586.449E-03    -287.023E-03     31.4615E-03    -299.954E-03     586.848E-03    -286.705E-03     25.0015E-03
            2330     9.46694E-03     11.8762E-03    -34.9534E+06     37.8572E+06     56.2473E+06    -1.91679E+06    -299.396E-03     585.431E-03    -286.035E-03     25.5177E-03    -299.881E-03     585.764E-03    -285.758E-03     19.6449E-03
            2331     8.80025E-03     11.7937E-03    -41.4570E+06     34.9208E+06     45.5103E+06    -2.03051E+06    -298.629E-03     583.548E-03    -284.919E-03     19.5302E-03    -299.091E-03     583.856E-03    -284.682E-03     14.1880E-03
            2332     8.13291E-03     11.7156E-03    -48.1286E+06     19.4888E+06     34.7660E+06    -1.69484E+06    -297.230E-03     580.950E-03    -283.720E-03     13.8201E-03    -297.657E-03     581.175E-03    -283.504E-03     8.97902E-03
            2333     7.46452E-03     11.6427E-03    -55.0026E+06    -12.4683E+06     21.9221E+06    -1.47571E+06    -295.322E-03     577.784E-03    -282.462E-03     8.65526E-03    -295.692E-03     577.852E-03    -282.255E-03     4.27818E-03
            2334     6.79486E-03     11.5757E-03    -62.1519E+06    -48.9139E+06     7.54720E+06    -1.22285E+06    -292.980E-03     574.145E-03    -281.165E-03     4.24480E-03    -293.292E-03     574.041E-03    -280.966E-03     298.898E-06
            2335     6.12349E-03     11.5152E-03    -69.4465E+06    -79.3681E+06    -6.73755E+06    -694.153E+03    -290.289E-03     570.146E-03    -279.857E-03     714.611E-06    -290.555E-03     569.903E-03    -279.675E-03    -2.82060E-03
            2336     5.45016E-03     11.4612E-03    -76.7602E+06    -105.741E+06    -21.4473E+06    -110.243E+03    -287.408E-03     565.983E-03    -278.575E-03    -1.89886E-03    -287.639E-03     565.627E-03    -278.417E-03    -5.03611E-03
            2337     4.77476E-03     11.4141E-03    -84.0079E+06    -129.744E+06    -36.6412E+06     372.667E+03    -284.503E-03     561.859E-03    -277.356E-03    -3.63839E-03    -284.703E-03     561.405E-03    -277.229E-03    -6.38446E-03
            2338     4.09728E-03     11.3736E-03    -91.0046E+06    -151.763E+06    -52.1720E+06     714.381E+03    -281.717E-03     557.948E-03    -276.231E-03    -4.59424E-03    -281.891E-03     557.410E-03    -276.140E-03    -6.95125E-03
            2339     3.41783E-03     11.3396E-03    -97.5475E+06    -171.944E+06    -67.6665E+06     897.765E+03    -279.173E-03     554.401E-03    -275.228E-03    -4.87952E-03    -279.323E-03     553.788E-03    -275.176E-03    -6.84712E-03
            2340     2.73659E-03     11.3121E-03    -103.388E+06    -189.949E+06    -82.4176E+06     928.563E+03    -276.969E-03     551.338E-03    -274.369E-03    -4.61171E-03    -277.097E-03     550.661E-03    -274.356E-03    -6.18905E-03
            2341     2.05385E-03     11.2907E-03    -108.264E+06    -205.242E+06    -95.4999E+06     825.013E+03    -275.176E-03     548.850E-03    -273.674E-03    -3.90106E-03    -275.285E-03     548.120E-03    -273.697E-03    -5.08834E-03
            2342     1.36993E-03     11.2755E-03    -111.953E+06    -217.090E+06    -105.884E+06     624.570E+03    -273.848E-03     547.004E-03    -273.157E-03    -2.85623E-03    -273.942E-03     546.234E-03    -273.209E-03    -3.65647E-03
            2343     685.187E-06     11.2662E-03    -114.273E+06    -224.807E+06    -112.627E+06     356.394E+03    -272.979E-03     545.840E-03    -272.861E-03    -1.65072E-03    -273.063E-03     545.044E-03    -272.933E-03    -2.08678E-03
            2344     12.8114E-03     10.5905E-03    -5.03369E+06     79.1832E+06     96.2605E+06    -257.071E+03    -299.356E-03     588.415E-03    -289.059E-03     37.9122E-03    -299.891E-03     588.933E-03    -288.685E-03     30.4129E-03
            2345     12.1449E-03     10.5122E-03    -10.5302E+06     75.7728E+06     96.1260E+06    -773.849E+03    -301.687E-03     590.096E-03    -288.409E-03     42.4044E-03    -302.326E-03     590.688E-03    -288.023E-03     33.6761E-03
            2346     11.4799E-03     10.4279E-03    -16.3177E+06     61.6194E+06     87.4157E+06    -1.09721E+06    -303.579E-03     591.105E-03    -287.525E-03     38.5030E-03    -304.182E-03     591.615E-03    -287.154E-03     30.2422E-03
            2347     10.8161E-03     10.3412E-03    -22.1164E+06     55.0063E+06     78.0253E+06    -1.38431E+06    -304.602E-03     591.020E-03    -286.418E-03     32.8479E-03    -305.175E-03     591.485E-03    -286.075E-03     24.9570E-03
            2348     10.1531E-03     10.2554E-03    -28.3095E+06     49.3699E+06     68.9666E+06    -1.67370E+06    -304.657E-03     589.774E-03    -285.117E-03     26.1279E-03    -305.196E-03     590.189E-03    -284.803E-03     18.7350E-03
            2349     9.48996E-03     10.1727E-03    -34.7560E+06     38.1618E+06     55.3729E+06    -1.67513E+06    -303.735E-03     587.372E-03    -283.638E-03     19.3217E-03    -304.226E-03     587.717E-03    -283.366E-03     12.4293E-03
            2350     8.82602E-03     10.0945E-03    -41.2637E+06     34.4242E+06     43.8216E+06    -1.59345E+06    -301.849E-03     583.880E-03    -282.031E-03     12.9414E-03    -302.313E-03     584.194E-03    -281.802E-03     6.52344E-03
            2351     8.16084E-03     10.0220E-03    -48.0192E+06     19.2783E+06     32.9682E+06    -1.33219E+06    -299.206E-03     579.569E-03    -280.363E-03     7.38029E-03    -299.633E-03     579.800E-03    -280.157E-03     1.43364E-03
            2352     7.49384E-03     9.95590E-03    -55.1108E+06    -12.1646E+06     20.3159E+06    -620.971E+03    -295.985E-03     574.660E-03    -278.675E-03     2.88878E-03    -296.357E-03     574.735E-03    -278.475E-03    -2.57696E-03
            2353     6.82445E-03     9.89658E-03    -62.5304E+06    -48.7177E+06     5.65793E+06     249.490E+03    -292.357E-03     569.351E-03    -276.994E-03    -449.622E-06    -292.670E-03     569.253E-03    -276.804E-03    -5.42636E-03
            2354     6.15244E-03     9.84414E-03    -70.1656E+06    -79.1758E+06    -8.57713E+06     829.730E+03    -288.506E-03     563.867E-03    -275.361E-03    -2.68835E-03    -288.776E-03     563.632E-03    -275.188E-03    -7.17230E-03
            2355     5.47763E-03     9.79847E-03    -77.8172E+06    -105.336E+06    -22.7721E+06     1.19536E+06    -284.647E-03     558.462E-03    -273.815E-03    -3.98959E-03    -284.885E-03     558.115E-03    -273.663E-03    -7.97288E-03
            2356     4.80004E-03     9.75925E-03    -85.2888E+06    -128.963E+06    -37.3656E+06     1.37027E+06    -280.954E-03     553.338E-03    -272.384E-03    -4.55250E-03    -281.164E-03     552.895E-03    -272.260E-03    -8.02968E-03
            2357     4.11981E-03     9.72616E-03    -92.4464E+06    -150.640E+06    -52.3368E+06     1.32231E+06    -277.556E-03     548.650E-03    -271.093E-03    -4.56762E-03    -277.742E-03     548.123E-03    -271.003E-03    -7.53713E-03
            2358     3.43718E-03     9.69883E-03    -99.0873E+06    -170.569E+06    -67.4126E+06     1.09025E+06    -274.549E-03     544.511E-03    -269.962E-03    -4.19989E-03    -274.712E-03     543.911E-03    -269.908E-03    -6.66425E-03
            2359     2.75246E-03     9.67694E-03    -104.996E+06    -188.475E+06    -82.1006E+06     741.575E+03    -271.998E-03     541.003E-03    -269.004E-03    -3.57725E-03    -272.139E-03     540.338E-03    -268.989E-03    -5.54182E-03
            2360     2.06598E-03     9.66020E-03    -109.948E+06    -203.871E+06    -95.5519E+06     386.587E+03    -269.954E-03     538.188E-03    -268.234E-03    -2.79758E-03    -270.075E-03     537.470E-03    -268.257E-03    -4.26955E-03
            2361     1.37814E-03     9.64837E-03    -113.694E+06    -215.957E+06    -106.630E+06     124.020E+03    -268.452E-03     536.116E-03    -267.663E-03    -1.93566E-03    -268.556E-03     535.356E-03    -267.718E-03    -2.92491E-03
            2362     689.333E-06     9.64121E-03    -116.112E+06    -223.868E+06    -113.949E+06     12.7312E+03    -267.482E-03     534.812E-03    -267.330E-03    -1.07661E-03    -267.574E-03     534.026E-03    -267.407E-03    -1.61319E-03
            2363     12.8158E-03     8.87807E-03    -5.19303E+06     80.1957E+06     96.6547E+06    -651.110E+03    -306.422E-03     595.133E-03    -288.711E-03     38.3445E-03    -306.977E-03     595.674E-03    -288.337E-03     30.3894E-03
            2364     12.1539E-03     8.79690E-03    -10.4295E+06     76.8889E+06     96.3852E+06    -1.21475E+06    -308.954E-03     596.599E-03    -287.644E-03     41.1631E-03    -309.619E-03     597.221E-03    -287.259E-03     31.6939E-03
            2365     11.4940E-03     8.71143E-03    -15.9154E+06     61.7865E+06     87.0512E+06    -1.55773E+06    -310.671E-03     596.962E-03    -286.291E-03     35.1856E-03    -311.292E-03     597.494E-03    -285.922E-03     26.0282E-03
            2366     10.8351E-03     8.62558E-03    -21.7297E+06     54.5429E+06     76.8090E+06    -1.43659E+06    -311.017E-03     595.694E-03    -284.677E-03     27.9408E-03    -311.601E-03     596.173E-03    -284.341E-03     19.0619E-03
            2367     10.1762E-03     8.54313E-03    -27.8943E+06     49.3536E+06     67.7884E+06    -1.04731E+06    -309.899E-03     592.766E-03    -282.867E-03     20.2884E-03    -310.444E-03     593.192E-03    -282.559E-03     11.7972E-03
            2368     9.51650E-03     8.46585E-03    -34.3608E+06     37.9494E+06     55.1293E+06    -758.249E+03    -307.431E-03     588.341E-03    -280.909E-03     13.3699E-03    -307.926E-03     588.690E-03    -280.639E-03     5.35865E-03
            2369     8.85512E-03     8.39513E-03    -41.1244E+06     33.8891E+06     43.1382E+06    -411.605E+03    -303.811E-03     582.685E-03    -278.875E-03     7.78003E-03    -304.276E-03     583.002E-03    -278.648E-03     301.849E-06
            2370     8.19105E-03     8.33155E-03    -48.4161E+06     18.6249E+06     30.9701E+06     512.324E+03    -299.441E-03     576.295E-03    -276.854E-03     3.75853E-03    -299.872E-03     576.531E-03    -276.656E-03    -3.13199E-03
            2371     7.52377E-03     8.27548E-03    -56.2949E+06    -12.1786E+06     18.9274E+06     1.54514E+06    -294.698E-03     569.610E-03    -274.912E-03     1.25144E-03    -295.082E-03     569.696E-03    -274.718E-03    -5.00938E-03
            2372     6.85310E-03     8.22666E-03    -64.2617E+06    -47.8134E+06     5.99052E+06     2.06889E+06    -289.871E-03     562.944E-03    -273.073E-03    -27.3351E-06    -290.205E-03     562.863E-03    -272.881E-03    -5.63461E-03
            2373     6.17888E-03     8.18465E-03    -71.9418E+06    -77.8880E+06    -7.08764E+06     2.14942E+06    -285.169E-03     556.529E-03    -271.360E-03    -436.326E-06    -285.464E-03     556.312E-03    -271.178E-03    -5.38412E-03
            2374     5.50128E-03     8.14884E-03    -79.4171E+06    -103.782E+06    -20.3613E+06     1.96381E+06    -280.774E-03     550.572E-03    -269.798E-03    -303.727E-06    -281.037E-03     550.243E-03    -269.634E-03    -4.59809E-03
            2375     4.82057E-03     8.11873E-03    -86.7405E+06    -126.966E+06    -34.0293E+06     1.46810E+06    -276.802E-03     545.204E-03    -268.401E-03     101.342E-06    -277.038E-03     544.779E-03    -268.262E-03    -3.55965E-03
            2376     4.13711E-03     8.09375E-03    -93.7761E+06    -148.515E+06    -48.4795E+06     705.473E+03    -273.321E-03     540.500E-03    -267.178E-03     572.370E-06    -273.532E-03     539.990E-03    -267.069E-03    -2.48430E-03
            2377     3.45125E-03     8.07347E-03    -100.397E+06    -168.686E+06    -63.8066E+06    -118.254E+03    -270.366E-03     536.497E-03    -266.132E-03     962.732E-06    -270.550E-03     535.911E-03    -266.060E-03    -1.52150E-03
            2378     2.76339E-03     8.05746E-03    -106.428E+06    -187.219E+06    -79.5561E+06    -803.216E+03    -267.952E-03     533.216E-03    -265.264E-03     1.17491E-03    -268.110E-03     532.562E-03    -265.236E-03    -769.384E-06
            2379     2.07393E-03     8.04539E-03    -111.608E+06    -203.641E+06    -94.6470E+06    -1.15400E+06    -266.085E-03     530.662E-03    -264.578E-03     1.16038E-03    -266.218E-03     529.950E-03    -264.594E-03    -274.341E-06
            2380     1.38328E-03     8.03695E-03    -115.645E+06    -216.753E+06    -107.365E+06    -1.06799E+06    -264.755E-03     528.831E-03    -264.076E-03     925.703E-06    -264.867E-03     528.074E-03    -264.131E-03    -27.0915E-06
            2381     691.845E-06     8.03192E-03    -118.341E+06    -225.393E+06    -115.752E+06    -669.764E+03    -263.891E-03     527.705E-03    -263.813E-03     549.805E-06    -263.990E-03     526.918E-03    -263.894E-03     37.7805E-06
            2382     12.8208E-03     7.15257E-03    -5.26636E+06     81.8822E+06     96.8326E+06    -886.542E+03    -315.242E-03     603.546E-03    -288.304E-03     38.9320E-03    -315.820E-03     604.115E-03    -287.931E-03     30.4855E-03
            2383     12.1653E-03     7.06866E-03    -10.7073E+06     77.6626E+06     96.0892E+06    -1.93960E+06    -317.901E-03     604.629E-03    -286.729E-03     39.7043E-03    -318.598E-03     605.287E-03    -286.345E-03     29.3282E-03
            2384     11.5112E-03     6.98392E-03    -16.3108E+06     60.6078E+06     86.2124E+06    -1.83941E+06    -318.646E-03     603.475E-03    -284.829E-03     31.2974E-03    -319.290E-03     604.028E-03    -284.462E-03     21.0263E-03
            2385     10.8572E-03     6.90153E-03    -22.0365E+06     52.7755E+06     76.5297E+06    -1.07434E+06    -317.089E-03     599.783E-03    -282.693E-03     22.6763E-03    -317.682E-03     600.264E-03    -282.355E-03     12.7090E-03
            2386     10.2024E-03     6.82587E-03    -28.0921E+06     48.7084E+06     67.3986E+06    -310.011E+03    -313.556E-03     593.986E-03    -280.431E-03     15.2605E-03    -314.102E-03     594.412E-03    -280.124E-03     5.80555E-03
            2387     9.54492E-03     6.75838E-03    -34.6598E+06     36.9131E+06     54.0444E+06     676.964E+03    -308.622E-03     586.756E-03    -278.134E-03     10.0913E-03    -309.118E-03     587.105E-03    -277.867E-03     1.31934E-03
            2388     8.88366E-03     6.69932E-03    -42.0599E+06     32.3077E+06     43.9113E+06     2.06220E+06    -302.809E-03     578.718E-03    -275.908E-03     7.11912E-03    -303.284E-03     579.031E-03    -275.675E-03    -841.800E-06
            2389     8.21817E-03     6.64860E-03    -50.0252E+06     19.0211E+06     34.4421E+06     2.83052E+06    -296.765E-03     570.595E-03    -273.829E-03     5.89483E-03    -297.219E-03     570.839E-03    -273.612E-03    -1.19513E-03
            2390     7.54827E-03     6.60528E-03    -57.4519E+06    -9.90895E+06     23.9551E+06     2.36139E+06    -290.958E-03     562.895E-03    -271.937E-03     5.81386E-03    -291.370E-03     562.999E-03    -271.720E-03    -406.693E-06
            2391     6.87415E-03     6.56861E-03    -64.1781E+06    -45.8025E+06     12.3300E+06     1.66294E+06    -285.618E-03     555.855E-03    -270.237E-03     6.30906E-03    -285.976E-03     555.787E-03    -270.016E-03     930.769E-06
            2392     6.19632E-03     6.53772E-03    -70.8450E+06    -75.9602E+06     710.506E+03     1.13340E+06    -280.820E-03     549.544E-03    -268.724E-03     6.97142E-03    -281.135E-03     549.336E-03    -268.507E-03     2.38888E-03
            2393     5.51518E-03     6.51189E-03    -77.6036E+06    -101.216E+06    -11.8655E+06     288.853E+03    -276.618E-03     544.012E-03    -267.393E-03     7.52625E-03    -276.898E-03     543.691E-03    -267.193E-03     3.67434E-03
            2394     4.83123E-03     6.49041E-03    -84.1826E+06    -124.051E+06    -25.9307E+06    -1.05054E+06    -273.030E-03     539.271E-03    -266.242E-03     7.80591E-03    -273.276E-03     538.854E-03    -266.069E-03     4.60935E-03
            2395     4.14491E-03     6.47282E-03    -90.4533E+06    -146.539E+06    -41.7693E+06    -2.34334E+06    -270.046E-03     535.307E-03    -265.261E-03     7.71066E-03    -270.258E-03     534.798E-03    -265.126E-03     5.09990E-03
            2396     3.45666E-03     6.45862E-03    -96.3781E+06    -168.034E+06    -58.7894E+06    -3.10694E+06    -267.635E-03     532.078E-03    -264.443E-03     7.19853E-03    -267.810E-03     531.485E-03    -264.354E-03     5.11526E-03
            2397     2.76694E-03     6.44748E-03    -101.879E+06    -188.142E+06    -75.8123E+06    -3.24638E+06    -265.752E-03     529.535E-03    -263.782E-03     6.28461E-03    -265.894E-03     528.866E-03    -263.741E-03     4.67857E-03
            2398     2.07611E-03     6.43910E-03    -106.772E+06    -206.128E+06    -91.1339E+06    -2.78375E+06    -264.353E-03     527.626E-03    -263.273E-03     5.02801E-03    -264.464E-03     526.891E-03    -263.275E-03     3.85773E-03
            2399     1.38449E-03     6.43327E-03    -110.714E+06    -220.170E+06    -103.326E+06    -1.96255E+06    -263.387E-03     526.296E-03    -262.909E-03     3.52353E-03    -263.476E-03     525.510E-03    -262.946E-03     2.75402E-03
            2400     692.376E-06     6.42977E-03    -113.360E+06    -229.337E+06    -111.233E+06    -1.09381E+06    -262.729E-03     525.495E-03    -262.767E-03     1.95233E-03    -262.803E-03     524.676E-03    -262.826E-03     1.54127E-03
            2401     12.8264E-03     5.41005E-03    -5.52162E+06     84.0219E+06     96.0448E+06    -544.268E+03    -326.084E-03     613.970E-03    -287.886E-03     40.8779E-03    -326.693E-03     614.579E-03    -287.519E-03     31.9865E-03
            2402     12.1779E-03     5.32466E-03    -10.8229E+06     78.8738E+06     95.1012E+06    -1.76966E+06    -327.927E-03     613.654E-03    -285.727E-03     38.4423E-03    -328.663E-03     614.358E-03    -285.351E-03     27.0744E-03
            2403     11.5304E-03     5.24372E-03    -16.1915E+06     58.9749E+06     86.0842E+06    -1.87251E+06    -325.932E-03     609.219E-03    -283.287E-03     28.1121E-03    -326.589E-03     609.780E-03    -282.918E-03     16.8985E-03
            2404     10.8814E-03     5.17104E-03    -21.7829E+06     50.3425E+06     79.1606E+06    -1.06006E+06    -320.627E-03     601.377E-03    -280.750E-03     19.9169E-03    -321.214E-03     601.838E-03    -280.396E-03     9.41532E-03
            2405     10.2277E-03     5.10869E-03    -28.0725E+06     47.4710E+06     70.2406E+06     269.946E+03    -313.449E-03     591.714E-03    -278.265E-03     15.0429E-03    -313.989E-03     592.120E-03    -277.942E-03     5.58964E-03
            2406     9.56871E-03     5.05645E-03    -34.7587E+06     35.6332E+06     56.0498E+06     1.48058E+06    -305.890E-03     581.827E-03    -275.937E-03     13.1371E-03    -306.381E-03     582.159E-03    -275.658E-03     4.84806E-03
            2407     8.90425E-03     5.01317E-03    -40.8009E+06     31.8858E+06     49.0984E+06     1.71810E+06    -298.613E-03     572.462E-03    -273.850E-03     12.9412E-03    -299.084E-03     572.760E-03    -273.591E-03     5.81561E-03
            2408     8.23451E-03     4.97710E-03    -45.9991E+06     21.5767E+06     44.0885E+06     988.620E+03    -292.014E-03     564.028E-03    -272.014E-03     13.4491E-03    -292.461E-03     564.262E-03    -271.758E-03     7.39565E-03
            2409     7.56025E-03     4.94708E-03    -51.6248E+06    -7.05975E+06     34.6545E+06     80.8895E+03    -286.269E-03     556.683E-03    -270.414E-03     14.0466E-03    -286.668E-03     556.773E-03    -270.156E-03     8.95837E-03
            2410     6.88229E-03     4.92198E-03    -58.0529E+06    -43.1430E+06     20.8775E+06    -913.675E+03    -281.370E-03     550.390E-03    -269.020E-03     14.4153E-03    -281.709E-03     550.309E-03    -268.769E-03     10.1755E-03
            2411     6.20112E-03     4.90103E-03    -64.1182E+06    -72.7599E+06     6.62986E+06    -2.72223E+06    -277.229E-03     545.040E-03    -267.811E-03     14.4055E-03    -277.517E-03     544.824E-03    -267.580E-03     10.8803E-03
            2412     5.51736E-03     4.88353E-03    -69.1293E+06    -98.6121E+06    -8.44659E+06    -4.74171E+06    -273.783E-03     540.556E-03    -266.773E-03     13.9607E-03    -274.022E-03     540.224E-03    -266.572E-03     11.0379E-03
            2413     4.83149E-03     4.86903E-03    -73.5808E+06    -122.988E+06    -24.4628E+06    -5.91621E+06    -270.960E-03     536.850E-03    -265.890E-03     13.0761E-03    -271.151E-03     536.415E-03    -265.727E-03     10.6736E-03
            2414     4.14393E-03     4.85707E-03    -78.1150E+06    -147.716E+06    -40.8230E+06    -6.02427E+06    -268.692E-03     533.846E-03    -265.154E-03     11.7950E-03    -268.836E-03     533.307E-03    -265.031E-03     9.84738E-03
            2415     3.45507E-03     4.84738E-03    -82.8489E+06    -171.090E+06    -56.5648E+06    -5.25436E+06    -266.903E-03     531.455E-03    -264.551E-03     10.1963E-03    -267.006E-03     530.820E-03    -264.466E-03     8.65232E-03
            2416     2.76519E-03     4.83972E-03    -87.5129E+06    -192.477E+06    -70.5819E+06    -3.93507E+06    -265.528E-03     529.601E-03    -264.074E-03     8.36546E-03    -265.595E-03     528.880E-03    -264.020E-03     7.18387E-03
            2417     2.07454E-03     4.83393E-03    -91.6861E+06    -210.762E+06    -82.0493E+06    -2.53025E+06    -264.511E-03     528.222E-03    -263.711E-03     6.38497E-03    -264.551E-03     527.427E-03    -263.683E-03     5.53035E-03
            2418     1.38334E-03     4.82987E-03    -94.9696E+06    -224.369E+06    -90.5932E+06    -1.43105E+06    -263.810E-03     527.264E-03    -263.454E-03     4.33377E-03    -263.831E-03     526.414E-03    -263.444E-03     3.77475E-03
            2419     691.763E-06     4.82746E-03    -97.1096E+06    -233.239E+06    -95.9704E+06    -656.102E+03    -263.279E-03     526.690E-03    -263.410E-03     2.35681E-03    -263.288E-03     525.804E-03    -263.411E-03     2.05969E-03
            2420     12.8307E-03     3.64515E-03    -5.53281E+06     83.7547E+06     96.7822E+06    -432.611E+03    -340.458E-03     628.231E-03    -287.773E-03     50.3120E-03    -341.134E-03     628.904E-03    -287.402E-03     40.8493E-03
            2421     12.1907E-03     3.56334E-03    -10.6122E+06     77.2780E+06     93.8448E+06    -79.0511E+03    -338.360E-03     623.317E-03    -284.957E-03     39.7976E-03    -339.108E-03     624.033E-03    -284.584E-03     28.0943E-03
            2422     11.5478E-03     3.49443E-03    -16.7506E+06     63.0181E+06     84.6488E+06     538.685E+03    -329.712E-03     611.794E-03    -282.082E-03     27.9591E-03    -330.333E-03     612.338E-03    -281.726E-03     17.4540E-03
            2423     10.8987E-03     3.44101E-03    -23.7619E+06     53.6600E+06     77.6413E+06    -1.28183E+06    -319.471E-03     598.893E-03    -279.422E-03     22.6028E-03    -320.019E-03     599.324E-03    -279.077E-03     13.6149E-03
            2424     10.2422E-03     3.39949E-03    -29.7532E+06     45.6431E+06     71.2851E+06    -2.32190E+06    -309.836E-03     586.890E-03    -277.054E-03     20.6595E-03    -310.334E-03     587.240E-03    -276.721E-03     13.2431E-03
            2425     9.57857E-03     3.36597E-03    -34.0732E+06     35.7532E+06     60.2976E+06    -2.43232E+06    -301.398E-03     576.361E-03    -274.962E-03     19.8768E-03    -301.846E-03     576.641E-03    -274.663E-03     13.8080E-03
            2426     8.90937E-03     3.33849E-03    -37.7999E+06     33.0418E+06     48.5351E+06    -3.19891E+06    -294.168E-03     567.302E-03    -273.134E-03     19.3428E-03    -294.583E-03     567.561E-03    -272.885E-03     14.3683E-03
            2427     8.23595E-03     3.31592E-03    -42.3971E+06     21.1707E+06     34.3122E+06    -2.98239E+06    -288.141E-03     559.700E-03    -271.559E-03     18.7837E-03    -288.517E-03     559.903E-03    -271.357E-03     14.7236E-03
            2428     7.55898E-03     3.29727E-03    -47.6012E+06    -6.31361E+06     19.5988E+06    -2.50286E+06    -283.215E-03     553.438E-03    -270.222E-03     18.0030E-03    -283.538E-03     553.513E-03    -270.046E-03     14.6901E-03
            2429     6.87903E-03     3.28169E-03    -52.0150E+06    -38.1582E+06     5.13339E+06    -4.43181E+06    -279.169E-03     548.247E-03    -269.078E-03     16.9563E-03    -279.432E-03     548.175E-03    -268.922E-03     14.2130E-03
            2430     6.19673E-03     3.26856E-03    -55.3824E+06    -68.9211E+06     -9.3242E+06    -7.47041E+06    -275.821E-03     543.914E-03    -268.093E-03     15.6633E-03    -276.023E-03     543.702E-03    -267.960E-03     13.3584E-03
            2431     5.51246E-03     3.25757E-03    -58.7390E+06    -98.9853E+06    -23.8204E+06    -8.71616E+06    -273.067E-03     540.318E-03    -267.251E-03     14.1545E-03    -273.211E-03     539.972E-03    -267.141E-03     12.2259E-03
            2432     4.82656E-03     3.24834E-03    -62.6013E+06    -126.858E+06    -37.3592E+06    -7.96023E+06    -270.813E-03     537.352E-03    -266.539E-03     12.4895E-03    -270.909E-03     536.884E-03    -266.451E-03     10.9002E-03
            2433     4.13935E-03     3.24069E-03    -66.6910E+06    -153.497E+06    -48.9571E+06    -6.06811E+06    -268.985E-03     534.934E-03    -265.949E-03     10.7317E-03    -269.039E-03     534.349E-03    -265.875E-03     9.44774E-03
            2434     3.45103E-03     3.23444E-03    -70.6225E+06    -177.297E+06    -58.6317E+06    -3.87755E+06    -267.518E-03     532.986E-03    -265.468E-03     8.93350E-03    -267.539E-03     532.297E-03    -265.401E-03     7.92338E-03
            2435     2.76183E-03     3.22948E-03    -74.0540E+06    -197.985E+06    -66.3456E+06    -1.98437E+06    -266.370E-03     531.456E-03    -265.086E-03     7.12924E-03    -266.363E-03     530.676E-03    -265.024E-03     6.36257E-03
            2436     2.07196E-03     3.22573E-03    -76.7716E+06    -214.615E+06    -72.3525E+06    -708.798E+03    -265.506E-03     530.302E-03    -264.795E-03     5.33946E-03    -265.478E-03     529.449E-03    -264.735E-03     4.78850E-03
            2437     1.38158E-03     3.22312E-03    -78.7150E+06    -226.702E+06    -76.7283E+06    -73.2152E+03    -264.905E-03     529.494E-03    -264.589E-03     3.57955E-03    -264.861E-03     528.588E-03    -264.530E-03     3.22095E-03
            2438     690.874E-06     3.22155E-03    -79.9238E+06    -234.558E+06    -79.4353E+06     122.738E+03    -264.407E-03     529.011E-03    -264.604E-03     1.93290E-03    -264.352E-03     528.069E-03    -264.545E-03     1.74309E-03
            2439     12.8225E-03     1.84256E-03    -4.02604E+06     82.6243E+06     101.348E+06     325.305E+03    -363.528E-03     652.014E-03    -288.485E-03     56.5034E-03    -364.167E-03     652.639E-03    -288.092E-03     48.1483E-03
            2440     12.1939E-03     1.78274E-03    -9.87069E+06     76.4816E+06     96.9815E+06     897.677E+03    -346.427E-03     631.336E-03    -284.909E-03     35.8385E-03    -347.001E-03     631.871E-03    -284.520E-03     27.8749E-03
            2441     11.5529E-03     1.74714E-03    -16.4233E+06     69.5502E+06     87.8657E+06     1.46584E+06    -330.230E-03     612.032E-03    -281.802E-03     26.4368E-03    -330.705E-03     612.446E-03    -281.440E-03     20.2727E-03
            2442     10.8996E-03     1.72029E-03    -22.8160E+06     61.3744E+06     73.6103E+06    -616.753E+03    -317.222E-03     596.380E-03    -279.158E-03     22.1787E-03    -317.644E-03     596.728E-03    -278.846E-03     17.3787E-03
            2443     10.2389E-03     1.69925E-03    -28.5761E+06     49.1593E+06     54.8812E+06    -3.82380E+06    -307.084E-03     583.982E-03    -276.898E-03     19.2898E-03    -307.456E-03     584.270E-03    -276.653E-03     15.5552E-03
            2444     9.57345E-03     1.68255E-03    -33.6291E+06     37.2100E+06     34.3194E+06    -6.32440E+06    -299.001E-03     573.951E-03    -274.949E-03     17.2679E-03    -299.330E-03     574.194E-03    -274.783E-03     14.2676E-03
            2445     8.90362E-03     1.66946E-03    -38.4033E+06     28.3287E+06     16.6631E+06    -5.17452E+06    -292.405E-03     565.682E-03    -273.277E-03     15.5236E-03    -292.704E-03     565.898E-03    -273.179E-03     13.1177E-03
            2446     8.22960E-03     1.65865E-03    -43.4166E+06     15.6552E+06    -1.04530E+06    -2.06034E+06    -287.023E-03     558.858E-03    -271.835E-03     13.8614E-03    -287.293E-03     559.033E-03    -271.800E-03     11.9541E-03
            2447     7.55242E-03     1.64942E-03    -47.5133E+06    -2.16509E+06    -19.2643E+06    -2.62478E+06    -282.628E-03     553.214E-03    -270.586E-03     12.3327E-03    -282.858E-03     553.324E-03    -270.610E-03     10.7655E-03
            2448     6.87279E-03     1.64166E-03    -50.1452E+06    -31.3333E+06    -31.5771E+06    -6.28983E+06    -279.016E-03     548.559E-03    -269.542E-03     10.9754E-03    -279.193E-03     548.538E-03    -269.582E-03     9.61852E-03
            2449     6.19092E-03     1.63521E-03    -52.7958E+06    -69.5373E+06    -39.1761E+06    -7.62045E+06    -276.031E-03     544.706E-03    -268.675E-03     9.69280E-03    -276.150E-03     544.505E-03    -268.694E-03     8.52888E-03
            2450     5.50721E-03     1.62976E-03    -56.3176E+06    -103.580E+06    -45.8800E+06    -6.29331E+06    -273.535E-03     541.467E-03    -267.932E-03     8.44598E-03    -273.609E-03     541.107E-03    -267.930E-03     7.47921E-03
            2451     4.82192E-03     1.62520E-03    -60.0322E+06    -133.327E+06    -51.7777E+06    -4.44199E+06    -271.454E-03     538.753E-03    -267.299E-03     7.25123E-03    -271.493E-03     538.255E-03    -267.277E-03     6.46316E-03
            2452     4.13532E-03     1.62140E-03    -63.2155E+06    -159.879E+06    -56.5828E+06    -2.65184E+06    -269.737E-03     536.505E-03    -266.768E-03     6.10986E-03    -269.744E-03     535.884E-03    -266.727E-03     5.47918E-03
            2453     3.44766E-03     1.61830E-03    -65.5711E+06    -182.549E+06    -60.4791E+06    -1.21674E+06    -268.342E-03     534.672E-03    -266.330E-03     5.01853E-03    -268.321E-03     533.945E-03    -266.273E-03     4.52538E-03
            2454     2.75912E-03     1.61583E-03    -67.1394E+06    -201.392E+06    -63.6102E+06    -225.411E+03    -267.240E-03     533.220E-03    -265.980E-03     3.96905E-03    -267.194E-03     532.405E-03    -265.909E-03     3.59609E-03
            2455     2.06991E-03     1.61397E-03    -68.1228E+06    -216.157E+06    -65.9921E+06     284.399E+03    -266.410E-03     532.122E-03    -265.712E-03     2.95436E-03    -266.342E-03     531.237E-03    -265.630E-03     2.68652E-03
            2456     1.38021E-03     1.61267E-03    -68.7304E+06    -226.876E+06    -67.6951E+06     447.665E+03    -265.832E-03     531.355E-03    -265.523E-03     1.97224E-03    -265.749E-03     530.419E-03    -265.433E-03     1.79835E-03
            2457     690.188E-06     1.61190E-03    -69.0792E+06    -233.667E+06    -68.8397E+06     354.229E+03    -265.329E-03     530.896E-03    -265.568E-03     1.06258E-03    -265.236E-03     529.928E-03    -265.473E-03     970.940E-06


