********************************************************************************
Field Output Report, written Tue May 28 23:02:36 2024

Source 1
---------

   ODB: G:/Abaqus_calc_2019/1740/Vel_10/odb/zeides_2a_8_red_500_cal_10_vel_10_fric_0100.odb
   Step: Step-1
   Frame: Increment   7108270: Step Time =   0.9036

Loc 1 : Nodal values from source 1

Output sorted by column "Nodal Label".

Field Output reported at nodes for region: DIE_2A_8_D0_36-1.Region_1
   Computation algorithm: EXTRAPOLATE_COMPUTE_AVERAGE
   Averaged at nodes
   Averaging regions: ODB_REGIONS

      Node Label     COORD.COOR1     COORD.COOR2
                          @Loc 1          @Loc 1
-------------------------------------------------
               1     18.2928E-03     131.592E-03


Field Output reported at nodes for region: DIE_2A_8_D0_36-1.Region_2
   Computation algorithm: EXTRAPOLATE_COMPUTE_AVERAGE
   Averaged at nodes
   Averaging regions: ODB_REGIONS

      Node Label     COORD.COOR1     COORD.COOR2
                          @Loc 1          @Loc 1
-------------------------------------------------
               1     18.2928E-03     131.592E-03


Field Output reported at nodes for part: WIRE-1
   Computation algorithm: EXTRAPOLATE_COMPUTE_AVERAGE
   Averaged at nodes
   Averaging regions: ODB_REGIONS

      Node Label     COORD.COOR1     COORD.COOR2           S.S11           S.S22           S.S33           S.S12         PE.PE11         PE.PE22         PE.PE33         PE.PE12         LE.LE11         LE.LE22         LE.LE33         LE.LE12
                          @Loc 1          @Loc 1          @Loc 1          @Loc 1          @Loc 1          @Loc 1          @Loc 1          @Loc 1          @Loc 1          @Loc 1          @Loc 1          @Loc 1          @Loc 1          @Loc 1
-------------------------------------------------------------------------------------------------------------------------------------------------------------------------------------------------------------------------------------------------
               1    -704.526E-09     60.4655E-03    -93.4681E+06    -200.477E+06    -91.4477E+06    -1.79575E+06    -51.6366E-03     102.539E-03    -50.9024E-03     4.29964E-03    -51.6049E-03     101.888E-03    -50.9334E-03     4.27548E-03
               2     17.0945E-03     61.3129E-03    -392.396E+03     96.0727E+06     76.2186E+06    -663.354E+03    -51.3086E-03     103.188E-03    -51.8797E-03     27.0067E-03    -51.6401E-03     103.639E-03    -51.6373E-03     26.6611E-03
               3     17.1023E-03     122.644E-03    -25.7238E+06     14.7998E+06     14.4044E+06    -12.5229E+06    -52.2222E-03     103.200E-03    -50.9778E-03     18.1306E-03    -52.3909E-03     103.300E-03    -50.8900E-03     17.9134E-03
               4    -22.0473E-06     121.064E-03     38.6325E+06    -1.89811E+06     39.7675E+06    -1.65350E+06    -43.5471E-03     92.6871E-03    -49.1400E-03     144.745E-06    -43.1418E-03     93.1107E-03    -48.9944E-03     609.825E-06
               5    -29.4072E-09     6.93889E-18    -57.8011E+06    -166.706E+06    -60.3531E+06     1.72397E+06    -53.3724E-03     106.856E-03    -53.4837E-03     433.858E-06    -53.2371E-03     106.238E-03    -53.4599E-03     576.469E-06
               6     17.0072E-03     6.93889E-18    -1.59585E+06     90.4576E+06     76.5555E+06     3.30422E+06    -72.9514E-03     128.185E-03    -55.2332E-03     47.7957E-03    -73.2612E-03     128.585E-03    -54.9793E-03     47.5193E-03
               7     855.727E-06     60.4685E-03    -90.6061E+06    -196.245E+06    -85.3871E+06    -855.924E+03    -51.9498E-03     103.202E-03    -51.2524E-03     8.09109E-03    -51.9459E-03     102.509E-03    -51.2634E-03     8.06213E-03
               8     1.70851E-03     60.4805E-03    -85.0598E+06    -187.984E+06    -74.2957E+06     202.761E+03    -52.1249E-03     103.839E-03    -51.7142E-03     15.3859E-03    -52.1436E-03     103.107E-03    -51.6898E-03     15.3330E-03
               9     2.56319E-03     60.4989E-03    -79.4655E+06    -179.298E+06    -63.0877E+06    -487.216E+03    -51.7486E-03     103.572E-03    -51.8237E-03     22.2574E-03    -51.7701E-03     102.861E-03    -51.7639E-03     22.1619E-03
              10     3.41916E-03     60.5245E-03    -74.0739E+06    -170.088E+06    -51.9239E+06    -321.608E+03    -51.7939E-03     103.615E-03    -51.8214E-03     28.6515E-03    -51.8376E-03     102.944E-03    -51.7270E-03     28.5269E-03
              11     4.27355E-03     60.5562E-03    -68.4165E+06    -156.610E+06    -39.3179E+06     1.29657E+06    -52.2650E-03     104.133E-03    -51.8677E-03     35.1421E-03    -52.3389E-03     103.522E-03    -51.7380E-03     34.9962E-03
              12     5.12671E-03     60.5951E-03    -62.6789E+06    -143.578E+06    -28.4969E+06     366.949E+03    -52.2738E-03     104.203E-03    -51.9296E-03     41.8722E-03    -52.3696E-03     103.650E-03    -51.7730E-03     41.6678E-03
              13     5.98206E-03     60.6411E-03    -55.9417E+06    -126.994E+06    -19.7344E+06     176.625E+03    -52.2176E-03     104.162E-03    -51.9446E-03     47.2232E-03    -52.3332E-03     103.686E-03    -51.7780E-03     46.9713E-03
              14     6.83781E-03     60.6893E-03    -50.1326E+06    -109.261E+06    -10.4934E+06     964.574E+03    -52.7462E-03     104.722E-03    -51.9760E-03     51.0198E-03    -52.8912E-03     104.332E-03    -51.7974E-03     50.7285E-03
              15     7.69005E-03     60.7425E-03    -45.4490E+06    -95.1083E+06    -4.77443E+06    -607.103E+03    -52.8826E-03     104.905E-03    -52.0227E-03     54.5747E-03    -53.0548E-03     104.593E-03    -51.8428E-03     54.2174E-03
              16     8.54435E-03     60.7996E-03    -41.0004E+06    -75.6606E+06     1.55181E+06     117.193E+03    -52.3910E-03     104.422E-03    -52.0313E-03     58.9508E-03    -52.6041E-03     104.217E-03    -51.8544E-03     58.5654E-03
              17     9.40056E-03     60.8595E-03    -38.5476E+06    -55.1343E+06     9.33857E+06     594.813E+03    -52.0870E-03     104.090E-03    -52.0031E-03     61.9010E-03    -52.3547E-03     103.998E-03    -51.8206E-03     61.4838E-03
              18     10.2551E-03     60.9211E-03    -32.1466E+06    -35.4432E+06     18.8495E+06     544.117E+03    -52.0318E-03     104.001E-03    -51.9692E-03     61.4075E-03    -52.3271E-03     104.002E-03    -51.7769E-03     60.9608E-03
              19     11.1097E-03     60.9813E-03    -27.5949E+06    -13.1701E+06     25.1636E+06     1.37785E+06    -51.7899E-03     103.707E-03    -51.9167E-03     61.4649E-03    -52.1177E-03     103.817E-03    -51.7318E-03     61.0133E-03
              20     11.9661E-03     61.0420E-03    -25.0460E+06     10.9585E+06     31.6086E+06     525.574E+03    -51.5828E-03     103.443E-03    -51.8600E-03     59.8406E-03    -51.9506E-03     103.669E-03    -51.6815E-03     59.3659E-03
              21     12.8236E-03     61.1012E-03    -18.4687E+06     47.1239E+06     42.1190E+06    -603.095E+03    -52.2790E-03     104.109E-03    -51.8297E-03     56.9382E-03    -52.6792E-03     104.489E-03    -51.6607E-03     56.4426E-03
              22     13.6732E-03     61.1571E-03    -13.9070E+06     77.9320E+06     52.1825E+06    -2.18960E+06    -52.6215E-03     104.473E-03    -51.8513E-03     53.7306E-03    -53.0477E-03     104.975E-03    -51.6833E-03     53.2210E-03
              23     14.5259E-03     61.2103E-03    -10.8519E+06     84.2041E+06     57.5568E+06     153.271E+03    -51.7487E-03     103.627E-03    -51.8780E-03     47.7824E-03    -52.1565E-03     104.128E-03    -51.6966E-03     47.3282E-03
              24     15.3844E-03     61.2523E-03    -6.92940E+06     88.7972E+06     64.0158E+06     4.05455E+06    -51.1274E-03     103.003E-03    -51.8759E-03     40.8397E-03    -51.5098E-03     103.491E-03    -51.6746E-03     40.4513E-03
              25     16.2394E-03     61.2904E-03    -2.56287E+06     94.7033E+06     73.5074E+06     1.98916E+06    -51.1975E-03     103.079E-03    -51.8812E-03     31.9769E-03    -51.5526E-03     103.548E-03    -51.6473E-03     31.6120E-03
              26     17.0940E-03     62.3684E-03     1.36128E+06     97.4566E+06     77.9397E+06     681.404E+03    -51.6616E-03     103.524E-03    -51.8620E-03     29.0688E-03    -51.9901E-03     103.977E-03    -51.6156E-03     28.7398E-03
              27     17.0952E-03     63.4229E-03     5.91065E+06     99.8441E+06     81.8736E+06     1.14469E+06    -50.1920E-03     102.047E-03    -51.8554E-03     31.2296E-03    -50.5103E-03     102.504E-03    -51.5994E-03     30.9127E-03
              28     17.0969E-03     64.4664E-03     742.653E+03     96.1273E+06     77.7004E+06    -1.69268E+06    -50.7084E-03     102.524E-03    -51.8160E-03     27.6776E-03    -51.0372E-03     102.972E-03    -51.5680E-03     27.3188E-03
              29     17.0934E-03     65.5202E-03    -7.69571E+06     91.0821E+06     70.1628E+06    -2.30219E+06    -52.6251E-03     104.428E-03    -51.8030E-03     25.4172E-03    -52.9770E-03     104.873E-03    -51.5731E-03     25.0297E-03
              30     17.0951E-03     66.5752E-03    -6.90047E+06     91.5735E+06     70.6988E+06     1.58493E+06    -51.8805E-03     103.731E-03    -51.8509E-03     27.8198E-03    -52.2352E-03     104.182E-03    -51.6202E-03     27.4817E-03
              31     17.0934E-03     67.6265E-03     2.57842E+06     98.8940E+06     78.5268E+06     4.37772E+06    -49.8314E-03     101.706E-03    -51.8743E-03     29.0570E-03    -50.1617E-03     102.169E-03    -51.6288E-03     28.7681E-03
              32     17.0980E-03     68.6728E-03     6.16635E+06     102.116E+06     81.7071E+06    -3.06534E+06    -50.5301E-03     102.351E-03    -51.8209E-03     30.0666E-03    -50.8521E-03     102.821E-03    -51.5694E-03     29.6735E-03
              33     17.0933E-03     69.7304E-03    -7.70046E+06     93.0045E+06     71.4959E+06    -3.51986E+06    -53.8936E-03     105.667E-03    -51.7739E-03     33.0646E-03    -54.2592E-03     106.129E-03    -51.5401E-03     32.6445E-03
              34     17.0944E-03     70.7889E-03    -10.1511E+06     91.1501E+06     69.2875E+06     3.16290E+06    -53.0560E-03     104.888E-03    -51.8317E-03     33.5172E-03    -53.4238E-03     105.342E-03    -51.6028E-03     33.1944E-03
              35     17.0942E-03     71.8325E-03    -31.9722E+03     97.8890E+06     77.8371E+06     1.70824E+06    -49.7137E-03     101.613E-03    -51.8990E-03     28.2787E-03    -50.0445E-03     102.065E-03    -51.6517E-03     27.9741E-03
              36     17.0958E-03     72.8789E-03    -3.09211E+06     98.3699E+06     76.8628E+06    -920.254E+03    -50.3931E-03     102.283E-03    -51.8902E-03     25.5353E-03    -50.7412E-03     102.747E-03    -51.6440E-03     25.1923E-03
              37     17.0920E-03     73.9377E-03    -3.99586E+06     99.5991E+06     76.1323E+06     1.26900E+06    -51.5275E-03     103.417E-03    -51.8898E-03     29.4976E-03    -51.8891E-03     103.898E-03    -51.6478E-03     29.1645E-03
              38     17.0960E-03     74.9882E-03     771.903E+03     103.935E+06     79.7384E+06     2.27659E+06    -50.9807E-03     102.882E-03    -51.9018E-03     30.5987E-03    -51.3282E-03     103.371E-03    -51.6549E-03     30.2874E-03
              39     17.0924E-03     76.0357E-03     6.66844E+06     109.131E+06     84.9558E+06     2.35972E+06    -50.9258E-03     102.810E-03    -51.8845E-03     27.7774E-03    -51.2522E-03     103.302E-03    -51.6277E-03     27.4748E-03
              40     17.0974E-03     77.0884E-03     9.73504E+06     110.553E+06     87.2670E+06     726.143E+03    -51.2319E-03     103.080E-03    -51.8481E-03     29.3993E-03    -51.5512E-03     103.573E-03    -51.5862E-03     29.0710E-03
              41     17.0932E-03     78.1446E-03     2.51217E+06     105.422E+06     80.8791E+06    -2.74053E+06    -52.6708E-03     104.495E-03    -51.8238E-03     32.9424E-03    -53.0136E-03     104.986E-03    -51.5759E-03     32.5626E-03
              42     17.0949E-03     79.1975E-03    -988.082E+03     101.672E+06     77.5217E+06     4.32628E+06    -52.8782E-03     104.702E-03    -51.8233E-03     33.7882E-03    -53.2169E-03     105.173E-03    -51.5817E-03     33.4922E-03
              43     17.0951E-03     80.2486E-03    -10.9503E+06     91.5690E+06     64.8921E+06    -116.015E+03    -52.8312E-03     104.630E-03    -51.7992E-03     31.8691E-03    -53.1610E-03     105.055E-03    -51.5916E-03     31.5267E-03
              44     17.0924E-03     81.3030E-03    -14.9236E+06     88.9849E+06     62.2689E+06    -4.60933E+06    -51.9531E-03     103.789E-03    -51.8358E-03     29.4093E-03    -52.2973E-03     104.212E-03    -51.6318E-03     29.0672E-03
              45     17.0963E-03     82.3495E-03    -4.13309E+06     98.7070E+06     76.8385E+06    -4.14150E+06    -49.3679E-03     101.289E-03    -51.9214E-03     25.9612E-03    -49.7148E-03     101.749E-03    -51.6743E-03     25.6284E-03
              46     17.0927E-03     83.3978E-03    -3.84521E+06     97.2265E+06     75.6970E+06    -2.77971E+06    -49.0049E-03     100.970E-03    -51.9651E-03     21.0702E-03    -49.3487E-03     101.426E-03    -51.7220E-03     20.7083E-03
              47     17.0933E-03     84.4442E-03    -3.82115E+06     96.1471E+06     75.1636E+06     4.51536E+06    -49.0990E-03     101.047E-03    -51.9475E-03     22.9890E-03    -49.4416E-03     101.499E-03    -51.7056E-03     22.7162E-03
              48     17.0966E-03     85.4988E-03     5.47805E+06     99.1393E+06     81.8772E+06    -1.69482E+06    -50.4816E-03     102.330E-03    -51.8481E-03     27.0239E-03    -50.7974E-03     102.780E-03    -51.5904E-03     26.6540E-03
              49     17.0948E-03     86.5504E-03    -7.50155E+06     82.6991E+06     71.1541E+06    -9.44943E+06    -52.4531E-03     104.252E-03    -51.7986E-03     25.5119E-03    -52.7975E-03     104.657E-03    -51.5519E-03     25.0169E-03
              50     17.0942E-03     87.6032E-03     3.69244E+06     70.0135E+06     71.0201E+06    -1.52875E+06    -51.6894E-03     103.530E-03    -51.8402E-03     25.6855E-03    -52.3806E-03     104.277E-03    -51.5920E-03     25.0196E-03
              51     17.0952E-03     88.6548E-03    -3.76758E+06     77.9989E+06     71.6478E+06     3.31755E+06    -50.7431E-03     102.551E-03    -51.8078E-03     30.6994E-03    -51.4896E-03     103.352E-03    -51.5572E-03     30.1153E-03
              52     17.0978E-03     89.7117E-03     2.12081E+06     71.3491E+06     68.0881E+06    -8.33801E+06    -53.0381E-03     104.786E-03    -51.7484E-03     35.7211E-03    -53.7705E-03     105.581E-03    -51.5144E-03     35.5968E-03
              53     17.0908E-03     90.7708E-03    -3.72425E+06     59.6307E+06     60.5298E+06     2.95817E+06    -53.5868E-03     105.418E-03    -51.8309E-03     34.7405E-03    -54.3182E-03     106.172E-03    -51.6093E-03     34.7474E-03
              54     17.0949E-03     91.8153E-03    -12.3254E+06     78.4916E+06     66.5961E+06     12.7537E+06    -48.0123E-03     99.9763E-03    -51.9641E-03     28.6697E-03    -48.3650E-03     100.371E-03    -51.7270E-03     28.5086E-03
              55     17.0958E-03     92.8542E-03     7.79589E+06     97.6670E+06     81.5340E+06     1.05171E+06    -46.5056E-03     98.4612E-03    -51.9555E-03     24.5529E-03    -46.8003E-03     98.8940E-03    -51.7008E-03     24.2573E-03
              56     17.0942E-03     93.9072E-03    -6.12369E+06     96.4469E+06     74.7767E+06    -1.33809E+06    -50.3598E-03     102.239E-03    -51.8790E-03     25.0505E-03    -50.7153E-03     102.698E-03    -51.6360E-03     24.6930E-03
              57     17.0941E-03     94.9611E-03    -8.02750E+06     95.4123E+06     72.5637E+06     493.667E+03    -52.6543E-03     104.532E-03    -51.8773E-03     29.0725E-03    -53.0213E-03     104.999E-03    -51.6412E-03     28.7206E-03
              58     17.0917E-03     96.0177E-03    -5.84164E+06     99.9990E+06     76.6986E+06     5.76722E+06    -51.8375E-03     103.762E-03    -51.9250E-03     30.6332E-03    -52.2070E-03     104.244E-03    -51.6780E-03     30.3564E-03
              59     17.0956E-03     97.0644E-03     8.57127E+06     110.731E+06     89.4034E+06     2.97807E+06    -48.3411E-03     100.272E-03    -51.9305E-03     29.2055E-03    -48.6654E-03     100.760E-03    -51.6564E-03     28.9257E-03
              60     17.0977E-03     98.1084E-03     10.3572E+06     111.903E+06     90.9279E+06    -4.42769E+06    -48.5518E-03     100.358E-03    -51.8058E-03     29.5800E-03    -48.8700E-03     100.846E-03    -51.5285E-03     29.2105E-03
              61     17.0978E-03     99.1659E-03     542.391E+03     103.578E+06     82.4867E+06    -7.44649E+06    -51.8369E-03     103.559E-03    -51.7218E-03     33.2461E-03    -52.1872E-03     104.039E-03    -51.4603E-03     32.8100E-03
              62     17.0945E-03     100.223E-03    -12.5880E+06     93.6365E+06     72.0516E+06    -1.30305E+06    -52.0310E-03     103.814E-03    -51.7827E-03     33.6654E-03    -52.4188E-03     104.280E-03    -51.5399E-03     33.3058E-03
              63     17.0954E-03     101.263E-03    -8.04092E+06     93.7150E+06     74.8161E+06     6.54984E+06    -49.7864E-03     101.611E-03    -51.8248E-03     27.3462E-03    -50.1404E-03     102.052E-03    -51.5750E-03     27.1196E-03
              64     17.0983E-03     102.311E-03     4.02166E+06     103.337E+06     87.2185E+06     1.83809E+06    -49.8009E-03     101.545E-03    -51.7438E-03     24.1605E-03    -50.1226E-03     101.995E-03    -51.4634E-03     23.8734E-03
              65     17.0989E-03     103.365E-03     4.55191E+06     104.083E+06     89.3468E+06    -381.255E+03    -52.3657E-03     103.972E-03    -51.6063E-03     27.5396E-03    -52.7027E-03     104.436E-03    -51.3171E-03     27.1842E-03
              66     17.1002E-03     104.423E-03     2.82867E+06     101.115E+06     86.8979E+06    -844.104E+03    -53.6379E-03     105.133E-03    -51.4948E-03     30.8777E-03    -53.9872E-03     105.599E-03    -51.2110E-03     30.4857E-03
              67     17.1020E-03     105.473E-03     549.818E+03     96.7762E+06     83.8054E+06    -1.13985E+06    -55.8521E-03     107.209E-03    -51.3571E-03     33.4165E-03    -56.2069E-03     107.667E-03    -51.0792E-03     33.0035E-03
              68     17.1022E-03     106.535E-03    -1.49634E+06      93.942E+06     82.3536E+06    -903.307E+03    -59.5611E-03     110.791E-03    -51.2301E-03     35.9889E-03    -59.9215E-03     111.242E-03    -50.9523E-03     35.5534E-03
              69     17.1023E-03     107.600E-03    -1.57745E+06     91.2023E+06     80.8978E+06    -2.07181E+06    -61.1458E-03     112.326E-03    -51.1801E-03     40.3343E-03    -61.5047E-03     112.769E-03    -50.9056E-03     39.8726E-03
              70     17.1025E-03     108.661E-03    -2.94747E+06     85.8394E+06     78.1553E+06    -2.78749E+06    -62.9054E-03     114.030E-03    -51.1243E-03     43.6471E-03    -63.2562E-03     114.448E-03    -50.8537E-03     43.1853E-03
              71     17.1025E-03     109.727E-03    -1.91194E+06     81.8677E+06     77.6923E+06    -3.60323E+06    -65.7191E-03     116.767E-03    -51.0477E-03     45.2268E-03    -66.0561E-03     117.163E-03    -50.7752E-03     44.7492E-03
              72     17.1028E-03     110.795E-03    -1.54647E+06     77.7182E+06     77.1067E+06    -1.72627E+06    -67.2581E-03     118.259E-03    -51.0009E-03     45.8867E-03    -67.5880E-03     118.636E-03    -50.7258E-03     45.4236E-03
              73     17.1030E-03     111.860E-03    -2.17972E+06     69.6205E+06     74.1953E+06    -2.08951E+06    -68.7948E-03     119.738E-03    -50.9432E-03     46.0272E-03    -69.1128E-03     120.080E-03    -50.6700E-03     45.5431E-03
              74     17.1036E-03     112.932E-03    -3.21080E+06     62.2184E+06     73.1216E+06    -4.62331E+06    -71.2072E-03     122.073E-03    -50.8658E-03     46.5699E-03    -71.5172E-03     122.381E-03    -50.5858E-03     46.0394E-03
              75     17.1038E-03     114.004E-03     416.737E+03     56.7638E+06     75.0430E+06    -2.22356E+06    -73.2460E-03     124.046E-03    -50.7999E-03     46.6490E-03    -73.5301E-03     124.315E-03    -50.5076E-03     46.1444E-03
              76     17.1046E-03     115.078E-03    -2.95322E+06     46.6739E+06     71.4696E+06    -2.89231E+06    -76.4050E-03     127.097E-03    -50.6920E-03     47.6457E-03    -76.6868E-03     127.327E-03    -50.3981E-03     47.1089E-03
              77     17.1049E-03     116.157E-03    -1.69618E+06     33.5864E+06     68.0700E+06    -4.54393E+06    -80.4827E-03     131.036E-03    -50.5529E-03     48.6157E-03    -80.7308E-03     131.200E-03    -50.2588E-03     48.0452E-03
              78     17.1061E-03     117.242E-03    -1.84583E+06     21.7230E+06     67.3132E+06    -5.02006E+06    -83.8064E-03     134.252E-03    -50.4451E-03     52.9232E-03    -84.0421E-03     134.363E-03    -50.1374E-03     52.3265E-03
              79     17.1062E-03     118.331E-03     4.64011E+06     16.4891E+06     68.6014E+06     717.349E+03    -86.5596E-03     136.905E-03    -50.3451E-03     55.8977E-03    -86.7565E-03     136.978E-03    -50.0327E-03     55.3753E-03
              80     17.1074E-03     119.417E-03    -5.58111E+06     16.9031E+06     61.2882E+06    -457.303E+03    -86.9677E-03     137.238E-03    -50.2707E-03     52.4505E-03    -87.1856E-03     137.318E-03    -49.9807E-03     51.9877E-03
              81     17.1075E-03     120.500E-03     3.01263E+06     20.7243E+06     58.4000E+06     165.537E+03    -86.4249E-03     136.625E-03    -50.2002E-03     50.2194E-03    -86.5782E-03     136.693E-03    -49.9426E-03     49.8794E-03
              82     17.1096E-03     121.588E-03     6.98540E+06     19.8489E+06     40.6737E+06    -1.09767E+06    -69.4350E-03     119.999E-03    -50.5641E-03     34.4581E-03    -69.5078E-03     120.055E-03    -50.3997E-03     34.2769E-03
              83     16.2208E-03     122.581E-03    -14.0113E+06    -6.62592E+06     21.5471E+06    -6.36609E+06    -48.2231E-03     99.2555E-03    -51.0324E-03     16.1491E-03    -48.3147E-03     99.2272E-03    -50.8947E-03     16.0056E-03
              84     15.3436E-03     122.470E-03     7.69822E+06    -5.14138E+06     47.9238E+06     1.28783E+06    -41.8249E-03     93.0596E-03    -51.2347E-03     11.2254E-03    -41.8510E-03     92.9696E-03    -50.9988E-03     11.1668E-03
              85     14.4794E-03     122.345E-03     16.4469E+06     5.77842E+06     66.3172E+06     1.31917E+06    -38.5388E-03     90.0852E-03    -51.5464E-03     6.85577E-03    -38.5637E-03     90.0035E-03    -51.2470E-03     6.78503E-03
              86     13.6158E-03     122.212E-03     16.9011E+06    -788.327E+03     69.9866E+06    -844.415E+03    -38.0165E-03     89.8954E-03    -51.8789E-03     1.80477E-03    -38.0365E-03     89.7723E-03    -51.5523E-03     1.71340E-03
              87     12.7577E-03     122.087E-03     20.3178E+06    -445.537E+03     74.8576E+06    -1.08144E+06    -39.6175E-03     91.7894E-03    -52.1719E-03    -2.10932E-03    -39.6300E-03     91.6532E-03    -51.8264E-03    -2.20536E-03
              88     11.9027E-03     121.961E-03     22.1983E+06    -1.50644E+06      76.638E+06     429.371E+03    -42.2191E-03     94.5676E-03    -52.3484E-03    -4.87074E-03    -42.2208E-03     94.4171E-03    -51.9952E-03    -4.96185E-03
              89     11.0495E-03     121.846E-03     23.2858E+06     332.174E+03     77.9521E+06     269.765E+03    -45.1907E-03     97.5501E-03    -52.3594E-03    -7.39355E-03    -45.1907E-03     97.4042E-03    -52.0039E-03    -7.48537E-03
              90     10.1992E-03     121.730E-03     24.2650E+06    -707.597E+03     78.3756E+06    -325.685E+03    -46.7763E-03     99.0046E-03    -52.2282E-03    -10.5499E-03    -46.7714E-03     98.8496E-03    -51.8705E-03    -10.6355E-03
              91     9.35032E-03     121.629E-03     24.4747E+06     225.825E+03     77.9218E+06    -25.7725E+03    -47.5230E-03     99.5592E-03    -52.0362E-03    -13.4579E-03    -47.5172E-03     99.4055E-03    -51.6824E-03    -13.5273E-03
              92     8.50241E-03     121.536E-03     24.8725E+06     352.642E+03     75.7586E+06    -1.20669E+06    -48.9102E-03     100.706E-03    -51.7959E-03    -13.0432E-03    -48.8997E-03     100.555E-03    -51.4537E-03    -13.1259E-03
              93     7.65530E-03     121.454E-03     25.3609E+06     260.435E+03     73.2164E+06    -2.50543E+06    -49.8781E-03     101.374E-03    -51.4956E-03    -10.8082E-03    -49.8616E-03     101.225E-03    -51.1667E-03    -10.9094E-03
              94     6.80719E-03     121.378E-03     26.4752E+06    -621.638E+03     70.0550E+06    -2.56739E+06    -49.9636E-03     101.144E-03    -51.1805E-03    -10.0900E-03    -49.9348E-03     100.996E-03    -50.8677E-03    -10.1830E-03
              95     5.95673E-03     121.315E-03     28.2116E+06    -515.241E+03     65.7004E+06    -2.12726E+06    -49.6677E-03     100.568E-03    -50.9006E-03    -9.85098E-03    -49.6231E-03     100.424E-03    -50.6123E-03    -9.92610E-03
              96     5.10620E-03     121.255E-03     29.5592E+06     233.336E+03     60.4387E+06    -2.37834E+06    -49.4616E-03     100.143E-03    -50.6814E-03    -8.47648E-03    -49.4037E-03     100.006E-03    -50.4224E-03    -8.54667E-03
              97     4.25598E-03     121.207E-03     31.1175E+06    -213.575E+03     55.1221E+06    -3.03038E+06    -49.8760E-03     100.364E-03    -50.4882E-03    -7.67657E-03    -49.8009E-03     100.227E-03    -50.2574E-03    -7.75652E-03
              98     3.40683E-03     121.169E-03     33.5805E+06    -194.186E+03     51.0662E+06    -3.39276E+06    -50.2409E-03     100.507E-03    -50.2661E-03    -5.83591E-03    -50.1464E-03     100.373E-03    -50.0591E-03    -5.92434E-03
              99     2.55560E-03     121.139E-03     36.3254E+06    -120.200E+03     46.9814E+06    -3.44787E+06    -49.4964E-03     99.6486E-03    -50.1522E-03    -3.32176E-03    -49.3813E-03     99.5208E-03    -49.9697E-03    -3.39488E-03
             100     1.70156E-03     121.115E-03     37.8861E+06    -1.36205E+06     42.9776E+06    -3.23329E+06    -51.6099E-03     101.191E-03    -49.5808E-03    -2.67729E-03    -51.4801E-03     101.059E-03    -49.4189E-03    -2.71374E-03
             101     855.883E-06     121.108E-03     38.3612E+06    -1.96118E+06     40.6900E+06    -2.32426E+06    -48.8963E-03     97.9674E-03    -49.0711E-03    -1.76231E-03    -48.6275E-03     98.1106E-03    -48.9204E-03    -1.53485E-03
             102     17.1820E-06     120.055E-03     27.3668E+06    -3.98638E+06     30.1492E+06    -487.412E+03    -43.1698E-03     86.9432E-03    -43.7734E-03     3.16886E-03    -42.7499E-03     87.2349E-03    -43.6565E-03     3.39919E-03
             103    -13.6634E-06     119.025E-03     16.4657E+06    -8.55335E+06     11.8523E+06    -635.699E+03    -35.6807E-03     75.8085E-03    -40.1278E-03     2.08978E-03    -35.3810E-03     75.9319E-03    -40.0800E-03     2.08769E-03
             104     2.03067E-06     117.995E-03    -2.58603E+06    -19.1968E+06    -4.73686E+06    -2.92732E+06    -29.9699E-03     63.7229E-03    -33.7530E-03     6.17947E-03    -29.9130E-03     63.7724E-03    -33.7451E-03     6.16961E-03
             105     2.97925E-06     116.990E-03    -33.4799E+06    -34.9337E+06    -30.1837E+06    -4.00824E+06    -31.3150E-03     55.9791E-03    -24.6641E-03     11.2133E-03    -31.3311E-03     55.9996E-03    -24.7158E-03     11.1608E-03
             106     3.53839E-06     116.006E-03    -65.3187E+06    -52.1994E+06    -64.8901E+06    -3.91308E+06    -31.3510E-03     57.4959E-03    -26.1449E-03     4.89308E-03    -31.4181E-03     57.5325E-03    -26.2990E-03     4.82780E-03
             107    -1.10825E-06     114.989E-03    -98.5543E+06    -66.1256E+06    -95.0945E+06    -4.12033E+06    -30.3016E-03     61.2565E-03    -30.9549E-03     5.14488E-03    -30.5151E-03     61.3247E-03    -31.1916E-03     5.12412E-03
             108    -2.51285E-06     113.979E-03    -127.036E+06    -80.8683E+06    -127.489E+06    -4.57864E+06    -31.6507E-03     65.7338E-03    -34.0831E-03     9.16009E-03    -31.9373E-03     65.8093E-03    -34.4190E-03     9.12460E-03
             109     1.77107E-06     112.963E-03    -134.123E+06    -88.3008E+06    -134.947E+06    -2.77012E+06    -36.8980E-03     72.4776E-03    -35.5796E-03     6.60880E-03    -37.1834E-03     72.5221E-03    -35.9318E-03     6.56392E-03
             110     1.11390E-06     111.947E-03    -114.197E+06    -95.0787E+06    -116.247E+06    -1.99164E+06    -40.0054E-03     79.2225E-03    -39.2171E-03     4.41876E-03    -40.2322E-03     79.1829E-03    -39.4949E-03     4.38762E-03
             111    -2.71643E-06     110.912E-03    -93.2710E+06    -101.204E+06    -93.6844E+06    -2.70548E+06    -43.0941E-03     85.7053E-03    -42.6113E-03     1.49552E-03    -43.2308E-03     85.5732E-03    -42.7977E-03     1.45169E-03
             112     5.06230E-06     109.883E-03    -80.0991E+06    -104.873E+06    -79.5832E+06    -3.13610E+06    -48.3563E-03     92.6963E-03    -44.3400E-03    -1.01979E-03    -48.4215E-03     92.5053E-03    -44.4697E-03    -1.08250E-03
             113    -605.401E-09     108.839E-03    -74.0438E+06    -111.168E+06    -76.6282E+06    -1.16007E+06    -49.4796E-03     99.0750E-03    -49.5954E-03     1.12654E-03    -49.5212E-03     98.8540E-03    -49.7100E-03     1.10445E-03
             114    -4.14778E-06     107.779E-03    -73.0967E+06    -116.468E+06    -72.7485E+06    -1.22841E+06    -48.5775E-03     101.791E-03    -53.2137E-03     4.24713E-03    -48.6104E-03     101.532E-03    -53.3026E-03     4.25761E-03
             115     863.786E-09     106.731E-03    -73.6711E+06    -125.771E+06    -72.5032E+06    -3.43064E+06    -50.2850E-03     102.196E-03    -51.9108E-03     7.12694E-03    -50.3029E-03     101.869E-03    -51.9841E-03     7.09323E-03
             116    -479.267E-09     105.679E-03    -74.9945E+06    -137.499E+06    -75.4242E+06    -3.87639E+06    -52.6926E-03     103.414E-03    -50.7212E-03     8.81003E-03    -52.7055E-03     103.030E-03    -50.7902E-03     8.71458E-03
             117     3.33058E-06     104.627E-03    -82.6080E+06    -145.333E+06    -81.1856E+06    -3.02511E+06    -53.1302E-03     103.887E-03    -50.7564E-03     7.92560E-03    -53.1587E-03     103.491E-03    -50.8318E-03     7.82100E-03
             118    -2.23701E-06     103.581E-03    -81.3297E+06    -148.602E+06    -80.7750E+06    -2.60781E+06    -51.8492E-03     104.148E-03    -52.2991E-03     3.72542E-03    -51.8558E-03     103.746E-03    -52.3696E-03     3.66344E-03
             119     260.370E-09     102.532E-03    -81.9374E+06    -162.549E+06    -80.7272E+06    -457.746E+03    -53.2149E-03     106.527E-03    -53.3123E-03     1.80997E-03    -53.2031E-03     106.057E-03    -53.3615E-03     1.80944E-03
             120     1.44456E-06     101.466E-03    -85.2221E+06    -170.456E+06    -85.2211E+06    -175.591E+03    -54.1975E-03     107.088E-03    -52.8909E-03     5.95646E-03    -54.1935E-03     106.587E-03    -52.9462E-03     5.93707E-03
             121    -1.04467E-06     100.415E-03    -87.9918E+06    -174.348E+06    -88.3504E+06    -829.393E+03    -52.6520E-03     105.209E-03    -52.5571E-03     6.81038E-03    -52.6589E-03     104.700E-03    -52.6185E-03     6.76989E-03
             122     688.391E-09     99.3654E-03    -88.0376E+06    -178.465E+06    -90.0642E+06    -520.824E+03    -52.3397E-03     104.136E-03    -51.7959E-03     2.98267E-03    -52.3247E-03     103.613E-03    -51.8598E-03     2.95485E-03
             123     458.921E-09     98.3157E-03    -90.7865E+06    -181.515E+06    -89.8756E+06    -3.35249E+06    -53.3789E-03     104.319E-03    -50.9403E-03     1.86731E-03    -53.3668E-03     103.792E-03    -50.9949E-03     1.81374E-03
             124     2.44434E-06     97.2611E-03    -95.3162E+06    -188.711E+06    -96.1736E+06    -3.58802E+06    -53.2736E-03     105.027E-03    -51.7534E-03     4.09849E-03    -53.2767E-03     104.487E-03    -51.8225E-03     4.05826E-03
             125    -2.87273E-06     96.2067E-03    -92.6542E+06    -191.156E+06    -94.5301E+06     340.409E+03    -52.8179E-03     105.603E-03    -52.7848E-03     4.84755E-03    -52.7992E-03     105.035E-03    -52.8459E-03     4.83205E-03
             126     3.21180E-06     95.1542E-03    -91.4784E+06    -188.596E+06    -89.8474E+06     3.07742E+06    -52.5274E-03     104.930E-03    -52.4030E-03     5.78067E-03    -52.5124E-03     104.357E-03    -52.4461E-03     5.78543E-03
             127    -3.45562E-06     94.0978E-03    -89.6157E+06    -188.780E+06    -89.9156E+06     1.46232E+06    -50.5191E-03     102.684E-03    -52.1651E-03     9.09481E-03    -50.5197E-03     102.108E-03    -52.2110E-03     9.09920E-03
             128     767.855E-09     93.0492E-03    -86.7106E+06    -191.029E+06    -87.0747E+06    -3.16123E+06    -51.6346E-03     103.463E-03    -51.8286E-03     9.71791E-03    -51.6164E-03     102.863E-03    -51.8612E-03     9.67536E-03
             129     1.45520E-06     92.0008E-03    -90.8073E+06    -196.347E+06    -91.1013E+06    -1.89820E+06    -53.0687E-03     104.479E-03    -51.4105E-03     5.97600E-03    -53.0374E-03     103.861E-03    -51.4497E-03     5.96982E-03
             130    -984.667E-09     90.9483E-03    -90.9635E+06    -196.858E+06    -89.5636E+06     1.76602E+06    -51.9890E-03     103.516E-03    -51.5272E-03     5.43199E-03    -51.9659E-03     102.904E-03    -51.5577E-03     5.43738E-03
             131     1.19992E-06     89.8978E-03    -87.2241E+06    -195.508E+06    -87.3415E+06    -458.499E+03    -53.6584E-03     104.920E-03    -51.2612E-03     5.10826E-03    -53.6086E-03     104.311E-03    -51.2880E-03     5.04224E-03
             132     2.53435E-06     88.8456E-03    -89.4400E+06    -199.059E+06    -90.8219E+06    -235.988E+03    -53.9750E-03     105.863E-03    -51.8884E-03     3.73749E-03    -53.9177E-03     105.244E-03    -51.9242E-03     3.68081E-03
             133    -2.86708E-06     87.7928E-03    -88.8881E+06    -198.309E+06    -90.3161E+06    -309.307E+03    -51.2589E-03     104.277E-03    -53.0179E-03     3.59469E-03    -51.2331E-03     103.662E-03    -53.0530E-03     3.55425E-03
             134     92.5153E-09     86.7381E-03    -90.4635E+06    -198.209E+06    -89.7069E+06     609.325E+03    -50.7882E-03     102.123E-03    -51.3347E-03     3.29651E-03    -50.7684E-03     101.501E-03    -51.3647E-03     3.31106E-03
             135     1.66451E-06     85.6949E-03    -86.8769E+06    -194.335E+06    -85.4733E+06    -184.845E+03    -51.6176E-03     102.096E-03    -50.4781E-03     4.69011E-03    -51.5617E-03     101.478E-03    -50.4977E-03     4.68995E-03
             136    -1.61086E-06     84.6405E-03    -92.4473E+06    -200.092E+06    -90.7259E+06    -3.36036E+06    -51.7238E-03     103.175E-03    -51.4514E-03     4.03332E-03    -51.6897E-03     102.553E-03    -51.4808E-03     3.95989E-03
             137     1.90723E-06     83.5917E-03    -93.3332E+06    -200.442E+06    -90.1570E+06     1.07378E+06    -52.5470E-03     104.128E-03    -51.5806E-03     4.40576E-03    -52.5242E-03     103.511E-03    -51.6054E-03     4.37896E-03
             138    -642.486E-09     82.5384E-03    -85.5106E+06    -195.411E+06    -87.9843E+06     1.85660E+06    -52.5708E-03     104.677E-03    -52.1061E-03     4.24737E-03    -52.5032E-03     104.067E-03    -52.1387E-03     4.23586E-03
             139    -7.58201E-09     81.4859E-03    -87.3262E+06    -196.048E+06    -88.6363E+06     1.14812E+06    -51.6958E-03     103.447E-03    -51.7508E-03     3.15028E-03    -51.6500E-03     102.827E-03    -51.7831E-03     3.15438E-03
             140     426.372E-09     80.4380E-03    -84.5667E+06    -193.025E+06    -86.5383E+06     530.201E+03    -52.2818E-03     102.853E-03    -50.5717E-03     2.12567E-03    -52.2427E-03     102.230E-03    -50.6019E-03     2.15665E-03
             141     1.95785E-06     79.3881E-03    -87.8291E+06    -196.759E+06    -89.4637E+06    -906.762E+03    -52.8534E-03     104.160E-03    -51.3067E-03     2.53561E-03    -52.7992E-03     103.512E-03    -51.3414E-03     2.51291E-03
             142    -1.85227E-06     78.3339E-03    -90.1064E+06    -197.193E+06    -87.2356E+06    -1.85732E+06    -52.0326E-03     104.459E-03    -52.4265E-03     3.12303E-03    -51.9963E-03     103.820E-03    -52.4461E-03     3.07832E-03
             143     976.359E-09     77.2800E-03    -89.0257E+06    -197.520E+06    -88.9818E+06    -2.77500E+06    -51.6364E-03     103.455E-03    -51.8185E-03     3.70745E-03    -51.6039E-03     102.832E-03    -51.8480E-03     3.67732E-03
             144    -521.910E-09     76.2338E-03    -92.3026E+06     -202.32E+06    -94.9505E+06     2.64819E+06    -52.2916E-03     104.364E-03    -52.0725E-03     6.24284E-03    -52.2376E-03     103.725E-03    -52.1201E-03     6.26090E-03
             145     249.371E-09     75.1711E-03    -87.0048E+06    -194.169E+06    -84.9125E+06     2.40344E+06    -53.1506E-03     104.389E-03    -51.2385E-03     7.55464E-03    -53.0890E-03     103.763E-03    -51.2554E-03     7.55564E-03
             146     3.13708E-06     74.1252E-03    -82.9085E+06    -190.694E+06    -83.0022E+06    -1.06826E+06    -52.7566E-03     102.389E-03    -49.6327E-03     6.57952E-03    -52.6977E-03     101.772E-03    -49.6510E-03     6.53411E-03
             147    -1.32343E-06     73.0824E-03    -88.1037E+06    -196.054E+06    -88.3693E+06     1.30387E+06    -51.3213E-03     102.967E-03    -51.6453E-03     3.84071E-03    -51.2732E-03     102.338E-03    -51.6751E-03     3.83153E-03
             148    -1.17866E-06     72.0252E-03    -86.1919E+06    -192.032E+06    -82.0056E+06    -425.679E+03    -50.6324E-03     103.361E-03    -52.7281E-03     1.17066E-03    -50.5922E-03     102.740E-03    -52.7347E-03     1.15667E-03
             149     19.3825E-09     70.9802E-03    -85.3064E+06    -194.588E+06    -86.5533E+06    -2.69034E+06    -51.1703E-03     103.610E-03    -52.4399E-03     4.94532E-03    -51.1215E-03     102.979E-03    -52.4668E-03     4.89566E-03
             150    -1.17442E-06     69.9177E-03    -91.9199E+06    -201.723E+06    -93.0457E+06     1.37904E+06    -52.0116E-03     104.398E-03    -52.3861E-03     8.10512E-03    -51.9654E-03     103.746E-03    -52.4255E-03     8.10502E-03
             151     1.52355E-06     68.8696E-03    -87.7868E+06    -197.359E+06    -89.7776E+06     3.15590E+06    -52.5985E-03     103.258E-03    -50.6594E-03     7.12427E-03    -52.5406E-03     102.623E-03    -50.6949E-03     7.12837E-03
             152     1.26911E-06     67.8246E-03    -83.7001E+06    -192.106E+06    -84.4585E+06    -1.45123E+06    -52.2214E-03     102.941E-03    -50.7193E-03     4.03018E-03    -52.1672E-03     102.328E-03    -50.7417E-03     3.98444E-03
             153    -1.63394E-06     66.7735E-03    -88.6868E+06    -197.083E+06    -89.0807E+06    -1.87208E+06    -51.1572E-03     102.658E-03    -51.5005E-03    -924.406E-06    -51.1113E-03     102.032E-03    -51.5316E-03    -942.066E-06
             154     1.27865E-06     65.7292E-03    -91.5769E+06    -199.851E+06    -90.3640E+06    -530.183E+03    -51.9470E-03     103.999E-03    -52.0519E-03    -95.4632E-06    -51.9128E-03     103.358E-03    -52.0811E-03    -104.730E-06
             155    -1.21117E-06     64.6677E-03    -87.9921E+06    -197.230E+06    -88.0706E+06    -622.329E+03    -52.3707E-03     105.920E-03    -53.5497E-03     3.63390E-03    -52.3315E-03     105.281E-03    -53.5764E-03     3.62271E-03
             156    -983.984E-09     63.6125E-03    -88.1589E+06    -196.882E+06    -87.9563E+06     462.004E+03    -51.5470E-03     104.252E-03    -52.7051E-03     6.77266E-03    -51.5014E-03     103.612E-03    -52.7316E-03     6.75786E-03
             157     1.05768E-06     62.5608E-03    -87.9277E+06    -197.064E+06    -89.0611E+06    -473.497E+03    -52.3909E-03     102.932E-03    -50.5412E-03     8.59818E-03    -52.3444E-03     102.294E-03    -50.5733E-03     8.56497E-03
             158     1.86194E-06     61.5131E-03    -90.7998E+06    -198.323E+06    -89.3032E+06     1.28152E+06    -52.5927E-03     102.730E-03    -50.1370E-03     6.56260E-03    -52.5619E-03     102.091E-03    -50.1643E-03     6.56540E-03
             159     686.961E-09     59.4149E-03    -94.6567E+06    -203.298E+06    -95.1225E+06    -1.53080E+06    -52.4773E-03     104.033E-03    -51.5557E-03     5.54308E-03    -52.4503E-03     103.372E-03    -51.5993E-03     5.49090E-03
             160     768.643E-09     58.3578E-03     -90.672E+06    -200.551E+06    -93.2499E+06     3.01134E+06    -52.6463E-03     104.175E-03    -51.5290E-03     7.05141E-03    -52.6177E-03     103.519E-03    -51.5730E-03     7.05289E-03
             161    -462.611E-09     57.3093E-03    -80.2670E+06    -188.142E+06    -79.3740E+06     2.19878E+06    -50.6621E-03     102.444E-03    -51.7819E-03     5.86835E-03    -50.6126E-03     101.819E-03    -51.7896E-03     5.88809E-03
             162    -1.87233E-06     56.2649E-03    -86.4303E+06    -194.679E+06    -86.4867E+06    -3.20457E+06    -50.9923E-03     103.448E-03    -52.4561E-03     4.22162E-03    -50.9521E-03     102.815E-03    -52.4810E-03     4.15618E-03
             163     1.58491E-06     55.2067E-03    -90.3038E+06    -199.825E+06    -92.1727E+06    -1.59541E+06    -52.2832E-03     104.564E-03    -52.2809E-03     3.72903E-03    -52.2499E-03     103.915E-03    -52.3211E-03     3.71427E-03
             164    -1.42540E-06     54.1596E-03    -85.9527E+06    -194.356E+06    -85.2776E+06     3.10084E+06    -52.2613E-03     103.576E-03    -51.3151E-03     3.11011E-03    -52.2145E-03     102.926E-03    -51.3351E-03     3.15128E-03
             165     2.76460E-06     53.1069E-03    -86.2342E+06    -194.209E+06    -85.1552E+06     727.716E+03    -51.9958E-03     103.166E-03    -51.1701E-03     3.45765E-03    -51.9535E-03     102.510E-03    -51.1892E-03     3.42801E-03
             166    -2.80279E-06     52.0573E-03    -89.1270E+06    -197.777E+06    -88.7914E+06    -1.92998E+06    -51.3529E-03     103.917E-03    -52.5639E-03     5.51696E-03    -51.3278E-03     103.263E-03    -52.5919E-03     5.46934E-03
             167     667.425E-09     51.0010E-03    -91.3716E+06    -200.991E+06    -92.7792E+06     27.0086E+03    -51.3478E-03     103.576E-03    -52.2280E-03     5.19764E-03    -51.3166E-03     102.919E-03    -52.2680E-03     5.17876E-03
             168    -166.150E-09     49.9538E-03    -86.9382E+06    -194.778E+06    -85.2141E+06    -135.826E+03    -52.0234E-03     102.960E-03    -50.9369E-03     5.66627E-03    -51.9818E-03     102.321E-03    -50.9545E-03     5.65519E-03
             169     1.41287E-06     48.9037E-03    -87.4629E+06    -196.186E+06    -87.2647E+06     499.144E+03    -52.9532E-03     104.193E-03    -51.2402E-03     5.55247E-03    -52.9095E-03     103.560E-03    -51.2652E-03     5.55563E-03
             170     140.226E-09     47.8480E-03    -90.6448E+06    -200.180E+06    -92.7405E+06     3.03036E+06    -52.2984E-03     103.314E-03    -51.0155E-03     5.11455E-03    -52.2463E-03     102.674E-03    -51.0575E-03     5.14349E-03
             171     326.711E-09     46.8019E-03    -90.5381E+06    -198.262E+06    -89.7735E+06    -2.85325E+06    -51.0103E-03     102.386E-03    -51.3755E-03     6.70792E-03    -50.9603E-03     101.746E-03    -51.4056E-03     6.63654E-03
             172    -1.57471E-06     45.7490E-03    -90.4414E+06    -198.182E+06     -89.226E+06    -3.77757E+06    -50.6205E-03     102.557E-03    -51.9365E-03     5.06546E-03    -50.5857E-03     101.915E-03    -51.9641E-03     4.96538E-03
             173     454.468E-09     44.7025E-03    -91.6198E+06    -201.273E+06    -94.1796E+06     697.815E+03    -51.1333E-03     102.317E-03    -51.1836E-03     4.86404E-03    -51.0922E-03     101.666E-03    -51.2298E-03     4.85527E-03
             174     420.245E-09     43.6499E-03    -90.7180E+06    -197.557E+06    -88.0853E+06    -335.482E+03    -51.9090E-03     102.781E-03    -50.8716E-03     4.89392E-03    -51.8633E-03     102.137E-03    -50.8940E-03     4.87215E-03
             175     351.894E-09     42.6021E-03    -88.4714E+06    -198.160E+06    -91.3783E+06     296.308E+03    -51.8186E-03     103.098E-03    -51.2795E-03     3.86251E-03    -51.7618E-03     102.449E-03    -51.3208E-03     3.85582E-03
             176    -374.575E-09     41.5520E-03    -87.3034E+06    -195.188E+06    -86.9172E+06     3.89678E+06    -51.9096E-03     103.485E-03    -51.5751E-03     2.50333E-03    -51.8690E-03     102.847E-03    -51.6001E-03     2.53908E-03
             177     855.672E-09     40.4995E-03    -86.4682E+06    -192.469E+06    -82.7772E+06    -455.321E+03    -51.6939E-03     103.140E-03    -51.4462E-03     3.22684E-03    -51.6490E-03     102.512E-03    -51.4556E-03     3.19470E-03
             178    -1.01119E-06     39.4490E-03    -91.5405E+06    -201.455E+06    -94.8872E+06    -1.73259E+06    -51.3613E-03     102.828E-03    -51.4668E-03     5.09139E-03    -51.3053E-03     102.178E-03    -51.5164E-03     5.07704E-03
             179     795.386E-09     38.3966E-03    -91.0904E+06    -199.096E+06    -90.2302E+06     2.18405E+06    -51.5241E-03     102.651E-03    -51.1264E-03     4.75843E-03    -51.4825E-03     101.999E-03    -51.1567E-03     4.79089E-03
             180    -32.3845E-09     37.3504E-03    -86.5133E+06    -194.621E+06    -86.2796E+06     947.357E+03    -51.5251E-03     102.367E-03    -50.8418E-03     4.12141E-03    -51.4656E-03     101.721E-03    -50.8656E-03     4.12617E-03
             181     287.231E-09     36.2988E-03    -93.2684E+06    -201.144E+06    -92.5709E+06    -218.145E+03    -51.1642E-03     102.495E-03    -51.3303E-03     3.79529E-03    -51.1129E-03     101.851E-03    -51.3662E-03     3.75607E-03
             182    -982.017E-09     35.2499E-03    -94.0692E+06    -201.814E+06    -92.7906E+06    -1.15958E+06    -51.4738E-03     102.852E-03    -51.3784E-03     4.55346E-03    -51.4289E-03     102.216E-03    -51.4134E-03     4.50449E-03
             183     1.69385E-06     34.1960E-03    -87.6582E+06    -196.472E+06    -89.2022E+06    -63.4619E+03    -51.8530E-03     102.354E-03    -50.5012E-03     6.00118E-03    -51.7923E-03     101.719E-03    -50.5352E-03     6.00774E-03
             184    -273.143E-09     33.1468E-03    -87.0111E+06    -194.875E+06    -87.8518E+06    -79.6024E+03    -50.8412E-03     100.692E-03    -49.8505E-03     6.69985E-03    -50.7861E-03     100.052E-03    -49.8810E-03     6.68392E-03
             185     379.905E-09     32.1026E-03    -90.6080E+06    -197.464E+06    -89.0525E+06    -1.67967E+06    -50.6983E-03     100.523E-03    -49.8251E-03     4.52004E-03    -50.6603E-03     99.8803E-03    -49.8527E-03     4.49031E-03
             186     884.805E-09     31.0556E-03    -94.6848E+06    -202.781E+06    -94.8583E+06    -749.014E+03    -50.5761E-03     101.128E-03    -50.5517E-03     3.60782E-03    -50.5359E-03     100.482E-03    -50.5946E-03     3.58022E-03
             187    -2.25617E-06     30.0041E-03    -90.5120E+06    -199.557E+06    -94.0416E+06     3.94966E+06    -50.1017E-03     100.688E-03    -50.5866E-03     4.26669E-03    -50.0410E-03     100.050E-03    -50.6362E-03     4.30906E-03
             188     2.60142E-06     28.9564E-03    -85.9435E+06    -193.137E+06    -86.7488E+06     4.91440E+06    -50.2835E-03     99.8336E-03    -49.5502E-03     5.90871E-03    -50.2266E-03     99.2142E-03    -49.5793E-03     5.97463E-03
             189    -1.85468E-06     27.9088E-03    -93.0932E+06    -198.095E+06    -90.6254E+06    -4.34201E+06    -49.4731E-03     98.8241E-03    -49.3511E-03     5.58278E-03    -49.4369E-03     98.1985E-03    -49.3820E-03     5.49380E-03
             190     1.18609E-06     26.8672E-03    -96.7067E+06    -202.460E+06    -95.7852E+06    -4.06606E+06    -49.5553E-03     98.8576E-03    -49.3023E-03     3.71456E-03    -49.5219E-03     98.2153E-03    -49.3474E-03     3.66181E-03
             191    -224.624E-09     25.8187E-03    -92.6690E+06    -199.265E+06    -91.8664E+06     709.140E+03    -49.8056E-03     98.9607E-03    -49.1550E-03     3.62906E-03    -49.7802E-03     98.3163E-03    -49.1911E-03     3.61657E-03
             192     267.092E-09     24.7723E-03    -91.2954E+06    -197.573E+06    -90.5896E+06    -682.717E+03    -49.0379E-03     97.7694E-03    -48.7315E-03     4.44850E-03    -49.0161E-03     97.1205E-03    -48.7655E-03     4.41544E-03
             193     111.066E-09     23.7279E-03    -93.7681E+06    -200.175E+06    -94.8883E+06     1.07998E+06    -48.5349E-03     97.1815E-03    -48.6466E-03     5.45072E-03    -48.5063E-03     96.5274E-03    -48.6948E-03     5.46663E-03
             194    -826.433E-09     22.6838E-03    -89.6938E+06    -196.847E+06    -92.6699E+06     1.09506E+06    -48.7404E-03     97.2325E-03    -48.4921E-03     4.06376E-03    -48.7005E-03     96.5900E-03    -48.5400E-03     4.06524E-03
             195     1.80899E-06     21.6407E-03    -90.1635E+06    -195.002E+06    -88.4934E+06    -272.822E+03    -48.8398E-03     96.7012E-03    -47.8613E-03     3.71085E-03    -48.8070E-03     96.0652E-03    -47.8903E-03     3.69574E-03
             196    -1.22562E-06     20.5958E-03    -92.3374E+06    -196.158E+06    -90.1835E+06     2.16551E+06    -47.7936E-03     95.4145E-03    -47.6210E-03     3.83325E-03    -47.7548E-03     94.7846E-03    -47.6536E-03     3.82628E-03
             197     809.427E-09     19.5551E-03    -91.0926E+06    -197.128E+06    -95.3795E+06     2.68605E+06    -46.5533E-03     93.3412E-03    -46.7878E-03     3.37562E-03    -46.5066E-03     92.7222E-03    -46.8468E-03     3.37745E-03
             198    -982.046E-09     18.5157E-03    -90.4976E+06    -194.626E+06    -92.9599E+06     1.81239E+06    -45.8898E-03     91.8759E-03    -45.9861E-03     3.62541E-03    -45.8604E-03     91.2636E-03    -46.0375E-03     3.63657E-03
             199     843.965E-09     17.4777E-03    -89.1737E+06    -187.985E+06    -83.3038E+06     524.851E+03    -45.7175E-03     91.0114E-03    -45.2939E-03     3.12488E-03    -45.7042E-03     90.3968E-03    -45.3085E-03     3.12526E-03
             200    -29.3524E-09     16.4396E-03    -86.3015E+06    -186.802E+06    -86.5764E+06    -1.43728E+06    -44.5860E-03     88.6934E-03    -44.1073E-03     2.58167E-03    -44.5658E-03     88.0770E-03    -44.1442E-03     2.54826E-03
             201    -62.5075E-09     15.4072E-03    -87.5159E+06    -186.647E+06    -88.0366E+06    -1.96164E+06    -42.8252E-03     85.4358E-03    -42.6105E-03     2.02417E-03    -42.8182E-03     84.8276E-03    -42.6532E-03     1.96480E-03
             202     438.531E-09     14.3756E-03    -83.3021E+06    -179.614E+06    -80.7680E+06     151.544E+03    -41.3564E-03     82.1364E-03    -40.7800E-03     1.53820E-03    -41.3390E-03     81.5481E-03    -40.8026E-03     1.53707E-03
             203     112.211E-09     13.3501E-03    -73.9601E+06    -172.360E+06    -79.1882E+06     2.23290E+06    -38.7795E-03     77.4411E-03    -38.6616E-03     730.386E-06    -38.7302E-03     76.8808E-03    -38.7004E-03     772.134E-06
             204    -610.625E-09     12.3276E-03    -79.1426E+06    -172.253E+06    -78.7601E+06     4.10713E+06    -35.5721E-03     71.5526E-03    -35.9805E-03     728.239E-06    -35.5530E-03     71.0077E-03    -36.0098E-03     769.414E-06
             205     318.822E-09     11.3132E-03    -72.9501E+06    -163.549E+06    -70.9683E+06     2.37922E+06    -33.2967E-03     66.7013E-03    -33.4046E-03     1.00818E-03    -33.2563E-03     66.1825E-03    -33.4165E-03     1.04343E-03
             206    -304.830E-09     10.3029E-03    -68.7196E+06    -160.332E+06    -70.5905E+06    -1.02498E+06    -31.9723E-03     63.6669E-03    -31.6946E-03     531.162E-06    -31.9204E-03     63.1623E-03    -31.7154E-03     510.653E-06
             207     648.943E-09     9.29427E-03    -76.5097E+06    -165.269E+06    -73.7005E+06    -915.804E+03    -31.5314E-03     62.7115E-03    -31.1801E-03     943.067E-06    -31.5201E-03     62.1930E-03    -31.1980E-03     919.278E-06
             208    -431.530E-09     8.28455E-03    -75.0265E+06    -165.741E+06    -74.4479E+06    -282.175E+03    -32.3247E-03     64.5697E-03    -32.2451E-03     1.77220E-03    -32.3021E-03     64.0374E-03    -32.2682E-03     1.78749E-03
             209     273.305E-09     7.27274E-03     -69.231E+06    -162.750E+06    -70.1524E+06    -1.40269E+06    -34.6194E-03     69.2653E-03    -34.6459E-03     2.17681E-03    -34.5898E-03     68.7303E-03    -34.6603E-03     2.14534E-03
             210    -237.115E-09     6.25351E-03    -67.2156E+06    -163.634E+06    -68.3228E+06    -889.262E+03    -37.8163E-03     75.6618E-03    -37.8455E-03     2.39106E-03    -37.7887E-03     75.1048E-03    -37.8523E-03     2.39416E-03
             211     92.3703E-09     5.22799E-03    -65.5056E+06    -164.578E+06    -65.9031E+06     2.36694E+06    -41.3974E-03     82.8283E-03    -41.4309E-03     2.48172E-03    -41.3598E-03     82.2461E-03    -41.4268E-03     2.52806E-03
             212    -61.9025E-09     4.19466E-03    -61.1120E+06    -162.633E+06    -60.7959E+06     310.148E+03    -45.0342E-03     90.1043E-03    -45.0701E-03     2.31785E-03    -44.9938E-03     89.5118E-03    -45.0497E-03     2.29473E-03
             213    -62.5801E-09     3.15393E-03    -58.6639E+06    -163.250E+06    -59.7321E+06     289.487E+03    -48.3507E-03     96.7783E-03    -48.4276E-03     1.96959E-03    -48.2954E-03     96.1931E-03    -48.4045E-03     1.97609E-03
             214     1.36845E-09     2.10660E-03    -60.2153E+06    -164.775E+06    -57.6047E+06     24.1382E+03    -51.0556E-03     102.189E-03    -51.1330E-03     1.43733E-03    -50.9653E-03     101.600E-03    -51.0947E-03     1.43171E-03
             215    -160.671E-09     1.05452E-03    -59.0593E+06    -166.306E+06    -59.1696E+06    -525.377E+03    -52.7702E-03     105.648E-03    -52.8773E-03     758.738E-06    -52.6416E-03     105.036E-03    -52.8464E-03     797.610E-06
             216     852.844E-06     6.93889E-18    -55.6695E+06    -161.656E+06    -52.3406E+06    -237.693E+03    -53.4275E-03     106.898E-03    -53.4700E-03     671.460E-06    -53.3299E-03     106.252E-03    -53.4166E-03     787.147E-06
             217     1.70594E-03     6.93889E-18    -51.1068E+06    -155.018E+06    -43.2768E+06    -1.17172E+06    -53.4946E-03     106.959E-03    -53.4644E-03     1.20662E-03    -53.4158E-03     106.279E-03    -53.3819E-03     1.26352E-03
             218     2.55876E-03     6.93889E-18    -48.0568E+06    -153.046E+06    -42.1878E+06     727.344E+03    -53.5087E-03     106.983E-03    -53.4747E-03     1.78707E-03    -53.4146E-03     106.301E-03    -53.3940E-03     1.79541E-03
             219     3.41181E-03     6.93889E-18    -47.3339E+06    -152.967E+06    -43.0432E+06     579.920E+03    -53.5074E-03     106.983E-03    -53.4757E-03     2.35719E-03    -53.4227E-03     106.314E-03    -53.4005E-03     2.33932E-03
             220     4.26463E-03     6.93889E-18    -46.3680E+06    -153.223E+06    -44.3925E+06    -788.267E+03    -53.4970E-03     106.969E-03    -53.4722E-03     2.91437E-03    -53.4160E-03     106.309E-03    -53.4047E-03     2.89237E-03
             221     5.11765E-03     6.93889E-18    -44.7840E+06    -151.012E+06    -45.1431E+06    -809.455E+03    -53.4763E-03     106.940E-03    -53.4637E-03     3.46765E-03    -53.3960E-03     106.296E-03    -53.4055E-03     3.44971E-03
             222     5.97055E-03     6.93889E-18    -43.0066E+06    -142.495E+06    -45.7966E+06    -1.71695E+06    -53.4338E-03     106.876E-03    -53.4423E-03     4.01310E-03    -53.3616E-03     106.278E-03    -53.4023E-03     3.97365E-03
             223     6.82364E-03     6.93889E-18    -41.0116E+06    -127.849E+06    -45.8498E+06    -1.32317E+06    -53.3803E-03     106.791E-03    -53.4110E-03     4.56606E-03    -53.3232E-03     106.268E-03    -53.3954E-03     4.53111E-03
             224     7.67655E-03     6.93889E-18    -39.0603E+06    -109.698E+06    -45.2168E+06    -1.85782E+06    -53.3376E-03     106.714E-03    -53.3763E-03     5.15576E-03    -53.3000E-03     106.279E-03    -53.3867E-03     5.11615E-03
             225     8.52968E-03     6.93889E-18    -36.1710E+06    -88.0599E+06    -44.2601E+06    -2.70584E+06    -53.3264E-03     106.664E-03    -53.3378E-03     5.77635E-03    -53.3068E-03     106.332E-03    -53.3790E-03     5.72039E-03
             226     9.38259E-03     6.93889E-18    -31.9759E+06    -62.4181E+06    -41.9071E+06    -3.37513E+06    -53.3756E-03     106.679E-03    -53.3034E-03     6.49046E-03    -53.3761E-03     106.466E-03    -53.3761E-03     6.42095E-03
             227     10.2355E-03     6.93889E-18    -27.5303E+06    -31.5443E+06    -38.9008E+06    -3.09687E+06    -53.5028E-03     106.777E-03    -53.2743E-03     7.31587E-03    -53.5309E-03     106.708E-03    -53.3831E-03     7.24974E-03
             228     11.0880E-03     6.93889E-18    -23.5953E+06     6.83911E+06    -33.5986E+06    -2.75135E+06    -53.7444E-03     107.007E-03    -53.2623E-03     8.28422E-03    -53.8175E-03     107.118E-03    -53.4060E-03     8.21577E-03
             229     11.9403E-03     6.93889E-18    -20.9959E+06     38.8295E+06    -20.6904E+06    -846.190E+03    -54.1678E-03     107.491E-03    -53.3237E-03     9.59113E-03    -54.2952E-03     107.742E-03    -53.4530E-03     9.53535E-03
             230     12.7915E-03     6.93889E-18    -17.6191E+06     57.4891E+06    -4.23817E+06    -2.87036E+06    -54.7763E-03     108.229E-03    -53.4523E-03     11.1459E-03    -54.9390E-03     108.545E-03    -53.5313E-03     11.0589E-03
             231     13.6428E-03     6.93889E-18    -11.8246E+06     73.8635E+06     18.5938E+06    -1.88303E+06    -55.7506E-03     109.405E-03    -53.6544E-03     13.5605E-03    -55.9418E-03     109.762E-03    -53.6514E-03     13.4746E-03
             232     14.4911E-03     6.93889E-18    -7.88686E+06     80.5539E+06     47.0438E+06     891.494E+03    -57.2296E-03     111.191E-03    -53.9615E-03     17.5633E-03    -57.4549E-03     111.538E-03    -53.8317E-03     17.4876E-03
             233     15.3379E-03     6.93889E-18    -4.54386E+06     81.2784E+06     68.2325E+06    -1.95655E+06    -60.0680E-03     114.411E-03    -54.3432E-03     24.0159E-03    -60.3191E-03     114.737E-03    -54.1133E-03     23.8511E-03
             234     16.1808E-03     6.93889E-18    -1.76214E+06     87.0506E+06     76.3978E+06     1.27991E+06    -67.5054E-03     122.397E-03    -54.8915E-03     37.9464E-03    -67.7911E-03     122.762E-03    -54.6332E-03     37.7148E-03
             235     17.0515E-03     1.08780E-03    -2.83458E+06     89.7536E+06     75.2549E+06     2.43008E+06    -68.4795E-03     122.786E-03    -54.3064E-03     48.0564E-03    -68.8041E-03     123.200E-03    -54.0562E-03     47.7470E-03
             236     17.0763E-03     2.15510E-03    -3.55609E+06     88.1816E+06     72.8136E+06     1.21902E+06    -67.0301E-03     119.772E-03    -52.7422E-03     42.1454E-03    -67.3574E-03     120.190E-03    -52.5009E-03     41.7708E-03
             237     17.0886E-03     3.22810E-03    -1.70462E+06     92.3250E+06     75.0952E+06     928.203E+03    -73.0204E-03     124.845E-03    -51.8242E-03     32.2277E-03    -73.3390E-03     125.268E-03    -51.5801E-03     31.7888E-03
             238     17.0906E-03     4.30961E-03    -3.27960E+06     94.4878E+06     74.8427E+06     380.073E+03    -75.6001E-03     127.075E-03    -51.4750E-03     27.2879E-03    -75.9267E-03     127.509E-03    -51.2331E-03     26.8038E-03
             239     17.0931E-03     5.38487E-03    -7.12187E+06     91.0682E+06     70.3802E+06    -248.093E+03    -74.5758E-03     126.003E-03    -51.4272E-03     22.7444E-03    -74.9094E-03     126.430E-03    -51.1970E-03     22.2319E-03
             240     17.0901E-03     6.45560E-03    -6.38723E+06     89.9935E+06     70.2724E+06    -334.049E+03    -71.9542E-03     123.444E-03    -51.4899E-03     17.0898E-03    -72.2785E-03     123.861E-03    -51.2598E-03     16.5750E-03
             241     17.0937E-03     7.52680E-03    -6.29611E+06     89.1428E+06     70.9757E+06    -256.105E+03    -69.4207E-03     120.948E-03    -51.5274E-03     17.6643E-03    -69.7393E-03     121.355E-03    -51.2927E-03     17.1945E-03
             242     17.0915E-03     8.59868E-03    -3.93107E+06     90.7244E+06     73.7584E+06     1.50843E+06    -68.1775E-03     119.713E-03    -51.5356E-03     18.8391E-03    -68.4899E-03     120.120E-03    -51.2926E-03     18.4130E-03
             243     17.0943E-03     9.66677E-03    -673.991E+03     92.9588E+06     76.6914E+06     278.109E+03    -65.7571E-03     117.315E-03    -51.5582E-03     18.7603E-03    -66.0625E-03     117.726E-03    -51.3086E-03     18.3275E-03
             244     17.0939E-03     10.7302E-03    -3.78760E+06     91.5687E+06     74.0545E+06    -1.33788E+06    -64.0192E-03     115.602E-03    -51.5826E-03     17.4301E-03    -64.3316E-03     116.011E-03    -51.3396E-03     17.0000E-03
             245     17.0928E-03     11.7965E-03    -1.60379E+06     91.0313E+06     73.7822E+06     776.306E+03    -61.9889E-03     113.641E-03    -51.6520E-03     15.0761E-03    -62.2859E-03     114.041E-03    -51.4127E-03     14.6964E-03
             246     17.0940E-03     12.8529E-03    -890.394E+03     90.7536E+06     73.9946E+06    -449.024E+03    -59.3003E-03     110.995E-03    -51.6951E-03     15.2245E-03    -59.5947E-03     111.394E-03    -51.4554E-03     14.8519E-03
             247     17.0944E-03     13.9151E-03    -3.27078E+06     90.1070E+06     72.4232E+06    -518.461E+03    -58.4229E-03     110.138E-03    -51.7154E-03     14.2567E-03    -58.7246E-03     110.538E-03    -51.4792E-03     13.8974E-03
             248     17.0922E-03     14.9733E-03    -4.36803E+06     87.9185E+06     70.1533E+06     2.52916E+06    -57.4456E-03     109.227E-03    -51.7809E-03     14.5630E-03    -57.7461E-03     109.620E-03    -51.5513E-03     14.2543E-03
             249     17.0930E-03     16.0302E-03    -697.679E+03     90.7686E+06     73.1527E+06     719.385E+03    -55.9691E-03     107.800E-03    -51.8310E-03     14.5724E-03    -56.2588E-03     108.198E-03    -51.5958E-03     14.2535E-03
             250     17.0932E-03     17.0847E-03     8.87446E+06     97.7955E+06     81.1208E+06     2.94734E+06    -55.3565E-03     107.158E-03    -51.8012E-03     17.7746E-03    -55.6259E-03     107.571E-03    -51.5502E-03     17.4801E-03
             251     17.0963E-03     18.1462E-03     9.63675E+06     99.6242E+06     82.1658E+06     2.97589E+06    -56.7550E-03     108.478E-03    -51.7231E-03     24.0231E-03    -57.0341E-03     108.907E-03    -51.4707E-03     23.7080E-03
             252     17.0930E-03     19.2089E-03     1.56925E+06     94.7105E+06     74.0566E+06    -2.48282E+06    -57.4211E-03     109.094E-03    -51.6732E-03     27.6357E-03    -57.7260E-03     109.526E-03    -51.4425E-03     27.2264E-03
             253     17.0972E-03     20.2614E-03    -8.20820E+06     86.0795E+06     64.4716E+06    -3.99408E+06    -58.1944E-03     109.851E-03    -51.6562E-03     28.8978E-03    -58.5136E-03     110.258E-03    -51.4467E-03     28.4750E-03
             254     17.0904E-03     21.3292E-03    -14.6460E+06     81.0516E+06     60.3173E+06    -2.10420E+06    -58.0947E-03     109.835E-03    -51.7401E-03     27.5010E-03    -58.4296E-03     110.229E-03    -51.5348E-03     27.1407E-03
             255     17.0941E-03     22.3787E-03    -7.02601E+06     86.3604E+06     68.6313E+06     1.27808E+06    -53.5834E-03     105.434E-03    -51.8507E-03     25.2755E-03    -53.9065E-03     105.840E-03    -51.6226E-03     24.9827E-03
             256     17.0954E-03     23.4261E-03     3.27038E+06     94.5801E+06     78.8364E+06     6.52281E+03    -52.2567E-03     104.068E-03    -51.8116E-03     23.0028E-03    -52.5553E-03     104.486E-03    -51.5593E-03     22.6860E-03
             257     17.0956E-03     24.4853E-03    -3.53137E+06     90.3077E+06     72.4120E+06    -3.42112E+06    -55.2623E-03     107.000E-03    -51.7373E-03     24.0630E-03    -55.5880E-03     107.424E-03    -51.5011E-03     23.6610E-03
             258     17.0926E-03     25.5434E-03    -8.77726E+06     86.9351E+06     67.7744E+06     1.84639E+06    -54.0445E-03     105.834E-03    -51.7892E-03     24.3263E-03    -54.3915E-03     106.262E-03    -51.5637E-03     23.9826E-03
             259     17.0962E-03     26.5920E-03    -3.27357E+06     91.9897E+06     73.2928E+06     2.18596E+06    -51.5092E-03     103.351E-03    -51.8418E-03     24.6648E-03    -51.8433E-03     103.788E-03    -51.6040E-03     24.3413E-03
             260     17.0936E-03     27.6445E-03    -1.97045E+06     93.6946E+06     75.1377E+06     275.026E+03    -53.3161E-03     105.119E-03    -51.8032E-03     25.4317E-03    -53.6479E-03     105.559E-03    -51.5605E-03     25.0736E-03
             261     17.0950E-03     28.7025E-03    -1.44825E+06     95.0372E+06     75.3054E+06     1.29990E+06    -53.9750E-03     105.761E-03    -51.7863E-03     25.7288E-03    -54.3069E-03     106.207E-03    -51.5455E-03     25.3817E-03
             262     17.0947E-03     29.7538E-03     1.25045E+06     95.6652E+06     76.5606E+06    -1.50312E+06    -52.6356E-03     104.440E-03    -51.8042E-03     26.7553E-03    -52.9583E-03     104.885E-03    -51.5619E-03     26.3723E-03
             263     17.0951E-03     30.8089E-03    -2.04474E+06     92.0973E+06     73.3153E+06    -1.06024E+06    -52.1906E-03     104.012E-03    -51.8212E-03     26.0720E-03    -52.5178E-03     104.446E-03    -51.5852E-03     25.6939E-03
             264     17.0938E-03     31.8581E-03    -5.05771E+06     90.2229E+06     70.9710E+06    -755.369E+03    -52.8032E-03     104.641E-03    -51.8374E-03     23.4443E-03    -53.1335E-03     105.067E-03    -51.6060E-03     23.0900E-03
             265     17.0936E-03     32.9093E-03    -786.737E+03     92.1640E+06     75.6540E+06     1.57341E+06    -52.8163E-03     104.659E-03    -51.8429E-03     22.2600E-03    -53.1352E-03     105.083E-03    -51.5971E-03     21.9453E-03
             266     17.0959E-03     33.9675E-03     458.179E+03     93.6653E+06     77.4733E+06    -498.034E+03    -51.9016E-03     103.730E-03    -51.8279E-03     26.1809E-03    -52.2264E-03     104.164E-03    -51.5770E-03     25.8300E-03
             267     17.0945E-03     35.0183E-03    -3.72850E+06     91.4070E+06     73.0096E+06     218.080E+03    -52.7819E-03     104.584E-03    -51.8016E-03     28.7018E-03    -53.1268E-03     105.028E-03    -51.5637E-03     28.3428E-03
             268     17.0944E-03     36.0746E-03    -2.90131E+06     93.2510E+06     72.9915E+06     1.24364E+06    -52.7676E-03     104.589E-03    -51.8214E-03     28.3523E-03    -53.1099E-03     105.040E-03    -51.5874E-03     28.0106E-03
             269     17.0944E-03     37.1248E-03    -3.15577E+06     93.4364E+06     72.5367E+06    -760.874E+03    -51.4717E-03     103.339E-03    -51.8673E-03     27.7294E-03    -51.8093E-03     103.787E-03    -51.6356E-03     27.3755E-03
             270     17.0935E-03     38.1760E-03     762.709E+03     94.8997E+06     76.0120E+06     1.47559E+06    -51.0714E-03     102.947E-03    -51.8758E-03     27.6531E-03    -51.3949E-03     103.390E-03    -51.6345E-03     27.3333E-03
             271     17.0961E-03     39.2262E-03     1.35766E+06     95.5991E+06     76.7369E+06    -259.995E+03    -51.5629E-03     103.403E-03    -51.8404E-03     27.6847E-03    -51.8864E-03     103.849E-03    -51.5973E-03     27.3322E-03
             272     17.0935E-03     40.2817E-03    -4.41070E+06     92.8819E+06     72.0404E+06    -1.63824E+06    -52.7387E-03     104.549E-03    -51.8099E-03     29.5209E-03    -53.0858E-03     105.001E-03    -51.5780E-03     29.1357E-03
             273     17.0954E-03     41.3347E-03    -3.95531E+06     92.9775E+06     72.7239E+06     682.985E+03    -52.9001E-03     104.702E-03    -51.8016E-03     30.1317E-03    -53.2461E-03     105.153E-03    -51.5670E-03     29.7789E-03
             274     17.0946E-03     42.3868E-03    -530.098E+03     93.7543E+06     75.6204E+06     203.384E+03    -51.5321E-03     103.359E-03    -51.8272E-03     28.8271E-03    -51.8661E-03     103.805E-03    -51.5843E-03     28.4711E-03
             275     17.0954E-03     43.4388E-03    -1.75016E+06     92.1737E+06     74.4485E+06    -2.75696E+06    -50.6153E-03     102.472E-03    -51.8567E-03     27.0561E-03    -50.9479E-03     102.910E-03    -51.6156E-03     26.6728E-03
             276     17.0940E-03     44.4831E-03    -1.84403E+06     91.1911E+06     73.9526E+06     1.43908E+06    -51.0304E-03     102.863E-03    -51.8330E-03     24.9678E-03    -51.3554E-03     103.291E-03    -51.5928E-03     24.6463E-03
             277     17.0968E-03     45.5399E-03    -1.12421E+06     93.0986E+06     74.2304E+06     176.208E+03    -52.4168E-03     104.234E-03    -51.8168E-03     26.2796E-03    -52.7469E-03     104.675E-03    -51.5790E-03     25.9248E-03
             278     17.0912E-03     46.5962E-03    -5.52450E+06     92.1622E+06     70.8513E+06    -674.736E+03    -51.8247E-03     103.716E-03    -51.8910E-03     27.1298E-03    -52.1728E-03     104.166E-03    -51.6624E-03     26.7697E-03
             279     17.0950E-03     47.6417E-03    -660.819E+03     93.6422E+06     74.7806E+06     2.66669E+06    -49.4824E-03     101.413E-03    -51.9304E-03     26.4016E-03    -49.8067E-03     101.851E-03    -51.6913E-03     26.1149E-03
             280     17.0951E-03     48.6892E-03     6.00802E+06     97.7581E+06     81.0321E+06     432.617E+03    -50.4593E-03     102.294E-03    -51.8350E-03     24.6321E-03    -50.7608E-03     102.729E-03    -51.5803E-03     24.3098E-03
             281     17.0969E-03     49.7437E-03     712.720E+03     96.2394E+06     77.9913E+06    -2.74778E+06    -53.2587E-03     105.021E-03    -51.7625E-03     25.5394E-03    -53.5857E-03     105.466E-03    -51.5132E-03     25.1456E-03
             282     17.0929E-03     50.8035E-03    -6.91953E+06     90.8080E+06     70.2575E+06    -1.27957E+06    -53.6480E-03     105.468E-03    -51.8198E-03     29.4571E-03    -54.0055E-03     105.920E-03    -51.5902E-03     29.0662E-03
             283     17.0933E-03     51.8568E-03    -7.32641E+06     90.8229E+06     68.7082E+06     1.27018E+06    -51.5858E-03     103.497E-03    -51.9109E-03     30.4679E-03    -51.9426E-03     103.951E-03    -51.6884E-03     30.1299E-03
             284     17.0935E-03     52.9007E-03    -4.45521E+06     93.0026E+06     71.2526E+06     980.117E+03    -50.8163E-03     102.728E-03    -51.9120E-03     28.1105E-03    -51.1587E-03     103.179E-03    -51.6841E-03     27.7818E-03
             285     17.0943E-03     53.9565E-03     1.52979E+06     97.7571E+06     76.8997E+06     2.33501E+06    -50.6111E-03     102.490E-03    -51.8792E-03     27.7096E-03    -50.9363E-03     102.945E-03    -51.6387E-03     27.3986E-03
             286     17.0959E-03     55.0056E-03     1.46970E+06     98.0141E+06     77.5152E+06    -2.49307E+06    -51.0341E-03     102.896E-03    -51.8622E-03     28.8720E-03    -51.3635E-03     103.354E-03    -51.6189E-03     28.4900E-03
             287     17.0925E-03     56.0588E-03    -2.07643E+06     93.5485E+06     74.2157E+06    -1.13621E+06    -51.8603E-03     103.720E-03    -51.8593E-03     28.8595E-03    -52.1997E-03     104.169E-03    -51.6209E-03     28.4825E-03
             288     17.0961E-03     57.1113E-03    -4.70670E+06     91.9199E+06     72.6467E+06     213.100E+03    -51.1985E-03     103.060E-03    -51.8612E-03     30.0237E-03    -51.5496E-03     103.510E-03    -51.6244E-03     29.6644E-03
             289     17.0932E-03     58.1616E-03    -7.17998E+06     90.2575E+06     70.9266E+06    -619.982E+03    -51.7681E-03     103.615E-03    -51.8465E-03     29.5184E-03    -52.1256E-03     104.061E-03    -51.6124E-03     29.1524E-03
             290     17.0952E-03     59.2142E-03    -2.48428E+06     92.7390E+06      74.122E+06     2.06317E+06    -51.4395E-03     103.304E-03    -51.8647E-03     28.2908E-03    -51.7775E-03     103.748E-03    -51.6250E-03     27.9694E-03
             291     17.0938E-03     60.2657E-03     520.030E+03     95.6314E+06     76.5402E+06     694.996E+03    -50.4888E-03     102.383E-03    -51.8942E-03     27.8130E-03    -50.8185E-03     102.832E-03    -51.6510E-03     27.4796E-03
             292     854.524E-06     61.5193E-03    -88.5486E+06    -195.157E+06    -85.0398E+06    -180.938E+03    -52.3066E-03     103.161E-03    -50.8544E-03     9.22400E-03    -52.3030E-03     102.478E-03    -50.8682E-03     9.19170E-03
             293     1.71007E-03     61.5321E-03    -83.5200E+06    -188.024E+06    -75.5470E+06    -1.17922E+06    -51.9391E-03     103.591E-03    -51.6516E-03     15.2364E-03    -51.9563E-03     102.866E-03    -51.6356E-03     15.1612E-03
             294     2.56434E-03     61.5497E-03    -78.5952E+06    -178.908E+06    -62.8778E+06    -71.6594E+03    -51.9544E-03     103.733E-03    -51.7784E-03     22.0514E-03    -51.9789E-03     103.028E-03    -51.7194E-03     21.9619E-03
             295     3.41805E-03     61.5752E-03    -73.5339E+06    -169.503E+06    -50.2629E+06    -613.085E+03    -52.1426E-03     104.008E-03    -51.8655E-03     28.7756E-03    -52.1920E-03     103.342E-03    -51.7644E-03     28.6426E-03
             296     4.27252E-03     61.6079E-03    -67.3902E+06    -158.627E+06    -40.6218E+06    -677.679E+03    -52.2783E-03     104.211E-03    -51.9325E-03     35.4059E-03    -52.3451E-03     103.594E-03    -51.8079E-03     35.2316E-03
             297     5.12753E-03     61.6470E-03    -61.5899E+06    -143.000E+06    -29.3002E+06     688.375E+03    -52.1851E-03     104.160E-03    -51.9745E-03     41.6959E-03    -52.2767E-03     103.610E-03    -51.8244E-03     41.4977E-03
             298     5.98227E-03     61.6907E-03    -57.5537E+06    -126.862E+06    -20.4424E+06     605.609E+03    -52.2706E-03     104.255E-03    -51.9844E-03     47.2064E-03    -52.3956E-03     103.785E-03    -51.8192E-03     46.9607E-03
             299     6.83565E-03     61.7421E-03    -51.0411E+06    -110.326E+06    -11.9964E+06    -572.945E+03    -52.5998E-03     104.602E-03    -52.0023E-03     51.4672E-03    -52.7466E-03     104.211E-03    -51.8283E-03     51.1576E-03
             300     7.69054E-03     61.7951E-03    -45.3623E+06    -95.2244E+06    -4.99930E+06    -1.03954E+06    -52.4870E-03     104.506E-03    -52.0187E-03     54.7672E-03    -52.6587E-03     104.193E-03    -51.8398E-03     54.4062E-03
             301     8.54607E-03     61.8494E-03    -42.0432E+06    -76.7175E+06     1.40524E+06     594.498E+03    -52.1349E-03     104.133E-03    -51.9977E-03     58.9298E-03    -52.3515E-03     103.924E-03    -51.8184E-03     58.5520E-03
             302     9.40019E-03     61.9114E-03    -36.2858E+06    -54.0762E+06     11.2008E+06     1.54334E+06    -52.0455E-03     104.006E-03    -51.9609E-03     61.8125E-03    -52.3055E-03     103.913E-03    -51.7739E-03     61.4085E-03
             303     10.2553E-03     61.9720E-03    -34.3941E+06    -35.8163E+06     17.7021E+06     884.675E+03    -52.2076E-03     104.137E-03    -51.9297E-03     61.4924E-03    -52.5132E-03     104.142E-03    -51.7394E-03     61.0470E-03
             304     11.1109E-03     62.0323E-03    -31.2171E+06    -12.9145E+06     24.3501E+06     193.609E+03    -52.3777E-03     104.291E-03    -51.9138E-03     60.7191E-03    -52.7258E-03     104.412E-03    -51.7280E-03     60.2392E-03
             305     11.9644E-03     62.0934E-03    -23.8465E+06     14.2414E+06     34.0192E+06    -711.283E+03    -52.4818E-03     104.399E-03    -51.9174E-03     59.2652E-03    -52.8538E-03     104.638E-03    -51.7333E-03     58.7597E-03
             306     12.8166E-03     62.1520E-03    -19.1993E+06     47.6456E+06     41.6591E+06    -1.92297E+06    -52.1820E-03     104.087E-03    -51.9047E-03     57.1669E-03    -52.5856E-03     104.470E-03    -51.7376E-03     56.6537E-03
             307     13.6748E-03     62.2115E-03    -14.0189E+06     76.6631E+06     51.2647E+06    -1.41242E+06    -51.3036E-03     103.181E-03    -51.8771E-03     54.2164E-03    -51.7258E-03     103.677E-03    -51.7116E-03     53.7305E-03
             308     14.5319E-03     62.2596E-03    -16.2012E+06     78.7468E+06     52.4831E+06     1.37416E+06    -51.3316E-03     103.173E-03    -51.8417E-03     49.1387E-03    -51.7524E-03     103.664E-03    -51.6700E-03     48.7064E-03
             309     15.3844E-03     62.3048E-03    -13.6721E+06      86.906E+06     58.2487E+06     2.87713E+06    -51.3268E-03     103.155E-03    -51.8280E-03     40.4136E-03    -51.7345E-03     103.654E-03    -51.6429E-03     40.0019E-03
             310     16.2405E-03     62.3395E-03    -2.02559E+06     99.3676E+06     74.1395E+06     1.71324E+06    -51.2148E-03     103.069E-03    -51.8538E-03     31.8159E-03    -51.5758E-03     103.560E-03    -51.6242E-03     31.4427E-03
             311     855.012E-06     62.5714E-03    -86.5438E+06    -193.731E+06    -84.0434E+06    -488.125E+03    -52.2097E-03     103.300E-03    -51.0902E-03     10.1783E-03    -52.1956E-03     102.616E-03    -51.1040E-03     10.1376E-03
             312     1.70870E-03     62.5817E-03    -84.5056E+06    -187.393E+06    -74.2380E+06    -934.989E+03    -52.0183E-03     103.744E-03    -51.7256E-03     14.8437E-03    -52.0368E-03     103.015E-03    -51.7026E-03     14.7774E-03
             313     2.56385E-03     62.6013E-03    -79.0794E+06    -179.237E+06    -63.3255E+06    -1.12243E+06    -52.0240E-03     103.872E-03    -51.8482E-03     21.6216E-03    -52.0428E-03     103.160E-03    -51.7903E-03     21.5221E-03
             314     3.41834E-03     62.6267E-03    -72.0283E+06    -169.068E+06    -51.0534E+06    -475.790E+03    -52.1393E-03     104.058E-03    -51.9190E-03     29.0987E-03    -52.1766E-03     103.389E-03    -51.8246E-03     28.9677E-03
             315     4.27256E-03     62.6594E-03    -67.8237E+06    -159.885E+06    -40.2790E+06    -196.306E+03    -52.2478E-03     104.226E-03    -51.9787E-03     35.7279E-03    -52.3132E-03     103.601E-03    -51.8499E-03     35.5602E-03
             316     5.12702E-03     62.6977E-03    -61.6432E+06    -143.758E+06    -29.1836E+06     673.200E+03    -52.3680E-03     104.390E-03    -52.0220E-03     41.4642E-03    -52.4570E-03     103.835E-03    -51.8701E-03     41.2658E-03
             317     5.98111E-03     62.7430E-03    -56.3115E+06    -125.842E+06    -20.6121E+06     267.447E+03    -52.3172E-03     104.354E-03    -52.0363E-03     47.3048E-03    -52.4362E-03     103.886E-03    -51.8753E-03     47.0535E-03
             318     6.83635E-03     62.7933E-03    -51.7811E+06    -112.246E+06    -13.6622E+06    -195.799E+03    -51.9135E-03     103.922E-03    -52.0081E-03     51.8902E-03    -52.0573E-03     103.523E-03    -51.8386E-03     51.5913E-03
             319     7.69162E-03     62.8457E-03    -48.0896E+06    -94.0410E+06    -5.75921E+06     799.439E+03    -52.1505E-03     104.118E-03    -51.9671E-03     55.1614E-03    -52.3359E-03     103.815E-03    -51.7898E-03     54.8286E-03
             320     8.54527E-03     62.9018E-03    -44.8423E+06    -77.2559E+06     629.827E+03     848.557E+03    -52.5154E-03     104.471E-03    -51.9556E-03     58.2991E-03    -52.7454E-03     104.266E-03    -51.7754E-03     57.9174E-03
             321     9.40111E-03     62.9612E-03    -39.7470E+06    -54.8584E+06     9.96048E+06     1.59460E+06    -52.3333E-03     104.289E-03    -51.9560E-03     60.9812E-03    -52.6085E-03     104.200E-03    -51.7690E-03     60.5731E-03
             322     10.2563E-03     63.0238E-03    -32.5932E+06    -32.1741E+06     20.0622E+06     179.455E+03    -52.4923E-03     104.448E-03    -51.9560E-03     60.7859E-03    -52.7964E-03     104.464E-03    -51.7617E-03     60.3288E-03
             323     11.1092E-03     63.0845E-03    -26.6021E+06    -12.2985E+06     26.2868E+06    -2.27067E+06    -52.3853E-03     104.334E-03    -51.9489E-03     60.2242E-03    -52.7122E-03     104.447E-03    -51.7611E-03     59.7134E-03
             324     11.9642E-03     63.1454E-03    -24.2673E+06     11.4955E+06     31.8213E+06    -1.21942E+06    -52.3296E-03     104.264E-03    -51.9340E-03     61.4164E-03    -52.7005E-03     104.497E-03    -51.7564E-03     60.9080E-03
             325     12.8199E-03     63.2055E-03    -20.7425E+06     49.2852E+06     41.4504E+06     1.24479E+06    -52.1077E-03     104.021E-03    -51.9134E-03     58.7780E-03    -52.5254E-03     104.420E-03    -51.7476E-03     58.3062E-03
             326     13.6736E-03     63.2586E-03    -20.1940E+06     75.2525E+06     48.2384E+06     1.25708E+06    -51.0829E-03     102.956E-03    -51.8734E-03     53.0297E-03    -51.5292E-03     103.458E-03    -51.7121E-03     52.5765E-03
             327     14.5296E-03     63.3113E-03    -18.0482E+06     76.9266E+06     50.4508E+06     410.520E+03    -51.0686E-03     102.894E-03    -51.8253E-03     48.5517E-03    -51.4922E-03     103.380E-03    -51.6584E-03     48.1064E-03
             328     15.3846E-03     63.3585E-03    -12.0800E+06     88.4654E+06     59.3157E+06    -37.6503E+03    -51.6174E-03     103.436E-03    -51.8188E-03     39.6455E-03    -52.0182E-03     103.936E-03    -51.6330E-03     39.1948E-03
             329     16.2389E-03     63.3881E-03    -1.95561E+06     98.3892E+06     74.2075E+06     190.963E+03    -50.9239E-03     102.770E-03    -51.8466E-03     31.8583E-03    -51.2828E-03     103.257E-03    -51.6154E-03     31.4654E-03
             330     854.924E-06     63.6208E-03    -87.0625E+06    -193.400E+06    -82.7096E+06     512.786E+03    -51.5705E-03     103.897E-03    -52.3262E-03     9.06502E-03    -51.5608E-03     103.214E-03    -52.3331E-03     9.03688E-03
             331     1.70955E-03     63.6347E-03    -83.1568E+06    -186.021E+06    -72.8797E+06     68.1880E+03    -51.7726E-03     103.691E-03    -51.9184E-03     15.0950E-03    -51.7902E-03     102.968E-03    -51.8925E-03     15.0351E-03
             332     2.56278E-03     63.6517E-03    -78.4689E+06    -178.398E+06    -63.2006E+06    -978.291E+03    -51.9597E-03     103.865E-03    -51.9052E-03     22.3379E-03    -51.9805E-03     103.159E-03    -51.8487E-03     22.2368E-03
             333     3.41808E-03     63.6779E-03    -73.9400E+06    -170.392E+06    -52.4119E+06    -513.509E+03    -52.0331E-03     103.971E-03    -51.9383E-03     29.4296E-03    -52.0792E-03     103.303E-03    -51.8461E-03     29.2992E-03
             334     4.27277E-03     63.7108E-03    -66.8512E+06    -159.275E+06    -39.5261E+06     228.177E+03    -52.2996E-03     104.289E-03    -51.9899E-03     35.9344E-03    -52.3641E-03     103.666E-03    -51.8596E-03     35.7710E-03
             335     5.12668E-03     63.7497E-03    -61.0121E+06    -144.167E+06    -29.7383E+06    -375.834E+03    -52.4673E-03     104.505E-03    -52.0377E-03     42.0253E-03    -52.5532E-03     103.949E-03    -51.8889E-03     41.8116E-03
             336     5.98121E-03     63.7945E-03    -56.5884E+06    -126.990E+06    -21.6644E+06     140.807E+03    -52.0800E-03     104.120E-03    -52.0398E-03     47.2908E-03    -52.1975E-03     103.649E-03    -51.8820E-03     47.0390E-03
             337     6.83631E-03     63.8432E-03    -52.4154E+06    -111.727E+06    -13.0968E+06     579.467E+03    -51.8913E-03     103.892E-03    -52.0008E-03     51.4242E-03    -52.0411E-03     103.497E-03    -51.8283E-03     51.1321E-03
             338     7.69175E-03     63.8966E-03    -48.1954E+06    -93.0676E+06    -4.71910E+06     548.139E+03    -52.3267E-03     104.298E-03    -51.9716E-03     54.9123E-03    -52.5155E-03     103.999E-03    -51.7904E-03     54.5759E-03
             339     8.54664E-03     63.9545E-03    -42.1999E+06    -78.2920E+06     2.18391E+06    -1.37364E+06    -52.6813E-03     104.661E-03    -51.9802E-03     57.4275E-03    -52.8979E-03     104.444E-03    -51.7945E-03     57.0158E-03
             340     9.39959E-03     64.0119E-03    -34.9010E+06    -56.1343E+06     10.3749E+06    -1.15280E+06    -52.7500E-03     104.746E-03    -51.9963E-03     60.7311E-03    -52.9995E-03     104.643E-03    -51.8125E-03     60.2834E-03
             341     10.2533E-03     64.0765E-03    -32.4216E+06    -29.4760E+06     19.4394E+06     1.66216E+06    -52.3694E-03     104.370E-03    -52.0001E-03     61.3743E-03    -52.6728E-03     104.397E-03    -51.8132E-03     60.9447E-03
             342     11.1092E-03     64.1353E-03    -31.5375E+06    -10.7373E+06     24.5078E+06    -33.2859E+03    -51.8130E-03     103.779E-03    -51.9660E-03     60.3989E-03    -52.1610E-03     103.906E-03    -51.7821E-03     59.9291E-03
             343     11.9656E-03     64.1956E-03    -26.5759E+06     8.94954E+06     30.2495E+06    -1.94164E+06    -51.4510E-03     103.353E-03    -51.9018E-03     61.4894E-03    -51.8267E-03     103.578E-03    -51.7250E-03     60.9805E-03
             344     12.8197E-03     64.2580E-03    -21.9152E+06     44.8203E+06     39.4143E+06     1.05535E+06    -51.7012E-03     103.539E-03    -51.8381E-03     59.2923E-03    -52.1150E-03     103.920E-03    -51.6743E-03     58.8239E-03
             345     13.6744E-03     64.3111E-03    -18.2110E+06     75.3995E+06     48.9399E+06     4.61056E+06    -52.2043E-03     104.028E-03    -51.8241E-03     54.2154E-03    -52.6431E-03     104.528E-03    -51.6623E-03     53.7986E-03
             346     14.5287E-03     64.3611E-03    -12.6309E+06     81.6014E+06     54.4192E+06     2.80018E+06    -51.4105E-03     103.235E-03    -51.8249E-03     49.7244E-03    -51.8204E-03     103.732E-03    -51.6528E-03     49.3082E-03
             347     15.3859E-03     64.4090E-03    -8.40045E+06     91.4652E+06     62.0216E+06    -1.26710E+06    -50.9129E-03     102.718E-03    -51.8055E-03     41.4296E-03    -51.3034E-03     103.224E-03    -51.6158E-03     40.9732E-03
             348     16.2395E-03     64.4431E-03    -3.89036E+06     96.9418E+06     72.6835E+06    -2.28774E+06    -50.9997E-03     102.809E-03    -51.8094E-03     31.4485E-03    -51.3628E-03     103.292E-03    -51.5809E-03     31.0250E-03
             349     852.350E-06     64.6733E-03    -86.3352E+06    -194.056E+06    -84.2418E+06    -50.6953E+03    -51.7022E-03     104.628E-03    -52.9262E-03     7.53864E-03    -51.6890E-03     103.945E-03    -52.9409E-03     7.51647E-03
             350     1.70841E-03     64.6835E-03    -82.2693E+06    -185.611E+06    -73.3718E+06     566.632E+03    -51.2516E-03     103.357E-03    -52.1054E-03     15.1911E-03    -51.2650E-03     102.636E-03    -52.0838E-03     15.1448E-03
             351     2.56485E-03     64.7042E-03    -78.5628E+06    -176.920E+06    -60.9763E+06     87.7432E+03    -51.8299E-03     103.737E-03    -51.9069E-03     22.3801E-03    -51.8564E-03     103.035E-03    -51.8413E-03     22.2915E-03
             352     3.41799E-03     64.7287E-03    -73.4842E+06    -168.435E+06    -49.7097E+06    -863.198E+03    -52.2010E-03     104.144E-03    -51.9433E-03     29.4666E-03    -52.2498E-03     103.480E-03    -51.8411E-03     29.3261E-03
             353     4.27246E-03     64.7625E-03    -67.2678E+06    -160.219E+06    -40.5442E+06    -971.945E+03    -52.2837E-03     104.284E-03    -52.0002E-03     36.1724E-03    -52.3481E-03     103.659E-03    -51.8731E-03     35.9930E-03
             354     5.12722E-03     64.8013E-03    -62.4380E+06    -146.226E+06    -31.4960E+06    -260.450E+03    -52.2949E-03     104.326E-03    -52.0307E-03     41.7310E-03    -52.3833E-03     103.765E-03    -51.8856E-03     41.5182E-03
             355     5.98174E-03     64.8458E-03    -57.7597E+06    -127.710E+06    -21.4584E+06     629.142E+03    -52.1219E-03     104.155E-03    -52.0329E-03     46.3758E-03    -52.2433E-03     103.680E-03    -51.8712E-03     46.1304E-03
             356     6.83666E-03     64.8938E-03    -52.5112E+06    -110.440E+06    -12.7312E+06     427.653E+03    -52.2015E-03     104.216E-03    -52.0144E-03     51.5363E-03    -52.3549E-03     103.828E-03    -51.8418E-03     51.2407E-03
             357     7.69002E-03     64.9492E-03    -44.9717E+06    -93.1330E+06    -3.82196E+06    -1.07027E+06    -52.3659E-03     104.368E-03    -52.0018E-03     55.7518E-03    -52.5407E-03     104.063E-03    -51.8207E-03     55.3925E-03
             358     8.54438E-03     65.0047E-03    -39.0161E+06    -76.5099E+06     3.41472E+06    -1.15293E+06    -52.5606E-03     104.559E-03    -51.9983E-03     58.6165E-03    -52.7656E-03     104.344E-03    -51.8137E-03     58.2117E-03
             359     9.40006E-03     65.0654E-03    -38.9294E+06    -57.2974E+06     7.94678E+06     369.697E+03    -52.5616E-03     104.554E-03    -51.9921E-03     61.6594E-03    -52.8268E-03     104.454E-03    -51.8128E-03     61.2370E-03
             360     10.2552E-03     65.1268E-03    -37.9706E+06    -34.6418E+06     15.2263E+06     1.79529E+06    -51.8873E-03     103.854E-03    -51.9665E-03     61.9939E-03    -52.2071E-03     103.872E-03    -51.7851E-03     61.5691E-03
             361     11.1103E-03     65.1865E-03    -31.2943E+06    -8.34234E+06     26.2460E+06     1.10078E+06    -51.7608E-03     103.683E-03    -51.9223E-03     61.6017E-03    -52.1171E-03     103.823E-03    -51.7336E-03     61.1425E-03
             362     11.9638E-03     65.2469E-03    -26.8069E+06     14.0555E+06     34.1391E+06    -348.296E+03    -51.8039E-03     103.683E-03    -51.8789E-03     61.2217E-03    -52.1917E-03     103.926E-03    -51.6897E-03     60.7322E-03
             363     12.8221E-03     65.3061E-03    -24.8114E+06     39.8192E+06     36.6595E+06    -593.517E+03    -51.4034E-03     103.211E-03    -51.8071E-03     58.4794E-03    -51.8175E-03     103.572E-03    -51.6456E-03     57.9964E-03
             364     13.6776E-03     65.3653E-03    -16.3344E+06     70.8480E+06     48.5794E+06    -213.316E+03    -51.5928E-03     103.365E-03    -51.7722E-03     53.5451E-03    -52.0146E-03     103.840E-03    -51.6084E-03     53.0693E-03
             365     14.5306E-03     65.4133E-03    -7.82208E+06     85.6417E+06     57.5143E+06     1.52531E+06    -51.6539E-03     103.420E-03    -51.7657E-03     48.8403E-03    -52.0513E-03     103.927E-03    -51.5910E-03     48.3984E-03
             366     15.3848E-03     65.4579E-03    -4.34064E+06     95.5121E+06     65.0486E+06     1.10060E+06    -51.1567E-03     102.921E-03    -51.7642E-03     41.7986E-03    -51.5416E-03     103.441E-03    -51.5711E-03     41.3626E-03
             367     16.2431E-03     65.4946E-03    -5.26087E+06     97.6935E+06     72.8214E+06    -1.43653E+06    -51.7648E-03     103.560E-03    -51.7951E-03     30.8267E-03    -52.1377E-03     104.050E-03    -51.5650E-03     30.4029E-03
             368     854.704E-06     65.7231E-03    -88.7775E+06    -195.363E+06    -84.6824E+06    -473.455E+03    -51.9016E-03     103.901E-03    -51.9997E-03     6.35197E-03    -51.8938E-03     103.215E-03    -52.0111E-03     6.32157E-03
             369     1.70893E-03     65.7354E-03    -83.2509E+06    -186.407E+06    -73.7051E+06     299.582E+03    -51.8406E-03     103.772E-03    -51.9316E-03     16.0410E-03    -51.8546E-03     103.046E-03    -51.9091E-03     15.9842E-03
             370     2.56250E-03     65.7537E-03    -77.5523E+06    -176.327E+06    -61.1531E+06     893.154E+03    -51.9737E-03     103.909E-03    -51.9351E-03     22.8697E-03    -51.9943E-03     103.208E-03    -51.8727E-03     22.7902E-03
             371     3.41836E-03     65.7814E-03    -72.7268E+06    -167.443E+06    -49.2151E+06     347.358E+03    -52.1972E-03     104.183E-03    -51.9857E-03     29.2819E-03    -52.2437E-03     103.521E-03    -51.8836E-03     29.1596E-03
             372     4.27242E-03     65.8131E-03    -68.7760E+06    -159.768E+06    -39.4283E+06    -256.913E+03    -52.1667E-03     104.198E-03    -52.0312E-03     35.9866E-03    -52.2401E-03     103.575E-03    -51.8970E-03     35.8167E-03
             373     5.12655E-03     65.8535E-03    -61.9820E+06    -146.542E+06    -29.8568E+06    -1.12883E+06    -52.1779E-03     104.217E-03    -52.0394E-03     41.9724E-03    -52.2659E-03     103.652E-03    -51.8863E-03     41.7465E-03
             374     5.98123E-03     65.8963E-03    -54.6668E+06    -129.051E+06    -21.0183E+06    -699.416E+03    -52.2904E-03     104.324E-03    -52.0337E-03     46.4011E-03    -52.3951E-03     103.838E-03    -51.8724E-03     46.1370E-03
             375     6.83560E-03     65.9457E-03    -50.2891E+06    -110.063E+06    -12.2826E+06     727.041E+03    -52.1124E-03     104.130E-03    -52.0178E-03     51.7355E-03    -52.2544E-03     103.739E-03    -51.8467E-03     51.4506E-03
             376     7.69190E-03     65.9997E-03    -46.4576E+06    -93.1064E+06    -4.28734E+06     526.418E+03    -52.1749E-03     104.164E-03    -51.9894E-03     56.1346E-03    -52.3562E-03     103.863E-03    -51.8084E-03     55.8018E-03
             377     8.54712E-03     66.0568E-03    -42.7998E+06    -76.7504E+06     2.66733E+06     186.020E+03    -52.5326E-03     104.511E-03    -51.9781E-03     58.8823E-03    -52.7554E-03     104.301E-03    -51.7914E-03     58.4959E-03
             378     9.40035E-03     66.1168E-03    -37.8738E+06    -55.1144E+06     11.4600E+06     46.8067E+03    -52.0246E-03     103.987E-03    -51.9620E-03     60.6784E-03    -52.2909E-03     103.890E-03    -51.7698E-03     60.2545E-03
             379     10.2554E-03     66.1773E-03    -32.7707E+06    -36.5181E+06     18.2157E+06    -800.951E+03    -51.4388E-03     103.336E-03    -51.8971E-03     61.5965E-03    -51.7353E-03     103.334E-03    -51.7056E-03     61.1372E-03
             380     11.1113E-03     66.2371E-03    -29.4026E+06    -12.0199E+06     25.5316E+06     974.413E+03    -52.0278E-03     103.866E-03    -51.8380E-03     62.3921E-03    -52.3702E-03     103.987E-03    -51.6503E-03     61.9282E-03
             381     11.9675E-03     66.2992E-03    -23.5072E+06     17.5042E+06     36.8818E+06     2.17647E+06    -52.7312E-03     104.577E-03    -51.8458E-03     60.9475E-03    -53.1117E-03     104.829E-03    -51.6527E-03     60.4802E-03
             382     12.8180E-03     66.3576E-03    -21.8533E+06     44.3807E+06     40.1018E+06     613.485E+03    -52.0927E-03     103.927E-03    -51.8341E-03     57.6074E-03    -52.5055E-03     104.303E-03    -51.6662E-03     57.1263E-03
             383     13.6738E-03     66.4143E-03    -19.2209E+06     70.4118E+06     47.3136E+06    -3.31900E+06    -51.0453E-03     102.843E-03    -51.7976E-03     52.9852E-03    -51.4794E-03     103.322E-03    -51.6352E-03     52.4700E-03
             384     14.5323E-03     66.4648E-03    -12.0011E+06     81.5671E+06      54.268E+06    -4.75234E+06    -51.5291E-03     103.298E-03    -51.7691E-03     47.0588E-03    -51.9338E-03     103.793E-03    -51.5986E-03     46.5363E-03
             385     15.3874E-03     66.5103E-03    -5.28848E+06     94.3039E+06     63.9747E+06     344.030E+03    -51.9371E-03     103.727E-03    -51.7900E-03     39.0365E-03    -52.3198E-03     104.240E-03    -51.5992E-03     38.5841E-03
             386     16.2383E-03     66.5458E-03    -3.71366E+06     99.1592E+06     73.3689E+06     2.48695E+06    -51.7454E-03     103.588E-03    -51.8424E-03     30.8603E-03    -52.1144E-03     104.083E-03    -51.6139E-03     30.4844E-03
             387     855.837E-06     66.7750E-03    -86.8699E+06    -194.119E+06    -84.8219E+06    -1.56395E+06    -51.6123E-03     103.143E-03    -51.5308E-03     5.27123E-03    -51.5979E-03     102.466E-03    -51.5474E-03     5.23538E-03
             388     1.70950E-03     66.7865E-03    -82.5749E+06    -186.905E+06    -74.6888E+06    -1.23868E+06    -52.1724E-03     103.863E-03    -51.6906E-03     15.5808E-03    -52.1843E-03     103.137E-03    -51.6732E-03     15.5093E-03
             389     2.56441E-03     66.8056E-03    -77.5398E+06    -177.610E+06    -62.6910E+06     171.262E+03    -52.2529E-03     104.140E-03    -51.8873E-03     23.3850E-03    -52.2711E-03     103.437E-03    -51.8308E-03     23.2938E-03
             390     3.41727E-03     66.8325E-03    -72.4293E+06    -167.436E+06    -49.1837E+06     821.546E+03    -52.1293E-03     104.115E-03    -51.9859E-03     29.8982E-03    -52.1770E-03     103.455E-03    -51.8840E-03     29.7773E-03
             391     4.27210E-03     66.8647E-03    -66.0425E+06    -156.827E+06    -36.5299E+06    -496.903E+03    -51.9789E-03     103.990E-03    -52.0112E-03     36.2808E-03    -52.0484E-03     103.375E-03    -51.8707E-03     36.1079E-03
             392     5.12765E-03     66.9039E-03    -61.1496E+06    -146.061E+06    -29.0190E+06    -630.163E+03    -51.9492E-03     103.932E-03    -51.9829E-03     42.5574E-03    -52.0352E-03     103.367E-03    -51.8275E-03     42.3434E-03
             393     5.98185E-03     66.9489E-03    -57.6910E+06    -131.415E+06    -22.6767E+06     72.6232E+03    -52.2540E-03     104.214E-03    -51.9603E-03     47.4731E-03    -52.3693E-03     103.724E-03    -51.7995E-03     47.2193E-03
             394     6.83663E-03     66.9962E-03    -51.3018E+06    -110.719E+06    -11.5903E+06     537.623E+03    -52.5661E-03     104.549E-03    -51.9832E-03     51.8744E-03    -52.7142E-03     104.156E-03    -51.8062E-03     51.5803E-03
             395     7.69072E-03     67.0505E-03    -46.0415E+06    -92.5313E+06    -2.11614E+06     161.914E+03    -52.5300E-03     104.539E-03    -52.0095E-03     55.6239E-03    -52.7146E-03     104.238E-03    -51.8191E-03     55.2825E-03
             396     8.54451E-03     67.1089E-03    -42.6456E+06    -76.2445E+06     3.60283E+06     4.41417E+03    -52.1525E-03     104.147E-03    -51.9942E-03     58.2152E-03    -52.3758E-03     103.938E-03    -51.8038E-03     57.8308E-03
             397     9.40028E-03     67.1679E-03    -38.8584E+06    -57.1623E+06     9.72379E+06    -322.039E+03    -51.5476E-03     103.480E-03    -51.9324E-03     59.6322E-03    -51.8095E-03     103.373E-03    -51.7446E-03     59.2094E-03
             398     10.2572E-03     67.2261E-03    -32.3508E+06    -36.6389E+06     18.4557E+06    -804.117E+03    -51.6280E-03     103.492E-03    -51.8636E-03     60.9964E-03    -51.9226E-03     103.488E-03    -51.6713E-03     60.5335E-03
             399     11.1123E-03     67.2892E-03    -26.9562E+06    -10.6677E+06     27.4160E+06     927.409E+03    -52.2901E-03     104.119E-03    -51.8287E-03     61.8524E-03    -52.6257E-03     104.241E-03    -51.6371E-03     61.3863E-03
             400     11.9644E-03     67.3513E-03    -25.1869E+06     14.9980E+06     34.0426E+06     2.27818E+06    -52.4912E-03     104.319E-03    -51.8276E-03     60.8144E-03    -52.8729E-03     104.566E-03    -51.6426E-03     60.3512E-03
             401     12.8216E-03     67.4110E-03    -19.2860E+06     46.8613E+06     41.6382E+06     1.46655E+06    -52.5657E-03     104.397E-03    -51.8317E-03     57.8397E-03    -52.9747E-03     104.784E-03    -51.6635E-03     57.3595E-03
             402     13.6758E-03     67.4637E-03    -15.3289E+06     74.5302E+06     50.3936E+06    -120.166E+03    -52.4537E-03     104.310E-03    -51.8564E-03     52.5464E-03    -52.8821E-03     104.803E-03    -51.6903E-03     52.0536E-03
             403     14.5284E-03     67.5168E-03    -12.3236E+06     82.8507E+06     57.6902E+06    -3.66639E+06    -51.8193E-03     103.707E-03    -51.8882E-03     46.8834E-03    -52.2343E-03     104.206E-03    -51.7020E-03     46.3712E-03
             404     15.3813E-03     67.5629E-03    -10.0848E+06     88.8967E+06     60.3325E+06    -4.20809E+06    -51.3847E-03     103.263E-03    -51.8781E-03     39.3920E-03    -51.7776E-03     103.760E-03    -51.6907E-03     38.8870E-03
             405     16.2397E-03     67.5969E-03    -4.49795E+06     95.9464E+06     69.4358E+06     1.14289E+06    -50.5706E-03     102.440E-03    -51.8696E-03     31.6997E-03    -50.9328E-03     102.926E-03    -51.6550E-03     31.3143E-03
             406     853.527E-06     67.8258E-03    -84.2448E+06    -191.563E+06    -82.3800E+06    -1.14907E+06    -52.2913E-03     103.524E-03    -51.2331E-03     7.39516E-03    -52.2715E-03     102.853E-03    -51.2450E-03     7.34404E-03
             407     1.70940E-03     67.8368E-03    -83.2989E+06    -187.115E+06    -74.3715E+06    -515.607E+03    -52.1558E-03     103.995E-03    -51.8397E-03     14.9534E-03    -52.1700E-03     103.268E-03    -51.8194E-03     14.8852E-03
             408     2.56298E-03     67.8578E-03    -77.9936E+06    -178.054E+06    -62.1061E+06    -991.343E+03    -51.7757E-03     103.692E-03    -51.9167E-03     22.6909E-03    -51.7941E-03     102.984E-03    -51.8560E-03     22.5864E-03
             409     3.41879E-03     67.8833E-03    -70.7666E+06    -168.159E+06    -50.2917E+06    -310.656E+03    -51.7438E-03     103.627E-03    -51.8837E-03     30.0430E-03    -51.7793E-03     102.962E-03    -51.7887E-03     29.9149E-03
             410     4.27334E-03     67.9163E-03    -66.6094E+06    -156.948E+06    -38.3908E+06     852.604E+03    -52.0397E-03     103.926E-03    -51.8866E-03     36.6023E-03    -52.1098E-03     103.315E-03    -51.7544E-03     36.4499E-03
             411     5.12718E-03     67.9546E-03    -62.5329E+06    -145.483E+06    -27.2177E+06     581.308E+03    -52.0293E-03     103.939E-03    -51.9096E-03     42.0034E-03    -52.1259E-03     103.376E-03    -51.7440E-03     41.8052E-03
             412     5.98337E-03     67.9992E-03    -56.0031E+06    -129.641E+06    -19.0312E+06    -588.457E+03    -52.3127E-03     104.227E-03    -51.9145E-03     47.2119E-03    -52.4283E-03     103.739E-03    -51.7404E-03     46.9502E-03
             413     6.83706E-03     68.0492E-03    -49.8923E+06    -112.191E+06    -11.2813E+06    -844.135E+03    -52.8806E-03     104.837E-03    -51.9563E-03     51.5467E-03    -53.0212E-03     104.435E-03    -51.7777E-03     51.2307E-03
             414     7.69031E-03     68.1027E-03    -46.7527E+06    -93.1346E+06    -3.40006E+06     1.35618E+06    -52.4963E-03     104.492E-03    -51.9960E-03     55.9857E-03    -52.6821E-03     104.191E-03    -51.8102E-03     55.6576E-03
             415     8.54587E-03     68.1596E-03    -45.0128E+06    -74.3011E+06     2.87759E+06     1.52601E+06    -51.9349E-03     103.905E-03    -51.9698E-03     58.9981E-03    -52.1722E-03     103.710E-03    -51.7824E-03     58.6358E-03
             416     9.40169E-03     68.2174E-03    -38.0655E+06    -56.7161E+06     10.5270E+06    -583.547E+03    -52.1184E-03     104.048E-03    -51.9296E-03     59.2319E-03    -52.3805E-03     103.943E-03    -51.7395E-03     58.7992E-03
             417     10.2554E-03     68.2776E-03    -29.1489E+06    -35.5158E+06     20.2054E+06    -1.89546E+06    -52.4372E-03     104.357E-03    -51.9198E-03     60.3324E-03    -52.7225E-03     104.354E-03    -51.7250E-03     59.8438E-03
             418     11.1093E-03     68.3405E-03    -23.0350E+06    -10.3258E+06     29.0956E+06    -1.06805E+06    -52.1375E-03     104.046E-03    -51.9080E-03     61.2832E-03    -52.4564E-03     104.162E-03    -51.7142E-03     60.7899E-03
             419     11.9670E-03     68.4026E-03    -23.0867E+06     10.5902E+06     32.2430E+06    -154.893E+03    -51.9111E-03     103.779E-03    -51.8681E-03     60.0951E-03    -52.2709E-03     104.001E-03    -51.6888E-03     59.6078E-03
             420     12.8202E-03     68.4613E-03    -18.5524E+06     44.1285E+06     40.3750E+06    -459.162E+03    -52.2986E-03     104.142E-03    -51.8429E-03     57.4968E-03    -52.6953E-03     104.512E-03    -51.6781E-03     56.9975E-03
             421     13.6726E-03     68.5202E-03    -12.4513E+06     76.9233E+06     52.5692E+06     3.24252E+06    -52.1065E-03     103.959E-03    -51.8528E-03     53.9332E-03    -52.5261E-03     104.455E-03    -51.6835E-03     53.4936E-03
             422     14.5266E-03     68.5670E-03    -7.34299E+06     87.5170E+06     61.1203E+06     4.26636E+06    -51.5785E-03     103.441E-03    -51.8626E-03     51.2920E-03    -51.9851E-03     103.955E-03    -51.6732E-03     50.8904E-03
             423     15.3856E-03     68.6136E-03    -6.60907E+06     87.9865E+06     63.5284E+06    -348.569E+03    -51.0456E-03     102.886E-03    -51.8407E-03     43.4968E-03    -51.4289E-03     103.374E-03    -51.6410E-03     43.0501E-03
             424     16.2375E-03     68.6485E-03    -2.96700E+06     92.4773E+06     71.0757E+06    -2.61328E+06    -50.5718E-03     102.392E-03    -51.8206E-03     33.2606E-03    -50.9237E-03     102.856E-03    -51.5950E-03     32.8311E-03
             425     856.570E-06     68.8783E-03    -87.8320E+06    -193.239E+06    -82.0744E+06     2.46952E+06    -52.5482E-03     103.849E-03    -51.3004E-03     8.61266E-03    -52.5393E-03     103.169E-03    -51.3032E-03     8.60276E-03
             426     1.70757E-03     68.8893E-03    -83.7431E+06    -185.364E+06    -70.7863E+06     587.935E+03    -52.0550E-03     104.023E-03    -51.9679E-03     15.0566E-03    -52.0813E-03     103.303E-03    -51.9316E-03     15.0032E-03
             427     2.56356E-03     68.9076E-03    -77.4571E+06    -177.479E+06    -61.5263E+06    -496.688E+03    -51.5512E-03     103.490E-03    -51.9386E-03     22.8439E-03    -51.5719E-03     102.786E-03    -51.8766E-03     22.7479E-03
             428     3.41859E-03     68.9336E-03    -72.6524E+06    -170.007E+06     -51.776E+06    -1.16212E+06    -51.5918E-03     103.440E-03    -51.8486E-03     29.5152E-03    -51.6324E-03     102.771E-03    -51.7556E-03     29.3750E-03
             429     4.27354E-03     68.9675E-03    -65.4692E+06    -158.239E+06    -39.0129E+06    -581.046E+03    -51.8841E-03     103.712E-03    -51.8275E-03     36.1761E-03    -51.9450E-03     103.092E-03    -51.6982E-03     36.0032E-03
             430     5.12837E-03     69.0063E-03    -59.7911E+06    -144.056E+06    -25.6294E+06     319.046E+03    -52.2923E-03     104.163E-03    -51.8702E-03     41.7895E-03    -52.3798E-03     103.601E-03    -51.7028E-03     41.5840E-03
             431     5.98137E-03     69.0499E-03    -54.8103E+06    -127.498E+06    -17.1437E+06    -2.36278E+03    -52.6256E-03     104.549E-03    -51.9236E-03     47.8702E-03    -52.7423E-03     104.068E-03    -51.7449E-03     47.6123E-03
             432     6.83608E-03     69.1021E-03    -50.1481E+06    -111.231E+06    -10.7138E+06    -589.655E+03    -52.5714E-03     104.535E-03    -51.9638E-03     51.6743E-03    -52.7154E-03     104.137E-03    -51.7833E-03     51.3624E-03
             433     7.69180E-03     69.1529E-03    -44.9633E+06    -94.5378E+06    -3.34770E+06    -237.785E+03    -52.2882E-03     104.261E-03    -51.9732E-03     54.5880E-03    -52.4623E-03     103.950E-03    -51.7877E-03     54.2380E-03
             434     8.54698E-03     69.2105E-03    -39.3205E+06    -73.1218E+06     4.84306E+06     324.603E+03    -52.2668E-03     104.224E-03    -51.9568E-03     57.6774E-03    -52.4801E-03     104.024E-03    -51.7696E-03     57.2934E-03
             435     9.40000E-03     69.2698E-03    -35.9363E+06    -55.5195E+06     11.0304E+06    -1.05765E+06    -52.4643E-03     104.411E-03    -51.9468E-03     59.4366E-03    -52.7186E-03     104.309E-03    -51.7591E-03     58.9945E-03
             436     10.2545E-03     69.3297E-03    -32.6711E+06    -35.9698E+06     17.0415E+06    -1.36830E+06    -52.5224E-03     104.466E-03    -51.9438E-03     61.9266E-03    -52.8200E-03     104.471E-03    -51.7591E-03     61.4495E-03
             437     11.1097E-03     69.3917E-03    -30.2237E+06    -13.9889E+06     22.8896E+06    -1.36815E+06    -52.3772E-03     104.311E-03    -51.9341E-03     62.4203E-03    -52.7182E-03     104.429E-03    -51.7555E-03     61.9241E-03
             438     11.9631E-03     69.4523E-03    -23.7494E+06     11.9937E+06     33.2889E+06    -850.434E+03    -52.1036E-03     104.028E-03    -51.9248E-03     60.9894E-03    -52.4712E-03     104.258E-03    -51.7413E-03     60.4929E-03
             439     12.8187E-03     69.5151E-03    -20.6216E+06     44.7475E+06     41.5930E+06     300.121E+03    -50.8591E-03     102.718E-03    -51.8589E-03     58.4200E-03    -51.2659E-03     103.090E-03    -51.6859E-03     57.9519E-03
             440     13.6772E-03     69.5683E-03    -15.0672E+06     74.2284E+06     51.1804E+06     1.27758E+06    -49.9777E-03     101.726E-03    -51.7482E-03     55.1550E-03    -50.3987E-03     102.208E-03    -51.5781E-03     54.7227E-03
             441     14.5361E-03     69.6186E-03    -8.46511E+06     85.7903E+06     59.0002E+06     3.87828E+06    -51.2608E-03     102.942E-03    -51.6814E-03     52.2058E-03    -51.6625E-03     103.447E-03    -51.4985E-03     51.8133E-03
             442     15.3856E-03     69.6669E-03    -3.35249E+06     92.3794E+06     69.2176E+06     2.77903E+06    -51.6926E-03     103.394E-03    -51.7012E-03     41.7747E-03    -52.0711E-03     103.888E-03    -51.4842E-03     41.3633E-03
             443     16.2456E-03     69.6959E-03    -2.46034E+06     96.6394E+06     76.1169E+06    -1.76853E+06    -52.4609E-03     104.218E-03    -51.7575E-03     33.0794E-03    -52.8238E-03     104.695E-03    -51.5134E-03     32.6448E-03
             444     852.241E-06     69.9314E-03    -88.1815E+06    -195.680E+06    -85.9959E+06     1.21611E+06    -51.7375E-03     103.903E-03    -52.1658E-03     9.02208E-03    -51.7213E-03     103.214E-03    -52.1841E-03     9.01221E-03
             445     1.71021E-03     69.9391E-03    -82.5851E+06    -184.727E+06    -71.2708E+06     640.011E+03    -51.6103E-03     103.508E-03    -51.8978E-03     14.6280E-03    -51.6269E-03     102.786E-03    -51.8665E-03     14.5806E-03
             446     2.56391E-03     69.9593E-03    -78.3373E+06    -176.175E+06    -58.9033E+06    -407.637E+03    -51.8973E-03     103.760E-03    -51.8631E-03     22.7417E-03    -51.9239E-03     103.057E-03    -51.7886E-03     22.6407E-03
             447     3.41788E-03     69.9843E-03    -72.5692E+06    -168.216E+06    -49.0552E+06    -1.15796E+06    -51.9051E-03     103.787E-03    -51.8819E-03     29.5464E-03    -51.9506E-03     103.121E-03    -51.7780E-03     29.4010E-03
             448     4.27292E-03     70.0179E-03    -66.8629E+06    -159.483E+06    -39.7790E+06    -1.45811E+06    -51.7195E-03     103.586E-03    -51.8670E-03     36.1519E-03    -51.7847E-03     102.964E-03    -51.7377E-03     35.9668E-03
             449     5.12793E-03     70.0572E-03    -59.8886E+06    -144.986E+06    -27.9664E+06     252.001E+03    -52.1804E-03     104.049E-03    -51.8683E-03     42.2531E-03    -52.2638E-03     103.486E-03    -51.7110E-03     42.0464E-03
             450     5.98310E-03     70.1027E-03    -53.5984E+06    -126.332E+06    -16.8143E+06     1.42839E+06    -52.6713E-03     104.593E-03    -51.9217E-03     47.9038E-03    -52.7843E-03     104.116E-03    -51.7449E-03     47.6620E-03
             451     6.83706E-03     70.1527E-03    -50.2361E+06    -109.979E+06    -10.5872E+06     396.948E+03    -52.6466E-03     104.617E-03    -51.9704E-03     51.4050E-03    -52.7926E-03     104.225E-03    -51.7910E-03     51.1065E-03
             452     7.69060E-03     70.2050E-03    -45.1545E+06    -95.8253E+06    -4.67399E+06    -1.59826E+06    -52.4661E-03     104.456E-03    -51.9903E-03     54.2131E-03    -52.6355E-03     104.139E-03    -51.8093E-03     53.8485E-03
             453     8.54405E-03     70.2618E-03    -40.3923E+06    -76.9761E+06     1.97743E+06     12.4460E+03    -51.9502E-03     103.913E-03    -51.9625E-03     58.3617E-03    -52.1578E-03     103.698E-03    -51.7824E-03     57.9803E-03
             454     9.40094E-03     70.3207E-03    -37.4296E+06    -53.1244E+06     10.8088E+06     1.06134E+06    -52.0720E-03     103.992E-03    -51.9205E-03     61.1999E-03    -52.3380E-03     103.906E-03    -51.7352E-03     60.7920E-03
             455     10.2565E-03     70.3810E-03    -37.6732E+06    -35.1295E+06     16.0402E+06    -515.180E+03    -52.6363E-03     104.545E-03    -51.9091E-03     62.0551E-03    -52.9585E-03     104.563E-03    -51.7234E-03     61.5901E-03
             456     11.1106E-03     70.4436E-03    -33.4326E+06    -12.0215E+06     23.7371E+06    -748.929E+03    -52.4200E-03     104.335E-03    -51.9150E-03     62.2314E-03    -52.7805E-03     104.465E-03    -51.7305E-03     61.7428E-03
             457     11.9651E-03     70.5055E-03    -24.3562E+06     14.3118E+06     36.4965E+06    -500.341E+03    -51.4155E-03     103.308E-03    -51.8930E-03     62.0845E-03    -51.7939E-03     103.545E-03    -51.6959E-03     61.6012E-03
             458     12.8206E-03     70.5635E-03    -20.0219E+06     43.9019E+06     42.6031E+06     449.747E+03    -50.5469E-03     102.334E-03    -51.7871E-03     58.3215E-03    -50.9512E-03     102.700E-03    -51.6087E-03     57.8577E-03
             459     13.6780E-03     70.6153E-03    -16.7321E+06     72.1816E+06     50.0946E+06    -1.25433E+06    -50.7255E-03     102.416E-03    -51.6903E-03     53.0615E-03    -51.1529E-03     102.895E-03    -51.5202E-03     52.5780E-03
             460     14.5312E-03     70.6710E-03    -15.4618E+06     82.1655E+06     54.7741E+06    -1.99078E+06    -51.2684E-03     102.917E-03    -51.6490E-03     49.1283E-03    -51.6918E-03     103.419E-03    -51.4718E-03     48.6545E-03
             461     15.3905E-03     70.7182E-03    -9.72782E+06     94.4359E+06     65.6021E+06    -293.291E+03    -52.4063E-03     104.096E-03    -51.6896E-03     38.1011E-03    -52.8118E-03     104.612E-03    -51.4844E-03     37.6364E-03
             462     16.2393E-03     70.7488E-03    -6.71569E+06     98.2046E+06     73.6954E+06     1.89940E+06    -53.2111E-03     105.003E-03    -51.7921E-03     31.3941E-03    -53.5922E-03     105.495E-03    -51.5563E-03     30.9931E-03
             463     855.885E-06     70.9787E-03    -84.5277E+06    -192.999E+06    -84.2902E+06    -2.26436E+06    -51.4551E-03     103.551E-03    -52.0961E-03     8.34727E-03    -51.4356E-03     102.872E-03    -52.1151E-03     8.28542E-03
             464     1.70842E-03     70.9918E-03    -81.2323E+06    -187.048E+06    -76.1514E+06    -809.156E+03    -51.8017E-03     103.569E-03    -51.7675E-03     14.8563E-03    -51.8057E-03     102.844E-03    -51.7592E-03     14.7793E-03
             465     2.56373E-03     71.0090E-03    -76.2472E+06    -176.181E+06    -60.9661E+06     818.136E+03    -51.8071E-03     103.612E-03    -51.8051E-03     22.6384E-03    -51.8244E-03     102.913E-03    -51.7439E-03     22.5548E-03
             466     3.41874E-03     71.0370E-03    -71.6244E+06    -165.852E+06    -46.4199E+06     727.043E+03    -51.9728E-03     103.822E-03    -51.8496E-03     29.9663E-03    -52.0238E-03     103.166E-03    -51.7374E-03     29.8502E-03
             467     4.27289E-03     71.0677E-03    -67.1461E+06    -157.294E+06    -37.3099E+06    -341.504E+03    -52.3008E-03     104.206E-03    -51.9055E-03     36.1334E-03    -52.3758E-03     103.593E-03    -51.7666E-03     35.9579E-03
             468     5.12796E-03     71.1085E-03    -61.4065E+06    -147.650E+06    -29.9308E+06    -1.13126E+06    -52.3462E-03     104.303E-03    -51.9565E-03     42.0387E-03    -52.4319E-03     103.733E-03    -51.8030E-03     41.8113E-03
             469     5.98144E-03     71.1544E-03    -54.6783E+06    -129.483E+06    -20.7238E+06     217.694E+03    -52.2025E-03     104.173E-03    -51.9704E-03     47.1259E-03    -52.3097E-03     103.686E-03    -51.8069E-03     46.8764E-03
             470     6.83614E-03     71.2042E-03    -49.7024E+06    -109.248E+06    -10.7277E+06     1.79997E+06    -52.2528E-03     104.220E-03    -51.9675E-03     51.8532E-03    -52.3960E-03     103.830E-03    -51.7906E-03     51.5792E-03
             471     7.69074E-03     71.2575E-03    -48.7271E+06    -95.5327E+06    -5.45758E+06     721.845E+03    -52.1131E-03     104.061E-03    -51.9478E-03     54.9082E-03    -52.3002E-03     103.752E-03    -51.7659E-03     54.5757E-03
             472     8.54759E-03     71.3111E-03    -45.0786E+06    -80.0842E+06     112.079E+03    -121.376E+03    -51.8532E-03     103.756E-03    -51.9027E-03     58.3950E-03    -52.0783E-03     103.536E-03    -51.7206E-03     58.0123E-03
             473     9.40233E-03     71.3714E-03    -35.8464E+06    -50.9012E+06     14.1626E+06     1.60414E+06    -52.4946E-03     104.384E-03    -51.8896E-03     61.5938E-03    -52.7618E-03     104.302E-03    -51.6930E-03     61.1912E-03
             474     10.2551E-03     71.4343E-03    -30.1397E+06    -27.8141E+06     24.2903E+06    -250.843E+03    -52.6963E-03     104.607E-03    -51.9107E-03     61.4181E-03    -53.0033E-03     104.638E-03    -51.7053E-03     60.9527E-03
             475     11.1091E-03     71.4945E-03    -27.3610E+06    -12.9242E+06     27.1033E+06    -1.90011E+06    -51.4298E-03     103.303E-03    -51.8733E-03     61.7620E-03    -51.7628E-03     103.415E-03    -51.6794E-03     61.2647E-03
             476     11.9663E-03     71.5550E-03    -23.7336E+06      9.1938E+06     33.2367E+06     900.645E+03    -50.7794E-03     102.556E-03    -51.7769E-03     61.4858E-03    -51.1416E-03     102.770E-03    -51.5896E-03     61.0269E-03
             477     12.8239E-03     71.6127E-03    -21.9002E+06     43.1887E+06     40.2761E+06     546.576E+03    -51.8533E-03     103.554E-03    -51.7008E-03     58.1851E-03    -52.2664E-03     103.926E-03    -51.5303E-03     57.7061E-03
             478     13.6751E-03     71.6700E-03    -18.2345E+06     74.4788E+06     49.4108E+06    -749.744E+03    -52.7723E-03     104.489E-03    -51.7170E-03     53.4604E-03    -53.2168E-03     104.990E-03    -51.5515E-03     52.9558E-03
             479     14.5315E-03     71.7193E-03    -14.2263E+06     83.5306E+06     55.6018E+06    -1.32251E+06    -52.3557E-03     104.128E-03    -51.7725E-03     48.5368E-03    -52.7798E-03     104.637E-03    -51.5950E-03     48.0543E-03
             480     15.3834E-03     71.7704E-03    -12.8026E+06     90.4880E+06     60.9954E+06    -984.955E+03    -52.5143E-03     104.341E-03    -51.8269E-03     39.6838E-03    -52.9249E-03     104.851E-03    -51.6346E-03     39.2119E-03
             481     16.2382E-03     71.8068E-03    -5.96360E+06     96.7117E+06     72.0613E+06     809.350E+03    -51.4190E-03     103.303E-03    -51.8837E-03     30.5385E-03    -51.7889E-03     103.786E-03    -51.6550E-03     30.1480E-03
             482     854.292E-06     72.0311E-03    -85.0261E+06    -190.621E+06    -79.8793E+06    -1.10046E+06    -51.1595E-03     103.359E-03    -52.1997E-03     6.67355E-03    -51.1499E-03     102.688E-03    -52.1994E-03     6.62688E-03
             483     1.70983E-03     72.0425E-03    -81.3375E+06    -186.423E+06    -74.6848E+06    -1.60614E+06    -51.9003E-03     103.615E-03    -51.7149E-03     15.1201E-03    -51.9092E-03     102.892E-03    -51.7000E-03     15.0355E-03
             484     2.56386E-03     72.0600E-03    -75.6864E+06    -178.362E+06    -64.6425E+06    -101.766E+03    -51.9575E-03     103.751E-03    -51.7938E-03     22.1754E-03    -51.9647E-03     103.047E-03    -51.7486E-03     22.0848E-03
             485     3.41889E-03     72.0869E-03    -70.0144E+06    -166.939E+06    -49.2259E+06     1.58325E+06    -52.0791E-03     103.950E-03    -51.8712E-03     29.5291E-03    -52.1167E-03     103.291E-03    -51.7737E-03     29.4221E-03
             486     4.27324E-03     72.1206E-03    -65.6370E+06    -155.833E+06    -35.8299E+06     1.26211E+06    -52.5910E-03     104.566E-03    -51.9749E-03     36.0774E-03    -52.6619E-03     103.955E-03    -51.8329E-03     35.9226E-03
             487     5.12547E-03     72.1604E-03    -61.0759E+06    -145.682E+06    -27.8420E+06    -757.005E+03    -52.4510E-03     104.504E-03    -52.0533E-03     42.2286E-03    -52.5416E-03     103.942E-03    -51.8927E-03     42.0042E-03
             488     5.98152E-03     72.2046E-03    -56.9044E+06    -133.830E+06    -22.7616E+06    -1.65234E+06    -51.7353E-03     103.758E-03    -52.0229E-03     47.4914E-03    -51.8444E-03     103.256E-03    -51.8602E-03     47.2199E-03
             489     6.83723E-03     72.2552E-03    -51.6140E+06    -112.940E+06    -12.1227E+06     1.61672E+06    -51.4171E-03     103.351E-03    -51.9336E-03     52.2891E-03    -51.5635E-03     102.948E-03    -51.7556E-03     52.0193E-03
             490     7.69295E-03     72.3082E-03    -45.8419E+06    -90.2491E+06    -531.217E+03     2.51367E+06    -52.1328E-03     104.013E-03    -51.8807E-03     54.7904E-03    -52.3219E-03     103.721E-03    -51.6860E-03     54.4795E-03
             491     8.54611E-03     72.3621E-03    -40.1299E+06    -74.2344E+06     6.35414E+06    -245.690E+03    -52.7826E-03     104.676E-03    -51.8937E-03     56.9703E-03    -53.0008E-03     104.470E-03    -51.6961E-03     56.5729E-03
             492     9.40045E-03     72.4231E-03    -36.9981E+06    -54.0885E+06     11.9203E+06     22.1379E+03    -52.1868E-03     104.082E-03    -51.8952E-03     61.5121E-03    -52.4510E-03     103.988E-03    -51.7035E-03     61.0908E-03
             493     10.2557E-03     72.4871E-03    -31.3020E+06    -30.4247E+06     21.0975E+06     1.19943E+06    -51.5198E-03     103.368E-03    -51.8478E-03     62.3935E-03    -51.8230E-03     103.390E-03    -51.6528E-03     61.9646E-03
             494     11.1127E-03     72.5433E-03    -27.3495E+06    -9.37878E+06     27.7651E+06     189.397E+03    -51.4714E-03     103.248E-03    -51.7767E-03     61.3306E-03    -51.8094E-03     103.375E-03    -51.5846E-03     60.8642E-03
             495     11.9686E-03     72.6046E-03    -26.2193E+06     4.25608E+06     29.2212E+06    -1.00771E+06    -51.8069E-03     103.525E-03    -51.7183E-03     60.5798E-03    -52.1693E-03     103.725E-03    -51.5403E-03     60.0833E-03
             496     12.8211E-03     72.6650E-03    -15.4129E+06     41.8663E+06     40.8112E+06    -459.281E+03    -52.5331E-03     104.240E-03    -51.7073E-03     58.3533E-03    -52.9126E-03     104.595E-03    -51.5416E-03     57.8543E-03
             497     13.6777E-03     72.7228E-03    -12.6020E+06     77.8329E+06     51.7545E+06    -939.357E+03    -53.3345E-03     105.098E-03    -51.7631E-03     53.7583E-03    -53.7582E-03     105.603E-03    -51.5989E-03     53.2499E-03
             498     14.5275E-03     72.7739E-03    -12.2958E+06     83.4709E+06     57.3408E+06    -106.752E+03    -53.3492E-03     105.216E-03    -51.8670E-03     49.1568E-03    -53.7700E-03     105.723E-03    -51.6835E-03     48.6752E-03
             499     15.3829E-03     72.8219E-03    -5.02570E+06     90.7423E+06     67.3169E+06     1.73049E+06    -51.5960E-03     103.527E-03    -51.9313E-03     42.0727E-03    -51.9791E-03     104.019E-03    -51.7190E-03     41.6501E-03
             500     16.2378E-03     72.8586E-03    -2.81065E+06     96.3826E+06     75.1044E+06     334.317E+03    -50.2836E-03     102.202E-03    -51.9181E-03     30.7334E-03    -50.6422E-03     102.675E-03    -51.6783E-03     30.3583E-03
             501     854.266E-06     73.0803E-03    -84.8843E+06    -191.576E+06    -82.1213E+06     618.830E+03    -51.5848E-03     103.206E-03    -51.6210E-03     8.23754E-03    -51.5664E-03     102.532E-03    -51.6307E-03     8.20486E-03
             502     1.70938E-03     73.0932E-03    -80.7436E+06    -184.111E+06    -71.0739E+06    -779.332E+03    -52.0420E-03     103.737E-03    -51.6947E-03     15.5989E-03    -52.0543E-03     103.018E-03    -51.6660E-03     15.5240E-03
             503     2.56351E-03     73.1123E-03    -77.5482E+06    -178.329E+06    -62.7266E+06    -1.31742E+06    -52.4181E-03     104.300E-03    -51.8820E-03     22.0759E-03    -52.4358E-03     103.594E-03    -51.8246E-03     21.9679E-03
             504     3.41731E-03     73.1373E-03    -71.7737E+06    -170.481E+06    -53.0243E+06    -181.306E+03    -52.3503E-03     104.366E-03    -52.0159E-03     29.5563E-03    -52.3850E-03     103.696E-03    -51.9298E-03     29.4278E-03
             505     4.27163E-03     73.1731E-03    -65.1281E+06    -158.169E+06    -38.6473E+06     1.40312E+06    -51.9538E-03     104.012E-03    -52.0584E-03     36.4621E-03    -52.0147E-03     103.393E-03    -51.9279E-03     36.3148E-03
             506     5.12804E-03     73.2112E-03    -60.6815E+06    -141.765E+06    -25.9572E+06     1.41414E+06    -52.0371E-03     104.080E-03    -52.0429E-03     42.5193E-03    -52.1335E-03     103.533E-03    -51.8792E-03     42.3250E-03
             507     5.98137E-03     73.2565E-03    -55.8319E+06    -130.270E+06    -18.5764E+06    -1.01574E+06    -51.9635E-03     103.974E-03    -52.0100E-03     46.8422E-03    -52.0780E-03     103.481E-03    -51.8330E-03     46.5747E-03
             508     6.83682E-03     73.3035E-03    -51.9637E+06    -117.862E+06    -13.5118E+06    -295.689E+03    -51.4475E-03     103.378E-03    -51.9306E-03     51.1338E-03    -51.5850E-03     102.952E-03    -51.7520E-03     50.8388E-03
             509     7.69251E-03     73.3594E-03     -43.957E+06    -89.0874E+06    -249.991E+03     2.87221E+06    -51.8965E-03     103.760E-03    -51.8631E-03     55.7651E-03    -52.0771E-03     103.469E-03    -51.6714E-03     55.4640E-03
             510     8.54621E-03     73.4164E-03    -38.8855E+06    -70.1940E+06     8.38048E+06     1.95681E+06    -52.7316E-03     104.595E-03    -51.8638E-03     58.5675E-03    -52.9535E-03     104.406E-03    -51.6637E-03     58.2008E-03
             511     9.40034E-03     73.4729E-03    -38.3523E+06    -56.7817E+06     9.78104E+06    -219.915E+03    -52.0212E-03     103.871E-03    -51.8495E-03     61.3121E-03    -52.2865E-03     103.770E-03    -51.6626E-03     60.8865E-03
             512     10.2588E-03     73.5350E-03    -32.1022E+06    -35.0551E+06     18.4254E+06    -673.602E+03    -51.3290E-03     103.121E-03    -51.7916E-03     61.2745E-03    -51.6226E-03     103.122E-03    -51.6021E-03     60.8251E-03
             513     11.1128E-03     73.5959E-03    -28.1295E+06    -9.26718E+06     26.4057E+06     665.985E+03    -52.1772E-03     103.923E-03    -51.7455E-03     59.8966E-03    -52.5146E-03     104.051E-03    -51.5592E-03     59.4319E-03
             514     11.9652E-03     73.6559E-03    -25.4978E+06     10.9716E+06     33.3134E+06    -959.424E+03    -52.8458E-03     104.615E-03    -51.7695E-03     59.8243E-03    -53.2233E-03     104.845E-03    -51.5819E-03     59.3128E-03
             515     12.8219E-03     73.7164E-03    -21.9096E+06     40.5290E+06     37.9928E+06    -3.57056E+06    -52.8236E-03     104.614E-03    -51.7908E-03     58.5324E-03    -53.2318E-03     104.979E-03    -51.6278E-03     57.9884E-03
             516     13.6734E-03     73.7762E-03    -16.4498E+06     75.1145E+06     49.6593E+06    -939.059E+03    -52.7237E-03     104.558E-03    -51.8347E-03     54.1471E-03    -53.1591E-03     105.058E-03    -51.6715E-03     53.6463E-03
             517     14.5302E-03     73.8273E-03    -10.9329E+06     84.2969E+06     58.9841E+06    -40.2622E+03    -52.4359E-03     104.331E-03    -51.8954E-03     49.5359E-03    -52.8544E-03     104.839E-03    -51.7069E-03     49.0610E-03
             518     15.3824E-03     73.8745E-03    -6.99540E+06     89.7226E+06     64.9417E+06     987.179E+03    -51.1651E-03     103.074E-03    -51.9086E-03     40.3900E-03    -51.5523E-03     103.566E-03    -51.7038E-03     39.9547E-03
             519     16.2415E-03     73.9044E-03    -4.46917E+06     96.7668E+06     74.1926E+06     2.41990E+06    -50.8219E-03     102.726E-03    -51.9044E-03     31.0208E-03    -51.1904E-03     103.207E-03    -51.6673E-03     30.6593E-03
             520     856.564E-06     74.1325E-03    -83.3119E+06    -190.621E+06    -81.5430E+06    -265.386E+03    -52.6958E-03     103.336E-03    -50.6406E-03     8.79554E-03    -52.6728E-03     102.667E-03    -50.6511E-03     8.75675E-03
             521     1.70902E-03     74.1444E-03    -81.6625E+06    -185.637E+06    -73.1855E+06     1.19652E+06    -52.3055E-03     104.099E-03    -51.7934E-03     15.0094E-03    -52.3205E-03     103.383E-03    -51.7717E-03     14.9654E-03
             522     2.56377E-03     74.1636E-03    -78.6388E+06    -177.107E+06    -60.4533E+06     439.105E+03    -52.2023E-03     104.191E-03    -51.9882E-03     22.8486E-03    -52.2326E-03     103.490E-03    -51.9197E-03     22.7560E-03
             523     3.41722E-03     74.1908E-03    -74.1169E+06    -169.880E+06    -50.6009E+06    -1.44790E+06    -52.1966E-03     104.250E-03    -52.0531E-03     30.1486E-03    -52.2472E-03     103.582E-03    -51.9523E-03     29.9993E-03
             524     4.27237E-03     74.2221E-03    -66.8098E+06    -160.118E+06    -40.7266E+06    -987.593E+03    -51.9129E-03     103.964E-03    -52.0506E-03     36.7440E-03    -51.9769E-03     103.341E-03    -51.9252E-03     36.5675E-03
             525     5.12677E-03     74.2628E-03    -60.0315E+06    -143.532E+06    -27.9574E+06     1.88615E+06    -51.9045E-03     103.922E-03    -52.0180E-03     42.2464E-03    -51.9922E-03     103.369E-03    -51.8626E-03     42.0620E-03
             526     5.98230E-03     74.3079E-03    -56.4806E+06    -128.023E+06    -17.8200E+06     1.93862E+06    -51.9229E-03     103.908E-03    -51.9856E-03     46.2441E-03    -52.0448E-03     103.427E-03    -51.8071E-03     46.0146E-03
             527     6.83621E-03     74.3547E-03    -50.3858E+06    -116.086E+06    -10.8928E+06    -969.891E+03    -51.6859E-03     103.615E-03    -51.9286E-03     51.3693E-03    -51.8237E-03     103.193E-03    -51.7417E-03     51.0594E-03
             528     7.69151E-03     74.4086E-03    -44.7621E+06    -94.7940E+06    -3.88577E+06     416.020E+03    -51.4208E-03     103.252E-03    -51.8315E-03     57.1186E-03    -51.5949E-03     102.942E-03    -51.6485E-03     56.7878E-03
             529     8.54903E-03     74.4676E-03     -40.644E+06    -74.2065E+06     4.57385E+06     1.62150E+06    -52.2516E-03     104.033E-03    -51.7812E-03     59.1049E-03    -52.4703E-03     103.831E-03    -51.5918E-03     58.7433E-03
             530     9.40346E-03     74.5254E-03    -33.7256E+06    -53.8194E+06     13.4116E+06     1.28063E+06    -52.8415E-03     104.647E-03    -51.8058E-03     58.8940E-03    -53.0891E-03     104.545E-03    -51.6118E-03     58.4828E-03
             531     10.2547E-03     74.5848E-03    -34.2011E+06    -30.9610E+06     19.4948E+06     2.05431E+06    -52.2803E-03     104.106E-03    -51.8258E-03     60.5034E-03    -52.5924E-03     104.130E-03    -51.6338E-03     60.0778E-03
             532     11.1110E-03     74.6472E-03    -32.7631E+06    -12.7669E+06     24.5247E+06     421.592E+03    -52.3368E-03     104.159E-03    -51.8223E-03     60.8585E-03    -52.6939E-03     104.283E-03    -51.6336E-03     60.3847E-03
             533     11.9671E-03     74.7085E-03    -23.1900E+06     14.4710E+06     35.8151E+06    -1.14299E+06    -53.1465E-03     105.004E-03    -51.8579E-03     60.3905E-03    -53.5249E-03     105.248E-03    -51.6661E-03     59.8688E-03
             534     12.8178E-03     74.7693E-03    -25.4946E+06     45.9955E+06     39.8089E+06    -2.22525E+06    -53.1417E-03     105.038E-03    -51.8967E-03     58.4869E-03    -53.5808E-03     105.435E-03    -51.7274E-03     57.9508E-03
             535     13.6747E-03     74.8275E-03    -20.7864E+06     72.7412E+06     47.6288E+06    -3.63374E+06    -51.8537E-03     103.767E-03    -51.9133E-03     53.7837E-03    -52.3028E-03     104.262E-03    -51.7505E-03     53.2542E-03
             536     14.5277E-03     74.8793E-03    -12.4621E+06     81.4656E+06     55.8332E+06    -1.21720E+06    -51.0343E-03     102.929E-03    -51.8947E-03     49.2018E-03    -51.4446E-03     103.422E-03    -51.7156E-03     48.7378E-03
             537     15.3855E-03     74.9254E-03    -11.5003E+06     85.2594E+06     60.6513E+06     1.77598E+06    -51.3528E-03     103.227E-03    -51.8740E-03     39.8206E-03    -51.7463E-03     103.706E-03    -51.6777E-03     39.4011E-03
             538     16.2362E-03     74.9566E-03    -3.13830E+06     98.5767E+06     74.7456E+06     2.14354E+06    -51.3369E-03     103.233E-03    -51.8964E-03     31.7739E-03    -51.7030E-03     103.721E-03    -51.6610E-03     31.4034E-03
             539     853.027E-06     75.1855E-03    -86.7286E+06    -191.820E+06    -80.8377E+06     1.75668E+06    -52.4260E-03     104.058E-03    -51.6324E-03     9.17133E-03    -52.4109E-03     103.386E-03    -51.6327E-03     9.16223E-03
             540     1.70849E-03     75.1951E-03    -83.7624E+06    -186.715E+06    -73.7551E+06     1.28532E+06    -51.8357E-03     103.824E-03    -51.9887E-03     15.3084E-03    -51.8565E-03     103.104E-03    -51.9653E-03     15.2694E-03
             541     2.56280E-03     75.2153E-03    -77.2623E+06    -177.522E+06    -62.3663E+06     1.10183E+06    -51.8774E-03     103.830E-03    -51.9528E-03     23.4063E-03    -51.8974E-03     103.129E-03    -51.8952E-03     23.3206E-03
             542     3.41874E-03     75.2414E-03    -72.5184E+06    -167.099E+06    -47.8928E+06     937.681E+03    -51.9848E-03     103.954E-03    -51.9688E-03     29.8868E-03    -52.0368E-03     103.295E-03    -51.8608E-03     29.7619E-03
             543     4.27270E-03     75.2742E-03    -69.9725E+06    -159.588E+06    -38.7784E+06    -420.778E+03    -52.1779E-03     104.172E-03    -51.9942E-03     36.5518E-03    -52.2615E-03     103.554E-03    -51.8552E-03     36.3770E-03
             544     5.12681E-03     75.3141E-03    -62.6747E+06    -148.912E+06    -30.2352E+06    -758.835E+03    -51.8038E-03     103.782E-03    -51.9784E-03     42.6401E-03    -51.8932E-03     103.208E-03    -51.8227E-03     42.4245E-03
             545     5.98170E-03     75.3578E-03    -54.5978E+06    -128.126E+06    -18.7574E+06     2.00776E+06    -51.5721E-03     103.483E-03    -51.9104E-03     47.0443E-03    -51.6830E-03     102.999E-03    -51.7393E-03     46.8216E-03
             546     6.83804E-03     75.4060E-03    -51.3870E+06    -114.116E+06    -11.3348E+06     715.224E+03    -51.8826E-03     103.735E-03    -51.8523E-03     51.1811E-03    -52.0277E-03     103.326E-03    -51.6690E-03     50.8918E-03
             547     7.69347E-03     75.4582E-03    -47.1406E+06    -99.2284E+06    -6.36918E+06    -395.356E+03    -52.1950E-03     104.014E-03    -51.8194E-03     56.0328E-03    -52.3696E-03     103.688E-03    -51.6390E-03     55.6856E-03
             548     8.54706E-03     75.5179E-03    -39.7209E+06    -74.0795E+06     4.75348E+06     1.18145E+06    -52.4114E-03     104.234E-03    -51.8227E-03     58.7109E-03    -52.6248E-03     104.030E-03    -51.6339E-03     58.3439E-03
             549     9.40026E-03     75.5793E-03    -37.3399E+06    -54.0833E+06     12.4321E+06     2.26442E+06    -52.5752E-03     104.418E-03    -51.8426E-03     58.2988E-03    -52.8388E-03     104.321E-03    -51.6479E-03     57.9040E-03
             550     10.2575E-03     75.6348E-03    -35.4372E+06    -31.9498E+06     19.8306E+06     4.93700E+06    -52.6421E-03     104.510E-03    -51.8682E-03     60.5864E-03    -52.9631E-03     104.535E-03    -51.6714E-03     60.1892E-03
             551     11.1107E-03     75.6999E-03    -26.3452E+06    -6.26419E+06     30.8467E+06     1.42688E+06    -52.6736E-03     104.569E-03    -51.8952E-03     61.9699E-03    -53.0211E-03     104.711E-03    -51.6937E-03     61.5001E-03
             552     11.9634E-03     75.7591E-03    -24.5851E+06     13.5694E+06     34.0200E+06    -1.82084E+06    -52.9769E-03     104.888E-03    -51.9109E-03     62.0580E-03    -53.3577E-03     105.131E-03    -51.7249E-03     61.5345E-03
             553     12.8194E-03     75.8251E-03    -18.8706E+06     50.3969E+06     43.9903E+06    -332.416E+03    -52.9258E-03     104.866E-03    -51.9398E-03     59.6480E-03    -53.3446E-03     105.269E-03    -51.7655E-03     59.1426E-03
             554     13.6708E-03     75.8767E-03    -16.0075E+06     76.2401E+06     49.8772E+06    -1.58992E+06    -52.2032E-03     104.153E-03    -51.9496E-03     53.6775E-03    -52.6392E-03     104.658E-03    -51.7876E-03     53.1692E-03
             555     14.5299E-03     75.9303E-03    -17.9268E+06     75.4475E+06     49.7712E+06    -2.98471E+06    -50.9850E-03     102.911E-03    -51.9263E-03     47.4919E-03    -51.4029E-03     103.389E-03    -51.7608E-03     47.0048E-03
             556     15.3838E-03     75.9752E-03    -9.87645E+06     82.1333E+06     60.8092E+06    -1.17039E+06    -50.5148E-03     102.412E-03    -51.8972E-03     39.4891E-03    -50.8943E-03     102.872E-03    -51.6979E-03     39.0398E-03
             557     16.2417E-03     76.0116E-03     46.5888E+03     97.3399E+06     76.1632E+06     1.67395E+06    -50.8856E-03     102.771E-03    -51.8853E-03     31.5889E-03    -51.2342E-03     103.244E-03    -51.6457E-03     31.2210E-03
             558     854.403E-06     76.2339E-03    -88.4879E+06    -195.641E+06    -86.3309E+06     1.88685E+06    -51.8345E-03     103.826E-03    -51.9911E-03     9.23554E-03    -51.8186E-03     103.146E-03    -52.0108E-03     9.22198E-03
             559     1.70962E-03     76.2472E-03    -82.4893E+06    -185.485E+06    -72.8193E+06     674.264E+03    -51.6345E-03     103.495E-03    -51.8608E-03     16.1685E-03    -51.6518E-03     102.776E-03    -51.8363E-03     16.1054E-03
             560     2.56428E-03     76.2658E-03    -77.9120E+06    -178.112E+06    -62.6470E+06     992.508E+03    -52.0163E-03     103.862E-03    -51.8454E-03     23.3707E-03    -52.0383E-03     103.159E-03    -51.7874E-03     23.2849E-03
             561     3.41786E-03     76.2927E-03    -72.3835E+06    -167.974E+06    -49.1940E+06     1.60632E+06    -52.1346E-03     104.055E-03    -51.9208E-03     29.8356E-03    -52.1838E-03     103.395E-03    -51.8183E-03     29.7218E-03
             562     4.27250E-03     76.3258E-03    -65.7202E+06    -156.025E+06    -34.1203E+06     962.038E+03    -51.8449E-03     103.804E-03    -51.9588E-03     36.0597E-03    -51.9185E-03     103.190E-03    -51.8079E-03     35.8997E-03
             563     5.12810E-03     76.3644E-03    -61.3962E+06     -147.52E+06    -27.3019E+06    -1.19948E+06    -51.4406E-03     103.333E-03    -51.8925E-03     41.8874E-03    -51.5282E-03     102.758E-03    -51.7260E-03     41.6653E-03
             564     5.98389E-03     76.4080E-03    -56.3567E+06    -132.115E+06    -21.7186E+06     80.5180E+03    -51.7932E-03     103.602E-03    -51.8085E-03     47.1899E-03    -51.9015E-03     103.104E-03    -51.6438E-03     46.9436E-03
             565     6.83769E-03     76.4571E-03    -49.7613E+06    -111.182E+06    -10.1275E+06     1.51232E+06    -52.9290E-03     104.774E-03    -51.8446E-03     50.8552E-03    -53.0705E-03     104.373E-03    -51.6618E-03     50.5726E-03
             566     7.69104E-03     76.5097E-03    -46.9784E+06    -96.0122E+06    -3.31247E+06     210.583E+03    -53.0725E-03     105.007E-03    -51.9346E-03     54.5479E-03    -53.2561E-03     104.693E-03    -51.7438E-03     54.1984E-03
             567     8.54537E-03     76.5705E-03    -41.8409E+06    -79.1562E+06     2.91959E+06     162.038E+03    -51.8200E-03     103.760E-03    -51.9401E-03     58.3134E-03    -52.0368E-03     103.539E-03    -51.7500E-03     57.9307E-03
             568     9.40288E-03     76.6278E-03    -36.6569E+06    -58.3238E+06     11.3627E+06     747.403E+03    -51.7344E-03     103.616E-03    -51.8814E-03     59.8133E-03    -51.9881E-03     103.499E-03    -51.6868E-03     59.4060E-03
             569     10.2547E-03     76.6892E-03    -29.0582E+06    -33.5167E+06     21.6856E+06     2.06405E+06    -52.6357E-03     104.500E-03    -51.8644E-03     61.4731E-03    -52.9249E-03     104.504E-03    -51.6652E-03     61.0428E-03
             570     11.1100E-03     76.7494E-03    -26.1752E+06    -5.74851E+06     29.0711E+06     4.89214E+06    -53.2045E-03     105.100E-03    -51.8952E-03     63.0623E-03    -53.5505E-03     105.248E-03    -51.7035E-03     62.6365E-03
             571     11.9658E-03     76.8140E-03    -26.5586E+06     18.8988E+06     35.5578E+06     3.16781E+06    -52.9246E-03     104.865E-03    -51.9400E-03     61.8844E-03    -53.3231E-03     105.133E-03    -51.7511E-03     61.4297E-03
             572     12.8187E-03     76.8740E-03    -19.1540E+06     52.3436E+06     45.0375E+06    -2.59370E+06    -52.1948E-03     104.138E-03    -51.9431E-03     59.1955E-03    -52.6147E-03     104.545E-03    -51.7660E-03     58.6737E-03
             573     13.6761E-03     76.9328E-03    -20.2471E+06       72.63E+06     46.6092E+06    -1.76572E+06    -52.2344E-03     104.157E-03    -51.9228E-03     54.3173E-03    -52.6805E-03     104.654E-03    -51.7657E-03     53.8118E-03
             574     14.5241E-03     76.9807E-03    -14.1420E+06     78.4288E+06     53.8716E+06     948.206E+03    -51.5356E-03     103.468E-03    -51.9323E-03     48.3268E-03    -51.9496E-03     103.954E-03    -51.7561E-03     47.8793E-03
             575     15.3828E-03     77.0243E-03    -7.40645E+06     82.6456E+06     61.2339E+06    -1.07107E+06    -50.0984E-03     101.992E-03    -51.8931E-03     41.4909E-03    -50.4697E-03     102.452E-03    -51.6961E-03     41.0473E-03
             576     16.2377E-03     77.0615E-03    -842.245E+03     94.6617E+06     73.5079E+06    -1.28883E+06    -50.3831E-03     102.232E-03    -51.8491E-03     33.2453E-03    -50.7279E-03     102.697E-03    -51.6176E-03     32.8495E-03
             577     855.160E-06     77.2868E-03    -86.9692E+06    -195.123E+06    -86.3197E+06    -1.68689E+06    -51.8257E-03     103.635E-03    -51.8092E-03     7.27627E-03    -51.8169E-03     102.960E-03    -51.8318E-03     7.23291E-03
             578     1.70903E-03     77.2965E-03    -82.7916E+06    -187.470E+06    -75.8130E+06     498.637E+03    -51.9184E-03     103.757E-03    -51.8391E-03     15.0709E-03    -51.9365E-03     103.039E-03    -51.8263E-03     15.0107E-03
             579     2.56370E-03     77.3180E-03    -78.9326E+06    -177.802E+06    -61.4839E+06     1.52982E+06    -51.9589E-03     103.862E-03    -51.9032E-03     22.8651E-03    -51.9943E-03     103.167E-03    -51.8383E-03     22.7846E-03
             580     3.41828E-03     77.3439E-03    -73.6008E+06    -169.356E+06    -50.4365E+06     345.813E+03    -51.9214E-03     103.849E-03    -51.9279E-03     29.5721E-03    -51.9762E-03     103.189E-03    -51.8278E-03     29.4435E-03
             581     4.27297E-03     77.3769E-03    -65.8927E+06    -157.340E+06    -37.1359E+06     1.03900E+06    -51.6226E-03     103.533E-03    -51.9107E-03     35.5523E-03    -51.6912E-03     102.918E-03    -51.7727E-03     35.3998E-03
             582     5.12792E-03     77.4141E-03    -60.3648E+06    -143.278E+06    -24.9264E+06     1.67809E+06    -51.8657E-03     103.748E-03    -51.8819E-03     40.9943E-03    -51.9579E-03     103.189E-03    -51.7113E-03     40.8088E-03
             583     5.98289E-03     77.4585E-03    -56.0581E+06    -131.866E+06    -18.8622E+06    -475.350E+03    -52.4087E-03     104.296E-03    -51.8876E-03     46.0304E-03    -52.5218E-03     103.797E-03    -51.7095E-03     45.7699E-03
             584     6.83753E-03     77.5096E-03    -50.1165E+06    -113.369E+06    -10.7258E+06    -218.369E+03    -52.9902E-03     104.939E-03    -51.9488E-03     51.5758E-03    -53.1332E-03     104.533E-03    -51.7654E-03     51.2683E-03
             585     7.68954E-03     77.5648E-03    -44.3689E+06    -94.8452E+06    -2.26344E+06    -609.640E+03    -52.7289E-03     104.739E-03    -52.0097E-03     54.9899E-03    -52.9053E-03     104.427E-03    -51.8192E-03     54.6305E-03
             586     8.54533E-03     77.6172E-03    -40.2129E+06    -80.1704E+06     3.25424E+06     152.566E+03    -51.4779E-03     103.451E-03    -51.9727E-03     58.2242E-03    -51.6852E-03     103.221E-03    -51.7819E-03     57.8456E-03
             587     9.40037E-03     77.6797E-03    -35.1126E+06    -58.3421E+06     11.2967E+06     2.16432E+06    -51.4447E-03     103.320E-03    -51.8758E-03     61.4010E-03    -51.6917E-03     103.203E-03    -51.6838E-03     61.0173E-03
             588     10.2582E-03     77.7398E-03    -31.5334E+06    -36.1750E+06     19.4331E+06     1.79329E+06    -52.7127E-03     104.558E-03    -51.8449E-03     62.2386E-03    -53.0094E-03     104.558E-03    -51.6495E-03     61.8040E-03
             589     11.1116E-03     77.8028E-03    -24.5635E+06    -10.1525E+06     28.1206E+06     2.68260E+06    -53.4031E-03     105.292E-03    -51.8890E-03     63.3091E-03    -53.7365E-03     105.421E-03    -51.6981E-03     62.8490E-03
             590     11.9622E-03     77.8673E-03    -16.5672E+06     22.0485E+06     39.9877E+06     3.66394E+06    -52.8613E-03     104.803E-03    -51.9416E-03     61.6832E-03    -53.2235E-03     105.069E-03    -51.7496E-03     61.2297E-03
             591     12.8188E-03     77.9241E-03    -20.3667E+06     53.2995E+06     43.8576E+06     4.38648E+06    -51.8560E-03     103.778E-03    -51.9218E-03     59.5348E-03    -52.2795E-03     104.191E-03    -51.7502E-03     59.1121E-03
             592     13.6717E-03     77.9847E-03    -19.0294E+06     74.7441E+06     49.5296E+06    -119.393E+03    -50.8013E-03     102.664E-03    -51.8623E-03     55.0616E-03    -51.2441E-03     103.161E-03    -51.6955E-03     54.6006E-03
             593     14.5336E-03     78.0320E-03    -10.9307E+06     79.4777E+06     51.4591E+06    -3.79710E+06    -50.6635E-03     102.441E-03    -51.7771E-03     49.7571E-03    -51.0582E-03     102.929E-03    -51.6192E-03     49.2639E-03
             594     15.3851E-03     78.0763E-03    -5.16845E+06     82.9598E+06     58.3164E+06    -70.6402E+03    -51.1897E-03     102.937E-03    -51.7471E-03     43.2066E-03    -51.5491E-03     103.403E-03    -51.5683E-03     42.7655E-03
             595     16.2434E-03     78.1087E-03     553.332E+03     96.5794E+06     75.8989E+06    -267.063E+03    -51.9802E-03     103.784E-03    -51.8034E-03     35.2362E-03    -52.3283E-03     104.256E-03    -51.5648E-03     34.8367E-03
             596     853.803E-06     78.3368E-03    -88.0245E+06    -194.012E+06    -83.0540E+06    -1.06051E+06    -52.0857E-03     104.398E-03    -52.3118E-03     7.19278E-03    -52.0803E-03     103.715E-03    -52.3181E-03     7.14723E-03
             597     1.70843E-03     78.3493E-03    -84.0692E+06    -188.300E+06    -75.7122E+06    -56.6695E+03    -52.0421E-03     104.210E-03    -52.1682E-03     14.8929E-03    -52.0634E-03     103.488E-03    -52.1518E-03     14.8329E-03
             598     2.56290E-03     78.3678E-03    -78.4109E+06    -179.536E+06    -64.6563E+06     788.388E+03    -51.6441E-03     103.724E-03    -52.0796E-03     22.6375E-03    -51.6672E-03     103.021E-03    -52.0289E-03     22.5533E-03
             599     3.41792E-03     78.3959E-03    -73.1644E+06    -168.317E+06    -49.7451E+06     1.45422E+06    -51.4189E-03     103.385E-03    -51.9663E-03     29.3349E-03    -51.4695E-03     102.724E-03    -51.8649E-03     29.2235E-03
             600     4.27314E-03     78.4263E-03    -69.0904E+06    -159.507E+06    -38.8684E+06     281.668E+03    -51.8824E-03     103.789E-03    -51.9070E-03     35.3129E-03    -51.9595E-03     103.168E-03    -51.7699E-03     35.1473E-03
             601     5.12808E-03     78.4660E-03    -62.0898E+06    -145.584E+06    -27.8418E+06     713.656E+03    -52.5335E-03     104.480E-03    -51.9466E-03     41.4956E-03    -52.6266E-03     103.917E-03    -51.7847E-03     41.2936E-03
             602     5.98054E-03     78.5111E-03    -57.1111E+06    -128.617E+06    -18.4761E+06     1.19824E+06    -52.6306E-03     104.645E-03    -52.0142E-03     46.9363E-03    -52.7550E-03     104.163E-03    -51.8373E-03     46.6963E-03
             603     6.83485E-03     78.5599E-03    -52.7841E+06    -115.152E+06    -13.0281E+06    -445.587E+03    -52.0328E-03     104.045E-03    -52.0119E-03     52.6866E-03    -52.1829E-03     103.636E-03    -51.8335E-03     52.3823E-03
             604     7.69254E-03     78.6165E-03    -45.5599E+06    -95.7566E+06    -3.93269E+06     -416.26E+03    -51.9160E-03     103.880E-03    -51.9636E-03     55.2588E-03    -52.0907E-03     103.564E-03    -51.7783E-03     54.9133E-03
             605     8.54622E-03     78.6684E-03    -41.1023E+06    -78.3054E+06     3.39980E+06     267.239E+03    -52.2457E-03     104.176E-03    -51.9300E-03     57.2853E-03    -52.4573E-03     103.954E-03    -51.7399E-03     56.9072E-03
             606     9.40274E-03     78.7286E-03    -36.2462E+06    -59.3268E+06     10.3521E+06     698.012E+03    -52.1103E-03     104.015E-03    -51.9045E-03     60.7347E-03    -52.3633E-03     103.898E-03    -51.7141E-03     60.3215E-03
             607     10.2555E-03     78.7919E-03    -27.9636E+06    -35.8083E+06     20.7604E+06     167.678E+03    -52.4103E-03     104.301E-03    -51.8908E-03     62.5799E-03    -52.6935E-03     104.298E-03    -51.6946E-03     62.1220E-03
             608     11.1086E-03     78.8566E-03    -22.3685E+06    -11.9163E+06     28.6172E+06    -550.533E+03    -52.6212E-03     104.511E-03    -51.8895E-03     63.5428E-03    -52.9379E-03     104.623E-03    -51.6967E-03     63.0532E-03
             609     11.9673E-03     78.9173E-03    -19.3505E+06     17.5875E+06     36.5025E+06     3.00297E+06    -52.3855E-03     104.272E-03    -51.8867E-03     62.0790E-03    -52.7479E-03     104.522E-03    -51.7016E-03     61.6287E-03
             610     12.8196E-03     78.9783E-03    -14.5352E+06     52.8136E+06     45.5522E+06     6.76310E+06    -51.1850E-03     103.024E-03    -51.8387E-03     58.9950E-03    -51.5790E-03     103.422E-03    -51.6665E-03     58.6117E-03
             611     13.6778E-03     79.0324E-03    -5.05578E+06     82.7505E+06     58.9393E+06     6.37896E+06    -49.7909E-03     101.535E-03    -51.7443E-03     55.4909E-03    -50.1871E-03     102.036E-03    -51.5623E-03     55.1259E-03
             612     14.5305E-03     79.0814E-03    -9.17272E+06     83.8201E+06     53.7853E+06    -226.086E+03    -50.8818E-03     102.509E-03    -51.6276E-03     50.1357E-03    -51.2758E-03     103.012E-03    -51.4669E-03     49.6914E-03
             613     15.3905E-03     79.1274E-03    -14.2829E+06     81.7458E+06     52.7422E+06    -7.59872E+06    -52.6486E-03     104.286E-03    -51.6377E-03     41.0102E-03    -53.0441E-03     104.768E-03    -51.4718E-03     40.4394E-03
             614     16.2391E-03     79.1641E-03    -4.89022E+06     94.8951E+06     71.8408E+06    -2.35780E+06    -53.0067E-03     104.778E-03    -51.7708E-03     34.5643E-03    -53.3703E-03     105.252E-03    -51.5421E-03     34.1054E-03
             615     854.065E-06     79.3887E-03    -86.8639E+06    -194.178E+06    -84.8274E+06    -353.088E+03    -52.5248E-03     104.231E-03    -51.7057E-03     8.02744E-03    -52.5104E-03     103.546E-03    -51.7223E-03     7.98616E-03
             616     1.70807E-03     79.4012E-03    -83.8395E+06    -188.255E+06    -75.8890E+06    -27.8341E+03    -52.0936E-03     104.200E-03    -52.1064E-03     16.0738E-03    -52.1156E-03     103.481E-03    -52.0913E-03     16.0004E-03
             617     2.56250E-03     79.4192E-03    -79.5206E+06    -180.719E+06    -65.8137E+06    -334.887E+03    -51.6941E-03     103.749E-03    -52.0551E-03     22.8260E-03    -51.7201E-03     103.044E-03    -52.0068E-03     22.7242E-03
             618     3.41829E-03     79.4451E-03    -73.3658E+06    -170.117E+06    -52.0842E+06     1.10659E+06    -51.5908E-03     103.558E-03    -51.9668E-03     29.6123E-03    -51.6370E-03     102.892E-03    -51.8742E-03     29.4985E-03
             619     4.27319E-03     79.4782E-03    -67.3476E+06    -156.860E+06    -37.4687E+06     1.69136E+06    -52.1323E-03     104.087E-03    -51.9550E-03     35.8756E-03    -52.2071E-03     103.475E-03    -51.8172E-03     35.7277E-03
             620     5.12615E-03     79.5179E-03    -63.0378E+06    -146.869E+06    -28.4399E+06     2.96963E+03    -52.3140E-03     104.304E-03    -51.9900E-03     42.1729E-03    -52.4089E-03     103.736E-03    -51.8278E-03     41.9608E-03
             621     5.98260E-03     79.5623E-03    -57.0672E+06    -129.654E+06    -20.5912E+06     240.532E+03    -52.1694E-03     104.161E-03    -51.9913E-03     47.7742E-03    -52.2880E-03     103.676E-03    -51.8235E-03     47.5258E-03
             622     6.83716E-03     79.6121E-03    -51.6471E+06    -112.686E+06    -11.8847E+06     371.836E+03    -51.9485E-03     103.911E-03    -51.9628E-03     52.4523E-03    -52.0963E-03     103.510E-03    -51.7839E-03     52.1631E-03
             623     7.69111E-03     79.6644E-03    -47.4919E+06    -96.4019E+06    -4.68593E+06    -109.608E+03    -52.0166E-03     103.937E-03    -51.9202E-03     55.4403E-03    -52.1998E-03     103.623E-03    -51.7350E-03     55.0977E-03
             624     8.54689E-03     79.7227E-03    -41.0817E+06    -75.9379E+06     3.68405E+06    -1.74662E+06    -52.9038E-03     104.830E-03    -51.9261E-03     57.2390E-03    -53.1192E-03     104.619E-03    -51.7380E-03     56.8269E-03
             625     9.39810E-03     79.7789E-03    -36.3234E+06    -61.7059E+06     8.61031E+06    -3.24316E+06    -52.8487E-03     104.811E-03    -51.9620E-03     60.2260E-03    -53.0940E-03     104.683E-03    -51.7768E-03     59.7562E-03
             626     10.2551E-03     79.8437E-03    -32.6743E+06    -36.7376E+06     17.2391E+06    -449.872E+03    -51.8965E-03     103.847E-03    -51.9506E-03     63.3108E-03    -52.1950E-03     103.849E-03    -51.7638E-03     62.8555E-03
             627     11.1128E-03     79.9063E-03    -27.8928E+06    -7.28497E+06     28.6858E+06    -113.599E+03    -51.7055E-03     103.607E-03    -51.9017E-03     63.1652E-03    -52.0510E-03     103.745E-03    -51.7073E-03     62.6981E-03
             628     11.9638E-03     79.9702E-03    -20.3430E+06     10.4833E+06     34.2477E+06    -1.18355E+06    -51.2685E-03     103.095E-03    -51.8262E-03     61.5714E-03    -51.6162E-03     103.308E-03    -51.6407E-03     61.0836E-03
             629     12.8211E-03     80.0285E-03    -10.2209E+06     48.4078E+06     44.1627E+06     2.18862E+06    -50.6358E-03     102.355E-03    -51.7191E-03     57.8308E-03    -50.9974E-03     102.724E-03    -51.5537E-03     57.3924E-03
             630     13.6779E-03     80.0786E-03    -6.17154E+06     81.8928E+06     56.4352E+06     5.41225E+06    -51.0646E-03     102.717E-03    -51.6524E-03     53.0482E-03    -51.4619E-03     103.219E-03    -51.4800E-03     52.6520E-03
             631     14.5377E-03     80.1349E-03    -4.29272E+06     89.9217E+06     61.9594E+06     6.88943E+06    -51.8646E-03     103.510E-03    -51.6457E-03     48.3165E-03    -52.2552E-03     104.025E-03    -51.4601E-03     47.9494E-03
             632     15.3839E-03     80.1807E-03    -5.32211E+06     93.2140E+06     64.9584E+06     469.012E+03    -52.5737E-03     104.263E-03    -51.6894E-03     41.4374E-03    -52.9482E-03     104.761E-03    -51.4921E-03     40.9832E-03
             633     16.2419E-03     80.2172E-03    -9.85140E+06     90.8671E+06     65.9496E+06    -3.41220E+06    -52.9046E-03     104.672E-03    -51.7678E-03     34.6385E-03    -53.2554E-03     105.117E-03    -51.5555E-03     34.1862E-03
             634     855.415E-06     80.4398E-03    -85.0839E+06    -192.577E+06    -84.2264E+06    -123.163E+03    -52.0854E-03     103.153E-03    -51.0672E-03     7.77902E-03    -52.0794E-03     102.482E-03    -51.0857E-03     7.77523E-03
             635     1.70976E-03     80.4531E-03    -84.1609E+06    -188.726E+06    -76.7498E+06    -770.821E+03    -51.9954E-03     103.652E-03    -51.6567E-03     16.1836E-03    -52.0190E-03     102.933E-03    -51.6448E-03     16.1175E-03
             636     2.56432E-03     80.4700E-03    -79.9048E+06    -180.436E+06    -64.8311E+06    -439.015E+03    -52.2000E-03     104.026E-03    -51.8256E-03     22.6284E-03    -52.2308E-03     103.323E-03    -51.7723E-03     22.5179E-03
             637     3.41794E-03     80.4963E-03    -73.9361E+06    -170.518E+06    -51.9925E+06    -451.641E+03    -52.3237E-03     104.277E-03    -51.9530E-03     29.7014E-03    -52.3761E-03     103.613E-03    -51.8585E-03     29.5567E-03
             638     4.27202E-03     80.5295E-03    -67.0712E+06    -158.611E+06    -40.0671E+06     583.177E+03    -52.1233E-03     104.137E-03    -52.0140E-03     35.9075E-03    -52.1915E-03     103.521E-03    -51.8871E-03     35.7485E-03
             639     5.12826E-03     80.5693E-03    -62.8594E+06    -145.022E+06    -29.7820E+06     792.475E+03    -51.7858E-03     103.783E-03    -51.9974E-03     41.5892E-03    -51.8800E-03     103.226E-03    -51.8448E-03     41.3961E-03
             640     5.98152E-03     80.6127E-03    -57.7561E+06    -130.458E+06    -20.7744E+06    -333.309E+03    -51.8624E-03     103.810E-03    -51.9473E-03     47.3677E-03    -51.9831E-03     103.323E-03    -51.7783E-03     47.1134E-03
             641     6.83698E-03     80.6632E-03    -51.4863E+06    -112.449E+06    -12.0633E+06     251.097E+03    -52.0878E-03     103.999E-03    -51.9116E-03     51.5761E-03    -52.2346E-03     103.599E-03    -51.7342E-03     51.2852E-03
             642     7.69220E-03     80.7157E-03    -46.3675E+06    -95.2205E+06    -5.02713E+06    -1.24521E+06    -52.2121E-03     104.102E-03    -51.8901E-03     55.9402E-03    -52.3931E-03     103.795E-03    -51.7099E-03     55.5815E-03
             643     8.54572E-03     80.7741E-03    -40.6549E+06    -74.3044E+06     3.30722E+06    -1.66221E+06    -52.5758E-03     104.465E-03    -51.8890E-03     59.5932E-03    -52.7949E-03     104.266E-03    -51.7057E-03     59.1843E-03
             644     9.40168E-03     80.8332E-03    -37.5240E+06    -56.6220E+06     11.0179E+06    -2.80947E+06    -52.9631E-03     104.887E-03    -51.9239E-03     61.5619E-03    -53.2285E-03     104.786E-03    -51.7323E-03     61.0930E-03
             645     10.2546E-03     80.8920E-03    -32.7188E+06    -40.2488E+06     16.2825E+06    -3.52652E+06    -52.4764E-03     104.413E-03    -51.9367E-03     63.7420E-03    -52.7741E-03     104.405E-03    -51.7495E-03     63.2323E-03
             646     11.1077E-03     80.9587E-03    -26.8589E+06    -9.08491E+06     25.6164E+06    -874.709E+03    -51.1430E-03     103.018E-03    -51.8750E-03     63.7684E-03    -51.4784E-03     103.152E-03    -51.6948E-03     63.2961E-03
             647     11.9675E-03     81.0191E-03    -24.4518E+06     11.0735E+06     32.5336E+06    -1.50856E+06    -50.5309E-03     102.295E-03    -51.7646E-03     61.3282E-03    -50.8949E-03     102.518E-03    -51.5825E-03     60.8485E-03
             648     12.8251E-03     81.0762E-03    -18.7836E+06     46.2384E+06     40.5743E+06    -531.482E+03    -51.7173E-03     103.392E-03    -51.6747E-03     57.2976E-03    -52.1159E-03     103.770E-03    -51.5116E-03     56.8108E-03
             649     13.6772E-03     81.1348E-03    -16.8181E+06     76.2952E+06     49.1495E+06     1.89612E+06    -52.7340E-03     104.423E-03    -51.6895E-03     52.2930E-03    -53.1699E-03     104.928E-03    -51.5300E-03     51.8274E-03
             650     14.5251E-03     81.1833E-03    -8.32499E+06     87.0326E+06     58.6898E+06     3.60007E+06    -52.0513E-03     103.797E-03    -51.7454E-03     47.9863E-03    -52.4588E-03     104.313E-03    -51.5660E-03     47.5595E-03
             651     15.3903E-03     81.2330E-03     146.293E+03     99.7648E+06     70.2765E+06     7.11331E+06    -52.0180E-03     103.808E-03    -51.7899E-03     41.0248E-03    -52.3841E-03     104.325E-03    -51.5834E-03     40.6679E-03
             652     16.2399E-03     81.2706E-03    -9.01023E+06     93.5837E+06     67.8550E+06     2.26680E+06    -52.2871E-03     104.116E-03    -51.8290E-03     32.5620E-03    -52.6383E-03     104.569E-03    -51.6123E-03     32.2318E-03
             653     854.667E-06     81.4909E-03    -86.6858E+06    -192.712E+06    -82.7914E+06     1.22898E+06    -51.7098E-03     103.452E-03    -51.7425E-03     6.99543E-03    -51.7050E-03     102.783E-03    -51.7513E-03     6.99326E-03
             654     1.71000E-03     81.5025E-03    -84.8460E+06    -187.254E+06    -73.6678E+06     390.374E+03    -51.7920E-03     103.546E-03    -51.7541E-03     14.4304E-03    -51.8220E-03     102.826E-03    -51.7279E-03     14.3863E-03
             655     2.56396E-03     81.5226E-03    -79.9784E+06    -180.633E+06    -64.9965E+06    -1.00465E+06    -52.0556E-03     103.875E-03    -51.8195E-03     21.8684E-03    -52.0832E-03     103.169E-03    -51.7665E-03     21.7596E-03
             656     3.41802E-03     81.5477E-03    -73.4247E+06    -170.389E+06    -52.2344E+06    -591.062E+03    -52.3020E-03     104.224E-03    -51.9223E-03     30.0852E-03    -52.3500E-03     103.559E-03    -51.8299E-03     29.9409E-03
             657     4.27215E-03     81.5818E-03    -68.8618E+06    -160.254E+06    -41.2952E+06     48.6462E+03    -52.1297E-03     104.116E-03    -51.9864E-03     36.4252E-03    -52.2024E-03     103.496E-03    -51.8607E-03     36.2588E-03
             658     5.12582E-03     81.6186E-03    -62.7650E+06    -144.691E+06    -30.4812E+06     355.171E+03    -51.8267E-03     103.801E-03    -51.9743E-03     41.8153E-03    -51.9210E-03     103.247E-03    -51.8259E-03     41.6143E-03
             659     5.98300E-03     81.6644E-03    -57.4511E+06    -129.694E+06    -21.0244E+06    -613.087E+03    -51.8900E-03     103.822E-03    -51.9324E-03     47.7053E-03    -52.0109E-03     103.340E-03    -51.7662E-03     47.4434E-03
             660     6.83688E-03     81.7138E-03    -50.8398E+06    -112.469E+06    -12.6696E+06    -1.27419E+06    -52.0311E-03     103.926E-03    -51.8946E-03     51.7148E-03    -52.1727E-03     103.524E-03    -51.7211E-03     51.4060E-03
             661     7.69171E-03     81.7669E-03    -47.4709E+06    -92.2980E+06    -5.36245E+06    -827.741E+03    -52.0894E-03     103.954E-03    -51.8644E-03     55.7877E-03    -52.2778E-03     103.662E-03    -51.6886E-03     55.4394E-03
             662     8.54803E-03     81.8248E-03    -45.3033E+06    -77.6635E+06     350.241E+03    -1.40698E+06    -52.0330E-03     103.870E-03    -51.8367E-03     58.9100E-03    -52.2662E-03     103.665E-03    -51.6567E-03     58.5070E-03
             663     9.40214E-03     81.8844E-03    -35.4828E+06    -53.3800E+06     11.9569E+06    -1.91771E+06    -52.2530E-03     104.074E-03    -51.8212E-03     61.4333E-03    -52.5135E-03     103.985E-03    -51.6326E-03     60.9822E-03
             664     10.2560E-03     81.9469E-03    -32.9285E+06    -38.7198E+06     14.9967E+06    -3.35046E+06    -52.5093E-03     104.316E-03    -51.8067E-03     64.1457E-03    -52.8082E-03     104.317E-03    -51.6278E-03     63.6380E-03
             665     11.1129E-03     82.0066E-03    -33.9435E+06    -16.7646E+06     18.4808E+06    -576.564E+03    -51.8970E-03     103.676E-03    -51.7785E-03     63.1706E-03    -52.2496E-03     103.795E-03    -51.6126E-03     62.6862E-03
             666     11.9677E-03     82.0679E-03    -30.6183E+06     18.4036E+06     32.1581E+06     486.433E+03    -51.8058E-03     103.567E-03    -51.7609E-03     60.0759E-03    -52.2146E-03     103.839E-03    -51.5824E-03     59.6010E-03
             667     12.8195E-03     82.1297E-03    -27.0787E+06     44.9444E+06     36.9172E+06    -3.43424E+06    -52.3407E-03     104.079E-03    -51.7383E-03     57.5374E-03    -52.7789E-03     104.474E-03    -51.5796E-03     57.0002E-03
             668     13.6747E-03     82.1864E-03    -20.8949E+06     69.4801E+06     43.6146E+06     294.978E+03    -52.2801E-03     104.028E-03    -51.7481E-03     53.1852E-03    -52.7223E-03     104.516E-03    -51.6005E-03     52.6987E-03
             669     14.5352E-03     82.2367E-03    -14.2583E+06     86.8018E+06     57.2888E+06     4.36989E+06    -52.5719E-03     104.386E-03    -51.8137E-03     49.3396E-03    -53.0095E-03     104.914E-03    -51.6324E-03     48.9183E-03
             670     15.3790E-03     82.2837E-03    -12.1710E+06     95.0682E+06     63.0707E+06     5.00377E+06    -52.7634E-03     104.640E-03    -51.8762E-03     43.0626E-03    -53.1877E-03     105.175E-03    -51.6811E-03     42.6632E-03
             671     16.2370E-03     82.3250E-03    -8.30992E+06     97.0838E+06     70.0649E+06     1.13783E+06    -50.9381E-03     102.851E-03    -51.9132E-03     31.7180E-03    -51.3164E-03     103.341E-03    -51.6916E-03     31.3655E-03
             672     853.808E-06     82.5425E-03    -86.6502E+06    -194.313E+06    -85.1195E+06     1.40189E+06    -52.2204E-03     104.356E-03    -52.1356E-03     7.59378E-03    -52.2024E-03     103.688E-03    -52.1538E-03     7.57094E-03
             673     1.70730E-03     82.5539E-03    -84.2173E+06    -187.700E+06    -74.9700E+06     1.14155E+06    -51.7231E-03     103.815E-03    -52.0918E-03     15.1043E-03    -51.7527E-03     103.099E-03    -52.0723E-03     15.0615E-03
             674     2.56311E-03     82.5728E-03    -78.9937E+06    -178.975E+06    -63.1176E+06     199.472E+03    -51.6542E-03     103.627E-03    -51.9731E-03     22.4747E-03    -51.6900E-03     102.933E-03    -51.9147E-03     22.3894E-03
             675     3.41863E-03     82.5991E-03    -74.9135E+06    -171.862E+06    -53.4877E+06    -43.6716E+03    -51.6795E-03     103.583E-03    -51.9030E-03     29.7739E-03    -51.7338E-03     102.917E-03    -51.8126E-03     29.6439E-03
             676     4.27355E-03     82.6329E-03    -69.4808E+06    -159.500E+06    -40.8238E+06     411.087E+03    -51.8571E-03     103.739E-03    -51.8815E-03     36.2219E-03    -51.9349E-03     103.122E-03    -51.7536E-03     36.0583E-03
             677     5.12899E-03     82.6702E-03    -62.6793E+06    -145.141E+06    -29.9689E+06    -738.788E+03    -52.1633E-03     104.053E-03    -51.8898E-03     41.8945E-03    -52.2573E-03     103.496E-03    -51.7383E-03     41.6772E-03
             678     5.98137E-03     82.7149E-03    -55.4498E+06    -127.779E+06    -21.2927E+06    -1.00587E+06    -52.1069E-03     103.997E-03    -51.8903E-03     47.7876E-03    -52.2206E-03     103.522E-03    -51.7311E-03     47.5233E-03
             679     6.83752E-03     82.7649E-03    -53.3587E+06    -112.464E+06    -14.8041E+06    -796.385E+03    -52.0539E-03     103.927E-03    -51.8729E-03     51.7046E-03    -52.2068E-03     103.534E-03    -51.7064E-03     51.3999E-03
             680     7.69229E-03     82.8179E-03    -48.4446E+06    -93.1645E+06    -6.14631E+06    -174.805E+03    -52.0161E-03     103.865E-03    -51.8485E-03     55.7586E-03    -52.2077E-03     103.571E-03    -51.6739E-03     55.4168E-03
             681     8.54560E-03     82.8759E-03    -42.9651E+06    -75.1185E+06     1.55950E+06    -873.830E+03    -52.0588E-03     103.878E-03    -51.8193E-03     59.2618E-03    -52.2879E-03     103.684E-03    -51.6403E-03     58.8609E-03
             682     9.40179E-03     82.9344E-03    -42.8990E+06    -57.1280E+06     5.16609E+06    -140.468E+03    -52.0340E-03     103.815E-03    -51.7815E-03     60.7035E-03    -52.3152E-03     103.727E-03    -51.6106E-03     60.2783E-03
             683     10.2595E-03     82.9970E-03    -40.6507E+06    -35.0612E+06     14.1378E+06     1.24103E+06    -52.0120E-03     103.778E-03    -51.7660E-03     61.3567E-03    -52.3472E-03     103.803E-03    -51.5856E-03     60.9187E-03
             684     11.1116E-03     83.0594E-03    -34.8282E+06    -16.4633E+06     19.7741E+06    -3.10394E+06    -52.5844E-03     104.345E-03    -51.7605E-03     61.2115E-03    -52.9442E-03     104.465E-03    -51.5872E-03     60.6825E-03
             685     11.9642E-03     83.1202E-03    -28.4140E+06     15.6096E+06     29.4500E+06    -640.752E+03    -52.6848E-03     104.466E-03    -51.7816E-03     61.2383E-03    -53.0801E-03     104.731E-03    -51.6158E-03     60.7345E-03
             686     12.8214E-03     83.1808E-03    -30.0627E+06     46.2882E+06     34.8502E+06     1.66702E+06    -52.1246E-03     103.906E-03    -51.7817E-03     59.3039E-03    -52.5796E-03     104.318E-03    -51.6309E-03     58.8334E-03
             687     13.6764E-03     83.2377E-03    -24.7998E+06     69.3368E+06     42.8590E+06    -1.50070E+06    -52.1580E-03     103.944E-03    -51.7860E-03     53.9409E-03    -52.6208E-03     104.441E-03    -51.6363E-03     53.4297E-03
             688     14.5255E-03     83.2880E-03    -16.7092E+06     82.8149E+06     49.1283E+06     703.920E+03    -53.0586E-03     104.884E-03    -51.8254E-03     49.8581E-03    -53.4910E-03     105.409E-03    -51.6756E-03     49.3865E-03
             689     15.3877E-03     83.3402E-03    -9.06776E+06     94.5444E+06     60.5275E+06     1.22538E+06    -52.9869E-03     104.906E-03    -51.9196E-03     42.4516E-03    -53.3905E-03     105.438E-03    -51.7409E-03     41.9976E-03
             690     16.2376E-03     83.3745E-03    -2.22598E+06     101.272E+06     76.7409E+06    -1.40601E+06    -50.6518E-03     102.639E-03    -51.9875E-03     28.4716E-03    -51.0174E-03     103.134E-03    -51.7474E-03     28.0566E-03
             691     854.213E-06     83.5948E-03    -88.8382E+06    -195.800E+06    -85.9042E+06     978.375E+03    -52.1379E-03     103.897E-03    -51.7587E-03     7.48202E-03    -52.1336E-03     103.227E-03    -51.7754E-03     7.45455E-03
             692     1.70991E-03     83.6046E-03    -82.8064E+06    -187.995E+06    -76.6834E+06     663.972E+03    -51.7515E-03     103.656E-03    -51.9043E-03     15.6038E-03    -51.7675E-03     102.936E-03    -51.8951E-03     15.5550E-03
             693     2.56364E-03     83.6243E-03    -78.8330E+06    -178.813E+06    -62.9891E+06     1.00597E+06    -51.9436E-03     103.844E-03    -51.9001E-03     23.3694E-03    -51.9749E-03     103.145E-03    -51.8415E-03     23.2893E-03
             694     3.41751E-03     83.6498E-03    -74.1424E+06    -169.561E+06    -50.0973E+06     405.687E+03    -51.8423E-03     103.763E-03    -51.9212E-03     29.2910E-03    -51.8973E-03     103.100E-03    -51.8183E-03     29.1655E-03
             695     4.27326E-03     83.6826E-03    -68.6203E+06    -159.892E+06    -41.5492E+06    -592.202E+03    -51.7816E-03     103.676E-03    -51.8949E-03     35.6015E-03    -51.8524E-03     103.057E-03    -51.7713E-03     35.4246E-03
             696     5.12707E-03     83.7224E-03    -62.6412E+06    -144.933E+06    -31.7970E+06    -433.908E+03    -52.1227E-03     104.010E-03    -51.8868E-03     40.8977E-03    -52.2127E-03     103.455E-03    -51.7448E-03     40.6866E-03
             697     5.98349E-03     83.7656E-03    -58.9036E+06    -127.095E+06    -23.1973E+06    -7.54524E+03    -52.0897E-03     103.980E-03    -51.8903E-03     46.6769E-03    -52.2170E-03     103.514E-03    -51.7366E-03     46.4294E-03
             698     6.83691E-03     83.8162E-03    -53.7036E+06    -111.487E+06    -14.6285E+06    -294.367E+03    -51.9234E-03     103.795E-03    -51.8719E-03     51.6242E-03    -52.0804E-03     103.408E-03    -51.7055E-03     51.3231E-03
             699     7.69172E-03     83.8685E-03    -47.4368E+06    -95.6347E+06    -6.76072E+06    -508.235E+03    -51.9841E-03     103.822E-03    -51.8377E-03     55.4643E-03    -52.1668E-03     103.516E-03    -51.6641E-03     55.1139E-03
             700     8.54920E-03     83.9261E-03    -45.2934E+06    -73.5699E+06     213.068E+03     473.606E+03    -52.3904E-03     104.210E-03    -51.8200E-03     58.9765E-03    -52.6307E-03     104.028E-03    -51.6466E-03     58.5911E-03
             701     9.40207E-03     83.9872E-03    -44.7923E+06    -56.4501E+06     6.37336E+06     155.789E+03    -52.6435E-03     104.484E-03    -51.8404E-03     59.8281E-03    -52.9385E-03     104.401E-03    -51.6617E-03     59.3963E-03
             702     10.2533E-03     84.0468E-03    -35.5024E+06    -35.7276E+06     15.9593E+06    -743.764E+03    -52.0968E-03     103.944E-03    -51.8467E-03     61.2279E-03    -52.4096E-03     103.957E-03    -51.6636E-03     60.7598E-03
             703     11.1115E-03     84.1109E-03    -33.3220E+06    -12.0871E+06     20.4339E+06    -1.15007E+06    -51.8077E-03     103.607E-03    -51.7998E-03     62.3396E-03    -52.1665E-03     103.746E-03    -51.6317E-03     61.8490E-03
             704     11.9680E-03     84.1719E-03    -33.8445E+06     9.01182E+06     25.4514E+06     54.5995E+03    -52.3139E-03     104.091E-03    -51.7772E-03     61.5858E-03    -52.7203E-03     104.336E-03    -51.6139E-03     61.0964E-03
             705     12.8201E-03     84.2325E-03    -21.5855E+06     47.1572E+06     40.3068E+06     2.05326E+06    -52.4830E-03     104.275E-03    -51.7917E-03     58.8885E-03    -52.9039E-03     104.670E-03    -51.6273E-03     58.4182E-03
             706     13.6743E-03     84.2891E-03    -18.4315E+06     76.4302E+06     49.1880E+06     1.31461E+06    -53.0215E-03     104.852E-03    -51.8307E-03     54.9020E-03    -53.4745E-03     105.368E-03    -51.6688E-03     54.4192E-03
             707     14.5326E-03     84.3430E-03    -21.9392E+06     80.1109E+06     45.2007E+06    -4.17271E+06    -53.8211E-03     105.716E-03    -51.8950E-03     50.3336E-03    -54.2753E-03     106.246E-03    -51.7534E-03     49.7840E-03
             708     15.3771E-03     84.3918E-03    -11.4033E+06     92.2417E+06     58.4513E+06    -7.58312E+06    -51.9648E-03     103.950E-03    -51.9855E-03     40.2092E-03    -52.3727E-03     104.476E-03    -51.8104E-03     39.6417E-03
             709     16.2357E-03     84.4278E-03    -2.07507E+06     100.768E+06     76.6458E+06    -1.11075E+06    -49.5581E-03     101.558E-03    -51.9998E-03     28.0313E-03    -49.9199E-03     102.048E-03    -51.7596E-03     27.6267E-03
             710     855.138E-06     84.6466E-03    -88.6320E+06    -195.318E+06    -85.6003E+06    -1.57703E+06    -51.6473E-03     103.161E-03    -51.5133E-03     6.75504E-03    -51.6415E-03     102.492E-03    -51.5296E-03     6.69638E-03
             711     1.70881E-03     84.6546E-03    -83.4296E+06    -188.037E+06    -76.1667E+06    -116.126E+03    -51.8481E-03     103.483E-03    -51.6349E-03     15.2343E-03    -51.8702E-03     102.767E-03    -51.6221E-03     15.1672E-03
             712     2.56426E-03     84.6759E-03    -78.8250E+06    -180.221E+06    -64.9248E+06     95.7807E+03    -52.2033E-03     103.979E-03    -51.7758E-03     23.2986E-03    -52.2301E-03     103.277E-03    -51.7248E-03     23.2025E-03
             713     3.41867E-03     84.7015E-03    -73.1347E+06    -170.190E+06    -51.7125E+06     972.184E+03    -52.1275E-03     104.023E-03    -51.8954E-03     28.9643E-03    -52.1741E-03     103.357E-03    -51.8012E-03     28.8504E-03
             714     4.27208E-03     84.7333E-03    -68.7594E+06    -158.616E+06    -41.0523E+06     728.672E+03    -51.9729E-03     103.903E-03    -51.9301E-03     36.4526E-03    -52.0479E-03     103.290E-03    -51.8056E-03     36.2939E-03
             715     5.12777E-03     84.7736E-03    -64.3235E+06    -143.261E+06    -31.8319E+06    -458.510E+03    -52.1631E-03     104.097E-03    -51.9336E-03     42.0079E-03    -52.2655E-03     103.555E-03    -51.7917E-03     41.7879E-03
             716     5.98066E-03     84.8165E-03    -58.5152E+06    -126.699E+06    -22.8797E+06    -756.500E+03    -52.0541E-03     103.986E-03    -51.9314E-03     46.3512E-03    -52.1814E-03     103.522E-03    -51.7773E-03     46.0878E-03
             717     6.83736E-03     84.8665E-03    -52.3876E+06    -111.504E+06    -13.9325E+06    -709.580E+03    -51.8256E-03     103.727E-03    -51.9017E-03     51.3097E-03    -51.9764E-03     103.337E-03    -51.7338E-03     51.0051E-03
             718     7.69290E-03     84.9194E-03    -48.6514E+06    -96.7135E+06    -7.87685E+06    -1.05447E+06    -52.4874E-03     104.369E-03    -51.8821E-03     55.2336E-03    -52.6735E-03     104.062E-03    -51.7107E-03     54.8707E-03
             719     8.54451E-03     84.9776E-03    -44.8040E+06    -75.5053E+06    -329.705E+03     475.236E+03    -52.6416E-03     104.543E-03    -51.9011E-03     58.2922E-03    -52.8739E-03     104.349E-03    -51.7283E-03     57.9077E-03
             720     9.40008E-03     85.0390E-03    -38.2162E+06    -53.9256E+06     10.0747E+06     94.7248E+03    -52.1245E-03     104.033E-03    -51.9083E-03     60.2110E-03    -52.3927E-03     103.945E-03    -51.7243E-03     59.7890E-03
             721     10.2578E-03     85.0984E-03    -37.8010E+06    -39.8249E+06     11.8342E+06    -512.780E+03    -52.1853E-03     104.056E-03    -51.8711E-03     61.7186E-03    -52.4972E-03     104.058E-03    -51.6993E-03     61.2531E-03
             722     11.1108E-03     85.1602E-03    -33.6003E+06    -7.32064E+06     23.5394E+06     3.42592E+06    -52.3859E-03     104.253E-03    -51.8669E-03     61.8517E-03    -52.7570E-03     104.410E-03    -51.6898E-03     61.4157E-03
             723     11.9650E-03     85.2235E-03    -26.5612E+06     16.8960E+06     35.2657E+06     474.995E+03    -52.4205E-03     104.307E-03    -51.8862E-03     59.7091E-03    -52.8184E-03     104.568E-03    -51.6958E-03     59.2164E-03
             724     12.8211E-03     85.2851E-03    -23.6731E+06     37.2823E+06      35.583E+06    -3.98172E+06    -52.6741E-03     104.550E-03    -51.8755E-03     56.9448E-03    -53.0839E-03     104.905E-03    -51.7173E-03     56.3891E-03
             725     13.6757E-03     85.3410E-03    -20.1936E+06     72.0744E+06     44.9696E+06    -1.25767E+06    -53.0670E-03     104.980E-03    -51.9128E-03     54.4166E-03    -53.5129E-03     105.479E-03    -51.7631E-03     53.9016E-03
             726     14.5228E-03     85.3990E-03    -15.1289E+06     91.5008E+06     57.3325E+06    -1.76297E+06    -52.0199E-03     103.987E-03    -51.9674E-03     51.3136E-03    -52.4673E-03     104.540E-03    -51.7915E-03     50.8246E-03
             727     15.3832E-03     85.4451E-03    -13.8476E+06     92.5450E+06     60.2616E+06    -3.84141E+06    -49.9310E-03     101.856E-03    -51.9250E-03     42.6305E-03    -50.3464E-03     102.376E-03    -51.7378E-03     42.1546E-03
             728     16.2402E-03     85.4713E-03    -5.96598E+06     92.7474E+06     69.7378E+06    -2.71368E+06    -49.7429E-03     101.604E-03    -51.8607E-03     31.3998E-03    -50.1032E-03     102.070E-03    -51.6378E-03     30.9814E-03
             729     854.519E-06     85.6953E-03    -87.1439E+06    -193.660E+06    -83.6466E+06    -1.10184E+06    -51.8593E-03     102.790E-03    -50.9308E-03     7.63090E-03    -51.8488E-03     102.122E-03    -50.9418E-03     7.59855E-03
             730     1.71054E-03     85.7061E-03    -84.6910E+06    -189.106E+06    -76.5928E+06    -1.00366E+06    -52.1709E-03     103.719E-03    -51.5477E-03     15.6395E-03    -52.1995E-03     103.001E-03    -51.5337E-03     15.5677E-03
             731     2.56341E-03     85.7272E-03    -80.1758E+06    -179.893E+06    -66.2319E+06     16.5612E+03    -52.1118E-03     103.884E-03    -51.7721E-03     23.2425E-03    -52.1453E-03     103.188E-03    -51.7262E-03     23.1475E-03
             732     3.41784E-03     85.7526E-03    -75.7144E+06    -171.877E+06    -55.2780E+06     777.635E+03    -52.1161E-03     103.988E-03    -51.8722E-03     28.7948E-03    -52.1703E-03     103.325E-03    -51.7896E-03     28.6727E-03
             733     4.27373E-03     85.7843E-03    -68.9317E+06    -157.715E+06    -41.1055E+06     1.10865E+06    -52.1030E-03     104.036E-03    -51.9330E-03     35.6999E-03    -52.1810E-03     103.429E-03    -51.8099E-03     35.5426E-03
             734     5.12747E-03     85.8247E-03    -62.2557E+06    -140.020E+06    -28.9692E+06    -481.623E+03    -51.9846E-03     103.928E-03    -51.9437E-03     41.9858E-03    -52.0861E-03     103.396E-03    -51.7952E-03     41.7672E-03
             735     5.98301E-03     85.8690E-03    -56.8431E+06    -127.807E+06    -21.9264E+06    -1.45535E+06    -52.1990E-03     104.132E-03    -51.9333E-03     46.4938E-03    -52.3179E-03     103.659E-03    -51.7752E-03     46.2180E-03
             736     6.83642E-03     85.9157E-03    -52.7113E+06    -112.610E+06    -15.3915E+06    -705.701E+03    -52.4474E-03     104.387E-03    -51.9400E-03     51.3199E-03    -52.5961E-03     103.994E-03    -51.7773E-03     51.0093E-03
             737     7.69057E-03     85.9719E-03    -49.4438E+06    -95.4434E+06    -8.36406E+06    -602.734E+03    -52.5206E-03     104.475E-03    -51.9545E-03     56.1963E-03    -52.7121E-03     104.177E-03    -51.7863E-03     55.8416E-03
             738     8.54611E-03     86.0304E-03    -43.4707E+06    -77.7666E+06    -87.9317E+03     91.0924E+03    -52.3539E-03     104.311E-03    -51.9568E-03     58.9825E-03    -52.5772E-03     104.104E-03    -51.7815E-03     58.5967E-03
             739     9.40143E-03     86.0875E-03    -36.3945E+06    -52.9316E+06     10.9640E+06     861.121E+03    -52.2801E-03     104.228E-03    -51.9480E-03     60.2380E-03    -52.5426E-03     104.142E-03    -51.7637E-03     59.8230E-03
             740     10.2547E-03     86.1506E-03    -32.2293E+06    -33.8316E+06     19.6248E+06     888.077E+03    -52.7303E-03     104.689E-03    -51.9587E-03     60.6711E-03    -53.0351E-03     104.702E-03    -51.7647E-03     60.2161E-03
             741     11.1095E-03     86.2123E-03    -26.5009E+06    -8.82753E+06     27.6923E+06     2.48641E+06    -53.1217E-03     105.111E-03    -51.9893E-03     61.5976E-03    -53.4631E-03     105.247E-03    -51.7996E-03     61.1390E-03
             742     11.9627E-03     86.2770E-03    -22.8053E+06     13.5727E+06     34.2123E+06     2.18064E+06    -53.0528E-03     105.082E-03    -52.0291E-03     60.1950E-03    -53.4273E-03     105.324E-03    -51.8446E-03     59.7138E-03
             743     12.8165E-03     86.3341E-03    -26.7530E+06     40.7834E+06     34.8943E+06    -912.903E+03    -52.6227E-03     104.652E-03    -52.0289E-03     57.6224E-03    -53.0517E-03     105.029E-03    -51.8748E-03     57.1076E-03
             744     13.6688E-03     86.3975E-03    -23.7551E+06     73.1077E+06     44.0581E+06    -3.51757E+06    -51.1435E-03     103.142E-03    -51.9984E-03     55.6849E-03    -51.6005E-03     103.646E-03    -51.8497E-03     55.1727E-03
             745     14.5309E-03     86.4469E-03    -12.0693E+06     87.5682E+06     55.5276E+06    -374.107E+03    -49.2676E-03     101.170E-03    -51.9024E-03     50.9644E-03    -49.6810E-03     101.690E-03    -51.7342E-03     50.5362E-03
             746     15.3880E-03     86.4920E-03    -7.48787E+06     100.204E+06     65.6399E+06    -506.960E+03    -49.6429E-03     101.434E-03    -51.7909E-03     40.1654E-03    -50.0406E-03     101.970E-03    -51.5971E-03     39.7411E-03
             747     16.2430E-03     86.5246E-03    -8.05380E+06     93.7800E+06     72.2523E+06    -7.12101E+06    -51.5919E-03     103.375E-03    -51.7836E-03     28.8540E-03    -51.9688E-03     103.847E-03    -51.5466E-03     28.3567E-03
             748     856.736E-06     86.7464E-03    -88.5150E+06    -194.841E+06     -84.456E+06     999.471E+03    -51.5855E-03     103.008E-03    -51.4223E-03     7.58429E-03    -51.5926E-03     102.336E-03    -51.4337E-03     7.57157E-03
             749     1.70825E-03     86.7578E-03    -85.0927E+06    -188.727E+06    -75.4649E+06     931.635E+03    -52.2315E-03     103.892E-03    -51.6601E-03     15.5101E-03    -52.2612E-03     103.171E-03    -51.6404E-03     15.4508E-03
             750     2.56414E-03     86.7778E-03    -80.8955E+06    -179.175E+06    -64.6671E+06     54.4531E+03    -52.0033E-03     103.852E-03    -51.8485E-03     22.7828E-03    -52.0415E-03     103.157E-03    -51.7948E-03     22.6866E-03
             751     3.41899E-03     86.8040E-03    -74.8500E+06    -169.903E+06    -52.6432E+06    -1.63102E+06    -52.2760E-03     104.211E-03    -51.9350E-03     29.0225E-03    -52.3313E-03     103.551E-03    -51.8434E-03     28.8713E-03
             752     4.27127E-03     86.8363E-03    -67.2481E+06    -157.974E+06    -41.8271E+06    -1.14724E+06    -52.3225E-03     104.331E-03    -52.0084E-03     35.0304E-03    -52.3889E-03     103.720E-03    -51.8909E-03     34.8463E-03
             753     5.12700E-03     86.8748E-03    -61.1234E+06    -140.252E+06    -29.8292E+06     945.901E+03    -51.8084E-03     103.822E-03    -52.0131E-03     41.0973E-03    -51.9003E-03     103.285E-03    -51.8703E-03     40.9022E-03
             754     5.98203E-03     86.9195E-03    -56.6303E+06    -127.130E+06    -20.8763E+06    -904.982E+03    -52.0254E-03     104.003E-03    -51.9774E-03     46.2144E-03    -52.1443E-03     103.530E-03    -51.8154E-03     45.9502E-03
             755     6.83657E-03     86.9691E-03    -52.2782E+06    -114.076E+06    -15.5595E+06    -1.45135E+06    -52.6021E-03     104.575E-03    -51.9729E-03     51.6776E-03    -52.7485E-03     104.176E-03    -51.8095E-03     51.3554E-03
             756     7.69073E-03     87.0225E-03    -48.2140E+06    -94.5569E+06    -6.93181E+06     175.822E+03    -52.6078E-03     104.608E-03    -52.0000E-03     56.2589E-03    -52.7977E-03     104.311E-03    -51.8277E-03     55.9130E-03
             757     8.54626E-03     87.0804E-03    -43.2529E+06    -77.8640E+06     1.23930E+06    -1.51367E+06    -52.6695E-03     104.692E-03    -52.0221E-03     57.6896E-03    -52.8929E-03     104.481E-03    -51.8402E-03     57.2771E-03
             758     9.39958E-03     87.1409E-03    -35.7896E+06    -55.2231E+06     10.5636E+06    -1.09048E+06    -52.7585E-03     104.800E-03    -52.0411E-03     59.1645E-03    -53.0138E-03     104.701E-03    -51.8563E-03     58.7181E-03
             759     10.2541E-03     87.2021E-03    -28.0671E+06    -31.9906E+06     22.5592E+06     740.059E+03    -52.8382E-03     104.912E-03    -52.0738E-03     61.8394E-03    -53.1303E-03     104.926E-03    -51.8739E-03     61.3844E-03
             760     11.1077E-03     87.2653E-03    -25.5304E+06    -16.0558E+06     24.6264E+06    -8.05038E+03    -52.9115E-03     104.988E-03    -52.0762E-03     62.6905E-03    -53.2358E-03     105.093E-03    -51.8928E-03     62.1975E-03
             761     11.9631E-03     87.3283E-03    -22.0899E+06     8.94035E+06     31.2551E+06     1.49546E+06    -52.8211E-03     104.907E-03    -52.0860E-03     62.0556E-03    -53.1814E-03     105.130E-03    -51.9107E-03     61.5714E-03
             762     12.8156E-03     87.3901E-03    -13.6654E+06     48.0792E+06     43.7935E+06     5.10080E+06    -52.2559E-03     104.335E-03    -52.0790E-03     59.8451E-03    -52.6441E-03     104.718E-03    -51.9100E-03     59.4183E-03
             763     13.6743E-03     87.4441E-03    -7.98579E+06     82.4488E+06     55.8381E+06     2.35907E+06    -50.5609E-03     102.581E-03    -52.0201E-03     54.1320E-03    -50.9691E-03     103.092E-03    -51.8489E-03     53.6989E-03
             764     14.5287E-03     87.4954E-03    -8.33615E+06     86.8749E+06     58.5471E+06    -6.47469E+06    -49.6673E-03     101.575E-03    -51.9081E-03     47.3281E-03    -50.0643E-03     102.081E-03    -51.7292E-03     46.8087E-03
             765     15.3845E-03     87.5423E-03     103.382E+03     100.730E+06     69.2164E+06    -7.76376E+06    -50.3871E-03     102.214E-03    -51.8268E-03     39.2841E-03    -50.7761E-03     102.760E-03    -51.6269E-03     38.6978E-03
             766     16.2389E-03     87.5777E-03     6.80221E+06     95.2100E+06     78.4955E+06    -3.05248E+06    -51.2958E-03     103.132E-03    -51.8363E-03     29.9003E-03    -51.8426E-03     103.814E-03    -51.5917E-03     29.2643E-03
             767     852.788E-06     87.7950E-03    -88.7573E+06    -196.222E+06    -86.6231E+06     360.660E+03    -51.6056E-03     104.151E-03    -52.5451E-03     8.38213E-03    -51.6123E-03     103.482E-03    -52.5650E-03     8.34206E-03
             768     1.71003E-03     87.8110E-03    -84.7406E+06    -188.147E+06    -74.9216E+06     832.350E+03    -52.0268E-03     104.109E-03    -52.0825E-03     15.1193E-03    -52.0630E-03     103.397E-03    -52.0614E-03     15.0625E-03
             769     2.56294E-03     87.8275E-03    -78.6731E+06    -177.975E+06    -62.0951E+06    -65.0318E+03    -52.0281E-03     104.119E-03    -52.0913E-03     21.8163E-03    -52.0685E-03     103.431E-03    -52.0296E-03     21.7194E-03
             770     3.41714E-03     87.8565E-03    -73.5081E+06    -168.707E+06    -50.7935E+06    -1.74948E+06    -52.0704E-03     104.167E-03    -52.0969E-03     29.1647E-03    -52.1265E-03     103.511E-03    -51.9997E-03     29.0147E-03
             771     4.27286E-03     87.8879E-03    -68.2446E+06    -158.781E+06    -41.3447E+06    -3.45580E+06    -52.1266E-03     104.224E-03    -52.0971E-03     34.8895E-03    -52.1974E-03     103.609E-03    -51.9747E-03     34.6783E-03
             772     5.12632E-03     87.9260E-03    -61.2184E+06    -143.639E+06    -32.3768E+06    -1.56142E+06    -51.9143E-03     103.979E-03    -52.0647E-03     41.3423E-03    -51.9983E-03     103.430E-03    -51.9295E-03     41.1157E-03
             773     5.98110E-03     87.9703E-03    -54.8266E+06    -123.329E+06    -19.5642E+06     1.38901E+06    -51.9928E-03     104.022E-03    -52.0293E-03     47.4354E-03    -52.1118E-03     103.565E-03    -51.8688E-03     47.2030E-03
             774     6.83644E-03     88.0202E-03    -54.2037E+06    -113.889E+06    -14.6496E+06    -914.207E+03    -52.6334E-03     104.658E-03    -52.0248E-03     51.8401E-03    -52.7937E-03     104.264E-03    -51.8543E-03     51.5219E-03
             775     7.69124E-03     88.0745E-03    -46.0572E+06    -95.8318E+06    -6.18821E+06    -2.14277E+06    -53.2888E-03     105.370E-03    -52.0814E-03     55.5089E-03    -53.4693E-03     105.065E-03    -51.9066E-03     55.1224E-03
             776     8.54302E-03     88.1336E-03    -35.9332E+06    -71.9717E+06     6.24787E+06    -2.02649E+06    -53.1580E-03     105.316E-03    -52.1582E-03     57.5817E-03    -53.3624E-03     105.119E-03    -51.9705E-03     57.1559E-03
             777     9.39797E-03     88.1918E-03    -33.8610E+06    -58.3890E+06     9.87995E+06    -3.21654E+06    -52.4322E-03     104.598E-03    -52.1656E-03     59.2230E-03    -52.6726E-03     104.482E-03    -51.9824E-03     58.7520E-03
             778     10.2536E-03     88.2534E-03    -31.6648E+06    -39.3921E+06     15.9339E+06    -1.41249E+06    -52.2175E-03     104.349E-03    -52.1314E-03     62.5273E-03    -52.5053E-03     104.338E-03    -51.9487E-03     62.0541E-03
             779     11.1082E-03     88.3185E-03    -25.5539E+06    -16.4505E+06     24.2613E+06    -1.98484E+06    -52.3051E-03     104.399E-03    -52.0944E-03     63.6035E-03    -52.6280E-03     104.503E-03    -51.9122E-03     63.0942E-03
             780     11.9616E-03     88.3792E-03    -15.3919E+06     10.6640E+06     35.8239E+06    -1.88157E+06    -52.0269E-03     104.089E-03    -52.0616E-03     63.1211E-03    -52.3632E-03     104.304E-03    -51.8756E-03     62.6048E-03
             781     12.8198E-03     88.4416E-03    -8.11796E+06      45.387E+06     46.0267E+06     1.21389E+06    -51.9697E-03     103.983E-03    -52.0137E-03     59.8840E-03    -52.3285E-03     104.341E-03    -51.8377E-03     59.4121E-03
             782     13.6705E-03     88.4961E-03    -2.75313E+06     82.1497E+06     57.3851E+06     4.50348E+06    -51.5777E-03     103.552E-03    -51.9739E-03     53.2205E-03    -51.9652E-03     104.055E-03    -51.8021E-03     52.7990E-03
             783     14.5268E-03     88.5456E-03    -328.044E+03     102.546E+06     70.0960E+06     545.015E+03    -50.6822E-03     102.629E-03    -51.9464E-03     49.4092E-03    -51.0860E-03     103.192E-03    -51.7441E-03     48.9670E-03
             784     15.3837E-03     88.5916E-03    -9.58029E+06     98.0477E+06     67.6258E+06    -7.34896E+06    -50.0525E-03     101.921E-03    -51.8685E-03     42.7782E-03    -50.4860E-03     102.472E-03    -51.6586E-03     42.2150E-03
             785     16.2409E-03     88.6294E-03    -10.9022E+06     84.0071E+06     66.4923E+06    -2.69828E+06    -50.2475E-03     102.059E-03    -51.8110E-03     33.6903E-03    -50.8506E-03     102.727E-03    -51.5846E-03     33.0877E-03
             786     854.782E-06     88.8483E-03    -87.4187E+06    -195.270E+06    -85.8103E+06    -703.385E+03    -52.9486E-03     105.182E-03    -52.2339E-03     8.01634E-03    -52.9332E-03     104.513E-03    -52.2530E-03     7.96450E-03
             787     1.70656E-03     88.8615E-03    -83.4732E+06    -187.890E+06    -75.5603E+06    -681.543E+03    -51.8609E-03     104.305E-03    -52.4441E-03     15.6093E-03    -51.8859E-03     103.589E-03    -52.4285E-03     15.5543E-03
             788     2.56224E-03     88.8806E-03    -78.5812E+06    -178.316E+06    -63.4279E+06    -194.324E+03    -51.9831E-03     104.255E-03    -52.2723E-03     22.8438E-03    -52.0166E-03     103.563E-03    -52.2169E-03     22.7514E-03
             789     3.41724E-03     88.9065E-03    -73.0684E+06    -166.909E+06    -50.3457E+06    -379.555E+03    -51.8555E-03     104.056E-03    -52.2006E-03     29.6122E-03    -51.9130E-03     103.409E-03    -52.1044E-03     29.4719E-03
             790     4.27118E-03     88.9399E-03    -68.4197E+06    -155.949E+06    -39.5501E+06    -2.29890E+06    -51.7091E-03     103.832E-03    -52.1226E-03     35.2841E-03    -51.7899E-03     103.231E-03    -51.9951E-03     35.0864E-03
             791     5.12698E-03     88.9767E-03    -63.0815E+06    -145.209E+06    -32.3724E+06    -4.69860E+06    -52.1964E-03     104.267E-03    -52.0709E-03     41.3106E-03    -52.2896E-03     103.715E-03    -51.9308E-03     41.0399E-03
             792     5.98235E-03     89.0213E-03    -55.7249E+06    -127.096E+06    -23.2496E+06    -2.69167E+06    -52.7336E-03     104.825E-03    -52.0918E-03     46.8728E-03    -52.8477E-03     104.358E-03    -51.9429E-03     46.5758E-03
             793     6.83582E-03     89.0725E-03    -48.2307E+06    -109.064E+06    -11.8340E+06    -1.82568E+06    -53.0026E-03     105.163E-03    -52.1603E-03     51.2225E-03    -53.1434E-03     104.780E-03    -51.9914E-03     50.8871E-03
             794     7.68818E-03     89.1273E-03    -43.3862E+06    -93.2636E+06    -5.02662E+06    -3.15157E+06    -52.8420E-03     105.040E-03    -52.1985E-03     55.9366E-03    -53.0137E-03     104.742E-03    -52.0255E-03     55.5440E-03
             795     8.54388E-03     89.1863E-03    -38.6644E+06    -72.6528E+06     2.72861E+06    -1.53362E+06    -52.4728E-03     104.666E-03    -52.1935E-03     58.8134E-03    -52.6841E-03     104.475E-03    -52.0184E-03     58.4044E-03
             796     9.39793E-03     89.2431E-03    -33.7640E+06    -55.9971E+06     10.1217E+06    -3.11626E+06    -52.4322E-03     104.602E-03    -52.1702E-03     60.8916E-03    -52.6785E-03     104.501E-03    -51.9894E-03     60.4214E-03
             797     10.2521E-03     89.3048E-03    -27.9981E+06    -39.5295E+06     16.8814E+06    -4.42748E+06    -52.1415E-03     104.272E-03    -52.1301E-03     63.7040E-03    -52.4145E-03     104.256E-03    -51.9478E-03     63.1909E-03
             798     11.1083E-03     89.3687E-03    -23.0531E+06    -14.5704E+06     25.8288E+06    -1.60870E+06    -51.7524E-03     103.821E-03    -52.0685E-03     64.0249E-03    -52.0656E-03     103.926E-03    -51.8848E-03     63.5299E-03
             799     11.9655E-03     89.4314E-03    -23.7551E+06     6.97347E+06     30.4157E+06    -2.41416E+06    -51.7625E-03     103.760E-03    -51.9978E-03     62.4747E-03    -52.1247E-03     103.975E-03    -51.8214E-03     61.9560E-03
             800     12.8175E-03     89.4919E-03    -20.9937E+06     41.7307E+06     39.2956E+06    -2.79663E+06    -51.3835E-03     103.312E-03    -51.9285E-03     60.0861E-03    -51.7882E-03     103.676E-03    -51.7620E-03     59.5755E-03
             801     13.6760E-03     89.5499E-03    -12.2100E+06     78.0889E+06     52.0245E+06    -1.96448E+06    -51.0200E-03     102.881E-03    -51.8614E-03     54.2246E-03    -51.4395E-03     103.384E-03    -51.6968E-03     53.7318E-03
             802     14.5309E-03     89.5939E-03    -820.412E+03     101.865E+06     67.5670E+06     5.18796E+06    -50.8574E-03     102.681E-03    -51.8236E-03     50.4493E-03    -51.2592E-03     103.246E-03    -51.6323E-03     50.0677E-03
             803     15.3855E-03     89.6452E-03    -5.02347E+06     107.013E+06     73.2654E+06     8.41779E+06    -50.0907E-03     101.867E-03    -51.7760E-03     43.2440E-03    -50.5234E-03     102.449E-03    -51.5575E-03     42.9891E-03
             804     16.2417E-03     89.6743E-03    -7.00245E+06     83.8342E+06     68.0876E+06    -2.42085E+06    -51.2677E-03     103.011E-03    -51.7433E-03     35.5391E-03    -51.8695E-03     103.687E-03    -51.5143E-03     35.3476E-03
             805     852.090E-06     89.9030E-03    -86.6311E+06    -193.832E+06    -84.4571E+06    -641.938E+03    -52.9331E-03     104.743E-03    -51.8097E-03     7.99603E-03    -52.9209E-03     104.078E-03    -51.8254E-03     7.93246E-03
             806     1.70920E-03     89.9115E-03    -83.9347E+06    -188.751E+06    -77.0068E+06    -487.171E+03    -52.1097E-03     104.422E-03    -52.3120E-03     15.8408E-03    -52.1323E-03     103.704E-03    -52.3016E-03     15.7746E-03
             807     2.56345E-03     89.9326E-03    -79.7421E+06    -178.097E+06    -64.3743E+06    -413.588E+03    -52.0232E-03     104.268E-03    -52.2453E-03     23.1825E-03    -52.0594E-03     103.578E-03    -52.1933E-03     23.0892E-03
             808     3.41679E-03     89.9584E-03    -73.6213E+06    -164.757E+06    -50.6588E+06    -2.18904E+06    -51.8844E-03     104.074E-03    -52.1900E-03     29.0272E-03    -51.9457E-03     103.437E-03    -52.0977E-03     28.8689E-03
             809     4.27308E-03     89.9897E-03    -66.6854E+06    -152.502E+06    -39.8441E+06    -2.79303E+06    -52.0628E-03     104.208E-03    -52.1451E-03     35.0609E-03    -52.1374E-03     103.620E-03    -52.0265E-03     34.8559E-03
             810     5.12709E-03     90.0288E-03    -62.0244E+06    -140.361E+06    -31.1231E+06    -3.16802E+06    -52.8723E-03     105.053E-03    -52.1802E-03     40.8287E-03    -52.9660E-03     104.518E-03    -52.0424E-03     40.5748E-03
             811     5.97890E-03     90.0742E-03    -57.4326E+06    -129.389E+06    -26.0052E+06    -5.72261E+06    -53.0532E-03     105.308E-03    -52.2546E-03     46.5904E-03    -53.1672E-03     104.834E-03    -52.1137E-03     46.2537E-03
             812     6.83278E-03     90.1247E-03    -47.9175E+06    -109.826E+06    -14.8152E+06    -5.15736E+06    -52.4622E-03     104.746E-03    -52.2835E-03     52.1482E-03    -52.5942E-03     104.361E-03    -52.1288E-03     51.7791E-03
             813     7.68939E-03     90.1790E-03    -43.1076E+06    -92.4789E+06    -6.04936E+06    -3.73145E+06    -51.8721E-03     104.100E-03    -52.2276E-03     56.5715E-03    -52.0398E-03     103.804E-03    -52.0612E-03     56.1821E-03
             814     8.54421E-03     90.2364E-03    -40.9480E+06    -77.7316E+06    -1.30219E+06    -3.10452E+06    -51.6499E-03     103.773E-03    -52.1236E-03     59.2644E-03    -51.8568E-03     103.563E-03    -51.9580E-03     58.8453E-03
             815     9.40013E-03     90.2956E-03    -34.7712E+06    -50.2856E+06     10.4971E+06    -2.70372E+06    -52.4064E-03     104.474E-03    -52.0680E-03     61.8953E-03    -52.6637E-03     104.399E-03    -51.8922E-03     61.4387E-03
             816     10.2547E-03     90.3569E-03    -31.3958E+06    -37.2819E+06     17.1321E+06    -3.86024E+06    -52.8460E-03     104.918E-03    -52.0719E-03     62.8495E-03    -53.1391E-03     104.917E-03    -51.8866E-03     62.3359E-03
             817     11.1091E-03     90.4187E-03    -27.2953E+06    -21.8309E+06     20.9714E+06    -3.48170E+06    -51.9674E-03     104.012E-03    -52.0442E-03     62.8628E-03    -52.2814E-03     104.090E-03    -51.8681E-03     62.3413E-03
             818     11.9623E-03     90.4832E-03    -24.0105E+06     10.5416E+06     31.0467E+06    -262.881E+03    -51.1920E-03     103.163E-03    -51.9708E-03     62.2493E-03    -51.5575E-03     103.390E-03    -51.7960E-03     61.7711E-03
             819     12.8207E-03     90.5422E-03    -19.5869E+06     45.5813E+06     41.2689E+06    -1.85687E+06    -50.7727E-03     102.642E-03    -51.8688E-03     59.2656E-03    -51.1772E-03     103.019E-03    -51.7001E-03     58.7723E-03
             820     13.6757E-03     90.5982E-03    -13.6459E+06     76.1364E+06     50.6767E+06    -6.96827E+06    -50.7210E-03     102.496E-03    -51.7745E-03     53.0488E-03    -51.1394E-03     102.989E-03    -51.6118E-03     52.4923E-03
             821     14.5313E-03     90.6475E-03    -10.2908E+06     86.4835E+06     53.1518E+06    -2.04551E+06    -50.8918E-03     102.594E-03    -51.7024E-03     47.8038E-03    -51.2945E-03     103.113E-03    -51.5471E-03     47.3228E-03
             822     15.3885E-03     90.6924E-03     7.26078E+06     110.778E+06     74.4464E+06     6.03878E+06    -51.5971E-03     103.320E-03    -51.7228E-03     39.9731E-03    -51.9789E-03     103.905E-03    -51.5218E-03     39.6464E-03
             823     16.2447E-03     90.7272E-03     9.83163E+06     97.1602E+06     79.8306E+06     5.48154E+06    -52.9746E-03     104.784E-03    -51.8097E-03     33.9254E-03    -53.5318E-03     105.490E-03    -51.5657E-03     33.7948E-03
             824     857.106E-06     90.9545E-03    -88.4121E+06    -193.717E+06    -84.7090E+06     649.102E+03    -52.3310E-03     104.128E-03    -51.7968E-03     7.65476E-03    -52.3346E-03     103.466E-03    -51.8113E-03     7.63662E-03
             825     1.70801E-03     90.9638E-03    -84.3166E+06    -187.957E+06    -75.8451E+06    -949.922E+03    -52.5729E-03     104.748E-03    -52.1751E-03     14.7597E-03    -52.6036E-03     104.038E-03    -52.1595E-03     14.6896E-03
             826     2.56170E-03     90.9846E-03    -79.4290E+06    -176.961E+06    -64.7479E+06    -695.718E+03    -52.0745E-03     104.337E-03    -52.2623E-03     22.3115E-03    -52.1132E-03     103.655E-03    -52.2143E-03     22.2111E-03
             827     3.41792E-03     91.0089E-03    -74.2927E+06    -162.225E+06    -52.7103E+06    -2.31265E+06    -52.1230E-03     104.353E-03    -52.2296E-03     28.6855E-03    -52.1880E-03     103.732E-03    -52.1502E-03     28.5280E-03
             828     4.27065E-03     91.0421E-03    -68.2726E+06    -151.534E+06    -42.8029E+06    -5.03918E+06    -52.8288E-03     105.100E-03    -52.2710E-03     35.1390E-03    -52.9083E-03     104.524E-03    -52.1663E-03     34.9034E-03
             829     5.12413E-03     91.0812E-03    -61.1175E+06    -139.146E+06    -33.2262E+06    -3.83302E+06    -52.6782E-03     105.015E-03    -52.3371E-03     41.5185E-03    -52.7668E-03     104.490E-03    -52.2129E-03     41.2587E-03
             830     5.97955E-03     91.1275E-03    -55.5258E+06    -124.305E+06    -23.9554E+06    -3.65871E+06    -52.0870E-03     104.404E-03    -52.3172E-03     47.8409E-03    -52.2028E-03     103.951E-03    -52.1762E-03     47.5397E-03
             831     6.83516E-03     91.1748E-03    -51.8313E+06    -110.361E+06    -16.9373E+06    -5.95074E+06    -52.0163E-03     104.256E-03    -52.2393E-03     53.4339E-03    -52.1649E-03     103.878E-03    -52.0888E-03     53.0589E-03
             832     7.68896E-03     91.2309E-03    -45.1942E+06    -95.3448E+06    -8.69147E+06    -6.58687E+06    -51.9071E-03     104.068E-03    -52.1606E-03     56.4174E-03    -52.0763E-03     103.763E-03    -52.0003E-03     55.9928E-03
             833     8.54516E-03     91.2856E-03    -39.4605E+06    -77.3222E+06    -972.763E+03    -5.61430E+06    -51.8328E-03     103.912E-03    -52.0795E-03     58.5707E-03    -52.0337E-03     103.701E-03    -51.9151E-03     58.1174E-03
             834     9.40045E-03     91.3471E-03    -37.0873E+06    -51.7355E+06     8.49607E+06    -2.65977E+06    -52.4680E-03     104.505E-03    -52.0374E-03     61.5334E-03    -52.7319E-03     104.429E-03    -51.8662E-03     61.0761E-03
             835     10.2537E-03     91.4102E-03    -30.6814E+06    -35.1789E+06     18.7568E+06    -4.63332E+06    -52.9365E-03     104.997E-03    -52.0608E-03     61.7770E-03    -53.2323E-03     105.005E-03    -51.8715E-03     61.2477E-03
             836     11.1070E-03     91.4706E-03    -26.9955E+06    -24.0591E+06     19.1456E+06    -6.47113E+06    -52.2270E-03     104.267E-03    -52.0402E-03     61.6226E-03    -52.5350E-03     104.338E-03    -51.8704E-03     61.0545E-03
             837     11.9657E-03     91.5316E-03    -19.7065E+06     7.65584E+06     29.7933E+06    -1.43534E+06    -51.0930E-03     103.066E-03    -51.9726E-03     61.0770E-03    -51.4276E-03     103.271E-03    -51.8061E-03     60.5866E-03
             838     12.8199E-03     91.5935E-03    -13.1354E+06     52.0444E+06     43.8817E+06    -1.04344E+06    -50.6518E-03     102.518E-03    -51.8666E-03     57.7119E-03    -51.0361E-03     102.914E-03    -51.7036E-03     57.2286E-03
             839     13.6759E-03     91.6484E-03    -16.1578E+06     78.4777E+06     48.7187E+06    -1.14495E+06    -51.0596E-03     102.836E-03    -51.7765E-03     52.6393E-03    -51.4941E-03     103.351E-03    -51.6232E-03     52.1541E-03
             840     14.5316E-03     91.6982E-03    -17.6439E+06     84.2759E+06     49.8160E+06    -4.46185E+06    -52.4206E-03     104.188E-03    -51.7674E-03     46.2711E-03    -52.8577E-03     104.717E-03    -51.6149E-03     45.7351E-03
             841     15.3850E-03     91.7430E-03    -12.3964E+06     98.5940E+06     60.8465E+06    -3.97431E+06    -53.8032E-03     105.676E-03    -51.8731E-03     38.4676E-03    -54.2312E-03     106.234E-03    -51.6938E-03     37.9212E-03
             842     16.2325E-03     91.7869E-03    -9.90945E+06     94.6899E+06     70.5071E+06     7.37891E+06    -51.1205E-03     103.090E-03    -51.9698E-03     31.4773E-03    -51.5118E-03     103.578E-03    -51.7402E-03     31.1572E-03
             843     852.108E-06     92.0047E-03    -88.0164E+06    -193.501E+06    -86.6875E+06    -1.21980E+06    -52.7238E-03     104.564E-03    -51.8407E-03     8.13795E-03    -52.7182E-03     103.897E-03    -51.8659E-03     8.11337E-03
             844     1.70845E-03     92.0181E-03    -83.9121E+06    -185.992E+06    -75.9290E+06    -996.446E+03    -52.2026E-03     104.472E-03    -52.2698E-03     14.8893E-03    -52.2279E-03     103.764E-03    -52.2580E-03     14.8169E-03
             845     2.56305E-03     92.0348E-03    -79.5209E+06    -176.131E+06    -66.3018E+06    -2.48009E+06    -52.1681E-03     104.416E-03    -52.2482E-03     22.5102E-03    -52.2010E-03     103.736E-03    -52.2090E-03     22.3849E-03
             846     3.41639E-03     92.0612E-03    -72.7063E+06    -160.228E+06    -54.6161E+06    -1.84228E+06    -52.4039E-03     104.655E-03    -52.2515E-03     29.7988E-03    -52.4593E-03     104.043E-03    -52.1868E-03     29.6517E-03
             847     4.27097E-03     92.0952E-03    -68.7754E+06    -147.779E+06    -42.3211E+06    -3.02114E+06    -52.5417E-03     104.839E-03    -52.2976E-03     37.1048E-03    -52.6313E-03     104.283E-03    -52.1952E-03     36.8984E-03
             848     5.12495E-03     92.1338E-03    -64.1455E+06    -140.066E+06    -34.7333E+06    -7.28120E+06    -52.2770E-03     104.576E-03    -52.2987E-03     42.5200E-03    -52.3796E-03     104.054E-03    -52.1762E-03     42.2133E-03
             849     5.98054E-03     92.1763E-03    -56.9820E+06    -125.788E+06    -26.7736E+06    -6.55027E+06    -51.9178E-03     104.152E-03    -52.2338E-03     47.4276E-03    -52.0337E-03     103.696E-03    -52.1027E-03     47.0884E-03
             850     6.83529E-03     92.2278E-03    -51.0104E+06    -105.490E+06    -15.1675E+06    -4.51524E+06    -52.0809E-03     104.252E-03    -52.1707E-03     52.4815E-03    -52.2342E-03     103.893E-03    -52.0197E-03     52.1243E-03
             851     7.69064E-03     92.2813E-03    -47.8622E+06    -91.6691E+06    -8.65357E+06    -7.05384E+06    -52.2696E-03     104.395E-03    -52.1257E-03     55.2026E-03    -52.4573E-03     104.113E-03    -51.9667E-03     54.7698E-03
             852     8.54448E-03     92.3375E-03    -44.5394E+06    -78.5909E+06    -4.88469E+06    -8.07689E+06    -52.3902E-03     104.479E-03    -52.0888E-03     58.3546E-03    -52.6110E-03     104.277E-03    -51.9347E-03     57.8618E-03
             853     9.39828E-03     92.3984E-03    -36.8679E+06    -55.4298E+06     5.78615E+06    -6.01643E+06    -52.4978E-03     104.573E-03    -52.0747E-03     62.3079E-03    -52.7565E-03     104.487E-03    -51.9119E-03     61.7980E-03
             854     10.2541E-03     92.4624E-03    -30.3553E+06    -37.7302E+06     14.1150E+06    -5.82538E+06    -52.3719E-03     104.431E-03    -52.0594E-03     62.0474E-03    -52.6558E-03     104.433E-03    -51.8901E-03     61.5085E-03
             855     11.1101E-03     92.5221E-03    -25.0501E+06    -18.6643E+06     21.1736E+06    -5.82995E+06    -52.2320E-03     104.266E-03    -52.0344E-03     60.9653E-03    -52.5404E-03     104.358E-03    -51.8651E-03     60.4064E-03
             856     11.9610E-03     92.5828E-03    -20.3015E+06     4.14552E+06     27.1564E+06    -5.61171E+06    -51.7711E-03     103.756E-03    -51.9853E-03     60.7194E-03    -52.1038E-03     103.953E-03    -51.8261E-03     60.1592E-03
             857     12.8187E-03     92.6423E-03    -18.1135E+06     44.7077E+06     37.0702E+06     265.303E+03    -51.3284E-03     103.243E-03    -51.9151E-03     57.5939E-03    -51.7201E-03     103.622E-03    -51.7683E-03     57.1154E-03
             858     13.6753E-03     92.6988E-03    -17.1860E+06     82.8159E+06     51.2412E+06     2.82881E+06    -52.1148E-03     104.015E-03    -51.9004E-03     51.9472E-03    -52.5667E-03     104.551E-03    -51.7393E-03     51.4983E-03
             859     14.5285E-03     92.7516E-03    -14.6174E+06     91.6585E+06     57.1928E+06    -543.501E+03    -53.5298E-03     105.493E-03    -51.9631E-03     47.0328E-03    -53.9743E-03     106.045E-03    -51.7888E-03     46.5380E-03
             860     15.3776E-03     92.8014E-03    -15.5303E+06     87.1542E+06     56.7132E+06     2.27936E+06    -52.4191E-03     104.449E-03    -52.0295E-03     41.4313E-03    -52.8360E-03     104.955E-03    -51.8498E-03     40.9997E-03
             861     16.2360E-03     92.8366E-03    -5.38670E+06     89.2738E+06     68.6264E+06     2.98549E+06    -48.6098E-03     100.614E-03    -52.0040E-03     31.1707E-03    -48.9604E-03     101.063E-03    -51.7825E-03     30.8346E-03
             862     855.450E-06     93.0602E-03    -87.7282E+06    -191.369E+06    -85.3645E+06    -1.77589E+06    -52.0558E-03     103.954E-03    -51.8980E-03     10.3222E-03    -52.0677E-03     103.299E-03    -51.9201E-03     10.2729E-03
             863     1.70817E-03     93.0667E-03    -85.2136E+06    -185.144E+06    -78.6398E+06    -1.41922E+06    -52.3018E-03     104.338E-03    -52.0357E-03     15.1709E-03    -52.3369E-03     103.643E-03    -52.0369E-03     15.0869E-03
             864     2.56304E-03     93.0883E-03    -80.2898E+06    -172.754E+06    -68.1948E+06    -3.74350E+06    -52.3483E-03     104.491E-03    -52.1426E-03     22.7776E-03    -52.3930E-03     103.837E-03    -52.1166E-03     22.6393E-03
             865     3.41715E-03     93.1127E-03    -76.0866E+06    -160.918E+06    -57.8722E+06    -4.26346E+06    -52.2459E-03     104.431E-03    -52.1851E-03     29.7347E-03    -52.3172E-03     103.829E-03    -52.1308E-03     29.5584E-03
             866     4.27197E-03     93.1466E-03    -69.3819E+06    -145.507E+06    -43.9247E+06    -2.77855E+06    -51.8412E-03     104.005E-03    -52.1640E-03     36.8125E-03    -51.9357E-03     103.464E-03    -52.0720E-03     36.6092E-03
             867     5.12727E-03     93.1854E-03    -64.7849E+06    -132.035E+06    -32.4980E+06    -5.61430E+06    -52.4130E-03     104.558E-03    -52.1453E-03     42.3192E-03    -52.5337E-03     104.075E-03    -52.0224E-03     42.0320E-03
             868     5.97990E-03     93.2290E-03    -60.4450E+06    -125.737E+06    -28.1678E+06    -9.56346E+06    -52.8273E-03     105.003E-03    -52.1755E-03     46.7229E-03    -52.9589E-03     104.555E-03    -52.0463E-03     46.3424E-03
             869     6.83474E-03     93.2777E-03    -53.7335E+06    -108.715E+06    -20.6623E+06    -7.31356E+06    -52.2133E-03     104.388E-03    -52.1749E-03     52.0093E-03    -52.3688E-03     104.027E-03    -52.0426E-03     51.6158E-03
             870     7.68904E-03     93.3339E-03    -50.0116E+06    -87.6190E+06    -11.2637E+06    -5.26242E+06    -52.2711E-03     104.411E-03    -52.1395E-03     55.4662E-03    -52.4742E-03     104.158E-03    -51.9963E-03     55.0514E-03
             871     8.54410E-03     93.3882E-03    -44.6218E+06    -75.4363E+06    -4.28384E+06    -9.09384E+06    -52.7166E-03     104.847E-03    -52.1303E-03     58.3697E-03    -52.9447E-03     104.661E-03    -51.9776E-03     57.8572E-03
             872     9.39965E-03     93.4508E-03    -37.4619E+06    -57.2276E+06     2.50006E+06    -10.3216E+06    -52.3889E-03     104.502E-03    -52.1128E-03     61.7251E-03    -52.6446E-03     104.414E-03    -51.9630E-03     61.1571E-03
             873     10.2536E-03     93.5127E-03    -33.1453E+06    -39.5946E+06     10.4522E+06    -7.63029E+06    -51.9746E-03     104.050E-03    -52.0756E-03     61.6611E-03    -52.2636E-03     104.051E-03    -51.9179E-03     61.1033E-03
             874     11.1073E-03     93.5742E-03    -26.3913E+06    -16.9539E+06     20.3081E+06    -7.63582E+06    -51.9062E-03     103.934E-03    -52.0283E-03     60.8918E-03    -52.2228E-03     104.038E-03    -51.8639E-03     60.3134E-03
             875     11.9661E-03     93.6341E-03    -22.7289E+06     4.70446E+06     26.7624E+06    -6.69658E+06    -52.3707E-03     104.365E-03    -51.9947E-03     60.6389E-03    -52.7206E-03     104.574E-03    -51.8347E-03     60.0544E-03
             876     12.8185E-03     93.6937E-03    -17.2692E+06     34.6045E+06     35.9242E+06    -2.00056E+06    -52.9133E-03     104.916E-03    -52.0028E-03     57.7261E-03    -53.2899E-03     105.250E-03    -51.8483E-03     57.1948E-03
             877     13.6706E-03     93.7517E-03    -9.42553E+06     78.4886E+06     51.6282E+06     3.48517E+06    -52.8373E-03     104.879E-03    -52.0418E-03     54.0306E-03    -53.2497E-03     105.387E-03    -51.8838E-03     53.5773E-03
             878     14.5236E-03     93.8061E-03    -11.9786E+06     92.7196E+06     57.4146E+06     6.96036E+06    -51.8062E-03     103.868E-03    -52.0614E-03     50.2677E-03    -52.2395E-03     104.421E-03    -51.8914E-03     49.8949E-03
             879     15.3827E-03     93.8524E-03    -8.02130E+06     89.2033E+06     63.8427E+06     4.07647E+06    -49.6252E-03     101.645E-03    -52.0195E-03     41.0686E-03    -50.0127E-03     102.135E-03    -51.8180E-03     40.6960E-03
             880     16.2404E-03     93.8818E-03    -3.22113E+06     93.1048E+06     73.3487E+06    -597.846E+03    -49.3372E-03     101.269E-03    -51.9318E-03     29.6751E-03    -49.6876E-03     101.726E-03    -51.6953E-03     29.2900E-03
             881     855.516E-06     94.1091E-03    -89.3112E+06    -189.785E+06    -87.1265E+06    -70.9842E+03    -51.4292E-03     103.347E-03    -51.9175E-03     10.1699E-03    -51.4528E-03     102.708E-03    -51.9485E-03     10.1432E-03
             882     1.70966E-03     94.1214E-03    -86.9613E+06    -182.841E+06    -80.6610E+06    -2.10604E+06    -52.5343E-03     104.374E-03    -51.8400E-03     14.7092E-03    -52.5797E-03     103.698E-03    -51.8521E-03     14.6312E-03
             883     2.56273E-03     94.1380E-03     -82.433E+06    -168.945E+06    -69.0119E+06    -3.16904E+06    -52.3591E-03     104.433E-03    -52.0739E-03     22.5737E-03    -52.4183E-03     103.802E-03    -52.0545E-03     22.4452E-03
             884     3.41723E-03     94.1664E-03     -77.342E+06    -158.109E+06    -56.8630E+06    -5.37758E+06    -52.1075E-03     104.240E-03    -52.1324E-03     29.4084E-03    -52.1900E-03     103.652E-03    -52.0753E-03     29.2094E-03
             885     4.27162E-03     94.1958E-03    -70.6607E+06    -146.605E+06    -46.9733E+06    -6.04193E+06    -52.0698E-03     104.187E-03    -52.1173E-03     35.6794E-03    -52.1643E-03     103.647E-03    -52.0372E-03     35.4306E-03
             886     5.12660E-03     94.2376E-03    -64.2578E+06    -128.836E+06    -34.6695E+06    -4.37184E+06    -52.2181E-03     104.326E-03    -52.1082E-03     42.2955E-03    -52.3385E-03     103.862E-03    -52.0015E-03     42.0262E-03
             887     5.98107E-03     94.2822E-03    -62.2712E+06    -117.517E+06    -27.1692E+06    -7.19153E+06    -52.9402E-03     105.087E-03    -52.1470E-03     46.7973E-03    -53.0955E-03     104.683E-03    -52.0222E-03     46.4466E-03
             888     6.83405E-03     94.3294E-03    -57.6076E+06    -110.902E+06    -24.1501E+06    -11.0713E+06    -52.8492E-03     105.043E-03    -52.1938E-03     51.1272E-03    -53.0168E-03     104.683E-03    -52.0702E-03     50.6771E-03
             889     7.69043E-03     94.3836E-03    -47.3189E+06    -88.6647E+06    -12.7753E+06    -8.85772E+06    -52.3748E-03     104.574E-03    -52.1987E-03     55.4442E-03    -52.5620E-03     104.315E-03    -52.0654E-03     54.9805E-03
             890     8.54382E-03     94.4428E-03    -41.8663E+06    -69.7768E+06    -2.71170E+06    -9.00300E+06    -52.7314E-03     104.925E-03    -52.1938E-03     58.2870E-03    -52.9581E-03     104.763E-03    -52.0455E-03     57.7729E-03
             891     9.39667E-03     94.5005E-03    -38.5823E+06    -56.2872E+06     2.56173E+06    -12.3979E+06    -52.3145E-03     104.489E-03    -52.1745E-03     60.6992E-03    -52.5779E-03     104.408E-03    -52.0242E-03     60.1013E-03
             892     10.2531E-03     94.5649E-03    -30.6052E+06    -37.4270E+06     12.9120E+06    -12.6017E+06    -51.5719E-03     103.691E-03    -52.1193E-03     61.8763E-03    -51.8556E-03     103.696E-03    -51.9561E-03     61.2571E-03
             893     11.1100E-03     94.6241E-03    -27.8600E+06    -18.1186E+06     18.0580E+06    -9.24543E+06    -52.2969E-03     104.351E-03    -52.0540E-03     61.0426E-03    -52.6168E-03     104.455E-03    -51.8971E-03     60.4396E-03
             894     11.9617E-03     94.6858E-03    -24.7941E+06     1.71323E+06     24.9372E+06    -6.95839E+06    -53.0085E-03     105.070E-03    -52.0612E-03     59.7126E-03    -53.3608E-03     105.268E-03    -51.9030E-03     59.1186E-03
             895     12.8161E-03     94.7482E-03    -19.0589E+06     28.1061E+06     31.9598E+06    -5.01983E+06    -52.7392E-03     104.815E-03    -52.0756E-03     58.1309E-03    -53.1091E-03     105.124E-03    -51.9290E-03     57.5643E-03
             896     13.6710E-03     94.8038E-03    -13.1080E+06     66.8126E+06     43.4778E+06     1.87656E+06    -51.7182E-03     103.775E-03    -52.0569E-03     55.7103E-03    -52.1210E-03     104.242E-03    -51.9174E-03     55.2498E-03
             897     14.5282E-03     94.8575E-03    -7.60318E+06     91.7404E+06     59.1760E+06     6.81537E+06    -50.1550E-03     102.168E-03    -52.0130E-03     50.4239E-03    -50.5667E-03     102.707E-03    -51.8391E-03     50.0647E-03
             898     15.3828E-03     94.9000E-03    -5.53838E+06     96.3530E+06     69.7931E+06     5.75601E+06    -49.5647E-03     101.502E-03    -51.9371E-03     39.7708E-03    -49.9587E-03     102.016E-03    -51.7198E-03     39.4194E-03
             899     16.2392E-03     94.9322E-03    -5.80286E+06     96.3806E+06     74.6898E+06     2.29970E+06    -51.2116E-03     103.104E-03    -51.8920E-03     31.0200E-03    -51.5864E-03     103.583E-03    -51.6499E-03     30.6557E-03
             900     853.313E-06     95.1583E-03    -90.6758E+06    -187.836E+06    -87.5076E+06     464.281E+03    -52.1323E-03     104.437E-03    -52.3045E-03     9.09889E-03    -52.1483E-03     103.808E-03    -52.3382E-03     9.06239E-03
             901     1.70869E-03     95.1735E-03    -87.3392E+06    -179.902E+06    -78.9487E+06    -2.24439E+06    -51.8713E-03     104.020E-03    -52.1486E-03     14.7088E-03    -51.9193E-03     103.352E-03    -52.1559E-03     14.6227E-03
             902     2.56294E-03     95.1907E-03    -82.2354E+06    -165.620E+06    -67.6070E+06    -3.51343E+06    -52.0250E-03     104.109E-03    -52.0836E-03     21.9364E-03    -52.0857E-03     103.488E-03    -52.0623E-03     21.8006E-03
             903     3.41788E-03     95.2163E-03    -77.0574E+06    -153.716E+06    -56.7727E+06    -5.18528E+06    -52.2715E-03     104.373E-03    -52.1016E-03     29.5794E-03    -52.3558E-03     103.804E-03    -52.0508E-03     29.3812E-03
             904     4.27171E-03     95.2499E-03    -71.9938E+06    -142.732E+06    -46.6481E+06    -7.00522E+06    -52.5582E-03     104.718E-03    -52.1601E-03     35.4914E-03    -52.6637E-03     104.197E-03    -52.0820E-03     35.2322E-03
             905     5.12547E-03     95.2871E-03    -67.0726E+06    -130.838E+06    -38.9962E+06    -7.94027E+06    -52.3701E-03     104.560E-03    -52.1900E-03     41.9145E-03    -52.4939E-03     104.095E-03    -52.0980E-03     41.5977E-03
             906     5.98111E-03     95.3346E-03    -63.4344E+06    -113.882E+06    -30.2604E+06    -7.55428E+06    -52.5870E-03     104.788E-03    -52.2006E-03     46.6480E-03    -52.7479E-03     104.407E-03    -52.0948E-03     46.2893E-03
             907     6.83490E-03     95.3831E-03    -56.0683E+06    -101.445E+06    -19.1133E+06    -11.4492E+06    -53.1811E-03     105.447E-03    -52.2656E-03     50.0568E-03    -53.3605E-03     105.122E-03    -52.1328E-03     49.5962E-03
             908     7.68638E-03     95.4349E-03    -47.7271E+06    -89.9956E+06    -13.0357E+06    -14.1884E+06    -52.7304E-03     105.028E-03    -52.2974E-03     54.8739E-03    -52.9172E-03     104.764E-03    -52.1629E-03     54.3362E-03
             909     8.54308E-03     95.4937E-03    -42.8349E+06    -69.8818E+06    -5.73413E+06    -11.4182E+06    -52.1481E-03     104.407E-03    -52.2589E-03     58.9421E-03    -52.3746E-03     104.250E-03    -52.1242E-03     58.4013E-03
             910     9.39826E-03     95.5546E-03    -39.2330E+06    -52.0256E+06     2.69052E+06    -11.7644E+06    -52.0538E-03     104.256E-03    -52.2019E-03     60.3938E-03    -52.3222E-03     104.192E-03    -52.0561E-03     59.8115E-03
             911     10.2531E-03     95.6120E-03    -37.0836E+06    -37.2705E+06     8.58917E+06    -12.7856E+06    -52.0933E-03     104.241E-03    -52.1474E-03     61.6382E-03    -52.4003E-03     104.259E-03    -51.9966E-03     61.0170E-03
             912     11.1072E-03     95.6779E-03    -32.3600E+06    -21.1095E+06     14.8199E+06    -11.5732E+06    -52.7283E-03     104.852E-03    -52.1233E-03     62.1239E-03    -53.0611E-03     104.952E-03    -51.9717E-03     61.4898E-03
             913     11.9613E-03     95.7398E-03    -28.1453E+06    -4.24452E+06     20.3976E+06    -7.85719E+06    -52.7063E-03     104.831E-03    -52.1248E-03     60.7338E-03    -53.0594E-03     105.010E-03    -51.9758E-03     60.1325E-03
             914     12.8164E-03     95.7979E-03    -27.0291E+06     26.5256E+06     27.5283E+06    -2.90959E+06    -51.8705E-03     103.966E-03    -52.0956E-03     59.0819E-03    -52.2710E-03     104.285E-03    -51.9572E-03     58.5516E-03
             915     13.6721E-03     95.8565E-03    -22.9189E+06     63.8837E+06     40.7318E+06    -1.40376E+06    -51.0517E-03     103.094E-03    -52.0423E-03     54.1232E-03    -51.4915E-03     103.561E-03    -51.8980E-03     53.6280E-03
             916     14.5272E-03     95.9052E-03    -10.6039E+06     86.4902E+06     53.6544E+06     1.01180E+06    -50.1346E-03     102.098E-03    -51.9634E-03     47.0039E-03    -50.5407E-03     102.618E-03    -51.8052E-03     46.5672E-03
             917     15.3862E-03     95.9510E-03    -3.12198E+06     96.2724E+06     66.1909E+06     4.01341E+06    -50.4740E-03     102.385E-03    -51.9109E-03     38.0448E-03    -50.8492E-03     102.899E-03    -51.7150E-03     37.6569E-03
             918     16.2407E-03     95.9833E-03    -5.00977E+06     98.7457E+06     76.1358E+06     5.18422E+06    -51.5298E-03     103.453E-03    -51.9237E-03     31.2964E-03    -51.9064E-03     103.942E-03    -51.6789E-03     30.9637E-03
             919     853.822E-06     96.2124E-03    -91.1508E+06    -184.675E+06    -88.3727E+06    -1.08176E+06    -52.3318E-03     104.964E-03    -52.6323E-03     8.61410E-03    -52.3545E-03     104.360E-03    -52.6742E-03     8.56619E-03
             920     1.70738E-03     96.2237E-03    -87.4850E+06    -176.328E+06    -78.0103E+06    -3.25800E+06    -51.7217E-03     104.059E-03    -52.3376E-03     15.2339E-03    -51.7817E-03     103.415E-03    -52.3451E-03     15.1329E-03
             921     2.56350E-03     96.2418E-03    -83.1235E+06    -163.836E+06    -69.0746E+06    -3.43986E+06    -52.0674E-03     104.241E-03    -52.1737E-03     22.0774E-03    -52.1386E-03     103.638E-03    -52.1610E-03     21.9413E-03
             922     3.41698E-03     96.2688E-03    -78.7216E+06    -148.849E+06    -57.5604E+06    -4.58862E+06    -52.5398E-03     104.747E-03    -52.2070E-03     28.9121E-03    -52.6410E-03     104.208E-03    -52.1648E-03     28.7199E-03
             923     4.27144E-03     96.3013E-03    -73.1946E+06    -138.262E+06    -46.7973E+06    -7.77865E+06    -52.6013E-03     104.887E-03    -52.2853E-03     34.8816E-03    -52.7208E-03     104.392E-03    -52.2127E-03     34.6086E-03
             924     5.12544E-03     96.3406E-03    -67.2989E+06    -126.508E+06    -38.0327E+06    -10.4192E+06    -52.6917E-03     105.022E-03    -52.3304E-03     41.4557E-03    -52.8273E-03     104.580E-03    -52.2395E-03     41.1019E-03
             925     5.97830E-03     96.3850E-03    -59.8003E+06    -110.917E+06    -28.3488E+06    -11.2216E+06    -52.5485E-03     104.893E-03    -52.3445E-03     47.1744E-03    -52.7026E-03     104.523E-03    -52.2387E-03     46.7651E-03
             926     6.83326E-03     96.4365E-03    -54.7409E+06    -96.0762E+06    -19.1094E+06    -11.5097E+06    -52.5157E-03     104.853E-03    -52.3374E-03     50.8349E-03    -52.6960E-03     104.554E-03    -52.2143E-03     50.3825E-03
             927     7.68895E-03     96.4877E-03    -51.9091E+06    -87.5168E+06    -14.5663E+06    -13.3850E+06    -52.6690E-03     104.990E-03    -52.3211E-03     55.2907E-03    -52.8771E-03     104.745E-03    -52.1918E-03     54.7660E-03
             928     8.54166E-03     96.5445E-03    -47.1001E+06    -72.1875E+06    -9.70802E+06    -13.1288E+06    -52.3548E-03     104.637E-03    -52.2818E-03     59.1504E-03    -52.5926E-03     104.479E-03    -52.1573E-03     58.5896E-03
             929     9.39805E-03     96.6046E-03    -44.0772E+06    -49.5359E+06    -405.982E+03    -9.90648E+06    -52.3541E-03     104.599E-03    -52.2452E-03     59.5505E-03    -52.6423E-03     104.556E-03    -52.1115E-03     58.9987E-03
             930     10.2521E-03     96.6659E-03    -42.0034E+06    -33.7916E+06     7.49277E+06    -10.2451E+06    -52.5440E-03     104.774E-03    -52.2302E-03     60.7294E-03    -52.8796E-03     104.819E-03    -52.0829E-03     60.1360E-03
             931     11.1063E-03     96.7287E-03    -37.4012E+06    -24.1622E+06     11.2246E+06    -13.4707E+06    -52.1710E-03     104.367E-03    -52.1964E-03     62.7680E-03    -52.5234E-03     104.469E-03    -52.0510E-03     62.1091E-03
             932     11.9623E-03     96.7917E-03    -32.6574E+06    -9.06260E+06     16.4607E+06    -9.65157E+06    -52.4166E-03     104.579E-03    -52.1624E-03     60.3734E-03    -52.7812E-03     104.748E-03    -52.0196E-03     59.7486E-03
             933     12.8167E-03     96.8494E-03    -25.1616E+06     22.9542E+06     27.1497E+06    -4.95641E+06    -52.0547E-03     104.191E-03    -52.1360E-03     56.4094E-03    -52.4374E-03     104.487E-03    -51.9970E-03     55.8487E-03
             934     13.6712E-03     96.9078E-03    -20.7273E+06     61.9261E+06     39.8315E+06    -3.40297E+06    -50.5661E-03     102.635E-03    -52.0691E-03     52.3644E-03    -50.9843E-03     103.084E-03    -51.9297E-03     51.8549E-03
             935     14.5271E-03     96.9556E-03    -18.9454E+06     84.8922E+06     44.0771E+06    -1.99800E+06    -50.4712E-03     102.427E-03    -51.9559E-03     47.5363E-03    -50.8995E-03     102.962E-03    -51.8311E-03     47.0684E-03
             936     15.3804E-03     97.0005E-03    -14.8410E+06     89.1817E+06     50.5316E+06     2.48237E+06    -51.1760E-03     103.089E-03    -51.9128E-03     40.1713E-03    -51.5774E-03     103.607E-03    -51.7680E-03     39.7649E-03
             937     16.2349E-03     97.0376E-03    -2.85376E+06     99.1520E+06     74.4468E+06     5.17604E+06    -49.8371E-03     101.773E-03    -51.9360E-03     31.9496E-03    -50.1972E-03     102.259E-03    -51.7034E-03     31.6380E-03
             938     853.826E-06     97.2647E-03    -91.8924E+06    -181.884E+06    -91.1170E+06    -3.12615E+06    -52.6394E-03     104.679E-03    -52.0399E-03     7.48519E-03    -52.6702E-03     104.098E-03    -52.0985E-03     7.43425E-03
             939     1.70936E-03     97.2749E-03    -87.7019E+06    -171.766E+06    -80.2638E+06    -3.35042E+06    -52.3268E-03     104.667E-03    -52.3397E-03     14.6480E-03    -52.3882E-03     104.044E-03    -52.3648E-03     14.5517E-03
             940     2.56196E-03     97.2940E-03    -83.6209E+06    -160.794E+06    -68.5798E+06    -4.78815E+06    -52.5127E-03     104.893E-03    -52.3802E-03     22.0778E-03    -52.5876E-03     104.302E-03    -52.3687E-03     21.9167E-03
             941     3.41615E-03     97.3215E-03    -76.4800E+06    -145.236E+06    -56.7893E+06    -6.48997E+06    -52.4415E-03     104.852E-03    -52.4107E-03     29.2741E-03    -52.5378E-03     104.327E-03    -52.3732E-03     29.0533E-03
             942     4.26967E-03     97.3535E-03    -71.3217E+06    -134.626E+06    -47.1971E+06    -8.36942E+06    -52.6079E-03     105.035E-03    -52.4276E-03     35.5539E-03    -52.7229E-03     104.557E-03    -52.3649E-03     35.2744E-03
             943     5.12417E-03     97.3925E-03    -65.2833E+06    -121.650E+06    -36.2383E+06    -8.96180E+06    -52.5921E-03     105.039E-03    -52.4465E-03     41.7465E-03    -52.7253E-03     104.613E-03    -52.3566E-03     41.4176E-03
             944     5.97930E-03     97.4383E-03    -58.5461E+06    -106.887E+06    -26.2741E+06    -10.6687E+06    -52.3310E-03     104.755E-03    -52.4237E-03     47.4841E-03    -52.4843E-03     104.397E-03    -52.3152E-03     47.0860E-03
             945     6.83364E-03     97.4869E-03    -56.0700E+06    -95.1733E+06    -20.7527E+06    -11.6496E+06    -52.1437E-03     104.503E-03    -52.3590E-03     51.2342E-03    -52.3273E-03     104.210E-03    -52.2434E-03     50.7862E-03
             946     7.68796E-03     97.5398E-03    -53.4675E+06    -84.3359E+06    -15.1727E+06    -12.7431E+06    -52.6677E-03     104.988E-03    -52.3201E-03     55.0142E-03    -52.8869E-03     104.762E-03    -52.1962E-03     54.5011E-03
             947     8.54355E-03     97.5971E-03    -49.9635E+06    -71.6068E+06    -10.5356E+06    -13.7122E+06    -53.1418E-03     105.468E-03    -52.3260E-03     57.8473E-03    -53.3932E-03     105.318E-03    -52.2024E-03     57.2723E-03
             948     9.39554E-03     97.6566E-03    -43.2015E+06    -50.4068E+06    -814.632E+03    -12.0897E+06    -52.6060E-03     104.941E-03    -52.3348E-03     59.7961E-03    -52.8886E-03     104.893E-03    -52.2031E-03     59.2124E-03
             949     10.2500E-03     97.7183E-03    -37.0223E+06    -30.8778E+06     9.40704E+06    -10.8893E+06    -52.3647E-03     104.678E-03    -52.3137E-03     61.6573E-03    -52.6841E-03     104.729E-03    -52.1682E-03     61.0545E-03
             950     11.1061E-03     97.7788E-03    -36.2541E+06    -18.5044E+06     12.9308E+06    -10.1837E+06    -52.4848E-03     104.762E-03    -52.2775E-03     61.9721E-03    -52.8417E-03     104.887E-03    -52.1334E-03     61.3524E-03
             951     11.9605E-03     97.8439E-03    -31.9686E+06    -7.93137E+06     16.9631E+06    -10.8473E+06    -52.1002E-03     104.341E-03    -52.2405E-03     60.4828E-03    -52.4613E-03     104.511E-03    -52.0978E-03     59.8501E-03
             952     12.8128E-03     97.9039E-03    -27.0856E+06     11.3116E+06     19.2236E+06    -9.39869E+06    -51.1935E-03     103.342E-03    -52.1487E-03     57.1224E-03    -51.5536E-03     103.591E-03    -52.0298E-03     56.5224E-03
             953     13.6700E-03     97.9543E-03    -22.7426E+06     54.9989E+06     32.7143E+06    -3.71353E+06    -50.3219E-03     102.361E-03    -52.0393E-03     53.6979E-03    -50.7273E-03     102.786E-03    -51.9225E-03     53.1983E-03
             954     14.5283E-03     98.0069E-03    -21.6109E+06     83.4402E+06     42.4324E+06     2.30653E+06    -50.6124E-03     102.553E-03    -51.9407E-03     49.5209E-03    -51.0478E-03     103.085E-03    -51.8182E-03     49.1190E-03
             955     15.3843E-03     98.0534E-03    -18.9621E+06     87.1231E+06     45.2340E+06     1.88191E+06    -50.0299E-03     101.884E-03    -51.8539E-03     41.7426E-03    -50.4407E-03     102.405E-03    -51.7266E-03     41.3448E-03
             956     16.2403E-03     98.0872E-03    -1.67311E+06     102.161E+06     71.6844E+06    -2.67903E+06    -48.7201E-03     100.536E-03    -51.8157E-03     33.1433E-03    -49.0750E-03     101.040E-03    -51.6030E-03     32.7446E-03
             957     854.244E-06     98.3161E-03    -90.0868E+06    -176.891E+06    -87.9989E+06    -2.84018E+06    -53.1234E-03     104.778E-03    -51.6541E-03     6.68124E-03    -53.1512E-03     104.210E-03    -51.7070E-03     6.61552E-03
             958     1.70709E-03     98.3275E-03    -86.8135E+06    -167.373E+06    -79.7845E+06    -3.41723E+06    -52.9556E-03     105.451E-03    -52.4958E-03     15.1491E-03    -53.0208E-03     104.848E-03    -52.5262E-03     15.0375E-03
             959     2.56124E-03     98.3478E-03    -81.2952E+06    -155.223E+06    -67.8619E+06    -6.24112E+06    -52.7203E-03     105.361E-03    -52.6410E-03     21.7472E-03    -52.7940E-03     104.794E-03    -52.6373E-03     21.5686E-03
             960     3.41601E-03     98.3718E-03    -76.3126E+06    -143.251E+06    -58.3800E+06    -8.14191E+06    -52.2210E-03     104.827E-03    -52.6064E-03     28.7770E-03    -52.3184E-03     104.316E-03    -52.5800E-03     28.5436E-03
             961     4.27100E-03     98.4075E-03    -71.2056E+06    -130.846E+06    -46.9936E+06    -8.07694E+06    -52.2757E-03     104.809E-03    -52.5333E-03     35.7332E-03    -52.3960E-03     104.349E-03    -52.4753E-03     35.4610E-03
             962     5.12410E-03     98.4444E-03    -66.8792E+06    -118.347E+06    -36.4880E+06    -8.52833E+06    -52.4943E-03     104.991E-03    -52.4972E-03     41.7492E-03    -52.6376E-03     104.583E-03    -52.4110E-03     41.4269E-03
             963     5.97838E-03     98.4898E-03    -61.4124E+06    -105.953E+06    -28.3692E+06    -10.5133E+06    -52.1682E-03     104.615E-03    -52.4470E-03     46.7728E-03    -52.3327E-03     104.268E-03    -52.3461E-03     46.3783E-03
             964     6.83344E-03     98.5388E-03    -55.1886E+06    -91.5010E+06    -19.6979E+06    -11.8853E+06    -52.4242E-03     104.817E-03    -52.3927E-03     51.1680E-03    -52.6135E-03     104.543E-03    -52.2784E-03     50.7109E-03
             965     7.68824E-03     98.5917E-03    -50.3568E+06    -77.7235E+06    -12.1731E+06    -12.7490E+06    -53.2810E-03     105.682E-03    -52.4011E-03     55.2435E-03    -53.5008E-03     105.482E-03    -52.2762E-03     54.7244E-03
             966     8.53997E-03     98.6510E-03    -46.3749E+06    -69.0851E+06    -8.65155E+06    -15.1744E+06    -52.8670E-03     105.285E-03    -52.4181E-03     57.1366E-03    -53.1043E-03     105.138E-03    -52.2939E-03     56.5460E-03
             967     9.39587E-03     98.7081E-03    -42.9901E+06    -54.6301E+06    -4.02832E+06    -14.5638E+06    -52.0899E-03     104.462E-03    -52.3718E-03     59.9257E-03    -52.3606E-03     104.398E-03    -52.2504E-03     59.3127E-03
             968     10.2524E-03     98.7689E-03    -38.1310E+06    -34.5524E+06     6.00378E+06    -11.2246E+06    -52.5359E-03     104.865E-03    -52.3286E-03     62.9228E-03    -52.8503E-03     104.904E-03    -52.1932E-03     62.3194E-03
             969     11.1041E-03     98.8340E-03    -31.7411E+06    -13.5170E+06     15.9485E+06    -10.8371E+06    -52.5081E-03     104.814E-03    -52.3057E-03     63.1437E-03    -52.8493E-03     104.948E-03    -52.1603E-03     62.5288E-03
             970     11.9579E-03     98.8939E-03    -26.4524E+06    -4.00793E+06     20.0180E+06    -10.8265E+06    -50.8747E-03     103.096E-03    -52.2211E-03     62.0936E-03    -51.2139E-03     103.269E-03    -52.0768E-03     61.4858E-03
             971     12.8191E-03     98.9528E-03    -28.3004E+06     6.33473E+06     17.3224E+06    -9.15643E+06    -50.1904E-03     102.240E-03    -52.0494E-03     58.9315E-03    -50.5448E-03     102.466E-03    -51.9309E-03     58.3537E-03
             972     13.6743E-03     99.0059E-03    -24.7491E+06     47.6889E+06     30.3516E+06    -4.74720E+06    -51.0527E-03     102.988E-03    -51.9349E-03     54.9968E-03    -51.4581E-03     103.386E-03    -51.8164E-03     54.4741E-03
             973     14.5268E-03     99.0574E-03    -14.3157E+06     78.3517E+06      45.818E+06     1.72115E+06    -50.7714E-03     102.650E-03    -51.8786E-03     50.5013E-03    -51.1732E-03     103.146E-03    -51.7423E-03     50.0828E-03
             974     15.3827E-03     99.1033E-03    -7.63280E+06     92.8063E+06     52.9175E+06    -261.610E+03    -48.8614E-03     100.629E-03    -51.7675E-03     39.3577E-03    -49.2341E-03     101.151E-03    -51.6264E-03     38.9350E-03
             975     16.2442E-03     99.1310E-03    -1.95199E+06     103.507E+06     70.9308E+06    -6.34992E+06    -49.7664E-03     101.478E-03    -51.7114E-03     32.2274E-03    -50.1256E-03     101.992E-03    -51.5040E-03     31.7655E-03
             976     854.656E-06     99.3685E-03    -87.9032E+06    -172.714E+06    -86.6118E+06    -1.77041E+06    -52.7766E-03     104.889E-03    -52.1123E-03     7.94459E-03    -52.8072E-03     104.337E-03    -52.1675E-03     7.87929E-03
             977     1.70794E-03     99.3820E-03    -85.4913E+06    -162.978E+06    -78.8740E+06    -4.15760E+06    -52.9548E-03     105.492E-03    -52.5370E-03     15.9360E-03    -53.0268E-03     104.914E-03    -52.5711E-03     15.8114E-03
             978     2.56118E-03     99.3998E-03    -81.9132E+06    -150.207E+06    -69.1205E+06    -5.84260E+06    -52.8098E-03     105.480E-03    -52.6698E-03     22.6880E-03    -52.8946E-03     104.943E-03    -52.6788E-03     22.5218E-03
             979     3.41397E-03     99.4259E-03    -77.9792E+06    -138.192E+06    -57.7731E+06    -7.65808E+06    -52.7349E-03     105.441E-03    -52.7064E-03     29.1803E-03    -52.8471E-03     104.954E-03    -52.6819E-03     28.9535E-03
             980     4.26852E-03     99.4570E-03    -71.9092E+06    -128.256E+06    -46.1975E+06    -8.94117E+06    -52.2710E-03     104.947E-03    -52.6764E-03     35.2830E-03    -52.3999E-03     104.500E-03    -52.6172E-03     34.9943E-03
             981     5.12461E-03     99.4985E-03    -65.4095E+06    -113.516E+06    -35.0331E+06    -10.0667E+06    -52.0712E-03     104.655E-03    -52.5833E-03     41.1736E-03    -52.2192E-03     104.269E-03    -52.4990E-03     40.8301E-03
             982     5.97823E-03     99.5414E-03    -60.3860E+06    -102.413E+06    -27.5351E+06    -12.5246E+06    -52.3294E-03     104.830E-03    -52.5002E-03     46.2637E-03    -52.4975E-03     104.500E-03    -52.4018E-03     45.8459E-03
             983     6.83346E-03     99.5897E-03    -54.1293E+06    -90.4950E+06    -20.6811E+06    -13.2906E+06    -52.9521E-03     105.427E-03    -52.4753E-03     51.7026E-03    -53.1387E-03     105.161E-03    -52.3690E-03     51.2220E-03
             984     7.68572E-03     99.6471E-03    -47.9744E+06    -73.7720E+06    -11.8712E+06    -12.5449E+06    -53.0235E-03     105.513E-03    -52.4896E-03     55.6073E-03    -53.2365E-03     105.328E-03    -52.3724E-03     55.0943E-03
             985     8.54110E-03     99.7024E-03    -44.1666E+06    -62.8829E+06    -5.89936E+06    -13.9197E+06    -52.3172E-03     104.783E-03    -52.4656E-03     56.8959E-03    -52.5529E-03     104.656E-03    -52.3399E-03     56.3351E-03
             986     9.39657E-03     99.7582E-03    -42.0768E+06    -53.5849E+06    -2.53285E+06    -15.1601E+06    -52.2136E-03     104.611E-03    -52.3976E-03     59.7952E-03    -52.4826E-03     104.548E-03    -52.2716E-03     59.1778E-03
             987     10.2492E-03     99.8226E-03    -34.9641E+06    -38.7919E+06     5.59542E+06    -15.1126E+06    -51.7706E-03     104.092E-03    -52.3211E-03     63.1470E-03    -52.0588E-03     104.102E-03    -52.1862E-03     62.5062E-03
             988     11.1064E-03     99.8848E-03    -25.9623E+06    -15.3658E+06     16.8393E+06    -13.7434E+06    -50.6421E-03     102.836E-03    -52.1944E-03     64.0988E-03    -50.9477E-03     102.947E-03    -52.0502E-03     63.4728E-03
             989     11.9646E-03     99.9444E-03    -26.6064E+06    -7.22872E+06     19.5084E+06    -12.2742E+06    -50.5158E-03     102.552E-03    -52.0363E-03     62.6414E-03    -50.8512E-03     102.711E-03    -51.8897E-03     62.0205E-03
             990     12.8173E-03     100.000E-03    -20.2010E+06     8.35753E+06     25.1520E+06    -9.92368E+06    -51.0923E-03     103.006E-03    -51.9140E-03     59.4756E-03    -51.4254E-03     103.224E-03    -51.7710E-03     58.8754E-03
             991     13.6739E-03     100.058E-03    -10.7497E+06     47.5718E+06     41.3245E+06    -5.51800E+06    -51.2255E-03     103.076E-03    -51.8510E-03     55.1682E-03    -51.5779E-03     103.440E-03    -51.6977E-03     54.6337E-03
             992     14.5308E-03     100.108E-03    -5.48285E+06     71.1464E+06     46.0028E+06    -4.27541E+06    -50.3366E-03     102.092E-03    -51.7557E-03     49.4452E-03    -50.6832E-03     102.539E-03    -51.6209E-03     48.9516E-03
             993     15.3883E-03     100.152E-03     1.82825E+06      96.355E+06     59.5685E+06    -3.54948E+06    -50.6280E-03     102.329E-03    -51.7012E-03     39.0902E-03    -50.9705E-03     102.848E-03    -51.5457E-03     38.6023E-03
             994     16.2412E-03     100.180E-03    -4.17185E+06     104.237E+06     74.6048E+06    -1.73257E+06    -51.8605E-03     103.617E-03    -51.7568E-03     32.6580E-03    -52.2401E-03     104.136E-03    -51.5288E-03     32.2319E-03
             995     853.716E-06     100.422E-03    -86.9616E+06    -168.598E+06    -85.1195E+06    -1.83340E+06    -52.6924E-03     105.285E-03    -52.5926E-03     9.14362E-03    -52.7314E-03     104.746E-03    -52.6476E-03     9.07680E-03
             996     1.70763E-03     100.435E-03    -84.4260E+06    -157.502E+06    -76.8057E+06    -4.11911E+06    -52.4633E-03     105.066E-03    -52.6027E-03     14.8316E-03    -52.5362E-03     104.508E-03    -52.6359E-03     14.7109E-03
             997     2.56232E-03     100.453E-03    -79.5508E+06    -146.032E+06    -65.8643E+06    -6.31043E+06    -52.5703E-03     105.150E-03    -52.5798E-03     22.8127E-03    -52.6513E-03     104.624E-03    -52.5820E-03     22.6320E-03
             998     3.41672E-03     100.480E-03    -74.5874E+06    -133.345E+06    -54.1529E+06    -7.40919E+06    -53.0825E-03     105.724E-03    -52.6419E-03     29.6012E-03    -53.1896E-03     105.251E-03    -52.6111E-03     29.3724E-03
             999     4.26886E-03     100.511E-03    -69.8485E+06    -122.269E+06    -43.6824E+06    -10.0516E+06    -52.8665E-03     105.579E-03    -52.7129E-03     35.6002E-03    -52.9970E-03     105.155E-03    -52.6527E-03     35.2993E-03
            1000     5.12210E-03     100.549E-03    -62.2539E+06    -110.600E+06    -34.6092E+06    -12.5003E+06    -52.3519E-03     105.033E-03    -52.6812E-03     41.2626E-03    -52.4872E-03     104.655E-03    -52.6036E-03     40.8883E-03
            1001     5.97892E-03     100.593E-03    -55.3663E+06    -97.6717E+06    -25.2216E+06    -13.2203E+06    -52.5262E-03     105.146E-03    -52.6203E-03     45.9708E-03    -52.6754E-03     104.826E-03    -52.5245E-03     45.5488E-03
            1002     6.83085E-03     100.644E-03    -51.8880E+06    -88.7513E+06    -19.1545E+06    -14.1951E+06    -52.5290E-03     105.100E-03    -52.5706E-03     52.1518E-03    -52.7053E-03     104.832E-03    -52.4624E-03     51.6693E-03
            1003     7.68647E-03     100.698E-03    -48.3127E+06    -74.8410E+06    -12.9265E+06    -14.2482E+06    -52.0104E-03     104.499E-03    -52.4881E-03     56.4259E-03    -52.2203E-03     104.309E-03    -52.3741E-03     55.9011E-03
            1004     8.54154E-03     100.754E-03    -42.7284E+06    -57.9892E+06    -3.09138E+06    -14.2555E+06    -52.3642E-03     104.782E-03    -52.4177E-03     58.0424E-03    -52.6030E-03     104.672E-03    -52.2871E-03     57.4817E-03
            1005     9.39455E-03     100.812E-03    -36.1617E+06    -47.6970E+06     3.10758E+06    -16.5768E+06    -52.2501E-03     104.611E-03    -52.3610E-03     60.8012E-03    -52.5043E-03     104.559E-03    -52.2239E-03     60.1701E-03
            1006     10.2514E-03     100.873E-03    -33.1609E+06    -39.4129E+06     6.25100E+06    -16.9908E+06    -50.6217E-03     102.854E-03    -52.2323E-03     63.1075E-03    -50.8976E-03     102.854E-03    -52.0958E-03     62.4553E-03
            1007     11.1090E-03     100.932E-03    -30.9212E+06    -17.7500E+06     15.3387E+06    -14.0065E+06    -49.8794E-03     101.920E-03    -52.0409E-03     63.2794E-03    -50.2003E-03     102.024E-03    -51.8936E-03     62.6610E-03
            1008     11.9652E-03     100.994E-03    -23.4585E+06    -6.70514E+06     23.4544E+06    -17.1946E+06    -50.7215E-03     102.608E-03    -51.8865E-03     61.5881E-03    -51.0459E-03     102.757E-03    -51.7255E-03     60.9000E-03
            1009     12.8224E-03     101.053E-03    -13.5284E+06     2.79132E+06     28.4338E+06    -15.3187E+06    -51.6431E-03     103.443E-03    -51.8001E-03     59.5160E-03    -51.9400E-03     103.619E-03    -51.6423E-03     58.8397E-03
            1010     13.6759E-03     101.109E-03    -9.04337E+06     43.6580E+06     42.7294E+06    -6.59108E+06    -51.3443E-03     103.105E-03    -51.7608E-03     54.7140E-03    -51.6825E-03     103.442E-03    -51.5973E-03     54.1695E-03
            1011     14.5313E-03     101.158E-03    -9.25569E+06     72.3152E+06     45.7139E+06    -6.98874E+06    -50.8261E-03     102.509E-03    -51.6833E-03     46.8696E-03    -51.1883E-03     102.963E-03    -51.5462E-03     46.3373E-03
            1012     15.3874E-03     101.200E-03    -4.97651E+06     93.2461E+06     57.1953E+06    -5.19197E+06    -52.3459E-03     104.042E-03    -51.6965E-03     40.0029E-03    -52.7181E-03     104.562E-03    -51.5386E-03     39.4693E-03
            1013     16.2384E-03     101.242E-03    -4.63237E+06     102.034E+06     75.2695E+06     2.96719E+06    -51.7791E-03     103.581E-03    -51.8022E-03     31.9610E-03    -52.1568E-03     104.086E-03    -51.5671E-03     31.5953E-03
            1014     853.339E-06     101.477E-03    -84.7149E+06    -163.320E+06    -82.3922E+06    -1.40776E+06    -53.1291E-03     106.088E-03    -52.9591E-03     8.00964E-03    -53.1629E-03     105.564E-03    -53.0114E-03     7.95830E-03
            1015     1.70718E-03     101.486E-03    -81.7843E+06    -150.906E+06    -74.3647E+06    -4.68283E+06    -52.2259E-03     105.100E-03    -52.8743E-03     14.1639E-03    -52.2971E-03     104.566E-03    -52.9087E-03     14.0370E-03
            1016     2.56155E-03     101.505E-03    -76.8888E+06    -141.619E+06    -63.1270E+06    -7.28781E+06    -52.4627E-03     105.156E-03    -52.6937E-03     22.3940E-03    -52.5434E-03     104.647E-03    -52.6925E-03     22.1985E-03
            1017     3.41472E-03     101.533E-03    -70.7700E+06    -130.029E+06    -51.1684E+06    -8.32609E+06    -52.5281E-03     105.180E-03    -52.6518E-03     28.9856E-03    -52.6277E-03     104.716E-03    -52.6165E-03     28.7446E-03
            1018     4.26980E-03     101.564E-03    -65.1176E+06    -115.797E+06    -41.3456E+06    -10.7359E+06    -52.6579E-03     105.288E-03    -52.6302E-03     35.3205E-03    -52.7772E-03     104.885E-03    -52.5747E-03     35.0127E-03
            1019     5.12405E-03     101.602E-03    -60.6166E+06    -106.689E+06    -34.0689E+06    -13.7641E+06    -53.0159E-03     105.656E-03    -52.6401E-03     42.3849E-03    -53.1508E-03     105.296E-03    -52.5678E-03     41.9932E-03
            1020     5.97501E-03     101.646E-03    -55.0099E+06    -95.3504E+06    -25.0822E+06    -13.1977E+06    -52.7719E-03     105.422E-03    -52.6500E-03     47.5790E-03    -52.9253E-03     105.114E-03    -52.5574E-03     47.1581E-03
            1021     6.83222E-03     101.696E-03    -50.5134E+06    -83.6379E+06    -16.4991E+06    -14.2210E+06    -51.7350E-03     104.306E-03    -52.5709E-03     52.1107E-03    -51.9130E-03     104.056E-03    -52.4589E-03     51.6411E-03
            1022     7.68786E-03     101.749E-03    -45.8747E+06    -73.9539E+06    -10.8202E+06    -16.2148E+06    -51.2727E-03     103.677E-03    -52.4044E-03     56.5293E-03    -51.4730E-03     103.483E-03    -52.2847E-03     55.9871E-03
            1023     8.54280E-03     101.807E-03    -39.4628E+06    -56.2416E+06    -1.63927E+06    -15.3221E+06    -51.7132E-03     103.976E-03    -52.2632E-03     59.9801E-03    -51.9427E-03     103.871E-03    -52.1326E-03     59.4114E-03
            1024     9.39816E-03     101.864E-03    -35.2627E+06    -43.6279E+06     5.94555E+06    -17.4153E+06    -51.6930E-03     103.862E-03    -52.1686E-03     61.3681E-03    -51.9536E-03     103.825E-03    -52.0244E-03     60.7332E-03
            1025     10.2536E-03     101.921E-03    -31.6987E+06    -37.7627E+06     10.1183E+06    -17.9953E+06    -51.0761E-03     103.136E-03    -52.0594E-03     62.0757E-03    -51.3535E-03     103.137E-03    -51.9081E-03     61.4048E-03
            1026     11.1097E-03     101.982E-03    -28.4042E+06    -20.2392E+06     16.1058E+06    -16.0042E+06    -50.8449E-03     102.772E-03    -51.9268E-03     63.0478E-03    -51.1508E-03     102.858E-03    -51.7757E-03     62.3950E-03
            1027     11.9655E-03     102.044E-03    -22.3179E+06    -556.765E+03     26.8077E+06    -15.7760E+06    -50.9436E-03     102.770E-03    -51.8266E-03     61.6660E-03    -51.2726E-03     102.940E-03    -51.6593E-03     61.0022E-03
            1028     12.8206E-03     102.103E-03    -21.4927E+06    -800.031E+03     24.3091E+06    -16.5466E+06    -51.1698E-03     102.898E-03    -51.7281E-03     59.0927E-03    -51.4914E-03     103.070E-03    -51.5742E-03     58.4122E-03
            1029     13.6769E-03     102.161E-03    -18.5285E+06     31.8757E+06     31.9592E+06    -14.1804E+06    -51.2754E-03     102.934E-03    -51.6588E-03     54.0521E-03    -51.6274E-03     103.241E-03    -51.5184E-03     53.4104E-03
            1030     14.5321E-03     102.207E-03    -12.5180E+06     73.8643E+06     46.9394E+06    -7.51498E+06    -51.8907E-03     103.537E-03    -51.6466E-03     48.5965E-03    -52.2778E-03     104.006E-03    -51.5009E-03     48.0470E-03
            1031     15.3844E-03     102.255E-03    -13.8110E+06     85.7306E+06     48.6475E+06     233.751E+03    -51.8212E-03     103.470E-03    -51.6489E-03     43.8855E-03    -52.2191E-03     103.982E-03    -51.5100E-03     43.4360E-03
            1032     16.2410E-03     102.292E-03    -4.82012E+06     99.0676E+06     70.2584E+06     3.12230E+06    -50.4410E-03     102.145E-03    -51.7039E-03     32.4254E-03    -50.8066E-03     102.641E-03    -51.4892E-03     32.0837E-03
            1033     851.853E-06     102.528E-03    -79.9812E+06    -156.523E+06    -78.7625E+06    -2.31903E+06    -52.7621E-03     105.875E-03    -53.1125E-03     6.44552E-03    -52.7844E-03     105.376E-03    -53.1634E-03     6.39588E-03
            1034     1.70747E-03     102.540E-03    -77.1019E+06    -145.427E+06    -71.8832E+06    -5.03060E+06    -52.7358E-03     105.617E-03    -52.8809E-03     15.4194E-03    -52.7969E-03     105.100E-03    -52.9176E-03     15.2864E-03
            1035     2.56038E-03     102.558E-03    -74.0348E+06    -135.079E+06    -60.8601E+06    -7.34097E+06    -52.6337E-03     105.460E-03    -52.8259E-03     22.4966E-03    -52.7111E-03     104.973E-03    -52.8270E-03     22.2993E-03
            1036     3.41575E-03     102.585E-03    -68.4118E+06    -125.322E+06    -50.0861E+06    -10.3356E+06    -52.0074E-03     104.720E-03    -52.7125E-03     29.0813E-03    -52.1009E-03     104.272E-03    -52.6820E-03     28.8154E-03
            1037     4.26978E-03     102.616E-03    -62.2587E+06    -112.285E+06    -39.8124E+06    -11.1486E+06    -52.1624E-03     104.737E-03    -52.5744E-03     35.4853E-03    -52.2721E-03     104.343E-03    -52.5204E-03     35.1779E-03
            1038     5.12391E-03     102.655E-03    -58.6728E+06    -100.373E+06    -30.0330E+06    -12.8340E+06    -52.4367E-03     104.948E-03    -52.5118E-03     42.5531E-03    -52.5760E-03     104.610E-03    -52.4313E-03     42.1823E-03
            1039     5.98000E-03     102.700E-03    -54.3687E+06    -93.0353E+06    -23.2131E+06    -15.9957E+06    -52.4884E-03     104.962E-03    -52.4733E-03     48.2063E-03    -52.6442E-03     104.662E-03    -52.3757E-03     47.7478E-03
            1040     6.83189E-03     102.746E-03    -46.9794E+06    -78.8569E+06    -13.9385E+06    -15.8962E+06    -52.0990E-03     104.513E-03    -52.4141E-03     52.0155E-03    -52.2673E-03     104.275E-03    -52.3013E-03     51.5247E-03
            1041     7.68758E-03     102.800E-03    -43.2942E+06    -70.6337E+06    -8.54951E+06    -17.4069E+06    -51.0264E-03     103.302E-03    -52.2758E-03     56.1732E-03    -51.2196E-03     103.116E-03    -52.1533E-03     55.6259E-03
            1042     8.54477E-03     102.856E-03    -38.9578E+06    -56.0078E+06    -1.31251E+06    -16.2991E+06    -50.2989E-03     102.364E-03    -52.0651E-03     60.1415E-03    -50.5259E-03     102.258E-03    -51.9339E-03     59.5738E-03
            1043     9.40114E-03     102.916E-03    -33.2345E+06    -38.3239E+06     9.81875E+06    -15.5849E+06    -50.9621E-03     102.858E-03    -51.8960E-03     61.9009E-03    -51.2213E-03     102.835E-03    -51.7431E-03     61.3043E-03
            1044     10.2558E-03     102.972E-03    -30.6236E+06    -34.9796E+06     12.4627E+06    -18.4298E+06    -52.0426E-03     103.855E-03    -51.8126E-03     62.9041E-03    -52.3190E-03     103.862E-03    -51.6551E-03     62.2303E-03
            1045     11.1105E-03     103.033E-03    -26.1586E+06    -21.0323E+06     16.7873E+06    -17.4875E+06    -52.0451E-03     103.821E-03    -51.7755E-03     63.9276E-03    -52.3432E-03     103.903E-03    -51.6232E-03     63.2428E-03
            1046     11.9666E-03     103.093E-03    -22.2726E+06    -2.21132E+06     25.8849E+06    -14.5661E+06    -51.3571E-03     103.096E-03    -51.7391E-03     62.4480E-03    -51.6815E-03     103.259E-03    -51.5742E-03     61.8007E-03
            1047     12.8224E-03     103.155E-03    -20.3257E+06     6.34738E+06     28.7326E+06    -15.4732E+06    -50.7316E-03     102.388E-03    -51.6568E-03     60.2963E-03    -51.0612E-03     102.585E-03    -51.4929E-03     59.6460E-03
            1048     13.6781E-03     103.209E-03    -21.5799E+06     31.0786E+06     31.1090E+06    -13.7513E+06    -50.7219E-03     102.272E-03    -51.5504E-03     56.2511E-03    -51.0845E-03     102.578E-03    -51.4086E-03     55.6323E-03
            1049     14.5335E-03     103.261E-03    -20.3479E+06     57.5994E+06     39.3695E+06    -5.17661E+06    -51.3312E-03     102.835E-03    -51.5036E-03     51.9336E-03    -51.7218E-03     103.243E-03    -51.3608E-03     51.4330E-03
            1050     15.3894E-03     103.306E-03    -12.5390E+06     79.2986E+06     45.3636E+06    -1.73892E+06    -50.9227E-03     102.386E-03    -51.4636E-03     44.8817E-03    -51.2965E-03     102.866E-03    -51.3336E-03     44.4277E-03
            1051     16.2461E-03     103.340E-03    -1.82734E+06     100.932E+06     68.3662E+06    -1.36749E+06    -51.2693E-03     102.785E-03    -51.5153E-03     33.5050E-03    -51.6225E-03     103.291E-03    -51.3172E-03     33.0975E-03
            1052     856.161E-06     103.583E-03    -80.1105E+06    -148.406E+06    -77.9752E+06    -3.90480E+06    -52.6489E-03     105.060E-03    -52.4109E-03     6.89333E-03    -52.6856E-03     104.601E-03    -52.4695E-03     6.80403E-03
            1053     1.70752E-03     103.592E-03    -76.5796E+06    -140.475E+06    -70.5712E+06    -5.52811E+06    -53.1601E-03     105.809E-03    -52.6484E-03     15.4806E-03    -53.2290E-03     105.316E-03    -52.6865E-03     15.3402E-03
            1054     2.56111E-03     103.614E-03    -71.7977E+06    -128.383E+06    -60.8028E+06    -7.85448E+06    -52.6672E-03     105.429E-03    -52.7622E-03     22.1827E-03    -52.7446E-03     104.975E-03    -52.7760E-03     21.9862E-03
            1055     3.41472E-03     103.634E-03    -67.3328E+06    -118.888E+06    -49.3572E+06    -10.7319E+06    -52.1126E-03     104.799E-03    -52.6867E-03     28.4139E-03    -52.2131E-03     104.383E-03    -52.6635E-03     28.1539E-03
            1056     4.27013E-03     103.670E-03    -62.1865E+06    -107.971E+06    -37.5124E+06    -12.4260E+06    -51.7821E-03     104.327E-03    -52.5447E-03     35.6507E-03    -51.9024E-03     103.952E-03    -52.4856E-03     35.3328E-03
            1057     5.12473E-03     103.706E-03    -55.6003E+06    -95.9729E+06    -27.3185E+06    -13.5329E+06    -51.5914E-03     103.978E-03    -52.3865E-03     42.0788E-03    -51.7229E-03     103.651E-03    -52.3033E-03     41.7054E-03
            1058     5.97915E-03     103.752E-03    -50.0068E+06    -86.0336E+06    -18.8906E+06    -16.0634E+06    -51.4921E-03     103.729E-03    -52.2367E-03     48.1193E-03    -51.6408E-03     103.449E-03    -52.1339E-03     47.6678E-03
            1059     6.83568E-03     103.799E-03    -46.2123E+06    -77.7419E+06    -13.2601E+06    -17.6678E+06    -51.7195E-03     103.832E-03    -52.1128E-03     52.6954E-03    -51.8874E-03     103.599E-03    -51.9993E-03     52.1877E-03
            1060     7.68951E-03     103.850E-03    -41.4370E+06    -65.5192E+06    -5.84804E+06    -17.3322E+06    -51.1084E-03     103.100E-03    -51.9912E-03     56.7019E-03    -51.3007E-03     102.929E-03    -51.8654E-03     56.1672E-03
            1061     8.54573E-03     103.904E-03    -37.5325E+06    -53.5297E+06     1.14063E+06    -17.6410E+06    -50.0432E-03     101.847E-03    -51.8033E-03     60.7984E-03    -50.2682E-03     101.745E-03    -51.6655E-03     60.2206E-03
            1062     9.40408E-03     103.964E-03    -33.2287E+06    -39.1368E+06     8.63272E+06    -15.6939E+06    -50.3901E-03     101.997E-03    -51.6070E-03     63.3508E-03    -50.6439E-03     101.969E-03    -51.4589E-03     62.7642E-03
            1063     10.2604E-03     104.024E-03    -29.9329E+06    -29.3545E+06     14.4245E+06    -16.5183E+06    -51.7990E-03     103.313E-03    -51.5141E-03     64.0920E-03    -52.0778E-03     103.340E-03    -51.3560E-03     63.4595E-03
            1064     11.1142E-03     104.085E-03    -26.2505E+06    -16.2651E+06     20.2801E+06    -17.0116E+06    -52.2109E-03     103.715E-03    -51.5038E-03     65.3404E-03    -52.5203E-03     103.814E-03    -51.3408E-03     64.6703E-03
            1065     11.9674E-03     104.145E-03    -22.4478E+06    -4.91538E+06     25.4470E+06    -15.2216E+06    -51.5695E-03     103.058E-03    -51.4884E-03     65.1167E-03    -51.8909E-03     103.208E-03    -51.3215E-03     64.4656E-03
            1066     12.8240E-03     104.202E-03    -20.7254E+06     4.92015E+06     28.1953E+06    -14.2611E+06    -51.0590E-03     102.493E-03    -51.4339E-03     62.4624E-03    -51.3859E-03     102.682E-03    -51.2700E-03     61.8335E-03
            1067     13.6813E-03     104.260E-03    -20.2285E+06     28.8619E+06     33.9920E+06    -11.0211E+06    -50.6109E-03     101.971E-03    -51.3606E-03     57.7947E-03    -50.9676E-03     102.260E-03    -51.2032E-03     57.2183E-03
            1068     14.5375E-03     104.310E-03    -13.6992E+06     48.8331E+06     42.6911E+06    -7.57266E+06    -50.5001E-03     101.799E-03    -51.2991E-03     53.1917E-03    -50.8474E-03     102.147E-03    -51.1366E-03     52.6773E-03
            1069     15.3934E-03     104.357E-03    -6.69435E+06     76.7853E+06     50.0136E+06    -4.74831E+06    -51.4764E-03     102.735E-03    -51.2585E-03     44.7057E-03    -51.8183E-03     103.181E-03    -51.1100E-03     44.2209E-03
            1070     16.2473E-03     104.390E-03    -2.36919E+06     98.9877E+06     68.8019E+06    -2.21678E+06    -52.9672E-03     104.334E-03    -51.3666E-03     34.5845E-03    -53.3254E-03     104.836E-03    -51.1627E-03     34.1433E-03
            1071     853.032E-06     104.637E-03    -80.1249E+06    -141.490E+06    -76.7069E+06    -3.99535E+06    -53.1909E-03     104.757E-03    -51.5662E-03     9.05601E-03    -53.2457E-03     104.327E-03    -51.6284E-03     8.94566E-03
            1072     1.70720E-03     104.646E-03    -75.3691E+06    -132.914E+06    -68.9114E+06    -6.87550E+06    -52.7699E-03     105.223E-03    -52.4532E-03     15.1184E-03    -52.8481E-03     104.768E-03    -52.4957E-03     14.9694E-03
            1073     2.56189E-03     104.665E-03    -71.1366E+06    -123.174E+06    -59.7041E+06    -9.00844E+06    -52.3037E-03     104.808E-03    -52.5039E-03     22.6700E-03    -52.3873E-03     104.377E-03    -52.5207E-03     22.4691E-03
            1074     3.41553E-03     104.690E-03    -66.3377E+06    -112.250E+06    -47.4121E+06    -10.6295E+06    -52.0903E-03     104.530E-03    -52.4395E-03     29.2518E-03    -52.1965E-03     104.140E-03    -52.4176E-03     28.9937E-03
            1075     4.26971E-03     104.719E-03    -60.8509E+06    -101.989E+06    -36.4022E+06    -13.6144E+06    -51.5658E-03     103.886E-03    -52.3198E-03     36.8167E-03    -51.6901E-03     103.538E-03    -52.2657E-03     36.4829E-03
            1076     5.12557E-03     104.759E-03    -55.6164E+06    -92.8106E+06    -27.8574E+06    -14.8614E+06    -51.1107E-03     103.248E-03    -52.1371E-03     42.8582E-03    -51.2456E-03     102.937E-03    -52.0612E-03     42.4777E-03
            1077     5.98185E-03     104.800E-03    -50.5826E+06    -80.5800E+06    -18.3250E+06    -14.2020E+06    -50.4883E-03     102.408E-03    -51.9200E-03     48.6212E-03    -50.6474E-03     102.155E-03    -51.8214E-03     48.2148E-03
            1078     6.83761E-03     104.850E-03    -46.6492E+06    -72.6222E+06    -11.1318E+06    -16.9903E+06    -50.3087E-03     102.000E-03    -51.6917E-03     53.8652E-03    -50.4888E-03     101.789E-03    -51.5744E-03     53.3804E-03
            1079     7.69464E-03     104.900E-03    -41.4026E+06    -63.7145E+06    -4.95864E+06    -18.4998E+06    -50.8489E-03     102.366E-03    -51.5168E-03     57.1501E-03    -51.0404E-03     102.198E-03    -51.3892E-03     56.6090E-03
            1080     8.55054E-03     104.953E-03    -35.8563E+06    -51.2247E+06     2.53669E+06    -18.0764E+06    -50.8545E-03     102.255E-03    -51.4001E-03     60.9816E-03    -51.0715E-03     102.155E-03    -51.2612E-03     60.4065E-03
            1081     9.40583E-03     105.012E-03    -31.5798E+06    -40.9509E+06     8.74640E+06    -17.9016E+06    -50.5394E-03     101.822E-03    -51.2828E-03     64.7449E-03    -50.7831E-03     101.783E-03    -51.1339E-03     64.1383E-03
            1082     10.2620E-03     105.075E-03    -27.2839E+06    -25.1320E+06     17.5362E+06    -15.4057E+06    -50.6945E-03     101.873E-03    -51.1789E-03     66.0582E-03    -50.9675E-03     101.909E-03    -51.0152E-03     65.4612E-03
            1083     11.1185E-03     105.135E-03    -25.5194E+06    -16.6731E+06     21.4450E+06    -15.5920E+06    -50.9201E-03     102.018E-03    -51.0981E-03     66.4154E-03    -51.2191E-03     102.105E-03    -50.9297E-03     65.7921E-03
            1084     11.9767E-03     105.194E-03    -23.4758E+06    -5.79140E+06     25.7647E+06    -14.2056E+06    -51.1604E-03     102.206E-03    -51.0456E-03     66.8869E-03    -51.4831E-03     102.350E-03    -50.8743E-03     66.2685E-03
            1085     12.8306E-03     105.254E-03    -21.5073E+06     7.08248E+06     29.9587E+06    -12.1071E+06    -51.5799E-03     102.602E-03    -51.0216E-03     65.4494E-03    -51.9160E-03     102.799E-03    -50.8509E-03     64.8561E-03
            1086     13.6840E-03     105.309E-03    -13.3590E+06     24.8227E+06     37.4671E+06    -13.7170E+06    -51.4449E-03     102.462E-03    -51.0175E-03     60.5952E-03    -51.7708E-03     102.720E-03    -50.8468E-03     59.9778E-03
            1087     14.5409E-03     105.359E-03    -4.66652E+06     45.6497E+06     46.8615E+06    -11.0165E+06    -51.1267E-03     102.140E-03    -51.0137E-03     55.2104E-03    -51.4352E-03     102.459E-03    -50.8388E-03     54.6452E-03
            1088     15.3969E-03     105.407E-03    -5.71961E+06     73.2170E+06     51.8337E+06    -4.36834E+06    -52.2349E-03     103.258E-03    -51.0235E-03     48.5643E-03    -52.5725E-03     103.685E-03    -50.8622E-03     48.0857E-03
            1089     16.2490E-03     105.447E-03    -3.32548E+06     96.8546E+06     70.2209E+06    -1.27512E+06    -54.5962E-03     105.797E-03    -51.2011E-03     38.7168E-03    -54.9629E-03     106.292E-03    -50.9856E-03     38.2799E-03
            1090     855.410E-06     105.688E-03    -73.8987E+06    -132.990E+06    -73.5863E+06    -4.78892E+06    -52.3970E-03     103.658E-03    -51.2610E-03     10.8852E-03    -52.4403E-03     103.253E-03    -51.3290E-03     10.7832E-03
            1091     1.70885E-03     105.700E-03    -72.0395E+06    -124.945E+06    -66.2396E+06    -7.04150E+06    -52.0935E-03     103.962E-03    -51.8684E-03     16.1595E-03    -52.1711E-03     103.538E-03    -51.9140E-03     16.0165E-03
            1092     2.56259E-03     105.716E-03    -69.0313E+06    -117.175E+06    -56.1580E+06    -9.40795E+06    -51.6600E-03     103.557E-03    -51.8974E-03     23.3418E-03    -51.7460E-03     103.147E-03    -51.9082E-03     23.1298E-03
            1093     3.41848E-03     105.741E-03    -64.4127E+06    -106.366E+06    -46.2362E+06    -10.8946E+06    -51.3586E-03     103.160E-03    -51.8009E-03     30.5139E-03    -51.4634E-03     102.793E-03    -51.7845E-03     30.2529E-03
            1094     4.27338E-03     105.771E-03    -60.2052E+06    -96.0376E+06    -35.5272E+06    -12.8435E+06    -51.2813E-03     102.980E-03    -51.6985E-03     38.0528E-03    -51.4103E-03     102.658E-03    -51.6496E-03     37.7409E-03
            1095     5.12822E-03     105.809E-03    -56.2416E+06    -88.1283E+06    -26.3473E+06    -15.5668E+06    -50.6643E-03     102.228E-03    -51.5634E-03     44.4621E-03    -50.8098E-03     101.937E-03    -51.4858E-03     44.0820E-03
            1096     5.98382E-03     105.850E-03    -50.7905E+06    -78.0444E+06    -18.2230E+06    -16.3596E+06    -49.9908E-03     101.345E-03    -51.3543E-03     49.7498E-03    -50.1508E-03     101.101E-03    -51.2586E-03     49.3246E-03
            1097     6.84201E-03     105.897E-03    -44.6762E+06    -65.9296E+06    -8.91606E+06    -16.3941E+06    -49.6919E-03     100.817E-03    -51.1254E-03     55.0572E-03    -49.8703E-03     100.629E-03    -51.0096E-03     54.5970E-03
            1098     7.69876E-03     105.950E-03    -39.6523E+06    -58.2296E+06    -2.19540E+06    -18.9275E+06    -50.2457E-03     101.192E-03    -50.9461E-03     58.6345E-03    -50.4377E-03     101.043E-03    -50.8151E-03     58.1043E-03
            1099     8.55384E-03     106.003E-03    -36.4623E+06    -50.9901E+06     1.97367E+06    -18.7844E+06    -50.9111E-03     101.759E-03    -50.8482E-03     62.3149E-03    -51.1249E-03     101.657E-03    -50.7115E-03     61.7456E-03
            1100     9.41021E-03     106.061E-03    -34.2887E+06    -40.8264E+06     7.51389E+06    -17.3520E+06    -50.4891E-03     101.266E-03    -50.7772E-03     66.8609E-03    -50.7387E-03     101.227E-03    -50.6307E-03     66.2789E-03
            1101     10.2675E-03     106.123E-03    -31.4645E+06    -27.5891E+06     14.7219E+06    -15.4190E+06    -49.9515E-03     100.627E-03    -50.6757E-03     69.0332E-03    -50.2337E-03     100.657E-03    -50.5164E-03     68.4586E-03
            1102     11.1251E-03     106.183E-03    -26.0719E+06    -18.6682E+06     21.0225E+06    -15.4827E+06    -50.0917E-03     100.665E-03    -50.5731E-03     68.2431E-03    -50.3839E-03     100.737E-03    -50.4031E-03     67.6435E-03
            1103     11.9797E-03     106.243E-03    -19.1545E+06    -6.46640E+06     28.1384E+06    -16.1945E+06    -50.3032E-03     100.801E-03    -50.4982E-03     68.3745E-03    -50.6000E-03     100.926E-03    -50.3203E-03     67.7531E-03
            1104     12.8379E-03     106.304E-03    -13.0174E+06     10.6236E+06     36.4813E+06    -12.5172E+06    -50.8666E-03     101.328E-03    -50.4610E-03     67.9565E-03    -51.1677E-03     101.514E-03    -50.2751E-03     67.3856E-03
            1105     13.6947E-03     106.360E-03    -10.7238E+06     26.1392E+06     40.5000E+06    -12.0795E+06    -52.0716E-03     102.548E-03    -50.4764E-03     63.9150E-03    -52.3882E-03     102.802E-03    -50.2962E-03     63.3300E-03
            1106     14.5472E-03     106.410E-03    -10.4711E+06     39.7863E+06     41.4898E+06    -9.99876E+06    -53.0655E-03     103.620E-03    -50.5548E-03     58.6010E-03    -53.3918E-03     103.930E-03    -50.3899E-03     58.0362E-03
            1107     15.4015E-03     106.458E-03    -7.94218E+06     69.1934E+06     49.8237E+06    -4.96590E+06    -54.0478E-03     104.747E-03    -50.6988E-03     51.9101E-03    -54.3950E-03     105.167E-03    -50.5385E-03     51.4058E-03
            1108     16.2569E-03     106.501E-03    -3.93538E+06     94.7017E+06     70.0657E+06    -2.05212E+06    -57.1326E-03     108.140E-03    -51.0076E-03     41.8144E-03    -57.5027E-03     108.630E-03    -50.7889E-03     41.3483E-03
            1109     854.634E-06     106.738E-03    -72.8745E+06    -123.833E+06    -71.4053E+06    -4.87897E+06    -50.5900E-03     102.043E-03    -51.4534E-03     10.0941E-03    -50.6383E-03     101.680E-03    -51.5252E-03     10.0222E-03
            1110     1.71073E-03     106.751E-03    -71.1666E+06    -118.216E+06    -65.7615E+06    -6.32546E+06    -50.8584E-03     101.830E-03    -50.9721E-03     16.1758E-03    -50.9387E-03     101.434E-03    -51.0263E-03     16.0458E-03
            1111     2.56590E-03     106.767E-03    -69.0579E+06    -110.017E+06    -55.8426E+06    -8.59351E+06    -50.8376E-03     101.775E-03    -50.9377E-03     23.4901E-03    -50.9339E-03     101.400E-03    -50.9573E-03     23.2993E-03
            1112     3.42107E-03     106.790E-03    -65.2295E+06    -101.149E+06    -45.6845E+06    -11.7197E+06    -50.6061E-03     101.496E-03    -50.8900E-03     30.9190E-03    -50.7249E-03     101.157E-03    -50.8771E-03     30.6640E-03
            1113     4.27707E-03     106.822E-03    -59.2688E+06    -89.9820E+06    -34.1004E+06    -13.0342E+06    -50.1954E-03     100.986E-03    -50.7908E-03     38.3589E-03    -50.3286E-03     100.689E-03    -50.7449E-03     38.0566E-03
            1114     5.13343E-03     106.857E-03    -54.9971E+06    -81.8241E+06    -24.8978E+06    -15.1864E+06    -49.7906E-03     100.431E-03    -50.6403E-03     45.1307E-03    -49.9378E-03     100.165E-03    -50.5664E-03     44.7678E-03
            1115     5.99098E-03     106.898E-03    -50.7067E+06    -75.1961E+06    -18.4641E+06    -17.4044E+06    -49.7075E-03     100.180E-03    -50.4727E-03     51.3630E-03    -49.8692E-03     99.9485E-03    -50.3824E-03     50.9380E-03
            1116     6.84619E-03     106.945E-03    -45.0975E+06    -63.6851E+06    -10.4572E+06    -16.7681E+06    -49.5002E-03     99.8150E-03    -50.3147E-03     56.7790E-03    -49.6779E-03     99.6368E-03    -50.2093E-03     56.3332E-03
            1117     7.70363E-03     106.997E-03    -43.1868E+06    -53.3195E+06    -3.17986E+06    -15.3105E+06    -49.2344E-03     99.3920E-03    -50.1575E-03     62.0530E-03    -49.4468E-03     99.2709E-03    -50.0335E-03     61.5941E-03
            1118     8.56176E-03     107.053E-03    -41.6961E+06    -48.4710E+06     1.40650E+06    -17.4912E+06    -49.8995E-03     99.9358E-03    -50.0363E-03     66.4218E-03    -50.1409E-03     99.8530E-03    -49.8985E-03     65.8896E-03
            1119     9.41781E-03     107.109E-03    -37.4190E+06    -39.3929E+06     6.79193E+06    -18.7229E+06    -50.2901E-03     100.264E-03    -49.9734E-03     69.4765E-03    -50.5515E-03     100.233E-03    -49.8281E-03     68.8942E-03
            1120     10.2750E-03     107.169E-03    -29.8508E+06    -27.3907E+06     15.4533E+06    -18.1124E+06    -49.7776E-03     99.6972E-03    -49.9196E-03     71.8079E-03    -50.0498E-03     99.7213E-03    -49.7593E-03     71.2134E-03
            1121     11.1314E-03     107.232E-03    -23.7438E+06    -16.6352E+06     22.5283E+06    -17.0203E+06    -49.4957E-03     99.3342E-03    -49.8384E-03     72.1296E-03    -49.7775E-03     99.4072E-03    -49.6672E-03     71.5327E-03
            1122     11.9905E-03     107.291E-03    -22.2767E+06    -6.60519E+06     26.0402E+06    -15.4630E+06    -50.0208E-03     99.7896E-03    -49.7688E-03     72.3633E-03    -50.3268E-03     99.9177E-03    -49.5968E-03     71.7715E-03
            1123     12.8469E-03     107.351E-03    -18.6873E+06     4.30862E+06     31.0900E+06    -12.9190E+06    -51.0805E-03     100.847E-03    -49.7668E-03     70.7692E-03    -51.3945E-03     101.020E-03    -49.5905E-03     70.2019E-03
            1124     13.7024E-03     107.410E-03    -14.0572E+06     25.0907E+06     38.4606E+06    -12.0957E+06    -52.8426E-03     102.699E-03    -49.8567E-03     65.4611E-03    -53.1701E-03     102.955E-03    -49.6804E-03     64.8825E-03
            1125     14.5577E-03     107.463E-03    -8.56377E+06     38.8140E+06     41.5471E+06    -10.2606E+06    -55.3346E-03     105.394E-03    -50.0596E-03     58.8808E-03    -55.6498E-03     105.696E-03    -49.8957E-03     58.2978E-03
            1126     15.4078E-03     107.512E-03    -6.88703E+06     66.0912E+06     50.3242E+06    -4.52597E+06    -57.6976E-03     108.096E-03    -50.3988E-03     52.3476E-03    -58.0432E-03     108.506E-03    -50.2330E-03     51.8066E-03
            1127     16.2540E-03     107.558E-03    -5.37421E+06     91.8086E+06     70.1162E+06    -2.29461E+06    -59.9430E-03     110.835E-03    -50.8923E-03     44.5215E-03    -60.3239E-03     111.320E-03    -50.6671E-03     44.0205E-03
            1128     855.861E-06     107.788E-03    -73.3751E+06    -115.400E+06    -70.5503E+06    -2.70176E+06    -48.8188E-03     100.562E-03    -51.7427E-03     8.40534E-03    -48.8877E-03     100.252E-03    -51.8217E-03     8.36168E-03
            1129     1.71149E-03     107.798E-03    -72.4641E+06    -111.530E+06    -65.4134E+06    -6.23057E+06    -49.3137E-03     99.3939E-03    -50.0803E-03     16.2447E-03    -49.4135E-03     99.0342E-03    -50.1405E-03     16.1115E-03
            1130     2.56906E-03     107.815E-03    -69.1416E+06    -103.428E+06    -56.3799E+06    -8.86474E+06    -49.5253E-03     99.3680E-03    -49.8427E-03     23.6343E-03    -49.6305E-03     99.0265E-03    -49.8744E-03     23.4552E-03
            1131     3.42466E-03     107.840E-03    -65.2860E+06    -94.5905E+06    -45.5952E+06    -11.3578E+06    -49.2673E-03     99.0044E-03    -49.7371E-03     31.5780E-03    -49.3942E-03     98.6961E-03    -49.7333E-03     31.3435E-03
            1132     4.28158E-03     107.867E-03    -60.5044E+06    -86.0512E+06    -36.2301E+06    -13.1396E+06    -48.7932E-03     98.3792E-03    -49.5860E-03     39.7090E-03    -48.9332E-03     98.1042E-03    -49.5547E-03     39.4188E-03
            1133     5.13950E-03     107.905E-03    -55.5700E+06    -75.8363E+06    -26.2352E+06    -13.5209E+06    -48.6024E-03     98.0163E-03    -49.4140E-03     46.5825E-03    -48.7567E-03     97.7804E-03    -49.3546E-03     46.2666E-03
            1134     5.99629E-03     107.944E-03    -53.0647E+06    -69.9209E+06    -19.1213E+06    -15.6795E+06    -48.7177E-03     97.9841E-03    -49.2664E-03     53.7368E-03    -48.8944E-03     97.7796E-03    -49.1837E-03     53.3615E-03
            1135     6.85474E-03     107.994E-03    -50.1164E+06    -62.6006E+06    -12.8379E+06    -16.8702E+06    -48.7012E-03     97.8440E-03    -49.1428E-03     59.5223E-03    -48.8979E-03     97.6779E-03    -49.0436E-03     59.0945E-03
            1136     7.71295E-03     108.040E-03    -48.6652E+06    -54.2962E+06    -6.94653E+06    -15.4413E+06    -48.4813E-03     97.5022E-03    -49.0209E-03     64.7906E-03    -48.7098E-03     97.3854E-03    -48.9063E-03     64.3505E-03
            1137     8.57140E-03     108.100E-03    -45.2962E+06    -45.3833E+06    -419.849E+03    -17.0202E+06    -48.5394E-03     97.4422E-03    -48.9028E-03     69.8210E-03    -48.7965E-03     97.3784E-03    -48.7734E-03     69.3254E-03
            1138     9.42896E-03     108.156E-03    -37.8000E+06    -33.1846E+06     8.54002E+06    -18.8331E+06    -49.3182E-03     98.1535E-03    -48.8354E-03     73.6179E-03    -49.5878E-03     98.1461E-03    -48.6897E-03     73.0639E-03
            1139     10.2851E-03     108.217E-03    -33.1661E+06    -25.8191E+06     13.9571E+06    -18.5443E+06    -49.6100E-03     98.4239E-03    -48.8138E-03     75.9162E-03    -49.8943E-03     98.4582E-03    -48.6585E-03     75.3364E-03
            1140     11.1447E-03     108.275E-03    -30.3666E+06    -17.4833E+06     18.3199E+06    -17.3461E+06    -49.8204E-03     98.6309E-03    -48.8104E-03     76.0446E-03    -50.1265E-03     98.7142E-03    -48.6494E-03     75.4580E-03
            1141     12.0013E-03     108.338E-03    -26.2789E+06    -5.68002E+06     24.3124E+06    -16.1478E+06    -51.1756E-03     100.041E-03    -48.8655E-03     74.9939E-03    -51.5010E-03     100.183E-03    -48.6976E-03     74.3970E-03
            1142     12.8569E-03     108.399E-03    -20.3540E+06     1.93973E+06     28.4420E+06    -15.4515E+06    -52.9586E-03     101.975E-03    -49.0160E-03     72.5781E-03    -53.2789E-03     102.147E-03    -48.8471E-03     71.9619E-03
            1143     13.7109E-03     108.461E-03    -15.0582E+06     24.4627E+06     36.4130E+06    -13.3648E+06    -55.0410E-03     104.315E-03    -49.2742E-03     67.7766E-03    -55.3748E-03     104.577E-03    -49.1058E-03     67.1630E-03
            1144     14.5607E-03     108.517E-03    -12.9848E+06     35.5756E+06     38.2288E+06    -9.84604E+06    -57.7061E-03     107.349E-03    -49.6424E-03     61.0428E-03    -58.0401E-03     107.652E-03    -49.4840E-03     60.4442E-03
            1145     15.4099E-03     108.570E-03    -8.84743E+06     60.8144E+06     46.7076E+06    -5.26762E+06    -60.4130E-03     110.551E-03    -50.1383E-03     55.4927E-03    -60.7693E-03     110.957E-03    -49.9801E-03     54.9039E-03
            1146     16.2575E-03     108.620E-03    -3.84907E+06     90.7716E+06     69.2894E+06    -3.02838E+06    -62.2654E-03     113.040E-03    -50.7748E-03     48.3157E-03    -62.6425E-03     113.525E-03    -50.5544E-03     47.7875E-03
            1147     854.817E-06     108.833E-03    -73.8936E+06    -108.885E+06    -73.4201E+06    -2.35532E+06    -48.7418E-03     98.0464E-03    -49.3047E-03     7.09204E-03    -48.8221E-03     97.7796E-03    -49.4067E-03     7.04372E-03
            1148     1.71490E-03     108.844E-03    -73.2830E+06    -104.045E+06    -66.7569E+06    -5.33367E+06    -47.8459E-03     96.6293E-03    -48.7834E-03     17.1011E-03    -47.9656E-03     96.3171E-03    -48.8601E-03     16.9964E-03
            1149     2.57052E-03     108.862E-03    -70.3473E+06    -97.2478E+06    -58.4788E+06    -7.96385E+06    -47.3569E-03     95.7388E-03    -48.3819E-03     25.0789E-03    -47.4799E-03     95.4382E-03    -48.4313E-03     24.9224E-03
            1150     3.43062E-03     108.883E-03    -67.3675E+06    -88.7415E+06    -49.3402E+06    -9.45305E+06    -47.2345E-03     95.3314E-03    -48.0969E-03     33.7962E-03    -47.3768E-03     95.0629E-03    -48.1172E-03     33.5964E-03
            1151     4.28913E-03     108.914E-03    -65.6789E+06    -81.6181E+06    -40.7062E+06    -11.3509E+06    -47.3488E-03     95.2649E-03    -47.9161E-03     41.6171E-03    -47.5148E-03     95.0261E-03    -47.9061E-03     41.3708E-03
            1152     5.14757E-03     108.947E-03    -60.9263E+06    -72.1739E+06    -29.9447E+06    -12.1904E+06    -47.1459E-03     94.9278E-03    -47.7818E-03     49.1932E-03    -47.3260E-03     94.7220E-03    -47.7386E-03     48.9146E-03
            1153     6.00702E-03     108.991E-03    -57.8337E+06    -63.8423E+06    -20.5277E+06    -13.1392E+06    -47.0744E-03     94.7228E-03    -47.6484E-03     56.8792E-03    -47.2779E-03     94.5537E-03    -47.5746E-03     56.5587E-03
            1154     6.86589E-03     109.034E-03    -57.0220E+06    -59.4584E+06    -15.5436E+06    -15.1624E+06    -47.5068E-03     95.0495E-03    -47.5426E-03     63.0789E-03    -47.7354E-03     94.9096E-03    -47.4515E-03     62.6996E-03
            1155     7.72371E-03     109.088E-03    -51.1762E+06    -51.8652E+06    -8.69421E+06    -16.7186E+06    -47.9511E-03     95.4443E-03    -47.4932E-03     68.3556E-03    -48.1895E-03     95.3421E-03    -47.3873E-03     67.9229E-03
            1156     8.58215E-03     109.139E-03    -44.2643E+06    -40.7189E+06    -275.539E+03    -17.8361E+06    -47.7324E-03     95.1872E-03    -47.4549E-03     73.2019E-03    -47.9849E-03     95.1389E-03    -47.3330E-03     72.7203E-03
            1157     9.44323E-03     109.202E-03    -41.2069E+06    -31.3013E+06     5.99154E+06    -17.9607E+06    -47.9989E-03     95.4107E-03    -47.4118E-03     76.9961E-03    -48.2795E-03     95.4164E-03    -47.2767E-03     76.4796E-03
            1158     10.3028E-03     109.261E-03    -38.8930E+06    -24.3567E+06     10.5722E+06    -18.3452E+06    -49.4936E-03     96.9335E-03    -47.4399E-03     78.1001E-03    -49.7997E-03     96.9844E-03    -47.2953E-03     77.5431E-03
            1159     11.1577E-03     109.322E-03    -33.8310E+06    -16.2814E+06     16.1124E+06    -18.8093E+06    -51.4853E-03     99.0815E-03    -47.5961E-03     78.9486E-03    -51.8095E-03     99.1813E-03    -47.4429E-03     78.3419E-03
            1160     12.0127E-03     109.386E-03    -27.3651E+06    -4.30824E+06     22.8810E+06    -18.6026E+06    -53.5350E-03     101.408E-03    -47.8733E-03     78.2567E-03    -53.8714E-03     101.566E-03    -47.7129E-03     77.6115E-03
            1161     12.8665E-03     109.449E-03    -22.2723E+06     1.40213E+06     26.1403E+06    -17.9323E+06    -55.4883E-03     103.733E-03    -48.2446E-03     75.1504E-03    -55.8196E-03     103.915E-03    -48.0836E-03     74.4808E-03
            1162     13.7176E-03     109.513E-03    -17.8168E+06     22.4976E+06     33.5775E+06    -15.0146E+06    -57.3295E-03     106.025E-03    -48.6951E-03     71.0539E-03    -57.6800E-03     106.295E-03    -48.5340E-03     70.3972E-03
            1163     14.5684E-03     109.574E-03    -12.0978E+06     30.1266E+06     36.4106E+06    -10.6790E+06    -59.9207E-03     109.146E-03    -49.2256E-03     65.9156E-03    -60.2536E-03     109.438E-03    -49.0697E-03     65.2810E-03
            1164     15.4150E-03     109.630E-03    -6.20047E+06     55.1934E+06     45.1314E+06    -6.28080E+06    -62.6803E-03     112.538E-03    -49.8581E-03     59.6990E-03    -63.0254E-03     112.927E-03    -49.7035E-03     59.0677E-03
            1165     16.2597E-03     109.682E-03    -2.77863E+06     88.7495E+06     68.0053E+06    -3.69115E+06    -64.7370E-03     115.362E-03    -50.6251E-03     50.6243E-03    -65.1075E-03     115.841E-03    -50.4098E-03     50.0717E-03
            1166     860.248E-06     109.877E-03    -79.5016E+06    -103.350E+06    -78.8850E+06    -3.48022E+06    -47.5916E-03     92.9993E-03    -45.4077E-03     6.83699E-03    -47.6913E-03     92.7659E-03    -45.5370E-03     6.77201E-03
            1167     1.71546E-03     109.887E-03    -77.9328E+06    -98.7363E+06    -74.0257E+06    -3.99541E+06    -45.9892E-03     92.3675E-03    -46.3784E-03     18.4691E-03    -46.1233E-03     92.0932E-03    -46.4923E-03     18.3953E-03
            1168     2.57898E-03     109.901E-03    -76.7758E+06    -92.2336E+06    -65.5376E+06    -5.00750E+06    -45.2477E-03     91.3801E-03    -46.1325E-03     26.7165E-03    -45.3943E-03     91.1186E-03    -46.2151E-03     26.6134E-03
            1169     3.43808E-03     109.925E-03    -74.1132E+06    -84.0501E+06    -55.1428E+06    -6.99373E+06    -45.3113E-03     91.2172E-03    -45.9059E-03     35.5291E-03    -45.4803E-03     90.9850E-03    -45.9523E-03     35.3796E-03
            1170     4.29808E-03     109.954E-03    -71.3377E+06    -75.6635E+06    -44.4980E+06    -8.80326E+06    -45.3150E-03     91.0873E-03    -45.7722E-03     43.6540E-03    -45.5066E-03     90.8860E-03    -45.7816E-03     43.4610E-03
            1171     5.15822E-03     109.989E-03    -69.0002E+06    -69.3152E+06    -35.1652E+06    -10.5745E+06    -45.5340E-03     91.2201E-03    -45.6861E-03     51.6767E-03    -45.7448E-03     91.0417E-03    -45.6613E-03     51.4361E-03
            1172     6.01894E-03     110.029E-03    -64.1117E+06    -60.1898E+06    -24.9184E+06    -10.9432E+06    -45.7777E-03     91.4175E-03    -45.6398E-03     58.8494E-03    -46.0033E-03     91.2741E-03    -45.5842E-03     58.5860E-03
            1173     6.87940E-03     110.077E-03    -59.5651E+06    -52.9399E+06    -16.7427E+06    -13.0829E+06    -46.0080E-03     91.6205E-03    -45.6125E-03     65.4118E-03    -46.2489E-03     91.5104E-03    -45.5331E-03     65.0921E-03
            1174     7.74009E-03     110.127E-03    -53.8445E+06    -46.6622E+06    -9.90014E+06    -16.8597E+06    -46.5875E-03     92.2008E-03    -45.6133E-03     71.3815E-03    -46.8380E-03     92.1229E-03    -45.5171E-03     70.9703E-03
            1175     8.59946E-03     110.183E-03    -47.3590E+06    -37.7370E+06    -2.51447E+06    -18.6964E+06    -47.5961E-03     93.2723E-03    -45.6761E-03     76.3744E-03    -47.8602E-03     93.2416E-03    -45.5653E-03     75.8991E-03
            1176     9.45690E-03     110.240E-03    -42.9002E+06    -30.0079E+06     3.43944E+06    -19.2478E+06    -48.5773E-03     94.3821E-03    -45.8048E-03     79.6869E-03    -48.8639E-03     94.4003E-03    -45.6819E-03     79.1638E-03
            1177     10.3154E-03     110.305E-03    -37.7342E+06    -20.6552E+06     10.1914E+06    -19.6574E+06    -50.1123E-03     96.1237E-03    -46.0114E-03     80.5576E-03    -50.4176E-03     96.1923E-03    -45.8757E-03     79.9888E-03
            1178     11.1729E-03     110.369E-03    -32.1132E+06    -13.4401E+06     16.0990E+06    -21.1917E+06    -52.9061E-03     99.2532E-03    -46.3471E-03     81.7018E-03    -53.2266E-03     99.3656E-03    -46.2006E-03     81.0597E-03
            1179     12.0265E-03     110.436E-03    -27.2222E+06    -3.84439E+06     21.0753E+06    -21.0701E+06    -55.9155E-03     102.750E-03    -46.8343E-03     81.3549E-03    -56.2532E-03     102.916E-03    -46.6838E-03     80.6625E-03
            1180     12.8764E-03     110.502E-03    -22.0038E+06     2.02931E+06     25.4546E+06    -19.9397E+06    -58.0163E-03     105.450E-03    -47.4334E-03     78.1426E-03    -58.3498E-03     105.639E-03    -47.2772E-03     77.4334E-03
            1181     13.7264E-03     110.567E-03    -15.8559E+06     19.6015E+06     32.4740E+06    -17.8754E+06    -59.6774E-03     107.756E-03    -48.0782E-03     74.4728E-03    -60.0192E-03     108.017E-03    -47.9213E-03     73.7613E-03
            1182     14.5743E-03     110.631E-03    -12.0327E+06     23.7817E+06     34.1525E+06    -13.0401E+06    -62.5342E-03     111.316E-03    -48.7822E-03     69.8910E-03    -62.8645E-03     111.590E-03    -48.6285E-03     69.1955E-03
            1183     15.4195E-03     110.693E-03    -8.54515E+06     50.0958E+06     42.2889E+06    -8.39241E+06    -65.7585E-03     115.345E-03    -49.5869E-03     62.2173E-03    -66.1079E-03     115.720E-03    -49.4357E-03     61.5291E-03
            1184     16.2617E-03     110.747E-03    -3.52929E+06     84.5783E+06     65.7942E+06    -4.25618E+06    -67.1560E-03     117.663E-03    -50.5072E-03     51.6366E-03    -67.5216E-03     118.126E-03    -50.2957E-03     51.0593E-03
            1185     861.303E-06     110.917E-03    -93.1588E+06    -99.6362E+06    -91.7495E+06    -2.52726E+06    -43.2463E-03     86.0630E-03    -42.8167E-03     7.76505E-03    -43.4120E-03     85.8879E-03    -42.9959E-03     7.72107E-03
            1186     1.72580E-03     110.923E-03    -91.3642E+06    -94.9843E+06    -85.9171E+06    -3.27017E+06    -43.5157E-03     86.6375E-03    -43.1218E-03     18.2178E-03    -43.7031E-03     86.4171E-03    -43.2812E-03     18.1544E-03
            1187     2.58413E-03     110.938E-03    -87.6809E+06    -88.1652E+06    -76.2659E+06    -4.56074E+06    -43.5753E-03     86.8481E-03    -43.2728E-03     27.6464E-03    -43.7628E-03     86.6342E-03    -43.3991E-03     27.5534E-03
            1188     3.44649E-03     110.961E-03    -83.6654E+06    -80.1185E+06    -63.7535E+06    -5.52199E+06    -43.1598E-03     86.4671E-03    -43.3073E-03     36.4957E-03    -43.3673E-03     86.2780E-03    -43.3886E-03     36.3835E-03
            1189     4.30932E-03     110.989E-03    -79.0647E+06    -71.7202E+06    -50.8468E+06    -7.13993E+06    -42.9110E-03     86.1597E-03    -43.2487E-03     45.1601E-03    -43.1358E-03     85.9967E-03    -43.2843E-03     45.0136E-03
            1190     5.17212E-03     111.025E-03    -73.7663E+06    -64.1948E+06    -39.2290E+06    -9.41220E+06    -43.6510E-03     86.8739E-03    -43.2228E-03     54.3631E-03    -43.8851E-03     86.7315E-03    -43.2189E-03     54.1603E-03
            1191     6.03220E-03     111.067E-03    -66.9552E+06    -55.7106E+06    -28.1932E+06    -11.1186E+06    -44.4214E-03     87.7109E-03    -43.2895E-03     61.8969E-03    -44.6591E-03     87.5945E-03    -43.2526E-03     61.6516E-03
            1192     6.89351E-03     111.113E-03    -59.9118E+06    -47.5280E+06    -18.3141E+06    -13.6407E+06    -44.6771E-03     88.0605E-03    -43.3834E-03     68.6242E-03    -44.9194E-03     87.9745E-03    -43.3192E-03     68.3190E-03
            1193     7.75499E-03     111.166E-03    -53.5032E+06    -40.8058E+06    -10.2980E+06    -17.7778E+06    -45.5320E-03     89.0251E-03    -43.4931E-03     74.5344E-03    -45.7842E-03     88.9723E-03    -43.4078E-03     74.1340E-03
            1194     8.61619E-03     111.221E-03    -48.3287E+06    -33.6094E+06    -4.01535E+06    -20.5034E+06    -47.6386E-03     91.3413E-03    -43.7026E-03     79.6457E-03    -47.9090E-03     91.3325E-03    -43.6039E-03     79.1644E-03
            1195     9.47515E-03     111.284E-03    -42.5385E+06    -26.5570E+06     2.25224E+06    -21.9886E+06    -49.9916E-03     94.0553E-03    -44.0637E-03     82.6387E-03    -50.2768E-03     94.0890E-03    -43.9522E-03     82.0875E-03
            1196     10.3311E-03     111.346E-03    -35.1139E+06    -17.8929E+06     10.0015E+06    -22.3038E+06    -52.0410E-03     96.5854E-03    -44.5444E-03     84.0735E-03    -52.3371E-03     96.6647E-03    -44.4176E-03     83.4670E-03
            1197     11.1859E-03     111.416E-03    -29.6538E+06    -9.98545E+06     16.4316E+06    -22.3450E+06    -54.7030E-03     99.8276E-03    -45.1246E-03     85.2437E-03    -55.0207E-03     99.9573E-03    -44.9849E-03     84.5802E-03
            1198     12.0374E-03     111.487E-03    -25.1379E+06    -3.01242E+06     21.1490E+06    -22.8129E+06    -57.4587E-03     103.267E-03    -45.8086E-03     84.4624E-03    -57.7914E-03     103.439E-03    -45.6621E-03     83.7429E-03
            1199     12.8880E-03     111.557E-03    -20.7217E+06     1.90559E+06     25.2883E+06    -21.7571E+06    -59.8780E-03     106.457E-03    -46.5791E-03     81.5100E-03    -60.2088E-03     106.648E-03    -46.4254E-03     80.7689E-03
            1200     13.7355E-03     111.623E-03    -17.1061E+06     16.4922E+06     30.8852E+06    -19.0318E+06    -62.8477E-03     110.270E-03    -47.4224E-03     78.4359E-03    -63.1963E-03     110.528E-03    -47.2671E-03     77.6823E-03
            1201     14.5809E-03     111.692E-03    -12.7413E+06     17.6915E+06     32.1455E+06    -14.8615E+06    -66.2074E-03     114.562E-03    -48.3548E-03     74.0598E-03    -66.5403E-03     114.820E-03    -48.2012E-03     73.3009E-03
            1202     15.4223E-03     111.758E-03    -8.66433E+06     46.7445E+06     41.4728E+06    -10.6435E+06    -68.5542E-03     117.908E-03    -49.3537E-03     65.7110E-03    -68.9055E-03     118.274E-03    -49.2016E-03     64.9685E-03
            1203     16.2614E-03     111.817E-03    -4.76585E+06     79.0881E+06     63.7706E+06    -5.46138E+06    -69.0221E-03     119.424E-03    -50.4015E-03     53.3357E-03    -69.3856E-03     119.866E-03    -50.1904E-03     52.7286E-03
            1204     865.581E-06     111.944E-03    -113.712E+06    -94.4046E+06    -112.878E+06    -2.63944E+06    -40.0515E-03     79.5460E-03    -39.4944E-03     8.98030E-03    -40.3024E-03     79.4572E-03    -39.7570E-03     8.94851E-03
            1205     1.72795E-03     111.955E-03    -110.330E+06    -90.3564E+06    -104.064E+06    -4.56107E+06    -40.3405E-03     80.2313E-03    -39.8908E-03     18.4390E-03    -40.6037E-03     80.0876E-03    -40.1201E-03     18.3823E-03
            1206     2.59382E-03     111.970E-03    -103.770E+06    -84.1311E+06    -91.5223E+06    -6.88427E+06    -40.6788E-03     80.7890E-03    -40.1102E-03     28.9146E-03    -40.9300E-03     80.6397E-03    -40.2954E-03     28.8055E-03
            1207     3.45690E-03     111.993E-03    -95.6457E+06    -76.9072E+06    -76.1988E+06     -8.2804E+06    -40.7932E-03     81.0715E-03    -40.2783E-03     38.1956E-03    -41.0460E-03     80.9324E-03    -40.4091E-03     38.0558E-03
            1208     4.32092E-03     112.019E-03    -86.1170E+06    -67.4730E+06    -59.5680E+06    -9.88320E+06    -40.9234E-03     81.3168E-03    -40.3933E-03     47.0886E-03    -41.1735E-03     81.1945E-03    -40.4685E-03     46.9244E-03
            1209     5.18484E-03     112.057E-03    -76.0036E+06    -58.2613E+06    -43.9533E+06    -12.2841E+06    -41.3334E-03     81.8228E-03    -40.4895E-03     56.9009E-03    -41.5762E-03     81.7161E-03    -40.5145E-03     56.6845E-03
            1210     6.04996E-03     112.100E-03    -66.5245E+06    -50.8138E+06    -31.0930E+06    -14.6871E+06    -42.2367E-03     82.8566E-03    -40.6199E-03     64.7279E-03    -42.4734E-03     82.7664E-03    -40.6052E-03     64.4495E-03
            1211     6.91260E-03     112.147E-03    -58.3057E+06    -43.3006E+06    -20.5110E+06    -16.5214E+06    -43.5232E-03     84.3491E-03    -40.8259E-03     71.9725E-03    -43.7580E-03     84.2825E-03    -40.7811E-03     71.6441E-03
            1212     7.77462E-03     112.199E-03    -50.6463E+06    -34.8506E+06    -10.5390E+06    -18.7641E+06    -45.4959E-03     86.6365E-03    -41.1405E-03     79.1571E-03    -45.7390E-03     86.6067E-03    -41.0693E-03     78.7651E-03
            1213     8.63412E-03     112.260E-03    -44.3106E+06    -27.2748E+06    -2.60024E+06    -21.6586E+06    -48.2775E-03     89.8784E-03    -41.6009E-03     84.6733E-03    -48.5361E-03     89.8907E-03    -41.5101E-03     84.1910E-03
            1214     9.49128E-03     112.325E-03    -40.0707E+06    -21.6893E+06     2.78061E+06    -24.1856E+06    -51.2939E-03     93.5148E-03    -42.2208E-03     86.9813E-03    -51.5712E-03     93.5652E-03    -42.1174E-03     86.4096E-03
            1215     10.3468E-03     112.391E-03    -34.7554E+06    -15.6724E+06     9.18421E+06    -25.6354E+06    -54.3413E-03     97.3273E-03    -42.9860E-03     88.6151E-03    -54.6395E-03     97.4203E-03    -42.8669E-03     87.9648E-03
            1216     11.1988E-03     112.463E-03    -28.0708E+06    -8.65218E+06     16.5203E+06    -24.5358E+06    -56.8905E-03     100.735E-03    -43.8446E-03     90.5127E-03    -57.2080E-03     100.875E-03    -43.7087E-03     89.8137E-03
            1217     12.0505E-03     112.537E-03    -23.4424E+06    -859.828E+03     22.4970E+06    -23.3267E+06    -59.1442E-03     103.891E-03    -44.7465E-03     89.2379E-03    -59.4800E-03     104.076E-03    -44.5988E-03     88.5028E-03
            1218     12.8996E-03     112.610E-03    -20.1386E+06     1.28490E+06     25.5245E+06    -22.8226E+06    -62.3635E-03     108.074E-03    -45.7107E-03     85.7285E-03    -62.7019E-03     108.272E-03    -45.5557E-03     84.9497E-03
            1219     13.7455E-03     112.683E-03    -15.4117E+06     14.6271E+06     31.4933E+06    -21.0380E+06    -66.4111E-03     113.195E-03    -46.7834E-03     82.4469E-03    -66.7604E-03     113.450E-03    -46.6248E-03     81.6304E-03
            1220     14.5861E-03     112.756E-03    -10.2673E+06     11.9116E+06     31.6037E+06    -17.8966E+06    -69.5483E-03     117.490E-03    -47.9415E-03     77.6274E-03    -69.8665E-03     117.723E-03    -47.7858E-03     76.7980E-03
            1221     15.4255E-03     112.826E-03    -6.76021E+06     39.6729E+06     40.4726E+06    -10.7801E+06    -70.6905E-03     119.796E-03    -49.1058E-03     68.7502E-03    -71.0259E-03     120.131E-03    -48.9511E-03     67.9928E-03
            1222     16.2663E-03     112.886E-03    -4.35236E+06     74.0556E+06     63.9286E+06    -5.09447E+06    -70.9786E-03     121.251E-03    -50.2724E-03     55.0076E-03    -71.3347E-03     121.669E-03    -50.0538E-03     54.3980E-03
            1223     866.856E-06     112.971E-03    -132.625E+06    -86.9089E+06    -132.048E+06    -4.56622E+06    -36.9789E-03     73.0134E-03    -36.0346E-03     10.2623E-03    -37.2923E-03     73.0098E-03    -36.3765E-03     10.1966E-03
            1224     1.73531E-03     112.977E-03    -128.190E+06    -82.8117E+06    -122.854E+06    -8.18060E+06    -36.8810E-03     73.4548E-03    -36.5738E-03     19.5776E-03    -37.2132E-03     73.3961E-03    -36.8821E-03     19.4714E-03
            1225     2.60162E-03     112.995E-03    -120.642E+06    -77.4080E+06    -108.261E+06    -12.1623E+06    -37.0135E-03     73.7295E-03    -36.7160E-03     30.2237E-03    -37.3332E-03     73.6611E-03    -36.9702E-03     30.0651E-03
            1226     3.46930E-03     113.017E-03    -109.512E+06    -70.4637E+06    -90.9082E+06    -16.0064E+06    -37.8703E-03     74.7665E-03    -36.8962E-03     40.0648E-03    -38.1789E-03     74.6992E-03    -37.0898E-03     39.8413E-03
            1227     4.33492E-03     113.047E-03    -96.0193E+06    -61.7112E+06    -72.1971E+06    -18.4570E+06    -38.9812E-03     76.1710E-03    -37.1898E-03     49.8553E-03    -39.2682E-03     76.1074E-03    -37.3220E-03     49.5839E-03
            1228     5.20085E-03     113.082E-03    -82.2396E+06    -52.6937E+06    -53.4410E+06    -20.4498E+06    -39.7207E-03     77.2443E-03    -37.5236E-03     58.9413E-03    -39.9848E-03     77.1843E-03    -37.5951E-03     58.6326E-03
            1229     6.06591E-03     113.127E-03    -68.8423E+06    -46.4765E+06    -37.1867E+06    -22.6104E+06    -40.4492E-03     78.2889E-03    -37.8397E-03     66.1542E-03    -40.6907E-03     78.2287E-03    -37.8584E-03     65.7948E-03
            1230     6.93119E-03     113.175E-03    -56.4564E+06    -39.6570E+06    -23.1741E+06    -22.6300E+06    -42.5069E-03     80.7223E-03    -38.2154E-03     73.4447E-03    -42.7299E-03     80.6714E-03    -38.1919E-03     73.0525E-03
            1231     7.79380E-03     113.232E-03    -47.3763E+06    -29.7665E+06    -11.1665E+06    -22.1023E+06    -45.6205E-03     84.3796E-03    -38.7591E-03     81.1577E-03    -45.8478E-03     84.3657E-03    -38.7030E-03     80.7351E-03
            1232     8.65374E-03     113.296E-03    -41.0257E+06    -21.9646E+06    -1.85661E+06    -23.0955E+06    -48.6375E-03     88.1093E-03    -39.4718E-03     87.4287E-03    -48.8818E-03     88.1355E-03    -39.3897E-03     86.9469E-03
            1233     9.51111E-03     113.365E-03    -35.3313E+06    -15.8728E+06     5.76556E+06    -24.8616E+06    -51.7754E-03     92.0879E-03    -40.3124E-03     91.8864E-03    -52.0393E-03     92.1535E-03    -40.2094E-03     91.3226E-03
            1234     10.3643E-03     113.436E-03    -30.9050E+06    -10.8812E+06     12.1069E+06    -26.8749E+06    -55.4662E-03     96.7470E-03    -41.2808E-03     95.6457E-03    -55.7609E-03     96.8588E-03    -41.1597E-03     94.9807E-03
            1235     11.2159E-03     113.512E-03    -26.6291E+06    -9.20314E+06     16.8840E+06    -27.3937E+06    -59.1437E-03     101.515E-03    -42.3715E-03     97.4834E-03    -59.4615E-03     101.658E-03    -42.2351E-03     96.7350E-03
            1236     12.0647E-03     113.588E-03    -21.0034E+06    -1.43309E+06     23.3875E+06    -24.9523E+06    -62.5837E-03     106.141E-03    -43.5571E-03     95.2692E-03    -62.9170E-03     106.328E-03    -43.4076E-03     94.4890E-03
            1237     12.9107E-03     113.667E-03    -16.1935E+06     2.77115E+06     28.4712E+06    -23.1264E+06    -66.2312E-03     111.057E-03    -44.8258E-03     91.3570E-03    -66.5676E-03     111.264E-03    -44.6640E-03     90.5397E-03
            1238     13.7521E-03     113.745E-03    -13.2840E+06     13.1346E+06     32.6300E+06    -22.3400E+06    -69.5552E-03     115.706E-03    -46.1509E-03     87.9895E-03    -69.9047E-03     115.961E-03    -45.9875E-03     87.1231E-03
            1239     14.5922E-03     113.824E-03    -11.9768E+06     7.09524E+06     30.7940E+06    -18.2947E+06    -71.9756E-03     119.470E-03    -47.4944E-03     82.4317E-03    -72.3028E-03     119.691E-03    -47.3334E-03     81.5758E-03
            1240     15.4306E-03     113.895E-03    -8.90554E+06     31.4283E+06     37.9507E+06    -13.0811E+06    -73.4556E-03     122.268E-03    -48.8124E-03     72.0537E-03    -73.7928E-03     122.575E-03    -48.6553E-03     71.2442E-03
            1241     16.2664E-03     113.958E-03    -2.73925E+06     66.3700E+06     62.8336E+06    -6.53272E+06    -73.5800E-03     123.709E-03    -50.1285E-03     56.2325E-03    -73.9172E-03     124.089E-03    -49.9066E-03     55.5871E-03
            1242     871.506E-06     113.987E-03    -125.504E+06    -77.0119E+06    -123.770E+06    -6.25458E+06    -32.5297E-03     66.0882E-03    -33.5585E-03     11.5989E-03    -32.8441E-03     66.1223E-03    -33.8837E-03     11.5273E-03
            1243     1.74021E-03     113.995E-03    -121.553E+06    -71.0511E+06    -115.311E+06    -11.0987E+06    -33.7194E-03     66.8934E-03    -33.1739E-03     19.8110E-03    -34.0535E-03     66.8800E-03    -33.4712E-03     19.6603E-03
            1244     2.61135E-03     114.011E-03    -115.365E+06    -65.6670E+06    -103.970E+06    -17.2335E+06    -34.1127E-03     67.5404E-03    -33.4277E-03     30.1566E-03    -34.4349E-03     67.5224E-03    -33.6850E-03     29.9324E-03
            1245     3.48083E-03     114.036E-03    -108.048E+06    -59.6615E+06    -90.4368E+06    -22.5888E+06    -34.8795E-03     68.5638E-03    -33.6843E-03     40.1338E-03    -35.1995E-03     68.5508E-03    -33.8933E-03     39.8378E-03
            1246     4.35037E-03     114.066E-03    -99.7351E+06    -53.5300E+06    -76.0819E+06    -26.7738E+06    -36.6974E-03     70.7696E-03    -34.0722E-03     50.3440E-03    -37.0121E-03     70.7608E-03    -34.2304E-03     49.9714E-03
            1247     5.21634E-03     114.106E-03    -89.1673E+06    -45.0817E+06    -60.6782E+06    -30.2543E+06    -38.3778E-03     72.9824E-03    -34.6046E-03     58.9540E-03    -38.6788E-03     72.9825E-03    -34.7133E-03     58.5202E-03
            1248     6.08257E-03     114.149E-03    -77.0343E+06    -40.8928E+06    -45.4051E+06    -32.8288E+06    -39.7488E-03     74.9352E-03    -35.1865E-03     66.7418E-03    -40.0269E-03     74.9264E-03    -35.2425E-03     66.2597E-03
            1249     6.94781E-03     114.201E-03    -63.7295E+06    -37.0985E+06    -30.8795E+06    -32.8736E+06    -42.1724E-03     77.9976E-03    -35.8252E-03     75.2793E-03    -42.4237E-03     77.9808E-03    -35.8334E-03     74.7682E-03
            1250     7.80978E-03     114.263E-03    -49.6289E+06    -27.6906E+06    -15.6260E+06    -30.5358E+06    -45.3240E-03     81.9189E-03    -36.5949E-03     83.3296E-03    -45.5580E-03     81.9238E-03    -36.5609E-03     82.8094E-03
            1251     8.66950E-03     114.329E-03    -37.5518E+06    -19.2499E+06    -1.25135E+06    -28.0900E+06    -48.1790E-03     85.6656E-03    -37.4866E-03     89.7419E-03    -48.4074E-03     85.6961E-03    -37.4105E-03     89.2093E-03
            1252     9.52790E-03     114.402E-03    -29.7262E+06    -12.9111E+06     9.42019E+06    -26.5147E+06    -51.3640E-03     89.8259E-03    -38.4620E-03     95.2465E-03    -51.6061E-03     89.8897E-03    -38.3530E-03     94.6782E-03
            1253     10.3849E-03     114.479E-03    -25.3781E+06    -6.56454E+06     17.1760E+06    -26.2605E+06    -55.8622E-03     95.4292E-03    -39.5670E-03     99.6731E-03    -56.1402E-03     95.5446E-03    -39.4348E-03     99.0307E-03
            1254     11.2359E-03     114.561E-03    -22.9028E+06    -5.36038E+06     21.2201E+06    -28.0344E+06    -60.9685E-03     101.819E-03    -40.8509E-03     101.497E-03    -61.2784E-03     101.968E-03    -40.7038E-03     100.745E-03
            1255     12.0813E-03     114.644E-03    -19.2407E+06    -4.06117E+06     24.4732E+06    -27.7191E+06    -65.6447E-03     107.936E-03    -42.2908E-03     100.957E-03    -65.9745E-03     108.113E-03    -42.1346E-03     100.122E-03
            1256     12.9225E-03     114.727E-03    -14.6872E+06     2.18298E+06     30.4266E+06    -23.7508E+06    -69.6823E-03     113.518E-03    -43.8353E-03     99.1014E-03    -70.0314E-03     113.735E-03    -43.6651E-03     98.2374E-03
            1257     13.7627E-03     114.811E-03    -12.8644E+06     11.3472E+06     34.4952E+06    -20.0317E+06    -72.7828E-03     118.191E-03    -45.4080E-03     95.0440E-03    -73.1476E-03     118.451E-03    -45.2333E-03     94.1745E-03
            1258     14.6011E-03     114.892E-03    -10.7355E+06     3.72469E+06     33.3241E+06    -17.7098E+06    -75.0167E-03     121.981E-03    -46.9638E-03     87.4565E-03    -75.3466E-03     122.190E-03    -46.7871E-03     86.5860E-03
            1259     15.4361E-03     114.968E-03    -7.79150E+06     27.7857E+06     42.1714E+06    -14.6745E+06    -76.4985E-03     124.973E-03    -48.4747E-03     76.3488E-03    -76.8392E-03     125.263E-03    -48.2928E-03     75.4930E-03
            1260     16.2699E-03     115.033E-03    -4.99887E+06     56.4234E+06     62.2107E+06    -7.69065E+06    -76.7001E-03     126.651E-03    -49.9509E-03     58.8734E-03    -77.0380E-03     126.991E-03    -49.7144E-03     58.1861E-03
            1261     872.695E-06     114.996E-03    -95.6751E+06    -63.7151E+06    -91.7360E+06    -6.85326E+06    -30.1248E-03     60.8008E-03    -30.6760E-03     9.71989E-03    -30.3570E-03     60.8164E-03    -30.9036E-03     9.65288E-03
            1262     1.74750E-03     115.006E-03    -90.6291E+06    -57.6931E+06    -84.4103E+06    -12.3959E+06    -30.8055E-03     61.2819E-03    -30.4763E-03     19.4126E-03    -31.0480E-03     61.2451E-03    -30.6833E-03     19.2569E-03
            1263     2.61784E-03     115.024E-03    -87.4401E+06    -51.7233E+06    -75.9421E+06    -18.0047E+06    -32.1859E-03     62.9694E-03    -30.7835E-03     28.8256E-03    -32.4246E-03     62.9359E-03    -30.9614E-03     28.5863E-03
            1264     3.48997E-03     115.047E-03    -84.1783E+06    -47.2824E+06    -65.8888E+06    -23.3117E+06    -33.4159E-03     64.6855E-03    -31.2696E-03     38.2428E-03    -33.6658E-03     64.6606E-03    -31.4084E-03     37.9275E-03
            1265     4.36002E-03     115.082E-03    -79.5960E+06    -41.6726E+06    -55.5847E+06    -28.6397E+06    -34.7127E-03     66.5065E-03    -31.7938E-03     47.7132E-03    -34.9708E-03     66.4953E-03    -31.8959E-03     47.3210E-03
            1266     5.22984E-03     115.123E-03    -74.8811E+06    -34.5940E+06    -46.4546E+06    -33.5854E+06    -36.2626E-03     68.6121E-03    -32.3495E-03     56.2711E-03    -36.5254E-03     68.6207E-03    -32.4230E-03     55.8003E-03
            1267     6.09702E-03     115.169E-03    -69.8272E+06    -32.4693E+06    -38.0371E+06    -37.7259E+06    -38.9060E-03     71.9221E-03    -33.0161E-03     65.9163E-03    -39.1690E-03     71.9324E-03    -33.0580E-03     65.3720E-03
            1268     6.96133E-03     115.225E-03    -63.3101E+06    -31.2201E+06    -29.3728E+06    -40.4717E+06    -41.8882E-03     75.7221E-03    -33.8339E-03     75.7846E-03    -42.1455E-03     75.7294E-03    -33.8437E-03     75.1813E-03
            1269     7.82518E-03     115.289E-03    -54.5273E+06    -25.9965E+06    -19.0335E+06    -40.7408E+06    -44.4657E-03     79.2114E-03    -34.7457E-03     84.3389E-03    -44.7180E-03     79.2332E-03    -34.7241E-03     83.6983E-03
            1270     8.68660E-03     115.361E-03    -43.1956E+06    -20.5379E+06    -5.32471E+06    -37.6095E+06    -47.4910E-03     83.2286E-03    -35.7377E-03     91.2014E-03    -47.7348E-03     83.2620E-03    -35.6719E-03     90.5586E-03
            1271     9.54524E-03     115.436E-03    -31.0348E+06    -13.6366E+06     9.33355E+06    -32.7036E+06    -51.6469E-03     88.4982E-03    -36.8513E-03     97.3037E-03    -51.8877E-03     88.5540E-03    -36.7398E-03     96.6716E-03
            1272     10.3988E-03     115.521E-03    -21.3882E+06    -6.43036E+06     20.2621E+06    -28.4572E+06    -56.5456E-03     94.6648E-03    -38.1192E-03     102.154E-03    -56.7973E-03     94.7598E-03    -37.9775E-03     101.506E-03
            1273     11.2487E-03     115.609E-03    -16.5812E+06    -1.44659E+06     27.3528E+06    -25.6803E+06    -61.3552E-03     100.897E-03    -39.5419E-03     104.635E-03    -61.6360E-03     101.035E-03    -39.3790E-03     103.938E-03
            1274     12.0958E-03     115.699E-03    -16.0911E+06    -2.02158E+06     29.9871E+06    -25.8991E+06    -66.5210E-03     107.622E-03    -41.1014E-03     106.007E-03    -66.8420E-03     107.793E-03    -40.9252E-03     105.208E-03
            1275     12.9390E-03     115.789E-03    -14.9293E+06    -1.76459E+06     32.2006E+06    -24.6836E+06    -71.9160E-03     114.714E-03    -42.7983E-03     104.508E-03    -72.2646E-03     114.911E-03    -42.6131E-03     103.626E-03
            1276     13.7760E-03     115.878E-03    -11.2150E+06     8.11976E+06     38.5744E+06    -19.8346E+06    -76.2178E-03     120.815E-03    -44.5969E-03     99.3792E-03    -76.5776E-03     121.053E-03    -44.3996E-03     98.4942E-03
            1277     14.6089E-03     115.964E-03    -8.85212E+06     2.22012E+06     38.2179E+06    -16.0474E+06    -78.6526E-03     125.044E-03    -46.3919E-03     90.6999E-03    -78.9778E-03     125.236E-03    -46.1912E-03     89.8311E-03
            1278     15.4424E-03     116.042E-03    -7.83940E+06     25.0003E+06     46.8807E+06    -13.7135E+06    -79.3395E-03     127.446E-03    -48.1066E-03     78.7670E-03    -79.6824E-03     127.714E-03    -47.8971E-03     77.9132E-03
            1279     16.2754E-03     116.111E-03    -4.38992E+06     47.2752E+06     63.9692E+06    -8.53136E+06    -79.9135E-03     129.660E-03    -49.7467E-03     60.4405E-03    -80.2364E-03     129.950E-03    -49.4891E-03     59.7343E-03
            1280     873.747E-06     115.998E-03    -62.2820E+06    -49.4030E+06    -61.4447E+06    -7.09640E+06    -30.4328E-03     57.9891E-03    -27.5563E-03     8.93058E-03    -30.5363E-03     57.9762E-03    -27.7016E-03     8.82627E-03
            1281     1.74851E-03     116.012E-03    -59.3044E+06    -44.1684E+06    -53.6806E+06    -12.4134E+06    -29.6190E-03     58.7201E-03    -29.1011E-03     17.3382E-03    -29.7621E-03     58.6556E-03    -29.2195E-03     17.1713E-03
            1282     2.62418E-03     116.031E-03    -57.2357E+06    -38.8327E+06    -43.7651E+06    -17.2266E+06    -30.9547E-03     60.4375E-03    -29.4828E-03     26.1075E-03    -31.1059E-03     60.3765E-03    -29.5623E-03     25.8779E-03
            1283     3.49463E-03     116.058E-03    -53.3664E+06    -34.8496E+06    -34.3336E+06    -22.0597E+06    -32.7676E-03     62.8265E-03    -30.0588E-03     35.0807E-03    -32.9287E-03     62.7747E-03    -30.1026E-03     34.7771E-03
            1284     4.36495E-03     116.093E-03    -48.8795E+06    -29.1787E+06    -25.7760E+06    -26.7261E+06    -33.5569E-03     64.2117E-03    -30.6548E-03     43.6951E-03    -33.7239E-03     64.1767E-03    -30.6705E-03     43.3215E-03
            1285     5.23589E-03     116.135E-03    -44.9405E+06    -23.7760E+06    -18.1956E+06    -30.7548E+06    -34.8771E-03     66.0738E-03    -31.1966E-03     52.0373E-03    -35.0475E-03     66.0530E-03    -31.1880E-03     51.6027E-03
            1286     6.10593E-03     116.186E-03    -43.6762E+06    -21.9722E+06    -13.2888E+06    -34.3852E+06    -37.6954E-03     69.5354E-03    -31.8399E-03     61.9150E-03    -37.8785E-03     69.5240E-03    -31.8112E-03     61.4132E-03
            1287     6.97234E-03     116.247E-03    -43.6820E+06    -21.7186E+06    -9.87189E+06    -38.4178E+06    -40.7939E-03     73.4502E-03    -32.6563E-03     71.5077E-03    -40.9928E-03     73.4460E-03    -32.6109E-03     70.9293E-03
            1288     7.83522E-03     116.313E-03    -43.6317E+06    -20.2858E+06    -6.73018E+06    -41.0985E+06    -43.4468E-03     77.0234E-03    -33.5765E-03     80.2101E-03    -43.6656E-03     77.0351E-03    -33.5175E-03     79.5725E-03
            1289     8.69766E-03     116.388E-03    -41.8372E+06    -19.1006E+06    -1.87990E+06    -42.1509E+06    -46.7113E-03     81.2920E-03    -34.5807E-03     88.3771E-03    -46.9482E-03     81.3184E-03    -34.5017E-03     87.6933E-03
            1290     9.55594E-03     116.470E-03    -36.1663E+06    -15.0753E+06     6.64158E+06    -40.4192E+06    -51.2127E-03     86.9406E-03    -35.7279E-03     96.8884E-03    -51.4635E-03     86.9908E-03    -35.6204E-03     96.1764E-03
            1291     10.4106E-03     116.562E-03    -27.6807E+06    -9.80098E+06     16.5955E+06    -35.4705E+06    -56.0253E-03     93.0662E-03    -37.0408E-03     104.225E-03    -56.2859E-03     93.1461E-03    -36.9035E-03     103.509E-03
            1292     11.2622E-03     116.655E-03    -18.0447E+06    -5.36550E+06     27.5783E+06    -28.2974E+06    -60.9232E-03     99.4304E-03    -38.5072E-03     107.943E-03    -61.1915E-03     99.5364E-03    -38.3353E-03     107.245E-03
            1293     12.1095E-03     116.752E-03    -10.5999E+06     560.340E+03     37.5231E+06    -23.5030E+06    -66.7333E-03     106.862E-03    -40.1282E-03     110.317E-03    -67.0272E-03     107.012E-03    -39.9260E-03     109.586E-03
            1294     12.9497E-03     116.852E-03    -8.36785E+06    -3.55001E+06     39.6396E+06    -21.8030E+06    -73.2447E-03     115.165E-03    -41.9199E-03     109.348E-03    -73.5567E-03     115.321E-03    -41.7045E-03     108.527E-03
            1295     13.7854E-03     116.948E-03    -8.96456E+06     3.01549E+06     42.5585E+06    -17.3365E+06    -78.5466E-03     122.404E-03    -43.8569E-03     103.752E-03    -78.8880E-03     122.602E-03    -43.6355E-03     102.898E-03
            1296     14.6185E-03     117.040E-03    -8.41355E+06     2.33766E+06     43.0019E+06    -14.8387E+06    -81.6544E-03     127.486E-03    -45.8320E-03     94.0427E-03    -81.9803E-03     127.667E-03    -45.6082E-03     93.1842E-03
            1297     15.4478E-03     117.120E-03    -4.91146E+06     22.0251E+06     50.5896E+06    -13.4225E+06    -82.6672E-03     130.403E-03    -47.7355E-03     80.8890E-03    -82.9896E-03     130.640E-03    -47.5074E-03     80.0411E-03
            1298     16.2769E-03     117.191E-03    -2.17183E+06     38.2740E+06     64.6600E+06    -8.10452E+06    -83.1984E-03     132.751E-03    -49.5527E-03     63.3525E-03    -83.4979E-03     132.992E-03    -49.2818E-03     62.6419E-03
            1299     877.431E-06     117.009E-03    -34.3263E+06    -34.9149E+06    -30.9655E+06    -6.34588E+06    -31.2449E-03     58.0881E-03    -26.8432E-03     10.1705E-03    -31.2927E-03     58.0640E-03    -26.8976E-03     10.0862E-03
            1300     1.74806E-03     117.014E-03    -32.6175E+06    -31.7355E+06    -25.4894E+06    -11.3952E+06    -30.9575E-03     60.3826E-03    -29.4252E-03     13.9139E-03    -31.0315E-03     60.3079E-03    -29.4593E-03     13.7545E-03
            1301     2.62086E-03     117.037E-03    -28.3627E+06    -27.2128E+06    -15.1081E+06    -16.0049E+06    -31.1438E-03     61.1661E-03    -30.0223E-03     22.6090E-03    -31.2148E-03     61.0854E-03    -30.0173E-03     22.3813E-03
            1302     3.49408E-03     117.067E-03    -24.7374E+06    -23.3793E+06    -7.15686E+06    -20.3102E+06    -32.1704E-03     62.6030E-03    -30.4326E-03     29.9630E-03    -32.2488E-03     62.5316E-03    -30.3986E-03     29.6741E-03
            1303     4.36615E-03     117.103E-03    -21.9399E+06    -18.3266E+06    -520.562E+03    -24.2063E+06    -33.6807E-03     64.5946E-03    -30.9139E-03     37.1206E-03    -33.7672E-03     64.5400E-03    -30.8582E-03     36.7708E-03
            1304     5.23641E-03     117.147E-03    -20.5070E+06    -15.2488E+06     5.05178E+06    -26.5970E+06    -35.4965E-03     66.9942E-03    -31.4976E-03     44.5303E-03    -35.5922E-03     66.9483E-03    -31.4205E-03     44.1373E-03
            1305     6.10413E-03     117.200E-03    -19.5496E+06    -13.1892E+06     10.0912E+06    -28.2846E+06    -37.2741E-03     69.4272E-03    -32.1531E-03     53.3018E-03    -37.3849E-03     69.3926E-03    -32.0552E-03     52.8700E-03
            1306     6.97135E-03     117.264E-03    -19.9786E+06    -12.0719E+06     13.7501E+06    -30.5474E+06    -39.2432E-03     72.0943E-03    -32.8511E-03     62.1801E-03    -39.3727E-03     72.0704E-03    -32.7358E-03     61.6996E-03
            1307     7.83745E-03     117.335E-03    -22.0007E+06    -12.3558E+06     15.3986E+06    -33.0193E+06    -42.0001E-03     75.6205E-03    -33.6204E-03     71.3379E-03    -42.1526E-03     75.6068E-03    -33.4936E-03     70.8064E-03
            1308     8.69947E-03     117.414E-03    -25.0964E+06    -12.3363E+06     15.1047E+06    -35.4660E+06    -45.4734E-03     79.9773E-03    -34.5039E-03     81.1825E-03    -45.6558E-03     79.9834E-03    -34.3741E-03     80.5923E-03
            1309     9.55993E-03     117.502E-03    -28.7697E+06    -11.7280E+06     15.3916E+06    -37.4824E+06    -49.3403E-03     84.8655E-03    -35.5252E-03     90.8218E-03    -49.5605E-03     84.8977E-03    -35.3895E-03     90.1650E-03
            1310     10.4173E-03     117.598E-03    -30.0281E+06    -11.1482E+06     18.5298E+06    -37.1851E+06    -53.7562E-03     90.4524E-03    -36.6962E-03     98.8863E-03    -54.0102E-03     90.5071E-03    -36.5439E-03     98.1864E-03
            1311     11.2698E-03     117.700E-03    -26.8930E+06    -10.5384E+06     24.9441E+06    -34.3050E+06    -59.1798E-03     97.2250E-03    -38.0451E-03     104.813E-03    -59.4546E-03     97.2954E-03    -37.8661E-03     104.092E-03
            1312     12.1164E-03     117.804E-03    -20.3688E+06    -4.19383E+06     36.3613E+06    -27.6299E+06    -65.5428E-03     105.150E-03    -39.6076E-03     110.397E-03    -65.8459E-03     105.262E-03    -39.3902E-03     109.675E-03
            1313     12.9600E-03     117.914E-03    -13.3087E+06    -4.71278E+06     44.6809E+06    -21.7996E+06    -72.4434E-03     113.823E-03    -41.3794E-03     112.356E-03    -72.7590E-03     113.946E-03    -41.1299E-03     111.601E-03
            1314     13.7959E-03     118.020E-03    -6.45446E+06    -4.47094E+06     46.9749E+06    -16.8600E+06    -78.8532E-03     122.169E-03    -43.3154E-03     107.189E-03    -79.1564E-03     122.298E-03    -43.0647E-03     106.396E-03
            1315     14.6262E-03     118.116E-03    -1.65231E+06     3.89407E+06     50.5094E+06    -13.2499E+06    -83.2452E-03     128.604E-03    -45.3584E-03     96.8394E-03    -83.5388E-03     128.760E-03    -45.1091E-03     96.0236E-03
            1316     15.4544E-03     118.202E-03    -142.618E+03     20.6833E+06     57.6054E+06    -12.7837E+06    -85.6235E-03     133.028E-03    -47.4050E-03     83.1219E-03    -85.9209E-03     133.233E-03    -47.1468E-03     82.2924E-03
            1317     16.2817E-03     118.272E-03     2.45211E+06     25.9607E+06     65.5191E+06    -5.72192E+06    -86.5017E-03     135.880E-03    -49.3780E-03     65.5493E-03    -86.7531E-03     136.042E-03    -49.0916E-03     64.8791E-03
            1318     871.978E-06     118.012E-03    -5.65748E+06    -20.9106E+06    -3.72796E+06    -5.51354E+06    -30.9395E-03     63.7589E-03    -32.8194E-03     6.57449E-03    -30.9164E-03     63.7393E-03    -32.7995E-03     6.51659E-03
            1319     1.74524E-03     118.026E-03    -6.37689E+06    -20.7655E+06     631.774E+03    -10.0321E+06    -32.9325E-03     65.0434E-03    -32.1109E-03     10.3513E-03    -32.9284E-03     64.9448E-03    -32.0684E-03     10.2083E-03
            1320     2.61505E-03     118.046E-03    -3.27245E+06    -17.3583E+06     7.34518E+06    -13.4765E+06    -33.5965E-03     66.1293E-03    -32.5328E-03     16.7177E-03    -33.5864E-03     66.0259E-03    -32.4662E-03     16.5126E-03
            1321     3.48671E-03     118.076E-03    -1.48254E+06    -13.2897E+06     14.1812E+06    -16.9973E+06    -33.7383E-03     66.5987E-03    -32.8604E-03     22.1511E-03    -33.7468E-03     66.5128E-03    -32.7681E-03     21.8920E-03
            1322     4.35677E-03     118.114E-03    -526.394E+03    -10.0650E+06     20.0833E+06    -19.9191E+06    -35.3553E-03     68.5790E-03    -33.2237E-03     27.7104E-03    -35.3786E-03     68.5061E-03    -33.1079E-03     27.4041E-03
            1323     5.22412E-03     118.162E-03    -588.241E+03    -8.54129E+06     24.6779E+06    -21.3194E+06    -37.1143E-03     70.8645E-03    -33.7502E-03     33.8454E-03    -37.1496E-03     70.7955E-03    -33.6136E-03     33.5074E-03
            1324     6.09150E-03     118.216E-03    -902.262E+03    -7.25885E+06     28.7662E+06    -22.2115E+06    -38.1455E-03     72.4701E-03    -34.3246E-03     41.2931E-03    -38.1984E-03     72.4100E-03    -34.1689E-03     40.9275E-03
            1325     6.95857E-03     118.281E-03    -2.11655E+06    -6.30028E+06     31.8963E+06    -22.1534E+06    -39.2007E-03     74.0755E-03    -34.8748E-03     48.6429E-03    -39.2744E-03     74.0263E-03    -34.7031E-03     48.2625E-03
            1326     7.82445E-03     118.354E-03    -4.72185E+06    -5.35377E+06     34.0811E+06    -23.0541E+06    -41.1440E-03     76.5978E-03    -35.4538E-03     56.1526E-03    -41.2438E-03     76.5626E-03    -35.2688E-03     55.7442E-03
            1327     8.68897E-03     118.438E-03    -7.78535E+06    -5.24233E+06     35.1367E+06    -24.9441E+06    -43.8907E-03     80.0205E-03    -36.1299E-03     64.8364E-03    -44.0170E-03     79.9988E-03    -35.9353E-03     64.3823E-03
            1328     9.54942E-03     118.529E-03    -11.0986E+06    -5.72958E+06     35.2554E+06    -26.0565E+06    -46.9638E-03     83.8825E-03    -36.9187E-03     74.2313E-03    -47.1180E-03     83.8753E-03    -36.7180E-03     73.7359E-03
            1329     10.4072E-03     118.631E-03    -15.9420E+06    -7.24251E+06     34.5512E+06    -27.1447E+06    -50.3681E-03     88.1815E-03    -37.8135E-03     83.5071E-03    -50.5580E-03     88.1898E-03    -37.6071E-03     82.9691E-03
            1330     11.2630E-03     118.738E-03    -21.8822E+06    -8.51131E+06     33.9033E+06    -28.2893E+06    -55.1520E-03     94.0027E-03    -38.8507E-03     92.4375E-03    -55.3871E-03     94.0327E-03    -38.6371E-03     91.8454E-03
            1331     12.1150E-03     118.853E-03    -24.5977E+06    -8.67159E+06     36.8234E+06    -27.5921E+06    -61.4382E-03     101.547E-03    -40.1092E-03     100.564E-03    -61.7139E-03     101.600E-03    -39.8769E-03     99.9226E-03
            1332     12.9588E-03     118.970E-03    -22.3154E+06    -7.11210E+06     43.0734E+06    -24.3788E+06    -67.8985E-03     109.499E-03    -41.6006E-03     105.699E-03    -68.1965E-03     109.569E-03    -41.3425E-03     105.033E-03
            1333     13.7983E-03     119.088E-03    -16.9654E+06    -7.61435E+06     47.6901E+06    -22.9096E+06    -74.6634E-03     117.954E-03    -43.2907E-03     105.403E-03    -74.9557E-03     118.023E-03    -43.0166E-03     104.678E-03
            1334     14.6312E-03     119.193E-03    -8.00522E+06    -898.107E+03     53.7843E+06    -18.3526E+06    -81.7907E-03     126.974E-03    -45.1829E-03     98.0154E-03    -82.0706E-03     127.068E-03    -44.9010E-03     97.2449E-03
            1335     15.4594E-03     119.284E-03    -2.68590E+06     12.5374E+06     61.3372E+06    -8.58944E+06    -87.3855E-03     134.629E-03    -47.2431E-03     84.0330E-03    -87.6682E-03     134.770E-03    -46.9507E-03     83.3057E-03
            1336     16.2819E-03     119.363E-03    -4.24226E+06     16.9207E+06     62.6371E+06    -2.12259E+06    -88.2146E-03     137.502E-03    -49.2874E-03     63.8168E-03    -88.4653E-03     137.616E-03    -48.9926E-03     63.2429E-03
            1337     865.894E-06     119.023E-03     16.5315E+06    -9.62792E+06     15.4948E+06    -3.34232E+06    -35.9719E-03     74.6956E-03    -38.7237E-03     5.08113E-03    -35.7889E-03     74.7042E-03    -38.6563E-03     5.02648E-03
            1338     1.73560E-03     119.041E-03     15.7244E+06    -11.3358E+06     20.5433E+06    -7.52447E+06    -37.3142E-03     74.6590E-03    -37.3448E-03     7.67690E-03    -37.2437E-03     74.5419E-03    -37.2485E-03     7.55420E-03
            1339     2.60310E-03     119.063E-03     15.7146E+06    -9.34534E+06     24.9218E+06    -10.6173E+06    -38.4212E-03     75.9804E-03    -37.5592E-03     7.86889E-03    -38.3550E-03     75.8632E-03    -37.4438E-03     7.70551E-03
            1340     3.46899E-03     119.092E-03     16.5154E+06    -5.57425E+06     31.2299E+06    -12.7710E+06    -38.3376E-03     76.2055E-03    -37.8679E-03     11.1652E-03    -38.2908E-03     76.1043E-03    -37.7276E-03     10.9618E-03
            1341     4.33567E-03     119.132E-03     15.7343E+06    -4.20708E+06     36.8508E+06    -13.8292E+06    -38.6578E-03     76.7645E-03    -38.1067E-03     16.0416E-03    -38.6310E-03     76.6693E-03    -37.9391E-03     15.8061E-03
            1342     5.20197E-03     119.181E-03     14.5355E+06    -3.56585E+06     41.0747E+06    -14.7283E+06    -39.8551E-03     78.2666E-03    -38.4115E-03     19.9308E-03    -39.8439E-03     78.1729E-03    -38.2221E-03     19.6676E-03
            1343     6.06648E-03     119.236E-03     13.0535E+06    -3.59065E+06     44.3143E+06    -14.9769E+06    -41.0325E-03     79.8556E-03    -38.8231E-03     23.8186E-03    -41.0375E-03     79.7631E-03    -38.6153E-03     23.5404E-03
            1344     6.92987E-03     119.302E-03     11.6391E+06    -3.68786E+06     47.3834E+06    -14.4913E+06    -41.7881E-03     81.0665E-03    -39.2784E-03     28.2155E-03    -41.8106E-03     80.9773E-03    -39.0530E-03     27.9315E-03
            1345     7.79241E-03     119.377E-03     10.2223E+06    -1.14837E+06     51.2721E+06    -14.1057E+06    -42.5685E-03     82.3077E-03    -39.7391E-03     33.6113E-03    -42.6143E-03     82.2350E-03    -39.4959E-03     33.3169E-03
            1346     8.65359E-03     119.462E-03     8.13232E+06    -460.913E+03     54.0718E+06    -14.4096E+06    -43.5689E-03     83.7773E-03    -40.2084E-03     40.0326E-03    -43.6367E-03     83.7142E-03    -39.9492E-03     39.7172E-03
            1347     9.51525E-03     119.557E-03     5.03486E+06    -2.41924E+06     54.0758E+06    -14.4158E+06    -44.9319E-03     85.6262E-03    -40.6942E-03     47.6131E-03    -45.0200E-03     85.5659E-03    -40.4276E-03     47.2808E-03
            1348     10.3757E-03     119.660E-03     1.03251E+06    -2.96135E+06     53.5372E+06    -14.0203E+06    -47.0837E-03     88.3189E-03    -41.2352E-03     55.3708E-03    -47.1996E-03     88.2722E-03    -40.9648E-03     55.0233E-03
            1349     11.2343E-03     119.772E-03    -2.16330E+06    -3.16168E+06     53.4240E+06    -14.8911E+06    -50.4012E-03     92.2913E-03    -41.8901E-03     63.5109E-03    -50.5430E-03     92.2597E-03    -41.6153E-03     63.1273E-03
            1350     12.0875E-03     119.895E-03    -6.03469E+06    -5.73979E+06     51.3318E+06    -16.4921E+06    -54.0380E-03     96.7086E-03    -42.6706E-03     71.8987E-03    -54.2024E-03     96.6845E-03    -42.3969E-03     71.4710E-03
            1351     12.9391E-03     120.020E-03    -10.1838E+06    -6.58454E+06      49.784E+06    -17.2521E+06    -57.7683E-03     101.322E-03    -43.5540E-03     80.7324E-03    -57.9605E-03     101.314E-03    -43.2808E-03     80.2670E-03
            1352     13.7868E-03     120.145E-03    -13.6471E+06    -3.60808E+06     51.9614E+06    -18.4900E+06    -63.2864E-03     107.866E-03    -44.5797E-03     87.8110E-03    -63.5124E-03     107.883E-03    -44.2948E-03     87.2959E-03
            1353     14.6290E-03     120.264E-03    -16.5047E+06    -4.13041E+06     50.9876E+06    -20.4334E+06    -72.0404E-03     117.890E-03    -45.8498E-03     90.1258E-03    -72.2881E-03     117.920E-03    -45.5649E-03     89.5266E-03
            1354     15.4570E-03     120.371E-03    -9.87251E+06    -4.23781E+06     53.2569E+06    -13.0514E+06    -81.7022E-03     129.168E-03    -47.4660E-03     84.8356E-03    -81.9337E-03     129.198E-03    -47.1792E-03     84.2245E-03
            1355     16.2811E-03     120.451E-03     324.838E+03     9.12902E+06     58.3916E+06    -2.34971E+06    -86.2331E-03     135.520E-03    -49.2867E-03     64.6879E-03    -86.4151E-03     135.567E-03    -49.0085E-03     64.2333E-03
            1356     862.918E-06     120.051E-03     29.5342E+06    -3.93443E+06     32.1212E+06    -1.89301E+06    -45.2230E-03     89.4657E-03    -44.2426E-03     2.75715E-03    -44.9582E-03     89.5511E-03    -44.1191E-03     2.84890E-03
            1357     1.72220E-03     120.068E-03     31.0774E+06    -4.04457E+06     35.6450E+06    -4.37327E+06    -46.1990E-03     91.2547E-03    -45.0557E-03     1.91199E-03    -46.0898E-03     91.1312E-03    -44.9167E-03     1.84373E-03
            1358     2.58177E-03     120.093E-03     30.0083E+06    -2.75989E+06     39.9172E+06     -6.1629E+06    -45.4861E-03     90.9691E-03    -45.4829E-03     63.1118E-06    -45.3864E-03     90.8463E-03    -45.3229E-03    -43.3210E-06
            1359     3.44191E-03     120.121E-03     28.6450E+06    -1.56439E+06     44.8656E+06    -6.94208E+06    -45.7244E-03     91.4003E-03    -45.6759E-03    -358.693E-06    -45.6419E-03     91.2771E-03    -45.4909E-03    -489.247E-06
            1360     4.30257E-03     120.160E-03     26.9972E+06    -1.02462E+06     49.7202E+06    -6.91060E+06    -45.3186E-03     91.1766E-03    -45.8580E-03     780.109E-06    -45.2544E-03     91.0526E-03    -45.6471E-03     641.774E-06
            1361     5.16310E-03     120.209E-03     25.2016E+06    -639.071E+03     54.4241E+06    -6.72852E+06    -45.6044E-03     91.6453E-03    -46.0410E-03     1.43572E-03    -45.5586E-03     91.5221E-03    -45.8045E-03     1.29140E-03
            1362     6.02161E-03     120.267E-03     23.6886E+06    -1.31568E+06     58.6905E+06    -6.55476E+06    -46.4197E-03     92.7401E-03    -46.3205E-03     1.58355E-03    -46.3882E-03     92.6120E-03    -46.0594E-03     1.43284E-03
            1363     6.87907E-03     120.332E-03     22.4301E+06    -1.65531E+06     62.6715E+06    -6.71284E+06    -46.8287E-03     93.5021E-03    -46.6734E-03     2.91785E-03    -46.8117E-03     93.3710E-03    -46.3901E-03     2.75428E-03
            1364     7.73665E-03     120.407E-03     21.3693E+06     50.5363E+03     66.4976E+06    -6.41206E+06    -46.8832E-03     93.9191E-03    -47.0359E-03     4.96081E-03    -46.8831E-03     93.7956E-03    -46.7345E-03     4.78899E-03
            1365     8.59469E-03     120.492E-03     19.9157E+06     778.180E+03     69.1955E+06    -5.10538E+06    -46.4423E-03     93.8118E-03    -47.3695E-03     6.65729E-03    -46.4574E-03     93.6930E-03    -47.0535E-03     6.49426E-03
            1366     9.45210E-03     120.586E-03     18.2988E+06    -609.889E+03     70.3272E+06    -4.40910E+06    -45.8801E-03     93.5348E-03    -47.6547E-03     9.31408E-03    -45.9056E-03     93.4132E-03    -47.3287E-03     9.15291E-03
            1367     10.3093E-03     120.691E-03     17.3024E+06    -1.07064E+06     70.8267E+06    -4.24252E+06    -46.3079E-03     94.2418E-03    -47.9340E-03     13.2963E-03    -46.3417E-03     94.1236E-03    -47.6034E-03     13.1237E-03
            1368     11.1634E-03     120.806E-03     15.9395E+06    -339.666E+03     70.7645E+06    -4.33372E+06    -46.6872E-03     94.9224E-03    -48.2352E-03     18.0757E-03    -46.7316E-03     94.8149E-03    -47.9040E-03     17.8848E-03
            1369     12.0196E-03     120.929E-03     13.7030E+06    -2.25062E+06     68.9798E+06    -4.39967E+06    -45.8147E-03     94.3028E-03    -48.4881E-03     23.4092E-03    -45.8683E-03     94.1966E-03    -48.1598E-03     23.2108E-03
            1370     12.8778E-03     121.055E-03     10.9109E+06    -2.50690E+06     66.4419E+06    -5.63217E+06    -45.3226E-03     93.9710E-03    -48.6484E-03     29.8747E-03    -45.3911E-03     93.8777E-03    -48.3283E-03     29.6613E-03
            1371     13.7367E-03     121.186E-03     7.74955E+06    -1.01145E+06     63.6776E+06    -6.19002E+06    -46.8197E-03     95.6069E-03    -48.7872E-03     36.9660E-03    -46.9048E-03     95.5349E-03    -48.4786E-03     36.7389E-03
            1372     14.5923E-03     121.316E-03     2.16220E+06     2.12703E+06     58.2272E+06    -6.86262E+06    -51.2918E-03     100.312E-03    -49.0199E-03     44.3488E-03    -51.4023E-03     100.274E-03    -48.7350E-03     44.1005E-03
            1373     15.4464E-03     121.439E-03    -2.77017E+06    -9.01869E+06     46.7930E+06    -9.85693E+06    -58.6501E-03     108.119E-03    -49.4692E-03     48.2896E-03    -58.7582E-03     108.059E-03    -49.2182E-03     47.9675E-03
            1374     16.2841E-03     121.537E-03     1.52164E+06    -2.23178E+06     39.7826E+06    -6.17280E+06    -66.1813E-03     116.346E-03    -50.1645E-03     41.5807E-03    -66.2602E-03     116.315E-03    -49.9646E-03     41.3046E-03
            1375     16.2381E-03     60.2356E-03    -1.88658E+06     90.7068E+06     73.0839E+06     1.44947E+06    -51.1575E-03     103.056E-03    -51.8989E-03     31.3280E-03    -51.5031E-03     103.505E-03    -51.6622E-03     30.9498E-03
            1376     15.3834E-03     60.2037E-03    -3.38693E+06     91.9283E+06     69.7859E+06     461.946E+03    -52.0030E-03     103.889E-03    -51.8861E-03     39.4444E-03    -52.3807E-03     104.379E-03    -51.6655E-03     38.9979E-03
            1377     14.5320E-03     60.1561E-03    -10.5872E+06     88.1001E+06     59.8913E+06    -555.745E+03    -52.2652E-03     104.097E-03    -51.8318E-03     47.0272E-03    -52.6829E-03     104.616E-03    -51.6448E-03     46.5528E-03
            1378     13.6770E-03     60.1061E-03    -14.9679E+06     74.9157E+06     49.9076E+06     877.956E+03    -51.8914E-03     103.689E-03    -51.7979E-03     53.6292E-03    -52.3153E-03     104.181E-03    -51.6353E-03     53.1659E-03
            1379     12.8185E-03     60.0474E-03    -17.1111E+06     45.6111E+06     42.4288E+06     486.714E+03    -51.4068E-03     103.243E-03    -51.8358E-03     58.0602E-03    -51.7980E-03     103.612E-03    -51.6650E-03     57.5911E-03
            1380     11.9651E-03     59.9942E-03    -22.4069E+06     14.0203E+06     34.6285E+06     919.615E+03    -51.4401E-03     103.351E-03    -51.9106E-03     61.3883E-03    -51.8041E-03     103.584E-03    -51.7253E-03     60.9246E-03
            1381     11.1097E-03     59.9288E-03    -27.7992E+06    -11.7253E+06     25.9565E+06     1.52817E+06    -51.8592E-03     103.831E-03    -51.9723E-03     62.7915E-03    -52.1921E-03     103.949E-03    -51.7852E-03     62.3426E-03
            1382     10.2548E-03     59.8705E-03    -34.3983E+06    -39.9197E+06     14.8229E+06    -386.754E+03    -52.5935E-03     104.585E-03    -51.9911E-03     61.3745E-03    -52.8889E-03     104.573E-03    -51.8092E-03     60.9067E-03
            1383     9.39878E-03     59.8086E-03    -36.6275E+06    -55.3644E+06     10.5468E+06    -1.18106E+03    -52.7856E-03     104.767E-03    -51.9818E-03     60.1475E-03    -53.0429E-03     104.668E-03    -51.7957E-03     59.7147E-03
            1384     8.54559E-03     59.7474E-03    -40.9482E+06    -71.0922E+06     3.93787E+06     1.12429E+06    -52.4670E-03     104.433E-03    -51.9664E-03     57.4449E-03    -52.6864E-03     104.244E-03    -51.7842E-03     57.0721E-03
            1385     7.69188E-03     59.6903E-03    -48.0508E+06    -95.7076E+06    -7.13677E+06     186.698E+03    -52.2058E-03     104.176E-03    -51.9698E-03     54.5014E-03    -52.3848E-03     103.865E-03    -51.7971E-03     54.1625E-03
            1386     6.83553E-03     59.6380E-03    -51.6051E+06    -114.420E+06    -12.8186E+06     61.1854E+03    -52.4043E-03     104.390E-03    -51.9858E-03     51.4382E-03    -52.5471E-03     103.981E-03    -51.8091E-03     51.1370E-03
            1387     5.98215E-03     59.5894E-03    -54.7908E+06    -125.409E+06    -17.2044E+06     1.76740E+06    -52.7557E-03     104.705E-03    -51.9493E-03     47.2634E-03    -52.8738E-03     104.233E-03    -51.7740E-03     47.0267E-03
            1388     5.12877E-03     59.5439E-03    -61.9736E+06    -142.504E+06    -26.8511E+06     1.63447E+06    -52.3689E-03     104.249E-03    -51.8798E-03     41.8045E-03    -52.4653E-03     103.697E-03    -51.7175E-03     41.6182E-03
            1389     4.27297E-03     59.5048E-03    -66.8029E+06    -156.395E+06    -37.4408E+06     482.562E+03    -51.9045E-03     103.744E-03    -51.8394E-03     35.2082E-03    -51.9738E-03     103.130E-03    -51.7030E-03     35.0524E-03
            1390     3.41815E-03     59.4738E-03    -72.4258E+06    -168.450E+06    -50.3109E+06     484.246E+03    -51.8338E-03     103.651E-03    -51.8167E-03     28.4049E-03    -51.8753E-03     102.984E-03    -51.7190E-03     28.2919E-03
            1391     2.56403E-03     59.4487E-03    -79.6525E+06    -180.040E+06    -64.1134E+06     168.871E+03    -51.7787E-03     103.575E-03    -51.7962E-03     22.1840E-03    -51.8029E-03     102.865E-03    -51.7402E-03     22.1062E-03
            1392     1.70974E-03     59.4282E-03    -82.8110E+06    -187.387E+06    -75.3166E+06     312.545E+03    -51.6512E-03     103.471E-03    -51.8201E-03     15.1944E-03    -51.6647E-03     102.748E-03    -51.8049E-03     15.1480E-03
            1393     854.113E-06     59.4184E-03    -88.6835E+06    -196.518E+06    -87.5174E+06    -441.356E+03    -52.0174E-03     103.722E-03    -51.7042E-03     8.28985E-03    -52.0078E-03     103.030E-03    -51.7282E-03     8.24894E-03
            1394     16.2395E-03     59.1861E-03    -5.38216E+06     91.6229E+06     70.9639E+06     256.530E+03    -51.3725E-03     103.232E-03    -51.8590E-03     31.2614E-03    -51.7340E-03     103.693E-03    -51.6292E-03     30.8654E-03
            1395     15.3856E-03     59.1485E-03    -7.54092E+06     91.7245E+06     64.7731E+06    -31.2863E+03    -51.6672E-03     103.503E-03    -51.8362E-03     40.4590E-03    -52.0590E-03     104.006E-03    -51.6344E-03     40.0081E-03
            1396     14.5296E-03     59.1053E-03    -9.42821E+06     88.3912E+06     59.6785E+06     1.93668E+06    -51.8526E-03     103.673E-03    -51.8202E-03     49.3018E-03    -52.2654E-03     104.193E-03    -51.6363E-03     48.8675E-03
            1397     13.6750E-03     59.0537E-03    -15.9081E+06     73.4682E+06     49.6123E+06     1.21217E+06    -51.1698E-03     102.999E-03    -51.8296E-03     54.4916E-03    -51.5951E-03     103.485E-03    -51.6650E-03     54.0417E-03
            1398     12.8205E-03     59.0007E-03    -19.5021E+06     43.9349E+06     40.8694E+06    -953.238E+03    -51.1462E-03     103.045E-03    -51.8985E-03     58.2281E-03    -51.5461E-03     103.413E-03    -51.7296E-03     57.7393E-03
            1399     11.9631E-03     58.9392E-03    -23.8862E+06     16.1921E+06     36.2478E+06     1.11782E+06    -51.7242E-03     103.708E-03    -51.9834E-03     60.2441E-03    -52.1025E-03     103.953E-03    -51.7910E-03     59.7755E-03
            1400     11.1084E-03     58.8811E-03    -29.5674E+06    -10.3929E+06     25.4958E+06     1.42576E+06    -52.3460E-03     104.355E-03    -52.0086E-03     62.4647E-03    -52.6912E-03     104.484E-03    -51.8231E-03     62.0073E-03
            1401     10.2535E-03     58.8156E-03    -31.5534E+06    -38.6137E+06     16.0331E+06    -2.16199E+06    -53.6109E-03     105.579E-03    -51.9679E-03     61.3808E-03    -53.8985E-03     105.571E-03    -51.7860E-03     60.8761E-03
            1402     9.40326E-03     58.7568E-03    -36.0308E+06    -56.2730E+06     11.3535E+06    -627.531E+03    -53.3904E-03     105.276E-03    -51.8860E-03     58.7416E-03    -53.6445E-03     105.170E-03    -51.6954E-03     58.2926E-03
            1403     8.54785E-03     58.6961E-03    -43.2120E+06    -72.4095E+06     3.46014E+06     1.91400E+06    -51.9507E-03     103.805E-03    -51.8547E-03     57.6020E-03    -52.1793E-03     103.614E-03    -51.6697E-03     57.2465E-03
            1404     7.69090E-03     58.6408E-03    -47.2071E+06    -92.3531E+06    -5.08800E+06     1.22951E+06    -51.6926E-03     103.596E-03    -51.9038E-03     54.5004E-03    -51.8754E-03     103.299E-03    -51.7269E-03     54.1817E-03
            1405     6.83639E-03     58.5867E-03    -51.5729E+06    -115.297E+06    -13.2047E+06    -650.832E+03    -52.1990E-03     104.148E-03    -51.9493E-03     51.0075E-03    -52.3389E-03     103.734E-03    -51.7733E-03     50.7003E-03
            1406     5.98194E-03     58.5363E-03    -57.1195E+06    -129.543E+06    -19.7317E+06     497.370E+03    -52.6126E-03     104.541E-03    -51.9285E-03     46.9613E-03    -52.7318E-03     104.055E-03    -51.7565E-03     46.7095E-03
            1407     5.12762E-03     58.4927E-03    -59.6954E+06    -139.906E+06    -24.6197E+06     1.64850E+06    -52.2754E-03     104.157E-03    -51.8819E-03     41.3233E-03    -52.3662E-03     103.611E-03    -51.7156E-03     41.1382E-03
            1408     4.27351E-03     58.4548E-03    -66.3134E+06    -155.796E+06    -36.6893E+06     707.712E+03    -51.7686E-03     103.632E-03    -51.8630E-03     35.5117E-03    -51.8377E-03     103.019E-03    -51.7244E-03     35.3599E-03
            1409     3.41870E-03     58.4222E-03    -73.5669E+06    -168.694E+06    -50.3703E+06     1.09205E+06    -51.9593E-03     103.803E-03    -51.8439E-03     28.8189E-03    -52.0063E-03     103.138E-03    -51.7445E-03     28.7153E-03
            1410     2.56419E-03     58.3977E-03    -78.9789E+06    -179.417E+06    -63.3002E+06     1.10383E+06    -51.9516E-03     103.732E-03    -51.7809E-03     22.2794E-03    -51.9711E-03     103.021E-03    -51.7227E-03     22.2114E-03
            1411     1.70872E-03     58.3783E-03    -83.4405E+06    -187.224E+06    -74.3681E+06     873.566E+03    -51.5432E-03     103.339E-03    -51.7962E-03     14.8498E-03    -51.5582E-03     102.612E-03    -51.7756E-03     14.8048E-03
            1412     853.562E-06     58.3677E-03    -87.4248E+06    -194.838E+06    -85.5522E+06     1.97462E+06    -52.0095E-03     103.701E-03    -51.6913E-03     8.59758E-03    -52.0044E-03     103.011E-03    -51.7098E-03     8.58283E-03
            1413     16.2414E-03     58.1329E-03    -5.74709E+06     92.8460E+06     71.6428E+06     424.551E+03    -51.4571E-03     103.303E-03    -51.8461E-03     32.0298E-03    -51.8244E-03     103.772E-03    -51.6142E-03     31.6345E-03
            1414     15.3839E-03     58.1005E-03    -4.96055E+06     91.1107E+06     65.0349E+06     654.980E+03    -50.9407E-03     102.779E-03    -51.8382E-03     40.9131E-03    -51.3172E-03     103.273E-03    -51.6379E-03     40.4831E-03
            1415     14.5292E-03     58.0513E-03    -7.16096E+06     87.1124E+06     60.2854E+06     396.620E+03    -50.9564E-03     102.831E-03    -51.8742E-03     48.7323E-03    -51.3547E-03     103.338E-03    -51.6887E-03     48.2871E-03
            1416     13.6737E-03     58.0048E-03    -14.5631E+06     74.9091E+06     50.9716E+06     1.11069E+06    -51.4320E-03     103.338E-03    -51.9056E-03     53.2962E-03    -51.8561E-03     103.828E-03    -51.7382E-03     52.8355E-03
            1417     12.8174E-03     57.9477E-03    -21.4008E+06     43.5984E+06     38.9001E+06     1.81996E+06    -51.7980E-03     103.736E-03    -51.9378E-03     58.2922E-03    -52.2085E-03     104.112E-03    -51.7754E-03     57.8267E-03
            1418     11.9648E-03     57.8895E-03    -25.8786E+06     14.0178E+06     32.9378E+06     1.30365E+06    -52.4745E-03     104.446E-03    -51.9711E-03     60.1164E-03    -52.8567E-03     104.690E-03    -51.7893E-03     59.6382E-03
            1419     11.1092E-03     57.8288E-03    -30.2561E+06    -7.79787E+06     26.1520E+06     792.591E+03    -53.2638E-03     105.204E-03    -51.9406E-03     61.3635E-03    -53.6168E-03     105.346E-03    -51.7546E-03     60.8860E-03
            1420     10.2565E-03     57.7625E-03    -36.5687E+06    -35.7975E+06     15.1357E+06     264.048E+03    -52.9824E-03     104.862E-03    -51.8795E-03     61.0403E-03    -53.2935E-03     104.872E-03    -51.6989E-03     60.5827E-03
            1421     9.40114E-03     57.7028E-03    -40.5788E+06    -59.8169E+06     6.68025E+06    -1.09756E+06    -52.5319E-03     104.378E-03    -51.8466E-03     59.2222E-03    -52.7936E-03     104.264E-03    -51.6676E-03     58.7834E-03
            1422     8.54666E-03     57.6482E-03    -41.8244E+06    -73.0413E+06     4.82182E+06     320.098E+03    -52.4450E-03     104.292E-03    -51.8466E-03     58.1458E-03    -52.6686E-03     104.094E-03    -51.6559E-03     57.7625E-03
            1423     7.69261E-03     57.5883E-03    -46.6902E+06    -90.8557E+06    -2.69400E+06     1.76845E+06    -52.2324E-03     104.074E-03    -51.8413E-03     54.8680E-03    -52.4196E-03     103.780E-03    -51.6553E-03     54.5465E-03
            1424     6.83805E-03     57.5367E-03    -51.2402E+06    -112.515E+06    -12.8382E+06     319.216E+03    -52.1303E-03     103.970E-03    -51.8395E-03     51.3195E-03    -52.2726E-03     103.568E-03    -51.6662E-03     51.0267E-03
            1425     5.98252E-03     57.4850E-03    -55.7744E+06    -129.889E+06    -21.7765E+06    -1.87864E+06    -51.8631E-03     103.721E-03    -51.8578E-03     46.9028E-03    -51.9695E-03     103.231E-03    -51.6975E-03     46.6305E-03
            1426     5.12803E-03     57.4412E-03    -60.7089E+06    -143.381E+06    -26.8650E+06    -320.749E+03    -51.7650E-03     103.679E-03    -51.9137E-03     41.0795E-03    -51.8506E-03     103.118E-03    -51.7521E-03     40.8758E-03
            1427     4.27265E-03     57.4043E-03    -66.1928E+06    -155.275E+06    -35.4951E+06     2.07941E+06    -51.9869E-03     103.922E-03    -51.9354E-03     35.7559E-03    -52.0567E-03     103.309E-03    -51.7917E-03     35.6250E-03
            1428     3.41781E-03     57.3710E-03    -72.6757E+06    -168.149E+06    -49.7668E+06     1.39177E+06    -51.9802E-03     103.883E-03    -51.9027E-03     28.9927E-03    -52.0253E-03     103.219E-03    -51.8024E-03     28.8885E-03
            1429     2.56352E-03     57.3462E-03    -77.5312E+06    -177.601E+06    -61.0332E+06     831.672E+03    -51.9205E-03     103.789E-03    -51.8689E-03     22.1262E-03    -51.9410E-03     103.083E-03    -51.8041E-03     22.0496E-03
            1430     1.70987E-03     57.3279E-03    -85.8079E+06    -188.156E+06    -73.8999E+06     805.731E+03    -52.1642E-03     103.890E-03    -51.7259E-03     15.2559E-03    -52.1908E-03     103.161E-03    -51.6982E-03     15.2174E-03
            1431     856.045E-06     57.3162E-03    -86.6192E+06    -192.265E+06    -81.3532E+06     1.50177E+06    -51.5194E-03     103.208E-03    -51.6885E-03     8.56018E-03    -51.5161E-03     102.525E-03    -51.6909E-03     8.56155E-03
            1432     16.2376E-03     57.0809E-03    -5.08923E+06     92.4835E+06     71.3612E+06    -1.12441E+06    -51.4691E-03     103.325E-03    -51.8562E-03     31.6917E-03    -51.8332E-03     103.793E-03    -51.6261E-03     31.2696E-03
            1433     15.3859E-03     57.0484E-03    -7.68243E+06     91.0619E+06     65.2232E+06    -1.44547E+06    -51.3254E-03     103.168E-03    -51.8429E-03     39.3559E-03    -51.7146E-03     103.664E-03    -51.6377E-03     38.8949E-03
            1434     14.5287E-03     57.0030E-03    -10.9955E+06     86.3578E+06     58.6976E+06     742.987E+03    -50.6585E-03     102.527E-03    -51.8680E-03     47.5521E-03    -51.0687E-03     103.034E-03    -51.6838E-03     47.1182E-03
            1435     13.6730E-03     56.9515E-03    -15.7803E+06     72.5938E+06     47.7244E+06     2.74335E+06    -51.2515E-03     103.154E-03    -51.9027E-03     52.8798E-03    -51.6709E-03     103.637E-03    -51.7464E-03     52.4428E-03
            1436     12.8199E-03     56.8974E-03    -21.0143E+06     42.7849E+06     37.8850E+06     3.13514E+06    -52.5405E-03     104.462E-03    -51.9211E-03     57.1966E-03    -52.9441E-03     104.833E-03    -51.7633E-03     56.7418E-03
            1437     11.9627E-03     56.8371E-03    -26.5819E+06     15.5762E+06     32.9074E+06     2.07343E+06    -53.3603E-03     105.257E-03    -51.8964E-03     59.5728E-03    -53.7481E-03     105.510E-03    -51.7159E-03     59.0966E-03
            1438     11.1123E-03     56.7737E-03    -30.7249E+06    -7.89543E+06     26.4397E+06     1.96282E+06    -53.1162E-03     104.952E-03    -51.8356E-03     61.1951E-03    -53.4714E-03     105.093E-03    -51.6474E-03     60.7358E-03
            1439     10.2576E-03     56.7131E-03    -32.1767E+06    -32.0540E+06     19.0553E+06     1.36459E+06    -51.7334E-03     103.565E-03    -51.8315E-03     61.0063E-03    -52.0299E-03     103.578E-03    -51.6431E-03     60.5826E-03
            1440     9.40030E-03     56.6536E-03    -39.2336E+06    -58.6159E+06     8.04478E+06    -1.03569E+06    -51.8087E-03     103.688E-03    -51.8795E-03     59.9196E-03    -52.0683E-03     103.577E-03    -51.6974E-03     59.4894E-03
            1441     8.54663E-03     56.5931E-03    -44.5048E+06    -76.4502E+06     2.59710E+06    -359.478E+03    -52.7401E-03     104.637E-03    -51.8968E-03     58.0453E-03    -52.9699E-03     104.430E-03    -51.7084E-03     57.6526E-03
            1442     7.69279E-03     56.5393E-03    -45.9553E+06    -90.4754E+06    -2.75988E+06     858.229E+03    -52.5968E-03     104.459E-03    -51.8620E-03     55.8650E-03    -52.7816E-03     104.167E-03    -51.6779E-03     55.5339E-03
            1443     6.83737E-03     56.4843E-03    -50.4382E+06    -111.494E+06    -12.1048E+06     140.223E+03    -52.3433E-03     104.178E-03    -51.8347E-03     52.7062E-03    -52.4872E-03     103.782E-03    -51.6604E-03     52.4082E-03
            1444     5.98368E-03     56.4352E-03    -54.0631E+06    -127.231E+06    -20.8734E+06    -671.239E+03    -51.8883E-03     103.725E-03    -51.8363E-03     47.0321E-03    -51.9924E-03     103.246E-03    -51.6777E-03     46.7757E-03
            1445     5.12664E-03     56.3915E-03    -60.8298E+06    -146.932E+06    -32.1094E+06    -1.90860E+06    -51.7458E-03     103.617E-03    -51.8709E-03     41.1070E-03    -51.8208E-03     103.047E-03    -51.7302E-03     40.8812E-03
            1446     4.27247E-03     56.3519E-03    -67.1610E+06    -159.492E+06    -38.8136E+06    -1.20201E+06    -52.0044E-03     103.904E-03    -51.8992E-03     34.8228E-03    -52.0692E-03     103.277E-03    -51.7647E-03     34.6442E-03
            1447     3.41879E-03     56.3203E-03    -70.9970E+06    -165.178E+06    -44.9117E+06     933.827E+03    -51.7169E-03     103.635E-03    -51.9178E-03     28.2386E-03    -51.7661E-03     102.977E-03    -51.7999E-03     28.1291E-03
            1448     2.56344E-03     56.2954E-03    -76.3306E+06    -175.164E+06    -58.1679E+06     1.72312E+06    -51.7718E-03     103.712E-03    -51.9407E-03     22.2871E-03    -51.7970E-03     103.016E-03    -51.8668E-03     22.2241E-03
            1449     1.70814E-03     56.2760E-03    -81.7730E+06    -186.293E+06    -73.4944E+06     414.596E+03    -52.0750E-03     103.960E-03    -51.8847E-03     15.5929E-03    -52.0874E-03     103.236E-03    -51.8635E-03     15.5366E-03
            1450     854.680E-06     56.2645E-03    -85.7653E+06    -193.301E+06    -83.8463E+06    -1.92822E+06    -51.5327E-03     103.671E-03    -52.1385E-03     8.06549E-03    -51.5199E-03     102.989E-03    -52.1531E-03     8.00208E-03
            1451     16.2414E-03     56.0300E-03    -2.61210E+06     93.5711E+06     73.0020E+06    -1.24558E+06    -51.4610E-03     103.317E-03    -51.8559E-03     31.2442E-03    -51.8161E-03     103.783E-03    -51.6228E-03     30.8198E-03
            1452     15.3839E-03     55.9955E-03    -8.38807E+06     89.5543E+06     63.2276E+06    -766.885E+03    -50.9844E-03     102.827E-03    -51.8426E-03     39.3963E-03    -51.3738E-03     103.321E-03    -51.6441E-03     38.9426E-03
            1453     14.5314E-03     55.9531E-03    -17.1885E+06     80.5568E+06     51.9166E+06     2.36047E+06    -51.2312E-03     103.083E-03    -51.8514E-03     48.8065E-03    -51.6558E-03     103.582E-03    -51.6837E-03     48.3918E-03
            1454     13.6742E-03     55.9021E-03    -20.9432E+06     71.2732E+06     45.5502E+06     3.32857E+06    -52.0668E-03     103.925E-03    -51.8582E-03     53.8154E-03    -52.5069E-03     104.412E-03    -51.7034E-03     53.3840E-03
            1455     12.8181E-03     55.8433E-03    -24.1246E+06     48.2973E+06     39.4012E+06     2.17893E+06    -52.9988E-03     104.835E-03    -51.8362E-03     56.9547E-03    -53.4260E-03     105.234E-03    -51.6743E-03     56.4872E-03
            1456     11.9690E-03     55.7842E-03    -25.4851E+06     16.1788E+06     33.8812E+06     733.318E+03    -52.9045E-03     104.708E-03    -51.8039E-03     59.8533E-03    -53.2871E-03     104.960E-03    -51.6210E-03     59.3691E-03
            1457     11.1115E-03     55.7224E-03    -25.1292E+06    -8.72655E+06     29.9736E+06     465.671E+03    -51.8698E-03     103.682E-03    -51.8123E-03     61.2235E-03    -52.1987E-03     103.804E-03    -51.6134E-03     60.7597E-03
            1458     10.2553E-03     55.6631E-03    -32.4283E+06    -28.8274E+06     22.2399E+06      3.3156E+06    -51.6939E-03     103.552E-03    -51.8585E-03     61.0111E-03    -52.0017E-03     103.578E-03    -51.6585E-03     60.6102E-03
            1459     9.40168E-03     55.6026E-03    -38.2232E+06    -55.1975E+06     9.29146E+06     1.91808E+06    -51.9471E-03     103.839E-03    -51.8916E-03     60.4979E-03    -52.2098E-03     103.743E-03    -51.7096E-03     60.1027E-03
            1460     8.54565E-03     55.5419E-03    -39.6065E+06    -79.7185E+06     2.16273E+06    -1.61788E+06    -52.1081E-03     104.043E-03    -51.9353E-03     58.2888E-03    -52.3063E-03     103.812E-03    -51.7514E-03     57.8882E-03
            1461     7.69036E-03     55.4872E-03    -46.0902E+06    -92.9636E+06    -3.72974E+06    -1.21594E+06    -52.6381E-03     104.580E-03    -51.9414E-03     55.4216E-03    -52.8151E-03     104.274E-03    -51.7585E-03     55.0660E-03
            1462     6.83711E-03     55.4328E-03    -50.9912E+06    -109.627E+06    -10.9013E+06    -257.551E+03    -52.6787E-03     104.581E-03    -51.9027E-03     52.0092E-03    -52.8266E-03     104.191E-03    -51.7243E-03     51.7035E-03
            1463     5.98161E-03     55.3841E-03    -55.0438E+06    -127.304E+06    -18.9747E+06     230.233E+03    -52.4693E-03     104.319E-03    -51.8495E-03     46.2312E-03    -52.5794E-03     103.837E-03    -51.6800E-03     45.9810E-03
            1464     5.12917E-03     55.3407E-03    -61.1834E+06    -145.160E+06    -30.2998E+06    -393.372E+03    -52.1948E-03     103.986E-03    -51.7914E-03     40.9698E-03    -52.2765E-03     103.423E-03    -51.6437E-03     40.7580E-03
            1465     4.27432E-03     55.3006E-03    -67.2931E+06    -160.624E+06    -40.6275E+06    -1.90729E+06    -51.5413E-03     103.339E-03    -51.7977E-03     34.9910E-03    -51.6017E-03     102.709E-03    -51.6704E-03     34.8024E-03
            1466     3.41810E-03     55.2704E-03    -73.1438E+06    -168.178E+06    -48.6895E+06    -1.29443E+06    -51.4793E-03     103.356E-03    -51.8769E-03     28.7892E-03    -51.5267E-03     102.689E-03    -51.7704E-03     28.6472E-03
            1467     2.56321E-03     55.2440E-03    -77.2522E+06    -175.710E+06    -58.6241E+06     86.4329E+03    -51.7911E-03     103.726E-03    -51.9350E-03     22.5606E-03    -51.8153E-03     103.025E-03    -51.8613E-03     22.4706E-03
            1468     1.70983E-03     55.2245E-03    -80.5222E+06    -184.200E+06    -70.8267E+06     593.367E+03    -51.7135E-03     103.715E-03    -52.0015E-03     14.9944E-03    -51.7227E-03     102.993E-03    -51.9718E-03     14.9521E-03
            1469     853.157E-06     55.2146E-03    -85.9250E+06    -193.741E+06    -84.2631E+06    -596.068E+03    -51.9480E-03     104.118E-03    -52.1701E-03     7.49061E-03    -51.9350E-03     103.431E-03    -52.1859E-03     7.47209E-03
            1470     16.2389E-03     54.9780E-03    -3.11745E+06     93.3222E+06     72.3429E+06    -568.022E+03    -50.6658E-03     102.539E-03    -51.8733E-03     31.4847E-03    -51.0190E-03     103.003E-03    -51.6424E-03     31.0835E-03
            1471     15.3849E-03     54.9463E-03    -9.49554E+06     84.4277E+06     60.6255E+06     2.97363E+06    -50.7470E-03     102.636E-03    -51.8886E-03     40.1711E-03    -51.1292E-03     103.108E-03    -51.6941E-03     39.7742E-03
            1472     14.5256E-03     54.9016E-03    -15.5607E+06     78.7653E+06     53.0139E+06     3.10961E+06    -52.2291E-03     104.117E-03    -51.8881E-03     49.6225E-03    -52.6490E-03     104.608E-03    -51.7146E-03     49.2021E-03
            1473     13.6753E-03     54.8475E-03    -18.5889E+06     75.1776E+06     49.1920E+06     1.46991E+06    -53.2125E-03     105.047E-03    -51.8343E-03     54.5500E-03    -53.6561E-03     105.549E-03    -51.6704E-03     54.0795E-03
            1474     12.8238E-03     54.7927E-03    -17.2763E+06     51.5509E+06     44.8076E+06     803.867E+03    -52.8229E-03     104.608E-03    -51.7851E-03     58.2764E-03    -53.2294E-03     105.006E-03    -51.6108E-03     57.7947E-03
            1475     11.9646E-03     54.7307E-03    -21.8544E+06     14.5696E+06     35.4194E+06    -357.761E+03    -52.0687E-03     103.849E-03    -51.7806E-03     59.9296E-03    -52.4320E-03     104.084E-03    -51.5929E-03     59.4399E-03
            1476     11.1114E-03     54.6741E-03    -29.5418E+06    -12.4466E+06     26.3448E+06     866.888E+03    -51.5288E-03     103.349E-03    -51.8200E-03     60.5084E-03    -51.8679E-03     103.462E-03    -51.6274E-03     60.0548E-03
            1477     10.2562E-03     54.6111E-03    -31.0743E+06    -28.3003E+06     22.5790E+06     2.89824E+06    -51.9349E-03     103.810E-03    -51.8755E-03     61.4964E-03    -52.2375E-03     103.837E-03    -51.6765E-03     61.0892E-03
            1478     9.40096E-03     54.5513E-03    -30.6606E+06    -51.1624E+06     14.7307E+06     1.19642E+06    -52.3383E-03     104.232E-03    -51.8936E-03     59.7441E-03    -52.5737E-03     104.134E-03    -51.7013E-03     59.3381E-03
            1479     8.54592E-03     54.4925E-03    -36.7023E+06    -77.9525E+06     4.66298E+06    -743.373E+03    -52.1564E-03     104.066E-03    -51.9098E-03     57.4574E-03    -52.3458E-03     103.835E-03    -51.7203E-03     57.0642E-03
            1480     7.69165E-03     54.4343E-03    -43.7266E+06    -94.2708E+06    -2.62608E+06    -2.07100E+06    -52.4954E-03     104.410E-03    -51.9149E-03     54.6386E-03    -52.6631E-03     104.096E-03    -51.7279E-03     54.2670E-03
            1481     6.83691E-03     54.3817E-03    -48.8705E+06    -111.992E+06    -9.78198E+06    -1.62252E+06    -52.6543E-03     104.536E-03    -51.8814E-03     50.5292E-03    -52.7905E-03     104.129E-03    -51.6970E-03     50.2057E-03
            1482     5.98364E-03     54.3322E-03    -56.5237E+06    -128.461E+06    -18.2237E+06     374.110E+03    -52.3495E-03     104.183E-03    -51.8338E-03     46.1916E-03    -52.4680E-03     103.698E-03    -51.6566E-03     45.9422E-03
            1483     5.12826E-03     54.2888E-03    -61.7368E+06    -143.185E+06    -26.0285E+06     1.21141E+06    -51.9001E-03     103.719E-03    -51.8185E-03     41.3188E-03    -51.9939E-03     103.161E-03    -51.6515E-03     41.1279E-03
            1484     4.27299E-03     54.2517E-03    -64.9852E+06    -157.318E+06    -36.8292E+06     989.317E+03    -51.5413E-03     103.388E-03    -51.8468E-03     35.7044E-03    -51.5996E-03     102.765E-03    -51.7086E-03     35.5588E-03
            1485     3.41805E-03     54.2196E-03    -71.3293E+06    -169.693E+06    -51.6497E+06    -1.14178E+06    -51.8049E-03     103.674E-03    -51.8689E-03     29.4566E-03    -51.8375E-03     103.002E-03    -51.7776E-03     29.3211E-03
            1486     2.56426E-03     54.1921E-03    -77.9997E+06    -179.108E+06    -63.3894E+06    -2.16466E+06    -51.8358E-03     103.709E-03    -51.8737E-03     22.3852E-03    -51.8551E-03     103.002E-03    -51.8178E-03     22.2660E-03
            1487     1.70782E-03     54.1751E-03    -83.0857E+06    -185.743E+06    -71.5132E+06    -206.807E+03    -51.8376E-03     103.719E-03    -51.8811E-03     15.2234E-03    -51.8610E-03     102.999E-03    -51.8489E-03     15.1638E-03
            1488     855.620E-06     54.1608E-03    -85.5873E+06    -191.734E+06    -80.5473E+06     2.24832E+06    -52.1571E-03     103.755E-03    -51.5982E-03     7.56780E-03    -52.1478E-03     103.069E-03    -51.5988E-03     7.57874E-03
            1489     16.2388E-03     53.9271E-03    -5.21142E+06      93.575E+06     67.8193E+06     375.971E+03    -50.5976E-03     102.472E-03    -51.8748E-03     30.0445E-03    -50.9540E-03     102.946E-03    -51.6638E-03     29.6535E-03
            1490     15.3810E-03     53.8964E-03    -16.3291E+06     79.9773E+06     53.4859E+06    -268.983E+03    -51.7030E-03     103.567E-03    -51.8644E-03     38.9915E-03    -52.1020E-03     104.037E-03    -51.6892E-03     38.5402E-03
            1491     14.5314E-03     53.8475E-03    -12.1156E+06     81.4275E+06     58.3010E+06     1.06634E+06    -52.7908E-03     104.645E-03    -51.8539E-03     48.1815E-03    -53.2024E-03     105.133E-03    -51.6629E-03     47.7311E-03
            1492     13.6747E-03     53.7953E-03    -9.22610E+06     78.7558E+06     56.4220E+06    -615.169E+03    -52.6007E-03     104.399E-03    -51.7979E-03     52.9491E-03    -53.0113E-03     104.892E-03    -51.6166E-03     52.4571E-03
            1493     12.8187E-03     53.7390E-03    -16.3046E+06     46.5541E+06     45.0121E+06    -243.668E+03    -52.0466E-03     103.826E-03    -51.7799E-03     57.2045E-03    -52.4410E-03     104.198E-03    -51.5987E-03     56.7148E-03
            1494     11.9682E-03     53.6816E-03    -20.4506E+06     17.0098E+06     37.6520E+06     2.93188E+06    -51.7188E-03     103.531E-03    -51.8121E-03     59.7746E-03    -52.0816E-03     103.772E-03    -51.6188E-03     59.3313E-03
            1495     11.1111E-03     53.6218E-03    -24.3580E+06    -11.6183E+06     26.6071E+06     865.165E+03    -52.0745E-03     103.907E-03    -51.8327E-03     60.6551E-03    -52.3893E-03     104.017E-03    -51.6475E-03     60.1966E-03
            1496     10.2557E-03     53.5620E-03    -27.4767E+06    -32.6330E+06     22.6554E+06    -1.04406E+06    -52.1871E-03     104.055E-03    -51.8683E-03     61.6520E-03    -52.4667E-03     104.056E-03    -51.6679E-03     61.1883E-03
            1497     9.40127E-03     53.4977E-03    -34.4334E+06    -51.5129E+06     15.2196E+06     1.07536E+06    -52.3424E-03     104.224E-03    -51.8820E-03     60.0017E-03    -52.5973E-03     104.130E-03    -51.6813E-03     59.5952E-03
            1498     8.54800E-03     53.4425E-03    -41.1345E+06    -73.3939E+06     5.22164E+06     1.87632E+06    -52.7327E-03     104.591E-03    -51.8587E-03     58.0047E-03    -52.9520E-03     104.389E-03    -51.6666E-03     57.6431E-03
            1499     7.69221E-03     53.3828E-03    -42.1504E+06    -90.4030E+06    -36.6107E+03     375.892E+03    -52.5445E-03     104.372E-03    -51.8273E-03     55.2292E-03    -52.7134E-03     104.070E-03    -51.6353E-03     54.8901E-03
            1500     6.83832E-03     53.3299E-03    -48.0526E+06    -113.418E+06    -9.54889E+06    -420.034E+03    -52.1554E-03     103.966E-03    -51.8110E-03     50.4100E-03    -52.2831E-03     103.549E-03    -51.6246E-03     50.1086E-03
            1501     5.98240E-03     53.2818E-03    -55.7838E+06    -130.558E+06    -19.4053E+06      37.376E+03    -51.8039E-03     103.628E-03    -51.8238E-03     46.2330E-03    -51.9109E-03     103.129E-03    -51.6506E-03     45.9882E-03
            1502     5.12756E-03     53.2381E-03    -59.5199E+06    -144.140E+06    -25.6598E+06     153.801E+03    -51.7150E-03     103.587E-03    -51.8717E-03     40.5822E-03    -51.7942E-03     103.017E-03    -51.7047E-03     40.3835E-03
            1503     4.27256E-03     53.2013E-03    -64.7402E+06    -157.137E+06    -35.0273E+06     884.953E+03    -51.9725E-03     103.859E-03    -51.8866E-03     35.0316E-03    -52.0310E-03     103.232E-03    -51.7401E-03     34.8779E-03
            1504     3.41874E-03     53.1671E-03    -70.2708E+06    -166.765E+06    -47.5373E+06     1.15413E+06    -51.8992E-03     103.757E-03    -51.8578E-03     29.1348E-03    -51.9342E-03     103.090E-03    -51.7518E-03     29.0236E-03
            1505     2.56320E-03     53.1428E-03    -77.3067E+06    -178.849E+06    -63.4269E+06    -75.8427E+03    -51.8035E-03     103.634E-03    -51.8302E-03     22.4277E-03    -51.8143E-03     102.922E-03    -51.7759E-03     22.3439E-03
            1506     1.71033E-03     53.1224E-03    -83.3840E+06    -187.742E+06    -74.7086E+06    -1.26072E+06    -51.9703E-03     103.744E-03    -51.7734E-03     15.6562E-03    -51.9822E-03     103.012E-03    -51.7538E-03     15.5821E-03
            1507     853.962E-06     53.1113E-03    -85.7925E+06    -192.054E+06    -81.2085E+06    -323.014E+03    -52.0093E-03     103.458E-03    -51.4487E-03     7.72983E-03    -51.9987E-03     102.765E-03    -51.4519E-03     7.67989E-03
            1508     16.2395E-03     52.8794E-03    -4.20777E+06     91.5067E+06     69.1850E+06     3.25346E+06    -51.7894E-03     103.688E-03    -51.8986E-03     31.6828E-03    -52.1423E-03     104.150E-03    -51.6792E-03     31.3232E-03
            1509     15.3870E-03     52.8417E-03    -6.87217E+06     87.5095E+06     62.2050E+06     426.612E+03    -53.1104E-03     104.940E-03    -51.8298E-03     40.8926E-03    -53.4900E-03     105.426E-03    -51.6357E-03     40.4371E-03
            1510     14.5304E-03     52.7953E-03    -9.97636E+06     83.6682E+06     59.3315E+06    -6.62741E+06    -53.0621E-03     104.812E-03    -51.7495E-03     48.3649E-03    -53.4705E-03     105.310E-03    -51.5597E-03     47.8059E-03
            1511     13.6780E-03     52.7436E-03    -11.0849E+06     74.5911E+06     54.4896E+06    -3.31804E+06    -51.8691E-03     103.571E-03    -51.7017E-03     51.7583E-03    -52.2780E-03     104.047E-03    -51.5213E-03     51.2353E-03
            1512     12.8239E-03     52.6887E-03    -18.0209E+06     42.9934E+06     42.2743E+06     4.08856E+06    -50.8006E-03     102.537E-03    -51.7363E-03     55.6834E-03    -51.1866E-03     102.889E-03    -51.5612E-03     55.2689E-03
            1513     11.9634E-03     52.6310E-03    -21.2717E+06     17.3012E+06     36.5843E+06     3.44237E+06    -51.1647E-03     102.995E-03    -51.8300E-03     60.0560E-03    -51.5253E-03     103.235E-03    -51.6414E-03     59.6329E-03
            1514     11.1102E-03     52.5699E-03    -24.6678E+06    -6.93143E+06     29.3375E+06    -189.421E+03    -52.3338E-03     104.209E-03    -51.8754E-03     61.5049E-03    -52.6622E-03     104.340E-03    -51.6829E-03     61.0270E-03
            1515     10.2574E-03     52.5098E-03    -33.0770E+06    -35.9592E+06     19.9926E+06    -94.2999E+03    -52.5297E-03     104.410E-03    -51.8805E-03     61.6690E-03    -52.8318E-03     104.409E-03    -51.6805E-03     61.2084E-03
            1516     9.40126E-03     52.4488E-03    -37.7114E+06    -52.9773E+06     12.5685E+06     1.19526E+06    -52.4018E-03     104.273E-03    -51.8712E-03     60.8046E-03    -52.6693E-03     104.182E-03    -51.6769E-03     60.3981E-03
            1517     8.54523E-03     52.3883E-03    -40.3298E+06    -72.9414E+06     5.58846E+06     869.669E+03    -52.9524E-03     104.793E-03    -51.8406E-03     58.2054E-03    -53.1681E-03     104.591E-03    -51.6484E-03     57.8308E-03
            1518     7.69372E-03     52.3320E-03    -45.0531E+06    -92.3418E+06    -1.60686E+06     1.94273E+06    -52.7096E-03     104.494E-03    -51.7843E-03     54.7606E-03    -52.8860E-03     104.187E-03    -51.5931E-03     54.4461E-03
            1519     6.83756E-03     52.2795E-03    -49.7117E+06    -112.340E+06    -10.6951E+06     1.41646E+06    -51.8591E-03     103.626E-03    -51.7666E-03     50.2311E-03    -51.9942E-03     103.217E-03    -51.5851E-03     49.9606E-03
            1520     5.98332E-03     52.2311E-03    -52.1007E+06    -126.968E+06    -16.8765E+06    -288.159E+03    -51.7103E-03     103.517E-03    -51.8071E-03     45.9368E-03    -51.8085E-03     103.029E-03    -51.6318E-03     45.6878E-03
            1521     5.12792E-03     52.1878E-03    -59.0342E+06    -143.801E+06    -26.1442E+06    -185.805E+03    -52.0146E-03     103.841E-03    -51.8262E-03     40.5016E-03    -52.0922E-03     103.274E-03    -51.6628E-03     40.2962E-03
            1522     4.27397E-03     52.1491E-03    -65.6554E+06    -158.762E+06    -36.6708E+06     109.392E+03    -51.9648E-03     103.769E-03    -51.8042E-03     34.8046E-03    -52.0241E-03     103.139E-03    -51.6622E-03     34.6389E-03
            1523     3.41850E-03     52.1174E-03    -71.1169E+06    -166.550E+06    -46.6919E+06     1.00234E+06    -51.7339E-03     103.521E-03    -51.7872E-03     28.9267E-03    -51.7774E-03     102.857E-03    -51.6761E-03     28.8078E-03
            1524     2.56417E-03     52.0911E-03    -76.4743E+06    -176.525E+06    -60.1427E+06     1.09699E+06    -51.7980E-03     103.560E-03    -51.7618E-03     22.3389E-03    -51.8180E-03     102.859E-03    -51.6956E-03     22.2637E-03
            1525     1.70814E-03     52.0716E-03    -81.5862E+06    -186.541E+06    -74.2364E+06     154.484E+03    -51.6436E-03     103.397E-03    -51.7538E-03     15.4148E-03    -51.6557E-03     102.675E-03    -51.7362E-03     15.3674E-03
            1526     855.512E-06     52.0600E-03    -87.0082E+06    -194.782E+06    -85.0770E+06    -1.34255E+06    -51.3918E-03     103.558E-03    -52.1660E-03     8.58786E-03    -51.3880E-03     102.866E-03    -52.1828E-03     8.54241E-03
            1527     16.2355E-03     51.8222E-03    -4.97636E+06     91.3117E+06     70.6691E+06    -372.482E+03    -52.7986E-03     104.683E-03    -51.8840E-03     31.6428E-03    -53.1606E-03     105.146E-03    -51.6558E-03     31.2179E-03
            1528     15.3835E-03     51.7891E-03    -1.00614E+06     93.1945E+06     69.7476E+06    -1.92567E+06    -53.5174E-03     105.303E-03    -51.7858E-03     39.0771E-03    -53.8850E-03     105.796E-03    -51.5707E-03     38.5829E-03
            1529     14.5331E-03     51.7414E-03    -5.10858E+06     86.6858E+06     62.1655E+06    -1.82980E+06    -52.1919E-03     103.889E-03    -51.6974E-03     47.7546E-03    -52.5816E-03     104.388E-03    -51.5049E-03     47.2713E-03
            1530     13.6783E-03     51.6920E-03    -15.8245E+06     64.2059E+06     46.9669E+06    -736.498E+03    -51.1637E-03     102.842E-03    -51.6786E-03     53.2252E-03    -51.5708E-03     103.285E-03    -51.5140E-03     52.7470E-03
            1531     12.8204E-03     51.6404E-03    -20.4663E+06     41.8879E+06     40.8565E+06     2.57700E+06    -51.0266E-03     102.771E-03    -51.7445E-03     57.3742E-03    -51.4239E-03     103.126E-03    -51.5713E-03     56.9385E-03
            1532     11.9675E-03     51.5812E-03    -26.0889E+06     21.7637E+06     37.2965E+06     2.84549E+06    -51.0436E-03     102.886E-03    -51.8426E-03     60.6477E-03    -51.4387E-03     103.158E-03    -51.6498E-03     60.2156E-03
            1533     11.1103E-03     51.5180E-03    -31.5788E+06    -7.66837E+06     26.7883E+06     791.917E+03    -51.7232E-03     103.635E-03    -51.9115E-03     62.5982E-03    -52.0847E-03     103.779E-03    -51.7207E-03     62.1378E-03
            1534     10.2542E-03     51.4578E-03    -32.8360E+06    -33.2965E+06     19.9617E+06     76.7008E+03    -52.9650E-03     104.888E-03    -51.9229E-03     61.7435E-03    -53.2707E-03     104.901E-03    -51.7272E-03     61.2819E-03
            1535     9.40138E-03     51.3974E-03    -36.5943E+06    -53.5657E+06     12.1625E+06    -95.9124E+03    -53.3073E-03     105.164E-03    -51.8569E-03     60.3420E-03    -53.5699E-03     105.071E-03    -51.6653E-03     59.9081E-03
            1536     8.54875E-03     51.3366E-03    -39.6520E+06    -75.2170E+06     4.98816E+06     111.730E+03    -52.8805E-03     104.667E-03    -51.7865E-03     57.6085E-03    -53.0899E-03     104.454E-03    -51.5950E-03     57.2225E-03
            1537     7.69199E-03     51.2802E-03    -43.1924E+06    -94.5979E+06    -2.04147E+06    -17.0666E+03    -52.3051E-03     104.054E-03    -51.7489E-03     53.5507E-03    -52.4666E-03     103.732E-03    -51.5593E-03     53.2141E-03
            1538     6.83901E-03     51.2290E-03    -48.8346E+06    -110.523E+06    -9.38163E+06     915.979E+03    -51.8108E-03     103.567E-03    -51.7565E-03     50.0255E-03    -51.9466E-03     103.165E-03    -51.5723E-03     49.7482E-03
            1539     5.98262E-03     51.1812E-03    -55.2666E+06    -126.544E+06    -18.2831E+06     869.584E+03    -51.8201E-03     103.604E-03    -51.7839E-03     46.6516E-03    -51.9352E-03     103.127E-03    -51.6117E-03     46.4136E-03
            1540     5.12860E-03     51.1357E-03    -60.5607E+06    -143.875E+06    -27.8583E+06     393.447E+03    -52.0598E-03     103.845E-03    -51.7849E-03     41.2987E-03    -52.1438E-03     103.284E-03    -51.6278E-03     41.0946E-03
            1541     4.27353E-03     51.0991E-03    -66.5187E+06    -158.137E+06    -38.0660E+06     185.812E+03    -51.9201E-03     103.677E-03    -51.7573E-03     34.8883E-03    -51.9826E-03     103.053E-03    -51.6219E-03     34.7239E-03
            1542     3.41896E-03     51.0664E-03    -72.3621E+06    -168.028E+06    -48.2290E+06    -46.6285E+03    -51.7265E-03     103.466E-03    -51.7394E-03     29.3762E-03    -51.7720E-03     102.799E-03    -51.6320E-03     29.2509E-03
            1543     2.56419E-03     51.0402E-03    -77.1381E+06    -176.112E+06    -58.9064E+06     628.525E+03    -51.7793E-03     103.494E-03    -51.7149E-03     22.8407E-03    -51.8039E-03     102.793E-03    -51.6422E-03     22.7565E-03
            1544     1.71073E-03     51.0214E-03    -81.9132E+06    -184.814E+06    -70.9207E+06     1.09081E+06    -51.6395E-03     103.328E-03    -51.6883E-03     15.0487E-03    -51.6573E-03     102.607E-03    -51.6561E-03     14.9989E-03
            1545     852.751E-06     51.0099E-03    -87.5871E+06    -194.933E+06    -84.8091E+06     636.377E+03    -51.4014E-03     103.357E-03    -51.9558E-03     8.24081E-03    -51.3954E-03     102.666E-03    -51.9702E-03     8.21495E-03
            1546     16.2438E-03     50.7691E-03    -4.93476E+06     94.4481E+06     71.2594E+06    -2.41907E+06    -52.7386E-03     104.521E-03    -51.7828E-03     31.3670E-03    -53.1062E-03     105.000E-03    -51.5563E-03     30.9155E-03
            1547     15.3900E-03     50.7348E-03    -5.40939E+06     91.6746E+06     65.6884E+06    -2.38385E+06    -51.6592E-03     103.383E-03    -51.7234E-03     39.7768E-03    -52.0391E-03     103.878E-03    -51.5201E-03     39.2985E-03
            1548     14.5326E-03     50.6908E-03    -9.83790E+06     82.8187E+06     58.0082E+06     2.23890E+06    -51.0156E-03     102.740E-03    -51.7243E-03     48.3418E-03    -51.4143E-03     103.229E-03    -51.5401E-03     47.9271E-03
            1549     13.6739E-03     50.6441E-03    -16.4708E+06     64.9211E+06     47.0879E+06     2.82426E+06    -50.8610E-03     102.623E-03    -51.7620E-03     53.1258E-03    -51.2703E-03     103.068E-03    -51.5968E-03     52.6986E-03
            1550     12.8210E-03     50.5865E-03    -23.6888E+06     40.4657E+06     38.9161E+06    -351.993E+03    -51.5158E-03     103.339E-03    -51.8227E-03     57.6681E-03    -51.9239E-03     103.693E-03    -51.6524E-03     57.1922E-03
            1551     11.9649E-03     50.5315E-03    -23.5767E+06     23.7858E+06     38.7198E+06     750.620E+03    -52.0215E-03     103.899E-03    -51.8777E-03     61.1941E-03    -52.4098E-03     104.176E-03    -51.6844E-03     60.7267E-03
            1552     11.1091E-03     50.4688E-03    -24.8122E+06    -5.09726E+06     29.5237E+06     680.591E+03    -52.3485E-03     104.237E-03    -51.8889E-03     62.0742E-03    -52.6819E-03     104.379E-03    -51.6979E-03     61.6090E-03
            1553     10.2554E-03     50.4044E-03    -31.7113E+06    -34.8653E+06     19.1281E+06    -264.255E+03    -52.7947E-03     104.671E-03    -51.8760E-03     60.3724E-03    -53.0857E-03     104.670E-03    -51.6838E-03     59.9128E-03
            1554     9.40222E-03     50.3440E-03    -35.6362E+06    -53.2954E+06     12.8261E+06     528.616E+03    -53.2984E-03     105.115E-03    -51.8170E-03     59.8441E-03    -53.5547E-03     105.019E-03    -51.6239E-03     59.4199E-03
            1555     8.54727E-03     50.2853E-03    -38.9733E+06    -74.2507E+06     5.58847E+06    -162.529E+03    -52.9076E-03     104.648E-03    -51.7400E-03     57.4117E-03    -53.1150E-03     104.437E-03    -51.5479E-03     57.0218E-03
            1556     7.69460E-03     50.2295E-03    -44.2431E+06    -94.3399E+06    -2.68276E+06    -181.783E+03    -51.8520E-03     103.571E-03    -51.7187E-03     53.2311E-03    -52.0166E-03     103.251E-03    -51.5312E-03     52.8966E-03
            1557     6.83706E-03     50.1790E-03    -49.2467E+06    -110.700E+06    -10.2584E+06     895.493E+03    -51.7708E-03     103.521E-03    -51.7505E-03     50.2671E-03    -51.9064E-03     103.119E-03    -51.5699E-03     49.9895E-03
            1558     5.98349E-03     50.1297E-03    -53.6750E+06    -128.497E+06    -18.5306E+06     610.203E+03    -52.0535E-03     103.820E-03    -51.7663E-03     46.4587E-03    -52.1554E-03     103.329E-03    -51.5948E-03     46.2167E-03
            1559     5.12780E-03     50.0858E-03    -60.2281E+06    -145.457E+06    -27.8733E+06     471.482E+03    -51.7851E-03     103.559E-03    -51.7743E-03     40.9940E-03    -51.8629E-03     102.988E-03    -51.6154E-03     40.7960E-03
            1560     4.27360E-03     50.0469E-03    -66.8100E+06    -157.072E+06    -37.4077E+06     139.716E+03    -51.7987E-03     103.582E-03    -51.7832E-03     35.0186E-03    -51.8647E-03     102.962E-03    -51.6456E-03     34.8552E-03
            1561     3.41890E-03     50.0170E-03    -72.0843E+06    -167.322E+06    -48.2932E+06    -494.910E+03    -51.8574E-03     103.620E-03    -51.7628E-03     29.4651E-03    -51.9029E-03     102.957E-03    -51.6571E-03     29.3261E-03
            1562     2.56371E-03     49.9886E-03    -77.1923E+06    -176.701E+06    -59.8283E+06    -586.113E+03    -51.5861E-03     103.351E-03    -51.7652E-03     22.9882E-03    -51.6076E-03     102.648E-03    -51.6962E-03     22.8835E-03
            1563     1.70822E-03     49.9710E-03    -82.9202E+06    -185.824E+06    -71.7658E+06     -66.141E+03    -51.8333E-03     103.586E-03    -51.7530E-03     15.9302E-03    -51.8493E-03     102.859E-03    -51.7222E-03     15.8673E-03
            1564     857.291E-06     49.9586E-03    -86.7196E+06    -192.753E+06    -81.5405E+06     203.413E+03    -52.1190E-03     103.448E-03    -51.3291E-03     9.10718E-03    -52.1097E-03     102.762E-03    -51.3315E-03     9.08247E-03
            1565     16.2414E-03     49.7198E-03    -3.35227E+06     93.6657E+06     71.5033E+06    -2.21314E+06    -51.2345E-03     102.979E-03    -51.7450E-03     30.9989E-03    -51.5872E-03     103.446E-03    -51.5185E-03     30.5759E-03
            1566     15.3831E-03     49.6837E-03    -8.55150E+06     87.7034E+06     61.1395E+06     722.210E+03    -49.7281E-03     101.497E-03    -51.7689E-03     41.9848E-03    -50.1124E-03     101.985E-03    -51.5779E-03     41.5662E-03
            1567     14.5283E-03     49.6415E-03    -17.3558E+06     77.5887E+06     51.7896E+06     1.75076E+06    -51.1197E-03     102.946E-03    -51.8264E-03     49.2730E-03    -51.5419E-03     103.432E-03    -51.6548E-03     48.8462E-03
            1568     13.6770E-03     49.5907E-03    -20.7324E+06     67.2949E+06     46.7019E+06     830.996E+03    -51.8317E-03     103.681E-03    -51.8494E-03     53.1468E-03    -52.2658E-03     104.145E-03    -51.6834E-03     52.6862E-03
            1569     12.8187E-03     49.5390E-03    -15.6631E+06     48.0369E+06     45.4522E+06    -560.196E+03    -52.0292E-03     103.904E-03    -51.8753E-03     57.1186E-03    -52.4176E-03     104.276E-03    -51.6949E-03     56.6363E-03
            1570     11.9639E-03     49.4774E-03    -18.0134E+06     21.3609E+06     39.4776E+06    -2.48067E+06    -53.1357E-03     104.999E-03    -51.8630E-03     59.9116E-03    -53.4944E-03     105.255E-03    -51.6705E-03     59.3872E-03
            1571     11.1133E-03     49.4163E-03    -24.7147E+06    -6.45602E+06     29.7639E+06    -303.611E+03    -53.4734E-03     105.262E-03    -51.7882E-03     60.7952E-03    -53.8060E-03     105.397E-03    -51.5942E-03     60.3015E-03
            1572     10.2584E-03     49.3537E-03    -29.5514E+06    -34.2123E+06     20.7766E+06     1.09199E+06    -52.5642E-03     104.295E-03    -51.7305E-03     59.8310E-03    -52.8467E-03     104.291E-03    -51.5341E-03     59.3943E-03
            1573     9.40136E-03     49.2932E-03    -33.7572E+06    -53.4033E+06     13.3823E+06     834.089E+03    -52.0228E-03     103.746E-03    -51.7237E-03     59.1976E-03    -52.2674E-03     103.643E-03    -51.5304E-03     58.7923E-03
            1574     8.54888E-03     49.2312E-03    -39.8771E+06    -73.6933E+06     4.77017E+06     1.32694E+06    -51.9328E-03     103.677E-03    -51.7444E-03     57.0529E-03    -52.1433E-03     103.471E-03    -51.5559E-03     56.6892E-03
            1575     7.69225E-03     49.1814E-03    -47.2433E+06    -93.8789E+06    -4.35341E+06     1.14093E+06    -52.2355E-03     103.987E-03    -51.7514E-03     53.8245E-03    -52.4142E-03     103.677E-03    -51.5685E-03     53.5060E-03
            1576     6.83867E-03     49.1272E-03    -51.8439E+06    -111.287E+06    -12.4149E+06     568.148E+03    -52.4041E-03     104.125E-03    -51.7211E-03     50.1818E-03    -52.5485E-03     103.727E-03    -51.5466E-03     49.8992E-03
            1577     5.98328E-03     49.0792E-03    -55.3165E+06    -129.843E+06    -19.2440E+06     220.908E+03    -51.9374E-03     103.642E-03    -51.7043E-03     45.7511E-03    -52.0440E-03     103.147E-03    -51.5320E-03     45.5049E-03
            1578     5.12941E-03     49.0347E-03    -59.3730E+06    -144.338E+06    -26.1496E+06     525.846E+03    -51.5258E-03     103.263E-03    -51.7368E-03     40.7734E-03    -51.6055E-03     102.695E-03    -51.5722E-03     40.5730E-03
            1579     4.27285E-03     48.9981E-03    -64.3157E+06    -155.279E+06    -35.6706E+06    -16.0975E+03    -51.5557E-03     103.341E-03    -51.7850E-03     35.1869E-03    -51.6156E-03     102.725E-03    -51.6449E-03     35.0203E-03
            1580     3.41844E-03     48.9634E-03    -71.2251E+06    -166.743E+06    -47.8712E+06    -557.357E+03    -51.8108E-03     103.608E-03    -51.7976E-03     29.2450E-03    -51.8519E-03     102.945E-03    -51.6919E-03     29.1080E-03
            1581     2.56449E-03     48.9405E-03    -77.8498E+06    -177.499E+06    -60.6860E+06    -768.333E+03    -51.7003E-03     103.493E-03    -51.7929E-03     22.5635E-03    -51.7229E-03     102.788E-03    -51.7261E-03     22.4579E-03
            1582     1.70917E-03     48.9187E-03    -83.4354E+06    -186.759E+06    -73.2789E+06    -1.28649E+06    -51.5512E-03     103.411E-03    -51.8602E-03     15.8323E-03    -51.5698E-03     102.687E-03    -51.8348E-03     15.7524E-03
            1583     852.078E-06     48.9073E-03      -86.41E+06    -193.579E+06    -83.4226E+06    -468.002E+03    -52.2819E-03     103.863E-03    -51.5811E-03     8.79635E-03    -52.2690E-03     103.183E-03    -51.5922E-03     8.76501E-03
            1584     16.2424E-03     48.6693E-03    -1.84229E+06     93.1272E+06     72.0000E+06     1.03863E+06    -50.4320E-03     102.269E-03    -51.8367E-03     30.6199E-03    -50.7754E-03     102.727E-03    -51.6091E-03     30.2477E-03
            1585     15.3857E-03     48.6379E-03    -11.2804E+06     85.2622E+06     58.4791E+06     1.27808E+06    -50.9019E-03     102.748E-03    -51.8466E-03     41.7502E-03    -51.2936E-03     103.233E-03    -51.6614E-03     41.3266E-03
            1586     14.5284E-03     48.5871E-03    -15.1233E+06     80.2396E+06     54.4652E+06    -616.009E+03    -51.5755E-03     103.448E-03    -51.8721E-03     47.3558E-03    -51.9921E-03     103.937E-03    -51.6942E-03     46.8940E-03
            1587     13.6712E-03     48.5402E-03    -18.3563E+06     69.6337E+06     49.1915E+06    -3.79921E+06    -52.0471E-03     103.920E-03    -51.8728E-03     50.8797E-03    -52.4747E-03     104.387E-03    -51.7012E-03     50.3519E-03
            1588     12.8205E-03     48.4850E-03    -20.9274E+06     47.6540E+06     43.3580E+06    -4.09319E+06    -52.9303E-03     104.781E-03    -51.8509E-03     57.0396E-03    -53.3470E-03     105.167E-03    -51.6729E-03     56.4901E-03
            1589     11.9679E-03     48.4259E-03    -25.6479E+06     19.5290E+06     35.2177E+06    -813.452E+03    -53.5426E-03     105.327E-03    -51.7845E-03     60.7953E-03    -53.9339E-03     105.595E-03    -51.5995E-03     60.2868E-03
            1590     11.1116E-03     48.3622E-03    -29.6063E+06    -10.4046E+06     25.8032E+06     135.078E+03    -53.4411E-03     105.132E-03    -51.6909E-03     60.9661E-03    -53.7839E-03     105.258E-03    -51.5039E-03     60.4841E-03
            1591     10.2588E-03     48.3033E-03    -33.6117E+06    -33.3160E+06     19.2033E+06     1.26272E+06    -52.6975E-03     104.322E-03    -51.6240E-03     59.8845E-03    -52.9989E-03     104.330E-03    -51.4310E-03     59.4466E-03
            1592     9.40626E-03     48.2419E-03    -35.0520E+06    -52.6548E+06     12.3327E+06     1.57118E+06    -51.3659E-03     102.997E-03    -51.6315E-03     59.3830E-03    -51.6148E-03     102.899E-03    -51.4426E-03     58.9957E-03
            1593     8.54601E-03     48.1846E-03    -38.7879E+06    -74.1802E+06     4.88685E+06     998.538E+03    -51.2244E-03     102.941E-03    -51.7164E-03     56.9209E-03    -51.4263E-03     102.728E-03    -51.5282E-03     56.5636E-03
            1594     7.69180E-03     48.1271E-03    -45.9883E+06    -92.8435E+06    -3.34952E+06     894.900E+03    -52.3174E-03     104.072E-03    -51.7542E-03     53.2902E-03    -52.4933E-03     103.764E-03    -51.5697E-03     52.9626E-03
            1595     6.83886E-03     48.0758E-03    -52.2667E+06    -111.327E+06    -10.9691E+06     595.333E+03    -52.5248E-03     104.241E-03    -51.7157E-03     49.9739E-03    -52.6743E-03     103.841E-03    -51.5333E-03     49.6860E-03
            1596     5.98468E-03     48.0292E-03    -58.1075E+06    -128.489E+06    -20.4169E+06     922.385E+03    -51.8642E-03     103.546E-03    -51.6815E-03     46.0205E-03    -51.9840E-03     103.062E-03    -51.5130E-03     45.7859E-03
            1597     5.12783E-03     47.9847E-03    -60.2045E+06    -142.938E+06    -27.8379E+06    -961.835E+03    -51.5913E-03     103.296E-03    -51.7051E-03     41.2135E-03    -51.6739E-03     102.739E-03    -51.5498E-03     40.9927E-03
            1598     4.27442E-03     47.9469E-03    -64.6477E+06    -155.886E+06    -35.7075E+06    -536.963E+03    -51.5983E-03     103.348E-03    -51.7494E-03     35.3990E-03    -51.6588E-03     102.729E-03    -51.6082E-03     35.2216E-03
            1599     3.41854E-03     47.9141E-03    -71.9611E+06    -167.549E+06    -47.8174E+06     506.536E+03    -51.6094E-03     103.387E-03    -51.7780E-03     29.2232E-03    -51.6517E-03     102.719E-03    -51.6698E-03     29.1016E-03
            1600     2.56321E-03     47.8876E-03    -77.5778E+06    -177.579E+06    -60.9974E+06    -338.162E+03    -51.9123E-03     103.662E-03    -51.7495E-03     22.3655E-03    -51.9298E-03     102.953E-03    -51.6845E-03     22.2680E-03
            1601     1.70973E-03     47.8696E-03    -83.2497E+06    -186.288E+06    -72.4852E+06    -1.08610E+06    -51.8255E-03     103.486E-03    -51.6610E-03     15.3979E-03    -51.8396E-03     102.758E-03    -51.6326E-03     15.3197E-03
            1602     855.849E-06     47.8563E-03    -88.8121E+06    -195.548E+06    -85.4733E+06     734.246E+03    -51.9064E-03     103.219E-03    -51.3127E-03     8.47282E-03    -51.8912E-03     102.533E-03    -51.3278E-03     8.45241E-03
            1603     16.2334E-03     47.6187E-03    -2.80364E+06     94.3879E+06     72.9827E+06     2.31840E+06    -51.1987E-03     103.133E-03    -51.9339E-03     30.4423E-03    -51.5533E-03     103.601E-03    -51.7017E-03     30.0715E-03
            1604     15.3823E-03     47.5825E-03    -10.2666E+06     87.6786E+06     60.8104E+06     131.359E+03    -52.8372E-03     104.711E-03    -51.8736E-03     40.6365E-03    -53.2325E-03     105.204E-03    -51.6818E-03     40.1707E-03
            1605     14.5313E-03     47.5376E-03    -12.2237E+06     83.3895E+06     56.6586E+06    -2.23727E+06    -51.9574E-03     103.785E-03    -51.8278E-03     46.9391E-03    -52.3684E-03     104.285E-03    -51.6477E-03     46.4479E-03
            1606     13.6780E-03     47.4880E-03    -13.6253E+06     74.2925E+06     50.7983E+06    -3.11817E+06    -51.6634E-03     103.483E-03    -51.8197E-03     51.6663E-03    -52.0756E-03     103.963E-03    -51.6537E-03     51.1535E-03
            1607     12.8199E-03     47.4336E-03    -20.0946E+06     40.9059E+06     38.7536E+06    -3.07320E+06    -53.2099E-03     105.002E-03    -51.7922E-03     58.4444E-03    -53.6063E-03     105.360E-03    -51.6286E-03     57.9090E-03
            1608     11.9655E-03     47.3711E-03    -24.4811E+06     14.5157E+06     33.7516E+06    -679.410E+03    -53.8464E-03     105.563E-03    -51.7162E-03     59.8240E-03    -54.2218E-03     105.805E-03    -51.5329E-03     59.3115E-03
            1609     11.1142E-03     47.3120E-03    -29.3367E+06    -8.95090E+06     25.4560E+06     1.23937E+06    -52.6968E-03     104.328E-03    -51.6314E-03     59.7577E-03    -53.0349E-03     104.457E-03    -51.4486E-03     59.3026E-03
            1610     10.2594E-03     47.2493E-03    -33.1646E+06    -35.0707E+06      18.536E+06    -170.735E+03    -52.0590E-03     103.679E-03    -51.6197E-03     60.2400E-03    -52.3545E-03     103.678E-03    -51.4281E-03     59.7915E-03
            1611     9.40185E-03     47.1946E-03    -36.3675E+06    -52.3095E+06     12.5773E+06     509.699E+03    -52.2285E-03     103.846E-03    -51.6177E-03     59.1554E-03    -52.4880E-03     103.755E-03    -51.4262E-03     58.7406E-03
            1612     8.55005E-03     47.1330E-03    -42.5670E+06    -72.9465E+06     4.46848E+06     1.09951E+06    -51.9137E-03     103.534E-03    -51.6204E-03     56.8008E-03    -52.1362E-03     103.334E-03    -51.4306E-03     56.4398E-03
            1613     7.69472E-03     47.0773E-03    -47.3074E+06    -93.0572E+06    -3.47265E+06     346.459E+03    -51.4866E-03     103.145E-03    -51.6585E-03     53.5346E-03    -51.6676E-03     102.838E-03    -51.4724E-03     53.2080E-03
            1614     6.83744E-03     47.0247E-03    -49.9405E+06    -111.193E+06    -10.6181E+06     737.062E+03    -51.6857E-03     103.396E-03    -51.7099E-03     49.7312E-03    -51.8230E-03     102.992E-03    -51.5293E-03     49.4478E-03
            1615     5.98266E-03     46.9777E-03    -54.4587E+06    -126.477E+06    -18.9620E+06     39.8447E+03    -51.9623E-03     103.688E-03    -51.7254E-03     45.6285E-03    -52.0692E-03     103.207E-03    -51.5579E-03     45.3798E-03
            1616     5.12950E-03     46.9351E-03    -61.1093E+06    -142.789E+06    -28.1771E+06    -837.282E+03    -51.8508E-03     103.577E-03    -51.7258E-03     41.4004E-03    -51.9382E-03     103.022E-03    -51.5711E-03     41.1845E-03
            1617     4.27302E-03     46.8954E-03    -68.0995E+06    -158.146E+06    -38.6835E+06    -432.364E+03    -51.8189E-03     103.538E-03    -51.7193E-03     35.6082E-03    -51.8886E-03     102.918E-03    -51.5847E-03     35.4348E-03
            1618     3.41917E-03     46.8643E-03    -72.1846E+06    -167.086E+06    -47.8804E+06     232.542E+03    -51.8292E-03     103.520E-03    -51.6903E-03     29.1603E-03    -51.8728E-03     102.854E-03    -51.5828E-03     29.0283E-03
            1619     2.56461E-03     46.8365E-03    -77.2119E+06    -177.039E+06    -60.5595E+06    -166.131E+03    -51.7577E-03     103.388E-03    -51.6300E-03     22.2393E-03    -51.7763E-03     102.682E-03    -51.5642E-03     22.1426E-03
            1620     1.70947E-03     46.8182E-03    -83.8753E+06    -187.257E+06    -73.6907E+06     565.087E+03    -51.8278E-03     103.330E-03    -51.5022E-03     15.3764E-03    -51.8441E-03     102.600E-03    -51.4775E-03     15.3291E-03
            1621     855.010E-06     46.8058E-03    -88.9102E+06    -194.868E+06    -84.2485E+06    -678.129E+03    -51.4427E-03     102.837E-03    -51.3944E-03     9.64125E-03    -51.4296E-03     102.150E-03    -51.4042E-03     9.59577E-03
            1622     16.2413E-03     46.5631E-03    -4.44230E+06     92.7552E+06     72.0428E+06     514.908E+03    -51.8822E-03     103.767E-03    -51.8849E-03     28.9289E-03    -52.2401E-03     104.230E-03    -51.6528E-03     28.5281E-03
            1623     15.3862E-03     46.5309E-03    -3.79318E+06     90.8762E+06     64.3458E+06     877.323E+03    -51.6537E-03     103.494E-03    -51.8400E-03     38.9155E-03    -52.0209E-03     103.983E-03    -51.6446E-03     38.4760E-03
            1624     14.5298E-03     46.4834E-03    -10.2148E+06     84.0603E+06     54.7115E+06    -1.40417E+06    -51.7242E-03     103.541E-03    -51.8168E-03     47.8449E-03    -52.1246E-03     104.045E-03    -51.6503E-03     47.3671E-03
            1625     13.6726E-03     46.4398E-03    -13.6107E+06     75.1061E+06     50.2981E+06    -1.92581E+06    -52.8317E-03     104.622E-03    -51.7904E-03     52.9631E-03    -53.2481E-03     105.111E-03    -51.6281E-03     52.4520E-03
            1626     12.8208E-03     46.3785E-03    -18.0597E+06     40.3424E+06     39.3331E+06    -1.11535E+06    -53.5657E-03     105.282E-03    -51.7166E-03     58.0721E-03    -53.9512E-03     105.633E-03    -51.5523E-03     57.5585E-03
            1627     11.9702E-03     46.3183E-03    -25.1277E+06     9.28064E+06     31.9554E+06    -579.621E+03    -52.8599E-03     104.517E-03    -51.6573E-03     59.1234E-03    -53.2262E-03     104.735E-03    -51.4746E-03     58.6222E-03
            1628     11.1143E-03     46.2599E-03    -25.9044E+06    -5.78858E+06     29.3866E+06     1.41730E+06    -51.9728E-03     103.617E-03    -51.6443E-03     60.1964E-03    -52.3068E-03     103.753E-03    -51.4514E-03     59.7472E-03
            1629     10.2566E-03     46.2027E-03    -30.0304E+06    -32.6887E+06     21.2383E+06    -473.438E+03    -52.3239E-03     103.971E-03    -51.6470E-03     60.5549E-03    -52.6157E-03     103.978E-03    -51.4499E-03     60.0942E-03
            1630     9.40492E-03     46.1386E-03    -41.0495E+06    -56.0702E+06     9.97812E+06    -838.482E+03    -52.7511E-03     104.354E-03    -51.6031E-03     58.3968E-03    -53.0255E-03     104.255E-03    -51.4124E-03     57.9564E-03
            1631     8.54979E-03     46.0842E-03    -46.0419E+06    -72.6978E+06     2.69122E+06     2.13093E+06    -52.0665E-03     103.632E-03    -51.5654E-03     56.9396E-03    -52.3043E-03     103.440E-03    -51.3798E-03     56.5893E-03
            1632     7.69335E-03     46.0272E-03    -45.8887E+06    -91.2326E+06    -3.94044E+06     418.266E+03    -51.4355E-03     103.027E-03    -51.5916E-03     54.5337E-03    -51.6118E-03     102.728E-03    -51.4125E-03     54.2111E-03
            1633     6.83935E-03     45.9753E-03    -49.4661E+06    -110.071E+06    -11.1019E+06    -356.171E+03    -51.3184E-03     102.986E-03    -51.6680E-03     49.9101E-03    -51.4528E-03     102.587E-03    -51.4921E-03     49.6221E-03
            1634     5.98356E-03     45.9266E-03    -55.1865E+06    -127.720E+06    -19.0105E+06     524.017E+03    -51.5748E-03     103.315E-03    -51.7405E-03     45.6418E-03    -51.6830E-03     102.829E-03    -51.5704E-03     45.4053E-03
            1635     5.12765E-03     45.8839E-03    -62.3228E+06    -143.807E+06    -28.5483E+06     292.035E+03    -51.9932E-03     103.752E-03    -51.7585E-03     41.2937E-03    -52.0846E-03     103.194E-03    -51.6024E-03     41.0889E-03
            1636     4.27429E-03     45.8454E-03    -66.9309E+06    -155.979E+06    -38.3690E+06    -98.1875E+03    -52.0973E-03     103.807E-03    -51.7096E-03     35.7662E-03    -52.1655E-03     103.196E-03    -51.5782E-03     35.5934E-03
            1637     3.41925E-03     45.8122E-03    -71.2776E+06    -167.829E+06    -49.4852E+06    -622.724E+03    -51.9644E-03     103.589E-03    -51.6244E-03     29.2221E-03    -52.0016E-03     102.922E-03    -51.5252E-03     29.0842E-03
            1638     2.56467E-03     45.7871E-03    -78.6909E+06    -177.494E+06    -60.3743E+06     478.851E+03    -51.7152E-03     103.260E-03    -51.5447E-03     22.6849E-03    -51.7418E-03     102.555E-03    -51.4751E-03     22.5999E-03
            1639     1.70982E-03     45.7673E-03    -84.3213E+06    -186.827E+06    -72.9681E+06     1.18480E+06    -51.6090E-03     103.056E-03    -51.4473E-03     15.1591E-03    -51.6303E-03     102.329E-03    -51.4190E-03     15.1166E-03
            1640     854.529E-06     45.7563E-03    -87.6069E+06    -194.540E+06    -84.5201E+06    -1.59597E+06    -51.1246E-03     102.785E-03    -51.6602E-03     8.11357E-03    -51.1134E-03     102.097E-03    -51.6736E-03     8.04591E-03
            1641     16.2405E-03     45.5120E-03    -5.07673E+06     89.8788E+06     69.9485E+06    -45.7956E+03    -51.2941E-03     103.105E-03    -51.8107E-03     30.3184E-03    -51.6487E-03     103.558E-03    -51.5839E-03     29.9219E-03
            1642     15.3845E-03     45.4805E-03    -6.60214E+06     91.2307E+06     62.9668E+06     1.20192E+06    -50.8386E-03     102.643E-03    -51.8045E-03     40.1955E-03    -51.2176E-03     103.140E-03    -51.6123E-03     39.7765E-03
            1643     14.5278E-03     45.4346E-03    -7.15670E+06     91.1939E+06     59.6594E+06    -2.15727E+06    -52.3266E-03     104.124E-03    -51.7971E-03     46.6702E-03    -52.7267E-03     104.649E-03    -51.6207E-03     46.1733E-03
            1644     13.6775E-03     45.3830E-03    -18.5275E+06     72.8478E+06     47.9120E+06    -2.60172E+06    -53.5460E-03     105.259E-03    -51.7133E-03     51.6345E-03    -53.9807E-03     105.748E-03    -51.5525E-03     51.1000E-03
            1645     12.8252E-03     45.3263E-03    -26.6235E+06     38.1684E+06     34.7850E+06     1.27417E+06    -52.8424E-03     104.469E-03    -51.6270E-03     57.3698E-03    -53.2581E-03     104.825E-03    -51.4698E-03     56.8994E-03
            1646     11.9666E-03     45.2679E-03    -27.7609E+06     8.35813E+06     30.9132E+06    -1.47126E+06    -51.6138E-03     103.252E-03    -51.6378E-03     58.9127E-03    -51.9857E-03     103.465E-03    -51.4551E-03     58.4211E-03
            1647     11.1105E-03     45.2102E-03    -31.7692E+06    -9.55333E+06     27.3524E+06    -1.28562E+06    -51.9672E-03     103.638E-03    -51.6710E-03     59.3664E-03    -52.3217E-03     103.767E-03    -51.4743E-03     58.8785E-03
            1648     10.2599E-03     45.1484E-03    -37.3049E+06    -28.0231E+06     19.4086E+06     2.50105E+06    -52.4670E-03     104.124E-03    -51.6575E-03     61.0607E-03    -52.7993E-03     104.169E-03    -51.4657E-03     60.6369E-03
            1649     9.40389E-03     45.0890E-03    -39.9356E+06    -56.1158E+06     7.80432E+06    -14.5348E+03    -52.4544E-03     104.072E-03    -51.6172E-03     59.5307E-03    -52.7163E-03     103.970E-03    -51.4389E-03     59.1145E-03
            1650     8.54844E-03     45.0334E-03    -40.5541E+06    -76.2467E+06     2.93493E+06    -1.96901E+06    -52.2404E-03     103.842E-03    -51.6018E-03     56.5982E-03    -52.4430E-03     103.622E-03    -51.4177E-03     56.1971E-03
            1651     7.69499E-03     44.9767E-03    -44.7216E+06    -88.4435E+06    -2.12731E+06     652.390E+03    -51.6670E-03     103.282E-03    -51.6152E-03     54.4431E-03    -51.8438E-03     102.992E-03    -51.4328E-03     54.1210E-03
            1652     6.83852E-03     44.9254E-03    -52.1817E+06    -110.597E+06    -12.3059E+06     661.086E+03    -51.3590E-03     103.033E-03    -51.6740E-03     50.9252E-03    -51.5049E-03     102.637E-03    -51.4995E-03     50.6493E-03
            1653     5.98304E-03     44.8769E-03    -57.0249E+06    -127.410E+06    -19.6678E+06     608.220E+03    -51.6711E-03     103.411E-03    -51.7400E-03     46.5896E-03    -51.7886E-03     102.931E-03    -51.5709E-03     46.3500E-03
            1654     5.12860E-03     44.8330E-03    -61.1981E+06    -142.060E+06    -28.3532E+06     258.988E+03    -51.9901E-03     103.740E-03    -51.7501E-03     41.1715E-03    -52.0777E-03     103.189E-03    -51.5972E-03     40.9671E-03
            1655     4.27341E-03     44.7936E-03    -67.0541E+06    -157.189E+06    -38.1762E+06    -721.289E+03    -51.9874E-03     103.706E-03    -51.7189E-03     35.7198E-03    -52.0533E-03     103.087E-03    -51.5846E-03     35.5411E-03
            1656     3.41926E-03     44.7622E-03    -73.2701E+06    -168.691E+06    -50.0766E+06    -42.5784E+03    -51.9280E-03     103.579E-03    -51.6510E-03     29.3428E-03    -51.9710E-03     102.910E-03    -51.5506E-03     29.2088E-03
            1657     2.56430E-03     44.7359E-03    -79.0999E+06    -178.059E+06    -62.2662E+06     373.440E+03    -51.9145E-03     103.451E-03    -51.5369E-03     22.4636E-03    -51.9343E-03     102.742E-03    -51.4753E-03     22.3721E-03
            1658     1.70990E-03     44.7172E-03    -83.1325E+06    -185.295E+06    -71.1236E+06     124.227E+03    -51.6948E-03     103.077E-03    -51.3825E-03     15.0609E-03    -51.7102E-03     102.348E-03    -51.3489E-03     15.0014E-03
            1659     856.007E-06     44.7055E-03    -88.4417E+06    -195.035E+06    -85.0104E+06     416.020E+03    -51.3279E-03     102.566E-03    -51.2385E-03     8.00229E-03    -51.3181E-03     101.875E-03    -51.2525E-03     7.97654E-03
            1660     16.2408E-03     44.4654E-03    -1.96551E+06     92.4014E+06     73.1704E+06    -497.422E+03    -51.2199E-03     103.055E-03    -51.8349E-03     29.7941E-03    -51.5666E-03     103.510E-03    -51.6002E-03     29.3894E-03
            1661     15.3842E-03     44.4275E-03    -9.53232E+06     89.3132E+06     61.9035E+06    -2.52428E+06    -52.0578E-03     103.848E-03    -51.7905E-03     40.7439E-03    -52.4528E-03     104.347E-03    -51.5966E-03     40.2552E-03
            1662     14.5341E-03     44.3813E-03    -13.0039E+06     86.5140E+06     55.7001E+06     1.36627E+06    -52.9974E-03     104.719E-03    -51.7217E-03     48.6483E-03    -53.4169E-03     105.238E-03    -51.5498E-03     48.1968E-03
            1663     13.6776E-03     44.3300E-03    -11.0794E+06     75.8090E+06     52.0113E+06     4.30196E+06    -52.8083E-03     104.459E-03    -51.6504E-03     53.2640E-03    -53.2149E-03     104.944E-03    -51.4842E-03     52.8371E-03
            1664     12.8216E-03     44.2750E-03    -19.1044E+06     42.7206E+06     41.3178E+06     538.517E+03    -52.1650E-03     103.784E-03    -51.6191E-03     56.7813E-03    -52.5584E-03     104.142E-03    -51.4467E-03     56.3045E-03
            1665     11.9691E-03     44.2186E-03    -28.8739E+06     11.9218E+06     32.5296E+06    -1.24216E+06    -51.9490E-03     103.577E-03    -51.6275E-03     58.2346E-03    -52.3322E-03     103.805E-03    -51.4403E-03     57.7417E-03
            1666     11.1158E-03     44.1576E-03    -35.6372E+06    -15.8436E+06     20.5089E+06    -1.76855E+06    -51.9362E-03     103.560E-03    -51.6236E-03     59.5494E-03    -52.2873E-03     103.669E-03    -51.4464E-03     59.0640E-03
            1667     10.2565E-03     44.0994E-03    -33.1110E+06    -31.6774E+06     19.3052E+06    -1.13606E+06    -51.9263E-03     103.578E-03    -51.6513E-03     60.3629E-03    -52.2264E-03     103.592E-03    -51.4609E-03     59.9057E-03
            1668     9.40178E-03     44.0369E-03    -33.7679E+06    -49.3525E+06     13.5183E+06    -220.845E+03    -51.9806E-03     103.648E-03    -51.6673E-03     58.5410E-03    -52.2263E-03     103.559E-03    -51.4792E-03     58.1271E-03
            1669     8.54938E-03     43.9814E-03    -42.7419E+06    -78.2065E+06     785.011E+03    -2.27596E+06    -52.1076E-03     103.777E-03    -51.6698E-03     56.5332E-03    -52.3146E-03     103.553E-03    -51.4905E-03     56.1287E-03
            1670     7.69302E-03     43.9273E-03    -46.9012E+06    -91.8091E+06    -3.07151E+06    -661.024E+03    -51.9147E-03     103.606E-03    -51.6912E-03     54.4176E-03    -52.0964E-03     103.304E-03    -51.5054E-03     54.0760E-03
            1671     6.83786E-03     43.8754E-03    -50.2252E+06    -108.299E+06    -10.7344E+06     1.00826E+06    -51.7558E-03     103.472E-03    -51.7157E-03     50.6973E-03    -51.8989E-03     103.083E-03    -51.5395E-03     50.4201E-03
            1672     5.98328E-03     43.8258E-03    -56.0445E+06    -127.138E+06    -19.7156E+06    -944.085E+03    -51.9715E-03     103.706E-03    -51.7343E-03     46.7758E-03    -52.0860E-03     103.227E-03    -51.5672E-03     46.5126E-03
            1673     5.12868E-03     43.7817E-03    -61.4658E+06    -141.208E+06    -26.4951E+06     301.586E+03    -52.0579E-03     103.783E-03    -51.7249E-03     41.2219E-03    -52.1511E-03     103.233E-03    -51.5635E-03     41.0181E-03
            1674     4.27396E-03     43.7439E-03    -67.2735E+06    -157.632E+06    -38.3707E+06     743.130E+03    -51.8330E-03     103.521E-03    -51.6876E-03     35.0920E-03    -51.8981E-03     102.899E-03    -51.5534E-03     34.9314E-03
            1675     3.41854E-03     43.7105E-03    -74.2423E+06    -169.448E+06    -50.6282E+06    -301.166E+03    -51.7511E-03     103.403E-03    -51.6517E-03     29.0002E-03    -51.7981E-03     102.733E-03    -51.5514E-03     28.8645E-03
            1676     2.56481E-03     43.6854E-03    -77.9872E+06    -177.381E+06    -61.8752E+06     86.1544E+03    -51.8049E-03     103.390E-03    -51.5846E-03     22.4974E-03    -51.8234E-03     102.683E-03    -51.5237E-03     22.4087E-03
            1677     1.71011E-03     43.6664E-03    -82.0244E+06    -186.403E+06    -73.7709E+06    -496.532E+03    -51.6651E-03     103.147E-03    -51.4819E-03     15.1197E-03    -51.6725E-03     102.418E-03    -51.4615E-03     15.0512E-03
            1678     853.920E-06     43.6566E-03    -87.8919E+06    -193.861E+06    -83.3429E+06    -454.699E+03    -51.7255E-03     102.877E-03    -51.1516E-03     8.01157E-03    -51.7114E-03     102.190E-03    -51.1598E-03     7.97108E-03
            1679     16.2378E-03     43.4079E-03    -3.01817E+06     91.9454E+06     71.9553E+06    -103.193E+03    -51.7486E-03     103.589E-03    -51.8401E-03     30.2641E-03    -52.0991E-03     104.046E-03    -51.6093E-03     29.8562E-03
            1680     15.3874E-03     43.3784E-03    -7.36625E+06     90.9833E+06     61.4951E+06     1.24171E+06    -52.7257E-03     104.485E-03    -51.7597E-03     41.0298E-03    -53.1125E-03     104.991E-03    -51.5735E-03     40.5835E-03
            1681     14.5285E-03     43.3265E-03    -15.2645E+06     83.0251E+06     52.5677E+06    -226.011E+03    -52.4282E-03     104.117E-03    -51.6889E-03     49.1495E-03    -52.8509E-03     104.628E-03    -51.5243E-03     48.6813E-03
            1682     13.6777E-03     43.2788E-03    -18.7510E+06     73.0600E+06     49.3532E+06     1.50319E+06    -52.1528E-03     103.815E-03    -51.6622E-03     52.6311E-03    -52.5877E-03     104.299E-03    -51.4942E-03     52.1746E-03
            1683     12.8239E-03     43.2236E-03    -15.2604E+06     45.3710E+06     42.6862E+06     2.91959E+06    -51.9860E-03     103.640E-03    -51.6538E-03     57.1374E-03    -52.3655E-03     104.002E-03    -51.4841E-03     56.6948E-03
            1684     11.9683E-03     43.1661E-03    -16.8365E+06     12.3149E+06     35.1044E+06     665.910E+03    -52.1315E-03     103.798E-03    -51.6669E-03     60.0846E-03    -52.4612E-03     104.010E-03    -51.4848E-03     59.6162E-03
            1685     11.1111E-03     43.1086E-03    -21.4745E+06    -9.20432E+06     29.0793E+06    -1.74835E+06    -52.6810E-03     104.337E-03    -51.6560E-03     61.1576E-03    -52.9865E-03     104.449E-03    -51.4661E-03     60.6621E-03
            1686     10.2603E-03     43.0469E-03    -29.2903E+06    -35.5177E+06     19.7916E+06    -2.82601E+06    -52.4800E-03     104.105E-03    -51.6255E-03     59.7831E-03    -52.7559E-03     104.094E-03    -51.4325E-03     59.2971E-03
            1687     9.40533E-03     42.9880E-03    -37.0482E+06    -52.8248E+06     12.4086E+06     153.195E+03    -51.5115E-03     103.149E-03    -51.6374E-03     57.8231E-03    -51.7652E-03     103.048E-03    -51.4451E-03     57.4229E-03
            1688     8.54605E-03     42.9310E-03    -40.3958E+06    -71.9540E+06     4.12977E+06     1.26908E+06    -51.4601E-03     103.150E-03    -51.6899E-03     55.6089E-03    -51.6688E-03     102.948E-03    -51.5063E-03     55.2568E-03
            1689     7.69276E-03     42.8756E-03    -45.9834E+06    -96.0438E+06    -5.33053E+06    -1.97868E+06    -51.9052E-03     103.640E-03    -51.7345E-03     53.4282E-03    -52.0745E-03     103.320E-03    -51.5552E-03     53.0627E-03
            1690     6.83895E-03     42.8247E-03    -50.4196E+06    -109.455E+06    -10.0298E+06    -389.467E+03    -52.2686E-03     104.012E-03    -51.7431E-03     51.1010E-03    -52.4147E-03     103.619E-03    -51.5614E-03     50.7982E-03
            1691     5.98349E-03     42.7755E-03    -55.0897E+06    -124.593E+06    -18.5676E+06     1.23118E+06    -52.3769E-03     104.072E-03    -51.6946E-03     46.5880E-03    -52.4912E-03     103.602E-03    -51.5269E-03     46.3535E-03
            1692     5.12851E-03     42.7305E-03    -62.3362E+06    -143.551E+06    -28.4957E+06    -117.419E+03    -52.0588E-03     103.698E-03    -51.6393E-03     40.4530E-03    -52.1479E-03     103.139E-03    -51.4832E-03     40.2444E-03
            1693     4.27441E-03     42.6927E-03    -67.4067E+06    -156.756E+06    -38.1135E+06     248.052E+03    -51.7300E-03     103.330E-03    -51.6000E-03     34.6549E-03    -51.7979E-03     102.713E-03    -51.4656E-03     34.4906E-03
            1694     3.41993E-03     42.6610E-03    -71.4251E+06    -168.168E+06    -50.5870E+06    -170.063E+03    -51.4462E-03     103.038E-03    -51.5914E-03     29.0605E-03    -51.4809E-03     102.370E-03    -51.4969E-03     28.9326E-03
            1695     2.56367E-03     42.6342E-03    -77.5300E+06    -177.782E+06    -61.5075E+06    -751.026E+03    -51.3915E-03     103.035E-03    -51.6437E-03     22.3996E-03    -51.4058E-03     102.324E-03    -51.5811E-03     22.2976E-03
            1696     1.70881E-03     42.6164E-03    -83.4924E+06    -186.425E+06    -72.8505E+06    -126.419E+03    -51.6679E-03     103.335E-03    -51.6673E-03     15.0287E-03    -51.6808E-03     102.604E-03    -51.6402E-03     14.9650E-03
            1697     855.872E-06     42.6050E-03    -87.3486E+06    -194.845E+06    -85.7320E+06     75.4254E+03    -51.8496E-03     103.314E-03    -51.4641E-03     7.63752E-03    -51.8287E-03     102.621E-03    -51.4836E-03     7.61090E-03
            1698     16.2413E-03     42.3583E-03    -4.43425E+06     91.2478E+06     69.1520E+06    -1.13109E+06    -52.0169E-03     103.807E-03    -51.7899E-03     30.8695E-03    -52.3716E-03     104.269E-03    -51.5700E-03     30.4420E-03
            1699     15.3842E-03     42.3221E-03    -8.36845E+06     90.3044E+06     61.2603E+06    -285.822E+03    -52.3847E-03     104.106E-03    -51.7209E-03     39.5216E-03    -52.7704E-03     104.605E-03    -51.5334E-03     39.0624E-03
            1700     14.5356E-03     42.2773E-03    -9.52310E+06     87.8582E+06     58.0660E+06     1.36056E+06    -51.8143E-03     103.500E-03    -51.6859E-03     48.3895E-03    -52.2168E-03     104.012E-03    -51.5092E-03     47.9568E-03
            1701     13.6764E-03     42.2261E-03    -10.4942E+06     67.1364E+06     50.1439E+06    -395.310E+03    -51.4496E-03     103.139E-03    -51.6899E-03     52.7243E-03    -51.8305E-03     103.576E-03    -51.5213E-03     52.2604E-03
            1702     12.8210E-03     42.1729E-03    -11.5764E+06     42.5639E+06     43.8057E+06     843.986E+03    -51.4763E-03     103.206E-03    -51.7299E-03     57.0206E-03    -51.8310E-03     103.544E-03    -51.5558E-03     56.5628E-03
            1703     11.9648E-03     42.1161E-03    -17.3612E+06     17.5002E+06     37.0572E+06     1.55218E+06    -52.2317E-03     103.993E-03    -51.7612E-03     60.2409E-03    -52.5759E-03     104.230E-03    -51.5761E-03     59.7774E-03
            1704     11.1137E-03     42.0545E-03    -23.6176E+06    -7.80981E+06     30.0567E+06     43.3517E+03    -53.2004E-03     104.935E-03    -51.7351E-03     61.3396E-03    -53.5224E-03     105.059E-03    -51.5392E-03     60.8589E-03
            1705     10.2580E-03     41.9947E-03    -29.7606E+06    -34.3432E+06     19.1682E+06    -1.29340E+06    -52.8661E-03     104.529E-03    -51.6626E-03     59.8679E-03    -53.1467E-03     104.526E-03    -51.4738E-03     59.3964E-03
            1706     9.40257E-03     41.9393E-03    -34.9635E+06    -56.3517E+06     11.9301E+06    -1.01475E+06    -52.1563E-03     103.793E-03    -51.6362E-03     58.3840E-03    -52.3971E-03     103.675E-03    -51.4441E-03     57.9548E-03
            1707     8.55069E-03     41.8797E-03    -41.3743E+06    -71.3770E+06     5.46327E+06     1.53835E+06    -51.6439E-03     103.301E-03    -51.6573E-03     55.9306E-03    -51.8606E-03     103.102E-03    -51.4665E-03     55.5772E-03
            1708     7.69324E-03     41.8269E-03    -46.5079E+06    -94.8030E+06    -5.98750E+06     71.7693E+03    -51.6553E-03     103.346E-03    -51.6906E-03     53.2457E-03    -51.8249E-03     103.031E-03    -51.5157E-03     52.9135E-03
            1709     6.83641E-03     41.7727E-03    -49.6791E+06    -112.856E+06    -10.8813E+06    -1.52614E+06    -52.5029E-03     104.200E-03    -51.6971E-03     50.8050E-03    -52.6372E-03     103.789E-03    -51.5158E-03     50.4876E-03
            1710     5.98427E-03     41.7233E-03    -55.2910E+06    -125.088E+06    -18.0648E+06     960.405E+03    -52.5805E-03     104.193E-03    -51.6124E-03     45.4103E-03    -52.6946E-03     103.719E-03    -51.4412E-03     45.1687E-03
            1711     5.13054E-03     41.6805E-03    -59.9167E+06    -141.406E+06    -27.7117E+06     1.25137E+06    -51.7292E-03     103.278E-03    -51.5485E-03     40.3615E-03    -51.8101E-03     102.724E-03    -51.3952E-03     40.1716E-03
            1712     4.27451E-03     41.6425E-03    -66.0784E+06    -157.067E+06    -38.6552E+06    -961.526E+03    -51.4673E-03     103.020E-03    -51.5523E-03     35.2179E-03    -51.5259E-03     102.399E-03    -51.4220E-03     35.0388E-03
            1713     3.41902E-03     41.6106E-03    -72.2685E+06    -167.920E+06    -49.9364E+06    -413.746E+03    -51.4722E-03     103.041E-03    -51.5693E-03     29.1222E-03    -51.5088E-03     102.371E-03    -51.4707E-03     28.9866E-03
            1714     2.56481E-03     41.5846E-03    -78.2753E+06    -178.526E+06    -62.7238E+06     161.520E+03    -51.3532E-03     102.961E-03    -51.6082E-03     22.4056E-03    -51.3672E-03     102.248E-03    -51.5495E-03     22.3171E-03
            1715     1.70949E-03     41.5654E-03    -84.3065E+06    -187.330E+06    -73.8476E+06    -132.834E+03    -51.5019E-03     103.180E-03    -51.6785E-03     15.0421E-03    -51.5184E-03     102.450E-03    -51.6539E-03     14.9866E-03
            1716     853.492E-06     41.5538E-03    -87.1788E+06    -193.033E+06    -82.5115E+06     2.01050E+06    -51.7826E-03     103.428E-03    -51.6459E-03     6.99848E-03    -51.7747E-03     102.743E-03    -51.6522E-03     6.99805E-03
            1717     16.2409E-03     41.3051E-03    -5.30785E+06     93.7990E+06     71.2721E+06     129.236E+03    -52.5014E-03     104.269E-03    -51.7675E-03     32.1006E-03    -52.8664E-03     104.741E-03    -51.5395E-03     31.6942E-03
            1718     15.3898E-03     41.2707E-03    -4.11138E+06     92.7193E+06     63.7793E+06    -1.13889E+06    -51.7097E-03     103.409E-03    -51.6988E-03     40.0553E-03    -52.0784E-03     103.907E-03    -51.5084E-03     39.6004E-03
            1719     14.5286E-03     41.2260E-03    -6.75481E+06     86.2612E+06     56.4726E+06    -909.595E+03    -51.1892E-03     102.879E-03    -51.6897E-03     48.7248E-03    -51.5707E-03     103.379E-03    -51.5226E-03     48.2730E-03
            1720     13.6771E-03     41.1753E-03    -14.0990E+06     62.9368E+06     46.8464E+06     122.503E+03    -51.2275E-03     102.954E-03    -51.7260E-03     52.9126E-03    -51.6145E-03     103.378E-03    -51.5626E-03     52.4557E-03
            1721     12.8209E-03     41.1232E-03    -21.1421E+06     38.5759E+06     40.1397E+06    -376.142E+03    -52.0283E-03     103.790E-03    -51.7613E-03     56.2022E-03    -52.4200E-03     104.127E-03    -51.5859E-03     55.7183E-03
            1722     11.9671E-03     41.0635E-03    -25.9873E+06     22.9634E+06     36.5381E+06     1.10032E+06    -52.7417E-03     104.493E-03    -51.7518E-03     58.8848E-03    -53.1355E-03     104.771E-03    -51.5647E-03     58.4091E-03
            1723     11.1103E-03     41.0024E-03    -26.6813E+06    -8.55691E+06     27.1158E+06     247.022E+03    -52.4164E-03     104.136E-03    -51.7194E-03     59.0912E-03    -52.7431E-03     104.259E-03    -51.5327E-03     58.6246E-03
            1724     10.2570E-03     40.9435E-03    -31.5611E+06    -33.3294E+06     19.7515E+06    -779.104E+03    -52.0402E-03     103.761E-03    -51.7210E-03     58.2235E-03    -52.3288E-03     103.762E-03    -51.5282E-03     57.7672E-03
            1725     9.40426E-03     40.8865E-03    -39.1593E+06    -55.7940E+06     9.69058E+06     2.80144E+03    -52.2870E-03     104.003E-03    -51.7163E-03     58.7525E-03    -52.5498E-03     103.901E-03    -51.5301E-03     58.3317E-03
            1726     8.54708E-03     40.8300E-03    -40.8537E+06    -75.0449E+06     4.29842E+06    -392.017E+03    -52.4580E-03     104.161E-03    -51.7031E-03     57.0086E-03    -52.6696E-03     103.949E-03    -51.5136E-03     56.6223E-03
            1727     7.69349E-03     40.7764E-03    -43.9077E+06    -90.6143E+06    -2.51597E+06     587.764E+03    -52.6956E-03     104.345E-03    -51.6499E-03     54.1463E-03    -52.8668E-03     104.046E-03    -51.4674E-03     53.8111E-03
            1728     6.84107E-03     40.7213E-03    -51.2790E+06    -115.085E+06    -13.6213E+06    -317.790E+03    -52.4812E-03     104.057E-03    -51.5762E-03     50.9437E-03    -52.6169E-03     103.642E-03    -51.4031E-03     50.6426E-03
            1729     5.98505E-03     40.6718E-03    -55.5090E+06    -127.932E+06    -19.4407E+06    -930.135E+03    -51.6589E-03     103.213E-03    -51.5541E-03     45.4842E-03    -51.7670E-03     102.726E-03    -51.3853E-03     45.2245E-03
            1730     5.12893E-03     40.6312E-03    -58.7904E+06    -139.118E+06    -26.1646E+06     830.303E+03    -51.5104E-03     103.090E-03    -51.5795E-03     41.0865E-03    -51.5925E-03     102.545E-03    -51.4233E-03     40.8899E-03
            1731     4.27411E-03     40.5920E-03    -64.7802E+06    -155.379E+06    -37.2036E+06     1.39881E+06    -51.6940E-03     103.281E-03    -51.5866E-03     35.6198E-03    -51.7525E-03     102.666E-03    -51.4534E-03     35.4713E-03
            1732     3.41979E-03     40.5603E-03    -73.0184E+06    -169.154E+06    -50.1453E+06     432.723E+03    -51.6696E-03     103.226E-03    -51.5562E-03     28.8458E-03    -51.7118E-03     102.555E-03    -51.4558E-03     28.7256E-03
            1733     2.56411E-03     40.5343E-03    -78.3547E+06    -178.528E+06    -62.6340E+06     703.438E+03    -51.5718E-03     103.085E-03    -51.5128E-03     22.3054E-03    -51.5895E-03     102.374E-03    -51.4535E-03     22.2274E-03
            1734     1.70950E-03     40.5152E-03    -82.6300E+06    -187.340E+06    -75.1983E+06    -160.586E+03    -51.4556E-03     102.945E-03    -51.4893E-03     15.0595E-03    -51.4616E-03     102.212E-03    -51.4738E-03     14.9925E-03
            1735     855.635E-06     40.5033E-03    -85.9451E+06    -192.029E+06    -81.8391E+06    -1.04190E+06    -51.5484E-03     103.017E-03    -51.4684E-03     7.27255E-03    -51.5312E-03     102.334E-03    -51.4745E-03     7.21602E-03
            1736     16.2416E-03     40.2507E-03    -4.03900E+06     94.6364E+06     70.4586E+06    -840.352E+03    -52.1303E-03     103.912E-03    -51.7816E-03     31.5125E-03    -52.4886E-03     104.388E-03    -51.5607E-03     31.0933E-03
            1737     15.3838E-03     40.2208E-03    -6.30259E+06     92.7670E+06     59.9081E+06    -274.735E+03    -51.4418E-03     103.164E-03    -51.7225E-03     40.1095E-03    -51.8178E-03     103.674E-03    -51.5484E-03     39.6637E-03
            1738     14.5342E-03     40.1742E-03    -13.2046E+06     82.6840E+06     51.5076E+06    -186.558E+03    -51.3232E-03     103.047E-03    -51.7243E-03     48.5172E-03    -51.7286E-03     103.550E-03    -51.5675E-03     48.0654E-03
            1739     13.6745E-03     40.1263E-03    -22.2445E+06     64.3646E+06     43.6569E+06    -149.462E+03    -52.0679E-03     103.802E-03    -51.7337E-03     52.6773E-03    -52.4982E-03     104.255E-03    -51.5765E-03     52.1969E-03
            1740     12.8211E-03     40.0693E-03    -25.8182E+06     39.9244E+06     36.5718E+06    -1.54122E+06    -53.0774E-03     104.774E-03    -51.6970E-03     55.8169E-03    -53.4915E-03     105.132E-03    -51.5346E-03     55.3038E-03
            1741     11.9679E-03     40.0116E-03    -25.3838E+06     20.4674E+06     36.2137E+06    -1.63596E+06    -52.6403E-03     104.304E-03    -51.6634E-03     58.0095E-03    -53.0247E-03     104.566E-03    -51.4752E-03     57.5023E-03
            1742     11.1157E-03     39.9514E-03    -31.9125E+06    -6.18817E+06     25.9806E+06     1.59075E+06    -51.4004E-03     103.064E-03    -51.6635E-03     58.7251E-03    -51.7515E-03     103.204E-03    -51.4784E-03     58.2879E-03
            1743     10.2583E-03     39.8942E-03    -37.8945E+06    -34.4155E+06     14.9208E+06     2.52016E+06    -51.0669E-03     102.797E-03    -51.7305E-03     58.9777E-03    -51.3740E-03     102.805E-03    -51.5511E-03     58.5834E-03
            1744     9.39971E-03     39.8356E-03    -36.4113E+06    -55.4773E+06     9.94171E+06     168.089E+03    -52.1434E-03     103.932E-03    -51.7886E-03     58.9113E-03    -52.3904E-03     103.824E-03    -51.6056E-03     58.5007E-03
            1745     8.54759E-03     39.7781E-03    -38.0355E+06    -73.3943E+06     6.47674E+06    -575.414E+03    -53.1519E-03     104.913E-03    -51.7606E-03     55.8041E-03    -53.3531E-03     104.699E-03    -51.5666E-03     55.4072E-03
            1746     7.69388E-03     39.7234E-03    -46.9236E+06    -90.9780E+06    -3.53083E+06     1.58211E+06    -53.0393E-03     104.689E-03    -51.6496E-03     54.0881E-03    -53.2224E-03     104.393E-03    -51.4673E-03     53.7621E-03
            1747     6.83914E-03     39.6700E-03    -51.3831E+06    -114.014E+06    -15.2517E+06     1.12447E+06    -52.0406E-03     103.617E-03    -51.5760E-03     51.4111E-03    -52.1757E-03     103.209E-03    -51.4124E-03     51.1300E-03
            1748     5.98391E-03     39.6239E-03    -53.0400E+06    -129.187E+06    -19.9378E+06    -2.25374E+06    -51.4488E-03     103.059E-03    -51.6100E-03     46.3073E-03    -51.5430E-03     102.564E-03    -51.4454E-03     46.0281E-03
            1749     5.12864E-03     39.5797E-03    -60.3190E+06    -140.577E+06    -26.3797E+06    -841.802E+03    -51.8718E-03     103.511E-03    -51.6388E-03     41.0947E-03    -51.9600E-03     102.962E-03    -51.4795E-03     40.8733E-03
            1750     4.27440E-03     39.5416E-03    -67.2673E+06    -154.757E+06    -36.6522E+06     2.05723E+06    -51.9638E-03     103.557E-03    -51.5928E-03     34.8867E-03    -52.0339E-03     102.945E-03    -51.4542E-03     34.7472E-03
            1751     3.41916E-03     39.5096E-03    -72.5377E+06    -167.696E+06    -48.9088E+06     1.08037E+06    -51.7042E-03     103.226E-03    -51.5219E-03     28.6617E-03    -51.7428E-03     102.555E-03    -51.4181E-03     28.5475E-03
            1752     2.56538E-03     39.4840E-03    -78.6255E+06    -178.086E+06    -61.2891E+06    -480.879E+03    -51.5868E-03     103.048E-03    -51.4609E-03     22.4537E-03    -51.6022E-03     102.332E-03    -51.3951E-03     22.3552E-03
            1753     1.71034E-03     39.4649E-03    -82.5488E+06    -185.715E+06    -72.4978E+06    -167.764E+03    -51.4444E-03     102.856E-03    -51.4114E-03     15.4734E-03    -51.4521E-03     102.123E-03    -51.3850E-03     15.4192E-03
            1754     854.356E-06     39.4534E-03    -87.3833E+06    -195.071E+06    -86.3356E+06    -700.977E+03    -51.3664E-03     102.795E-03    -51.4289E-03     8.30657E-03    -51.3418E-03     102.104E-03    -51.4511E-03     8.28607E-03
            1755     16.2396E-03     39.2015E-03    -3.80757E+06     93.3495E+06     69.6103E+06    -698.517E+03    -51.3596E-03     103.179E-03    -51.8194E-03     30.7776E-03    -51.7119E-03     103.647E-03    -51.6012E-03     30.3680E-03
            1756     15.3872E-03     39.1675E-03    -10.7794E+06     89.3564E+06     59.3827E+06    -191.494E+03    -51.6028E-03     103.392E-03    -51.7896E-03     39.9427E-03    -51.9964E-03     103.893E-03    -51.6066E-03     39.4935E-03
            1757     14.5272E-03     39.1244E-03    -14.5652E+06     83.3826E+06      54.617E+06     2.68571E+06    -52.5360E-03     104.296E-03    -51.7596E-03     47.8667E-03    -52.9543E-03     104.800E-03    -51.5863E-03     47.4387E-03
            1758     13.6771E-03     39.0728E-03    -17.0793E+06     69.8497E+06     48.2746E+06     1.86408E+06    -53.0933E-03     104.784E-03    -51.6904E-03     52.1176E-03    -53.5125E-03     105.250E-03    -51.5256E-03     51.6546E-03
            1759     12.8241E-03     39.0164E-03    -20.4054E+06     45.3087E+06     41.5429E+06    -1.77414E+06    -52.6542E-03     104.288E-03    -51.6335E-03     55.6942E-03    -53.0526E-03     104.654E-03    -51.4619E-03     55.1852E-03
            1760     11.9696E-03     38.9602E-03    -28.1572E+06     10.9032E+06     30.5211E+06    -2.35723E+06    -51.6050E-03     103.234E-03    -51.6292E-03     58.4244E-03    -51.9772E-03     103.457E-03    -51.4516E-03     57.9224E-03
            1761     11.1110E-03     38.9018E-03    -30.3882E+06    -12.1032E+06     24.0669E+06    -136.608E+03    -51.0474E-03     102.738E-03    -51.6903E-03     59.5601E-03    -51.3799E-03     102.850E-03    -51.5083E-03     59.1060E-03
            1762     10.2555E-03     38.8452E-03    -28.6372E+06    -27.8069E+06     21.9771E+06     1.24712E+06    -51.8154E-03     103.576E-03    -51.7605E-03     59.4369E-03    -52.0963E-03     103.593E-03    -51.5688E-03     59.0192E-03
            1763     9.40318E-03     38.7838E-03    -35.9140E+06    -54.3008E+06     11.4498E+06    -639.462E+03    -52.7111E-03     104.465E-03    -51.7542E-03     58.2175E-03    -52.9576E-03     104.358E-03    -51.5661E-03     57.7908E-03
            1764     8.54792E-03     38.7250E-03    -44.2050E+06    -76.9848E+06     1.46760E+06    -297.350E+03    -52.7069E-03     104.406E-03    -51.6994E-03     55.1457E-03    -52.9266E-03     104.192E-03    -51.5163E-03     54.7539E-03
            1765     7.69383E-03     38.6726E-03    -45.7909E+06    -91.5612E+06    -3.46247E+06     1.24260E+06    -52.3739E-03     104.026E-03    -51.6526E-03     53.1809E-03    -52.5498E-03     103.725E-03    -51.4707E-03     52.8567E-03
            1766     6.83852E-03     38.6197E-03    -45.8829E+06    -106.791E+06    -8.30578E+06     84.6198E+03    -51.9460E-03     103.584E-03    -51.6375E-03     49.4060E-03    -52.0719E-03     103.192E-03    -51.4576E-03     49.1132E-03
            1767     5.98326E-03     38.5737E-03    -53.7544E+06    -129.308E+06    -20.1882E+06    -747.343E+03    -51.9259E-03     103.552E-03    -51.6260E-03     45.2589E-03    -52.0223E-03     103.057E-03    -51.4615E-03     44.9988E-03
            1768     5.12933E-03     38.5281E-03    -62.0538E+06    -145.326E+06    -29.0077E+06    -819.364E+03    -51.9806E-03     103.585E-03    -51.6042E-03     40.8301E-03    -52.0666E-03     103.019E-03    -51.4485E-03     40.6067E-03
            1769     4.27457E-03     38.4914E-03    -65.9854E+06    -154.116E+06    -35.1594E+06     6.51476E+03    -51.7101E-03     103.288E-03    -51.5781E-03     34.8372E-03    -51.7774E-03     102.677E-03    -51.4348E-03     34.6662E-03
            1770     3.42018E-03     38.4589E-03    -71.7353E+06    -165.961E+06    -46.5505E+06     743.296E+03    -51.6010E-03     103.151E-03    -51.5499E-03     29.1308E-03    -51.6432E-03     102.486E-03    -51.4380E-03     29.0141E-03
            1771     2.56412E-03     38.4342E-03    -77.8612E+06    -177.330E+06    -60.7853E+06    -399.772E+03    -51.6071E-03     103.108E-03    -51.5004E-03     22.6110E-03    -51.6236E-03     102.397E-03    -51.4343E-03     22.5138E-03
            1772     1.70927E-03     38.4143E-03    -84.4808E+06    -187.141E+06    -73.3025E+06    -78.4332E+03    -51.5474E-03     102.978E-03    -51.4306E-03     15.2475E-03    -51.5656E-03     102.247E-03    -51.4033E-03     15.1893E-03
            1773     855.260E-06     38.4039E-03    -89.4049E+06    -194.971E+06    -83.9817E+06     1.61829E+06    -51.5165E-03     102.777E-03    -51.2607E-03     7.89914E-03    -51.5113E-03     102.086E-03    -51.2683E-03     7.90417E-03
            1774     16.2397E-03     38.1490E-03    -2.74915E+06     94.8251E+06     71.3191E+06     104.752E+03    -51.6684E-03     103.522E-03    -51.8540E-03     30.5687E-03    -52.0209E-03     103.995E-03    -51.6309E-03     30.1645E-03
            1775     15.3819E-03     38.1172E-03    -10.4570E+06     87.2903E+06     60.5022E+06    -403.008E+03    -52.7089E-03     104.497E-03    -51.7880E-03     38.4351E-03    -53.0997E-03     104.985E-03    -51.5969E-03     37.9663E-03
            1776     14.5336E-03     38.0699E-03    -13.3403E+06     81.3427E+06     56.4881E+06     904.265E+03    -52.9914E-03     104.704E-03    -51.7125E-03     46.3916E-03    -53.4015E-03     105.192E-03    -51.5287E-03     45.9362E-03
            1777     13.6785E-03     38.0195E-03    -12.9240E+06     74.4866E+06     52.6866E+06     1.08702E+06    -52.3677E-03     104.016E-03    -51.6478E-03     52.3949E-03    -52.7772E-03     104.491E-03    -51.4737E-03     51.9345E-03
            1778     12.8230E-03     37.9659E-03    -16.9396E+06     44.5734E+06     42.6478E+06     916.750E+03    -51.7089E-03     103.347E-03    -51.6379E-03     56.5574E-03    -52.0889E-03     103.701E-03    -51.4648E-03     56.0989E-03
            1779     11.9663E-03     37.9096E-03    -19.3684E+06     10.1047E+06     33.1941E+06    -1.50683E+06    -51.3950E-03     103.072E-03    -51.6768E-03     57.6574E-03    -51.7251E-03     103.273E-03    -51.4974E-03     57.1686E-03
            1780     11.1128E-03     37.8533E-03    -24.2326E+06    -13.0316E+06     27.8732E+06    -2.99398E+06    -51.8211E-03     103.550E-03    -51.7284E-03     58.6644E-03    -52.1292E-03     103.645E-03    -51.5350E-03     58.1608E-03
            1781     10.2580E-03     37.7921E-03    -33.0984E+06    -29.0878E+06     20.5287E+06     1.10123E+06    -52.8169E-03     104.532E-03    -51.7150E-03     59.5089E-03    -53.1220E-03     104.557E-03    -51.5222E-03     59.0720E-03
            1782     9.40338E-03     37.7318E-03    -36.8993E+06    -54.0371E+06     9.45028E+06     1.01165E+06    -52.7662E-03     104.413E-03    -51.6467E-03     57.9675E-03    -53.0154E-03     104.312E-03    -51.4676E-03     57.5629E-03
            1783     8.54904E-03     37.6755E-03    -40.2365E+06    -76.8450E+06     3.23181E+06    -1.48136E+06    -52.1444E-03     103.766E-03    -51.6213E-03     55.1107E-03    -52.3446E-03     103.541E-03    -51.4354E-03     54.7118E-03
            1784     7.69336E-03     37.6206E-03    -44.0471E+06    -89.2139E+06    -690.538E+03    -354.957E+03    -52.0689E-03     103.687E-03    -51.6180E-03     52.4795E-03    -52.2426E-03     103.390E-03    -51.4283E-03     52.1354E-03
            1785     6.83958E-03     37.5695E-03    -50.8575E+06    -106.332E+06    -9.09464E+06     1.15728E+06    -52.2224E-03     103.811E-03    -51.5884E-03     49.0141E-03    -52.3722E-03     103.429E-03    -51.4060E-03     48.7354E-03
            1786     5.98520E-03     37.5225E-03    -57.9695E+06    -127.213E+06    -20.7364E+06     1.65323E+06    -52.1167E-03     103.646E-03    -51.5293E-03     44.8979E-03    -52.2353E-03     103.167E-03    -51.3644E-03     44.6705E-03
            1787     5.12959E-03     37.4782E-03    -62.7082E+06    -146.570E+06    -29.7693E+06    -142.081E+03    -51.4709E-03     102.989E-03    -51.5179E-03     40.2168E-03    -51.5538E-03     102.415E-03    -51.3632E-03     40.0093E-03
            1788     4.27421E-03     37.4408E-03    -67.2716E+06    -156.141E+06    -36.9430E+06    -685.552E+03    -51.2303E-03     102.801E-03    -51.5709E-03     34.8724E-03    -51.2964E-03     102.182E-03    -51.4317E-03     34.6985E-03
            1789     3.41839E-03     37.4091E-03    -71.6281E+06    -165.638E+06    -47.0163E+06    -16.1632E+03    -51.6514E-03     103.243E-03    -51.5915E-03     29.1612E-03    -51.6893E-03     102.576E-03    -51.4826E-03     29.0322E-03
            1790     2.56490E-03     37.3828E-03    -78.0525E+06    -177.258E+06    -60.4376E+06     284.478E+03    -51.8385E-03     103.348E-03    -51.5092E-03     22.0168E-03    -51.8498E-03     102.630E-03    -51.4411E-03     21.9278E-03
            1791     1.71032E-03     37.3648E-03    -85.1459E+06    -187.775E+06    -73.9959E+06    -48.1008E+03    -51.6420E-03     102.999E-03    -51.3570E-03     14.8091E-03    -51.6534E-03     102.259E-03    -51.3313E-03     14.7521E-03
            1792     855.043E-06     37.3524E-03    -87.7977E+06    -194.073E+06    -83.8375E+06     118.828E+03    -51.5073E-03     102.563E-03    -51.0556E-03     7.77945E-03    -51.4877E-03     101.867E-03    -51.0661E-03     7.75667E-03
            1793     16.2382E-03     37.0974E-03    -4.10577E+06     94.8540E+06     71.2547E+06     1.03681E+06    -52.4205E-03     104.257E-03    -51.8363E-03     30.8020E-03    -52.7800E-03     104.732E-03    -51.6117E-03     30.4051E-03
            1794     15.3896E-03     37.0615E-03    -8.91485E+06     88.3751E+06     60.3590E+06     281.332E+03    -53.2718E-03     104.999E-03    -51.7271E-03     38.7895E-03    -53.6541E-03     105.488E-03    -51.5406E-03     38.3317E-03
            1795     14.5323E-03     37.0184E-03    -12.0681E+06     81.3476E+06     54.7347E+06    -2.42262E+06    -52.2739E-03     103.923E-03    -51.6491E-03     46.9387E-03    -52.6728E-03     104.409E-03    -51.4759E-03     46.4524E-03
            1796     13.6770E-03     36.9689E-03    -9.88657E+06     72.6120E+06     51.2409E+06    -1.04401E+06    -51.2905E-03     102.931E-03    -51.6408E-03     52.3782E-03    -51.6780E-03     103.393E-03    -51.4755E-03     51.9009E-03
            1797     12.8216E-03     36.9150E-03    -15.3087E+06     43.3010E+06     42.5241E+06     954.252E+03    -51.4389E-03     103.122E-03    -51.6833E-03     55.9433E-03    -51.8081E-03     103.467E-03    -51.5112E-03     55.4867E-03
            1798     11.9682E-03     36.8587E-03    -23.4383E+06     19.2880E+06     37.0150E+06     2.00508E+06    -52.0997E-03     103.819E-03    -51.7195E-03     57.3468E-03    -52.4694E-03     104.067E-03    -51.5284E-03     56.8959E-03
            1799     11.1117E-03     36.8020E-03    -30.6967E+06    -12.5422E+06     23.5596E+06     603.648E+03    -52.8517E-03     104.531E-03    -51.6794E-03     59.0380E-03    -53.1847E-03     104.642E-03    -51.4989E-03     58.5746E-03
            1800     10.2582E-03     36.7397E-03    -34.3802E+06    -38.3260E+06     15.3429E+06    -1.31415E+06    -52.7629E-03     104.390E-03    -51.6267E-03     59.7274E-03    -53.0525E-03     104.377E-03    -51.4446E-03     59.2589E-03
            1801     9.40431E-03     36.6810E-03    -34.3111E+06    -51.6384E+06     11.8885E+06     1.21710E+06    -52.2845E-03     103.878E-03    -51.5932E-03     57.7850E-03    -52.5270E-03     103.781E-03    -51.4091E-03     57.3858E-03
            1802     8.54926E-03     36.6243E-03    -39.9492E+06    -76.7081E+06     3.74317E+06    -267.627E+03    -52.2211E-03     103.800E-03    -51.5787E-03     55.5649E-03    -52.4195E-03     103.573E-03    -51.3908E-03     55.1854E-03
            1803     7.69519E-03     36.5705E-03    -43.8424E+06    -90.9745E+06    -1.09254E+06    -1.57196E+06    -52.0996E-03     103.664E-03    -51.5644E-03     52.7231E-03    -52.2692E-03     103.358E-03    -51.3744E-03     52.3640E-03
            1804     6.83891E-03     36.5187E-03    -51.0267E+06    -107.366E+06    -9.39149E+06     1.37068E+06    -52.1484E-03     103.681E-03    -51.5327E-03     49.5101E-03    -52.2977E-03     103.295E-03    -51.3500E-03     49.2327E-03
            1805     5.98495E-03     36.4706E-03    -57.9150E+06    -126.142E+06    -18.8986E+06     2.00428E+06    -52.0510E-03     103.535E-03    -51.4837E-03     45.0345E-03    -52.1743E-03     103.059E-03    -51.3113E-03     44.8093E-03
            1806     5.13073E-03     36.4295E-03    -60.5517E+06    -142.911E+06    -27.9414E+06     915.242E+03    -51.4819E-03     102.942E-03    -51.4604E-03     40.0709E-03    -51.5624E-03     102.382E-03    -51.3051E-03     39.8786E-03
            1807     4.27434E-03     36.3913E-03    -66.7441E+06    -157.880E+06    -39.4807E+06    -1.29927E+06    -51.4074E-03     102.878E-03    -51.4701E-03     34.8363E-03    -51.4653E-03     102.253E-03    -51.3418E-03     34.6535E-03
            1808     3.42001E-03     36.3582E-03    -72.8912E+06    -167.345E+06     -48.713E+06    -757.554E+03    -51.6266E-03     103.083E-03    -51.4562E-03     28.3749E-03    -51.6687E-03     102.415E-03    -51.3514E-03     28.2342E-03
            1809     2.56450E-03     36.3321E-03    -77.9300E+06    -177.390E+06    -60.8011E+06     497.189E+03    -51.5345E-03     102.924E-03    -51.3894E-03     21.4265E-03    -51.5521E-03     102.214E-03    -51.3232E-03     21.3492E-03
            1810     1.70992E-03     36.3144E-03    -82.5032E+06    -186.071E+06    -73.1767E+06     109.764E+03    -51.4091E-03     102.723E-03    -51.3138E-03     14.7685E-03    -51.4189E-03     101.994E-03    -51.2903E-03     14.7223E-03
            1811     855.099E-06     36.3034E-03    -88.8321E+06    -195.242E+06    -85.2272E+06    -210.182E+03    -51.2679E-03     102.574E-03    -51.3058E-03     7.76615E-03    -51.2486E-03     101.886E-03    -51.3200E-03     7.72575E-03
            1812     16.2416E-03     36.0434E-03    -4.70449E+06     93.6336E+06     71.3337E+06     607.562E+03    -52.4699E-03     104.259E-03    -51.7888E-03     31.4454E-03    -52.8323E-03     104.730E-03    -51.5611E-03     31.0459E-03
            1813     15.3839E-03     36.0083E-03    -7.58091E+06     92.1808E+06     62.2438E+06    -1.16944E+06    -52.0978E-03     103.806E-03    -51.7083E-03     39.0602E-03    -52.4798E-03     104.308E-03    -51.5198E-03     38.5965E-03
            1814     14.5328E-03     35.9668E-03    -12.2503E+06     84.4756E+06     54.2467E+06    -2.12024E+06    -51.8954E-03     103.560E-03    -51.6651E-03     46.4424E-03    -52.2979E-03     104.062E-03    -51.4986E-03     45.9611E-03
            1815     13.6779E-03     35.9186E-03    -23.1598E+06     67.0333E+06     43.2801E+06    -543.710E+03    -51.6271E-03     103.278E-03    -51.6506E-03     51.8660E-03    -52.0603E-03     103.741E-03    -51.4978E-03     51.3950E-03
            1816     12.8223E-03     35.8644E-03    -25.5265E+06     42.6778E+06     38.2119E+06     893.215E+03    -51.6848E-03     103.363E-03    -51.6779E-03     55.4360E-03    -52.0955E-03     103.723E-03    -51.5117E-03     54.9824E-03
            1817     11.9653E-03     35.8074E-03    -26.2846E+06     17.7525E+06     34.7889E+06     1.25569E+06    -52.4658E-03     104.156E-03    -51.6907E-03     57.2078E-03    -52.8435E-03     104.403E-03    -51.5044E-03     56.7454E-03
            1818     11.1141E-03     35.7485E-03    -28.3432E+06    -10.2515E+06     24.7879E+06     956.076E+03    -53.0982E-03     104.727E-03    -51.6288E-03     58.7552E-03    -53.4246E-03     104.844E-03    -51.4489E-03     58.2931E-03
            1819     10.2600E-03     35.6891E-03    -30.6556E+06    -36.8219E+06     18.8688E+06    -1.38212E+06    -52.6173E-03     104.196E-03    -51.5783E-03     58.9335E-03    -52.8928E-03     104.177E-03    -51.3861E-03     58.4695E-03
            1820     9.40374E-03     35.6304E-03    -38.7809E+06    -54.2932E+06     10.7542E+06    -111.923E+03    -51.8091E-03     103.370E-03    -51.5611E-03     57.3904E-03    -52.0677E-03     103.267E-03    -51.3724E-03     56.9811E-03
            1821     8.54903E-03     35.5734E-03    -41.9518E+06    -74.1548E+06     3.23392E+06     645.297E+03    -51.8832E-03     103.457E-03    -51.5742E-03     56.0965E-03    -52.0944E-03     103.247E-03    -51.3897E-03     55.7352E-03
            1822     7.69390E-03     35.5193E-03    -48.0833E+06    -94.5074E+06     -4.6604E+06    -861.146E+03    -52.5036E-03     104.055E-03    -51.5515E-03     53.3334E-03    -52.6842E-03     103.743E-03    -51.3680E-03     52.9813E-03
            1823     6.84065E-03     35.4685E-03    -51.2570E+06    -107.829E+06    -9.78113E+06     586.968E+03    -52.2282E-03     103.723E-03    -51.4952E-03     49.1689E-03    -52.3775E-03     103.336E-03    -51.3134E-03     48.8811E-03
            1824     5.98482E-03     35.4200E-03    -53.6735E+06    -125.819E+06    -16.8921E+06     699.699E+03    -51.6567E-03     103.127E-03    -51.4700E-03     44.5243E-03    -51.7612E-03     102.643E-03    -51.2942E-03     44.2875E-03
            1825     5.12921E-03     35.3793E-03    -59.9825E+06    -142.283E+06    -26.7863E+06     505.666E+03    -51.9342E-03     103.368E-03    -51.4341E-03     39.8632E-03    -52.0146E-03     102.809E-03    -51.2747E-03     39.6613E-03
            1826     4.27583E-03     35.3407E-03    -65.9915E+06    -155.638E+06    -37.6993E+06     310.403E+03    -52.0003E-03     103.330E-03    -51.3300E-03     34.8967E-03    -52.0592E-03     102.712E-03    -51.1971E-03     34.7337E-03
            1827     3.42073E-03     35.3081E-03    -73.1210E+06    -168.544E+06    -49.1866E+06    -211.963E+03    -51.4639E-03     102.694E-03    -51.2302E-03     28.3791E-03    -51.5025E-03     102.019E-03    -51.1257E-03     28.2536E-03
            1828     2.56587E-03     35.2828E-03    -78.7710E+06    -177.122E+06    -60.1788E+06    -149.773E+03    -51.0910E-03     102.293E-03    -51.2016E-03     21.2665E-03    -51.1106E-03     101.581E-03    -51.1315E-03     21.1788E-03
            1829     1.70984E-03     35.2645E-03    -84.1190E+06    -185.947E+06    -72.0293E+06     651.790E+03    -51.0159E-03     102.265E-03    -51.2493E-03     14.4186E-03    -51.0314E-03     101.532E-03    -51.2179E-03     14.3662E-03
            1830     854.950E-06     35.2529E-03    -90.4727E+06    -196.051E+06    -85.1711E+06     156.341E+03    -51.2451E-03     102.581E-03    -51.3360E-03     7.95630E-03    -51.2332E-03     101.894E-03    -51.3464E-03     7.91649E-03
            1831     16.2416E-03     34.9917E-03    -2.67797E+06     94.8685E+06     74.5423E+06    -402.103E+03    -51.9298E-03     103.720E-03    -51.7904E-03     31.5312E-03    -52.2870E-03     104.189E-03    -51.5514E-03     31.1255E-03
            1832     15.3889E-03     34.9581E-03    -7.45604E+06     91.1413E+06     62.0959E+06     644.631E+03    -51.3907E-03     103.125E-03    -51.7342E-03     39.9233E-03    -51.7713E-03     103.623E-03    -51.5451E-03     39.4919E-03
            1833     14.5304E-03     34.9142E-03    -13.7523E+06     82.8621E+06     52.1407E+06     2.23601E+06    -52.1724E-03     103.871E-03    -51.6983E-03     46.4457E-03    -52.5788E-03     104.371E-03    -51.5378E-03     46.0176E-03
            1834     13.6763E-03     34.8672E-03    -17.4383E+06     71.1758E+06     48.2580E+06    -212.995E+03    -52.4427E-03     104.110E-03    -51.6675E-03     50.6797E-03    -52.8595E-03     104.578E-03    -51.5042E-03     50.2041E-03
            1835     12.8223E-03     34.8131E-03    -24.5365E+06     40.5685E+06     36.1811E+06    -1.51737E+06    -52.3691E-03     103.995E-03    -51.6258E-03     55.0951E-03    -52.7674E-03     104.345E-03    -51.4682E-03     54.6046E-03
            1836     11.9701E-03     34.7560E-03    -26.1367E+06     12.8296E+06     32.2489E+06    -641.067E+03    -52.5035E-03     104.118E-03    -51.6140E-03     57.4433E-03    -52.8683E-03     104.342E-03    -51.4335E-03     56.9599E-03
            1837     11.1131E-03     34.6961E-03    -26.1068E+06    -5.82456E+06     30.0816E+06     1.24350E+06    -52.4858E-03     104.079E-03    -51.5930E-03     58.7615E-03    -52.8138E-03     104.206E-03    -51.3963E-03     58.3112E-03
            1838     10.2588E-03     34.6378E-03    -33.5442E+06    -33.1885E+06     19.0178E+06     1.29701E+06    -52.2822E-03     103.841E-03    -51.5591E-03     58.7171E-03    -52.5743E-03     103.841E-03    -51.3672E-03     58.2956E-03
            1839     9.40571E-03     34.5798E-03    -38.8781E+06    -56.0329E+06     10.2728E+06    -1.97175E+06    -52.0307E-03     103.575E-03    -51.5441E-03     57.5058E-03    -52.2861E-03     103.463E-03    -51.3551E-03     57.0681E-03
            1840     8.54882E-03     34.5248E-03    -43.8748E+06    -71.2211E+06     3.97720E+06     421.204E+03    -52.1769E-03     103.707E-03    -51.5301E-03     55.5756E-03    -52.4028E-03     103.513E-03    -51.3433E-03     55.2067E-03
            1841     7.69407E-03     34.4666E-03    -49.2835E+06    -93.9257E+06    -5.85121E+06     321.342E+03    -52.3425E-03     103.827E-03    -51.4848E-03     52.0456E-03    -52.5244E-03     103.518E-03    -51.3064E-03     51.7168E-03
            1842     6.84009E-03     34.4171E-03    -52.6236E+06    -114.062E+06    -13.1688E+06    -1.58091E+06    -51.9731E-03     103.416E-03    -51.4427E-03     48.0071E-03    -52.1116E-03     103.001E-03    -51.2669E-03     47.6957E-03
            1843     5.98535E-03     34.3715E-03    -55.8338E+06    -126.665E+06     -18.051E+06    -454.805E+03    -51.8661E-03     103.281E-03    -51.4145E-03     44.6072E-03    -51.9763E-03     102.795E-03    -51.2402E-03     44.3556E-03
            1844     5.13063E-03     34.3278E-03    -61.1593E+06    -140.482E+06    -25.9483E+06    -440.372E+03    -52.2454E-03     103.573E-03    -51.3280E-03     39.5301E-03    -52.3340E-03     103.022E-03    -51.1654E-03     39.3198E-03
            1845     4.27587E-03     34.2899E-03    -67.4713E+06    -155.266E+06    -37.6651E+06     301.971E+03    -51.8866E-03     103.066E-03    -51.1795E-03     33.7000E-03    -51.9520E-03     102.451E-03    -51.0448E-03     33.5415E-03
            1846     3.42123E-03     34.2589E-03    -72.0399E+06    -167.780E+06    -48.7396E+06     31.7129E+03    -51.2377E-03     102.318E-03    -51.0803E-03     28.2219E-03    -51.2716E-03     101.643E-03    -50.9763E-03     28.0971E-03
            1847     2.56554E-03     34.2331E-03    -78.5806E+06    -177.395E+06    -60.6124E+06     70.4937E+03    -51.1061E-03     102.136E-03    -51.0302E-03     21.4868E-03    -51.1232E-03     101.423E-03    -50.9620E-03     21.3982E-03
            1848     1.71096E-03     34.2155E-03    -84.6135E+06    -186.732E+06    -73.0361E+06     179.320E+03    -50.9142E-03     101.928E-03    -51.0136E-03     14.2460E-03    -50.9310E-03     101.195E-03    -50.9854E-03     14.1989E-03
            1849     854.574E-06     34.2038E-03    -87.4589E+06    -194.040E+06    -84.4300E+06    -51.4397E+03    -51.2950E-03     102.055E-03    -50.7604E-03     8.51664E-03    -51.2750E-03     101.369E-03    -50.7744E-03     8.50581E-03
            1850     16.2398E-03     33.9384E-03    -4.68833E+06     92.1466E+06     72.0831E+06     897.032E+03    -51.3490E-03     103.163E-03    -51.8139E-03     30.0130E-03    -51.7044E-03     103.620E-03    -51.5803E-03     29.6335E-03
            1851     15.3825E-03     33.9085E-03    -9.87401E+06     89.3902E+06     60.4738E+06     2.83497E+06    -51.6021E-03     103.374E-03    -51.7718E-03     40.3750E-03    -51.9902E-03     103.869E-03    -51.5848E-03     39.9706E-03
            1852     14.5314E-03     33.8603E-03    -12.5885E+06     83.7871E+06     53.1755E+06     1.48664E+06    -52.7308E-03     104.451E-03    -51.7199E-03     46.7105E-03    -53.1342E-03     104.953E-03    -51.5572E-03     46.2664E-03
            1853     13.6783E-03     33.8152E-03    -14.9754E+06     73.3939E+06     49.4211E+06    -39.0774E+03    -53.0597E-03     104.710E-03    -51.6502E-03     49.8416E-03    -53.4682E-03     105.182E-03    -51.4878E-03     49.3607E-03
            1854     12.8239E-03     33.7611E-03    -18.5084E+06     44.3212E+06     41.3903E+06    -678.958E+03    -52.7683E-03     104.355E-03    -51.5863E-03     54.7783E-03    -53.1504E-03     104.708E-03    -51.4168E-03     54.2918E-03
            1855     11.9678E-03     33.7042E-03    -26.0927E+06     10.0324E+06     31.9948E+06    -1.84969E+06    -52.3975E-03     103.950E-03    -51.5525E-03     57.6004E-03    -52.7577E-03     104.160E-03    -51.3692E-03     57.1002E-03
            1856     11.1152E-03     33.6458E-03    -30.0629E+06    -9.52024E+06     28.1009E+06     631.746E+03    -52.0854E-03     103.630E-03    -51.5443E-03     58.3494E-03    -52.4222E-03     103.745E-03    -51.3465E-03     57.8970E-03
            1857     10.2596E-03     33.5865E-03    -31.0627E+06    -28.4987E+06     21.7285E+06     1.43406E+06    -51.9662E-03     103.502E-03    -51.5358E-03     57.7035E-03    -52.2541E-03     103.515E-03    -51.3408E-03     57.2881E-03
            1858     9.40262E-03     33.5299E-03    -37.1302E+06    -56.4178E+06     10.3661E+06    -1.95597E+06    -52.6694E-03     104.165E-03    -51.4952E-03     56.8088E-03    -52.9154E-03     104.049E-03    -51.3078E-03     56.3673E-03
            1859     8.55119E-03     33.4715E-03    -41.7867E+06    -73.0025E+06     5.06113E+06    -797.856E+03    -52.7773E-03     104.197E-03    -51.4196E-03     54.9003E-03    -52.9927E-03     103.990E-03    -51.2278E-03     54.5095E-03
            1860     7.69753E-03     33.4175E-03    -44.3191E+06    -90.2981E+06    -2.50267E+06    -86.6611E+03    -51.8034E-03     103.164E-03    -51.3604E-03     51.8031E-03    -51.9698E-03     102.860E-03    -51.1777E-03     51.4729E-03
            1861     6.84035E-03     33.3671E-03    -51.6528E+06    -117.235E+06    -13.5908E+06    -2.21099E+06    -51.7730E-03     103.118E-03    -51.3447E-03     47.6749E-03    -51.9011E-03     102.686E-03    -51.1677E-03     47.3590E-03
            1862     5.98532E-03     33.3209E-03    -57.2410E+06    -127.914E+06    -19.4433E+06    -775.815E+03    -52.3314E-03     103.605E-03    -51.2741E-03     43.9369E-03    -52.4461E-03     103.119E-03    -51.1028E-03     43.6826E-03
            1863     5.13165E-03     33.2762E-03    -60.4909E+06    -138.740E+06    -25.9410E+06     30.1310E+03    -52.0478E-03     103.191E-03    -51.1431E-03     39.0875E-03    -52.1362E-03     102.648E-03    -50.9840E-03     38.8879E-03
            1864     4.27743E-03     33.2407E-03    -65.9604E+06    -155.635E+06    -37.0413E+06    -381.458E+03    -51.5191E-03     102.539E-03    -51.0203E-03     33.1148E-03    -51.5777E-03     101.919E-03    -50.8841E-03     32.9493E-03
            1865     3.42128E-03     33.2097E-03    -72.6574E+06    -168.087E+06    -48.9769E+06     62.3022E+03    -51.1631E-03     102.092E-03    -50.9288E-03     27.6298E-03    -51.2004E-03     101.418E-03    -50.8246E-03     27.5122E-03
            1866     2.56640E-03     33.1837E-03    -77.8691E+06    -177.899E+06    -61.9415E+06     15.4427E+03    -50.9571E-03     101.815E-03    -50.8578E-03     21.2059E-03    -50.9690E-03     101.101E-03    -50.7967E-03     21.1229E-03
            1867     1.71064E-03     33.1663E-03    -82.9816E+06    -186.567E+06    -73.7251E+06    -214.812E+03    -51.0873E-03     101.815E-03    -50.7280E-03     14.1698E-03    -51.0977E-03     101.085E-03    -50.7058E-03     14.1038E-03
            1868     856.364E-06     33.1550E-03    -86.4827E+06    -192.489E+06    -82.9309E+06    -191.769E+03    -51.0315E-03     101.273E-03    -50.2416E-03     8.70260E-03    -51.0154E-03     100.588E-03    -50.2517E-03     8.66525E-03
            1869     16.2411E-03     32.8920E-03    -2.67843E+06     90.7342E+06     71.9753E+06     1.67498E+06    -52.5454E-03     104.346E-03    -51.8002E-03     27.4946E-03    -52.8858E-03     104.790E-03    -51.5680E-03     27.1208E-03
            1870     15.3871E-03     32.8540E-03    -6.18038E+06     89.7147E+06     62.4561E+06     1.10880E+06    -52.3109E-03     104.020E-03    -51.7086E-03     37.6461E-03    -52.6810E-03     104.505E-03    -51.5175E-03     37.2106E-03
            1871     14.5309E-03     32.8091E-03    -10.2238E+06     85.9981E+06     55.2959E+06     770.377E+03    -52.2792E-03     103.922E-03    -51.6429E-03     44.1470E-03    -52.6706E-03     104.422E-03    -51.4763E-03     43.7029E-03
            1872     13.6765E-03     32.7607E-03    -16.0865E+06     73.9437E+06     50.5206E+06     394.119E+03    -52.4182E-03     104.020E-03    -51.6021E-03     48.8389E-03    -52.8313E-03     104.492E-03    -51.4334E-03     48.3733E-03
            1873     12.8241E-03     32.7094E-03    -20.9943E+06     46.5577E+06     44.1403E+06    -391.440E+03    -52.5024E-03     104.072E-03    -51.5701E-03     54.3782E-03    -52.9049E-03     104.438E-03    -51.3864E-03     53.8928E-03
            1874     11.9709E-03     32.6535E-03    -25.6334E+06     12.1427E+06     33.1579E+06    -730.579E+03    -52.3529E-03     103.885E-03    -51.5321E-03     57.9688E-03    -52.7158E-03     104.104E-03    -51.3467E-03     57.4846E-03
            1875     11.1146E-03     32.5938E-03    -30.7325E+06    -15.3387E+06     24.4458E+06    -2.09630E+06    -52.4947E-03     103.992E-03    -51.4976E-03     58.5921E-03    -52.8209E-03     104.084E-03    -51.3086E-03     58.1042E-03
            1876     10.2598E-03     32.5376E-03    -33.1678E+06    -30.0516E+06     20.8948E+06    -22.9230E+03    -52.8049E-03     104.248E-03    -51.4428E-03     57.1629E-03    -53.1001E-03     104.258E-03    -51.2466E-03     56.7194E-03
            1877     9.40744E-03     32.4770E-03    -35.1859E+06    -52.1702E+06     12.1052E+06     1.09044E+06    -52.6347E-03     103.990E-03    -51.3553E-03     55.9636E-03    -52.8747E-03     103.885E-03    -51.1681E-03     55.5675E-03
            1878     8.55174E-03     32.4204E-03    -37.9666E+06    -75.2177E+06     5.84957E+06    -1.17541E+06    -52.0172E-03     103.326E-03    -51.3088E-03     54.3806E-03    -52.2060E-03     103.096E-03    -51.1154E-03     53.9979E-03
            1879     7.69524E-03     32.3681E-03    -45.2012E+06    -91.4711E+06    -2.67998E+06     234.767E+03    -51.9924E-03     103.260E-03    -51.2672E-03     51.7954E-03    -52.1598E-03     102.950E-03    -51.0824E-03     51.4722E-03
            1880     6.84174E-03     32.3170E-03    -51.6888E+06    -114.102E+06    -13.3897E+06    -493.007E+03    -52.4879E-03     103.663E-03    -51.1752E-03     47.8453E-03    -52.6192E-03     103.245E-03    -51.0017E-03     47.5526E-03
            1881     5.98827E-03     32.2691E-03    -56.1247E+06    -128.857E+06    -20.6557E+06    -1.68387E+06    -52.1679E-03     103.210E-03    -51.0419E-03     43.0869E-03    -52.2697E-03     102.715E-03    -50.8769E-03     42.8225E-03
            1882     5.13287E-03     32.2274E-03    -60.6216E+06    -141.187E+06    -27.6766E+06    -700.947E+03    -51.3959E-03     102.341E-03    -50.9450E-03     38.4550E-03    -51.4750E-03     101.784E-03    -50.7907E-03     38.2486E-03
            1883     4.27640E-03     32.1908E-03    -65.3664E+06    -155.684E+06    -36.5422E+06    -286.928E+03    -51.3233E-03     102.195E-03    -50.8712E-03     33.0016E-03    -51.3766E-03     101.570E-03    -50.7334E-03     32.8407E-03
            1884     3.42288E-03     32.1600E-03    -72.0624E+06    -167.210E+06    -48.1241E+06     488.317E+03    -51.1843E-03     101.945E-03    -50.7610E-03     27.1480E-03    -51.2163E-03     101.269E-03    -50.6546E-03     27.0321E-03
            1885     2.56671E-03     32.1360E-03    -77.5917E+06    -176.434E+06    -59.9958E+06    -137.299E+03    -50.7449E-03     101.420E-03    -50.6749E-03     21.2360E-03    -50.7539E-03     100.704E-03    -50.6065E-03     21.1481E-03
            1886     1.71133E-03     32.1165E-03    -83.8206E+06    -186.641E+06    -73.6244E+06    -991.871E+03    -50.8104E-03     101.386E-03    -50.5759E-03     14.6563E-03    -50.8193E-03     100.650E-03    -50.5518E-03     14.5900E-03
            1887     856.003E-06     32.1064E-03    -88.8263E+06    -194.593E+06    -84.7241E+06    -1.35134E+06    -50.8551E-03     101.019E-03    -50.1640E-03     7.79633E-03    -50.8449E-03     100.328E-03    -50.1767E-03     7.75512E-03
            1888     16.2407E-03     31.8350E-03    -4.58274E+06     90.1376E+06     71.2878E+06     48.4467E+03    -53.6014E-03     105.383E-03    -51.7815E-03     28.9621E-03    -53.9490E-03     105.827E-03    -51.5491E-03     28.5554E-03
            1889     15.3896E-03     31.8025E-03    -2.66084E+06     89.8002E+06     65.7844E+06     1.54474E+06    -53.5190E-03     105.158E-03    -51.6388E-03     39.1461E-03    -53.8764E-03     105.634E-03    -51.4363E-03     38.7104E-03
            1890     14.5363E-03     31.7581E-03    -4.67784E+06     88.4367E+06     61.1254E+06     2.46505E+06    -51.9677E-03     103.520E-03    -51.5521E-03     45.1893E-03    -52.3406E-03     104.013E-03    -51.3679E-03     44.7775E-03
            1891     13.6808E-03     31.7100E-03    -14.0405E+06     73.4031E+06     51.5569E+06     1.96342E+06    -51.3706E-03     102.906E-03    -51.5354E-03     49.4087E-03    -51.7685E-03     103.365E-03    -51.3637E-03     48.9815E-03
            1892     12.8234E-03     31.6580E-03    -18.9910E+06     44.8301E+06     43.1593E+06     1.43365E+06    -52.0050E-03     103.548E-03    -51.5430E-03     54.4451E-03    -52.3900E-03     103.900E-03    -51.3647E-03     53.9936E-03
            1893     11.9681E-03     31.6012E-03    -20.8615E+06     19.2316E+06     37.3584E+06     1.11681E+06    -52.7498E-03     104.265E-03    -51.5153E-03     57.1487E-03    -53.1014E-03     104.503E-03    -51.3261E-03     56.6900E-03
            1894     11.1146E-03     31.5440E-03    -26.5224E+06    -14.6318E+06     24.7343E+06    -2.94774E+06    -53.1841E-03     104.611E-03    -51.4266E-03     57.6941E-03    -53.4877E-03     104.697E-03    -51.2433E-03     57.1913E-03
            1895     10.2623E-03     31.4827E-03    -31.8698E+06    -37.4455E+06     19.7173E+06    -3.60747E+06    -53.1299E-03     104.464E-03    -51.3336E-03     57.1157E-03    -53.4059E-03     104.436E-03    -51.1345E-03     56.6232E-03
            1896     9.40774E-03     31.4276E-03    -34.5675E+06    -49.0964E+06     14.7571E+06     785.136E+03    -52.4349E-03     103.672E-03    -51.2371E-03     56.1798E-03    -52.6795E-03     103.577E-03    -51.0420E-03     55.7846E-03
            1897     8.55187E-03     31.3713E-03    -40.6117E+06    -76.4275E+06     3.05134E+06     362.663E+03    -52.1754E-03     103.337E-03    -51.1613E-03     53.4532E-03    -52.3712E-03     103.108E-03    -50.9763E-03     53.0914E-03
            1898     7.69793E-03     31.3175E-03    -45.5066E+06    -94.7129E+06    -4.55107E+06    -95.0378E+03    -52.3787E-03     103.452E-03    -51.0730E-03     50.1326E-03    -52.5392E-03     103.128E-03    -50.8925E-03     49.8032E-03
            1899     6.84360E-03     31.2650E-03    -49.1025E+06    -110.992E+06    -11.6520E+06    -489.145E+03    -52.2097E-03     103.164E-03    -50.9541E-03     47.2316E-03    -52.3349E-03     102.754E-03    -50.7802E-03     46.9407E-03
            1900     5.98884E-03     31.2196E-03    -55.1633E+06    -128.500E+06    -19.9503E+06    -1.29310E+06    -51.7085E-03     102.552E-03    -50.8431E-03     42.8518E-03    -51.8086E-03     102.058E-03    -50.6765E-03     42.5968E-03
            1901     5.13324E-03     31.1790E-03    -62.0618E+06    -142.258E+06    -29.5524E+06    -653.798E+03    -51.3019E-03     102.050E-03    -50.7481E-03     38.1609E-03    -51.3863E-03     101.495E-03    -50.5996E-03     37.9574E-03
            1902     4.27893E-03     31.1412E-03    -68.5295E+06    -157.703E+06    -41.0671E+06    -953.391E+03    -51.0569E-03     101.719E-03    -50.6618E-03     32.7140E-03    -51.1186E-03     101.097E-03    -50.5391E-03     32.5447E-03
            1903     3.42209E-03     31.1114E-03    -71.6020E+06    -166.513E+06    -48.0077E+06    -717.384E+03    -50.8719E-03     101.459E-03    -50.5873E-03     26.5292E-03    -50.9065E-03     100.789E-03    -50.4821E-03     26.3986E-03
            1904     2.56741E-03     31.0871E-03    -77.3954E+06    -175.907E+06    -59.4428E+06     367.146E+03    -50.6171E-03     101.128E-03    -50.5113E-03     20.9342E-03    -50.6367E-03     100.423E-03    -50.4413E-03     20.8515E-03
            1905     1.71127E-03     31.0691E-03    -82.7335E+06    -185.957E+06    -73.4307E+06     564.775E+03    -50.3962E-03     100.875E-03    -50.4787E-03     14.6919E-03    -50.4107E-03     100.150E-03    -50.4562E-03     14.6440E-03
            1906     855.188E-06     31.0570E-03    -89.4791E+06    -196.290E+06    -87.1708E+06    -477.728E+03    -50.4599E-03     100.977E-03    -50.5175E-03     7.30912E-03    -50.4464E-03     100.290E-03    -50.5390E-03     7.27371E-03
            1907     16.2396E-03     30.7796E-03    -4.18578E+06     91.5407E+06     69.1100E+06    -2.71794E+06    -52.7561E-03     104.526E-03    -51.7696E-03     29.7287E-03    -53.1027E-03     104.982E-03    -51.5507E-03     29.2761E-03
            1908     15.3865E-03     30.7480E-03    -10.1336E+06     84.7726E+06     60.0624E+06    -1.76571E+06    -53.0948E-03     104.759E-03    -51.6644E-03     38.8123E-03    -53.4725E-03     105.228E-03    -51.4723E-03     38.3355E-03
            1909     14.5333E-03     30.7057E-03    -9.96511E+06     83.2475E+06     59.3506E+06     2.51194E+06    -52.4617E-03     104.056E-03    -51.5938E-03     46.6794E-03    -52.8536E-03     104.535E-03    -51.4033E-03     46.2652E-03
            1910     13.6781E-03     30.6608E-03    -8.75624E+06     78.6951E+06     55.5205E+06     3.73960E+06    -52.3725E-03     103.905E-03    -51.5327E-03     50.9295E-03    -52.7604E-03     104.380E-03    -51.3565E-03     50.5174E-03
            1911     12.8246E-03     30.6063E-03    -13.8109E+06     46.9871E+06     45.1044E+06     1.08001E+06    -52.8250E-03     104.301E-03    -51.4755E-03     53.7389E-03    -53.1907E-03     104.653E-03    -51.2981E-03     53.2732E-03
            1912     11.9711E-03     30.5497E-03    -17.2318E+06     20.0187E+06     39.9907E+06     710.389E+03    -53.0546E-03     104.464E-03    -51.4094E-03     55.4101E-03    -53.3917E-03     104.695E-03    -51.2135E-03     54.9398E-03
            1913     11.1180E-03     30.4903E-03    -24.2399E+06    -10.1247E+06     27.4119E+06     1.13945E+06    -52.8935E-03     104.200E-03    -51.3069E-03     56.9239E-03    -53.1932E-03     104.299E-03    -51.1200E-03     56.4797E-03
            1914     10.2624E-03     30.4331E-03    -30.8595E+06    -40.6548E+06     16.9528E+06    -2.20309E+06    -52.6563E-03     103.877E-03    -51.2211E-03     56.7555E-03    -52.9166E-03     103.835E-03    -51.0326E-03     56.2894E-03
            1915     9.40719E-03     30.3763E-03    -36.7587E+06    -53.9057E+06     11.7335E+06    -947.124E+03    -52.7508E-03     103.876E-03    -51.1249E-03     54.9388E-03    -52.9929E-03     103.762E-03    -50.9348E-03     54.5220E-03
            1916     8.55499E-03     30.3200E-03    -42.6679E+06    -73.7431E+06     2.72044E+06     1.82394E+06    -52.8656E-03     103.853E-03    -50.9870E-03     53.5067E-03    -53.0755E-03     103.641E-03    -50.8046E-03     53.1597E-03
            1917     7.70102E-03     30.2669E-03    -46.3665E+06    -93.4453E+06    -5.38302E+06     714.411E+03    -52.5623E-03     103.393E-03    -50.8303E-03     50.7600E-03    -52.7282E-03     103.078E-03    -50.6545E-03     50.4405E-03
            1918     6.84535E-03     30.2165E-03    -49.2722E+06    -110.052E+06    -11.8884E+06    -436.639E+03    -51.6678E-03     102.376E-03    -50.7087E-03     46.5175E-03    -51.7935E-03     101.971E-03    -50.5372E-03     46.2335E-03
            1919     5.98910E-03     30.1703E-03    -55.0525E+06    -128.517E+06    -19.1937E+06     269.528E+03    -51.2154E-03     101.856E-03    -50.6402E-03     41.9884E-03    -51.3142E-03     101.358E-03    -50.4700E-03     41.7592E-03
            1920     5.13501E-03     30.1290E-03    -63.1030E+06    -142.334E+06    -29.7911E+06     1.26879E+06    -51.1996E-03     101.752E-03    -50.5520E-03     37.6134E-03    -51.2857E-03     101.195E-03    -50.4031E-03     37.4344E-03
            1921     4.27870E-03     30.0936E-03    -67.7694E+06    -155.363E+06    -41.0267E+06    -324.446E+03    -50.9269E-03     101.371E-03    -50.4438E-03     32.6078E-03    -50.9856E-03     100.757E-03    -50.3254E-03     32.4470E-03
            1922     3.42408E-03     30.0624E-03    -73.5617E+06    -169.258E+06    -51.1665E+06    -1.72310E+06    -50.6475E-03     101.004E-03    -50.3564E-03     26.1273E-03    -50.6788E-03     100.323E-03    -50.2602E-03     25.9912E-03
            1923     2.56744E-03     30.0396E-03    -80.1869E+06    -178.421E+06    -61.8931E+06    -1.06638E+06    -50.4352E-03     100.711E-03    -50.2757E-03     20.2429E-03    -50.4525E-03     99.9916E-03    -50.2102E-03     20.1470E-03
            1924     1.71194E-03     30.0204E-03    -84.4590E+06    -185.641E+06    -71.8850E+06     462.846E+03    -50.1793E-03     100.418E-03    -50.2385E-03     14.1742E-03    -50.1948E-03     99.6834E-03    -50.2063E-03     14.1222E-03
            1925     856.119E-06     30.0101E-03    -87.9875E+06    -193.925E+06     -85.061E+06     2.66229E+06    -50.0571E-03     100.471E-03    -50.4135E-03     7.40720E-03    -50.0353E-03     99.7838E-03    -50.4300E-03     7.41479E-03
            1926     16.2425E-03     29.7294E-03    -3.37609E+06     92.0857E+06     69.7406E+06    -611.434E+03    -52.3810E-03     104.138E-03    -51.7572E-03     29.8489E-03    -52.7241E-03     104.594E-03    -51.5371E-03     29.4363E-03
            1927     15.3869E-03     29.6941E-03    -10.3235E+06     84.7096E+06     57.4783E+06    -2.11839E+06    -52.3025E-03     103.972E-03    -51.6692E-03     36.7151E-03    -52.6725E-03     104.439E-03    -51.4897E-03     36.2455E-03
            1928     14.5315E-03     29.6557E-03    -15.4219E+06     79.0281E+06     52.5331E+06    -4.04965E+06    -52.6823E-03     104.286E-03    -51.6042E-03     43.4710E-03    -53.0820E-03     104.760E-03    -51.4338E-03     42.9645E-03
            1929     13.6791E-03     29.6054E-03    -14.0422E+06     76.7553E+06     52.1327E+06    -727.479E+03    -53.0775E-03     104.602E-03    -51.5250E-03     49.8563E-03    -53.4857E-03     105.082E-03    -51.3552E-03     49.3707E-03
            1930     12.8270E-03     29.5545E-03    -15.7390E+06     50.4137E+06     44.7676E+06     2.23399E+06    -53.5599E-03     104.982E-03    -51.4218E-03     55.2828E-03    -53.9414E-03     105.356E-03    -51.2482E-03     54.8266E-03
            1931     11.9733E-03     29.4971E-03    -24.4999E+06     15.9020E+06     33.9259E+06     3.23573E+06    -53.5307E-03     104.832E-03    -51.3016E-03     57.1473E-03    -53.8895E-03     105.062E-03    -51.1195E-03     56.7122E-03
            1932     11.1176E-03     29.4405E-03    -25.0515E+06    -8.28983E+06     27.2447E+06     2.99293E+06    -53.0016E-03     104.184E-03    -51.1821E-03     56.5278E-03    -53.3052E-03     104.290E-03    -50.9975E-03     56.1089E-03
            1933     10.2634E-03     29.3820E-03    -29.5763E+06    -35.9701E+06     17.8650E+06     964.601E+03    -53.0176E-03     104.080E-03    -51.0623E-03     55.6603E-03    -53.2754E-03     104.053E-03    -50.8779E-03     55.2351E-03
            1934     9.41111E-03     29.3242E-03    -36.3835E+06    -56.7215E+06     10.3074E+06     624.128E+03    -52.9383E-03     103.863E-03    -50.9248E-03     53.3590E-03    -53.1687E-03     103.733E-03    -50.7383E-03     52.9648E-03
            1935     8.55469E-03     29.2708E-03    -40.0138E+06    -72.8571E+06     4.45222E+06     1.78177E+06    -52.4031E-03     103.190E-03    -50.7867E-03     52.3386E-03    -52.5999E-03     102.973E-03    -50.6007E-03     51.9991E-03
            1936     7.70008E-03     29.2146E-03    -45.0837E+06    -92.0349E+06    -4.05700E+06     625.860E+03    -52.2597E-03     102.906E-03    -50.6467E-03     50.1740E-03    -52.4208E-03     102.592E-03    -50.4682E-03     49.8590E-03
            1937     6.84721E-03     29.1681E-03    -51.3286E+06    -111.578E+06    -13.3462E+06     741.910E+03    -51.8840E-03     102.382E-03    -50.4982E-03     45.7509E-03    -52.0123E-03     101.971E-03    -50.3288E-03     45.4847E-03
            1938     5.99237E-03     29.1216E-03    -57.5239E+06    -129.835E+06    -22.0707E+06     1.03821E+06    -51.0848E-03     101.471E-03    -50.3865E-03     41.9481E-03    -51.1881E-03     100.974E-03    -50.2252E-03     41.7305E-03
            1939     5.13508E-03     29.0812E-03    -60.3598E+06    -140.637E+06    -27.1393E+06     365.608E+03    -50.7863E-03     101.106E-03    -50.3200E-03     37.2227E-03    -50.8646E-03     100.550E-03    -50.1642E-03     37.0386E-03
            1940     4.28038E-03     29.0443E-03    -65.9521E+06    -152.494E+06    -37.5584E+06     576.141E+03    -50.6632E-03     100.896E-03    -50.2330E-03     31.9265E-03    -50.7215E-03     100.289E-03    -50.1040E-03     31.7823E-03
            1941     3.42398E-03     29.0152E-03    -73.7034E+06    -169.764E+06    -51.9593E+06    -160.104E+03    -50.4426E-03     100.576E-03    -50.1331E-03     26.0961E-03    -50.4733E-03     99.8943E-03    -50.0399E-03     25.9720E-03
            1942     2.56891E-03     28.9913E-03    -79.7806E+06    -179.082E+06    -63.3139E+06    -801.724E+03    -50.3206E-03     100.347E-03    -50.0260E-03     20.3576E-03    -50.3354E-03     99.6283E-03    -49.9672E-03     20.2586E-03
            1943     1.71255E-03     28.9738E-03    -86.7750E+06    -187.514E+06    -73.8611E+06    -1.58418E+06    -50.0354E-03     99.9627E-03    -49.9273E-03     14.0169E-03    -50.0609E-03     99.2308E-03    -49.8989E-03     13.9465E-03
            1944     855.849E-06     28.9624E-03    -88.6566E+06     -192.76E+06    -83.1394E+06     1.57665E+06    -50.0477E-03     99.7660E-03    -49.7183E-03     8.24045E-03    -50.0395E-03     99.0892E-03    -49.7259E-03     8.24657E-03
            1945     16.2401E-03     28.6743E-03     -4.4506E+06     92.4322E+06     70.4618E+06     670.137E+03    -53.0888E-03     104.814E-03    -51.7248E-03     27.6134E-03    -53.4358E-03     105.269E-03    -51.5001E-03     27.2162E-03
            1946     15.3875E-03     28.6446E-03    -10.1753E+06     88.1153E+06     58.6719E+06    -665.070E+03    -51.7642E-03     103.390E-03    -51.6258E-03     35.8843E-03    -52.1375E-03     103.870E-03    -51.4455E-03     35.4401E-03
            1947     14.5353E-03     28.5999E-03    -18.0014E+06     79.7396E+06     47.9979E+06    -2.32811E+06    -52.0278E-03     103.602E-03    -51.5739E-03     45.7987E-03    -52.4338E-03     104.088E-03    -51.4235E-03     45.3275E-03
            1948     13.6801E-03     28.5565E-03    -19.5384E+06     69.5233E+06     44.7670E+06    -3.74149E+06    -53.5183E-03     105.023E-03    -51.5044E-03     51.8569E-03    -53.9340E-03     105.486E-03    -51.3530E-03     51.3325E-03
            1949     12.8233E-03     28.5000E-03    -19.9397E+06     46.4478E+06     41.6843E+06    -1.10509E+06    -54.1161E-03     105.498E-03    -51.3821E-03     53.8076E-03    -54.5049E-03     105.860E-03    -51.2121E-03     53.3058E-03
            1950     11.9710E-03     28.4447E-03    -22.3272E+06     17.7501E+06     36.0968E+06     994.096E+03    -53.7834E-03     105.018E-03    -51.2349E-03     54.6883E-03    -54.1350E-03     105.249E-03    -51.0478E-03     54.2177E-03
            1951     11.1203E-03     28.3878E-03    -28.2619E+06    -5.83192E+06     27.8027E+06     1.83670E+06    -53.6220E-03     104.692E-03    -51.0700E-03     55.7172E-03    -53.9485E-03     104.817E-03    -50.8816E-03     55.2726E-03
            1952     10.2673E-03     28.3311E-03    -34.0844E+06    -31.6745E+06     17.6183E+06     2.55714E+06    -53.3320E-03     104.227E-03    -50.8946E-03     56.1350E-03    -53.6200E-03     104.230E-03    -50.7112E-03     55.7288E-03
            1953     9.41182E-03     28.2729E-03    -36.3177E+06    -57.9984E+06     9.83307E+06     1.29326E+06    -53.1230E-03     103.843E-03    -50.7202E-03     53.9295E-03    -53.3530E-03     103.710E-03    -50.5343E-03     53.5403E-03
            1954     8.55966E-03     28.2211E-03    -41.0293E+06    -73.7897E+06     3.84838E+06     1.61800E+06    -52.5838E-03     103.127E-03    -50.5430E-03     51.2786E-03    -52.7811E-03     102.905E-03    -50.3573E-03     50.9390E-03
            1955     7.70387E-03     28.1664E-03    -45.9854E+06    -91.0059E+06    -4.94083E+06     1.70046E+06    -51.5311E-03     101.932E-03    -50.4011E-03     49.0300E-03    -51.6933E-03     101.622E-03    -50.2272E-03     48.7424E-03
            1956     6.84725E-03     28.1171E-03    -51.2628E+06    -112.835E+06    -14.0325E+06     1.72077E+06    -51.3118E-03     101.615E-03    -50.3036E-03     45.1572E-03    -51.4369E-03     101.199E-03    -50.1359E-03     44.9101E-03
            1957     5.99221E-03     28.0743E-03    -55.6071E+06    -126.911E+06    -20.5550E+06     448.082E+03    -51.4314E-03     101.608E-03    -50.1771E-03     41.6491E-03    -51.5323E-03     101.121E-03    -50.0152E-03     41.4213E-03
            1958     5.13782E-03     28.0326E-03    -62.5782E+06    -140.914E+06    -28.6800E+06    -389.486E+03    -50.8019E-03     100.842E-03    -50.0401E-03     36.6733E-03    -50.8884E-03     100.290E-03    -49.8884E-03     36.4784E-03
            1959     4.28105E-03     27.9973E-03    -68.0019E+06    -154.510E+06    -38.4115E+06     850.376E+03    -50.0298E-03     99.9978E-03    -49.9680E-03     31.2970E-03    -50.0925E-03     99.3827E-03    -49.8374E-03     31.1584E-03
            1960     3.42511E-03     27.9678E-03    -73.5546E+06    -167.734E+06    -49.4178E+06     1.18119E+06    -49.9112E-03     99.8645E-03    -49.9532E-03     26.1748E-03    -49.9473E-03     99.1887E-03    -49.8504E-03     26.0747E-03
            1961     2.56835E-03     27.9439E-03    -79.9992E+06    -177.765E+06    -62.0914E+06     787.791E+03    -50.0862E-03     99.9867E-03    -49.9005E-03     20.4714E-03    -50.1043E-03     99.2721E-03    -49.8372E-03     20.3978E-03
            1962     1.71277E-03     27.9268E-03    -85.9748E+06    -187.808E+06    -75.7529E+06    -81.7840E+03    -50.1169E-03     99.8598E-03    -49.7429E-03     14.0393E-03    -50.1321E-03     99.1250E-03    -49.7247E-03     13.9745E-03
            1963     856.958E-06     27.9162E-03    -91.2307E+06    -195.494E+06    -86.3218E+06    -2.48130E+06    -49.7915E-03     99.2852E-03    -49.4937E-03     8.22966E-03    -49.7855E-03     98.6033E-03    -49.5095E-03     8.15143E-03
            1964     16.2453E-03     27.6214E-03    -3.44096E+06     92.0730E+06     71.8068E+06     1.38991E+06    -52.6928E-03     104.450E-03    -51.7571E-03     28.9056E-03    -53.0366E-03     104.900E-03    -51.5266E-03     28.5229E-03
            1965     15.3898E-03     27.5932E-03    -8.30527E+06     89.3894E+06     61.2171E+06     2.31994E+06    -52.2760E-03     103.936E-03    -51.6596E-03     37.9688E-03    -52.6455E-03     104.415E-03    -51.4710E-03     37.5676E-03
            1966     14.5293E-03     27.5523E-03    -12.2435E+06     86.2959E+06     54.2899E+06    -571.764E+03    -53.4471E-03     105.004E-03    -51.5574E-03     45.0729E-03    -53.8436E-03     105.507E-03    -51.3933E-03     44.6074E-03
            1967     13.6761E-03     27.4992E-03    -20.4991E+06     68.6164E+06     44.4145E+06    -4.67796E+06    -54.5516E-03     105.944E-03    -51.3920E-03     47.7498E-03    -54.9681E-03     106.402E-03    -51.2397E-03     47.1913E-03
            1968     12.8308E-03     27.4460E-03    -26.1183E+06     39.8151E+06     37.6459E+06    -3.95491E+06    -53.8212E-03     105.049E-03    -51.2280E-03     50.2954E-03    -54.2213E-03     105.389E-03    -51.0596E-03     49.7535E-03
            1969     11.9767E-03     27.3941E-03    -27.3729E+06     17.2918E+06     34.0229E+06    -445.773E+03    -53.0727E-03     104.173E-03    -51.1005E-03     54.4343E-03    -53.4431E-03     104.409E-03    -50.9158E-03     53.9546E-03
            1970     11.1200E-03     27.3345E-03    -32.2742E+06    -8.41492E+06     23.8210E+06     1.11823E+06    -53.3172E-03     104.272E-03    -50.9552E-03     56.0786E-03    -53.6503E-03     104.392E-03    -50.7771E-03     55.6359E-03
            1971     10.2663E-03     27.2804E-03    -36.1779E+06    -30.5986E+06     17.7833E+06     3.38258E+06    -53.3137E-03     104.110E-03    -50.7965E-03     55.9963E-03    -53.6102E-03     104.118E-03    -50.6108E-03     55.6071E-03
            1972     9.41344E-03     27.2219E-03    -40.3033E+06    -55.4167E+06     7.83224E+06     2.52258E+06    -53.3220E-03     103.916E-03    -50.5938E-03     54.6934E-03    -53.5711E-03     103.802E-03    -50.4158E-03     54.3239E-03
            1973     8.55892E-03     27.1693E-03    -43.9518E+06    -77.0748E+06    -393.932E+03     562.312E+03    -53.0787E-03     103.444E-03    -50.3654E-03     51.3631E-03    -53.2787E-03     103.216E-03    -50.1919E-03     51.0104E-03
            1974     7.70564E-03     27.1186E-03    -46.7365E+06    -89.7192E+06    -4.70405E+06     2.19036E+06    -51.7679E-03     101.945E-03    -50.1770E-03     48.5370E-03    -51.9346E-03     101.641E-03    -50.0026E-03     48.2549E-03
            1975     6.84947E-03     27.0706E-03    -51.5759E+06    -109.919E+06    -12.2276E+06     2.02771E+06    -50.9124E-03     100.979E-03    -50.0671E-03     44.9770E-03    -51.0438E-03     100.573E-03    -49.8940E-03     44.7360E-03
            1976     5.99383E-03     27.0238E-03    -56.4738E+06    -125.197E+06    -20.4912E+06     1.55976E+06    -51.0119E-03     100.968E-03    -49.9563E-03     40.9778E-03    -51.1170E-03     100.488E-03    -49.7953E-03     40.7687E-03
            1977     5.13884E-03     26.9854E-03    -61.4495E+06    -141.381E+06    -29.8499E+06     97.4799E+03    -50.6107E-03     100.436E-03    -49.8251E-03     36.3885E-03    -50.6881E-03     99.8799E-03    -49.6802E-03     36.2039E-03
            1978     4.28283E-03     26.9511E-03    -68.5312E+06    -157.246E+06    -39.1642E+06     31.3162E+03    -49.9713E-03     99.7148E-03    -49.7435E-03     31.5006E-03    -50.0325E-03     99.0887E-03    -49.6119E-03     31.3540E-03
            1979     3.42528E-03     26.9213E-03    -73.9713E+06    -167.198E+06    -49.2179E+06     1.17445E+06    -49.7062E-03     99.4124E-03    -49.7062E-03     25.9266E-03    -49.7458E-03     98.7401E-03    -49.6026E-03     25.8219E-03
            1980     2.56920E-03     26.8968E-03    -79.5673E+06    -177.334E+06    -62.1956E+06     407.567E+03    -49.6390E-03     99.3213E-03    -49.6823E-03     19.7346E-03    -49.6530E-03     98.6057E-03    -49.6208E-03     19.6518E-03
            1981     1.71245E-03     26.8799E-03    -84.2803E+06    -186.612E+06    -75.0394E+06     453.679E+03    -49.7625E-03     99.3871E-03    -49.6246E-03     13.7525E-03    -49.7672E-03     98.6497E-03    -49.6070E-03     13.7120E-03
            1982     856.700E-06     26.8687E-03    -91.2334E+06    -196.725E+06    -88.4554E+06    -1.69414E+06    -49.7297E-03     99.1690E-03    -49.4392E-03     7.33429E-03    -49.7153E-03     98.4773E-03    -49.4639E-03     7.29950E-03
            1983     16.2351E-03     26.5701E-03    -5.65337E+06     90.6898E+06     70.4481E+06     1.36111E+06    -52.4489E-03     104.254E-03    -51.8055E-03     26.9305E-03    -52.7983E-03     104.702E-03    -51.5766E-03     26.5439E-03
            1984     15.3818E-03     26.5397E-03    -6.98875E+06     91.8972E+06     64.9785E+06    -900.821E+03    -54.7087E-03     106.368E-03    -51.6595E-03     35.0919E-03    -55.0809E-03     106.853E-03    -51.4578E-03     34.6142E-03
            1985     14.5386E-03     26.4955E-03    -8.10621E+06     89.9410E+06     60.8129E+06    -734.481E+03    -55.6899E-03     107.114E-03    -51.4240E-03     43.3973E-03    -56.0822E-03     107.621E-03    -51.2386E-03     42.9002E-03
            1986     13.6903E-03     26.4450E-03    -19.1236E+06     69.3459E+06     45.6398E+06     1.21729E+06    -53.8807E-03     105.064E-03    -51.1831E-03     47.4671E-03    -54.2885E-03     105.517E-03    -51.0277E-03     47.0009E-03
            1987     12.8286E-03     26.3964E-03    -23.1938E+06     37.8495E+06     36.4682E+06     324.503E+03    -52.7154E-03     103.771E-03    -51.0561E-03     51.2104E-03    -53.0909E-03     104.093E-03    -50.8950E-03     50.7479E-03
            1988     11.9736E-03     26.3413E-03    -26.6504E+06     14.9008E+06     32.1702E+06    -253.518E+03    -52.8933E-03     103.857E-03    -50.9640E-03     54.1206E-03    -53.2469E-03     104.076E-03    -50.7861E-03     53.6588E-03
            1989     11.1223E-03     26.2847E-03    -33.2799E+06    -9.35431E+06     21.5893E+06     466.287E+03    -52.9542E-03     103.782E-03    -50.8279E-03     55.3401E-03    -53.2827E-03     103.897E-03    -50.6581E-03     54.9021E-03
            1990     10.2683E-03     26.2276E-03    -33.9676E+06    -34.8407E+06     16.4193E+06     580.621E+03    -53.4750E-03     104.145E-03    -50.6698E-03     54.8010E-03    -53.7510E-03     104.129E-03    -50.4879E-03     54.3768E-03
            1991     9.41387E-03     26.1722E-03    -36.5141E+06    -53.9206E+06     10.1734E+06     1.16206E+06    -53.2544E-03     103.711E-03    -50.4571E-03     52.7487E-03    -53.4876E-03     103.594E-03    -50.2751E-03     52.3623E-03
            1992     8.56059E-03     26.1175E-03    -41.5638E+06    -73.6927E+06     2.62167E+06     772.560E+03    -52.4031E-03     102.655E-03    -50.2518E-03     49.8541E-03    -52.5989E-03     102.434E-03    -50.0716E-03     49.5081E-03
            1993     7.70604E-03     26.0699E-03    -48.2662E+06    -90.9125E+06    -4.48851E+06     795.017E+03    -51.9843E-03     102.052E-03    -50.0678E-03     48.0322E-03    -52.1582E-03     101.745E-03    -49.8884E-03     47.7291E-03
            1994     6.85186E-03     26.0221E-03    -52.1883E+06    -107.839E+06    -11.8529E+06     1.92353E+06    -51.3726E-03     101.267E-03    -49.8946E-03     45.9557E-03    -51.5136E-03     100.875E-03    -49.7218E-03     45.7121E-03
            1995     5.99582E-03     25.9775E-03    -56.7003E+06    -125.194E+06    -21.0534E+06     757.115E+03    -50.4053E-03     100.180E-03    -49.7744E-03     41.4931E-03    -50.5121E-03     99.7020E-03    -49.6159E-03     41.2807E-03
            1996     5.13821E-03     25.9376E-03    -61.2144E+06    -141.364E+06    -29.0710E+06     860.962E+03    -50.1574E-03     99.8654E-03    -49.7080E-03     36.3147E-03    -50.2349E-03     99.3084E-03    -49.5597E-03     36.1398E-03
            1997     4.28234E-03     25.9044E-03    -68.0975E+06    -156.929E+06    -39.5309E+06     1.43482E+06    -50.3361E-03     99.9329E-03    -49.5967E-03     31.2818E-03    -50.3936E-03     99.3069E-03    -49.4681E-03     31.1488E-03
            1998     3.42752E-03     25.8746E-03    -74.3982E+06    -167.629E+06    -51.1335E+06     446.456E+03    -49.9544E-03     99.3948E-03    -49.4404E-03     25.8505E-03    -49.9906E-03     98.7214E-03    -49.3451E-03     25.7401E-03
            1999     2.57044E-03     25.8515E-03    -78.9284E+06    -176.821E+06    -62.8506E+06     384.063E+03    -49.4292E-03     98.7639E-03    -49.3347E-03     19.6694E-03    -49.4433E-03     98.0543E-03    -49.2781E-03     19.5872E-03
            2000     1.71355E-03     25.8335E-03    -85.1752E+06    -186.856E+06    -74.7872E+06     705.244E+03    -49.1703E-03     98.5036E-03    -49.3333E-03     13.4679E-03    -49.1879E-03     97.7746E-03    -49.3128E-03     13.4236E-03
            2001     856.011E-06     25.8229E-03    -90.5017E+06    -195.063E+06    -85.8706E+06     849.382E+03    -49.4552E-03     98.7140E-03    -49.2588E-03     6.96701E-03    -49.4562E-03     98.0268E-03    -49.2741E-03     6.95094E-03
            2002     16.2444E-03     25.5151E-03    -4.15751E+06     92.9151E+06     73.1889E+06     593.320E+03    -54.3628E-03     106.083E-03    -51.7204E-03     25.1485E-03    -54.7093E-03     106.533E-03    -51.4831E-03     24.7421E-03
            2003     15.3942E-03     25.4847E-03    -3.40466E+06     94.5331E+06     68.3809E+06     43.9559E+03    -54.3658E-03     105.893E-03    -51.5274E-03     35.1579E-03    -54.7256E-03     106.378E-03    -51.3176E-03     34.7058E-03
            2004     14.5371E-03     25.4372E-03    -10.4226E+06     81.1931E+06     54.1341E+06     1.40604E+06    -53.7858E-03     105.116E-03    -51.3299E-03     46.7138E-03    -54.1661E-03     105.590E-03    -51.1619E-03     46.2743E-03
            2005     13.6803E-03     25.3954E-03    -12.1330E+06     71.7016E+06     50.3641E+06     1.40102E+06    -54.0538E-03     105.225E-03    -51.1710E-03     50.3651E-03    -54.4390E-03     105.675E-03    -51.0055E-03     49.9037E-03
            2006     12.8320E-03     25.3445E-03    -20.0182E+06     43.6890E+06     39.7282E+06     677.824E+03    -54.3639E-03     105.342E-03    -50.9777E-03     51.4333E-03    -54.7377E-03     105.684E-03    -50.8134E-03     50.9606E-03
            2007     11.9806E-03     25.2890E-03    -27.3897E+06     12.0433E+06     29.8719E+06     86.1707E+03    -53.5856E-03     104.372E-03    -50.7862E-03     51.9558E-03    -53.9314E-03     104.577E-03    -50.6146E-03     51.4973E-03
            2008     11.1233E-03     25.2354E-03    -29.4350E+06    -8.52802E+06     24.7656E+06     380.478E+03    -53.1157E-03     103.732E-03    -50.6163E-03     53.6448E-03    -53.4297E-03     103.839E-03    -50.4375E-03     53.2024E-03
            2009     10.2695E-03     25.1748E-03    -32.4692E+06    -34.7623E+06     16.6135E+06    -533.516E+03    -52.9055E-03     103.350E-03    -50.4443E-03     53.4722E-03    -53.1735E-03     103.331E-03    -50.2638E-03     53.0347E-03
            2010     9.41790E-03     25.1212E-03    -37.5163E+06    -55.4351E+06     10.4213E+06     371.922E+03    -52.3055E-03     102.590E-03    -50.2848E-03     52.1660E-03    -52.5394E-03     102.464E-03    -50.0979E-03     51.7797E-03
            2011     8.56199E-03     25.0695E-03    -43.3453E+06    -71.5070E+06     3.23599E+06     2.75924E+06    -51.7929E-03     101.928E-03    -50.1353E-03     49.8776E-03    -51.9999E-03     101.718E-03    -49.9525E-03     49.5679E-03
            2012     7.70562E-03     25.0209E-03    -46.5336E+06    -89.8204E+06    -4.49959E+06     1.09219E+06    -51.6469E-03     101.629E-03    -49.9825E-03     47.4550E-03    -51.8119E-03     101.323E-03    -49.8073E-03     47.1631E-03
            2013     6.85048E-03     24.9727E-03    -52.1294E+06    -108.901E+06    -12.7758E+06     467.990E+03    -51.3530E-03     101.172E-03    -49.8194E-03     44.8277E-03    -51.4890E-03     100.774E-03    -49.6498E-03     44.5649E-03
            2014     5.99542E-03     24.9311E-03    -57.6251E+06    -124.726E+06    -21.5036E+06     1.58220E+06    -50.6589E-03     100.328E-03    -49.6691E-03     40.6325E-03    -50.7676E-03     99.8518E-03    -49.5122E-03     40.4305E-03
            2015     5.13985E-03     24.8914E-03    -63.4097E+06    -141.864E+06    -31.5397E+06     1.49755E+06    -50.2071E-03     99.7585E-03    -49.5514E-03     35.9481E-03    -50.2900E-03     99.2043E-03    -49.4114E-03     35.7845E-03
            2016     4.28365E-03     24.8566E-03    -67.7669E+06    -155.843E+06    -40.6125E+06     1.03390E+06    -50.0633E-03     99.4977E-03    -49.4344E-03     30.7301E-03    -50.1203E-03     98.8794E-03    -49.3132E-03     30.5925E-03
            2017     3.42677E-03     24.8285E-03    -73.0060E+06    -166.561E+06    -50.0684E+06     684.288E+03    -49.8752E-03     99.1640E-03    -49.2888E-03     25.5784E-03    -49.9077E-03     98.4927E-03    -49.1918E-03     25.4722E-03
            2018     2.57089E-03     24.8055E-03    -80.1231E+06    -176.393E+06    -61.5816E+06     660.834E+03    -49.5420E-03     98.6660E-03    -49.1240E-03     19.8185E-03    -49.5607E-03     97.9548E-03    -49.0599E-03     19.7452E-03
            2019     1.71414E-03     24.7887E-03    -86.8180E+06    -186.594E+06    -73.6804E+06     1.01471E+06    -49.1556E-03     98.1349E-03    -48.9793E-03     13.5609E-03    -49.1788E-03     97.4018E-03    -48.9513E-03     13.5145E-03
            2020     857.471E-06     24.7774E-03    -90.5428E+06    -194.282E+06    -85.0463E+06     204.545E+03    -48.9910E-03     97.8154E-03    -48.8244E-03     7.38903E-03    -48.9960E-03     97.1230E-03    -48.8366E-03     7.35409E-03
            2021     16.2431E-03     24.4593E-03    -4.40940E+06     91.4076E+06     71.9904E+06    -1.50948E+06    -54.0528E-03     105.716E-03    -51.6628E-03     28.3123E-03    -54.3948E-03     106.158E-03    -51.4290E-03     27.9007E-03
            2022     15.3889E-03     24.4311E-03    -6.60077E+06     91.2371E+06     64.6510E+06     2.70336E+06    -53.1344E-03     104.643E-03    -51.5088E-03     39.5177E-03    -53.5001E-03     105.122E-03    -51.3082E-03     39.1239E-03
            2023     14.5352E-03     24.3896E-03    -11.5893E+06     80.8581E+06     53.0821E+06     3.09836E+06    -53.9459E-03     105.295E-03    -51.3491E-03     45.7665E-03    -54.3260E-03     105.767E-03    -51.1841E-03     45.3487E-03
            2024     13.6838E-03     24.3392E-03    -16.9884E+06     65.9402E+06     44.2560E+06     860.603E+03    -54.9557E-03     106.098E-03    -51.1422E-03     47.1056E-03    -55.3444E-03     106.532E-03    -50.9919E-03     46.6246E-03
            2025     12.8322E-03     24.2873E-03    -20.5734E+06     45.3348E+06     39.6762E+06     1.22559E+06    -55.1553E-03     106.056E-03    -50.9006E-03     49.8063E-03    -55.5345E-03     106.408E-03    -50.7381E-03     49.3289E-03
            2026     11.9786E-03     24.2400E-03    -24.4320E+06     21.5254E+06     35.6348E+06     2.10250E+06    -54.7165E-03     105.363E-03    -50.6461E-03     52.3757E-03    -55.0730E-03     105.606E-03    -50.4637E-03     51.9268E-03
            2027     11.1289E-03     24.1814E-03    -30.6465E+06    -9.82887E+06     24.6634E+06     709.888E+03    -53.6749E-03     104.068E-03    -50.3933E-03     53.8303E-03    -53.9914E-03     104.170E-03    -50.2113E-03     53.3887E-03
            2028     10.2754E-03     24.1273E-03    -34.6388E+06    -34.7851E+06     16.2528E+06     687.209E+03    -51.9390E-03     102.159E-03    -50.2201E-03     53.3408E-03    -52.2107E-03     102.137E-03    -50.0382E-03     52.9402E-03
            2029     9.41572E-03     24.0720E-03    -38.2482E+06    -54.6228E+06     9.51678E+06     1.03981E+06    -51.3747E-03     101.494E-03    -50.1197E-03     51.8991E-03    -51.6070E-03     101.369E-03    -49.9374E-03     51.5408E-03
            2030     8.56149E-03     24.0204E-03    -42.3381E+06    -72.8267E+06     2.59280E+06     635.507E+03    -51.6366E-03     101.644E-03    -50.0072E-03     48.8467E-03    -51.8335E-03     101.424E-03    -49.8272E-03     48.5107E-03
            2031     7.70826E-03     23.9718E-03    -45.8008E+06    -88.1600E+06    -4.32888E+06     1.60314E+06    -51.4325E-03     101.292E-03    -49.8592E-03     46.6763E-03    -51.5960E-03     100.992E-03    -49.6866E-03     46.3922E-03
            2032     6.85257E-03     23.9256E-03    -52.3084E+06    -111.005E+06    -14.4652E+06     1.15294E+06    -51.1195E-03     100.824E-03    -49.7041E-03     43.7206E-03    -51.2504E-03     100.417E-03    -49.5396E-03     43.4712E-03
            2033     5.99645E-03     23.8829E-03    -55.9075E+06    -124.121E+06    -20.9221E+06     1.74281E+06    -50.8554E-03     100.396E-03    -49.5402E-03     39.5421E-03    -50.9579E-03     99.9198E-03    -49.3837E-03     39.3399E-03
            2034     5.14080E-03     23.8446E-03    -59.9638E+06    -139.259E+06    -28.9510E+06     1.68177E+06    -50.3550E-03     99.7302E-03    -49.3752E-03     35.4165E-03    -50.4272E-03     99.1795E-03    -49.2311E-03     35.2582E-03
            2035     4.28417E-03     23.8110E-03    -66.7966E+06    -156.041E+06    -39.8081E+06     213.664E+03    -49.7733E-03     99.0121E-03    -49.2387E-03     30.3423E-03    -49.8244E-03     98.3882E-03    -49.1147E-03     30.2009E-03
            2036     3.42782E-03     23.7822E-03    -72.9711E+06    -166.236E+06    -48.7114E+06     657.272E+03    -49.4913E-03     98.6227E-03    -49.1314E-03     24.7939E-03    -49.5262E-03     97.9511E-03    -49.0281E-03     24.6867E-03
            2037     2.57086E-03     23.7598E-03    -79.2164E+06    -175.694E+06    -60.0058E+06     1.00434E+06    -49.3481E-03     98.3493E-03    -49.0012E-03     19.2134E-03    -49.3682E-03     97.6405E-03    -48.9316E-03     19.1423E-03
            2038     1.71443E-03     23.7433E-03    -83.8921E+06    -185.170E+06    -73.2932E+06     319.220E+03    -49.1361E-03     97.9617E-03    -48.8256E-03     13.4659E-03    -49.1509E-03     97.2345E-03    -48.8019E-03     13.4177E-03
            2039     857.282E-06     23.7333E-03    -89.5950E+06    -194.646E+06    -87.1356E+06     501.703E+03    -48.7697E-03     97.4574E-03    -48.6877E-03     7.95144E-03    -48.7633E-03     96.7656E-03    -48.7113E-03     7.94087E-03
            2040     16.2426E-03     23.4100E-03    -3.95321E+06     90.1866E+06     69.2015E+06    -835.948E+03    -53.2376E-03     104.970E-03    -51.7321E-03     28.5070E-03    -53.5707E-03     105.408E-03    -51.5112E-03     28.1083E-03
            2041     15.3867E-03     23.3781E-03    -13.3878E+06     84.9503E+06     56.9219E+06    -1.13143E+06    -55.5675E-03     107.095E-03    -51.5270E-03     37.5699E-03    -55.9514E-03     107.567E-03    -51.3462E-03     37.0836E-03
            2042     14.5377E-03     23.3313E-03    -14.1382E+06     83.7152E+06     55.0318E+06     2.66500E+06    -56.4114E-03     107.661E-03    -51.2494E-03     42.0895E-03    -56.8114E-03     108.148E-03    -51.0751E-03     41.6364E-03
            2043     13.6876E-03     23.2859E-03    -16.6960E+06     70.4785E+06     45.8504E+06     4.48247E+06    -54.6735E-03     105.630E-03    -50.9562E-03     44.4817E-03    -55.0639E-03     106.078E-03    -50.8049E-03     44.0590E-03
            2044     12.8324E-03     23.2363E-03    -22.5498E+06     41.8162E+06     36.2954E+06     1.59296E+06    -53.6547E-03     104.404E-03    -50.7491E-03     48.0121E-03    -54.0258E-03     104.738E-03    -50.5956E-03     47.5629E-03
            2045     11.9820E-03     23.1833E-03    -24.4310E+06     16.8615E+06     33.3061E+06     1.81083E+06    -54.1819E-03     104.741E-03    -50.5586E-03     52.1725E-03    -54.5268E-03     104.962E-03    -50.3811E-03     51.7272E-03
            2046     11.1283E-03     23.1307E-03    -27.1360E+06    -6.61087E+06     27.6020E+06     2.02811E+06    -53.8729E-03     104.195E-03    -50.3222E-03     53.9682E-03    -54.1811E-03     104.303E-03    -50.1352E-03     53.5447E-03
            2047     10.2726E-03     23.0785E-03    -32.9600E+06    -30.4164E+06     19.4852E+06     1.09387E+06    -52.7378E-03     102.840E-03    -50.1027E-03     52.8573E-03    -53.0122E-03     102.833E-03    -49.9134E-03     52.4540E-03
            2048     9.42113E-03     23.0240E-03    -38.8161E+06    -54.3870E+06     8.01869E+06     1.16252E+06    -51.5890E-03     101.519E-03    -49.9299E-03     51.0451E-03    -51.8221E-03     101.398E-03    -49.7547E-03     50.6840E-03
            2049     8.56506E-03     22.9715E-03    -42.6537E+06    -75.5278E+06     561.553E+03    -821.076E+03    -51.0495E-03     100.869E-03    -49.8197E-03     48.5834E-03    -51.2398E-03     100.638E-03    -49.6455E-03     48.2379E-03
            2050     7.70755E-03     22.9242E-03    -45.6307E+06    -88.9034E+06    -3.62624E+06    -169.239E+03    -51.1883E-03     100.894E-03    -49.7061E-03     46.1113E-03    -51.3496E-03     100.589E-03    -49.5291E-03     45.8091E-03
            2051     6.85241E-03     22.8773E-03    -49.4963E+06    -107.819E+06    -11.4483E+06     1.48911E+06    -51.0865E-03     100.635E-03    -49.5485E-03     43.0038E-03    -51.2090E-03     100.232E-03    -49.3776E-03     42.7645E-03
            2052     5.99749E-03     22.8358E-03    -55.2037E+06    -126.192E+06    -20.5432E+06     774.718E+03    -50.7566E-03     100.124E-03    -49.3673E-03     38.8246E-03    -50.8507E-03     99.6338E-03    -49.2070E-03     38.6145E-03
            2053     5.14137E-03     22.7978E-03    -60.1939E+06    -138.582E+06    -27.0121E+06     2.11328E+06    -50.3128E-03     99.4992E-03    -49.1864E-03     34.3113E-03    -50.3891E-03     98.9484E-03    -49.0333E-03     34.1557E-03
            2054     4.28553E-03     22.7651E-03    -65.3224E+06    -153.418E+06    -37.2841E+06     2.27504E+06    -49.7359E-03     98.7472E-03    -49.0113E-03     29.4099E-03    -49.7865E-03     98.1301E-03    -48.8806E-03     29.2940E-03
            2055     3.42860E-03     22.7370E-03    -72.5584E+06    -166.256E+06    -49.2367E+06     895.520E+03    -49.1649E-03     98.0477E-03    -48.8828E-03     24.2906E-03    -49.1949E-03     97.3743E-03    -48.7827E-03     24.1960E-03
            2056     2.57166E-03     22.7148E-03    -77.9461E+06    -175.013E+06    -60.0626E+06     937.169E+03    -48.8637E-03     97.6775E-03    -48.8138E-03     18.8382E-03    -48.8722E-03     96.9648E-03    -48.7474E-03     18.7728E-03
            2057     1.71411E-03     22.6984E-03    -83.5287E+06    -184.744E+06    -73.2402E+06     513.526E+03    -48.8462E-03     97.5915E-03    -48.7453E-03     13.0366E-03    -48.8539E-03     96.8606E-03    -48.7225E-03     12.9833E-03
            2058     857.201E-06     22.6886E-03    -88.4214E+06    -193.382E+06    -86.3620E+06     566.568E+03    -48.8091E-03     97.4069E-03    -48.5977E-03     7.03442E-03    -48.7989E-03     96.7195E-03    -48.6209E-03     7.01024E-03
            2059     16.2358E-03     22.3555E-03    -5.03447E+06     91.2712E+06     70.0605E+06     2.96379E+06    -55.7844E-03     107.516E-03    -51.7319E-03     27.7228E-03    -56.1277E-03     107.963E-03    -51.5067E-03     27.3501E-03
            2060     15.3921E-03     22.3173E-03    -5.65069E+06     90.3620E+06     60.3700E+06     646.188E+03    -57.2574E-03     108.659E-03    -51.4021E-03     35.1593E-03    -57.6173E-03     109.145E-03    -51.2230E-03     34.6682E-03
            2061     14.5427E-03     22.2767E-03    -12.0126E+06     82.0118E+06     53.0792E+06    -467.193E+03    -55.9599E-03     107.034E-03    -51.0738E-03     41.9660E-03    -56.3418E-03     107.510E-03    -50.9099E-03     41.4773E-03
            2062     13.6897E-03     22.2314E-03    -16.8132E+06     77.5699E+06     49.0075E+06     2.69310E+06    -54.4878E-03     105.294E-03    -50.8058E-03     44.1948E-03    -54.8888E-03     105.768E-03    -50.6489E-03     43.7557E-03
            2063     12.8384E-03     22.1866E-03    -21.4447E+06     43.1973E+06     35.0100E+06     2.21745E+06    -53.3195E-03     103.910E-03    -50.5908E-03     48.7962E-03    -53.6813E-03     104.248E-03    -50.4472E-03     48.3666E-03
            2064     11.9804E-03     22.1317E-03    -24.2960E+06     6.17597E+06     28.7266E+06    -156.427E+03    -53.2049E-03     103.646E-03    -50.4412E-03     51.6461E-03    -53.5224E-03     103.816E-03    -50.2713E-03     51.1880E-03
            2065     11.1268E-03     22.0797E-03    -25.4003E+06    -7.71137E+06     28.0679E+06     1.22512E+06    -53.3296E-03     103.590E-03    -50.2606E-03     51.1353E-03    -53.6236E-03     103.685E-03    -50.0722E-03     50.7015E-03
            2066     10.2767E-03     22.0256E-03    -33.1426E+06    -28.9129E+06     19.9012E+06     3.21404E+06    -52.9283E-03     102.972E-03    -50.0438E-03     51.7884E-03    -53.2049E-03     102.971E-03    -49.8543E-03     51.4101E-03
            2067     9.42093E-03     21.9762E-03    -38.2551E+06    -52.3778E+06     8.89435E+06     1.77398E+06    -52.0348E-03     101.871E-03    -49.8360E-03     51.6451E-03    -52.2685E-03     101.757E-03    -49.6601E-03     51.2926E-03
            2068     8.56451E-03     21.9250E-03    -40.1362E+06    -75.1117E+06     1.75411E+06    -149.904E+03    -51.5162E-03     101.191E-03    -49.6746E-03     49.5899E-03    -51.6941E-03     100.955E-03    -49.4988E-03     49.2561E-03
            2069     7.71077E-03     21.8753E-03    -45.5471E+06    -91.9472E+06    -4.23318E+06    -996.533E+03    -51.4342E-03     100.941E-03    -49.5069E-03     45.4331E-03    -51.5865E-03     100.618E-03    -49.3287E-03     45.1231E-03
            2070     6.85513E-03     21.8305E-03    -50.7010E+06    -107.592E+06    -11.5202E+06     1.06945E+06    -50.9976E-03     100.310E-03    -49.3120E-03     41.4257E-03    -51.1230E-03     99.9067E-03    -49.1401E-03     41.1861E-03
            2071     5.99866E-03     21.7884E-03    -56.4684E+06    -125.780E+06    -20.9145E+06     1.97822E+06    -50.4943E-03     99.6102E-03    -49.1159E-03     37.5584E-03    -50.5923E-03     99.1221E-03    -48.9562E-03     37.3720E-03
            2072     5.14314E-03     21.7517E-03    -63.0234E+06    -140.439E+06    -28.8499E+06     1.90290E+06    -50.0763E-03     99.0042E-03    -48.9279E-03     33.2356E-03    -50.1593E-03     98.4487E-03    -48.7771E-03     33.0866E-03
            2073     4.28645E-03     21.7193E-03    -68.1719E+06    -151.713E+06    -38.3784E+06     2.75108E+06    -49.5335E-03     98.2716E-03    -48.7381E-03     28.5207E-03    -49.5965E-03     97.6660E-03    -48.6111E-03     28.4166E-03
            2074     3.42971E-03     21.6926E-03    -71.8130E+06    -163.991E+06    -50.6709E+06     1.61305E+06    -49.0365E-03     97.6065E-03    -48.5700E-03     23.4437E-03    -49.0622E-03     96.9436E-03    -48.4814E-03     23.3528E-03
            2075     2.57203E-03     21.6703E-03    -77.2672E+06    -175.584E+06    -62.0126E+06     277.810E+03    -48.6170E-03     97.0814E-03    -48.4644E-03     17.9581E-03    -48.6173E-03     96.3665E-03    -48.4079E-03     17.8804E-03
            2076     1.71481E-03     21.6542E-03    -84.7014E+06    -184.376E+06    -72.5591E+06     487.088E+03    -48.4310E-03     96.8419E-03    -48.4109E-03     12.3469E-03    -48.4443E-03     96.1124E-03    -48.3835E-03     12.3019E-03
            2077     857.479E-06     21.6436E-03    -89.2704E+06    -192.003E+06    -83.3450E+06     98.3905E+03    -48.6402E-03     96.7661E-03    -48.1259E-03     6.58805E-03    -48.6376E-03     96.0835E-03    -48.1347E-03     6.56450E-03
            2078     16.2479E-03     21.2909E-03    -8.75137E+06     89.0646E+06     67.1070E+06     753.537E+03    -57.4632E-03     109.054E-03    -51.5904E-03     27.9538E-03    -57.8070E-03     109.487E-03    -51.3713E-03     27.5545E-03
            2079     15.3947E-03     21.2642E-03    -632.702E+03     94.5620E+06     67.6033E+06     5.05507E+06    -56.0408E-03     107.312E-03    -51.2714E-03     34.2017E-03    -56.3818E-03     107.790E-03    -51.0696E-03     33.7933E-03
            2080     14.5400E-03     21.2210E-03    -6.58325E+06     82.9379E+06     55.9325E+06     3.65421E+06    -54.6178E-03     105.610E-03    -50.9925E-03     41.6206E-03    -54.9712E-03     106.073E-03    -50.8235E-03     41.2099E-03
            2081     13.6896E-03     21.1780E-03    -17.0191E+06     69.6797E+06     43.4820E+06     579.294E+03    -54.2325E-03     104.981E-03    -50.7486E-03     44.3797E-03    -54.6122E-03     105.422E-03    -50.6076E-03     43.9227E-03
            2082     12.8348E-03     21.1349E-03    -17.2529E+06     47.6189E+06     40.5490E+06     1.55116E+06    -54.2741E-03     104.812E-03    -50.5383E-03     48.6260E-03    -54.6310E-03     105.160E-03    -50.3796E-03     48.1741E-03
            2083     11.9857E-03     21.0804E-03    -22.6022E+06     17.2340E+06     36.3963E+06     1.43346E+06    -53.2184E-03     103.573E-03    -50.3546E-03     51.6253E-03    -53.5522E-03     103.782E-03    -50.1649E-03     51.1898E-03
            2084     11.1322E-03     21.0288E-03    -28.8401E+06    -11.1327E+06     24.3478E+06     1.09736E+06    -52.3439E-03     102.521E-03    -50.1768E-03     52.3484E-03    -52.6404E-03     102.605E-03    -49.9971E-03     51.9350E-03
            2085     10.2735E-03     20.9771E-03    -29.3820E+06    -35.2395E+06     17.9928E+06     144.741E+03    -52.5739E-03     102.588E-03    -50.0144E-03     52.0044E-03    -52.8149E-03     102.548E-03    -49.8308E-03     51.6019E-03
            2086     9.41931E-03     20.9263E-03    -33.2529E+06    -51.7223E+06     13.3137E+06     380.839E+03    -52.8249E-03     102.627E-03    -49.8022E-03     49.5954E-03    -53.0363E-03     102.498E-03    -49.6124E-03     49.2227E-03
            2087     8.56716E-03     20.8757E-03    -37.8564E+06    -69.8842E+06     5.12648E+06     2.04588E+06    -52.4714E-03     102.008E-03    -49.5361E-03     47.8670E-03    -52.6493E-03     101.788E-03    -49.3542E-03     47.5550E-03
            2088     7.71134E-03     20.8273E-03    -44.2223E+06    -93.5032E+06    -6.06405E+06     459.144E+03    -51.8026E-03     101.065E-03    -49.2625E-03     44.6190E-03    -51.9427E-03     100.734E-03    -49.0932E-03     44.3298E-03
            2089     6.85670E-03     20.7830E-03    -50.4525E+06    -111.999E+06    -12.4956E+06     1.51471E+06    -51.0119E-03     100.036E-03    -49.0241E-03     40.4488E-03    -51.1275E-03     99.6113E-03    -48.8511E-03     40.2172E-03
            2090     6.00125E-03     20.7428E-03    -55.8170E+06    -123.020E+06    -20.1331E+06     3.20038E+06    -50.2673E-03     99.0661E-03    -48.7988E-03     36.8285E-03    -50.3657E-03     98.5881E-03    -48.6401E-03     36.6619E-03
            2091     5.14429E-03     20.7055E-03    -61.4148E+06    -140.448E+06    -30.9651E+06     1.54382E+06    -49.7621E-03     98.3519E-03    -48.5898E-03     32.1489E-03    -49.8333E-03     97.7965E-03    -48.4519E-03     31.9988E-03
            2092     4.28779E-03     20.6750E-03    -65.4520E+06    -152.706E+06    -38.2635E+06     1.62625E+06    -49.3476E-03     97.7407E-03    -48.3931E-03     27.3461E-03    -49.3964E-03     97.1267E-03    -48.2681E-03     27.2333E-03
            2093     3.43078E-03     20.6474E-03    -71.4892E+06    -162.322E+06    -48.5898E+06     2.26380E+06    -48.9915E-03     97.1622E-03    -48.1707E-03     22.3030E-03    -49.0210E-03     96.5043E-03    -48.0746E-03     22.2271E-03
            2094     2.57418E-03     20.6272E-03    -78.0264E+06    -174.571E+06    -61.2541E+06     1.11634E+06    -48.5235E-03     96.4612E-03    -47.9377E-03     16.9332E-03    -48.5317E-03     95.7524E-03    -47.8777E-03     16.8692E-03
            2095     1.71613E-03     20.6105E-03    -83.4690E+06    -183.274E+06    -72.7404E+06     470.824E+03    -47.9488E-03     95.7078E-03    -47.7589E-03     11.6585E-03    -47.9582E-03     94.9832E-03    -47.7359E-03     11.6125E-03
            2096     857.934E-06     20.6009E-03    -89.6113E+06    -192.211E+06    -84.6586E+06     1.24304E+06    -47.7306E-03     95.3876E-03    -47.6570E-03     6.43343E-03    -47.7205E-03     94.7094E-03    -47.6717E-03     6.41122E-03
            2097     16.2441E-03     20.2388E-03    -5.08972E+06     87.4664E+06     67.7575E+06    -3.98012E+06    -57.3621E-03     108.866E-03    -51.5041E-03     29.0241E-03    -57.6851E-03     109.284E-03    -51.2848E-03     28.5522E-03
            2098     15.3937E-03     20.2064E-03    -5.55440E+06     85.5434E+06     65.7752E+06     1.15558E+06    -55.6907E-03     106.895E-03    -51.2046E-03     33.3745E-03    -56.0332E-03     107.331E-03    -50.9917E-03     32.9344E-03
            2099     14.5456E-03     20.1689E-03    -6.66508E+06     82.1371E+06     58.7697E+06     7.08939E+06    -53.8792E-03     104.835E-03    -50.9560E-03     39.5407E-03    -54.2279E-03     105.282E-03    -50.7716E-03     39.1945E-03
            2100     13.6880E-03     20.1270E-03    -7.88323E+06     77.3211E+06     53.8008E+06     5.71180E+06    -53.5013E-03     104.268E-03    -50.7665E-03     44.7122E-03    -53.8570E-03     104.714E-03    -50.5982E-03     44.3367E-03
            2101     12.8392E-03     20.0780E-03    -15.7192E+06     48.4864E+06     43.1304E+06     2.75606E+06    -53.9127E-03     104.488E-03    -50.5756E-03     49.3063E-03    -54.2636E-03     104.830E-03    -50.4075E-03     48.8816E-03
            2102     11.9836E-03     20.0316E-03    -22.8412E+06     14.6479E+06     32.9805E+06     2.77856E+06    -53.2885E-03     103.672E-03    -50.3838E-03     52.8977E-03    -53.6113E-03     103.870E-03    -50.2070E-03     52.4928E-03
            2103     11.1264E-03     19.9792E-03    -24.8042E+06    -7.47804E+06     27.4613E+06     514.668E+03    -53.4762E-03     103.658E-03    -50.1819E-03     52.9679E-03    -53.7591E-03     103.747E-03    -49.9978E-03     52.5460E-03
            2104     10.2757E-03     19.9270E-03    -29.1496E+06    -33.8327E+06     18.9898E+06    -132.953E+03    -53.7433E-03     103.663E-03    -49.9200E-03     49.3587E-03    -53.9819E-03     103.623E-03    -49.7338E-03     48.9425E-03
            2105     9.42350E-03     19.8745E-03    -33.2719E+06    -53.9103E+06     12.1984E+06     1.02772E+06    -53.1750E-03     102.796E-03    -49.6209E-03     47.3861E-03    -53.3782E-03     102.654E-03    -49.4334E-03     47.0219E-03
            2106     8.56794E-03     19.8279E-03    -37.8210E+06    -70.6025E+06     4.54052E+06     1.56534E+06    -52.7266E-03     102.029E-03    -49.3026E-03     46.1328E-03    -52.8988E-03     101.803E-03    -49.1226E-03     45.8173E-03
            2107     7.71459E-03     19.7781E-03    -44.1923E+06    -92.0293E+06    -4.61531E+06     3.01016E+06    -51.8562E-03     100.845E-03    -48.9887E-03     42.7018E-03    -51.9956E-03     100.514E-03    -48.8143E-03     42.4471E-03
            2108     6.85893E-03     19.7372E-03    -49.2924E+06    -112.282E+06    -13.0084E+06     2.37161E+06    -50.9917E-03     99.6918E-03    -48.7001E-03     38.8667E-03    -51.0977E-03     99.2620E-03    -48.5308E-03     38.6503E-03
            2109     6.00268E-03     19.6960E-03    -54.1588E+06    -124.448E+06    -20.7334E+06     2.72400E+06    -50.3508E-03     98.7717E-03    -48.4209E-03     35.2811E-03    -50.4358E-03     98.2829E-03    -48.2656E-03     35.1173E-03
            2110     5.14685E-03     19.6615E-03    -57.4486E+06    -138.392E+06    -28.8548E+06     1.90650E+06    -49.6629E-03     97.8167E-03    -48.1538E-03     30.5430E-03    -49.7176E-03     97.2601E-03    -48.0141E-03     30.4036E-03
            2111     4.28989E-03     19.6295E-03    -63.8438E+06    -153.012E+06    -37.3265E+06     961.914E+03    -49.1234E-03     97.0236E-03    -47.9003E-03     25.8774E-03    -49.1623E-03     96.4017E-03    -47.7725E-03     25.7563E-03
            2112     3.43292E-03     19.6046E-03    -70.9744E+06    -161.493E+06    -45.4557E+06     2.47025E+06    -48.6265E-03     96.2617E-03    -47.6352E-03     21.0307E-03    -48.6559E-03     95.5995E-03    -47.5254E-03     20.9585E-03
            2113     2.57501E-03     19.5830E-03    -77.9289E+06    -172.058E+06    -58.4244E+06     2.44085E+06    -48.1172E-03     95.4550E-03    -47.3378E-03     15.9451E-03    -48.1281E-03     94.7500E-03    -47.2675E-03     15.9022E-03
            2114     1.71767E-03     19.5696E-03    -84.4715E+06    -181.952E+06    -71.3601E+06     1.71915E+06    -47.5531E-03     94.5860E-03    -47.0329E-03     11.0055E-03    -47.5668E-03     93.8621E-03    -47.0034E-03     10.9817E-03
            2115     858.957E-06     19.5588E-03    -89.4126E+06    -191.719E+06    -86.2639E+06     2.34719E+06    -46.9057E-03     93.7409E-03    -46.8353E-03     6.02816E-03    -46.8947E-03     93.0698E-03    -46.8589E-03     6.02495E-03
            2116     16.2457E-03     19.1769E-03    -4.68420E+06     86.9995E+06     67.3604E+06    -3.30945E+06    -56.6911E-03     108.206E-03    -51.5153E-03     27.8670E-03    -57.0174E-03     108.630E-03    -51.2979E-03     27.4016E-03
            2117     15.3978E-03     19.1522E-03    -12.4721E+06     78.3701E+06     56.1573E+06    -3.52872E+06    -55.1615E-03     106.385E-03    -51.2231E-03     34.1442E-03    -55.5166E-03     106.811E-03    -51.0379E-03     33.6511E-03
            2118     14.5408E-03     19.1162E-03    -13.8575E+06     77.6002E+06     53.8303E+06     1.78288E+06    -54.0423E-03     105.050E-03    -51.0080E-03     41.6728E-03    -54.4121E-03     105.490E-03    -50.8313E-03     41.2655E-03
            2119     13.6914E-03     19.0752E-03    -9.26391E+06     81.7299E+06     55.2153E+06     9.25232E+06    -53.4670E-03     104.298E-03    -50.8309E-03     47.0542E-03    -53.8343E-03     104.762E-03    -50.6599E-03     46.7414E-03
            2120     12.8324E-03     19.0263E-03    -11.0742E+06     48.9963E+06     42.8209E+06     5.64255E+06    -53.8870E-03     104.523E-03    -50.6364E-03     48.8739E-03    -54.2100E-03     104.857E-03    -50.4773E-03     48.4940E-03
            2121     11.9799E-03     18.9809E-03    -15.0424E+06     14.4166E+06     36.7274E+06     93.5042E+03    -55.0242E-03     105.425E-03    -50.4006E-03     48.6117E-03    -55.3106E-03     105.602E-03    -50.2160E-03     48.1441E-03
            2122     11.1313E-03     18.9254E-03    -23.7904E+06    -3.82929E+06     30.7224E+06     1.75947E+06    -54.9730E-03     105.043E-03    -50.0697E-03     49.1364E-03    -55.2572E-03     105.140E-03    -49.8761E-03     48.7144E-03
            2123     10.2794E-03     18.8741E-03    -33.1097E+06    -34.1400E+06     16.1035E+06     2.01848E+06    -54.0313E-03     103.732E-03    -49.7006E-03     47.5455E-03    -54.2807E-03     103.696E-03    -49.5225E-03     47.1619E-03
            2124     9.42384E-03     18.8278E-03    -32.9127E+06    -54.1122E+06     11.1096E+06     1.68450E+06    -53.5469E-03     102.898E-03    -49.3513E-03     46.5465E-03    -53.7432E-03     102.753E-03    -49.1696E-03     46.1919E-03
            2125     8.57140E-03     18.7757E-03    -39.2671E+06    -73.3427E+06     3.38513E+06     3.04780E+06    -52.8674E-03     101.851E-03    -48.9839E-03     43.8223E-03    -53.0366E-03     101.611E-03    -48.8036E-03     43.5291E-03
            2126     7.71664E-03     18.7327E-03    -44.5234E+06    -92.9974E+06    -5.37491E+06     3.58179E+06    -51.8362E-03     100.456E-03    -48.6201E-03     40.4219E-03    -51.9713E-03     100.119E-03    -48.4475E-03     40.1867E-03
            2127     6.86126E-03     18.6893E-03    -46.1352E+06    -109.309E+06    -11.5402E+06     3.02489E+06    -51.2094E-03     99.4767E-03    -48.2673E-03     36.9257E-03    -51.3040E-03     99.0531E-03    -48.0996E-03     36.7259E-03
            2128     6.00639E-03     18.6515E-03    -50.2931E+06    -123.434E+06    -17.8585E+06     2.79047E+06    -50.4462E-03     98.3542E-03    -47.9080E-03     32.7261E-03    -50.5151E-03     97.8584E-03    -47.7454E-03     32.5637E-03
            2129     5.14964E-03     18.6160E-03    -57.4762E+06    -137.435E+06    -26.7511E+06     2.89762E+06    -49.5201E-03     97.0743E-03    -47.5542E-03     28.4521E-03    -49.5778E-03     96.5178E-03    -47.4053E-03     28.3329E-03
            2130     4.29293E-03     18.5871E-03    -65.3870E+06    -151.719E+06    -38.9896E+06     1.98327E+06    -48.7279E-03     95.9370E-03    -47.2091E-03     23.9979E-03    -48.7736E-03     95.3258E-03    -47.0893E-03     23.9001E-03
            2131     3.43518E-03     18.5609E-03    -70.8562E+06    -162.622E+06    -48.1026E+06     1.61109E+06    -47.8791E-03     94.7894E-03    -46.9103E-03     19.4231E-03    -47.9046E-03     94.1272E-03    -46.8122E-03     19.3469E-03
            2132     2.57739E-03     18.5424E-03    -76.5882E+06    -170.344E+06    -57.7161E+06     2.89181E+06    -47.2751E-03     93.9247E-03    -46.6496E-03     14.8531E-03    -47.2884E-03     93.2308E-03    -46.5801E-03     14.8212E-03
            2133     1.71817E-03     18.5274E-03    -83.8462E+06    -179.663E+06    -69.5112E+06     3.00142E+06    -46.8929E-03     93.2614E-03    -46.3686E-03     10.1481E-03    -46.9153E-03     92.5515E-03    -46.3340E-03     10.1421E-03
            2134     859.982E-06     18.5198E-03    -88.8224E+06    -189.113E+06    -83.6726E+06     2.27590E+06    -46.2828E-03     92.3842E-03    -46.1014E-03     5.66161E-03    -46.2853E-03     91.7230E-03    -46.1167E-03     5.66806E-03
            2135     16.2453E-03     18.1227E-03    -1.21819E+06     88.8854E+06     69.3888E+06     277.684E+03    -55.2852E-03     106.869E-03    -51.5843E-03     26.3459E-03    -55.5963E-03     107.291E-03    -51.3645E-03     25.9555E-03
            2136     15.3878E-03     18.0987E-03    -14.1514E+06     75.6798E+06     52.7739E+06    -1.37652E+06    -54.2541E-03     105.600E-03    -51.3461E-03     33.4579E-03    -54.6065E-03     106.018E-03    -51.1714E-03     33.0083E-03
            2137     14.5402E-03     18.0611E-03    -16.6016E+06     74.3450E+06     50.6676E+06    -3.48420E+06    -54.9045E-03     106.045E-03    -51.1406E-03     40.2134E-03    -55.2788E-03     106.478E-03    -50.9710E-03     39.7252E-03
            2138     13.6844E-03     18.0232E-03    -19.9871E+06     72.0034E+06     46.7951E+06    -1.79174E+06    -55.2413E-03     106.121E-03    -50.8793E-03     44.1836E-03    -55.6358E-03     106.564E-03    -50.7208E-03     43.6996E-03
            2139     12.8364E-03     17.9738E-03    -18.1135E+06     54.0730E+06     43.3837E+06     3.97891E+06    -55.8092E-03     106.386E-03    -50.5768E-03     46.1601E-03    -56.1741E-03     106.753E-03    -50.4120E-03     45.7340E-03
            2140     11.9872E-03     17.9240E-03    -19.9741E+06     20.3244E+06     36.5091E+06     3.81010E+06    -56.2425E-03     106.453E-03    -50.2106E-03     46.8934E-03    -56.5589E-03     106.665E-03    -50.0285E-03     46.4650E-03
            2141     11.1345E-03     17.8736E-03    -24.1697E+06    -7.49031E+06     28.2160E+06     3.36381E+06    -55.1552E-03     104.960E-03    -49.8044E-03     46.9410E-03    -55.4258E-03     105.036E-03    -49.6174E-03     46.5446E-03
            2142     10.2786E-03     17.8257E-03    -26.1793E+06    -29.3867E+06     21.7622E+06     2.04784E+06    -54.2823E-03     103.692E-03    -49.4101E-03     45.2663E-03    -54.5043E-03     103.654E-03    -49.2208E-03     44.8882E-03
            2143     9.42858E-03     17.7741E-03    -35.3864E+06    -56.4891E+06     9.29888E+06     2.17998E+06    -54.0969E-03     103.074E-03    -48.9775E-03     43.4182E-03    -54.2920E-03     102.916E-03    -48.7978E-03     43.0753E-03
            2144     8.57519E-03     17.7291E-03    -37.4712E+06    -74.9253E+06     3.09037E+06     3.25276E+06    -53.1091E-03     101.636E-03    -48.5268E-03     40.5017E-03    -53.2598E-03     101.379E-03    -48.3484E-03     40.2210E-03
            2145     7.72025E-03     17.6845E-03    -39.4123E+06    -91.1545E+06    -3.09920E+06     2.80064E+06    -52.1673E-03     100.244E-03    -48.0765E-03     37.0481E-03    -52.2760E-03     99.8982E-03    -47.9027E-03     36.8089E-03
            2146     6.86609E-03     17.6432E-03    -45.4716E+06    -109.252E+06    -10.0847E+06     3.48034E+06    -51.2863E-03     98.9143E-03    -47.6279E-03     33.5749E-03    -51.3728E-03     98.4809E-03    -47.4540E-03     33.3897E-03
            2147     6.01021E-03     17.6058E-03    -51.2720E+06    -122.988E+06    -17.6002E+06     4.12244E+06    -50.2536E-03     97.4257E-03    -47.1720E-03     29.6120E-03    -50.3234E-03     96.9280E-03    -47.0073E-03     29.4809E-03
            2148     5.15413E-03     17.5735E-03    -57.5815E+06    -135.695E+06    -26.5028E+06     4.93105E+06    -49.1472E-03     95.8776E-03    -46.7305E-03     25.7074E-03    -49.2048E-03     95.3262E-03    -46.5827E-03     25.6251E-03
            2149     4.29671E-03     17.5438E-03    -63.0212E+06    -149.628E+06    -37.2251E+06     4.45028E+06    -47.9519E-03     94.2871E-03    -46.3352E-03     21.6620E-03    -47.9889E-03     93.6778E-03    -46.2130E-03     21.6037E-03
            2150     3.43867E-03     17.5214E-03    -69.9540E+06    -162.427E+06    -49.8925E+06     2.98339E+06    -46.9734E-03     92.9854E-03    -46.0119E-03     17.6880E-03    -46.9887E-03     92.3220E-03    -45.9245E-03     17.6417E-03
            2151     2.57876E-03     17.5018E-03    -75.9864E+06    -169.871E+06    -59.0582E+06     2.42545E+06    -46.2992E-03     92.0714E-03    -45.7723E-03     13.5578E-03    -46.3012E-03     91.3742E-03    -45.7111E-03     13.5301E-03
            2152     1.72009E-03     17.4886E-03    -81.0934E+06    -177.615E+06    -69.6093E+06     1.82026E+06    -45.7855E-03     91.3838E-03    -45.5983E-03     9.00639E-03    -45.7911E-03     90.6739E-03    -45.5712E-03     8.98878E-03
            2153     859.412E-06     17.4808E-03    -86.4507E+06    -185.158E+06    -79.6999E+06     792.854E+03    -45.6351E-03     91.0456E-03    -45.4105E-03     4.89509E-03    -45.6353E-03     90.3831E-03    -45.4151E-03     4.88571E-03
            2154     16.2415E-03     17.0724E-03     3.38898E+06     90.0479E+06     74.6513E+06     3.23840E+06    -54.9499E-03     106.643E-03    -51.6928E-03     23.8027E-03    -55.2444E-03     107.053E-03    -51.4550E-03     23.4587E-03
            2155     15.3934E-03     17.0414E-03    -8.49783E+06     78.6434E+06     59.8367E+06     435.527E+03    -55.2878E-03     106.732E-03    -51.4437E-03     32.2075E-03    -55.6251E-03     107.144E-03    -51.2463E-03     31.7711E-03
            2156     14.5371E-03     17.0096E-03    -14.6963E+06     76.7732E+06     52.8007E+06    -4.69718E+06    -56.4802E-03     107.626E-03    -51.1454E-03     37.1033E-03    -56.8478E-03     108.060E-03    -50.9714E-03     36.5775E-03
            2157     13.6907E-03     16.9639E-03    -18.1590E+06     67.4074E+06     45.6429E+06    -6.05883E+06    -57.0449E-03     107.814E-03    -50.7689E-03     41.0055E-03    -57.4187E-03     108.230E-03    -50.6121E-03     40.4423E-03
            2158     12.8390E-03     16.9209E-03    -22.8736E+06     48.8033E+06     39.1033E+06     157.663E+03    -56.8318E-03     107.189E-03    -50.3576E-03     44.8029E-03    -57.1993E-03     107.536E-03    -50.1997E-03     44.3290E-03
            2159     11.9859E-03     16.8680E-03    -23.6083E+06     20.9179E+06     34.1990E+06     3.69114E+06    -56.3492E-03     106.283E-03    -49.9338E-03     45.2862E-03    -56.6703E-03     106.496E-03    -49.7589E-03     44.8716E-03
            2160     11.1357E-03     16.8229E-03    -25.4187E+06    -8.40551E+06     27.5036E+06     2.53237E+06    -56.0659E-03     105.534E-03    -49.4680E-03     43.2441E-03    -56.3301E-03     105.598E-03    -49.2814E-03     42.8362E-03
            2161     10.2877E-03     16.7721E-03    -29.4562E+06    -28.1138E+06     21.0951E+06     4.74232E+06    -55.3316E-03     104.288E-03    -48.9567E-03     42.2984E-03    -55.5617E-03     104.253E-03    -48.7678E-03     41.9604E-03
            2162     9.43326E-03     16.7259E-03    -32.5738E+06    -54.5726E+06     10.1549E+06     3.03620E+06    -54.3693E-03     102.785E-03    -48.4155E-03     40.1650E-03    -54.5442E-03     102.621E-03    -48.2384E-03     39.8485E-03
            2163     8.57970E-03     16.6793E-03    -36.3511E+06    -75.1311E+06     3.89263E+06     1.36512E+06    -53.6524E-03     101.518E-03    -47.8654E-03     36.6819E-03    -53.7890E-03     101.248E-03    -47.6843E-03     36.3847E-03
            2164     7.72758E-03     16.6375E-03    -41.6849E+06    -89.7536E+06    -2.55519E+06     4.13878E+06    -52.5733E-03     99.8535E-03    -47.2802E-03     33.0901E-03    -52.6884E-03     99.5095E-03    -47.1024E-03     32.8801E-03
            2165     6.87229E-03     16.5980E-03    -46.7968E+06    -110.303E+06    -12.0714E+06     4.01066E+06    -51.1108E-03     97.8084E-03    -46.6976E-03     29.6643E-03    -51.1932E-03     97.3684E-03    -46.5302E-03     29.5030E-03
            2166     6.01645E-03     16.5625E-03    -51.9838E+06    -124.713E+06    -19.5079E+06     3.79941E+06    -49.6484E-03     95.8060E-03    -46.1576E-03     25.9234E-03    -49.7112E-03     95.2983E-03    -45.9989E-03     25.7994E-03
            2167     5.15966E-03     16.5307E-03    -56.7146E+06    -135.125E+06    -26.6139E+06     5.71941E+06    -48.1684E-03     93.8452E-03    -45.6768E-03     22.5903E-03    -48.2167E-03     93.2898E-03    -45.5317E-03     22.5300E-03
            2168     4.30145E-03     16.5048E-03    -61.2320E+06    -147.845E+06    -36.7519E+06     6.24366E+06    -46.8729E-03     92.1446E-03    -45.2718E-03     19.3361E-03    -46.9004E-03     91.5371E-03    -45.1524E-03     19.3176E-03
            2169     3.44157E-03     16.4819E-03    -67.3943E+06    -158.638E+06    -48.1724E+06     5.53401E+06    -46.0280E-03     90.9599E-03    -44.9319E-03     15.8713E-03    -46.0376E-03     90.3083E-03    -44.8451E-03     15.8687E-03
            2170     2.58284E-03     16.4643E-03    -73.5404E+06    -167.423E+06    -58.9852E+06     3.36038E+06    -45.2619E-03     89.9164E-03    -44.6545E-03     11.8847E-03    -45.2553E-03     89.2279E-03    -44.6000E-03     11.8748E-03
            2171     1.72119E-03     16.4516E-03    -78.9365E+06    -175.421E+06    -69.3473E+06     749.075E+03    -44.6495E-03     89.1215E-03    -44.4720E-03     7.78857E-03    -44.6502E-03     88.4216E-03    -44.4499E-03     7.76887E-03
            2172     861.048E-06     16.4438E-03    -84.0136E+06    -183.179E+06    -80.6802E+06    -866.214E+03    -44.5402E-03     88.7980E-03    -44.2578E-03     4.21986E-03    -44.5373E-03     88.1414E-03    -44.2738E-03     4.19297E-03
            2173     16.2419E-03     16.0152E-03    -2.01015E+06     89.6113E+06     72.3983E+06     2.27391E+06    -56.2221E-03     107.923E-03    -51.7009E-03     20.6357E-03    -56.5371E-03     108.339E-03    -51.4659E-03     20.2662E-03
            2174     15.3870E-03     15.9876E-03    -4.40842E+06     86.1832E+06     66.0112E+06     710.625E+03    -56.7079E-03     108.100E-03    -51.3918E-03     29.9485E-03    -57.0429E-03     108.534E-03    -51.1803E-03     29.4989E-03
            2175     14.5433E-03     15.9490E-03    -10.8455E+06     77.1337E+06     53.3180E+06    -1.36499E+06    -57.3892E-03     108.392E-03    -51.0031E-03     36.2759E-03    -57.7348E-03     108.818E-03    -50.8326E-03     35.7930E-03
            2176     13.6909E-03     15.9103E-03    -16.4967E+06     65.5354E+06     44.1298E+06    -1.25328E+06    -58.2071E-03     108.757E-03    -50.5499E-03     40.4036E-03    -58.5625E-03     109.159E-03    -50.4004E-03     39.9025E-03
            2177     12.8421E-03     15.8634E-03    -23.1586E+06     47.3224E+06     39.4905E+06    -2.02444E+06    -58.1450E-03     108.197E-03    -50.0515E-03     41.3650E-03    -58.5021E-03     108.525E-03    -49.8891E-03     40.8622E-03
            2178     11.9943E-03     15.8165E-03    -27.5282E+06     18.1985E+06     32.3608E+06    -1.52545E+06    -57.1970E-03     106.715E-03    -49.5181E-03     40.8575E-03    -57.5184E-03     106.910E-03    -49.3428E-03     40.3823E-03
            2179     11.1434E-03     15.7668E-03    -26.1600E+06    -9.39060E+06     26.0350E+06     877.756E+03    -56.6985E-03     105.650E-03    -48.9511E-03     39.8969E-03    -56.9518E-03     105.701E-03    -48.7694E-03     39.4805E-03
            2180     10.2903E-03     15.7219E-03    -25.8545E+06    -28.9479E+06     21.5053E+06     2.25708E+06    -56.2646E-03     104.593E-03    -48.3283E-03     38.3445E-03    -56.4656E-03     104.537E-03    -48.1413E-03     37.9822E-03
            2181     9.44016E-03     15.6751E-03    -30.5340E+06    -51.9055E+06     13.0668E+06     2.85477E+06    -55.2304E-03     102.882E-03    -47.6511E-03     35.8285E-03    -55.3935E-03     102.714E-03    -47.4662E-03     35.5174E-03
            2182     8.58912E-03     15.6309E-03    -39.4187E+06    -75.7322E+06     2.33431E+06     4.11863E+06    -53.9958E-03     100.940E-03    -46.9446E-03     32.4122E-03    -54.1366E-03     100.666E-03    -46.7659E-03     32.1678E-03
            2183     7.73457E-03     15.5910E-03    -42.8722E+06    -91.1859E+06    -4.67703E+06     4.18364E+06    -52.6001E-03     98.8229E-03    -46.2228E-03     28.7754E-03    -52.7096E-03     98.4703E-03    -46.0518E-03     28.5830E-03
            2184     6.88073E-03     15.5538E-03    -45.6488E+06    -108.188E+06    -11.7052E+06     5.05877E+06    -50.7549E-03     96.2797E-03    -45.5249E-03     25.4267E-03    -50.8290E-03     95.8419E-03    -45.3603E-03     25.2936E-03
            2185     6.02474E-03     15.5208E-03    -50.2592E+06    -124.612E+06    -20.8172E+06     4.99801E+06    -48.6416E-03     93.5453E-03    -44.9036E-03     22.4652E-03    -48.6903E-03     93.0337E-03    -44.7542E-03     22.3758E-03
            2186     5.16605E-03     15.4919E-03    -54.8948E+06    -135.854E+06    -28.5303E+06     4.94436E+06    -47.0027E-03     91.3918E-03    -44.3891E-03     19.4965E-03    -47.0385E-03     90.8333E-03    -44.2551E-03     19.4443E-03
            2187     4.30634E-03     15.4669E-03    -59.9870E+06    -146.443E+06    -36.9639E+06     6.41119E+06    -45.8799E-03     89.8214E-03    -43.9415E-03     16.2646E-03    -45.9036E-03     89.2201E-03    -43.8270E-03     16.2580E-03
            2188     3.44697E-03     15.4454E-03    -65.1661E+06    -155.238E+06    -45.9373E+06     6.37484E+06    -44.7495E-03     88.3067E-03    -43.5572E-03     13.1059E-03    -44.7549E-03     87.6643E-03    -43.4673E-03     13.1214E-03
            2189     2.58506E-03     15.4288E-03    -70.7507E+06    -162.789E+06    -56.0008E+06     4.79822E+06    -43.8558E-03     87.1206E-03    -43.2648E-03     10.0090E-03    -43.8483E-03     86.4486E-03    -43.2062E-03     10.0272E-03
            2190     1.72466E-03     15.4173E-03    -77.5454E+06    -171.743E+06    -67.2293E+06     3.50441E+06    -43.4050E-03     86.4321E-03    -43.0271E-03     6.85542E-03    -43.4123E-03     85.7501E-03    -43.0017E-03     6.86868E-03
            2191     862.308E-06     15.4093E-03    -84.4909E+06    -181.467E+06    -80.3523E+06     560.793E+03    -43.0189E-03     85.7800E-03    -42.7611E-03     3.63291E-03    -43.0281E-03     85.1360E-03    -42.7773E-03     3.60746E-03
            2192     16.2430E-03     14.9575E-03    -5.57346E+06     89.8719E+06     70.0274E+06    -16.1407E+03    -57.6648E-03     109.273E-03    -51.6086E-03     19.8161E-03    -57.9928E-03     109.698E-03    -51.3807E-03     19.4077E-03
            2193     15.3991E-03     14.9296E-03    -7.51249E+06     87.1856E+06     62.6590E+06    -30.5475E+03    -57.8259E-03     109.042E-03    -51.2161E-03     28.9735E-03    -58.1689E-03     109.486E-03    -51.0183E-03     28.5136E-03
            2194     14.5420E-03     14.8948E-03    -9.52433E+06     78.2382E+06     53.9245E+06     1.86893E+06    -58.4833E-03     109.248E-03    -50.7648E-03     34.7208E-03    -58.8194E-03     109.672E-03    -50.5948E-03     34.2750E-03
            2195     13.6953E-03     14.8507E-03    -13.7926E+06     68.7161E+06     46.9487E+06    -367.937E+03    -59.5652E-03     109.788E-03    -50.2231E-03     37.0677E-03    -59.9070E-03     110.189E-03    -50.0680E-03     36.5699E-03
            2196     12.8492E-03     14.8058E-03    -16.3453E+06     46.0835E+06     41.5781E+06    -3.17823E+06    -59.4021E-03     109.011E-03    -49.6088E-03     37.5665E-03    -59.7164E-03     109.310E-03    -49.4441E-03     37.0465E-03
            2197     11.9994E-03     14.7617E-03    -19.5360E+06     15.4157E+06     34.2184E+06    -3.47548E+06    -58.4410E-03     107.393E-03    -48.9521E-03     38.0516E-03    -58.7109E-03     107.549E-03    -48.7750E-03     37.5548E-03
            2198     11.1494E-03     14.7151E-03    -24.0967E+06    -10.5051E+06     25.5954E+06    -2.14870E+06    -57.8162E-03     106.059E-03    -48.2432E-03     36.6976E-03    -58.0454E-03     106.092E-03    -48.0650E-03     36.2495E-03
            2199     10.3015E-03     14.6686E-03    -29.1188E+06    -31.3617E+06     20.0019E+06     1.73873E+06    -57.3079E-03     104.777E-03    -47.4690E-03     33.4377E-03    -57.5081E-03     104.705E-03    -47.2813E-03     33.0784E-03
            2200     9.45104E-03     14.6250E-03    -34.0450E+06    -52.6196E+06     10.5358E+06     4.97034E+06    -56.0247E-03     102.637E-03    -46.6125E-03     30.3679E-03    -56.1886E-03     102.463E-03    -46.4341E-03     30.1029E-03
            2201     8.59772E-03     14.5841E-03    -36.6021E+06    -74.2648E+06     2.19328E+06     4.28610E+06    -54.0929E-03     99.8421E-03    -45.7492E-03     27.2729E-03    -54.2097E-03     99.5593E-03    -45.5775E-03     27.0544E-03
            2202     7.74569E-03     14.5449E-03    -41.1468E+06    -92.3648E+06    -5.84631E+06     4.76825E+06    -52.0437E-03     96.9579E-03    -44.9142E-03     23.8476E-03    -52.1326E-03     96.5899E-03    -44.7498E-03     23.6834E-03
            2203     6.89038E-03     14.5120E-03    -42.9175E+06    -107.531E+06    -11.2291E+06     5.95389E+06    -49.8668E-03     94.0075E-03    -44.1408E-03     20.8582E-03    -49.9238E-03     93.5632E-03    -43.9788E-03     20.7573E-03
            2204     6.03239E-03     14.4819E-03    -46.9875E+06    -122.435E+06    -19.1045E+06     5.59133E+06    -47.8928E-03     91.3264E-03    -43.4336E-03     18.0814E-03    -47.9257E-03     90.8136E-03    -43.2834E-03     18.0174E-03
            2205     5.17384E-03     14.4553E-03    -54.9000E+06    -135.942E+06    -28.1450E+06     5.87460E+06    -46.1732E-03     88.9706E-03    -42.7974E-03     15.2107E-03    -46.2031E-03     88.4049E-03    -42.6614E-03     15.1791E-03
            2206     4.31452E-03     14.4311E-03    -60.1645E+06    -145.006E+06    -35.4317E+06     6.88067E+06    -44.5874E-03     86.8269E-03    -42.2395E-03     12.5465E-03    -44.6115E-03     86.2260E-03    -42.1192E-03     12.5544E-03
            2207     3.45280E-03     14.4125E-03    -64.1592E+06    -152.431E+06    -44.6813E+06     6.45447E+06    -43.1603E-03     84.9365E-03    -41.7762E-03     9.85261E-03    -43.1656E-03     84.3037E-03    -41.6855E-03     9.88107E-03
            2208     2.59061E-03     14.3971E-03    -68.6869E+06    -159.338E+06    -54.5576E+06     5.67575E+06    -42.0606E-03     83.5087E-03    -41.4481E-03     7.61562E-03    -42.0502E-03     82.8489E-03    -41.3903E-03     7.65331E-03
            2209     1.72657E-03     14.3851E-03    -75.1023E+06    -168.125E+06    -66.1163E+06     4.90342E+06    -41.4718E-03     82.7102E-03    -41.2384E-03     5.30153E-03    -41.4708E-03     82.0374E-03    -41.2163E-03     5.34355E-03
            2210     863.731E-06     14.3792E-03    -80.9054E+06    -176.111E+06    -76.1788E+06     2.26539E+06    -41.3303E-03     82.2997E-03    -40.9694E-03     2.81701E-03    -41.3277E-03     81.6686E-03    -40.9776E-03     2.83783E-03
            2211     16.2459E-03     13.8980E-03    -4.13220E+06     89.4398E+06     70.1556E+06    -67.6276E+03    -58.4055E-03     109.920E-03    -51.5142E-03     20.0734E-03    -58.7249E-03     110.339E-03    -51.2872E-03     19.6621E-03
            2212     15.3916E-03     13.8725E-03    -7.78351E+06     85.1972E+06     61.4639E+06    -217.530E+03    -59.6948E-03     110.738E-03    -51.0427E-03     29.7360E-03    -60.0344E-03     111.174E-03    -50.8477E-03     29.2613E-03
            2213     14.5518E-03     13.8352E-03    -10.0295E+06     81.9375E+06     56.5265E+06     319.791E+03    -61.2874E-03     111.743E-03    -50.4554E-03     34.4414E-03    -61.6334E-03     112.180E-03    -50.2770E-03     33.9571E-03
            2214     13.7044E-03     13.7919E-03    -8.41059E+06     73.5919E+06     51.3764E+06    -1.27860E+06    -60.7950E-03     110.563E-03    -49.7680E-03     35.1116E-03    -61.1162E-03     110.967E-03    -49.6056E-03     34.6079E-03
            2215     12.8548E-03     13.7495E-03    -11.9845E+06     42.7221E+06     41.0860E+06    -2.77381E+06    -60.0659E-03     109.114E-03    -49.0483E-03     34.8682E-03    -60.3437E-03     109.382E-03    -48.8875E-03     34.3625E-03
            2216     12.0078E-03     13.7059E-03    -20.8731E+06     12.9231E+06     31.6757E+06    -556.509E+03    -60.1790E-03     108.438E-03    -48.2586E-03     34.3386E-03    -60.4383E-03     108.577E-03    -48.0887E-03     33.8802E-03
            2217     11.1613E-03     13.6605E-03    -26.0065E+06    -11.7368E+06     23.4308E+06     172.428E+03    -59.6293E-03     106.985E-03    -47.3558E-03     32.5953E-03    -59.8536E-03     107.008E-03    -47.1839E-03     32.1823E-03
            2218     10.3115E-03     13.6164E-03    -30.3066E+06    -36.3803E+06     16.2459E+06     1.47473E+06    -58.3889E-03     104.769E-03    -46.3800E-03     29.6011E-03    -58.5727E-03     104.669E-03    -46.2021E-03     29.2527E-03
            2219     9.46192E-03     13.5752E-03    -33.1108E+06    -52.4793E+06     9.62258E+06     3.53690E+06    -56.7442E-03     102.086E-03    -45.3420E-03     25.2262E-03    -56.8923E-03     101.903E-03    -45.1698E-03     24.9555E-03
            2220     8.61240E-03     13.5375E-03    -35.7327E+06    -71.8574E+06     2.40112E+06     4.35058E+06    -54.0894E-03     98.4017E-03    -44.3123E-03     21.5286E-03    -54.1977E-03     98.1215E-03    -44.1443E-03     21.3279E-03
            2221     7.75728E-03     13.5027E-03    -39.2730E+06    -93.1427E+06    -6.36889E+06     4.24121E+06    -51.2217E-03     94.5788E-03    -43.3571E-03     18.5453E-03    -51.2924E-03     94.1981E-03    -43.1969E-03     18.4001E-03
            2222     6.90065E-03     13.4727E-03    -42.9896E+06    -109.932E+06    -12.0065E+06     4.83446E+06    -49.1032E-03     91.5863E-03    -42.4831E-03     15.4353E-03    -49.1497E-03     91.1250E-03    -42.3214E-03     15.3367E-03
            2223     6.04394E-03     13.4446E-03    -48.6090E+06    -121.073E+06    -17.2096E+06     6.54592E+06    -47.1847E-03     88.8268E-03    -41.6421E-03     12.7575E-03    -47.2264E-03     88.3162E-03    -41.4821E-03     12.7145E-03
            2224     5.18509E-03     13.4210E-03    -52.8099E+06    -133.224E+06    -25.8388E+06     6.88476E+06    -44.9621E-03     85.8135E-03    -40.8515E-03     10.6275E-03    -44.9884E-03     85.2546E-03    -40.7109E-03     10.6220E-03
            2225     4.32309E-03     13.4000E-03    -57.8863E+06    -143.166E+06    -34.9069E+06     6.40979E+06    -42.8313E-03     83.0198E-03    -40.1885E-03     9.04596E-03    -42.8487E-03     82.4252E-03    -40.0715E-03     9.06271E-03
            2226     3.46037E-03     13.3827E-03    -63.9771E+06    -149.933E+06    -43.8686E+06     6.37118E+06    -41.3934E-03     81.0421E-03    -39.6487E-03     7.18092E-03    -41.4027E-03     80.4205E-03    -39.5579E-03     7.21522E-03
            2227     2.59637E-03     13.3690E-03    -68.1618E+06    -156.195E+06    -52.7741E+06     6.03793E+06    -40.2457E-03     79.4458E-03    -39.2001E-03     5.28748E-03    -40.2395E-03     78.7982E-03    -39.1387E-03     5.33029E-03
            2228     1.73164E-03     13.3590E-03    -71.8122E+06    -163.182E+06    -63.0018E+06     4.35996E+06    -39.2282E-03     78.1133E-03    -38.8852E-03     3.51870E-03    -39.2228E-03     77.4572E-03    -38.8594E-03     3.55631E-03
            2229     865.371E-06     13.3513E-03    -74.1173E+06    -170.230E+06    -74.4973E+06     2.65772E+06    -38.8194E-03     77.5345E-03    -38.7151E-03     1.73109E-03    -38.7952E-03     76.9254E-03    -38.7333E-03     1.76789E-03
            2230     16.2455E-03     12.8419E-03    -3.61600E+06     89.1871E+06     71.1696E+06    -38.3610E+03    -60.3826E-03     111.824E-03    -51.4418E-03     20.6242E-03    -60.7022E-03     112.241E-03    -51.2100E-03     20.1933E-03
            2231     15.4025E-03     12.8115E-03    -5.53750E+06     86.8402E+06     61.3889E+06    -720.697E+03    -62.3292E-03     113.157E-03    -50.8281E-03     29.5140E-03    -62.6603E-03     113.599E-03    -50.6391E-03     29.0131E-03
            2232     14.5526E-03     12.7713E-03    -8.29591E+06     82.8445E+06     54.9958E+06    -2.93577E+06    -62.8879E-03     112.988E-03    -50.1004E-03     33.1752E-03    -63.2210E-03     113.427E-03    -49.9336E-03     32.6412E-03
            2233     13.7091E-03     12.7336E-03    -15.2184E+06     72.4105E+06     48.5064E+06    -2.04734E+06    -62.2235E-03     111.529E-03    -49.3054E-03     33.6629E-03    -62.5684E-03     111.936E-03    -49.1458E-03     33.1420E-03
            2234     12.8640E-03     12.6924E-03    -21.3778E+06     45.3348E+06     37.1267E+06    -89.0310E+03    -62.2514E-03     110.676E-03    -48.4248E-03     33.7732E-03    -62.5686E-03     110.971E-03    -48.2739E-03     33.2973E-03
            2235     12.0179E-03     12.6481E-03    -23.7864E+06     11.9086E+06     28.8193E+06     382.666E+03    -62.4978E-03     109.927E-03    -47.4294E-03     31.6048E-03    -62.7586E-03     110.063E-03    -47.2681E-03     31.1562E-03
            2236     11.1713E-03     12.6055E-03    -26.4288E+06    -15.6233E+06     20.5881E+06     1.42820E+06    -61.5332E-03     107.832E-03    -46.2991E-03     27.7175E-03    -61.7412E-03     107.832E-03    -46.1352E-03     27.3166E-03
            2237     10.3251E-03     12.5648E-03    -29.4246E+06    -36.0881E+06     15.4722E+06     1.85248E+06    -59.3743E-03     104.488E-03    -45.1138E-03     23.9575E-03    -59.5428E-03     104.380E-03    -44.9414E-03     23.6207E-03
            2238     9.47700E-03     12.5250E-03    -33.6945E+06    -54.5147E+06     8.35674E+06     1.70824E+06    -56.6708E-03     100.589E-03    -43.9186E-03     20.2803E-03    -56.8084E-03     100.390E-03    -43.7489E-03     20.0065E-03
            2239     8.62481E-03     12.4933E-03    -35.9518E+06    -72.8966E+06     2.14386E+06     2.89941E+06    -53.9820E-03     96.7361E-03    -42.7540E-03     16.9292E-03    -54.0829E-03     96.4447E-03    -42.5855E-03     16.7270E-03
            2240     7.77133E-03     12.4630E-03    -39.4238E+06    -91.3704E+06    -3.99115E+06     4.18241E+06    -51.2292E-03     92.8639E-03    -41.6347E-03     13.7692E-03    -51.3014E-03     92.4838E-03    -41.4650E-03     13.6313E-03
            2241     6.91569E-03     12.4351E-03    -47.0207E+06    -110.986E+06    -13.8653E+06     4.40062E+06    -48.4290E-03     88.9985E-03    -40.5695E-03     10.8598E-03    -48.4884E-03     88.5376E-03    -40.4097E-03     10.7674E-03
            2242     6.05684E-03     12.4109E-03    -49.1534E+06    -122.331E+06    -18.0958E+06     5.98939E+06    -45.6993E-03     85.3060E-03    -39.6067E-03     8.86077E-03    -45.7393E-03     84.7899E-03    -39.4485E-03     8.82764E-03
            2243     5.19575E-03     12.3903E-03    -52.2393E+06    -131.280E+06    -24.0256E+06     7.66774E+06    -43.2951E-03     82.0390E-03    -38.7438E-03     7.41779E-03    -43.3213E-03     81.4835E-03    -38.5979E-03     7.43432E-03
            2244     4.33342E-03     12.3731E-03    -57.3500E+06    -140.773E+06    -35.0218E+06     7.34328E+06    -41.2699E-03     79.2354E-03    -37.9655E-03     6.12544E-03    -41.2835E-03     78.6479E-03    -37.8533E-03     6.15492E-03
            2245     3.46844E-03     12.3572E-03    -62.1672E+06    -147.349E+06    -43.4698E+06     5.98463E+06    -39.4925E-03     76.7965E-03    -37.3040E-03     4.74243E-03    -39.4947E-03     76.1823E-03    -37.2175E-03     4.77623E-03
            2246     2.60293E-03     12.3453E-03    -67.6283E+06    -153.289E+06    -51.0724E+06     4.62901E+06    -38.1634E-03     74.9062E-03    -36.7428E-03     3.33047E-03    -38.1614E-03     74.2699E-03    -36.6779E-03     3.36926E-03
            2247     1.73621E-03     12.3368E-03    -69.9336E+06    -157.827E+06    -58.1920E+06     4.11317E+06    -37.0404E-03     73.2981E-03    -36.2577E-03     2.37099E-03    -37.0418E-03     72.6611E-03    -36.2184E-03     2.40340E-03
            2248     868.816E-06     12.3310E-03    -74.3276E+06    -165.484E+06    -69.6605E+06     4.14438E+06    -36.0123E-03     72.0216E-03    -36.0093E-03     1.37963E-03    -36.0059E-03     71.4354E-03    -36.0098E-03     1.41307E-03
            2249     16.2465E-03     11.7768E-03    -3.60239E+06     90.2666E+06     71.5427E+06    -528.208E+03    -62.9735E-03     114.302E-03    -51.3288E-03     20.6143E-03    -63.2966E-03     114.726E-03    -51.0967E-03     20.1500E-03
            2250     15.4017E-03     11.7476E-03    -7.51426E+06     88.1109E+06     59.9440E+06    -1.98433E+06    -64.0486E-03     114.633E-03    -50.5843E-03     29.9597E-03    -64.3896E-03     115.086E-03    -50.4014E-03     29.4298E-03
            2251     14.5620E-03     11.7106E-03    -13.6951E+06     80.0368E+06     50.1469E+06    -1.34940E+06    -64.0338E-03     113.787E-03    -49.7531E-03     32.4800E-03    -64.3805E-03     114.224E-03    -49.5986E-03     31.9603E-03
            2252     13.7151E-03     11.6729E-03    -19.4761E+06     69.5552E+06     42.2582E+06    -1.63928E+06    -64.4192E-03     113.242E-03    -48.8226E-03     31.8171E-03    -64.7697E-03     113.648E-03    -48.6840E-03     31.2834E-03
            2253     12.8709E-03     11.6322E-03    -20.1663E+06     47.5424E+06     36.2439E+06    -1.02438E+06    -65.3403E-03     113.086E-03    -47.7457E-03     31.8645E-03    -65.6496E-03     113.388E-03    -47.6042E-03     31.3587E-03
            2254     12.0289E-03     11.5886E-03    -21.7156E+06     14.5280E+06     31.1198E+06     178.640E+03    -65.1893E-03     111.700E-03    -46.5105E-03     27.9585E-03    -65.4416E-03     111.837E-03    -46.3445E-03     27.4892E-03
            2255     11.1863E-03     11.5495E-03    -29.5496E+06    -15.6294E+06     19.5588E+06     804.762E+03    -63.1175E-03     108.256E-03    -45.1386E-03     23.0245E-03    -63.3320E-03     108.254E-03    -44.9753E-03     22.6129E-03
            2256     10.3410E-03     11.5116E-03    -34.6471E+06    -38.1102E+06     12.3532E+06     1.99934E+06    -59.7470E-03     103.516E-03    -43.7693E-03     19.7539E-03    -59.9267E-03     103.402E-03    -43.6020E-03     19.4350E-03
            2257     9.49030E-03     11.4806E-03    -32.4985E+06    -53.2184E+06     9.38722E+06     1.64990E+06    -56.3780E-03     98.8324E-03    -42.4544E-03     16.3936E-03    -56.5067E-03     98.6302E-03    -42.2832E-03     16.1366E-03
            2258     8.63839E-03     11.4490E-03    -38.4505E+06    -75.5136E+06     1.29987E+06     2.12351E+06    -53.6276E-03     94.8029E-03    -41.1754E-03     12.8836E-03    -53.7307E-03     94.4981E-03    -41.0036E-03     12.6832E-03
            2259     7.78557E-03     11.4240E-03    -45.2634E+06    -92.8793E+06    -6.36385E+06     5.14349E+06    -50.7699E-03     90.6885E-03    -39.9186E-03     10.5649E-03    -50.8627E-03     90.3096E-03    -39.7501E-03     10.4536E-03
            2260     6.92887E-03     11.4008E-03    -46.7185E+06    -106.705E+06    -12.8289E+06     5.58910E+06    -47.5287E-03     86.2540E-03    -38.7252E-03     8.84870E-03    -47.5922E-03     85.8104E-03    -38.5669E-03     8.78603E-03
            2261     6.06924E-03     11.3815E-03    -49.5603E+06    -123.477E+06    -18.9867E+06     5.03055E+06    -44.4338E-03     82.0908E-03    -37.6570E-03     6.73054E-03    -44.4708E-03     81.5691E-03    -37.5010E-03     6.68648E-03
            2262     5.20671E-03     11.3639E-03    -53.5292E+06    -133.006E+06    -24.8087E+06     6.26457E+06    -41.8863E-03     78.5829E-03    -36.6965E-03     5.19746E-03    -41.9149E-03     78.0214E-03    -36.5501E-03     5.19860E-03
            2263     4.34258E-03     11.3487E-03    -57.9397E+06    -138.903E+06    -34.2054E+06     6.43037E+06    -39.7539E-03     75.5552E-03    -35.8013E-03     4.01681E-03    -39.7774E-03     74.9796E-03    -35.6869E-03     4.04700E-03
            2264     3.47757E-03     11.3367E-03    -59.6866E+06    -143.462E+06    -41.4636E+06     5.37460E+06    -37.6289E-03     72.6498E-03    -35.0209E-03     3.15514E-03    -37.6315E-03     72.0531E-03    -34.9336E-03     3.18313E-03
            2265     2.60934E-03     11.3266E-03    -64.2453E+06    -149.761E+06    -50.1441E+06     3.15236E+06    -35.8609E-03     70.2588E-03    -34.3979E-03     2.47883E-03    -35.8482E-03     69.6337E-03    -34.3383E-03     2.48827E-03
            2266     1.74050E-03     11.3195E-03    -70.0833E+06    -155.995E+06    -57.7930E+06     2.12149E+06    -34.7226E-03     68.6292E-03    -33.9066E-03     1.70681E-03    -34.7237E-03     67.9968E-03    -33.8678E-03     1.71932E-03
            2267     870.462E-06     11.3156E-03    -72.5775E+06    -160.835E+06    -65.6916E+06     2.29598E+06    -33.7795E-03     67.3236E-03    -33.5441E-03     1.15493E-03    -33.7672E-03     66.7517E-03    -33.5342E-03     1.18357E-03
            2268     16.2523E-03     10.7136E-03     -4.0366E+06     91.1294E+06     71.9302E+06    -837.105E+03    -64.4744E-03     115.690E-03    -51.2154E-03     22.5249E-03    -64.8039E-03     116.120E-03    -50.9820E-03     22.0424E-03
            2269     15.4084E-03     10.6839E-03    -9.26621E+06     87.1300E+06     62.3907E+06     700.736E+03    -65.3897E-03     115.791E-03    -50.4018E-03     30.1978E-03    -65.7440E-03     116.241E-03    -50.2027E-03     29.6860E-03
            2270     14.5614E-03     10.6465E-03    -15.4575E+06     79.7214E+06     52.1070E+06     13.9309E+03    -66.4958E-03     115.939E-03    -49.4434E-03     31.7160E-03    -66.8564E-03     116.377E-03    -49.2761E-03     31.1844E-03
            2271     13.7222E-03     10.6106E-03    -17.9248E+06     72.1131E+06     43.1936E+06    -1.74535E+06    -67.9308E-03     116.223E-03    -48.2924E-03     30.4073E-03    -68.2788E-03     116.638E-03    -48.1550E-03     29.8407E-03
            2272     12.8821E-03     10.5685E-03    -22.1594E+06     45.0488E+06     34.6649E+06    -593.710E+03    -68.2177E-03     115.186E-03    -46.9684E-03     28.2953E-03    -68.5281E-03     115.478E-03    -46.8283E-03     27.7686E-03
            2273     12.0416E-03     10.5275E-03    -27.2738E+06     9.58954E+06     26.7386E+06     784.798E+03    -66.3303E-03     111.860E-03    -45.5297E-03     24.2785E-03    -66.5919E-03     111.982E-03    -45.3703E-03     23.8164E-03
            2274     11.1992E-03     10.4925E-03    -28.1647E+06    -13.4568E+06     21.0492E+06     300.745E+03    -63.3433E-03     107.384E-03    -44.0405E-03     20.3821E-03    -63.5508E-03     107.383E-03    -43.8749E-03     19.9803E-03
            2275     10.3519E-03     10.4630E-03    -31.1704E+06    -35.4732E+06     15.3508E+06    -354.679E+03    -60.1122E-03     102.674E-03    -42.5613E-03     16.9608E-03    -60.2779E-03     102.559E-03    -42.3879E-03     16.6186E-03
            2276     9.50436E-03     10.4335E-03    -35.9871E+06    -53.7629E+06     9.19955E+06     2.37932E+06    -56.5879E-03     97.6991E-03    -41.1112E-03     13.5410E-03    -56.7294E-03     97.4960E-03    -40.9351E-03     13.2976E-03
            2277     8.65318E-03     10.4094E-03    -39.5642E+06    -74.9672E+06     608.262E+03     4.21776E+06    -52.8077E-03     92.5320E-03    -39.7243E-03     10.7731E-03    -52.9147E-03     92.2311E-03    -39.5552E-03     10.6127E-03
            2278     7.79660E-03     10.3875E-03    -43.0432E+06    -94.8714E+06    -7.22541E+06     2.43930E+06    -49.4438E-03     87.8725E-03    -38.4287E-03     8.79220E-03    -49.5204E-03     87.4807E-03    -38.2648E-03     8.65375E-03
            2279     6.93887E-03     10.3696E-03    -46.6228E+06    -107.100E+06    -9.56740E+06     3.57591E+06    -46.4113E-03     83.6381E-03    -37.2269E-03     7.00138E-03    -46.4773E-03     83.1866E-03    -37.0518E-03     6.91217E-03
            2280     6.07882E-03     10.3538E-03    -52.1752E+06    -121.999E+06    -15.9184E+06     5.02065E+06    -43.4890E-03     79.5799E-03    -36.0910E-03     5.79855E-03    -43.5456E-03     79.0649E-03    -35.9180E-03     5.76145E-03
            2281     5.21673E-03     10.3408E-03    -54.7646E+06    -130.993E+06    -22.5145E+06     4.64973E+06    -40.7099E-03     75.7499E-03    -35.0400E-03     5.10065E-03    -40.7511E-03     75.1974E-03    -34.8832E-03     5.08483E-03
            2282     4.35149E-03     10.3287E-03    -57.7268E+06    -135.959E+06    -31.0711E+06     3.62059E+06    -38.0828E-03     72.1876E-03    -34.1048E-03     4.33124E-03    -38.1103E-03     71.6183E-03    -33.9793E-03     4.31929E-03
            2283     3.48340E-03     10.3197E-03    -60.7722E+06    -141.154E+06    -39.1076E+06     2.71484E+06    -35.9271E-03     69.2498E-03    -33.3228E-03     3.67456E-03    -35.9362E-03     68.6572E-03    -33.2255E-03     3.66683E-03
            2284     2.61459E-03     10.3126E-03    -62.9834E+06    -146.057E+06    -47.5120E+06     2.54877E+06    -34.1674E-03     66.8637E-03    -32.6962E-03     3.08138E-03    -34.1576E-03     66.2514E-03    -32.6307E-03     3.08936E-03
            2285     1.74344E-03     10.3070E-03    -68.4429E+06    -154.585E+06    -59.1676E+06     752.621E+03    -32.8953E-03     65.1257E-03    -32.2304E-03     2.09866E-03    -32.8915E-03     64.5040E-03    -32.2029E-03     2.09943E-03
            2286     872.229E-06     10.3039E-03    -70.3216E+06    -159.615E+06    -67.5672E+06    -777.549E+03    -32.2080E-03     64.0764E-03    -31.8684E-03     1.01071E-03    -32.1868E-03     63.5143E-03    -31.8728E-03     995.923E-06
            2287     16.2479E-03     9.64725E-03    -5.53316E+06     89.3930E+06     70.7570E+06     1.12552E+06    -66.4925E-03     117.621E-03    -51.1283E-03     22.5271E-03    -66.8283E-03     118.049E-03    -50.8961E-03     22.0395E-03
            2288     15.4074E-03     9.61761E-03    -8.66805E+06     87.3050E+06     61.3985E+06     702.016E+03    -67.8464E-03     118.028E-03    -50.1812E-03     28.7507E-03    -68.2011E-03     118.483E-03    -49.9883E-03     28.1972E-03
            2289     14.5706E-03     9.58176E-03    -9.45178E+06     85.1472E+06     56.8585E+06    -1.40959E+06    -69.5555E-03     118.618E-03    -49.0621E-03     30.2865E-03    -69.9045E-03     119.070E-03    -48.8876E-03     29.6962E-03
            2290     13.7302E-03     9.54196E-03    -17.4590E+06     72.7345E+06     44.3662E+06    -852.116E+03    -70.8414E-03     118.541E-03    -47.6997E-03     28.8336E-03    -71.1909E-03     118.958E-03    -47.5581E-03     28.2496E-03
            2291     12.8941E-03     9.50280E-03    -22.3525E+06     41.1660E+06     32.9374E+06     326.036E+03    -69.5478E-03     115.739E-03    -46.1916E-03     26.2207E-03    -69.8503E-03     116.014E-03    -46.0542E-03     25.6974E-03
            2292     12.0534E-03     9.46892E-03    -24.5058E+06     6.46268E+06     27.5436E+06    -513.335E+03    -66.2508E-03     110.915E-03    -44.6646E-03     22.1597E-03    -66.4918E-03     111.013E-03    -44.5007E-03     21.6914E-03
            2293     11.2079E-03     9.43822E-03    -29.7793E+06    -13.5940E+06     20.3768E+06     24.3153E+03    -63.1262E-03     106.243E-03    -43.1165E-03     17.9835E-03    -63.3380E-03     106.242E-03    -42.9517E-03     17.5868E-03
            2294     10.3639E-03     9.41184E-03    -34.3393E+06    -33.0085E+06     14.3158E+06     1.34948E+06    -59.9474E-03     101.521E-03    -41.5733E-03     14.5575E-03    -60.1304E-03     101.424E-03    -41.4041E-03     14.2428E-03
            2295     9.51469E-03     9.38945E-03    -38.3407E+06    -56.7992E+06     6.95727E+06     1.62823E+06    -55.9041E-03     95.9802E-03    -40.0761E-03     12.2353E-03    -56.0504E-03     95.7692E-03    -39.9033E-03     11.9900E-03
            2296     8.66118E-03     9.37108E-03    -39.0081E+06    -74.0538E+06     3.14586E+06     2.40024E+06    -51.8986E-03     90.5828E-03    -38.6843E-03     10.4873E-03    -52.0086E-03     90.2829E-03    -38.5046E-03     10.3085E-03
            2297     7.80635E-03     9.35430E-03    -41.9349E+06    -91.5576E+06    -2.10218E+06     1.82516E+06    -48.2391E-03     85.6424E-03    -37.4032E-03     8.93114E-03    -48.3237E-03     85.2595E-03    -37.2202E-03     8.78791E-03
            2298     6.94749E-03     9.34029E-03    -47.7471E+06    -110.490E+06    -6.88543E+06     1.73359E+06    -44.8674E-03     81.1156E-03    -36.2482E-03     7.75465E-03    -44.9416E-03     80.6484E-03    -36.0532E-03     7.64591E-03
            2299     6.08550E-03     9.32949E-03    -51.4724E+06    -121.755E+06    -11.8798E+06     3.29386E+06    -41.9850E-03     77.1751E-03    -35.1902E-03     7.46941E-03    -42.0473E-03     76.6574E-03    -34.9984E-03     7.41292E-03
            2300     5.22096E-03     9.31934E-03    -54.8937E+06    -128.725E+06    -20.5960E+06     2.99638E+06    -39.3193E-03     73.5386E-03    -34.2193E-03     7.29794E-03    -39.3690E-03     72.9965E-03    -34.0560E-03     7.26018E-03
            2301     4.35449E-03     9.31235E-03    -56.3498E+06    -133.333E+06    -28.9874E+06     2.03059E+06    -36.8828E-03     70.2632E-03    -33.3804E-03     6.83536E-03    -36.9147E-03     69.7066E-03    -33.2503E-03     6.80589E-03
            2302     3.48611E-03     9.30556E-03    -59.7369E+06    -140.031E+06    -38.7598E+06     650.304E+03    -34.9455E-03     67.6320E-03    -32.6864E-03     5.96002E-03    -34.9592E-03     67.0505E-03    -32.5906E-03     5.93448E-03
            2303     2.61576E-03     9.30072E-03    -64.1126E+06    -145.843E+06    -47.2467E+06     684.836E+03    -33.4697E-03     65.5992E-03    -32.1295E-03     4.78652E-03    -33.4732E-03     64.9966E-03    -32.0613E-03     4.77349E-03
            2304     1.74492E-03     9.29723E-03    -66.9083E+06    -151.861E+06    -56.6117E+06     333.659E+03    -32.3106E-03     64.0118E-03    -31.7012E-03     3.42893E-03    -32.3090E-03     63.4000E-03    -31.6671E-03     3.41340E-03
            2305     872.340E-06     9.29472E-03    -72.5309E+06    -160.646E+06    -68.2587E+06    -1.04760E+06    -31.6689E-03     63.0184E-03    -31.3494E-03     1.80637E-03    -31.6626E-03     62.4519E-03    -31.3526E-03     1.77673E-03
            2306     16.2558E-03     8.57846E-03    -3.82539E+06     89.0935E+06     72.3557E+06     1.53164E+06    -68.7708E-03     119.829E-03    -51.0579E-03     23.3702E-03    -69.1014E-03     120.252E-03    -50.8198E-03     22.8736E-03
            2307     15.4155E-03     8.55034E-03    -3.99992E+06     88.9958E+06     65.5048E+06     985.038E+03    -70.8258E-03     120.796E-03    -49.9697E-03     30.5329E-03    -71.1709E-03     121.252E-03    -49.7654E-03     29.9568E-03
            2308     14.5745E-03     8.51130E-03    -9.75759E+06     85.8053E+06     55.8936E+06     1.66885E+06    -72.7008E-03     121.347E-03    -48.6464E-03     31.4657E-03    -73.0545E-03     121.809E-03    -48.4772E-03     30.8899E-03
            2309     13.7406E-03     8.47334E-03    -14.0111E+06     73.0547E+06     44.4364E+06     833.641E+03    -72.0635E-03     119.192E-03    -47.1288E-03     27.9484E-03    -72.3957E-03     119.606E-03    -46.9923E-03     27.3802E-03
            2310     12.9004E-03     8.43851E-03    -15.5111E+06     40.6343E+06     36.9448E+06    -710.865E+03    -69.4938E-03     115.058E-03    -45.5644E-03     23.4755E-03    -69.7651E-03     115.312E-03    -45.4161E-03     22.9361E-03
            2311     12.0597E-03     8.40990E-03    -25.9290E+06     8.95633E+06     29.0532E+06     445.753E+03    -66.1999E-03     110.191E-03    -43.9912E-03     19.0762E-03    -66.4520E-03     110.300E-03    -43.8214E-03     18.6137E-03
            2312     11.2184E-03     8.38458E-03    -31.7449E+06    -11.7996E+06     20.8369E+06     335.223E+03    -62.3209E-03     104.742E-03    -42.4211E-03     16.1540E-03    -62.5438E-03     104.751E-03    -42.2537E-03     15.7687E-03
            2313     10.3701E-03     8.36299E-03    -33.0604E+06    -36.1586E+06     15.8943E+06    -446.399E+03    -58.1256E-03     99.0654E-03    -40.9398E-03     13.6809E-03    -58.2984E-03     98.9469E-03    -40.7599E-03     13.3548E-03
            2314     9.51969E-03     8.34795E-03    -39.0840E+06    -57.8708E+06     9.35229E+06    -940.676E+03    -54.1160E-03     93.6695E-03    -39.5535E-03     12.3917E-03    -54.2674E-03     93.4503E-03    -39.3661E-03     12.1189E-03
            2315     8.66665E-03     8.33377E-03    -44.0057E+06    -75.0775E+06     6.12337E+06    -651.516E+03    -50.2429E-03     88.5321E-03    -38.2892E-03     12.2430E-03    -50.3812E-03     88.2304E-03    -38.0859E-03     12.0299E-03
            2316     7.80903E-03     8.32280E-03    -44.9160E+06    -90.4348E+06     2.79852E+06     1.16916E+06    -46.4676E-03     83.6235E-03    -37.1558E-03     12.1211E-03    -46.5761E-03     83.2438E-03    -36.9456E-03     11.9797E-03
            2317     6.94802E-03     8.31441E-03    -47.0760E+06    -110.280E+06    -3.81127E+06     1.15086E+06    -43.2572E-03     79.4234E-03    -36.1663E-03     12.1700E-03    -43.3316E-03     78.9507E-03    -35.9571E-03     12.0650E-03
            2318     6.08496E-03     8.30636E-03    -51.0454E+06    -122.508E+06    -11.1591E+06     80.2235E+03    -40.6216E-03     75.9213E-03    -35.2997E-03     11.8053E-03    -40.6798E-03     75.3962E-03    -35.1038E-03     11.7118E-03
            2319     5.21966E-03     8.30104E-03    -52.2219E+06    -127.711E+06    -20.0644E+06    -862.750E+03    -38.3551E-03     72.8908E-03    -34.5357E-03     11.0577E-03    -38.3927E-03     72.3481E-03    -34.3751E-03     10.9775E-03
            2320     4.35218E-03     8.29571E-03    -55.0615E+06    -133.153E+06    -28.4232E+06    -1.34770E+06    -36.5366E-03     70.4311E-03    -33.8945E-03     10.1697E-03    -36.5610E-03     69.8705E-03    -33.7637E-03     10.1047E-03
            2321     3.48356E-03     8.29220E-03    -59.6644E+06    -139.322E+06    -37.2553E+06    -771.772E+03    -35.0650E-03     68.4266E-03    -33.3617E-03     8.90271E-03    -35.0739E-03     67.8389E-03    -33.2594E-03     8.85129E-03
            2322     2.61386E-03     8.28890E-03    -63.5630E+06    -146.313E+06    -47.3260E+06    -1.50042E+06    -33.8957E-03     66.8272E-03    -32.9315E-03     7.17573E-03    -33.8858E-03     66.2114E-03    -32.8638E-03     7.12516E-03
            2323     1.74288E-03     8.28680E-03    -67.3888E+06    -152.103E+06    -55.2306E+06    -1.07699E+06    -33.0747E-03     65.6852E-03    -32.6104E-03     5.08462E-03    -33.0727E-03     65.0653E-03    -32.5683E-03     5.06371E-03
            2324     871.951E-06     8.28568E-03    -72.3270E+06    -160.607E+06    -66.9676E+06    -66.4395E+03    -32.5369E-03     64.8952E-03    -32.3583E-03     2.87303E-03    -32.5302E-03     64.3207E-03    -32.3554E-03     2.88469E-03
            2325     16.2496E-03     7.51045E-03    -3.64217E+06     89.5595E+06     72.3918E+06    -613.480E+03    -70.9424E-03     121.942E-03    -51.0000E-03     24.4866E-03    -71.2783E-03     122.373E-03    -50.7626E-03     23.9313E-03
            2326     15.4124E-03     7.47709E-03    -7.01706E+06     86.6645E+06     65.1539E+06     1.36370E+06    -73.9858E-03     123.755E-03    -49.7696E-03     31.5410E-03    -74.3510E-03     124.214E-03    -49.5593E-03     30.9207E-03
            2327     14.5823E-03     7.43846E-03    -10.8160E+06     85.4382E+06     57.7021E+06     2.21513E+06    -74.5531E-03     122.848E-03    -48.2950E-03     29.5938E-03    -74.9193E-03     123.312E-03    -48.1146E-03     28.9873E-03
            2328     13.7449E-03     7.40430E-03    -14.9245E+06     74.7779E+06     48.0026E+06     3.16302E+06    -72.1850E-03     118.885E-03    -46.6998E-03     25.5204E-03    -72.5308E-03     119.304E-03    -46.5466E-03     24.9729E-03
            2329     12.9086E-03     7.37549E-03    -25.2120E+06     38.3985E+06     33.9698E+06     2.85423E+06    -68.7834E-03     113.893E-03    -45.1092E-03     21.1576E-03    -69.0950E-03     114.153E-03    -44.9585E-03     20.6690E-03
            2330     12.0679E-03     7.35119E-03    -26.2709E+06     12.9589E+06     32.1665E+06     869.272E+03    -64.4133E-03     108.012E-03    -43.5986E-03     18.1814E-03    -64.6771E-03     108.136E-03    -43.4185E-03     17.7442E-03
            2331     11.2214E-03     7.33277E-03    -29.7859E+06    -8.69650E+06     26.6912E+06     251.621E+03    -59.7003E-03     101.878E-03    -42.1780E-03     17.2946E-03    -59.9273E-03     101.892E-03    -41.9888E-03     16.9334E-03
            2332     10.3729E-03     7.31857E-03    -36.2191E+06    -37.4272E+06     19.2898E+06    -1.08079E+06    -55.2292E-03     96.1334E-03    -40.9042E-03     16.4573E-03    -55.4232E-03     96.0107E-03    -40.7009E-03     16.1441E-03
            2333     9.51944E-03     7.30767E-03    -40.1503E+06    -56.9240E+06     14.3579E+06    -1.33746E+06    -51.2586E-03     91.0308E-03    -39.7722E-03     16.5659E-03    -51.4267E-03     90.8133E-03    -39.5597E-03     16.3119E-03
            2334     8.66252E-03     7.29958E-03    -42.5272E+06    -75.0714E+06     10.3942E+06    -3.07374E+06    -47.6810E-03     86.4692E-03    -38.7882E-03     17.2863E-03    -47.8206E-03     86.1618E-03    -38.5657E-03     17.0628E-03
            2335     7.80265E-03     7.29387E-03    -43.1400E+06    -92.7966E+06     8.07111E+06    -3.31720E+06    -44.6306E-03     82.5864E-03    -37.9557E-03     17.5278E-03    -44.7373E-03     82.1874E-03    -37.7183E-03     17.3385E-03
            2336     6.94092E-03     7.28844E-03    -45.4431E+06    -109.357E+06     1.38959E+06    -2.21752E+06    -42.1788E-03     79.4128E-03    -37.2340E-03     17.4311E-03    -42.2571E-03     78.9379E-03    -37.0026E-03     17.2909E-03
            2337     6.07678E-03     7.28454E-03    -47.0849E+06    -121.065E+06    -10.2477E+06    -3.74623E+06    -40.1296E-03     76.7278E-03    -36.5982E-03     16.7615E-03    -40.1744E-03     76.2057E-03    -36.4056E-03     16.6298E-03
            2338     5.21105E-03     7.28104E-03    -50.4249E+06    -128.417E+06    -20.6749E+06    -4.03367E+06    -38.5419E-03     74.6120E-03    -36.0701E-03     15.5697E-03    -38.5705E-03     74.0659E-03    -35.9141E-03     15.4499E-03
            2339     4.34445E-03     7.27869E-03    -53.4889E+06    -134.210E+06    -29.1350E+06    -3.08744E+06    -37.2785E-03     72.9175E-03    -35.6391E-03     13.9319E-03    -37.2950E-03     72.3526E-03    -35.5126E-03     13.8387E-03
            2340     3.47652E-03     7.27614E-03    -56.7198E+06    -140.212E+06    -37.9482E+06    -2.85302E+06    -36.2868E-03     71.5783E-03    -35.2915E-03     11.8406E-03    -36.2858E-03     70.9895E-03    -35.1957E-03     11.7728E-03
            2341     2.60793E-03     7.27473E-03    -60.8016E+06    -147.065E+06    -47.5522E+06    -1.88948E+06    -35.5671E-03     70.5888E-03    -35.0218E-03     9.34610E-03    -35.5520E-03     69.9755E-03    -34.9581E-03     9.30661E-03
            2342     1.73893E-03     7.27336E-03    -65.3930E+06    -154.579E+06    -57.4971E+06    -666.068E+03    -35.0778E-03     69.8963E-03    -34.8185E-03     6.52814E-03    -35.0673E-03     69.2730E-03    -34.7870E-03     6.50059E-03
            2343     869.389E-06     7.27252E-03    -68.5812E+06    -160.106E+06    -65.5610E+06    -687.900E+03    -34.7562E-03     69.4482E-03    -34.6920E-03     3.61062E-03    -34.7427E-03     68.8709E-03    -34.6882E-03     3.58229E-03
            2344     16.2562E-03     6.43939E-03    -7.93350E+06     89.1573E+06     69.2319E+06     155.873E+03    -73.9122E-03     124.791E-03    -50.8784E-03     24.5177E-03    -74.2711E-03     125.237E-03    -50.6500E-03     23.9269E-03
            2345     15.4229E-03     6.39951E-03    -12.0510E+06     86.1857E+06     62.3841E+06    -976.775E+03    -75.6999E-03     125.217E-03    -49.5171E-03     30.4026E-03    -76.0915E-03     125.691E-03    -49.3127E-03     29.7135E-03
            2346     14.5861E-03     6.36584E-03    -14.3741E+06     81.2859E+06     57.5486E+06     1.00398E+06    -74.0179E-03     122.028E-03    -48.0100E-03     27.3404E-03    -74.3967E-03     122.478E-03    -47.8193E-03     26.7103E-03
            2347     13.7510E-03     6.33708E-03    -18.2667E+06     72.6593E+06     48.8520E+06     6.40903E+06    -70.3414E-03     116.812E-03    -46.4705E-03     24.4590E-03    -70.7007E-03     117.223E-03    -46.3051E-03     23.9775E-03
            2348     12.9103E-03     6.31218E-03    -24.7873E+06     44.5247E+06     38.4224E+06     4.66771E+06    -65.5773E-03     110.608E-03    -45.0306E-03     22.1163E-03    -65.9005E-03     110.891E-03    -44.8672E-03     21.6946E-03
            2349     12.0658E-03     6.29759E-03    -28.6146E+06     16.4336E+06     37.1278E+06     2.00541E+06    -60.4255E-03     104.203E-03    -43.7772E-03     21.5092E-03    -60.7114E-03     104.339E-03    -43.5739E-03     21.1369E-03
            2350     11.2172E-03     6.28452E-03    -33.8633E+06    -8.55476E+06     29.7141E+06     818.951E+03    -55.6750E-03     98.3431E-03    -42.6680E-03     22.0301E-03    -55.9253E-03     98.3575E-03    -42.4579E-03     21.7216E-03
            2351     10.3638E-03     6.27645E-03    -36.6695E+06    -37.6026E+06     23.1390E+06    -2.73873E+06    -51.6506E-03     93.3920E-03    -41.7413E-03     22.6307E-03    -51.8512E-03     93.2625E-03    -41.5179E-03     22.3379E-03
            2352     9.50765E-03     6.27091E-03    -35.7732E+06    -54.7886E+06     21.4320E+06    -5.40320E+06    -48.3010E-03     89.2792E-03    -40.9781E-03     23.3248E-03    -48.4596E-03     89.0547E-03    -40.7396E-03     23.0483E-03
            2353     8.64861E-03     6.26717E-03    -37.9441E+06    -74.5166E+06     17.6142E+06    -6.60359E+06    -45.6990E-03     86.0513E-03    -40.3523E-03     23.5333E-03    -45.8254E-03     85.7277E-03    -40.1012E-03     23.2835E-03
            2354     7.78794E-03     6.26418E-03    -42.2176E+06    -95.2054E+06     13.0241E+06    -6.78721E+06    -43.7233E-03     83.5616E-03    -39.8383E-03     23.3770E-03    -43.8279E-03     83.1407E-03    -39.5739E-03     23.1615E-03
            2355     6.92538E-03     6.26205E-03    -44.8733E+06    -109.309E+06     4.21413E+06    -7.00108E+06    -42.1009E-03     81.4861E-03    -39.3852E-03     22.6698E-03    -42.1789E-03     81.0045E-03    -39.1406E-03     22.4794E-03
            2356     6.06167E-03     6.26019E-03    -46.4043E+06    -121.011E+06    -9.50122E+06    -6.59213E+06    -40.8475E-03     79.8353E-03    -38.9878E-03     21.2368E-03    -40.8879E-03     79.3088E-03    -38.7925E-03     21.0729E-03
            2357     5.19708E-03     6.25859E-03    -49.4475E+06    -131.318E+06    -23.3097E+06    -6.26786E+06    -39.9307E-03     78.5911E-03    -38.6604E-03     19.2215E-03    -39.9444E-03     78.0304E-03    -38.5148E-03     19.0825E-03
            2358     4.33164E-03     6.25714E-03    -51.9033E+06    -137.350E+06    -31.8214E+06    -5.04956E+06    -39.2352E-03     77.6435E-03    -38.4083E-03     16.7503E-03    -39.2332E-03     77.0619E-03    -38.2930E-03     16.6420E-03
            2359     3.46591E-03     6.25622E-03    -54.4905E+06    -142.562E+06    -39.1088E+06    -2.82426E+06    -38.7002E-03     76.9119E-03    -38.2117E-03     13.8968E-03    -38.6786E-03     76.3051E-03    -38.1216E-03     13.8255E-03
            2360     2.59964E-03     6.25504E-03    -59.1217E+06    -149.352E+06    -47.7628E+06    -1.16223E+06    -38.3375E-03     76.3956E-03    -38.0580E-03     10.6945E-03    -38.2998E-03     75.7578E-03    -37.9946E-03     10.6517E-03
            2361     1.73329E-03     6.25445E-03    -63.1983E+06    -155.324E+06    -55.5386E+06    -266.433E+03    -38.0820E-03     76.0226E-03    -37.9406E-03     7.33827E-03    -38.0507E-03     75.3772E-03    -37.9014E-03     7.31728E-03
            2362     866.757E-06     6.25395E-03    -65.9788E+06    -160.879E+06    -63.9387E+06    -528.130E+03    -37.8886E-03     75.7550E-03    -37.8665E-03     4.01376E-03    -37.8642E-03     75.1565E-03    -37.8572E-03     4.00875E-03
            2363     16.2556E-03     5.35950E-03    -6.57283E+06     90.9623E+06     71.9105E+06     244.113E+03    -75.5796E-03     126.360E-03    -50.7802E-03     28.3130E-03    -75.9434E-03     126.815E-03    -50.5430E-03     27.7209E-03
            2364     15.4229E-03     5.32481E-03    -9.13716E+06     85.1618E+06     65.6125E+06     891.834E+03    -75.0063E-03     124.402E-03    -49.3957E-03     31.8456E-03    -75.3897E-03     124.866E-03    -49.1779E-03     31.1978E-03
            2365     14.5889E-03     5.29529E-03    -16.0689E+06     74.9880E+06     56.5528E+06     3.88760E+06    -71.1363E-03     119.117E-03    -47.9807E-03     28.5339E-03    -71.5118E-03     119.539E-03    -47.7834E-03     27.9906E-03
            2366     13.7491E-03     5.27120E-03    -19.6397E+06     69.6479E+06     50.6240E+06     5.70189E+06    -65.7516E-03     112.430E-03    -46.6783E-03     26.5318E-03    -66.1129E-03     112.823E-03    -46.4977E-03     26.1039E-03
            2367     12.9048E-03     5.25716E-03    -21.3188E+06     51.4470E+06     47.9970E+06     5.50576E+06    -59.9970E-03     105.598E-03    -45.6011E-03     25.9658E-03    -60.3223E-03     105.892E-03    -45.4048E-03     25.6254E-03
            2368     12.0548E-03     5.24615E-03    -28.0767E+06     19.2669E+06     43.0513E+06     2.38253E+06    -55.2903E-03     100.040E-03    -44.7500E-03     26.8495E-03    -55.5821E-03     100.177E-03    -44.5220E-03     26.5449E-03
            2369     11.2016E-03     5.24100E-03    -30.3229E+06    -6.71729E+06     36.3575E+06    -3.19862E+06    -51.4584E-03     95.5202E-03    -44.0618E-03     28.3023E-03    -51.6995E-03     95.5253E-03    -43.8263E-03     27.9909E-03
            2370     10.3451E-03     5.23672E-03    -29.9131E+06    -33.7812E+06     32.0944E+06    -7.64033E+06    -48.5172E-03     92.0641E-03    -43.5469E-03     29.1590E-03    -48.6984E-03     91.9267E-03    -43.2941E-03     28.8440E-03
            2371     9.48640E-03     5.23490E-03    -33.4678E+06    -55.5634E+06     26.1214E+06    -10.1829E+06    -46.5516E-03     89.6974E-03    -43.1458E-03     29.2393E-03    -46.7008E-03     89.4551E-03    -42.8861E-03     28.9327E-03
            2372     8.62656E-03     5.23350E-03    -35.7827E+06    -75.2830E+06     20.7158E+06    -9.94831E+06    -45.1513E-03     87.9803E-03    -42.8290E-03     28.7977E-03    -45.2681E-03     87.6428E-03    -42.5644E-03     28.5284E-03
            2373     7.76547E-03     5.23276E-03    -37.4082E+06    -96.6160E+06     13.8088E+06    -10.5838E+06    -44.1324E-03     86.7041E-03    -42.5717E-03     27.6725E-03    -44.2106E-03     86.2662E-03    -42.3083E-03     27.4226E-03
            2374     6.90381E-03     5.23203E-03    -39.8843E+06    -111.567E+06     2.28884E+06    -10.4405E+06    -43.4116E-03     85.7446E-03    -42.3330E-03     25.9030E-03    -43.4572E-03     85.2455E-03    -42.1020E-03     25.6770E-03
            2375     6.04173E-03     5.23139E-03    -43.6793E+06    -124.245E+06    -12.8431E+06    -8.90697E+06    -42.8807E-03     84.9927E-03    -42.1120E-03     23.6009E-03    -42.8977E-03     84.4503E-03    -41.9327E-03     23.4149E-03
            2376     5.17920E-03     5.23070E-03    -46.6255E+06    -133.805E+06    -25.3844E+06    -7.26317E+06    -42.4529E-03     84.3826E-03    -41.9297E-03     20.8806E-03    -42.4453E-03     83.8075E-03    -41.7950E-03     20.7321E-03
            2377     4.31644E-03     5.23008E-03    -50.2482E+06    -141.537E+06    -35.3346E+06    -5.30208E+06    -42.1426E-03     83.9285E-03    -41.7859E-03     17.7991E-03    -42.1195E-03     83.3267E-03    -41.6844E-03     17.6855E-03
            2378     3.45337E-03     5.22934E-03    -54.0046E+06    -146.633E+06    -41.4558E+06    -2.73938E+06    -41.9214E-03     83.5982E-03    -41.6768E-03     14.5024E-03    -41.8881E-03     82.9732E-03    -41.5932E-03     14.4314E-03
            2379     2.59033E-03     5.22893E-03    -55.9485E+06    -150.706E+06    -47.1546E+06    -782.086E+03    -41.7359E-03     83.3196E-03    -41.5837E-03     11.0617E-03    -41.6865E-03     82.6748E-03    -41.5199E-03     11.0290E-03
            2380     1.72686E-03     5.22837E-03    -59.5122E+06    -155.658E+06    -53.3101E+06    -236.079E+03    -41.5939E-03     83.1020E-03    -41.5081E-03     7.51044E-03    -41.5545E-03     82.4555E-03    -41.4627E-03     7.50271E-03
            2381     863.489E-06     5.22816E-03    -63.8545E+06    -161.417E+06    -60.9407E+06     1.08687E+06    -41.4685E-03     82.9224E-03    -41.4538E-03     4.10459E-03    -41.4387E-03     82.3112E-03    -41.4319E-03     4.12958E-03
            2382     16.2587E-03     4.28169E-03    -3.81323E+06     89.6504E+06     74.0724E+06    -961.522E+03    -74.5829E-03     125.436E-03    -50.8530E-03     30.7909E-03    -74.9360E-03     125.879E-03    -50.6071E-03     30.2066E-03
            2383     15.4230E-03     4.25116E-03    -8.67148E+06     79.5595E+06     67.3610E+06     1.38547E+06    -71.2547E-03     120.866E-03    -49.6111E-03     33.1852E-03    -71.6301E-03     121.298E-03    -49.3771E-03     32.5950E-03
            2384     14.5830E-03     4.22768E-03    -14.3603E+06     73.7863E+06     60.3737E+06     5.80822E+06    -65.5566E-03     114.036E-03    -48.4791E-03     31.5641E-03    -65.9223E-03     114.439E-03    -48.2634E-03     31.1307E-03
            2385     13.7379E-03     4.21383E-03    -19.1957E+06     68.9376E+06     54.7787E+06     5.46145E+06    -59.2531E-03     106.831E-03    -47.5777E-03     31.2341E-03    -59.6097E-03     107.206E-03    -47.3760E-03     30.8930E-03
            2386     12.8868E-03     4.20515E-03    -22.4367E+06     54.2354E+06     52.6024E+06     3.80726E+06    -54.2504E-03     101.204E-03    -46.9532E-03     32.1646E-03    -54.5829E-03     101.497E-03    -46.7363E-03     31.8844E-03
            2387     12.0327E-03     4.20102E-03    -21.5197E+06     26.4683E+06     49.5294E+06    -1.21402E+06    -50.7903E-03     97.3313E-03    -46.5410E-03     33.2892E-03    -51.0589E-03     97.4746E-03    -46.3005E-03     33.0102E-03
            2388     11.1754E-03     4.19833E-03    -23.6126E+06    -3.07570E+06     41.0369E+06    -7.18502E+06    -48.6251E-03     94.8800E-03    -46.2549E-03     33.7584E-03    -48.8353E-03     94.8768E-03    -46.0110E-03     33.4511E-03
            2389     10.3173E-03     4.19762E-03    -27.1924E+06    -30.0647E+06     31.9196E+06    -9.93553E+06    -47.3329E-03     93.3923E-03    -46.0594E-03     33.4696E-03    -47.4979E-03     93.2615E-03    -45.8168E-03     33.1651E-03
            2390     9.45826E-03     4.19674E-03    -29.3831E+06    -56.3216E+06     20.1456E+06    -12.6165E+06    -46.6017E-03     92.5081E-03    -45.9065E-03     32.3274E-03    -46.7146E-03     92.2582E-03    -45.6815E-03     32.0202E-03
            2391     8.59894E-03     4.19678E-03    -31.0910E+06    -78.0987E+06     11.9343E+06    -13.8329E+06    -46.2344E-03     92.0309E-03    -45.7965E-03     30.5663E-03    -46.3058E-03     91.6796E-03    -45.5785E-03     30.2689E-03
            2392     7.73954E-03     4.19660E-03    -33.4202E+06    -98.0217E+06     3.68967E+06    -13.0993E+06    -46.0114E-03     91.7120E-03    -45.7006E-03     28.3885E-03    -46.0485E-03     91.2711E-03    -45.4916E-03     28.1199E-03
            2393     6.88005E-03     4.19653E-03    -36.6317E+06    -115.617E+06    -7.80758E+06    -11.7152E+06    -45.8657E-03     91.4607E-03    -45.5950E-03     25.8733E-03    -45.8718E-03     90.9483E-03    -45.4133E-03     25.6410E-03
            2394     6.02037E-03     4.19633E-03    -39.7176E+06    -129.151E+06    -19.3031E+06    -9.23730E+06    -45.7412E-03     91.2300E-03    -45.4888E-03     23.0808E-03    -45.7194E-03     90.6641E-03    -45.3404E-03     22.8964E-03
            2395     5.16066E-03     4.19613E-03    -43.9154E+06    -138.377E+06    -29.4285E+06    -6.03574E+06    -45.6117E-03     91.0017E-03    -45.3900E-03     20.1094E-03    -45.5760E-03     90.4036E-03    -45.2728E-03     19.9762E-03
            2396     4.30077E-03     4.19574E-03     -47.888E+06    -145.038E+06    -37.6720E+06    -3.34206E+06    -45.4824E-03     90.7855E-03    -45.3032E-03     16.9910E-03    -45.4391E-03     90.1663E-03    -45.2118E-03     16.9064E-03
            2397     3.44085E-03     4.19547E-03    -51.2791E+06    -149.557E+06    -43.1843E+06    -2.00168E+06    -45.3663E-03     90.6008E-03    -45.2345E-03     13.7607E-03    -45.3114E-03     89.9587E-03    -45.1592E-03     13.7078E-03
            2398     2.58062E-03     4.19505E-03    -54.8027E+06    -152.818E+06    -46.5990E+06    -880.353E+03    -45.2794E-03     90.4624E-03    -45.1830E-03     10.4566E-03    -45.2154E-03     89.7981E-03    -45.1149E-03     10.4203E-03
            2399     1.72061E-03     4.19491E-03    -57.9897E+06    -156.311E+06    -50.5313E+06     259.433E+03    -45.1970E-03     90.3293E-03    -45.1323E-03     7.09109E-03    -45.1445E-03     89.6633E-03    -45.0742E-03     7.06813E-03
            2400     860.295E-06     4.19466E-03    -60.2476E+06    -160.379E+06    -56.7518E+06     423.010E+03    -45.0922E-03     90.1802E-03    -45.0880E-03     3.85937E-03    -45.0528E-03     89.5546E-03    -45.0519E-03     3.83868E-03
            2401     16.2523E-03     3.20802E-03    -4.36841E+06     86.7694E+06     72.7501E+06      1.8094E+06    -70.6640E-03     121.976E-03    -51.3116E-03     36.5437E-03    -71.0141E-03     122.408E-03    -51.0674E-03     36.0662E-03
            2402     15.4119E-03     3.18227E-03    -9.35771E+06     78.9294E+06     66.1284E+06     2.35362E+06    -65.0024E-03     115.373E-03    -50.3705E-03     38.9763E-03    -65.3728E-03     115.800E-03    -50.1407E-03     38.5053E-03
            2403     14.5662E-03     3.16845E-03    -13.1178E+06     74.0209E+06     60.5103E+06     2.66526E+06    -58.6608E-03     108.323E-03    -49.6622E-03     36.7043E-03    -59.0082E-03     108.712E-03    -49.4480E-03     36.3372E-03
            2404     13.7140E-03     3.16138E-03    -13.7703E+06     70.6553E+06     56.6877E+06     2.68403E+06    -53.6442E-03     102.857E-03    -49.2127E-03     36.5176E-03    -53.9619E-03     103.213E-03    -49.0118E-03     36.2399E-03
            2405     12.8590E-03     3.15799E-03    -15.2955E+06     58.8354E+06     50.4112E+06    -335.751E+03    -50.6068E-03     99.5735E-03    -48.9668E-03     36.5489E-03    -50.8899E-03     99.8654E-03    -48.7778E-03     36.2964E-03
            2406     12.0015E-03     3.15616E-03    -18.4197E+06     31.5974E+06     41.3399E+06    -5.00189E+06    -49.0977E-03     97.9551E-03    -48.8573E-03     35.8234E-03    -49.3310E-03     98.1153E-03    -48.6697E-03     35.5563E-03
            2407     11.1442E-03     3.15539E-03    -20.0642E+06    -288.958E+03     27.5202E+06    -9.12574E+06    -48.5037E-03     97.2985E-03    -48.7948E-03     34.3466E-03    -48.6676E-03     97.3101E-03    -48.6277E-03     34.0630E-03
            2408     10.2865E-03     3.15471E-03    -22.0484E+06    -30.0185E+06     15.2183E+06    -11.9042E+06    -48.3601E-03     97.1260E-03    -48.7659E-03     32.3422E-03    -48.4645E-03     97.0010E-03    -48.6144E-03     32.0503E-03
            2409     9.42916E-03     3.15477E-03    -24.5397E+06    -55.7572E+06     3.47150E+06    -13.6066E+06    -48.3929E-03     97.1365E-03    -48.7436E-03     30.0873E-03    -48.4498E-03     96.8977E-03    -48.6098E-03     29.7935E-03
            2410     8.57181E-03     3.15445E-03    -28.4487E+06    -81.6114E+06    -7.42023E+06    -13.9021E+06    -48.5060E-03     97.2320E-03    -48.7260E-03     27.6397E-03    -48.5250E-03     96.8812E-03    -48.6035E-03     27.3594E-03
            2411     7.71472E-03     3.15466E-03    -32.7196E+06    -102.341E+06    -14.7455E+06    -12.3334E+06    -48.6212E-03     97.3328E-03    -48.7116E-03     25.1420E-03    -48.6173E-03     96.8916E-03    -48.5895E-03     24.8994E-03
            2412     6.85757E-03     3.15458E-03    -36.8699E+06    -119.626E+06    -21.5467E+06    -10.5225E+06    -48.6871E-03     97.3730E-03    -48.6859E-03     22.6201E-03    -48.6649E-03     96.8572E-03    -48.5667E-03     22.4137E-03
            2413     6.00060E-03     3.15462E-03    -41.0546E+06    -135.355E+06    -26.8591E+06    -7.62173E+06    -48.7218E-03     97.3798E-03    -48.6580E-03     19.9838E-03    -48.6839E-03     96.7931E-03    -48.5365E-03     19.8252E-03
            2414     5.14352E-03     3.15452E-03    -44.2511E+06    -143.275E+06    -33.5139E+06    -4.05560E+06    -48.7043E-03     97.3098E-03    -48.6055E-03     17.2983E-03    -48.6551E-03     96.6917E-03    -48.5012E-03     17.2014E-03
            2415     4.28646E-03     3.15444E-03    -46.8729E+06    -147.834E+06    -39.3396E+06    -1.99226E+06    -48.6501E-03     97.2012E-03    -48.5512E-03     14.5706E-03    -48.5918E-03     96.5658E-03    -48.4655E-03     14.5092E-03
            2416     3.42920E-03     3.15423E-03    -49.5221E+06    -151.071E+06    -43.1637E+06    -501.637E+03    -48.5904E-03     97.0992E-03    -48.5088E-03     11.7809E-03    -48.5202E-03     96.4429E-03    -48.4337E-03     11.7383E-03
            2417     2.57208E-03     3.15412E-03    -52.2870E+06    -153.917E+06    -46.5160E+06    -52.4268E+03    -48.5363E-03     97.0109E-03    -48.4746E-03     8.93444E-03    -48.4570E-03     96.3361E-03    -48.4081E-03     8.91094E-03
            2418     1.71463E-03     3.15390E-03    -54.7893E+06    -156.382E+06    -49.3423E+06    -491.514E+03    -48.4881E-03     96.9332E-03    -48.4451E-03     6.05771E-03    -48.4234E-03     96.2615E-03    -48.3856E-03     6.05240E-03
            2419     857.440E-06     3.15395E-03    -57.3418E+06    -160.397E+06    -55.1343E+06    -139.704E+03    -48.4082E-03     96.8376E-03    -48.4294E-03     3.29312E-03    -48.3562E-03     96.2135E-03    -48.3893E-03     3.29840E-03
            2420     16.2345E-03     2.13696E-03    -5.72129E+06     85.9969E+06     71.4210E+06     2.08245E+06    -64.9587E-03     117.361E-03    -52.4024E-03     43.5582E-03    -65.3100E-03     117.791E-03    -52.1617E-03     43.1639E-03
            2421     15.3889E-03     2.12095E-03    -9.46222E+06     80.7613E+06     65.0521E+06     2.68207E+06    -59.6076E-03     111.421E-03    -51.8139E-03     42.2118E-03    -59.9587E-03     111.838E-03    -51.5920E-03     41.8559E-03
            2422     14.5366E-03     2.11438E-03    -11.6103E+06     76.2200E+06     55.7465E+06    -48.9536E+03    -54.4996E-03     105.938E-03    -51.4383E-03     38.5024E-03    -54.8077E-03     106.314E-03    -51.2532E-03     38.2134E-03
            2423     13.6822E-03     2.11152E-03    -12.9032E+06     70.9035E+06     46.6727E+06    -2.02984E+06    -51.9130E-03     103.168E-03    -51.2545E-03     36.1963E-03    -52.1865E-03     103.511E-03    -51.1053E-03     35.9488E-03
            2424     12.8261E-03     2.10987E-03    -13.7192E+06     61.3149E+06     31.9147E+06    -1.98415E+06    -50.8391E-03     101.988E-03    -51.1490E-03     33.4789E-03    -51.0694E-03     102.294E-03    -51.0585E-03     33.2782E-03
            2425     11.9708E-03     2.10862E-03    -15.9959E+06     35.6068E+06     15.2965E+06    -4.76618E+06    -50.5018E-03     101.609E-03    -51.1067E-03     30.6853E-03    -50.6733E-03     101.805E-03    -51.0586E-03     30.4811E-03
            2426     11.1151E-03     2.10781E-03    -19.8861E+06     1.69771E+06     500.512E+03    -8.78935E+06    -50.5210E-03     101.626E-03    -51.1055E-03     27.9660E-03    -50.6339E-03     101.673E-03    -51.0766E-03     27.7319E-03
            2427     10.2598E-03     2.10732E-03    -23.1069E+06    -29.4673E+06    -11.4044E+06    -11.4140E+06    -50.6383E-03     101.756E-03    -51.1174E-03     25.4155E-03    -50.7002E-03     101.664E-03    -51.0982E-03     25.1657E-03
            2428     9.40454E-03     2.10691E-03    -26.8801E+06    -58.6509E+06    -19.2919E+06    -11.1956E+06    -50.7874E-03     101.932E-03    -51.1451E-03     23.0215E-03    -50.8114E-03     101.709E-03    -51.1175E-03     22.7902E-03
            2429     8.54948E-03     2.10691E-03    -30.8431E+06    -84.3602E+06    -26.5621E+06    -9.68674E+06    -50.9277E-03     102.094E-03    -51.1659E-03     20.8111E-03    -50.9209E-03     101.755E-03    -51.1317E-03     20.6101E-03
            2430     7.69436E-03     2.10675E-03    -34.8775E+06    -106.112E+06    -31.8223E+06    -8.93576E+06    -51.0541E-03     102.238E-03    -51.1843E-03     18.7132E-03    -51.0262E-03     101.802E-03    -51.1390E-03     18.5326E-03
            2431     6.83951E-03     2.10685E-03    -39.0201E+06    -124.227E+06    -34.8577E+06    -6.95688E+06    -51.1548E-03     102.355E-03    -51.2006E-03     16.6972E-03    -51.1141E-03     101.836E-03    -51.1382E-03     16.5542E-03
            2432     5.98455E-03     2.10680E-03    -42.5329E+06    -139.937E+06    -36.5626E+06    -5.04617E+06    -51.2197E-03     102.431E-03    -51.2111E-03     14.7077E-03    -51.1662E-03     101.835E-03    -51.1293E-03     14.5992E-03
            2433     5.12974E-03     2.10687E-03    -44.9103E+06    -147.233E+06    -38.5620E+06    -3.16933E+06    -51.2418E-03     102.442E-03    -51.2001E-03     12.7157E-03    -51.1821E-03     101.812E-03    -51.1143E-03     12.6384E-03
            2434     4.27481E-03     2.10683E-03    -46.5053E+06    -150.262E+06    -41.2773E+06    -865.922E+03    -51.2291E-03     102.404E-03    -51.1750E-03     10.6946E-03    -51.1638E-03     101.760E-03    -51.0961E-03     10.6523E-03
            2435     3.41999E-03     2.10681E-03    -48.0700E+06    -152.130E+06    -43.4272E+06     94.6740E+03    -51.2038E-03     102.355E-03    -51.1515E-03     8.63717E-03    -51.1274E-03     101.695E-03    -51.0784E-03     8.61907E-03
            2436     2.56491E-03     2.10671E-03    -49.6644E+06    -153.627E+06    -45.1449E+06     440.969E+03    -51.1758E-03     102.309E-03    -51.1335E-03     6.54745E-03    -51.0884E-03     101.633E-03    -51.0645E-03     6.53910E-03
            2437     1.71005E-03     2.10669E-03    -52.4822E+06    -155.962E+06    -47.3477E+06     263.151E+03    -51.1461E-03     102.264E-03    -51.1181E-03     4.43286E-03    -51.0730E-03     101.589E-03    -51.0525E-03     4.41326E-03
            2438     854.908E-06     2.10659E-03    -57.2826E+06    -161.046E+06    -53.0192E+06    -19.0438E+03    -51.0935E-03     102.215E-03    -51.1220E-03     2.40432E-03    -51.0205E-03     101.588E-03    -51.0705E-03     2.38696E-03
            2439     16.2052E-03     1.06982E-03    -4.24971E+06     85.9261E+06     73.8206E+06     1.33882E+06    -64.8698E-03     118.878E-03    -54.0080E-03     42.5929E-03    -65.1882E-03     119.272E-03    -53.7573E-03     42.2959E-03
            2440     15.3569E-03     1.06229E-03    -5.94559E+06     81.4507E+06     67.8290E+06     525.270E+03    -58.8254E-03     112.350E-03    -53.5248E-03     33.3539E-03    -59.1143E-03     112.710E-03    -53.2951E-03     33.1268E-03
            2441     14.5059E-03     1.06033E-03    -9.22783E+06     79.6259E+06     50.3181E+06    -150.437E+03    -55.4236E-03     108.624E-03    -53.2006E-03     27.5676E-03    -55.6767E-03     108.981E-03    -53.0511E-03     27.4086E-03
            2442     13.6532E-03     1.05798E-03    -13.6459E+06     71.9701E+06     27.5333E+06    -2.72187E+06    -54.0456E-03     107.024E-03    -52.9783E-03     23.5593E-03    -54.2671E-03     107.372E-03    -52.9252E-03     23.4048E-03
            2443     12.8014E-03     1.05700E-03    -16.2321E+06     59.4272E+06     6.90339E+06    -2.95534E+06    -53.3892E-03     106.214E-03    -52.8249E-03     20.2287E-03    -53.5714E-03     106.529E-03    -52.8530E-03     20.0948E-03
            2444     11.9482E-03     1.05612E-03    -18.7017E+06     38.2213E+06    -11.2909E+06    -2.31803E+06    -53.0022E-03     105.729E-03    -52.7272E-03     17.7429E-03    -53.1356E-03     105.965E-03    -52.8119E-03     17.6345E-03
            2445     11.0952E-03     1.05544E-03    -22.0010E+06     4.91438E+06    -23.4889E+06    -5.08859E+06    -52.7983E-03     105.498E-03    -52.6996E-03     15.6637E-03    -52.8778E-03     105.585E-03    -52.7923E-03     15.5340E-03
            2446     10.2418E-03     1.05502E-03    -26.6687E+06    -30.4814E+06    -31.8616E+06    -6.67868E+06    -52.7016E-03     105.412E-03    -52.7103E-03     13.9510E-03    -52.7389E-03     105.339E-03    -52.7867E-03     13.8102E-03
            2447     9.38832E-03     1.05481E-03    -31.2174E+06    -61.7348E+06    -36.7212E+06    -6.05148E+06    -52.6685E-03     105.410E-03    -52.7412E-03     12.4703E-03    -52.6750E-03     105.193E-03    -52.7901E-03     12.3440E-03
            2448     8.53470E-03     1.05462E-03    -34.9903E+06    -86.7932E+06    -39.6120E+06    -5.24491E+06    -52.6900E-03     105.467E-03    -52.7766E-03     11.1610E-03    -52.6731E-03     105.132E-03    -52.7981E-03     11.0518E-03
            2449     7.68126E-03     1.05463E-03    -38.5087E+06    -108.545E+06    -42.3735E+06    -4.06381E+06    -52.7389E-03     105.547E-03    -52.8082E-03     9.97769E-03    -52.7034E-03     105.112E-03    -52.8069E-03     9.89092E-03
            2450     6.82762E-03     1.05457E-03    -41.4548E+06    -127.380E+06    -43.8498E+06    -3.27078E+06    -52.8021E-03     105.641E-03    -52.8394E-03     8.86810E-03    -52.7492E-03     105.116E-03    -52.8138E-03     8.79701E-03
            2451     5.97422E-03     1.05463E-03    -43.5006E+06    -141.757E+06    -43.7690E+06    -2.63064E+06    -52.8631E-03     105.730E-03    -52.8667E-03     7.79857E-03    -52.7942E-03     105.130E-03    -52.8169E-03     7.74045E-03
            2452     5.12069E-03     1.05462E-03    -45.3609E+06    -150.084E+06    -43.2403E+06    -1.81527E+06    -52.9029E-03     105.785E-03    -52.8825E-03     6.73799E-03    -52.8266E-03     105.141E-03    -52.8153E-03     6.69547E-03
            2453     4.26733E-03     1.05465E-03    -46.7585E+06    -152.289E+06    -43.0951E+06    -666.450E+03    -52.9166E-03     105.799E-03    -52.8827E-03     5.66624E-03    -52.8379E-03     105.140E-03    -52.8096E-03     5.64106E-03
            2454     3.41380E-03     1.05465E-03    -47.8080E+06    -152.657E+06    -42.7992E+06     446.716E+03    -52.9181E-03     105.797E-03    -52.8785E-03     4.57653E-03    -52.8282E-03     105.121E-03    -52.8018E-03     4.56702E-03
            2455     2.56047E-03     1.05464E-03    -49.7720E+06    -153.468E+06    -42.5469E+06     599.474E+03    -52.9170E-03     105.793E-03    -52.8757E-03     3.46754E-03    -52.8149E-03     105.095E-03    -52.7937E-03     3.46101E-03
            2456     1.70691E-03     1.05460E-03    -52.8469E+06    -155.267E+06    -43.3498E+06     127.238E+03    -52.9009E-03     105.766E-03    -52.8653E-03     2.34717E-03    -52.8163E-03     105.070E-03    -52.7802E-03     2.35047E-03
            2457     853.646E-06     1.05459E-03    -56.9017E+06    -161.396E+06    -51.6462E+06    -329.509E+03    -52.8286E-03     105.696E-03    -52.8669E-03     1.27227E-03    -52.7326E-03     105.047E-03    -52.8086E-03     1.29967E-03


