********************************************************************************
Field Output Report, written Tue May 28 22:41:46 2024

Source 1
---------

   ODB: G:/Abaqus_calc_2019/1740/Vel_10/odb/zeides_2a_8_red_1000_cal_50_vel_10_fric_050.odb
   Step: Step-1
   Frame: Increment   9181453: Step Time =    1.110

Loc 1 : Nodal values from source 1

Output sorted by column "Nodal Label".

Field Output reported at nodes for region: DIE_2A_8_D0_36-1.Region_1
   Computation algorithm: EXTRAPOLATE_COMPUTE_AVERAGE
   Averaged at nodes
   Averaging regions: ODB_REGIONS

      Node Label     COORD.COOR1     COORD.COOR2
                          @Loc 1          @Loc 1
-------------------------------------------------
               1     17.3301E-03     138.683E-03


Field Output reported at nodes for region: DIE_2A_8_D0_36-1.Region_2
   Computation algorithm: EXTRAPOLATE_COMPUTE_AVERAGE
   Averaged at nodes
   Averaging regions: ODB_REGIONS

      Node Label     COORD.COOR1     COORD.COOR2
                          @Loc 1          @Loc 1
-------------------------------------------------
               1     17.3301E-03     138.683E-03


Field Output reported at nodes for part: WIRE-1
   Computation algorithm: EXTRAPOLATE_COMPUTE_AVERAGE
   Averaged at nodes
   Averaging regions: ODB_REGIONS

      Node Label     COORD.COOR1     COORD.COOR2           S.S11           S.S22           S.S33           S.S12         PE.PE11         PE.PE22         PE.PE33         PE.PE12         LE.LE11         LE.LE22         LE.LE33         LE.LE12
                          @Loc 1          @Loc 1          @Loc 1          @Loc 1          @Loc 1          @Loc 1          @Loc 1          @Loc 1          @Loc 1          @Loc 1          @Loc 1          @Loc 1          @Loc 1          @Loc 1
-------------------------------------------------------------------------------------------------------------------------------------------------------------------------------------------------------------------------------------------------
               1     47.3369E-09     67.4208E-03    -119.973E+06    -235.550E+06    -119.972E+06     2.31816E+03    -105.850E-03     211.574E-03    -105.724E-03     4.40687E-03    -105.934E-03     210.745E-03    -105.809E-03     4.34977E-03
               2     16.1994E-03     68.2101E-03    -2.50947E+06     108.948E+06     97.6492E+06    -9.80305E+03    -104.711E-03     210.449E-03    -105.738E-03     15.9820E-03    -105.074E-03     210.906E-03    -105.404E-03     15.0222E-03
               3     16.2043E-03     136.320E-03    -21.6824E+06     18.3545E+06     23.4195E+06    -3.75801E+06    -95.1915E-03     200.426E-03    -105.235E-03     17.7236E-03    -95.3584E-03     200.522E-03    -105.113E-03     17.6078E-03
               4    -768.444E-09     135.141E-03     38.6799E+06    -5.21596E+06     34.9533E+06    -3.14929E+06    -110.583E-03     221.128E-03    -110.545E-03    -3.71603E-03    -110.440E-03     220.988E-03    -110.418E-03    -3.80092E-03
               5    -187.475E-09     180.411E-18    -60.2532E+06    -195.325E+06    -60.3804E+06     253.073E+03    -100.443E-03     201.274E-03    -100.830E-03     310.102E-06    -100.374E-03     200.472E-03    -100.762E-03     307.280E-06
               6     16.1230E-03     180.411E-18    -785.834E+03     108.898E+06     101.035E+06     1.00975E+06    -146.924E-03     255.033E-03    -108.109E-03     54.6514E-03    -147.374E-03     255.573E-03    -107.761E-03     53.3052E-03
               7     809.588E-06     67.4257E-03    -118.465E+06    -230.547E+06    -115.446E+06     57.9623E+03    -105.807E-03     211.569E-03    -105.762E-03     7.29211E-03    -105.899E-03     210.757E-03    -105.833E-03     7.19827E-03
               8     1.61920E-03     67.4370E-03    -114.193E+06    -218.108E+06    -103.199E+06     89.8947E+03    -105.750E-03     211.562E-03    -105.812E-03     13.2552E-03    -105.860E-03     210.792E-03    -105.846E-03     13.0832E-03
               9     2.42887E-03     67.4552E-03    -107.823E+06    -201.223E+06    -86.2411E+06     26.1875E+03    -105.724E-03     211.563E-03    -105.839E-03     19.2900E-03    -105.857E-03     210.848E-03    -105.822E-03     19.0350E-03
              10     3.23859E-03     67.4800E-03    -100.157E+06    -182.418E+06    -67.6957E+06    -7.46032E+03    -105.709E-03     211.574E-03    -105.865E-03     24.9939E-03    -105.864E-03     210.922E-03    -105.793E-03     24.6568E-03
              11     4.04837E-03     67.5109E-03    -91.8740E+06    -163.189E+06    -49.8760E+06     3.77985E+03    -105.709E-03     211.592E-03    -105.883E-03     30.2385E-03    -105.884E-03     211.006E-03    -105.762E-03     29.8215E-03
              12     4.85820E-03     67.5473E-03    -83.5127E+06    -144.484E+06    -33.9165E+06    -21.8879E+03    -105.720E-03     211.612E-03    -105.892E-03     34.9348E-03    -105.914E-03     211.095E-03    -105.731E-03     34.4399E-03
              13     5.66807E-03     67.5886E-03    -75.4431E+06    -127.115E+06    -20.0558E+06    -42.9485E+03    -105.742E-03     211.635E-03    -105.893E-03     39.0384E-03    -105.950E-03     211.183E-03    -105.700E-03     38.4681E-03
              14     6.47799E-03     67.6342E-03    -67.7785E+06    -110.159E+06    -8.03566E+06    -37.8138E+03    -105.764E-03     211.652E-03    -105.888E-03     42.5363E-03    -105.987E-03     211.266E-03    -105.670E-03     41.8931E-03
              15     7.28795E-03     67.6832E-03    -60.5287E+06    -93.5911E+06     2.53230E+06    -62.5413E+03    -105.783E-03     211.661E-03    -105.878E-03     45.4405E-03    -106.020E-03     211.343E-03    -105.642E-03     44.7253E-03
              16     8.09794E-03     67.7352E-03    -53.7209E+06    -77.2921E+06     11.8922E+06    -54.9406E+03    -105.797E-03     211.662E-03    -105.865E-03     47.7495E-03    -106.048E-03     211.413E-03    -105.615E-03     46.9635E-03
              17     8.90796E-03     67.7893E-03    -47.3428E+06    -60.7999E+06     20.2822E+06    -25.2229E+03    -105.804E-03     211.653E-03    -105.849E-03     49.4641E-03    -106.070E-03     211.477E-03    -105.591E-03     48.6074E-03
              18     9.71799E-03     67.8451E-03    -41.3658E+06    -43.1448E+06     28.0562E+06    -29.6756E+03    -105.797E-03     211.628E-03    -105.831E-03     50.5957E-03    -106.081E-03     211.531E-03    -105.568E-03     49.6666E-03
              19     10.5280E-03     67.9017E-03    -35.7260E+06    -22.6391E+06     35.6613E+06    -28.2087E+03    -105.759E-03     211.569E-03    -105.810E-03     51.1345E-03    -106.067E-03     211.567E-03    -105.547E-03     50.1312E-03
              20     11.3381E-03     67.9585E-03    -30.4077E+06    -182.056E+03     43.3791E+06    -15.7446E+03    -105.683E-03     211.471E-03    -105.788E-03     50.8674E-03    -106.019E-03     211.573E-03    -105.527E-03     49.7887E-03
              21     12.1482E-03     68.0144E-03    -25.4024E+06     26.4782E+06     50.5055E+06     33.1143E+03    -105.553E-03     211.310E-03    -105.757E-03     49.4141E-03    -105.921E-03     211.536E-03    -105.506E-03     48.2625E-03
              22     12.9584E-03     68.0678E-03    -20.3709E+06     64.9535E+06     60.7177E+06     167.490E+03    -105.333E-03     211.056E-03    -105.723E-03     46.4416E-03    -105.750E-03     211.456E-03    -105.484E-03     45.2279E-03
              23     13.7686E-03     68.1168E-03    -15.2553E+06     95.7720E+06     68.3052E+06     227.656E+03    -105.110E-03     210.795E-03    -105.685E-03     41.3735E-03    -105.554E-03     211.327E-03    -105.461E-03     40.1100E-03
              24     14.5788E-03     68.1587E-03    -10.2570E+06     106.041E+06     79.2016E+06     125.150E+03    -104.939E-03     210.633E-03    -105.694E-03     35.0343E-03    -105.386E-03     211.190E-03    -105.437E-03     33.6976E-03
              25     15.3892E-03     68.1931E-03    -5.14386E+06     108.761E+06     93.5708E+06     21.4915E+03    -104.782E-03     210.514E-03    -105.733E-03     23.9174E-03    -105.190E-03     211.019E-03    -105.415E-03     22.7440E-03
              26     16.1994E-03     69.3810E-03    -2.47165E+06     108.960E+06     97.6704E+06    -7.81017E+03    -104.677E-03     210.415E-03    -105.738E-03     15.9830E-03    -105.040E-03     210.873E-03    -105.404E-03     15.0222E-03
              27     16.1996E-03     70.5517E-03    -2.53402E+06     108.985E+06     97.7270E+06     46.3603E+03    -104.652E-03     210.387E-03    -105.735E-03     16.0188E-03    -105.015E-03     210.844E-03    -105.400E-03     15.0591E-03
              28     16.1996E-03     71.7225E-03    -2.50943E+06     109.058E+06     97.8950E+06     16.5755E+03    -104.691E-03     210.424E-03    -105.733E-03     15.9634E-03    -105.055E-03     210.882E-03    -105.398E-03     15.0032E-03
              29     16.1995E-03     72.8934E-03    -2.47274E+06     109.218E+06     97.8140E+06     10.4644E+03    -104.667E-03     210.400E-03    -105.733E-03     15.9834E-03    -105.030E-03     210.858E-03    -105.399E-03     15.0238E-03
              30     16.1996E-03     74.0640E-03    -2.53224E+06     109.334E+06     97.6472E+06     66.2080E+03    -104.625E-03     210.354E-03    -105.729E-03     16.0517E-03    -104.988E-03     210.814E-03    -105.396E-03     15.0934E-03
              31     16.1997E-03     75.2349E-03    -2.57738E+06     109.281E+06     97.6942E+06    -52.4607E+03    -104.667E-03     210.394E-03    -105.727E-03     16.0079E-03    -105.031E-03     210.853E-03    -105.393E-03     15.0479E-03
              32     16.1996E-03     76.4058E-03    -2.46866E+06     109.135E+06     97.9283E+06    -116.504E+03    -104.712E-03     210.442E-03    -105.731E-03     15.9701E-03    -105.075E-03     210.900E-03    -105.396E-03     15.0097E-03
              33     16.1995E-03     77.5766E-03    -2.50594E+06     109.014E+06     97.9413E+06    -67.4826E+03    -104.703E-03     210.439E-03    -105.737E-03     15.9814E-03    -105.066E-03     210.897E-03    -105.401E-03     15.0214E-03
              34     16.1995E-03     78.7473E-03    -2.42238E+06     109.075E+06     98.1639E+06     88.2075E+03    -104.682E-03     210.421E-03    -105.739E-03     16.0187E-03    -105.046E-03     210.878E-03    -105.403E-03     15.0601E-03
              35     16.1995E-03     79.9181E-03    -2.51385E+06     109.526E+06     98.3766E+06     254.400E+03    -104.694E-03     210.432E-03    -105.738E-03     15.9918E-03    -105.059E-03     210.891E-03    -105.401E-03     15.0345E-03
              36     16.1995E-03     81.0890E-03    -2.63109E+06     110.061E+06     97.9686E+06     82.8204E+03    -104.714E-03     210.450E-03    -105.736E-03     15.9513E-03    -105.080E-03     210.913E-03    -105.402E-03     14.9915E-03
              37     16.1994E-03     82.2599E-03    -2.48971E+06     110.120E+06     97.5920E+06    -88.8826E+03    -104.694E-03     210.431E-03    -105.737E-03     15.9424E-03    -105.059E-03     210.895E-03    -105.405E-03     14.9803E-03
              38     16.1994E-03     83.4307E-03    -2.49372E+06     109.989E+06     97.1902E+06    -40.7469E+03    -104.683E-03     210.421E-03    -105.738E-03     15.9581E-03    -105.047E-03     210.885E-03    -105.408E-03     14.9968E-03
              39     16.1994E-03     84.6015E-03    -2.38384E+06     110.142E+06     96.8988E+06     114.521E+03    -104.722E-03     210.458E-03    -105.736E-03     15.9893E-03    -105.085E-03     210.923E-03    -105.408E-03     15.0300E-03
              40     16.1994E-03     85.7724E-03    -2.50273E+06     110.604E+06     97.2876E+06     210.217E+03    -104.727E-03     210.463E-03    -105.736E-03     15.9899E-03    -105.092E-03     210.929E-03    -105.406E-03     15.0318E-03
              41     16.1995E-03     86.9432E-03    -2.61502E+06     111.018E+06     97.6138E+06     50.6055E+03    -104.705E-03     210.441E-03    -105.736E-03     15.9787E-03    -105.071E-03     210.909E-03    -105.405E-03     15.0184E-03
              42     16.1994E-03     88.1141E-03    -2.38075E+06     111.227E+06     97.6180E+06     73.5161E+03    -104.705E-03     210.440E-03    -105.735E-03     15.9777E-03    -105.071E-03     210.909E-03    -105.405E-03     15.0178E-03
              43     16.1995E-03     89.2849E-03    -2.53331E+06     111.659E+06     97.8946E+06     203.534E+03    -104.693E-03     210.428E-03    -105.736E-03     15.9732E-03    -105.060E-03     210.899E-03    -105.404E-03     15.0150E-03
              44     16.1995E-03     90.4557E-03    -2.53550E+06     112.217E+06     98.1526E+06     156.456E+03    -104.682E-03     210.418E-03    -105.736E-03     15.9721E-03    -105.051E-03     210.892E-03    -105.404E-03     15.0134E-03
              45     16.1995E-03     91.6266E-03    -2.46807E+06     112.758E+06     98.3670E+06     199.642E+03    -104.674E-03     210.410E-03    -105.736E-03     15.9730E-03    -105.043E-03     210.886E-03    -105.404E-03     15.0150E-03
              46     16.1995E-03     92.7974E-03    -2.54322E+06     113.461E+06     98.7187E+06     264.372E+03    -104.656E-03     210.393E-03    -105.737E-03     15.9696E-03    -105.027E-03     210.872E-03    -105.404E-03     15.0126E-03
              47     16.1995E-03     93.9682E-03    -2.56512E+06     114.170E+06     99.0752E+06     207.764E+03    -104.637E-03     210.374E-03    -105.738E-03     15.9649E-03    -105.010E-03     210.856E-03    -105.404E-03     15.0072E-03
              48     16.1995E-03     95.1390E-03    -2.56235E+06     114.722E+06     99.2460E+06     152.782E+03    -104.616E-03     210.354E-03    -105.738E-03     15.9590E-03    -104.990E-03     210.838E-03    -105.404E-03     15.0007E-03
              49     16.1995E-03     96.3097E-03    -2.47645E+06     115.303E+06     99.5004E+06     228.519E+03    -104.587E-03     210.326E-03    -105.739E-03     15.9472E-03    -104.962E-03     210.813E-03    -105.405E-03     14.9902E-03
              50     16.1995E-03     97.4804E-03    -2.61801E+06     116.034E+06     99.8938E+06     253.380E+03    -104.544E-03     210.284E-03    -105.741E-03     15.9327E-03    -104.921E-03     210.774E-03    -105.406E-03     14.9764E-03
              51     16.1995E-03     98.6511E-03    -2.47138E+06     116.881E+06     100.233E+06     312.140E+03    -104.491E-03     210.234E-03    -105.742E-03     15.9143E-03    -104.869E-03     210.727E-03    -105.407E-03     14.9593E-03
              52     16.1995E-03     99.8217E-03    -2.62601E+06     117.916E+06     100.671E+06     379.319E+03    -104.416E-03     210.162E-03    -105.746E-03     15.8903E-03    -104.797E-03     210.660E-03    -105.410E-03     14.9369E-03
              53     16.1995E-03     100.992E-03    -2.55208E+06     119.030E+06     101.142E+06     365.844E+03    -104.312E-03     210.062E-03    -105.749E-03     15.8696E-03    -104.695E-03     210.564E-03    -105.413E-03     14.9169E-03
              54     16.1995E-03     102.163E-03    -2.68339E+06     120.017E+06     101.442E+06     297.365E+03    -104.176E-03     209.928E-03    -105.752E-03     15.8604E-03    -104.561E-03     210.436E-03    -105.415E-03     14.9084E-03
              55     16.1995E-03     103.333E-03    -2.60530E+06     120.730E+06     101.791E+06     185.006E+03    -104.016E-03     209.770E-03    -105.754E-03     15.8698E-03    -104.402E-03     210.281E-03    -105.417E-03     14.9181E-03
              56     16.1996E-03     104.503E-03    -2.75508E+06     120.995E+06     102.006E+06    -1.98959E+03    -103.848E-03     209.602E-03    -105.754E-03     15.9029E-03    -104.236E-03     210.113E-03    -105.415E-03     14.9511E-03
              57     16.1997E-03     105.673E-03    -2.54855E+06     120.837E+06     101.982E+06    -94.1067E+03    -103.686E-03     209.434E-03    -105.748E-03     15.9529E-03    -104.072E-03     209.945E-03    -105.410E-03     15.0023E-03
              58     16.2000E-03     106.842E-03    -2.62206E+06     120.677E+06     101.948E+06     3.44786E+03    -103.534E-03     209.274E-03    -105.740E-03     16.0071E-03    -103.920E-03     209.784E-03    -105.402E-03     15.0605E-03
              59     16.2002E-03     108.012E-03    -2.63050E+06     120.612E+06     102.064E+06    -14.4775E+03    -103.396E-03     209.127E-03    -105.731E-03     16.0620E-03    -103.783E-03     209.636E-03    -105.391E-03     15.1176E-03
              60     16.2004E-03     109.181E-03    -2.78328E+06     120.165E+06     101.879E+06    -269.913E+03    -103.260E-03     208.980E-03    -105.720E-03     16.1142E-03    -103.647E-03     209.487E-03    -105.380E-03     15.1686E-03
              61     16.2006E-03     110.350E-03    -2.55754E+06     119.124E+06     101.578E+06    -437.870E+03    -103.115E-03     208.822E-03    -105.707E-03     16.1804E-03    -103.498E-03     209.325E-03    -105.368E-03     15.2347E-03
              62     16.2010E-03     111.519E-03    -2.75541E+06     117.610E+06     101.177E+06    -577.443E+03    -102.976E-03     208.669E-03    -105.692E-03     16.2779E-03    -103.358E-03     209.164E-03    -105.353E-03     15.3323E-03
              63     16.2013E-03     112.688E-03    -2.63763E+06     115.459E+06     100.415E+06     -859.25E+03    -102.884E-03     208.557E-03    -105.673E-03     16.4042E-03    -103.261E-03     209.043E-03    -105.334E-03     15.4566E-03
              64     16.2017E-03     113.856E-03    -2.78277E+06     112.359E+06     98.4972E+06    -1.24219E+06    -102.897E-03     208.542E-03    -105.645E-03     16.5816E-03    -103.267E-03     209.015E-03    -105.311E-03     15.6301E-03
              65     16.2020E-03     115.025E-03    -2.49119E+06     108.248E+06     96.1779E+06    -1.55447E+06    -103.076E-03     208.687E-03    -105.611E-03     16.8306E-03    -103.436E-03     209.144E-03    -105.283E-03     15.8749E-03
              66     16.2025E-03     116.194E-03    -2.52359E+06     103.561E+06     93.7601E+06    -1.62403E+06    -103.500E-03     209.073E-03    -105.573E-03     17.1572E-03    -103.850E-03     209.510E-03    -105.250E-03     16.1991E-03
              67     16.2026E-03     117.364E-03    -2.16091E+06     99.0683E+06     91.9870E+06    -1.42146E+06    -104.176E-03     209.710E-03    -105.534E-03     17.6004E-03    -104.516E-03     210.127E-03    -105.214E-03     16.6429E-03
              68     16.2030E-03     118.535E-03    -2.69674E+06     94.6653E+06     90.2192E+06    -1.57695E+06    -105.099E-03     210.591E-03    -105.492E-03     18.2165E-03    -105.433E-03     210.990E-03    -105.175E-03     17.2540E-03
              69     16.2031E-03     119.706E-03    -2.09667E+06     89.7676E+06     88.5596E+06    -1.74982E+06    -106.332E-03     211.777E-03    -105.445E-03     19.0084E-03    -106.654E-03     212.153E-03    -105.129E-03     18.0389E-03
              70     16.2035E-03     120.880E-03    -2.56040E+06     84.4380E+06     86.5694E+06    -1.87935E+06    -107.893E-03     213.284E-03    -105.391E-03     19.9136E-03    -108.208E-03     213.639E-03    -105.077E-03     18.9343E-03
              71     16.2034E-03     122.055E-03    -1.73856E+06     79.1998E+06     85.7649E+06    -1.68751E+06    -109.672E-03     215.010E-03    -105.337E-03     20.8910E-03    -109.976E-03     215.339E-03    -105.021E-03     19.9025E-03
              72     16.2039E-03     123.233E-03    -2.89869E+06     73.6977E+06     84.7522E+06    -2.07121E+06    -111.585E-03     216.867E-03    -105.282E-03     21.9442E-03    -111.886E-03     217.174E-03    -104.961E-03     20.9358E-03
              73     16.2037E-03     124.413E-03    -1.57442E+06     67.2929E+06     83.9019E+06    -2.28989E+06    -113.631E-03     218.853E-03    -105.221E-03     23.1006E-03    -113.917E-03     219.129E-03    -104.897E-03     22.0719E-03
              74     16.2044E-03     125.595E-03    -3.16818E+06     59.4951E+06     82.3724E+06    -2.99626E+06    -115.841E-03     220.995E-03    -105.153E-03     24.4088E-03    -116.124E-03     221.238E-03    -104.823E-03     23.3512E-03
              75     16.2044E-03     126.780E-03    -680.124E+03     51.4731E+06     83.1161E+06    -2.35277E+06    -118.293E-03     223.369E-03    -105.077E-03     25.9231E-03    -118.555E-03     223.571E-03    -104.735E-03     24.8545E-03
              76     16.2055E-03     127.968E-03    -4.17447E+06     42.7767E+06     81.2566E+06    -3.39387E+06    -121.020E-03     226.001E-03    -104.981E-03     27.6545E-03    -121.287E-03     226.169E-03    -104.631E-03     26.5527E-03
              77     16.2056E-03     129.159E-03     100.893E+03     33.6911E+06     81.4840E+06    -2.44872E+06    -124.134E-03     228.990E-03    -104.856E-03     30.3793E-03    -124.368E-03     229.108E-03    -104.497E-03     29.2980E-03
              78     16.2079E-03     130.355E-03    -1.88973E+06     24.0704E+06     79.6012E+06    -4.11658E+06    -127.663E-03     232.367E-03    -104.704E-03     33.6198E-03    -127.889E-03     232.441E-03    -104.338E-03     32.5613E-03
              79     16.2078E-03     131.556E-03     1.45942E+06     19.3444E+06     78.1043E+06     32.4525E+03    -130.574E-03     235.130E-03    -104.555E-03     36.2895E-03    -130.769E-03     235.173E-03    -104.195E-03     35.3730E-03
              80     16.2103E-03     132.758E-03    -3.88767E+06     22.9167E+06     71.7512E+06     2.10882E+06    -131.626E-03     236.063E-03    -104.437E-03     38.0567E-03    -131.835E-03     236.132E-03    -104.106E-03     37.2914E-03
              81     16.2094E-03     133.960E-03      295.85E+03     24.1138E+06     64.8217E+06    -4.41233E+06    -130.197E-03     234.588E-03    -104.391E-03     40.3555E-03    -130.360E-03     234.650E-03    -104.103E-03     39.7630E-03
              82     16.2113E-03     135.162E-03     6.39447E+06     20.4814E+06     46.9226E+06    -3.44808E+06    -111.989E-03     216.805E-03    -104.816E-03     29.9245E-03    -112.065E-03     216.845E-03    -104.620E-03     29.6768E-03
              83     15.3641E-03     136.262E-03    -9.50137E+06    -7.19071E+06     31.5107E+06    -3.57543E+06    -95.2622E-03     200.776E-03    -105.514E-03     8.72558E-03    -95.3416E-03     200.716E-03    -105.332E-03     8.55486E-03
              84     14.5345E-03     136.179E-03     608.075E+03    -5.14370E+06     55.1943E+06     77.0791E+03    -94.5087E-03     200.548E-03    -106.039E-03    -8.09385E-03    -94.5731E-03     200.445E-03    -105.756E-03    -8.24316E-03
              85     13.7136E-03     136.087E-03    -1.07820E+06     6.62256E+06     70.8006E+06    -919.216E+03    -93.0234E-03     199.561E-03    -106.538E-03    -20.0638E-03    -93.1350E-03     199.493E-03    -106.192E-03    -20.1984E-03
              86     12.8945E-03     135.996E-03     1.66929E+06    -1.61879E+06     76.4102E+06    -5.90374E+06    -92.4825E-03     199.544E-03    -107.062E-03    -27.0215E-03    -92.5762E-03     199.420E-03    -106.680E-03    -27.2260E-03
              87     12.0783E-03     135.906E-03     5.08885E+06    -546.167E+03     82.6664E+06    -5.29599E+06    -93.1995E-03     200.802E-03    -107.603E-03    -31.4954E-03    -93.2867E-03     200.666E-03    -107.196E-03    -31.6963E-03
              88     11.2642E-03     135.819E-03     6.80141E+06    -1.41239E+06     85.7519E+06    -4.26612E+06    -94.5555E-03     202.681E-03    -108.126E-03    -33.9628E-03    -94.6377E-03     202.533E-03    -107.705E-03    -34.1522E-03
              89     10.4519E-03     135.734E-03     8.11067E+06     79.3106E+03     86.8344E+06    -4.73061E+06    -96.2617E-03     204.869E-03    -108.607E-03    -35.1377E-03    -96.3415E-03     204.723E-03    -108.185E-03    -35.3331E-03
              90     9.64161E-03     135.654E-03     10.2701E+06    -643.000E+03     86.3862E+06    -5.66985E+06    -98.1905E-03     207.228E-03    -109.038E-03    -35.5263E-03    -98.2583E-03     207.076E-03    -108.620E-03    -35.7350E-03
              91     8.83299E-03     135.578E-03     13.1041E+06    -1.62710E+06     85.8858E+06    -5.61595E+06    -100.129E-03     209.541E-03    -109.412E-03    -35.2482E-03    -100.181E-03     209.380E-03    -108.999E-03    -35.4579E-03
              92     8.02596E-03     135.508E-03     15.0675E+06    -1.68216E+06     83.9609E+06    -4.77107E+06    -101.914E-03     211.637E-03    -109.722E-03    -34.3142E-03    -101.954E-03     211.475E-03    -109.322E-03    -34.5139E-03
              93     7.22018E-03     135.442E-03     16.3055E+06    -70.1955E+03     80.6191E+06    -4.94650E+06    -103.501E-03     213.476E-03    -109.974E-03    -32.8149E-03    -103.533E-03     213.325E-03    -109.595E-03    -33.0163E-03
              94     6.41535E-03     135.382E-03     17.7804E+06    -929.090E+03     76.2167E+06    -5.54719E+06    -104.949E-03     215.129E-03    -110.180E-03    -30.8781E-03    -104.967E-03     214.978E-03    -109.824E-03    -31.0859E-03
              95     5.61143E-03     135.328E-03     19.7262E+06    -504.098E+03     71.3959E+06    -6.07092E+06    -106.238E-03     216.578E-03    -110.340E-03    -28.4842E-03    -106.241E-03     216.434E-03    -110.011E-03    -28.6956E-03
              96     4.80830E-03     135.281E-03     22.1871E+06    -1.28510E+06     64.9316E+06    -6.40652E+06    -107.354E-03     217.811E-03    -110.456E-03    -25.6137E-03    -107.336E-03     217.669E-03    -110.162E-03    -25.8235E-03
              97     4.00581E-03     135.239E-03     25.0884E+06    -1.39890E+06     57.9826E+06    -6.34078E+06    -108.319E-03     218.856E-03    -110.537E-03    -22.2809E-03    -108.277E-03     218.720E-03    -110.282E-03    -22.4806E-03
              98     3.20390E-03     135.205E-03     28.2140E+06    -1.74719E+06     51.2603E+06    -6.09480E+06    -109.139E-03     219.728E-03    -110.590E-03    -18.5094E-03    -109.072E-03     219.596E-03    -110.372E-03    -18.6935E-03
              99     2.40247E-03     135.178E-03     31.5016E+06    -2.00615E+06     45.5920E+06    -5.71117E+06    -109.787E-03     220.405E-03    -110.618E-03    -14.3461E-03    -109.697E-03     220.275E-03    -110.433E-03    -14.5103E-03
             100     1.60143E-03     135.159E-03     34.5283E+06    -3.02103E+06     41.1838E+06    -4.85965E+06    -110.265E-03     220.886E-03    -110.622E-03    -9.92768E-03    -110.153E-03     220.754E-03    -110.461E-03    -10.0638E-03
             101     800.609E-06     135.146E-03     37.2792E+06    -4.27171E+06     37.1949E+06    -3.68895E+06    -110.524E-03     221.105E-03    -110.581E-03    -5.69812E-03    -110.392E-03     220.968E-03    -110.442E-03    -5.79987E-03
             102     813.770E-09     133.958E-03     23.1435E+06    -11.9479E+06     23.1087E+06    -2.95011E+06    -105.211E-03     209.995E-03    -104.784E-03    -2.15652E-03    -105.116E-03     209.863E-03    -104.684E-03    -2.21893E-03
             103    -115.256E-09     132.802E-03    -8.21667E+06    -27.8404E+06    -6.35292E+06    -4.17967E+06    -96.0771E-03     191.744E-03    -95.6665E-03     374.684E-06    -96.0707E-03     191.624E-03    -95.6460E-03     308.722E-06
             104     124.510E-09     131.661E-03    -45.5002E+06    -47.7882E+06     -44.802E+06    -5.22395E+06    -90.6680E-03     181.214E-03    -90.5458E-03     2.41909E-03    -90.7617E-03     181.105E-03    -90.6346E-03     2.34034E-03
             105     77.0495E-09     130.529E-03    -87.6044E+06    -69.7966E+06    -86.8008E+06    -5.44663E+06    -88.7541E-03     177.346E-03    -88.5918E-03     4.12792E-03    -88.9650E-03     177.250E-03    -88.7975E-03     4.05979E-03
             106    -10.6810E-09     129.397E-03    -129.819E+06    -91.7126E+06    -129.679E+06    -5.11817E+06    -89.2329E-03     178.391E-03    -89.1584E-03     5.05456E-03    -89.5609E-03     178.309E-03    -89.4856E-03     4.99917E-03
             107     56.8369E-09     128.262E-03    -166.324E+06    -111.171E+06    -166.496E+06    -4.19432E+06    -91.2211E-03     182.377E-03    -91.1555E-03     5.40812E-03    -91.6502E-03     182.303E-03    -91.5856E-03     5.36749E-03
             108    -9.07073E-09     127.122E-03    -171.630E+06    -126.522E+06    -172.089E+06    -3.14482E+06    -93.8902E-03     187.701E-03    -93.8107E-03     5.38094E-03    -94.3155E-03     187.566E-03    -94.2389E-03     5.35052E-03
             109     74.9959E-09     125.975E-03    -149.749E+06    -137.400E+06    -149.934E+06    -1.97487E+06    -96.6398E-03     193.176E-03    -96.5360E-03     5.17757E-03    -96.9721E-03     192.923E-03    -96.8693E-03     5.15538E-03
             110     15.8498E-09     124.822E-03    -129.981E+06    -144.996E+06    -130.154E+06    -1.56891E+06    -99.0871E-03     198.048E-03    -98.9608E-03     4.94405E-03    -99.3382E-03     197.700E-03    -99.2128E-03     4.91925E-03
             111     87.1279E-09     123.663E-03    -119.736E+06    -151.660E+06    -119.745E+06    -1.55517E+06    -101.147E-03     202.154E-03    -101.007E-03     4.73643E-03    -101.352E-03     201.743E-03    -101.212E-03     4.70469E-03
             112     27.6405E-09     122.501E-03    -115.637E+06    -158.759E+06    -115.704E+06    -1.73262E+06    -102.877E-03     205.613E-03    -102.736E-03     4.57388E-03    -103.058E-03     205.155E-03    -102.917E-03     4.53403E-03
             113     77.4840E-09     121.335E-03    -114.986E+06    -166.396E+06    -115.008E+06    -1.80493E+06    -104.361E-03     208.588E-03    -104.227E-03     4.44705E-03    -104.528E-03     208.090E-03    -104.394E-03     4.40151E-03
             114     24.7566E-09     120.166E-03    -115.591E+06    -174.317E+06    -115.683E+06    -1.81760E+06    -105.650E-03     211.179E-03    -105.529E-03     4.34777E-03    -105.808E-03     210.643E-03    -105.687E-03     4.29765E-03
             115     60.3022E-09     118.994E-03    -116.628E+06    -181.877E+06    -116.733E+06    -1.63718E+06    -106.753E-03     213.394E-03    -106.642E-03     4.26216E-03    -106.903E-03     212.824E-03    -106.793E-03     4.20962E-03
             116     24.7234E-09     117.819E-03    -117.740E+06    -188.734E+06    -117.858E+06    -1.46626E+06    -107.639E-03     215.174E-03    -107.535E-03     4.18699E-03    -107.784E-03     214.572E-03    -107.680E-03     4.13130E-03
             117     49.4029E-09     116.643E-03    -118.709E+06    -194.663E+06    -118.850E+06    -1.22184E+06    -108.273E-03     216.444E-03    -108.171E-03     4.12132E-03    -108.412E-03     215.815E-03    -108.311E-03     4.06321E-03
             118     31.3218E-09     115.466E-03    -119.566E+06    -199.711E+06    -119.661E+06    -1.06107E+06    -108.633E-03     217.164E-03    -108.531E-03     4.07189E-03    -108.768E-03     216.513E-03    -108.666E-03     4.01061E-03
             119     44.7908E-09     114.288E-03    -120.190E+06    -203.998E+06    -120.308E+06    -889.801E+03    -108.735E-03     217.364E-03    -108.630E-03     4.04176E-03    -108.866E-03     216.694E-03    -108.761E-03     3.97836E-03
             120     40.1112E-09     113.110E-03    -120.860E+06    -207.738E+06    -120.896E+06    -812.739E+03    -108.621E-03     217.133E-03    -108.512E-03     4.03346E-03    -108.749E-03     216.445E-03    -108.640E-03     3.96778E-03
             121     42.7624E-09     111.933E-03    -121.330E+06    -211.098E+06    -121.414E+06    -721.508E+03    -108.352E-03     216.592E-03    -108.240E-03     4.04478E-03    -108.477E-03     215.889E-03    -108.365E-03     3.97809E-03
             122     48.2771E-09     110.757E-03    -121.902E+06    -214.193E+06    -121.889E+06    -692.851E+03    -107.995E-03     215.873E-03    -107.878E-03     4.07371E-03    -108.117E-03     215.156E-03    -108.000E-03     4.00609E-03
             123     41.3664E-09     109.581E-03    -122.453E+06    -217.166E+06    -122.506E+06    -661.048E+03    -107.606E-03     215.094E-03    -107.487E-03     4.11595E-03    -107.727E-03     214.364E-03    -107.607E-03     4.04816E-03
             124     53.5291E-09     108.407E-03    -123.212E+06    -219.955E+06    -123.196E+06    -611.674E+03    -107.234E-03     214.347E-03    -107.113E-03     4.16569E-03    -107.353E-03     213.605E-03    -107.231E-03     4.09846E-03
             125     39.8581E-09     107.233E-03    -124.005E+06    -222.527E+06    -124.047E+06    -554.931E+03    -106.906E-03     213.689E-03    -106.783E-03     4.21603E-03    -107.024E-03     212.937E-03    -106.901E-03     4.14975E-03
             126     56.2750E-09     106.060E-03    -124.842E+06    -224.865E+06    -124.825E+06    -507.526E+03    -106.636E-03     213.148E-03    -106.512E-03     4.26256E-03    -106.753E-03     212.386E-03    -106.629E-03     4.19723E-03
             127     38.9535E-09     104.888E-03    -125.415E+06    -227.066E+06    -125.446E+06    -486.577E+03    -106.424E-03     212.724E-03    -106.300E-03     4.30141E-03    -106.540E-03     211.953E-03    -106.416E-03     4.23667E-03
             128     57.3782E-09     103.716E-03    -125.839E+06    -229.105E+06    -125.841E+06    -437.298E+03    -106.263E-03     212.402E-03    -106.139E-03     4.33212E-03    -106.378E-03     211.622E-03    -106.254E-03     4.26830E-03
             129     38.1482E-09     102.544E-03    -125.789E+06    -230.904E+06    -125.831E+06    -371.084E+03    -106.144E-03     212.165E-03    -106.020E-03     4.35478E-03    -106.256E-03     211.376E-03    -106.132E-03     4.29205E-03
             130     57.6997E-09     101.373E-03    -125.398E+06    -232.397E+06    -125.405E+06    -301.263E+03    -106.058E-03     211.991E-03    -105.934E-03     4.37154E-03    -106.166E-03     211.193E-03    -106.042E-03     4.30989E-03
             131     38.2212E-09     100.202E-03    -124.767E+06    -233.648E+06    -124.800E+06    -254.720E+03    -105.994E-03     211.865E-03    -105.870E-03     4.38371E-03    -106.099E-03     211.059E-03    -105.975E-03     4.32279E-03
             132     57.4300E-09     99.0305E-03    -124.096E+06    -234.654E+06    -124.112E+06    -193.020E+03    -105.948E-03     211.773E-03    -105.824E-03     4.39250E-03    -106.049E-03     210.960E-03    -105.925E-03     4.33248E-03
             133     38.5633E-09     97.8596E-03    -123.356E+06    -235.447E+06    -123.382E+06    -152.586E+03    -105.915E-03     211.706E-03    -105.791E-03     4.39873E-03    -106.012E-03     210.887E-03    -105.888E-03     4.33930E-03
             134     56.7632E-09     96.6887E-03    -122.619E+06    -236.041E+06    -122.639E+06    -104.626E+03    -105.890E-03     211.657E-03    -105.767E-03     4.40302E-03    -105.984E-03     210.833E-03    -105.860E-03     4.34427E-03
             135     39.1264E-09     95.5179E-03    -121.972E+06    -236.483E+06    -121.989E+06    -79.8601E+03    -105.873E-03     211.622E-03    -105.749E-03     4.40663E-03    -105.963E-03     210.794E-03    -105.839E-03     4.34825E-03
             136     56.4655E-09     94.3471E-03    -121.366E+06    -236.764E+06    -121.395E+06    -32.5196E+03    -105.862E-03     211.600E-03    -105.738E-03     4.40946E-03    -105.950E-03     210.768E-03    -105.825E-03     4.35173E-03
             137     39.8789E-09     93.1764E-03    -120.795E+06    -236.867E+06    -120.809E+06     4.32302E+03    -105.855E-03     211.586E-03    -105.731E-03     4.41132E-03    -105.941E-03     210.753E-03    -105.817E-03     4.35409E-03
             138     55.5848E-09     92.0057E-03    -120.266E+06    -236.877E+06    -120.280E+06     7.99736E+03    -105.851E-03     211.579E-03    -105.728E-03     4.41277E-03    -105.935E-03     210.744E-03    -105.811E-03     4.35563E-03
             139     40.0802E-09     90.8349E-03    -119.776E+06    -236.843E+06    -119.798E+06     25.7873E+03    -105.849E-03     211.575E-03    -105.726E-03     4.41296E-03    -105.931E-03     210.739E-03    -105.808E-03     4.35605E-03
             140     54.9290E-09     89.6642E-03    -119.439E+06    -236.731E+06    -119.452E+06     42.8837E+03    -105.848E-03     211.572E-03    -105.724E-03     4.41252E-03    -105.929E-03     210.735E-03    -105.805E-03     4.35586E-03
             141     40.7792E-09     88.4935E-03    -119.211E+06    -236.599E+06    -119.224E+06     35.8519E+03    -105.846E-03     211.567E-03    -105.722E-03     4.41130E-03    -105.926E-03     210.731E-03    -105.802E-03     4.35456E-03
             142     55.0297E-09     87.3228E-03    -119.034E+06    -236.453E+06    -119.055E+06     47.3088E+03    -105.842E-03     211.560E-03    -105.718E-03     4.40925E-03    -105.922E-03     210.723E-03    -105.797E-03     4.35265E-03
             143     41.8399E-09     86.1521E-03    -118.981E+06    -236.251E+06    -118.997E+06     63.4258E+03    -105.837E-03     211.549E-03    -105.712E-03     4.40753E-03    -105.917E-03     210.714E-03    -105.792E-03     4.35113E-03
             144     54.5832E-09     84.9814E-03    -118.963E+06    -236.024E+06    -118.972E+06     57.0855E+03    -105.832E-03     211.538E-03    -105.707E-03     4.40669E-03    -105.912E-03     210.704E-03    -105.787E-03     4.35019E-03
             145     42.5260E-09     83.8107E-03    -118.990E+06    -235.840E+06    -119.003E+06     43.9175E+03    -105.829E-03     211.532E-03    -105.703E-03     4.40772E-03    -105.910E-03     210.699E-03    -105.784E-03     4.35105E-03
             146     54.2286E-09     82.6400E-03    -119.161E+06    -235.680E+06    -119.176E+06     46.8746E+03    -105.830E-03     211.534E-03    -105.705E-03     4.40994E-03    -105.911E-03     210.702E-03    -105.786E-03     4.35333E-03
             147     42.1911E-09     81.4693E-03    -119.472E+06    -235.555E+06    -119.476E+06     28.1752E+03    -105.835E-03     211.545E-03    -105.710E-03     4.41188E-03    -105.918E-03     210.714E-03    -105.793E-03     4.35507E-03
             148     54.4328E-09     80.2986E-03    -119.776E+06    -235.446E+06    -119.806E+06     36.5524E+03    -105.841E-03     211.558E-03    -105.717E-03     4.41199E-03    -105.926E-03     210.729E-03    -105.800E-03     4.35529E-03
             149     42.1688E-09     79.1279E-03    -119.973E+06    -235.241E+06    -119.992E+06     76.7491E+03    -105.848E-03     211.572E-03    -105.724E-03     4.41172E-03    -105.933E-03     210.744E-03    -105.808E-03     4.35557E-03
             150     53.9972E-09     77.9572E-03    -120.016E+06    -235.089E+06    -119.996E+06     6.76628E+03    -105.853E-03     211.581E-03    -105.728E-03     4.41012E-03    -105.939E-03     210.754E-03    -105.814E-03     4.35306E-03
             151     42.6686E-09     76.7864E-03    -119.886E+06    -235.123E+06    -119.933E+06    -4.63031E+03    -105.853E-03     211.581E-03    -105.728E-03     4.40666E-03    -105.938E-03     210.754E-03    -105.813E-03     4.34943E-03
             152     53.4375E-09     75.6157E-03    -119.888E+06    -235.061E+06    -119.894E+06     46.7688E+03    -105.849E-03     211.572E-03    -105.723E-03     4.40335E-03    -105.934E-03     210.745E-03    -105.808E-03     4.34677E-03
             153     44.2868E-09     74.4450E-03    -119.901E+06    -235.041E+06    -119.896E+06    -19.7804E+03    -105.841E-03     211.557E-03    -105.716E-03     4.40129E-03    -105.926E-03     210.730E-03    -105.801E-03     4.34379E-03
             154     52.0520E-09     73.2743E-03    -119.815E+06    -235.164E+06    -119.846E+06    -22.5201E+03    -105.833E-03     211.541E-03    -105.708E-03     4.40048E-03    -105.918E-03     210.713E-03    -105.792E-03     4.34294E-03
             155     45.1243E-09     72.1036E-03    -119.846E+06    -235.250E+06    -119.853E+06     1.00420E+03    -105.828E-03     211.531E-03    -105.703E-03     4.40147E-03    -105.913E-03     210.702E-03    -105.787E-03     4.34428E-03
             156     51.7040E-09     70.9329E-03    -119.947E+06    -235.349E+06    -119.950E+06    -31.9112E+03    -105.827E-03     211.529E-03    -105.702E-03     4.40352E-03    -105.912E-03     210.701E-03    -105.786E-03     4.34592E-03
             157     46.0755E-09     69.7622E-03    -120.041E+06    -235.517E+06    -120.067E+06    -27.3134E+03    -105.832E-03     211.538E-03    -105.706E-03     4.40584E-03    -105.917E-03     210.709E-03    -105.791E-03     4.34833E-03
             158     50.0673E-09     68.5915E-03    -120.059E+06    -235.566E+06    -120.082E+06     20.9244E+03    -105.840E-03     211.555E-03    -105.715E-03     4.40703E-03    -105.925E-03     210.726E-03    -105.800E-03     4.35019E-03
             159     49.2763E-09     66.2501E-03    -119.794E+06    -235.553E+06    -119.829E+06     13.1373E+03    -105.857E-03     211.589E-03    -105.732E-03     4.40604E-03    -105.941E-03     210.759E-03    -105.816E-03     4.34906E-03
             160     47.8113E-09     65.0793E-03    -119.694E+06    -235.507E+06    -119.693E+06     23.3904E+03    -105.862E-03     211.599E-03    -105.737E-03     4.40555E-03    -105.946E-03     210.769E-03    -105.820E-03     4.34868E-03
             161     49.6355E-09     63.9085E-03    -119.606E+06    -235.521E+06    -119.618E+06    -13.5281E+03    -105.866E-03     211.606E-03    -105.740E-03     4.40553E-03    -105.950E-03     210.776E-03    -105.823E-03     4.34813E-03
             162     47.7333E-09     62.7378E-03    -119.569E+06    -235.605E+06    -119.587E+06    -7.94329E+03    -105.869E-03     211.613E-03    -105.744E-03     4.40612E-03    -105.953E-03     210.783E-03    -105.827E-03     4.34878E-03
             163     49.4271E-09     61.5670E-03    -119.570E+06    -235.650E+06    -119.585E+06     3.90285E+03    -105.874E-03     211.621E-03    -105.747E-03     4.40706E-03    -105.957E-03     210.790E-03    -105.830E-03     4.34987E-03
             164     48.8918E-09     60.3962E-03    -119.613E+06    -235.657E+06    -119.629E+06     8.73720E+03    -105.878E-03     211.630E-03    -105.752E-03     4.40824E-03    -105.962E-03     210.799E-03    -105.835E-03     4.35108E-03
             165     48.7464E-09     59.2254E-03    -119.674E+06    -235.657E+06    -119.685E+06     9.93349E+03    -105.885E-03     211.643E-03    -105.758E-03     4.41022E-03    -105.969E-03     210.813E-03    -105.842E-03     4.35303E-03
             166     49.8281E-09     58.0546E-03    -119.722E+06    -235.676E+06    -119.733E+06    -2.80588E+03    -105.894E-03     211.662E-03    -105.767E-03     4.41264E-03    -105.978E-03     210.831E-03    -105.851E-03     4.35524E-03
             167     48.4251E-09     56.8837E-03    -119.774E+06    -235.671E+06    -119.803E+06     24.7515E+03    -105.907E-03     211.686E-03    -105.779E-03     4.41547E-03    -105.991E-03     210.855E-03    -105.863E-03     4.35839E-03
             168     50.3173E-09     55.7128E-03    -119.795E+06    -235.621E+06    -119.789E+06     14.0238E+03    -105.922E-03     211.716E-03    -105.794E-03     4.41848E-03    -106.006E-03     210.886E-03    -105.878E-03     4.36120E-03
             169     49.2569E-09     54.5419E-03    -119.745E+06    -235.666E+06    -119.764E+06    -15.2117E+03    -105.941E-03     211.753E-03    -105.812E-03     4.42303E-03    -106.025E-03     210.923E-03    -105.896E-03     4.36528E-03
             170     50.3794E-09     53.3710E-03    -119.767E+06    -235.666E+06    -119.797E+06     33.2028E+03    -105.964E-03     211.799E-03    -105.835E-03     4.42810E-03    -106.048E-03     210.969E-03    -105.919E-03     4.37089E-03
             171     49.8334E-09     52.1999E-03    -119.904E+06    -235.577E+06    -119.898E+06     24.8653E+03    -105.991E-03     211.852E-03    -105.861E-03     4.43364E-03    -106.075E-03     211.023E-03    -105.946E-03     4.37621E-03
             172     50.6322E-09     51.0288E-03    -120.019E+06    -235.546E+06    -120.044E+06     8.61432E+03    -106.022E-03     211.914E-03    -105.892E-03     4.44047E-03    -106.107E-03     211.085E-03    -105.977E-03     4.38270E-03
             173     49.9712E-09     49.8577E-03    -120.099E+06    -235.482E+06    -120.113E+06     37.3356E+03    -106.058E-03     211.985E-03    -105.927E-03     4.44822E-03    -106.143E-03     211.157E-03    -106.012E-03     4.39069E-03
             174     51.1734E-09     48.6864E-03    -120.193E+06    -235.376E+06    -120.202E+06     28.9013E+03    -106.099E-03     212.067E-03    -105.968E-03     4.45675E-03    -106.184E-03     211.239E-03    -106.053E-03     4.39895E-03
             175     50.2689E-09     47.5150E-03    -120.257E+06    -235.304E+06    -120.271E+06     20.7105E+03    -106.145E-03     212.158E-03    -106.014E-03     4.46613E-03    -106.231E-03     211.331E-03    -106.099E-03     4.40805E-03
             176     51.4999E-09     46.3436E-03    -120.298E+06    -235.267E+06    -120.308E+06     12.9052E+03    -106.196E-03     212.261E-03    -106.065E-03     4.47632E-03    -106.283E-03     211.434E-03    -106.151E-03     4.41794E-03
             177     50.1706E-09     45.1720E-03    -120.306E+06    -235.247E+06    -120.323E+06     11.7713E+03    -106.252E-03     212.373E-03    -106.121E-03     4.48675E-03    -106.339E-03     211.546E-03    -106.207E-03     4.42815E-03
             178     51.2197E-09     44.0002E-03    -120.250E+06    -235.244E+06    -120.257E+06     5.32521E+03    -106.312E-03     212.494E-03    -106.182E-03     4.49726E-03    -106.398E-03     211.667E-03    -106.267E-03     4.43835E-03
             179     49.2598E-09     42.8283E-03    -120.139E+06    -235.288E+06    -120.153E+06    -11.4969E+03    -106.374E-03     212.619E-03    -106.245E-03     4.50737E-03    -106.459E-03     211.792E-03    -106.331E-03     4.44804E-03
             180     48.2271E-09     41.6563E-03    -119.995E+06    -235.379E+06    -120.010E+06    -15.5847E+03    -106.432E-03     212.742E-03    -106.309E-03     4.51459E-03    -106.517E-03     211.913E-03    -106.394E-03     4.45509E-03
             181     43.3859E-09     40.4841E-03    -119.831E+06    -235.490E+06    -119.848E+06    -20.9372E+03    -106.480E-03     212.844E-03    -106.365E-03     4.51606E-03    -106.564E-03     212.015E-03    -106.449E-03     4.45646E-03
             182     41.4684E-09     39.3118E-03    -119.666E+06    -235.602E+06    -119.687E+06    -17.4431E+03    -106.507E-03     212.904E-03    -106.396E-03     4.51106E-03    -106.591E-03     212.073E-03    -106.480E-03     4.45157E-03
             183     44.1245E-09     38.1395E-03    -119.492E+06    -235.681E+06    -119.510E+06    -7.92346E+03    -106.514E-03     212.914E-03    -106.399E-03     4.50939E-03    -106.597E-03     212.082E-03    -106.482E-03     4.45005E-03
             184     47.6169E-09     36.9672E-03    -119.324E+06    -235.715E+06    -119.342E+06     1.94258E+03    -106.507E-03     212.892E-03    -106.385E-03     4.51543E-03    -106.589E-03     212.060E-03    -106.467E-03     4.45616E-03
             185     47.5310E-09     35.7949E-03    -119.194E+06    -235.700E+06    -119.212E+06     15.5365E+03    -106.492E-03     212.859E-03    -106.367E-03     4.52234E-03    -106.573E-03     212.027E-03    -106.449E-03     4.46315E-03
             186     48.7555E-09     34.6227E-03    -119.077E+06    -235.634E+06    -119.094E+06     23.9881E+03    -106.471E-03     212.818E-03    -106.347E-03     4.52701E-03    -106.553E-03     211.986E-03    -106.429E-03     4.46778E-03
             187     45.5179E-09     33.4506E-03    -118.985E+06    -235.529E+06    -119.005E+06     33.4632E+03    -106.443E-03     212.764E-03    -106.322E-03     4.52655E-03    -106.524E-03     211.932E-03    -106.403E-03     4.46734E-03
             188     46.5778E-09     32.2785E-03    -118.935E+06    -235.398E+06    -118.951E+06     34.0835E+03    -106.402E-03     212.687E-03    -106.285E-03     4.52175E-03    -106.483E-03     211.855E-03    -106.366E-03     4.46252E-03
             189     40.2870E-09     31.1065E-03    -118.893E+06    -235.277E+06    -118.911E+06     27.7314E+03    -106.342E-03     212.572E-03    -106.230E-03     4.50588E-03    -106.423E-03     211.741E-03    -106.311E-03     4.44661E-03
             190     45.3246E-09     29.9347E-03    -118.833E+06    -235.165E+06    -118.854E+06     26.7751E+03    -106.259E-03     212.407E-03    -106.148E-03     4.48194E-03    -106.340E-03     211.576E-03    -106.229E-03     4.42285E-03
             191     39.9556E-09     28.7631E-03    -118.764E+06    -235.065E+06    -118.782E+06     22.4777E+03    -106.150E-03     212.192E-03    -106.043E-03     4.45258E-03    -106.231E-03     211.362E-03    -106.123E-03     4.39374E-03
             192     39.0929E-09     27.5918E-03    -118.709E+06    -234.981E+06    -118.730E+06     23.5953E+03    -106.014E-03     211.927E-03    -105.912E-03     4.41473E-03    -106.096E-03     211.097E-03    -105.993E-03     4.35649E-03
             193     37.9704E-09     26.4208E-03    -118.645E+06    -234.873E+06    -118.674E+06     29.0690E+03    -105.845E-03     211.591E-03    -105.746E-03     4.36556E-03    -105.926E-03     210.762E-03    -105.827E-03     4.30805E-03
             194     36.4218E-09     25.2503E-03    -118.506E+06    -234.702E+06    -118.547E+06     52.2544E+03    -105.621E-03     211.145E-03    -105.524E-03     4.29191E-03    -105.702E-03     210.316E-03    -105.605E-03     4.23554E-03
             195     37.1616E-09     24.0804E-03    -118.245E+06    -234.396E+06    -118.290E+06     86.4446E+03    -105.318E-03     210.540E-03    -105.222E-03     4.19299E-03    -105.398E-03     209.711E-03    -105.302E-03     4.13813E-03
             196     36.1412E-09     22.9114E-03    -117.902E+06    -233.971E+06    -117.950E+06     107.348E+03    -104.911E-03     209.730E-03    -104.819E-03     4.06765E-03    -104.990E-03     208.902E-03    -104.899E-03     4.01434E-03
             197     30.6405E-09     21.7434E-03    -117.630E+06    -233.516E+06    -117.681E+06     98.1643E+03    -104.366E-03     208.656E-03    -104.290E-03     3.90414E-03    -104.445E-03     207.830E-03    -104.369E-03     3.85244E-03
             198     19.1834E-09     20.5769E-03    -117.367E+06    -233.071E+06    -117.456E+06     103.824E+03    -103.628E-03     207.211E-03    -103.583E-03     3.68133E-03    -103.707E-03     206.387E-03    -103.662E-03     3.63199E-03
             199    -2.06475E-09     19.4123E-03    -116.942E+06    -232.550E+06    -117.042E+06     130.063E+03    -102.616E-03     205.207E-03    -102.591E-03     3.35426E-03    -102.694E-03     204.384E-03    -102.670E-03     3.30855E-03
             200     18.9718E-09     18.2504E-03    -116.262E+06    -231.931E+06    -116.388E+06     139.320E+03    -101.239E-03     202.455E-03    -101.215E-03     2.95889E-03    -101.316E-03     201.632E-03    -101.293E-03     2.91678E-03
             201    -1.62783E-09     17.0923E-03    -115.370E+06    -231.242E+06    -115.507E+06     162.905E+03    -99.4245E-03     198.864E-03    -99.4396E-03     2.52268E-03    -99.4989E-03     198.043E-03    -99.5145E-03     2.48380E-03
             202    -43.0096E-09     15.9388E-03    -114.358E+06    -230.433E+06    -114.483E+06     186.895E+03    -97.1352E-03     194.314E-03    -97.1784E-03     1.94431E-03    -97.2074E-03     193.493E-03    -97.2509E-03     1.90902E-03
             203     16.8745E-09     14.7913E-03    -113.295E+06    -229.549E+06    -113.381E+06     180.661E+03    -94.4086E-03     188.799E-03    -94.3908E-03     1.35160E-03    -94.4784E-03     187.980E-03    -94.4606E-03     1.31767E-03
             204     40.5276E-09     13.6506E-03    -112.192E+06    -228.723E+06    -112.210E+06     159.681E+03    -91.4106E-03     182.718E-03    -91.3073E-03     863.067E-06    -91.4778E-03     181.899E-03    -91.3741E-03     826.936E-06
             205     75.3626E-09     12.5171E-03    -111.120E+06    -228.226E+06    -110.949E+06     4.32539E+03    -88.4703E-03     176.789E-03    -88.3189E-03     525.436E-06    -88.5346E-03     175.970E-03    -88.3816E-03     483.383E-06
             206     63.4132E-09     11.3900E-03    -110.288E+06    -228.573E+06    -109.958E+06    -185.491E+03    -86.1293E-03     172.103E-03    -85.9741E-03     526.285E-06    -86.1902E-03     171.280E-03    -86.0326E-03     478.366E-06
             207     59.2331E-09     10.2671E-03    -109.368E+06    -229.316E+06    -109.076E+06    -100.930E+03    -84.9635E-03     169.817E-03    -84.8531E-03     868.310E-06    -85.0200E-03     168.987E-03    -84.9074E-03     821.209E-06
             208     4.07897E-09     9.14506E-03    -106.073E+06    -229.016E+06    -105.905E+06     374.713E+03    -85.2306E-03     170.408E-03    -85.1778E-03     1.32879E-03    -85.2756E-03     169.571E-03    -85.2215E-03     1.28974E-03
             209     21.6988E-09     8.02054E-03    -99.9517E+06    -226.789E+06    -99.8828E+06     838.462E+03    -86.7163E-03     173.430E-03    -86.7133E-03     1.69444E-03    -86.7429E-03     172.586E-03    -86.7389E-03     1.66356E-03
             210    -40.9806E-09     6.89149E-03    -93.3078E+06    -222.645E+06    -93.3204E+06     1.22181E+06    -88.9734E-03     177.995E-03    -89.0213E-03     1.89270E-03    -88.9823E-03     177.152E-03    -89.0297E-03     1.86850E-03
             211    -17.4052E-09     5.75655E-03    -86.4811E+06    -217.194E+06    -86.5063E+06     1.48232E+06    -91.6001E-03     183.304E-03    -91.7041E-03     1.92667E-03    -91.5927E-03     182.469E-03    -91.6963E-03     1.90770E-03
             212    -93.6787E-09     4.61537E-03    -79.0228E+06    -211.060E+06    -79.0504E+06     1.54852E+06    -94.2752E-03     188.723E-03    -94.4475E-03     1.80895E-03    -94.2501E-03     187.897E-03    -94.4221E-03     1.79390E-03
             213    -76.2272E-09     3.46804E-03    -71.7595E+06    -204.958E+06    -71.8164E+06     1.33113E+06    -96.7270E-03     193.700E-03    -96.9734E-03     1.54019E-03    -96.6849E-03     192.884E-03    -96.9312E-03     1.52745E-03
             214    -155.729E-09     2.31539E-03    -65.8079E+06    -199.940E+06    -65.8248E+06     985.787E+03    -98.7049E-03     197.727E-03    -99.0217E-03     1.12784E-03    -98.6488E-03     196.918E-03    -98.9655E-03     1.11844E-03
             215    -128.333E-09     1.15876E-03    -61.7525E+06    -196.585E+06    -61.8351E+06     590.528E+03    -99.9946E-03     200.357E-03    -100.363E-03     597.911E-06    -99.9287E-03     199.553E-03    -100.297E-03     593.749E-06
             216     813.713E-06     180.411E-18    -60.3821E+06    -195.103E+06    -59.9840E+06     517.806E+03    -100.554E-03     201.294E-03    -100.740E-03     515.829E-06    -100.486E-03     200.493E-03    -100.670E-03     512.323E-06
             217     1.62737E-03     180.411E-18    -60.6332E+06    -194.504E+06    -58.8929E+06     811.715E+03    -100.698E-03     201.362E-03    -100.664E-03     954.988E-06    -100.634E-03     200.563E-03    -100.589E-03     946.727E-06
             218     2.44101E-03     180.411E-18    -60.8864E+06    -193.661E+06    -56.9807E+06     1.12714E+06    -100.792E-03     201.495E-03    -100.703E-03     1.42206E-03    -100.733E-03     200.698E-03    -100.619E-03     1.40890E-03
             219     3.25451E-03     180.411E-18    -61.0364E+06    -191.976E+06    -54.3309E+06     1.25287E+06    -100.942E-03     201.703E-03    -100.761E-03     1.90703E-03    -100.890E-03     200.911E-03    -100.666E-03     1.88651E-03
             220     4.06788E-03     180.411E-18    -61.0517E+06    -184.258E+06    -52.2759E+06     1.25906E+06    -101.149E-03     201.975E-03    -100.827E-03     2.40452E-03    -101.111E-03     201.219E-03    -100.732E-03     2.37495E-03
             221     4.88103E-03     180.411E-18    -60.9071E+06    -170.297E+06    -51.0879E+06     1.02854E+06    -101.426E-03     202.325E-03    -100.899E-03     2.93011E-03    -101.410E-03     201.637E-03    -100.819E-03     2.88827E-03
             222     5.69387E-03     180.411E-18    -60.3170E+06    -154.179E+06    -49.7287E+06     438.856E+03    -101.798E-03     202.791E-03    -100.994E-03     3.48909E-03    -101.804E-03     202.180E-03    -100.931E-03     3.42986E-03
             223     6.50640E-03     180.411E-18    -59.0363E+06    -136.394E+06    -48.4108E+06    -150.497E+03    -102.280E-03     203.393E-03    -101.112E-03     4.08946E-03    -102.309E-03     202.867E-03    -101.071E-03     4.01203E-03
             224     7.31835E-03     180.411E-18    -56.8181E+06    -116.775E+06    -47.3727E+06    -1.22827E+06    -102.890E-03     204.148E-03    -101.257E-03     4.76883E-03    -102.938E-03     203.716E-03    -101.243E-03     4.66604E-03
             225     8.12981E-03     180.411E-18    -53.4017E+06    -95.4241E+06    -46.4400E+06    -2.34337E+06    -103.650E-03     205.083E-03    -101.434E-03     5.50348E-03    -103.712E-03     204.752E-03    -101.450E-03     5.37241E-03
             226     8.94050E-03     180.411E-18    -48.6675E+06    -71.7677E+06    -46.3154E+06    -3.62600E+06    -104.588E-03     206.229E-03    -101.641E-03     6.39222E-03    -104.662E-03     206.010E-03    -101.698E-03     6.22931E-03
             227     9.75020E-03     180.411E-18    -42.5384E+06    -44.5091E+06    -45.6482E+06    -5.18581E+06    -105.738E-03     207.628E-03    -101.890E-03     7.40421E-03    -105.822E-03     207.536E-03    -101.992E-03     7.20103E-03
             228     10.5591E-03     180.411E-18    -35.0092E+06    -12.5011E+06    -45.0623E+06    -6.21332E+06    -107.176E-03     209.360E-03    -102.184E-03     8.61218E-03    -107.271E-03     209.417E-03    -102.341E-03     8.37093E-03
             229     11.3661E-03     180.411E-18    -27.4590E+06     26.5352E+06    -41.3203E+06    -5.69304E+06    -108.972E-03     211.523E-03    -102.551E-03     10.3008E-03    -109.093E-03     211.760E-03    -102.756E-03     10.0355E-03
             230     12.1716E-03     180.411E-18    -21.1093E+06     58.7888E+06    -25.3842E+06    -4.50666E+06    -111.267E-03     214.339E-03    -103.072E-03     12.2504E-03    -111.428E-03     214.707E-03    -103.253E-03     11.9518E-03
             231     12.9751E-03     180.411E-18    -15.0423E+06     78.5717E+06     1.35001E+06    -2.90777E+06    -114.442E-03     218.218E-03    -103.775E-03     15.3069E-03    -114.645E-03     218.642E-03    -103.861E-03     14.9561E-03
             232     13.7739E-03     180.411E-18    -9.81239E+06     94.5755E+06     38.3662E+06    -601.599E+03    -118.634E-03     223.316E-03    -104.683E-03     20.4734E-03    -118.894E-03     223.766E-03    -104.614E-03     20.0660E-03
             233     14.5683E-03     180.411E-18    -6.09021E+06     104.184E+06     76.9134E+06     542.118E+03    -125.161E-03     230.983E-03    -105.822E-03     28.0230E-03    -125.495E-03     231.442E-03    -105.579E-03     27.3975E-03
             234     15.3576E-03     180.411E-18    -2.61060E+06     107.853E+06     97.1972E+06     819.159E+03    -138.146E-03     245.424E-03    -107.277E-03     43.5722E-03    -138.557E-03     245.926E-03    -106.944E-03     42.4923E-03
             235     16.1680E-03     1.24050E-03    -2.16450E+06     107.750E+06     99.6587E+06     1.78312E+06    -139.872E-03     247.093E-03    -107.221E-03     53.7497E-03    -140.342E-03     247.647E-03    -106.875E-03     52.3108E-03
             236     16.1901E-03     2.44415E-03    -3.18188E+06     107.170E+06     99.5719E+06     2.05067E+06    -133.194E-03     239.049E-03    -105.855E-03     43.9834E-03    -133.661E-03     239.596E-03    -105.508E-03     42.4223E-03
             237     16.1978E-03     3.64888E-03    -2.65613E+06     107.540E+06     100.169E+06     656.599E+03    -133.629E-03     238.866E-03    -105.237E-03     30.9299E-03    -134.063E-03     239.382E-03    -104.889E-03     29.3156E-03
             238     16.1986E-03     4.85448E-03    -2.41827E+06     106.966E+06     99.0333E+06    -695.547E+03    -132.402E-03     237.519E-03    -105.117E-03     25.9632E-03    -132.818E-03     238.020E-03    -104.774E-03     24.3642E-03
             239     16.1984E-03     6.05555E-03    -2.26526E+06     105.739E+06     97.7885E+06    -757.104E+03    -129.348E-03     234.531E-03    -105.183E-03     24.9897E-03    -129.751E-03     235.018E-03    -104.844E-03     23.4832E-03
             240     16.1984E-03     7.25196E-03    -2.20187E+06     104.849E+06     96.5517E+06    -13.9570E+03    -125.974E-03     231.242E-03    -105.268E-03     24.2113E-03    -126.367E-03     231.719E-03    -104.934E-03     22.8026E-03
             241     16.1984E-03     8.44473E-03    -2.52332E+06     105.124E+06     95.7927E+06     189.404E+03    -122.816E-03     228.160E-03    -105.344E-03     23.0765E-03    -123.203E-03     228.633E-03    -105.013E-03     21.7490E-03
             242     16.1984E-03     9.63387E-03    -2.44307E+06     105.434E+06     95.3444E+06     6.94668E+03    -119.770E-03     225.186E-03    -105.416E-03     21.9605E-03    -120.149E-03     225.654E-03    -105.089E-03     20.7023E-03
             243     16.1985E-03     10.8196E-03    -2.41698E+06     105.417E+06     94.9839E+06     27.2068E+03    -116.883E-03     222.369E-03    -105.486E-03     20.8909E-03    -117.257E-03     222.832E-03    -105.160E-03     19.6950E-03
             244     16.1984E-03     12.0023E-03    -2.56365E+06     105.255E+06     94.2868E+06    -134.229E+03    -114.235E-03     219.786E-03    -105.551E-03     19.9192E-03    -114.604E-03     220.246E-03    -105.229E-03     18.7740E-03
             245     16.1984E-03     13.1820E-03    -2.25924E+06     105.058E+06     94.0139E+06    -48.7242E+03    -111.867E-03     217.476E-03    -105.609E-03     19.1872E-03    -112.230E-03     217.932E-03    -105.288E-03     18.0870E-03
             246     16.1986E-03     14.3591E-03    -2.41800E+06     105.241E+06     94.9456E+06     321.026E+03    -109.843E-03     215.499E-03    -105.656E-03     18.6254E-03    -110.206E-03     215.952E-03    -105.330E-03     17.5656E-03
             247     16.1988E-03     15.5346E-03    -2.63560E+06     105.789E+06     95.4948E+06     146.944E+03    -108.132E-03     213.821E-03    -105.689E-03     18.1040E-03    -108.495E-03     214.274E-03    -105.361E-03     17.0689E-03
             248     16.1989E-03     16.7080E-03    -2.52723E+06     105.960E+06     95.1483E+06    -16.3915E+03    -106.832E-03     212.541E-03    -105.709E-03     17.7951E-03    -107.193E-03     212.994E-03    -105.384E-03     16.7780E-03
             249     16.1991E-03     17.8805E-03    -2.46058E+06     105.724E+06     95.2183E+06    -26.8625E+03    -105.999E-03     211.720E-03    -105.722E-03     17.5702E-03    -106.359E-03     212.171E-03    -105.395E-03     16.5669E-03
             250     16.1993E-03     19.0524E-03    -2.46285E+06     105.557E+06     95.4959E+06    -54.8597E+03    -105.368E-03     211.098E-03    -105.730E-03     17.3573E-03    -105.727E-03     211.546E-03    -105.402E-03     16.3637E-03
             251     16.1994E-03     20.2235E-03    -2.48041E+06     105.441E+06     95.5067E+06     7.06069E+03    -104.921E-03     210.657E-03    -105.736E-03     17.1843E-03    -105.280E-03     211.105E-03    -105.408E-03     16.1983E-03
             252     16.1993E-03     21.3944E-03    -2.43883E+06     105.495E+06     95.4148E+06     19.2762E+03    -104.687E-03     210.428E-03    -105.742E-03     17.0733E-03    -105.045E-03     210.876E-03    -105.414E-03     16.0914E-03
             253     16.1993E-03     22.5649E-03    -2.47099E+06     105.522E+06     95.3859E+06    -15.8336E+03    -104.493E-03     210.239E-03    -105.746E-03     17.0012E-03    -104.851E-03     210.687E-03    -105.419E-03     16.0225E-03
             254     16.1993E-03     23.7354E-03    -2.45298E+06     105.421E+06     95.3782E+06    -37.9479E+03    -104.314E-03     210.064E-03    -105.750E-03     16.9228E-03    -104.672E-03     210.510E-03    -105.422E-03     15.9466E-03
             255     16.1993E-03     24.9056E-03    -2.34541E+06     105.563E+06     95.4843E+06     118.071E+03    -104.180E-03     209.933E-03    -105.753E-03     16.8744E-03    -104.537E-03     210.379E-03    -105.425E-03     15.9027E-03
             256     16.1994E-03     26.0757E-03    -2.60287E+06     105.835E+06     95.6789E+06     60.7785E+03    -104.074E-03     209.830E-03    -105.756E-03     16.8196E-03    -104.433E-03     210.278E-03    -105.427E-03     15.8493E-03
             257     16.1994E-03     27.2457E-03    -2.39768E+06     105.878E+06     95.7641E+06    -44.4256E+03    -104.006E-03     209.763E-03    -105.757E-03     16.7726E-03    -104.364E-03     210.211E-03    -105.428E-03     15.8023E-03
             258     16.1994E-03     28.4157E-03    -2.49578E+06     105.823E+06     95.7757E+06    -7.41684E+03    -103.968E-03     209.726E-03    -105.758E-03     16.7121E-03    -104.326E-03     210.173E-03    -105.429E-03     15.7438E-03
             259     16.1994E-03     29.5856E-03    -2.44786E+06     105.783E+06     95.7218E+06    -40.2386E+03    -103.953E-03     209.710E-03    -105.757E-03     16.6231E-03    -104.310E-03     210.157E-03    -105.429E-03     15.6562E-03
             260     16.1994E-03     30.7555E-03    -2.34499E+06     105.939E+06     95.7041E+06     121.423E+03    -103.936E-03     209.693E-03    -105.757E-03     16.5037E-03    -104.293E-03     210.140E-03    -105.429E-03     15.5413E-03
             261     16.1994E-03     31.9254E-03    -2.57696E+06     106.292E+06     95.9504E+06     102.487E+03    -103.897E-03     209.656E-03    -105.759E-03     16.3640E-03    -104.255E-03     210.104E-03    -105.430E-03     15.4042E-03
             262     16.1994E-03     33.0952E-03    -2.43756E+06     106.432E+06     96.0011E+06    -15.1640E+03    -103.859E-03     209.619E-03    -105.760E-03     16.2131E-03    -104.217E-03     210.067E-03    -105.431E-03     15.2547E-03
             263     16.1994E-03     34.2649E-03    -2.47794E+06     106.430E+06     95.6675E+06    -4.10046E+03    -103.837E-03     209.597E-03    -105.760E-03     16.0749E-03    -104.194E-03     210.045E-03    -105.432E-03     15.1193E-03
             264     16.1994E-03     35.4347E-03    -2.31723E+06     106.684E+06     95.4994E+06     167.430E+03    -103.833E-03     209.593E-03    -105.760E-03     15.9671E-03    -104.189E-03     210.042E-03    -105.433E-03     15.0156E-03
             265     16.1993E-03     36.6045E-03    -2.58453E+06     107.180E+06     95.4780E+06     171.656E+03    -103.848E-03     209.608E-03    -105.760E-03     15.8819E-03    -104.206E-03     210.060E-03    -105.434E-03     14.9316E-03
             266     16.1993E-03     37.7743E-03    -2.55149E+06     107.237E+06     95.6849E+06    -159.573E+03    -103.872E-03     209.633E-03    -105.761E-03     15.8358E-03    -104.230E-03     210.085E-03    -105.434E-03     14.8816E-03
             267     16.1993E-03     38.9442E-03    -2.32782E+06     106.907E+06     96.1258E+06    -72.8732E+03    -103.916E-03     209.677E-03    -105.760E-03     15.8241E-03    -104.273E-03     210.126E-03    -105.431E-03     14.8713E-03
             268     16.1994E-03     40.1141E-03    -2.49757E+06     106.975E+06     96.3796E+06     119.172E+03    -104.020E-03     209.776E-03    -105.756E-03     15.8138E-03    -104.378E-03     210.225E-03    -105.426E-03     14.8633E-03
             269     16.1994E-03     41.2842E-03    -2.49135E+06     107.193E+06     96.7698E+06     40.5264E+03    -104.123E-03     209.875E-03    -105.752E-03     15.7893E-03    -104.482E-03     210.325E-03    -105.420E-03     14.8371E-03
             270     16.1995E-03     42.4545E-03    -2.51678E+06     107.239E+06     97.1853E+06    -12.7192E+03    -104.179E-03     209.930E-03    -105.751E-03     15.7507E-03    -104.539E-03     210.379E-03    -105.417E-03     14.7972E-03
             271     16.1994E-03     43.6247E-03    -2.41339E+06     107.422E+06     97.1126E+06     93.2638E+03    -104.260E-03     210.009E-03    -105.749E-03     15.7433E-03    -104.619E-03     210.459E-03    -105.416E-03     14.7908E-03
             272     16.1994E-03     44.7951E-03    -2.48552E+06     107.855E+06     97.1626E+06     193.281E+03    -104.347E-03     210.095E-03    -105.747E-03     15.7602E-03    -104.707E-03     210.547E-03    -105.414E-03     14.8082E-03
             273     16.1995E-03     45.9656E-03    -2.57648E+06     108.283E+06     97.3971E+06     89.1585E+03    -104.410E-03     210.156E-03    -105.746E-03     15.7697E-03    -104.772E-03     210.611E-03    -105.413E-03     14.8157E-03
             274     16.1994E-03     47.1361E-03    -2.48063E+06     108.444E+06     97.4184E+06     4.58592E+03    -104.474E-03     210.218E-03    -105.744E-03     15.7849E-03    -104.835E-03     210.673E-03    -105.411E-03     14.8291E-03
             275     16.1995E-03     48.3068E-03    -2.50801E+06     108.483E+06     97.4425E+06     6.93067E+03    -104.523E-03     210.266E-03    -105.743E-03     15.8004E-03    -104.885E-03     210.721E-03    -105.409E-03     14.8439E-03
             276     16.1995E-03     49.4774E-03    -2.49639E+06     108.529E+06     97.5089E+06     3.24137E+03    -104.563E-03     210.304E-03    -105.742E-03     15.8152E-03    -104.924E-03     210.759E-03    -105.408E-03     14.8581E-03
             277     16.1995E-03     50.6481E-03    -2.50324E+06     108.563E+06     97.5249E+06         507.477    -104.596E-03     210.337E-03    -105.740E-03     15.8315E-03    -104.958E-03     210.792E-03    -105.407E-03     14.8737E-03
             278     16.1995E-03     51.8189E-03    -2.50818E+06     108.575E+06     97.5060E+06    -13.4453E+03    -104.622E-03     210.361E-03    -105.740E-03     15.8472E-03    -104.984E-03     210.817E-03    -105.406E-03     14.8888E-03
             279     16.1995E-03     52.9897E-03    -2.48417E+06     108.582E+06     97.4651E+06    -4.55893E+03    -104.643E-03     210.382E-03    -105.739E-03     15.8636E-03    -105.005E-03     210.838E-03    -105.405E-03     14.9048E-03
             280     16.1995E-03     54.1604E-03    -2.49599E+06     108.634E+06     97.4111E+06     19.7405E+03    -104.658E-03     210.397E-03    -105.738E-03     15.8760E-03    -105.020E-03     210.853E-03    -105.405E-03     14.9173E-03
             281     16.1995E-03     55.3312E-03    -2.50946E+06     108.706E+06     97.4623E+06     2.20230E+03    -104.664E-03     210.402E-03    -105.738E-03     15.8922E-03    -105.026E-03     210.859E-03    -105.405E-03     14.9329E-03
             282     16.1995E-03     56.5020E-03    -2.50552E+06     108.717E+06     97.5493E+06    -11.7726E+03    -104.669E-03     210.407E-03    -105.738E-03     15.9093E-03    -105.031E-03     210.863E-03    -105.404E-03     14.9495E-03
             283     16.1995E-03     57.6728E-03    -2.50203E+06     108.717E+06     97.6045E+06    -3.04103E+03    -104.694E-03     210.432E-03    -105.738E-03     15.9067E-03    -105.056E-03     210.889E-03    -105.404E-03     14.9468E-03
             284     16.1994E-03     58.8437E-03    -2.48598E+06     108.767E+06     97.5791E+06    -16.5959E+03    -104.686E-03     210.424E-03    -105.739E-03     15.9191E-03    -105.048E-03     210.881E-03    -105.405E-03     14.9587E-03
             285     16.1995E-03     60.0144E-03    -2.49720E+06     108.794E+06     97.5159E+06     17.8132E+03    -104.637E-03     210.372E-03    -105.735E-03     15.9897E-03    -104.999E-03     210.829E-03    -105.401E-03     15.0301E-03
             286     16.1997E-03     61.1852E-03    -2.52709E+06     108.781E+06     97.5760E+06     33.4182E+03    -104.648E-03     210.377E-03    -105.729E-03     15.9955E-03    -105.011E-03     210.834E-03    -105.395E-03     15.0362E-03
             287     16.1996E-03     62.3561E-03    -2.49598E+06     108.835E+06     97.5749E+06    -17.8099E+03    -104.683E-03     210.410E-03    -105.727E-03     15.9591E-03    -105.046E-03     210.867E-03    -105.393E-03     14.9997E-03
             288     16.1996E-03     63.5269E-03    -2.47690E+06     108.928E+06     97.4247E+06     2.09787E+03    -104.662E-03     210.389E-03    -105.727E-03     15.9977E-03    -105.024E-03     210.846E-03    -105.394E-03     15.0394E-03
             289     16.1997E-03     64.6976E-03    -2.53858E+06     108.942E+06     97.3246E+06     20.1824E+03    -104.674E-03     210.400E-03    -105.727E-03     16.0135E-03    -105.036E-03     210.858E-03    -105.394E-03     15.0556E-03
             290     16.1996E-03     65.8685E-03    -2.48818E+06     108.961E+06     97.5134E+06    -37.5267E+03    -104.726E-03     210.455E-03    -105.730E-03     15.9714E-03    -105.088E-03     210.913E-03    -105.396E-03     15.0122E-03
             291     16.1995E-03     67.0393E-03    -2.49516E+06     108.971E+06     97.6179E+06    -36.3496E+03    -104.722E-03     210.457E-03    -105.735E-03     15.9716E-03    -105.085E-03     210.915E-03    -105.401E-03     15.0121E-03
             292     809.595E-06     68.5964E-03    -118.528E+06    -230.651E+06    -115.519E+06     33.9997E+03    -105.798E-03     211.550E-03    -105.752E-03     7.29234E-03    -105.890E-03     210.738E-03    -105.824E-03     7.19818E-03
             293     1.61922E-03     68.6078E-03    -114.222E+06    -218.087E+06    -103.233E+06     25.9629E+03    -105.742E-03     211.545E-03    -105.803E-03     13.2552E-03    -105.852E-03     210.774E-03    -105.837E-03     13.0823E-03
             294     2.42889E-03     68.6259E-03    -107.831E+06    -201.100E+06    -86.2286E+06    -11.3446E+03    -105.717E-03     211.547E-03    -105.830E-03     19.2887E-03    -105.849E-03     210.833E-03    -105.813E-03     19.0331E-03
             295     3.23862E-03     68.6507E-03    -100.129E+06    -182.371E+06    -67.6220E+06    -39.9614E+03    -105.704E-03     211.561E-03    -105.857E-03     24.9904E-03    -105.859E-03     210.909E-03    -105.785E-03     24.6528E-03
             296     4.04840E-03     68.6816E-03    -91.8213E+06    -163.156E+06    -49.7768E+06    -51.4572E+03    -105.706E-03     211.582E-03    -105.876E-03     30.2313E-03    -105.881E-03     210.996E-03    -105.755E-03     29.8135E-03
             297     4.85823E-03     68.7180E-03    -83.4484E+06    -144.409E+06    -33.7998E+06    -46.4401E+03    -105.720E-03     211.606E-03    -105.886E-03     34.9232E-03    -105.913E-03     211.088E-03    -105.725E-03     34.4278E-03
             298     5.66811E-03     68.7593E-03    -75.3286E+06    -127.115E+06    -19.9508E+06    -17.3374E+03    -105.745E-03     211.634E-03    -105.889E-03     39.0234E-03    -105.953E-03     211.181E-03    -105.695E-03     38.4530E-03
             299     6.47802E-03     68.8049E-03    -67.6343E+06    -110.083E+06    -7.92339E+06    -18.7014E+03    -105.772E-03     211.657E-03    -105.884E-03     42.5189E-03    -105.994E-03     211.271E-03    -105.666E-03     41.8755E-03
             300     7.28797E-03     68.8539E-03    -60.4230E+06    -93.5037E+06     2.60673E+06    -50.2467E+03    -105.796E-03     211.672E-03    -105.876E-03     45.4192E-03    -106.033E-03     211.354E-03    -105.640E-03     44.7038E-03
             301     8.09795E-03     68.9059E-03    -53.6690E+06    -77.3059E+06     11.9046E+06    -47.4643E+03    -105.814E-03     211.679E-03    -105.864E-03     47.7273E-03    -106.065E-03     211.430E-03    -105.615E-03     46.9409E-03
             302     8.90795E-03     68.9601E-03    -47.3222E+06    -60.7527E+06     20.2809E+06    -47.8240E+03    -105.824E-03     211.674E-03    -105.850E-03     49.4501E-03    -106.090E-03     211.498E-03    -105.592E-03     48.5924E-03
             303     9.71796E-03     69.0158E-03    -41.3432E+06    -43.1293E+06     28.0502E+06    -37.1407E+03    -105.818E-03     211.652E-03    -105.834E-03     50.5844E-03    -106.102E-03     211.555E-03    -105.571E-03     49.6545E-03
             304     10.5280E-03     69.0725E-03    -35.6941E+06    -22.5942E+06     35.6615E+06    -33.9705E+03    -105.776E-03     211.590E-03    -105.814E-03     51.1210E-03    -106.084E-03     211.588E-03    -105.552E-03     50.1170E-03
             305     11.3380E-03     69.1293E-03    -30.2947E+06    -305.873E+03     43.3681E+06     59.5272E+03    -105.694E-03     211.488E-03    -105.793E-03     50.8549E-03    -106.030E-03     211.588E-03    -105.532E-03     49.7768E-03
             306     12.1482E-03     69.1852E-03    -25.1405E+06     26.3625E+06     50.5600E+06     224.922E+03    -105.562E-03     211.325E-03    -105.763E-03     49.4141E-03    -105.929E-03     211.549E-03    -105.512E-03     48.2650E-03
             307     12.9583E-03     69.2386E-03    -20.1511E+06     64.9840E+06      60.831E+06     171.851E+03    -105.331E-03     211.060E-03    -105.729E-03     46.4809E-03    -105.748E-03     211.459E-03    -105.489E-03     45.2678E-03
             308     13.7685E-03     69.2877E-03    -15.1819E+06     95.8039E+06     68.5033E+06     84.6752E+03    -105.089E-03     210.779E-03    -105.690E-03     41.4463E-03    -105.533E-03     211.311E-03    -105.465E-03     40.1824E-03
             309     14.5789E-03     69.3295E-03    -10.1690E+06     106.195E+06     79.5858E+06     88.1541E+03    -104.909E-03     210.607E-03    -105.698E-03     35.1133E-03    -105.356E-03     211.164E-03    -105.439E-03     33.7783E-03
             310     15.3892E-03     69.3640E-03    -5.05612E+06     108.892E+06     93.8186E+06     30.9278E+03    -104.750E-03     210.484E-03    -105.734E-03     23.9571E-03    -105.158E-03     210.989E-03    -105.416E-03     22.7845E-03
             311     809.605E-06     69.7671E-03    -118.497E+06    -230.611E+06    -115.469E+06    -39.9752E+03    -105.790E-03     211.534E-03    -105.744E-03     7.29003E-03    -105.882E-03     210.722E-03    -105.815E-03     7.19484E-03
             312     1.61923E-03     69.7785E-03    -114.172E+06    -218.023E+06    -103.145E+06    -50.5657E+03    -105.735E-03     211.531E-03    -105.795E-03     13.2507E-03    -105.845E-03     210.761E-03    -105.829E-03     13.0767E-03
             313     2.42891E-03     69.7967E-03    -107.775E+06    -201.018E+06    -86.1609E+06    -54.8053E+03    -105.712E-03     211.536E-03    -105.823E-03     19.2825E-03    -105.845E-03     210.822E-03    -105.806E-03     19.0262E-03
             314     3.23864E-03     69.8214E-03    -100.097E+06    -182.295E+06    -67.5784E+06    -65.4483E+03    -105.702E-03     211.552E-03    -105.851E-03     24.9821E-03    -105.857E-03     210.901E-03    -105.779E-03     24.6439E-03
             315     4.04842E-03     69.8523E-03    -91.8205E+06    -163.083E+06    -49.7367E+06    -84.0692E+03    -105.706E-03     211.577E-03    -105.871E-03     30.2196E-03    -105.882E-03     210.992E-03    -105.750E-03     29.8011E-03
             316     4.85825E-03     69.8887E-03    -83.4600E+06    -144.401E+06    -33.7887E+06    -72.7029E+03    -105.724E-03     211.606E-03    -105.882E-03     34.9092E-03    -105.917E-03     211.088E-03    -105.721E-03     34.4131E-03
             317     5.66812E-03     69.9300E-03    -75.3608E+06    -127.132E+06    -19.9581E+06    -33.3768E+03    -105.753E-03     211.640E-03    -105.886E-03     39.0078E-03    -105.962E-03     211.187E-03    -105.692E-03     38.4369E-03
             318     6.47803E-03     69.9756E-03    -67.6617E+06    -110.006E+06    -7.89642E+06    -23.7196E+03    -105.785E-03     211.669E-03    -105.884E-03     42.5007E-03    -106.008E-03     211.284E-03    -105.666E-03     41.8568E-03
             319     7.28796E-03     70.0247E-03    -60.4078E+06    -93.4439E+06     2.63146E+06    -33.4692E+03    -105.814E-03     211.691E-03    -105.877E-03     45.3986E-03    -106.050E-03     211.374E-03    -105.641E-03     44.6828E-03
             320     8.09792E-03     70.0767E-03    -53.6142E+06    -77.2798E+06     11.8883E+06    -40.5636E+03    -105.834E-03     211.701E-03    -105.867E-03     47.7101E-03    -106.084E-03     211.452E-03    -105.618E-03     46.9233E-03
             321     8.90790E-03     70.1309E-03    -47.2682E+06    -60.7038E+06     20.2432E+06    -38.9583E+03    -105.842E-03     211.696E-03    -105.854E-03     49.4463E-03    -106.108E-03     211.520E-03    -105.597E-03     48.5883E-03
             322     9.71790E-03     70.1866E-03    -41.3182E+06    -43.1136E+06     28.0156E+06    -43.0038E+03    -105.830E-03     211.669E-03    -105.839E-03     50.5883E-03    -106.114E-03     211.572E-03    -105.577E-03     49.6581E-03
             323     10.5279E-03     70.2433E-03    -35.7013E+06    -22.5824E+06     35.6492E+06    -16.4220E+03    -105.780E-03     211.599E-03    -105.820E-03     51.1303E-03    -106.088E-03     211.597E-03    -105.557E-03     50.1267E-03
             324     11.3380E-03     70.3001E-03    -30.3499E+06    -476.141E+03     43.3266E+06     44.1950E+03    -105.688E-03     211.487E-03    -105.798E-03     50.8802E-03    -106.024E-03     211.587E-03    -105.537E-03     49.8024E-03
             325     12.1481E-03     70.3560E-03    -25.1198E+06     26.1974E+06     50.5435E+06     132.656E+03    -105.544E-03     211.310E-03    -105.767E-03     49.4597E-03    -105.910E-03     211.534E-03    -105.516E-03     48.3104E-03
             326     12.9583E-03     70.4094E-03    -19.9812E+06     65.1052E+06     61.0918E+06     235.313E+03    -105.305E-03     211.037E-03    -105.731E-03     46.5200E-03    -105.721E-03     211.436E-03    -105.491E-03     45.3086E-03
             327     13.7686E-03     70.4584E-03    -15.0564E+06     95.9438E+06     68.4975E+06     173.760E+03    -105.066E-03     210.757E-03    -105.690E-03     41.4684E-03    -105.510E-03     211.289E-03    -105.465E-03     40.2057E-03
             328     14.5788E-03     70.5003E-03    -10.1829E+06     106.297E+06     78.6057E+06     30.1284E+03    -104.880E-03     210.572E-03    -105.692E-03     35.1756E-03    -105.326E-03     211.131E-03    -105.438E-03     33.8409E-03
             329     15.3892E-03     70.5348E-03    -5.11784E+06     108.975E+06     93.1090E+06     17.8163E+03    -104.718E-03     210.446E-03    -105.728E-03     24.0259E-03    -105.125E-03     210.952E-03    -105.413E-03     22.8545E-03
             330     809.606E-06     70.9378E-03    -118.436E+06    -230.451E+06    -115.382E+06    -56.9693E+03    -105.786E-03     211.526E-03    -105.740E-03     7.28652E-03    -105.879E-03     210.714E-03    -105.811E-03     7.19106E-03
             331     1.61924E-03     70.9491E-03    -114.161E+06    -217.925E+06    -103.120E+06    -87.5551E+03    -105.733E-03     211.524E-03    -105.791E-03     13.2448E-03    -105.843E-03     210.754E-03    -105.826E-03     13.0702E-03
             332     2.42892E-03     70.9673E-03    -107.800E+06    -200.979E+06    -86.1726E+06    -68.7591E+03    -105.711E-03     211.531E-03    -105.820E-03     19.2743E-03    -105.844E-03     210.817E-03    -105.803E-03     19.0177E-03
             333     3.23865E-03     70.9921E-03    -100.135E+06    -182.207E+06    -67.6082E+06    -63.7684E+03    -105.702E-03     211.550E-03    -105.848E-03     24.9719E-03    -105.857E-03     210.899E-03    -105.777E-03     24.6335E-03
             334     4.04843E-03     71.0230E-03    -91.8588E+06    -162.985E+06    -49.7851E+06    -93.6302E+03    -105.709E-03     211.578E-03    -105.869E-03     30.2075E-03    -105.885E-03     210.994E-03    -105.749E-03     29.7887E-03
             335     4.85825E-03     71.0594E-03    -83.5173E+06    -144.423E+06    -33.8366E+06    -75.6199E+03    -105.732E-03     211.613E-03    -105.882E-03     34.8949E-03    -105.925E-03     211.096E-03    -105.721E-03     34.3985E-03
             336     5.66812E-03     71.1008E-03    -75.4094E+06    -127.116E+06    -19.9899E+06    -47.6572E+03    -105.766E-03     211.653E-03    -105.887E-03     38.9937E-03    -105.974E-03     211.200E-03    -105.694E-03     38.4222E-03
             337     6.47800E-03     71.1463E-03    -67.6810E+06    -109.932E+06    -7.93626E+06    -66.9415E+03    -105.799E-03     211.686E-03    -105.886E-03     42.4904E-03    -106.022E-03     211.301E-03    -105.669E-03     41.8456E-03
             338     7.28793E-03     71.1954E-03    -60.4099E+06    -93.4277E+06     2.58697E+06    -64.4328E+03    -105.828E-03     211.709E-03    -105.881E-03     45.3942E-03    -106.064E-03     211.392E-03    -105.645E-03     44.6779E-03
             339     8.09787E-03     71.2474E-03    -53.6266E+06    -77.2380E+06     11.8659E+06    -45.0200E+03    -105.846E-03     211.718E-03    -105.872E-03     47.7153E-03    -106.097E-03     211.470E-03    -105.623E-03     46.9283E-03
             340     8.90784E-03     71.3016E-03    -47.2837E+06    -60.6865E+06     20.2167E+06    -37.2072E+03    -105.849E-03     211.709E-03    -105.860E-03     49.4683E-03    -106.115E-03     211.533E-03    -105.602E-03     48.6104E-03
             341     9.71784E-03     71.3575E-03    -41.3283E+06    -43.0667E+06     27.9949E+06    -27.9370E+03    -105.827E-03     211.671E-03    -105.844E-03     50.6179E-03    -106.111E-03     211.574E-03    -105.582E-03     49.6883E-03
             342     10.5279E-03     71.4141E-03    -35.7097E+06    -22.6554E+06     35.5978E+06     14.7075E+03    -105.765E-03     211.588E-03    -105.824E-03     51.1627E-03    -106.073E-03     211.586E-03    -105.561E-03     50.1603E-03
             343     11.3380E-03     71.4709E-03    -30.3633E+06    -528.224E+03     43.2478E+06     85.5306E+03    -105.663E-03     211.463E-03    -105.800E-03     50.9218E-03    -105.998E-03     211.563E-03    -105.539E-03     49.8456E-03
             344     12.1481E-03     71.5268E-03    -25.2953E+06     26.1680E+06     50.3679E+06     88.4225E+03    -105.512E-03     211.278E-03    -105.766E-03     49.5063E-03    -105.879E-03     211.502E-03    -105.516E-03     48.3576E-03
             345     12.9583E-03     71.5802E-03    -20.1996E+06     65.0350E+06     60.7266E+06     83.5847E+03    -105.278E-03     211.007E-03    -105.728E-03     46.5827E-03    -105.695E-03     211.406E-03    -105.490E-03     45.3707E-03
             346     13.7685E-03     71.6292E-03    -15.0182E+06     96.0955E+06     68.1772E+06     108.629E+03    -105.053E-03     210.738E-03    -105.685E-03     41.5350E-03    -105.496E-03     211.272E-03    -105.462E-03     40.2724E-03
             347     14.5789E-03     71.6710E-03    -10.0826E+06     106.422E+06     78.4885E+06     93.5000E+03    -104.875E-03     210.563E-03    -105.688E-03     35.1921E-03    -105.321E-03     211.123E-03    -105.435E-03     33.8580E-03
             348     15.3893E-03     71.7056E-03    -5.10132E+06     109.028E+06     93.1779E+06     45.0027E+03    -104.737E-03     210.462E-03    -105.725E-03     23.9866E-03    -105.144E-03     210.968E-03    -105.410E-03     22.8150E-03
             349     809.608E-06     72.1085E-03    -118.323E+06    -230.284E+06    -115.282E+06    -33.9502E+03    -105.787E-03     211.528E-03    -105.741E-03     7.28350E-03    -105.879E-03     210.716E-03    -105.811E-03     7.18830E-03
             350     1.61924E-03     72.1198E-03    -114.048E+06    -217.802E+06    -102.989E+06    -71.4586E+03    -105.735E-03     211.527E-03    -105.793E-03     13.2390E-03    -105.844E-03     210.758E-03    -105.826E-03     13.0646E-03
             351     2.42892E-03     72.1380E-03    -107.687E+06    -200.969E+06    -86.0610E+06    -60.6088E+03    -105.715E-03     211.536E-03    -105.822E-03     19.2656E-03    -105.847E-03     210.823E-03    -105.805E-03     19.0090E-03
             352     3.23864E-03     72.1628E-03    -100.011E+06    -182.085E+06    -67.5682E+06    -77.6561E+03    -105.707E-03     211.557E-03    -105.850E-03     24.9618E-03    -105.862E-03     210.906E-03    -105.779E-03     24.6231E-03
             353     4.04842E-03     72.1937E-03    -91.7493E+06    -162.928E+06    -49.7672E+06     -86.484E+03    -105.717E-03     211.588E-03    -105.872E-03     30.1963E-03    -105.892E-03     211.004E-03    -105.751E-03     29.7774E-03
             354     4.85823E-03     72.2302E-03    -83.4306E+06    -144.447E+06    -33.8336E+06    -46.7813E+03    -105.742E-03     211.627E-03    -105.886E-03     34.8850E-03    -105.935E-03     211.110E-03    -105.724E-03     34.3888E-03
             355     5.66808E-03     72.2715E-03    -75.3525E+06    -127.024E+06    -20.0232E+06    -63.1627E+03    -105.776E-03     211.667E-03    -105.892E-03     38.9901E-03    -105.984E-03     211.215E-03    -105.698E-03     38.4184E-03
             356     6.47797E-03     72.3171E-03    -67.6676E+06    -109.856E+06    -7.99754E+06    -98.9015E+03    -105.807E-03     211.698E-03    -105.891E-03     42.4946E-03    -106.029E-03     211.313E-03    -105.674E-03     41.8494E-03
             357     7.28788E-03     72.3662E-03    -60.4359E+06    -93.4260E+06     2.51848E+06    -91.7606E+03    -105.832E-03     211.718E-03    -105.886E-03     45.4064E-03    -106.068E-03     211.401E-03    -105.650E-03     44.6899E-03
             358     8.09783E-03     72.4182E-03    -53.6330E+06    -77.2143E+06     11.8250E+06    -72.0741E+03    -105.845E-03     211.722E-03    -105.877E-03     47.7393E-03    -106.096E-03     211.473E-03    -105.628E-03     46.9523E-03
             359     8.90780E-03     72.4724E-03    -47.2579E+06    -60.6652E+06     20.1828E+06    -59.6749E+03    -105.842E-03     211.705E-03    -105.863E-03     49.5064E-03    -106.108E-03     211.529E-03    -105.606E-03     48.6485E-03
             360     9.71781E-03     72.5283E-03    -41.2928E+06    -43.0865E+06     27.9230E+06    -19.9569E+03    -105.809E-03     211.655E-03    -105.846E-03     50.6584E-03    -106.093E-03     211.559E-03    -105.584E-03     49.7296E-03
             361     10.5279E-03     72.5849E-03    -35.6816E+06    -22.7206E+06     35.4958E+06     46.8222E+03    -105.738E-03     211.561E-03    -105.824E-03     51.2023E-03    -106.045E-03     211.559E-03    -105.561E-03     50.2013E-03
             362     11.3380E-03     72.6417E-03    -30.3361E+06    -603.045E+03     43.1705E+06     116.594E+03    -105.635E-03     211.433E-03    -105.798E-03     50.9607E-03    -105.969E-03     211.532E-03    -105.537E-03     49.8857E-03
             363     12.1481E-03     72.6976E-03    -25.1446E+06     26.2922E+06     50.4126E+06     119.164E+03    -105.491E-03     211.253E-03    -105.763E-03     49.5369E-03    -105.857E-03     211.478E-03    -105.512E-03     48.3892E-03
             364     12.9584E-03     72.7509E-03    -20.0850E+06     65.1785E+06     60.7617E+06    -22.9129E+03    -105.271E-03     210.995E-03    -105.724E-03     46.5932E-03    -105.688E-03     211.396E-03    -105.485E-03     45.3796E-03
             365     13.7688E-03     72.8000E-03    -15.1403E+06     96.0048E+06     68.1016E+06    -35.9751E+03    -105.069E-03     210.751E-03    -105.682E-03     41.5007E-03    -105.513E-03     211.285E-03    -105.458E-03     40.2349E-03
             366     14.5790E-03     72.8418E-03    -10.1534E+06     106.376E+06     78.5140E+06     106.092E+03    -104.921E-03     210.607E-03    -105.686E-03     35.1180E-03    -105.366E-03     211.167E-03    -105.433E-03     33.7818E-03
             367     15.3892E-03     72.8764E-03    -5.04516E+06     109.164E+06     93.2092E+06     84.3090E+03    -104.753E-03     210.478E-03    -105.725E-03     23.9541E-03    -105.160E-03     210.985E-03    -105.410E-03     22.7822E-03
             368     809.601E-06     73.2792E-03    -118.311E+06    -230.150E+06    -115.283E+06    -34.3213E+03    -105.792E-03     211.538E-03    -105.746E-03     7.28184E-03    -105.884E-03     210.727E-03    -105.817E-03     7.18659E-03
             369     1.61923E-03     73.2905E-03    -114.043E+06    -217.699E+06    -102.991E+06    -50.5639E+03    -105.740E-03     211.538E-03    -105.798E-03     13.2361E-03    -105.850E-03     210.769E-03    -105.832E-03     13.0619E-03
             370     2.42890E-03     73.3087E-03    -107.678E+06    -200.912E+06    -86.0713E+06    -66.0495E+03    -105.721E-03     211.549E-03    -105.828E-03     19.2621E-03    -105.853E-03     210.835E-03    -105.810E-03     19.0053E-03
             371     3.23862E-03     73.3335E-03    -100.048E+06    -182.006E+06    -67.6097E+06    -59.7292E+03    -105.714E-03     211.570E-03    -105.856E-03     24.9583E-03    -105.869E-03     210.920E-03    -105.785E-03     24.6198E-03
             372     4.04839E-03     73.3644E-03    -91.8523E+06    -162.909E+06    -49.8695E+06    -38.6459E+03    -105.723E-03     211.601E-03    -105.878E-03     30.1960E-03    -105.899E-03     211.017E-03    -105.758E-03     29.7777E-03
             373     4.85819E-03     73.4009E-03    -83.5460E+06    -144.413E+06    -33.9826E+06    -48.0448E+03    -105.747E-03     211.638E-03    -105.891E-03     34.8915E-03    -105.940E-03     211.121E-03    -105.731E-03     34.3954E-03
             374     5.66805E-03     73.4423E-03    -75.4546E+06    -126.911E+06    -20.1403E+06    -72.7019E+03    -105.777E-03     211.675E-03    -105.897E-03     39.0029E-03    -105.986E-03     211.223E-03    -105.704E-03     38.4313E-03
             375     6.47793E-03     73.4878E-03    -67.7761E+06    -109.782E+06    -8.08495E+06    -98.3217E+03    -105.805E-03     211.701E-03    -105.896E-03     42.5115E-03    -106.028E-03     211.317E-03    -105.679E-03     41.8666E-03
             376     7.28785E-03     73.5370E-03    -60.5342E+06    -93.3736E+06     2.42115E+06    -124.414E+03    -105.824E-03     211.714E-03    -105.890E-03     45.4292E-03    -106.061E-03     211.397E-03    -105.654E-03     44.7128E-03
             377     8.09780E-03     73.5890E-03    -53.7395E+06    -77.1937E+06     11.7012E+06    -130.378E+03    -105.831E-03     211.710E-03    -105.879E-03     47.7710E-03    -106.082E-03     211.462E-03    -105.630E-03     46.9838E-03
             378     8.90780E-03     73.6432E-03    -47.3711E+06    -60.6443E+06     20.0717E+06    -112.398E+03    -105.821E-03     211.685E-03    -105.864E-03     49.5432E-03    -106.088E-03     211.510E-03    -105.607E-03     48.6852E-03
             379     9.71782E-03     73.6990E-03    -41.3920E+06    -43.1744E+06     27.8079E+06    -48.9771E+03    -105.785E-03     211.629E-03    -105.845E-03     50.6858E-03    -106.069E-03     211.533E-03    -105.583E-03     49.7572E-03
             380     10.5279E-03     73.7556E-03    -35.7431E+06    -22.7786E+06     35.3941E+06     34.2547E+03    -105.716E-03     211.537E-03    -105.820E-03     51.2164E-03    -106.024E-03     211.534E-03    -105.559E-03     50.2155E-03
             381     11.3380E-03     73.8124E-03    -30.3357E+06    -648.402E+03     43.0811E+06     76.1008E+03    -105.626E-03     211.420E-03    -105.794E-03     50.9567E-03    -105.961E-03     211.520E-03    -105.534E-03     49.8808E-03
             382     12.1482E-03     73.8683E-03    -25.1758E+06     26.4070E+06     50.3512E+06     57.9903E+03    -105.502E-03     211.261E-03    -105.759E-03     49.5076E-03    -105.869E-03     211.486E-03    -105.509E-03     48.3579E-03
             383     12.9584E-03     73.9217E-03    -20.1334E+06     65.3595E+06     60.8920E+06     35.3566E+03    -105.301E-03     211.023E-03    -105.723E-03     46.5409E-03    -105.718E-03     211.425E-03    -105.484E-03     45.3261E-03
             384     13.7686E-03     73.9708E-03    -15.1627E+06     95.9488E+06     68.1065E+06    -1.73816E+03    -105.091E-03     210.772E-03    -105.682E-03     41.4634E-03    -105.535E-03     211.306E-03    -105.458E-03     40.1967E-03
             385     14.5789E-03     74.0127E-03    -10.2295E+06     106.359E+06     77.7122E+06    -59.3106E+03    -104.903E-03     210.586E-03    -105.682E-03     35.1530E-03    -105.348E-03     211.147E-03    -105.433E-03     33.8153E-03
             386     15.3892E-03     74.0472E-03    -5.13401E+06     109.210E+06     92.4467E+06    -4.00062E+03    -104.712E-03     210.432E-03    -105.720E-03     24.0280E-03    -105.119E-03     210.940E-03    -105.408E-03     22.8561E-03
             387     809.597E-06     74.4499E-03    -118.397E+06    -230.062E+06    -115.369E+06    -13.0125E+03    -105.800E-03     211.553E-03    -105.753E-03     7.28311E-03    -105.893E-03     210.744E-03    -105.825E-03     7.18815E-03
             388     1.61922E-03     74.4612E-03    -114.154E+06    -217.602E+06    -103.141E+06    -29.7080E+03    -105.748E-03     211.553E-03    -105.805E-03     13.2392E-03    -105.858E-03     210.785E-03    -105.840E-03     13.0653E-03
             389     2.42888E-03     74.4794E-03    -107.843E+06    -200.869E+06    -86.2085E+06    -24.7161E+03    -105.728E-03     211.563E-03    -105.835E-03     19.2670E-03    -105.861E-03     210.850E-03    -105.818E-03     19.0108E-03
             390     3.23859E-03     74.5042E-03     -100.22E+06    -181.980E+06    -67.7103E+06    -4.98935E+03    -105.720E-03     211.583E-03    -105.863E-03     24.9665E-03    -105.876E-03     210.933E-03    -105.793E-03     24.6288E-03
             391     4.04835E-03     74.5352E-03    -91.9524E+06    -162.853E+06    -49.9698E+06    -23.7025E+03    -105.726E-03     211.611E-03    -105.884E-03     30.2097E-03    -105.903E-03     211.027E-03    -105.765E-03     29.7918E-03
             392     4.85817E-03     74.5716E-03    -83.6195E+06    -144.346E+06    -34.0548E+06    -39.1912E+03    -105.746E-03     211.643E-03    -105.897E-03     34.9097E-03    -105.940E-03     211.127E-03    -105.737E-03     34.4140E-03
             393     5.66801E-03     74.6130E-03    -75.5603E+06    -126.817E+06    -20.2032E+06    -64.4034E+03    -105.773E-03     211.674E-03    -105.902E-03     39.0242E-03    -105.982E-03     211.224E-03    -105.709E-03     38.4530E-03
             394     6.47791E-03     74.6586E-03    -67.8776E+06    -109.682E+06    -8.15677E+06    -104.299E+03    -105.795E-03     211.693E-03    -105.899E-03     42.5356E-03    -106.018E-03     211.311E-03    -105.682E-03     41.8911E-03
             395     7.28783E-03     74.7077E-03    -60.6467E+06    -93.2711E+06     2.33829E+06    -145.524E+03    -105.809E-03     211.700E-03    -105.891E-03     45.4561E-03    -106.046E-03     211.384E-03    -105.656E-03     44.7398E-03
             396     8.09781E-03     74.7598E-03    -53.8622E+06    -77.1346E+06     11.5985E+06    -176.001E+03    -105.813E-03     211.691E-03    -105.878E-03     47.7987E-03    -106.064E-03     211.444E-03    -105.630E-03     47.0112E-03
             397     8.90782E-03     74.8140E-03    -47.4982E+06    -60.6427E+06     19.9452E+06    -162.574E+03    -105.802E-03     211.663E-03    -105.861E-03     49.5632E-03    -106.069E-03     211.488E-03    -105.605E-03     48.7047E-03
             398     9.71787E-03     74.8698E-03    -41.5062E+06    -43.2294E+06     27.6736E+06    -121.933E+03    -105.771E-03     211.612E-03    -105.841E-03     50.6865E-03    -106.056E-03     211.516E-03    -105.580E-03     49.7568E-03
             399     10.5280E-03     74.9264E-03    -35.8041E+06    -22.8462E+06     35.2754E+06    -69.6581E+03    -105.716E-03     211.532E-03    -105.816E-03     51.2028E-03    -106.023E-03     211.529E-03    -105.555E-03     50.2001E-03
             400     11.3381E-03     74.9832E-03    -30.3536E+06    -647.717E+03     43.0046E+06    -26.8678E+03    -105.640E-03     211.431E-03    -105.791E-03     50.9425E-03    -105.975E-03     211.531E-03    -105.531E-03     49.8646E-03
             401     12.1482E-03     75.0390E-03    -25.1441E+06     26.3752E+06     50.2798E+06     44.4182E+03    -105.522E-03     211.279E-03    -105.757E-03     49.5136E-03    -105.889E-03     211.504E-03    -105.507E-03     48.3634E-03
             402     12.9584E-03     75.0925E-03    -20.0876E+06     65.4453E+06     60.7321E+06     61.5800E+03    -105.307E-03     211.028E-03    -105.721E-03     46.5964E-03    -105.724E-03     211.430E-03    -105.483E-03     45.3830E-03
             403     13.7687E-03     75.1416E-03    -15.0820E+06     96.1642E+06     68.0008E+06    -69.2068E+03    -105.072E-03     210.752E-03    -105.680E-03     41.5412E-03    -105.516E-03     211.287E-03    -105.457E-03     40.2753E-03
             404     14.5790E-03     75.1834E-03    -10.1800E+06     106.392E+06     77.4382E+06    -127.868E+03    -104.868E-03     210.546E-03    -105.678E-03     35.1796E-03    -105.313E-03     211.108E-03    -105.431E-03     33.8415E-03
             405     15.3894E-03     75.2179E-03    -5.17219E+06     109.158E+06     92.1941E+06    -77.0188E+03    -104.713E-03     210.429E-03    -105.715E-03     23.9984E-03    -105.120E-03     210.937E-03    -105.405E-03     22.8253E-03
             406     809.586E-06     75.6206E-03    -118.377E+06    -230.017E+06    -115.350E+06     15.9536E+03    -105.807E-03     211.568E-03    -105.761E-03     7.28710E-03    -105.900E-03     210.759E-03    -105.833E-03     7.19257E-03
             407     1.61921E-03     75.6320E-03    -114.124E+06    -217.561E+06    -103.066E+06     16.8453E+03    -105.754E-03     211.567E-03    -105.813E-03     13.2465E-03    -105.865E-03     210.799E-03    -105.847E-03     13.0733E-03
             408     2.42886E-03     75.6502E-03    -107.788E+06    -200.890E+06    -86.1298E+06     52.5741E+03    -105.733E-03     211.575E-03    -105.842E-03     19.2780E-03    -105.866E-03     210.862E-03    -105.825E-03     19.0230E-03
             409     3.23857E-03     75.6750E-03    -100.135E+06    -181.887E+06    -67.6705E+06     18.3140E+03    -105.722E-03     211.591E-03    -105.869E-03     24.9824E-03    -105.878E-03     210.942E-03    -105.799E-03     24.6453E-03
             410     4.04833E-03     75.7059E-03    -91.9053E+06    -162.807E+06    -49.9378E+06    -8.78989E+03    -105.726E-03     211.615E-03    -105.889E-03     30.2290E-03    -105.902E-03     211.032E-03    -105.770E-03     29.8115E-03
             411     4.85814E-03     75.7424E-03    -83.6230E+06    -144.319E+06    -34.0450E+06     11.6288E+03    -105.742E-03     211.642E-03    -105.901E-03     34.9310E-03    -105.936E-03     211.126E-03    -105.740E-03     34.4362E-03
             412     5.66800E-03     75.7838E-03    -75.5711E+06    -126.671E+06    -20.2253E+06    -28.4194E+03    -105.762E-03     211.666E-03    -105.903E-03     39.0466E-03    -105.972E-03     211.216E-03    -105.711E-03     38.4762E-03
             413     6.47790E-03     75.8294E-03    -67.9189E+06    -109.583E+06    -8.21392E+06    -87.8733E+03    -105.780E-03     211.679E-03    -105.899E-03     42.5567E-03    -106.004E-03     211.297E-03    -105.682E-03     41.9128E-03
             414     7.28785E-03     75.8785E-03    -60.7209E+06    -93.1552E+06     2.27982E+06    -117.699E+03    -105.794E-03     211.683E-03    -105.889E-03     45.4743E-03    -106.032E-03     211.368E-03    -105.654E-03     44.7586E-03
             415     8.09783E-03     75.9305E-03    -53.9447E+06    -77.0154E+06     11.5446E+06    -169.119E+03    -105.800E-03     211.675E-03    -105.875E-03     47.8113E-03    -106.052E-03     211.429E-03    -105.627E-03     47.0238E-03
             416     8.90786E-03     75.9847E-03    -47.5963E+06    -60.5951E+06     19.8684E+06    -215.024E+03    -105.794E-03     211.652E-03    -105.857E-03     49.5668E-03    -106.062E-03     211.477E-03    -105.601E-03     48.7074E-03
             417     9.71790E-03     76.0405E-03    -41.5929E+06    -43.1479E+06     27.6105E+06    -270.828E+03    -105.771E-03     211.608E-03    -105.837E-03     50.6850E-03    -106.056E-03     211.512E-03    -105.576E-03     49.7531E-03
             418     10.5280E-03     76.0971E-03    -35.8376E+06    -22.9461E+06     35.2041E+06    -246.651E+03    -105.724E-03     211.537E-03    -105.813E-03     51.2078E-03    -106.032E-03     211.534E-03    -105.552E-03     50.2026E-03
             419     11.3381E-03     76.1539E-03    -30.3563E+06    -657.625E+03     42.9781E+06    -167.993E+03    -105.647E-03     211.435E-03    -105.789E-03     50.9692E-03    -105.981E-03     211.535E-03    -105.529E-03     49.8898E-03
             420     12.1482E-03     76.2098E-03    -25.0970E+06     26.2454E+06     50.2762E+06    -102.553E+03    -105.515E-03     211.270E-03    -105.755E-03     49.5567E-03    -105.881E-03     211.494E-03    -105.505E-03     48.4054E-03
             421     12.9584E-03     76.2633E-03     -19.936E+06     65.4719E+06     60.6600E+06    -6.37080E+03    -105.287E-03     211.005E-03    -105.717E-03     46.6320E-03    -105.703E-03     211.406E-03    -105.480E-03     45.4187E-03
             422     13.7687E-03     76.3123E-03    -14.9919E+06     96.4681E+06     67.9769E+06    -36.3972E+03    -105.073E-03     210.748E-03    -105.676E-03     41.5297E-03    -105.517E-03     211.284E-03    -105.454E-03     40.2639E-03
             423     14.5790E-03     76.3541E-03    -10.1479E+06     106.408E+06     77.8776E+06    -130.225E+03    -104.918E-03     210.597E-03    -105.679E-03     35.0847E-03    -105.364E-03     211.158E-03    -105.429E-03     33.7433E-03
             424     15.3893E-03     76.3886E-03     -5.0717E+06     109.112E+06     92.7307E+06    -133.483E+03    -104.773E-03     210.492E-03    -105.719E-03     23.9095E-03    -105.180E-03     211.000E-03    -105.406E-03     22.7334E-03
             425     809.587E-06     76.7913E-03    -118.390E+06    -230.032E+06    -115.358E+06     28.6161E+03    -105.811E-03     211.577E-03    -105.766E-03     7.29233E-03    -105.904E-03     210.768E-03    -105.837E-03     7.19802E-03
             426     1.61919E-03     76.8027E-03    -114.150E+06    -217.642E+06    -103.048E+06     94.3047E+03    -105.757E-03     211.575E-03    -105.817E-03     13.2560E-03    -105.868E-03     210.806E-03    -105.851E-03     13.0839E-03
             427     2.42885E-03     76.8209E-03    -107.803E+06    -200.863E+06    -86.1519E+06     89.2390E+03    -105.734E-03     211.579E-03    -105.845E-03     19.2922E-03    -105.866E-03     210.866E-03    -105.828E-03     19.0377E-03
             428     3.23856E-03     76.8457E-03    -100.184E+06    -181.825E+06    -67.7189E+06     71.0169E+03    -105.720E-03     211.591E-03    -105.871E-03     25.0000E-03    -105.876E-03     210.942E-03    -105.801E-03     24.6637E-03
             429     4.04833E-03     76.8767E-03    -92.0180E+06    -162.829E+06    -49.9913E+06     107.625E+03    -105.721E-03     211.612E-03    -105.890E-03     30.2486E-03    -105.898E-03     211.029E-03    -105.771E-03     29.8328E-03
             430     4.85815E-03     76.9131E-03    -83.7689E+06    -144.251E+06    -34.1309E+06     85.5738E+03    -105.733E-03     211.634E-03    -105.900E-03     34.9515E-03    -105.928E-03     211.118E-03    -105.740E-03     34.4578E-03
             431     5.66801E-03     76.9545E-03    -75.6974E+06    -126.524E+06    -20.2922E+06     19.1367E+03    -105.751E-03     211.652E-03    -105.901E-03     39.0647E-03    -105.961E-03     211.203E-03    -105.710E-03     38.4950E-03
             432     6.47793E-03     77.0001E-03    -68.0448E+06    -109.484E+06    -8.24985E+06    -29.1308E+03    -105.768E-03     211.664E-03    -105.896E-03     42.5696E-03    -105.993E-03     211.283E-03    -105.680E-03     41.9265E-03
             433     7.28788E-03     77.0492E-03    -60.8632E+06    -93.0456E+06     2.26763E+06    -72.7382E+03    -105.784E-03     211.669E-03    -105.885E-03     45.4831E-03    -106.023E-03     211.355E-03    -105.651E-03     44.7680E-03
             434     8.09787E-03     77.1012E-03    -54.1340E+06    -76.8389E+06     11.5492E+06    -141.962E+03    -105.794E-03     211.665E-03    -105.871E-03     47.8176E-03    -106.048E-03     211.420E-03    -105.623E-03     47.0304E-03
             435     8.90788E-03     77.1554E-03    -47.7949E+06    -60.4132E+06     19.8907E+06    -259.532E+03    -105.794E-03     211.647E-03    -105.854E-03     49.5721E-03    -106.062E-03     211.474E-03    -105.597E-03     48.7119E-03
             436     9.71794E-03     77.2112E-03    -41.7812E+06    -42.9350E+06     27.6344E+06    -388.182E+03    -105.774E-03     211.608E-03    -105.834E-03     50.6932E-03    -106.061E-03     211.514E-03    -105.573E-03     49.7596E-03
             437     10.5280E-03     77.2678E-03    -36.0208E+06    -22.8554E+06     35.1766E+06    -536.210E+03    -105.728E-03     211.539E-03    -105.811E-03     51.2195E-03    -106.037E-03     211.537E-03    -105.549E-03     50.2103E-03
             438     11.3381E-03     77.3247E-03    -30.3576E+06    -771.083E+03     42.9093E+06    -525.249E+03    -105.648E-03     211.434E-03    -105.786E-03     50.9722E-03    -105.982E-03     211.534E-03    -105.526E-03     49.8878E-03
             439     12.1483E-03     77.3806E-03    -25.0126E+06     25.9778E+06     50.2107E+06    -257.294E+03    -105.518E-03     211.271E-03    -105.753E-03     49.5246E-03    -105.883E-03     211.494E-03    -105.503E-03     48.3702E-03
             440     12.9585E-03     77.4340E-03    -19.9791E+06     65.3871E+06     60.6229E+06    -52.6374E+03    -105.305E-03     211.021E-03    -105.716E-03     46.5570E-03    -105.721E-03     211.423E-03    -105.479E-03     45.3410E-03
             441     13.7688E-03     77.4831E-03    -14.9517E+06     96.6411E+06     68.1959E+06    -35.8881E+03    -105.110E-03     210.787E-03    -105.677E-03     41.4502E-03    -105.555E-03     211.324E-03    -105.455E-03     40.1825E-03
             442     14.5790E-03     77.5250E-03    -9.99130E+06     106.522E+06     78.9134E+06    -85.8658E+03    -104.969E-03     210.655E-03    -105.687E-03     35.0270E-03    -105.415E-03     211.215E-03    -105.432E-03     33.6845E-03
             443     15.3892E-03     77.5595E-03    -5.03465E+06     109.052E+06     93.5371E+06    -91.1408E+03    -104.795E-03     210.524E-03    -105.728E-03     23.8908E-03    -105.203E-03     211.030E-03    -105.411E-03     22.7141E-03
             444     809.581E-06     77.9621E-03    -118.510E+06    -230.161E+06    -115.463E+06     72.1320E+03    -105.811E-03     211.576E-03    -105.766E-03     7.29740E-03    -105.904E-03     210.766E-03    -105.837E-03     7.20368E-03
             445     1.61920E-03     77.9734E-03    -114.244E+06    -217.763E+06    -103.217E+06     137.538E+03    -105.755E-03     211.571E-03    -105.816E-03     13.2648E-03    -105.866E-03     210.803E-03    -105.851E-03     13.0933E-03
             446     2.42886E-03     77.9917E-03    -107.901E+06    -200.809E+06    -86.2790E+06     125.193E+03    -105.730E-03     211.573E-03    -105.843E-03     19.3043E-03    -105.863E-03     210.860E-03    -105.827E-03     19.0504E-03
             447     3.23857E-03     78.0165E-03    -100.286E+06    -181.928E+06    -67.7697E+06     170.134E+03    -105.715E-03     211.584E-03    -105.869E-03     25.0138E-03    -105.871E-03     210.935E-03    -105.799E-03     24.6788E-03
             448     4.04834E-03     78.0474E-03    -92.0585E+06    -162.847E+06    -49.9949E+06     206.179E+03    -105.714E-03     211.601E-03    -105.888E-03     30.2632E-03    -105.891E-03     211.018E-03    -105.768E-03     29.8487E-03
             449     4.85816E-03     78.0839E-03    -83.7334E+06    -144.132E+06    -34.0508E+06     153.943E+03    -105.725E-03     211.621E-03    -105.897E-03     34.9639E-03    -105.920E-03     211.106E-03    -105.736E-03     34.4712E-03
             450     5.66804E-03     78.1252E-03    -75.7018E+06    -126.426E+06    -20.1712E+06     98.3140E+03    -105.743E-03     211.641E-03    -105.897E-03     39.0730E-03    -105.954E-03     211.192E-03    -105.705E-03     38.5045E-03
             451     6.47795E-03     78.1708E-03    -68.0572E+06    -109.382E+06    -8.11251E+06     54.6522E+03    -105.763E-03     211.655E-03    -105.892E-03     42.5746E-03    -105.988E-03     211.273E-03    -105.675E-03     41.9325E-03
             452     7.28792E-03     78.2199E-03    -60.8564E+06    -92.9602E+06     2.41973E+06     27.8098E+03    -105.782E-03     211.663E-03    -105.881E-03     45.4862E-03    -106.021E-03     211.349E-03    -105.646E-03     44.7722E-03
             453     8.09790E-03     78.2719E-03    -54.1735E+06    -76.6438E+06     11.6966E+06    -29.1611E+03    -105.795E-03     211.662E-03    -105.867E-03     47.8202E-03    -106.049E-03     211.418E-03    -105.619E-03     47.0343E-03
             454     8.90793E-03     78.3262E-03     -47.918E+06    -60.1063E+06     20.0186E+06    -173.006E+03    -105.799E-03     211.650E-03    -105.851E-03     49.5721E-03    -106.069E-03     211.478E-03    -105.594E-03     48.7127E-03
             455     9.71796E-03     78.3820E-03    -42.0043E+06    -42.5955E+06     27.7095E+06    -390.121E+03    -105.784E-03     211.616E-03    -105.832E-03     50.6867E-03    -106.072E-03     211.523E-03    -105.571E-03     49.7525E-03
             456     10.5280E-03     78.4386E-03    -36.4022E+06    -22.3888E+06     35.2009E+06    -680.501E+03    -105.742E-03     211.551E-03    -105.810E-03     51.1993E-03    -106.053E-03     211.552E-03    -105.548E-03     50.1873E-03
             457     11.3381E-03     78.4954E-03    -30.9339E+06    -601.816E+03     42.7657E+06    -1.00574E+06    -105.669E-03     211.456E-03    -105.786E-03     50.9285E-03    -106.006E-03     211.557E-03    -105.527E-03     49.8361E-03
             458     12.1483E-03     78.5513E-03    -25.3451E+06     25.2734E+06     49.8768E+06    -799.644E+03    -105.553E-03     211.308E-03    -105.755E-03     49.4598E-03    -105.918E-03     211.529E-03    -105.506E-03     48.2962E-03
             459     12.9584E-03     78.6048E-03    -19.8476E+06     65.0018E+06     60.6813E+06    -203.909E+03    -105.341E-03     211.062E-03    -105.722E-03     46.4957E-03    -105.756E-03     211.462E-03    -105.484E-03     45.2757E-03
             460     13.7686E-03     78.6540E-03    -14.8034E+06     96.7975E+06     68.5516E+06    -44.5114E+03    -105.114E-03     210.798E-03    -105.684E-03     41.4377E-03    -105.558E-03     211.334E-03    -105.460E-03     40.1695E-03
             461     14.5789E-03     78.6959E-03    -9.94851E+06     106.484E+06     79.3188E+06    -10.5112E+03    -104.933E-03     210.626E-03    -105.693E-03     35.0914E-03    -105.379E-03     211.185E-03    -105.437E-03     33.7521E-03
             462     15.3892E-03     78.7304E-03    -4.95013E+06     109.061E+06     93.9462E+06     92.3430E+03    -104.761E-03     210.494E-03    -105.733E-03     23.9609E-03    -105.169E-03     210.999E-03    -105.414E-03     22.7880E-03
             463     809.591E-06     79.1328E-03    -118.458E+06    -230.367E+06    -115.438E+06     104.509E+03    -105.806E-03     211.567E-03    -105.761E-03     7.30017E-03    -105.899E-03     210.756E-03    -105.832E-03     7.20687E-03
             464     1.61920E-03     79.1442E-03    -114.192E+06    -217.856E+06    -103.188E+06     132.531E+03    -105.750E-03     211.561E-03    -105.811E-03     13.2699E-03    -105.860E-03     210.792E-03    -105.846E-03     13.0983E-03
             465     2.42887E-03     79.1624E-03    -107.846E+06    -200.857E+06    -86.2339E+06     165.244E+03    -105.724E-03     211.562E-03    -105.838E-03     19.3107E-03    -105.857E-03     210.849E-03    -105.822E-03     19.0573E-03
             466     3.23859E-03     79.1872E-03    -100.193E+06    -182.097E+06    -67.6595E+06     232.245E+03    -105.708E-03     211.572E-03    -105.864E-03     25.0202E-03    -105.864E-03     210.922E-03    -105.793E-03     24.6860E-03
             467     4.04837E-03     79.2181E-03    -91.9380E+06    -162.838E+06    -49.8131E+06     254.280E+03    -105.707E-03     211.589E-03    -105.882E-03     30.2688E-03    -105.884E-03     211.006E-03    -105.762E-03     29.8549E-03
             468     4.85820E-03     79.2546E-03    -83.6194E+06    -144.047E+06    -33.8165E+06     214.016E+03    -105.719E-03     211.610E-03    -105.891E-03     34.9667E-03    -105.914E-03     211.095E-03    -105.730E-03     34.4747E-03
             469     5.66807E-03     79.2959E-03    -75.5594E+06    -126.408E+06    -19.9026E+06     205.127E+03    -105.740E-03     211.633E-03    -105.893E-03     39.0721E-03    -105.951E-03     211.184E-03    -105.699E-03     38.5048E-03
             470     6.47800E-03     79.3415E-03    -67.9485E+06    -109.336E+06    -7.87325E+06     225.370E+03    -105.764E-03     211.651E-03    -105.887E-03     42.5708E-03    -105.989E-03     211.270E-03    -105.670E-03     41.9308E-03
             471     7.28795E-03     79.3906E-03    -60.7925E+06    -92.9152E+06     2.61113E+06     222.397E+03    -105.787E-03     211.665E-03    -105.878E-03     45.4794E-03    -106.026E-03     211.351E-03    -105.642E-03     44.7676E-03
             472     8.09794E-03     79.4427E-03    -54.1047E+06    -76.4703E+06     11.9008E+06     171.898E+03    -105.804E-03     211.669E-03    -105.865E-03     47.8109E-03    -106.059E-03     211.425E-03    -105.616E-03     47.0271E-03
             473     8.90794E-03     79.4969E-03    -47.8985E+06    -59.8110E+06     20.2189E+06     56.0700E+03    -105.814E-03     211.663E-03    -105.849E-03     49.5589E-03    -106.084E-03     211.493E-03    -105.592E-03     48.7017E-03
             474     9.71797E-03     79.5527E-03    -42.1356E+06    -42.1436E+06     27.9052E+06    -147.017E+03    -105.805E-03     211.637E-03    -105.832E-03     50.6657E-03    -106.094E-03     211.547E-03    -105.570E-03     49.7337E-03
             475     10.5280E-03     79.6094E-03    -36.7429E+06    -21.8056E+06     35.3589E+06    -439.712E+03    -105.767E-03     211.579E-03    -105.812E-03     51.1728E-03    -106.081E-03     211.583E-03    -105.550E-03     50.1628E-03
             476     11.3381E-03     79.6662E-03    -31.6931E+06     159.593E+03     42.8132E+06    -872.649E+03    -105.697E-03     211.487E-03    -105.791E-03     50.9089E-03    -106.039E-03     211.594E-03    -105.531E-03     49.8173E-03
             477     12.1481E-03     79.7222E-03    -26.7002E+06     25.2139E+06     49.4390E+06    -1.39755E+06    -105.573E-03     211.334E-03    -105.761E-03     49.4713E-03    -105.945E-03     211.557E-03    -105.512E-03     48.2995E-03
             478     12.9583E-03     79.7757E-03    -21.0680E+06     64.1052E+06     60.0344E+06    -1.24436E+06    -105.329E-03     211.056E-03    -105.727E-03     46.5503E-03    -105.748E-03     211.454E-03    -105.490E-03     45.3174E-03
             479     13.7686E-03     79.8248E-03    -15.2558E+06     96.3450E+06     68.3485E+06    -426.041E+03    -105.065E-03     210.754E-03    -105.688E-03     41.5167E-03    -105.511E-03     211.289E-03    -105.464E-03     40.2453E-03
             480     14.5789E-03     79.8666E-03    -10.0985E+06     106.200E+06     79.4976E+06     105.490E+03    -104.878E-03     210.574E-03    -105.696E-03     35.1760E-03    -105.325E-03     211.131E-03    -105.437E-03     33.8406E-03
             481     15.3892E-03     79.9012E-03    -5.10427E+06     109.100E+06     94.2171E+06     238.770E+03    -104.742E-03     210.474E-03    -105.733E-03     23.9903E-03    -105.151E-03     210.980E-03    -105.413E-03     22.8201E-03
             482     809.593E-06     80.3035E-03    -118.242E+06    -230.558E+06    -115.211E+06     72.2241E+03    -105.800E-03     211.554E-03    -105.754E-03     7.30072E-03    -105.891E-03     210.741E-03    -105.824E-03     7.20697E-03
             483     1.61922E-03     80.3149E-03    -113.946E+06    -217.962E+06    -102.898E+06     132.252E+03    -105.744E-03     211.548E-03    -105.805E-03     13.2707E-03    -105.853E-03     210.778E-03    -105.838E-03     13.0991E-03
             484     2.42889E-03     80.3331E-03    -107.585E+06    -201.001E+06    -85.9354E+06     195.884E+03    -105.718E-03     211.550E-03    -105.832E-03     19.3109E-03    -105.850E-03     210.835E-03    -105.814E-03     19.0578E-03
             485     3.23862E-03     80.3579E-03    -99.9177E+06    -182.238E+06    -67.3675E+06     256.887E+03    -105.703E-03     211.561E-03    -105.858E-03     25.0187E-03    -105.858E-03     210.909E-03    -105.786E-03     24.6847E-03
             486     4.04840E-03     80.3888E-03    -91.6370E+06    -162.884E+06    -49.4989E+06     294.504E+03    -105.703E-03     211.580E-03    -105.877E-03     30.2647E-03    -105.879E-03     210.995E-03    -105.755E-03     29.8512E-03
             487     4.85823E-03     80.4253E-03    -83.3089E+06    -144.045E+06    -33.4888E+06     319.278E+03    -105.718E-03     211.604E-03    -105.886E-03     34.9598E-03    -105.911E-03     211.088E-03    -105.724E-03     34.4690E-03
             488     5.66811E-03     80.4667E-03    -75.2818E+06    -126.500E+06    -19.6114E+06     367.758E+03    -105.744E-03     211.632E-03    -105.888E-03     39.0616E-03    -105.953E-03     211.182E-03    -105.694E-03     38.4962E-03
             489     6.47803E-03     80.5122E-03    -67.6677E+06    -109.406E+06    -7.58968E+06     441.373E+03    -105.773E-03     211.657E-03    -105.884E-03     42.5562E-03    -105.997E-03     211.274E-03    -105.666E-03     41.9186E-03
             490     7.28798E-03     80.5614E-03    -60.5400E+06    -92.8572E+06     2.88672E+06     437.568E+03    -105.800E-03     211.676E-03    -105.876E-03     45.4620E-03    -106.038E-03     211.362E-03    -105.639E-03     44.7524E-03
             491     8.09794E-03     80.6134E-03    -53.8296E+06    -76.3991E+06     12.1920E+06     401.527E+03    -105.822E-03     211.687E-03    -105.865E-03     47.7962E-03    -106.075E-03     211.442E-03    -105.615E-03     47.0147E-03
             492     8.90794E-03     80.6677E-03    -47.5779E+06    -59.6238E+06     20.5694E+06     361.639E+03    -105.834E-03     211.685E-03    -105.851E-03     49.5485E-03    -106.104E-03     211.515E-03    -105.593E-03     48.6947E-03
             493     9.71793E-03     80.7235E-03    -41.8155E+06    -41.8505E+06     28.2929E+06     286.980E+03    -105.825E-03     211.661E-03    -105.836E-03     50.6613E-03    -106.114E-03     211.571E-03    -105.573E-03     49.7346E-03
             494     10.5280E-03     80.7802E-03    -36.4753E+06    -21.3080E+06     35.8008E+06     128.830E+03    -105.782E-03     211.598E-03    -105.817E-03     51.1848E-03    -106.096E-03     211.604E-03    -105.554E-03     50.1824E-03
             495     11.3380E-03     80.8371E-03    -31.5274E+06      864.06E+03     43.2945E+06    -120.360E+03    -105.697E-03     211.493E-03    -105.796E-03     50.9488E-03    -106.040E-03     211.601E-03    -105.535E-03     49.8679E-03
             496     12.1481E-03     80.8930E-03    -26.9262E+06     26.7282E+06     50.0139E+06    -925.774E+03    -105.550E-03     211.315E-03    -105.765E-03     49.5419E-03    -105.926E-03     211.545E-03    -105.514E-03     48.3777E-03
             497     12.9583E-03     80.9465E-03    -22.2167E+06     64.2750E+06     59.8798E+06    -2.00758E+06    -105.297E-03     211.026E-03    -105.729E-03     46.6217E-03    -105.722E-03     211.427E-03    -105.491E-03     45.3799E-03
             498     13.7686E-03     80.9955E-03    -16.7453E+06     94.7012E+06     67.3428E+06    -1.64012E+06    -105.045E-03     210.733E-03    -105.688E-03     41.5525E-03    -105.495E-03     211.264E-03    -105.464E-03     40.2652E-03
             499     14.5789E-03     81.0374E-03    -10.9248E+06     105.288E+06     78.7526E+06    -347.980E+03    -104.883E-03     210.577E-03    -105.694E-03     35.1785E-03    -105.332E-03     211.132E-03    -105.437E-03     33.8368E-03
             500     15.3892E-03     81.0720E-03    -5.34726E+06     109.137E+06     93.7919E+06     129.548E+03    -104.763E-03     210.494E-03    -105.731E-03     23.9658E-03    -105.173E-03     211.000E-03    -105.413E-03     22.7940E-03
             501     809.605E-06     81.4743E-03    -117.946E+06    -230.696E+06    -114.888E+06     55.5418E+03    -105.793E-03     211.541E-03    -105.748E-03     7.29976E-03    -105.883E-03     210.726E-03    -105.816E-03     7.20576E-03
             502     1.61923E-03     81.4856E-03    -113.657E+06    -218.138E+06    -102.588E+06     138.642E+03    -105.738E-03     211.536E-03    -105.798E-03     13.2679E-03    -105.846E-03     210.764E-03    -105.830E-03     13.0963E-03
             503     2.42891E-03     81.5038E-03    -107.296E+06    -201.193E+06    -85.6036E+06     241.392E+03    -105.714E-03     211.540E-03    -105.826E-03     19.3057E-03    -105.844E-03     210.824E-03    -105.807E-03     19.0532E-03
             504     3.23864E-03     81.5286E-03    -99.6349E+06    -182.339E+06    -67.0468E+06     286.677E+03    -105.701E-03     211.554E-03    -105.853E-03     25.0110E-03    -105.855E-03     210.901E-03    -105.779E-03     24.6772E-03
             505     4.04842E-03     81.5595E-03    -91.3684E+06    -162.999E+06    -49.2520E+06     318.300E+03    -105.704E-03     211.576E-03    -105.872E-03     30.2540E-03    -105.878E-03     210.990E-03    -105.749E-03     29.8407E-03
             506     4.85826E-03     81.5960E-03    -83.0337E+06    -144.193E+06    -33.2572E+06     409.549E+03    -105.722E-03     211.604E-03    -105.883E-03     34.9466E-03    -105.914E-03     211.087E-03    -105.719E-03     34.4567E-03
             507     5.66813E-03     81.6374E-03    -74.9492E+06    -126.657E+06    -19.3481E+06     507.321E+03    -105.753E-03     211.640E-03    -105.886E-03     39.0467E-03    -105.961E-03     211.188E-03    -105.691E-03     38.4826E-03
             508     6.47804E-03     81.6830E-03    -67.2503E+06    -109.517E+06    -7.27365E+06     552.534E+03    -105.787E-03     211.671E-03    -105.884E-03     42.5411E-03    -106.009E-03     211.287E-03    -105.664E-03     41.9045E-03
             509     7.28797E-03     81.7321E-03    -60.0148E+06    -92.8796E+06     3.27548E+06     585.786E+03    -105.816E-03     211.694E-03    -105.878E-03     45.4480E-03    -106.053E-03     211.378E-03    -105.640E-03     44.7401E-03
             510     8.09793E-03     81.7841E-03    -53.2936E+06    -76.4252E+06     12.6031E+06     611.805E+03    -105.838E-03     211.706E-03    -105.868E-03     47.7922E-03    -106.090E-03     211.461E-03    -105.617E-03     47.0132E-03
             511     8.90790E-03     81.8384E-03    -46.9925E+06    -59.5973E+06     21.0215E+06     622.478E+03    -105.847E-03     211.702E-03    -105.856E-03     49.5583E-03    -106.114E-03     211.531E-03    -105.596E-03     48.7079E-03
             512     9.71790E-03     81.8943E-03    -41.0708E+06    -41.7716E+06     28.8297E+06     613.711E+03    -105.828E-03     211.668E-03    -105.840E-03     50.6834E-03    -106.114E-03     211.577E-03    -105.576E-03     49.7615E-03
             513     10.5279E-03     81.9510E-03    -35.4962E+06    -21.1158E+06     36.4609E+06     601.619E+03    -105.770E-03     211.591E-03    -105.820E-03     51.2216E-03    -106.081E-03     211.595E-03    -105.556E-03     50.2263E-03
             514     11.3380E-03     82.0079E-03    -30.1369E+06     1.41382E+06     44.2061E+06     390.001E+03    -105.671E-03     211.469E-03    -105.798E-03     50.9911E-03    -106.009E-03     211.577E-03    -105.535E-03     49.9180E-03
             515     12.1481E-03     82.0638E-03    -24.9572E+06     28.4756E+06     51.4808E+06    -268.357E+03    -105.520E-03     211.284E-03    -105.765E-03     49.5708E-03    -105.890E-03     211.518E-03    -105.512E-03     48.4160E-03
             516     12.9583E-03     82.1172E-03    -19.9537E+06     66.4518E+06      61.628E+06    -1.63615E+06    -105.299E-03     211.027E-03    -105.728E-03     46.6365E-03    -105.718E-03     211.433E-03    -105.488E-03     45.3994E-03
             517     13.7686E-03     82.1663E-03    -15.0915E+06     93.2502E+06     68.3506E+06    -2.18575E+06    -105.109E-03     210.800E-03    -105.691E-03     41.5624E-03    -105.550E-03     211.320E-03    -105.462E-03     40.2669E-03
             518     14.5789E-03     82.2082E-03    -10.1854E+06     103.174E+06     78.6913E+06    -874.254E+03    -104.949E-03     210.647E-03    -105.697E-03     35.1716E-03    -105.391E-03     211.190E-03    -105.439E-03     33.8221E-03
             519     15.3891E-03     82.2429E-03    -5.08618E+06     109.349E+06     93.3528E+06    -16.1686E+03    -104.771E-03     210.503E-03    -105.732E-03     23.9512E-03    -105.180E-03     211.011E-03    -105.416E-03     22.7773E-03
             520     809.606E-06     82.6449E-03    -117.637E+06    -230.823E+06    -114.582E+06     69.7375E+03    -105.789E-03     211.531E-03    -105.743E-03     7.29672E-03    -105.878E-03     210.716E-03    -105.810E-03     7.20286E-03
             521     1.61924E-03     82.6563E-03    -113.359E+06    -218.388E+06    -102.273E+06     171.052E+03    -105.735E-03     211.529E-03    -105.794E-03     13.2621E-03    -105.842E-03     210.755E-03    -105.825E-03     13.0909E-03
             522     2.42892E-03     82.6745E-03    -107.003E+06    -201.429E+06    -85.3279E+06     292.038E+03    -105.713E-03     211.536E-03    -105.823E-03     19.2975E-03    -105.842E-03     210.817E-03    -105.802E-03     19.0455E-03
             523     3.23865E-03     82.6993E-03    -99.3381E+06    -182.394E+06    -66.7897E+06     321.573E+03    -105.702E-03     211.552E-03    -105.850E-03     25.0007E-03    -105.855E-03     210.898E-03    -105.775E-03     24.6672E-03
             524     4.04843E-03     82.7302E-03    -91.0800E+06    -163.173E+06    -48.9884E+06     361.002E+03    -105.709E-03     211.579E-03    -105.871E-03     30.2414E-03    -105.882E-03     210.992E-03    -105.747E-03     29.8283E-03
             525     4.85826E-03     82.7667E-03    -82.7537E+06    -144.430E+06    -33.0267E+06     468.596E+03    -105.730E-03     211.613E-03    -105.883E-03     34.9351E-03    -105.922E-03     211.093E-03    -105.718E-03     34.4457E-03
             526     5.66813E-03     82.8081E-03     -74.638E+06    -126.796E+06    -19.1131E+06     531.365E+03    -105.764E-03     211.651E-03    -105.888E-03     39.0403E-03    -105.970E-03     211.198E-03    -105.691E-03     38.4763E-03
             527     6.47802E-03     82.8537E-03    -66.9106E+06    -109.647E+06    -6.99440E+06     577.337E+03    -105.798E-03     211.685E-03    -105.887E-03     42.5413E-03    -106.019E-03     211.299E-03    -105.666E-03     41.9049E-03
             528     7.28795E-03     82.9029E-03    -59.6440E+06    -93.0064E+06     3.59589E+06     633.622E+03    -105.827E-03     211.708E-03    -105.881E-03     45.4550E-03    -106.062E-03     211.390E-03    -105.642E-03     44.7477E-03
             529     8.09789E-03     82.9549E-03    -52.8197E+06    -76.5141E+06     12.9757E+06     675.486E+03    -105.845E-03     211.717E-03    -105.872E-03     47.8125E-03    -106.095E-03     211.470E-03    -105.620E-03     47.0344E-03
             530     8.90787E-03     83.0092E-03    -46.4002E+06    -59.6454E+06     21.4368E+06     686.141E+03    -105.845E-03     211.705E-03    -105.859E-03     49.5869E-03    -106.111E-03     211.531E-03    -105.598E-03     48.7377E-03
             531     9.71788E-03     83.0651E-03    -40.3050E+06    -41.7478E+06     29.3241E+06     650.562E+03    -105.815E-03     211.658E-03    -105.843E-03     50.7118E-03    -106.098E-03     211.565E-03    -105.577E-03     49.7910E-03
             532     10.5279E-03     83.1218E-03    -34.4163E+06    -20.9893E+06     37.1022E+06     508.252E+03    -105.748E-03     211.570E-03    -105.821E-03     51.2454E-03    -106.055E-03     211.572E-03    -105.556E-03     50.2494E-03
             533     11.3380E-03     83.1787E-03    -28.6646E+06     1.96827E+06     45.1284E+06     221.614E+03    -105.650E-03     211.447E-03    -105.797E-03     50.9979E-03    -105.983E-03     211.554E-03    -105.533E-03     49.9229E-03
             534     12.1482E-03     83.2346E-03    -23.0603E+06     29.9153E+06     52.8307E+06    -469.955E+03    -105.514E-03     211.278E-03    -105.763E-03     49.5621E-03    -105.880E-03     211.514E-03    -105.509E-03     48.4045E-03
             535     12.9584E-03     83.2880E-03    -17.7469E+06     68.5631E+06     63.3443E+06    -1.39329E+06    -105.321E-03     211.048E-03    -105.728E-03     46.6242E-03    -105.735E-03     211.459E-03    -105.485E-03     45.3898E-03
             536     13.7686E-03     83.3372E-03    -13.3104E+06     92.1210E+06     69.4715E+06    -1.18981E+06    -105.167E-03     210.861E-03    -105.694E-03     41.5637E-03    -105.599E-03     211.371E-03    -105.461E-03     40.2809E-03
             537     14.5788E-03     83.3791E-03    -9.46210E+06     101.299E+06     78.8777E+06    -192.504E+03    -104.999E-03     210.701E-03    -105.701E-03     35.1954E-03    -105.435E-03     211.234E-03    -105.440E-03     33.8547E-03
             538     15.3891E-03     83.4137E-03    -4.99695E+06     109.690E+06     93.1473E+06     81.0904E+03    -104.777E-03     210.510E-03    -105.733E-03     23.9760E-03    -105.185E-03     211.019E-03    -105.419E-03     22.8033E-03
             539     809.612E-06     83.8156E-03    -117.469E+06    -230.991E+06    -114.408E+06     85.5743E+03    -105.788E-03     211.530E-03    -105.742E-03     7.29305E-03    -105.876E-03     210.713E-03    -105.808E-03     7.19936E-03
             540     1.61924E-03     83.8270E-03    -113.177E+06    -218.684E+06    -102.089E+06     199.972E+03    -105.736E-03     211.530E-03    -105.794E-03     13.2560E-03    -105.841E-03     210.754E-03    -105.823E-03     13.0851E-03
             541     2.42892E-03     83.8452E-03    -106.787E+06    -201.657E+06    -85.1537E+06     298.721E+03    -105.715E-03     211.538E-03    -105.823E-03     19.2902E-03    -105.843E-03     210.818E-03    -105.801E-03     19.0381E-03
             542     3.23865E-03     83.8700E-03    -99.1080E+06    -182.474E+06    -66.6059E+06     338.561E+03    -105.706E-03     211.557E-03    -105.851E-03     24.9929E-03    -105.858E-03     210.902E-03    -105.775E-03     24.6595E-03
             543     4.04843E-03     83.9009E-03    -90.8485E+06    -163.401E+06    -48.7601E+06     410.749E+03    -105.716E-03     211.588E-03    -105.873E-03     30.2344E-03    -105.888E-03     210.999E-03    -105.748E-03     29.8218E-03
             544     4.85825E-03     83.9374E-03    -82.5026E+06    -144.634E+06    -32.7840E+06     494.277E+03    -105.738E-03     211.624E-03    -105.885E-03     34.9329E-03    -105.928E-03     211.103E-03    -105.720E-03     34.4437E-03
             545     5.66811E-03     83.9788E-03     -74.393E+06    -126.892E+06    -18.8859E+06     527.385E+03    -105.770E-03     211.661E-03    -105.891E-03     39.0449E-03    -105.975E-03     211.206E-03    -105.693E-03     38.4809E-03
             546     6.47800E-03     84.0244E-03    -66.6585E+06    -109.800E+06    -6.77888E+06     556.304E+03    -105.801E-03     211.692E-03    -105.890E-03     42.5525E-03    -106.021E-03     211.304E-03    -105.668E-03     41.9159E-03
             547     7.28793E-03     84.0736E-03    -59.3581E+06    -93.1471E+06     3.82907E+06     609.812E+03    -105.827E-03     211.711E-03    -105.884E-03     45.4735E-03    -106.060E-03     211.392E-03    -105.644E-03     44.7661E-03
             548     8.09788E-03     84.1257E-03    -52.5071E+06    -76.5930E+06     13.2367E+06     627.950E+03    -105.841E-03     211.716E-03    -105.875E-03     47.8405E-03    -106.089E-03     211.467E-03    -105.621E-03     47.0621E-03
             549     8.90787E-03     84.1800E-03    -46.0347E+06    -59.6124E+06     21.7475E+06     565.004E+03    -105.835E-03     211.696E-03    -105.861E-03     49.6138E-03    -106.099E-03     211.522E-03    -105.599E-03     48.7633E-03
             550     9.71789E-03     84.2359E-03    -39.8720E+06    -41.6008E+06     29.6835E+06     405.716E+03    -105.800E-03     211.643E-03    -105.843E-03     50.7298E-03    -106.082E-03     211.549E-03    -105.577E-03     49.8059E-03
             551     10.5280E-03     84.2926E-03    -33.9943E+06    -20.6174E+06     37.5277E+06     141.033E+03    -105.735E-03     211.556E-03    -105.821E-03     51.2515E-03    -106.041E-03     211.559E-03    -105.554E-03     50.2506E-03
             552     11.3381E-03     84.3495E-03    -28.3492E+06     2.55662E+06     45.5770E+06    -251.399E+03    -105.648E-03     211.444E-03    -105.796E-03     50.9921E-03    -105.981E-03     211.553E-03    -105.531E-03     49.9106E-03
             553     12.1482E-03     84.4054E-03    -23.0955E+06     31.0561E+06     53.3021E+06    -706.332E+03    -105.525E-03     211.287E-03    -105.762E-03     49.5548E-03    -105.893E-03     211.529E-03    -105.507E-03     48.3936E-03
             554     12.9584E-03     84.4589E-03    -18.6828E+06     68.8316E+06     63.1789E+06    -582.630E+03    -105.334E-03     211.061E-03    -105.727E-03     46.6214E-03    -105.752E-03     211.474E-03    -105.484E-03     45.3975E-03
             555     13.7686E-03     84.5080E-03    -14.6901E+06     90.9272E+06     68.4026E+06     94.1590E+03    -105.160E-03     210.853E-03    -105.693E-03     41.5698E-03    -105.595E-03     211.360E-03    -105.461E-03     40.3043E-03
             556     14.5789E-03     84.5500E-03    -10.0801E+06     100.907E+06     78.3760E+06     357.757E+03    -104.986E-03     210.686E-03    -105.700E-03     35.2143E-03    -105.424E-03     211.218E-03    -105.440E-03     33.8810E-03
             557     15.3891E-03     84.5845E-03    -4.95422E+06     109.994E+06     93.1418E+06     199.624E+03    -104.795E-03     210.527E-03    -105.732E-03     24.0048E-03    -105.203E-03     211.038E-03    -105.419E-03     22.8337E-03
             558     809.604E-06     84.9863E-03    -117.436E+06    -231.206E+06    -114.378E+06     102.200E+03    -105.791E-03     211.536E-03    -105.745E-03     7.29156E-03    -105.879E-03     210.718E-03    -105.811E-03     7.19808E-03
             559     1.61924E-03     84.9977E-03    -113.131E+06    -218.957E+06    -102.058E+06     192.542E+03    -105.740E-03     211.537E-03    -105.797E-03     13.2540E-03    -105.845E-03     210.759E-03    -105.826E-03     13.0829E-03
             560     2.42891E-03     85.0159E-03    -106.739E+06    -201.854E+06    -85.1023E+06     269.578E+03    -105.719E-03     211.546E-03    -105.826E-03     19.2887E-03    -105.847E-03     210.824E-03    -105.804E-03     19.0362E-03
             561     3.23864E-03     85.0407E-03    -99.0581E+06    -182.637E+06    -66.5286E+06     342.938E+03    -105.711E-03     211.565E-03    -105.854E-03     24.9930E-03    -105.862E-03     210.909E-03    -105.779E-03     24.6597E-03
             562     4.04841E-03     85.0716E-03    -90.7713E+06    -163.620E+06    -48.6617E+06     418.677E+03    -105.720E-03     211.597E-03    -105.877E-03     30.2378E-03    -105.892E-03     211.006E-03    -105.751E-03     29.8255E-03
             563     4.85823E-03     85.1082E-03    -82.3984E+06    -144.808E+06    -32.6462E+06     487.935E+03    -105.742E-03     211.632E-03    -105.890E-03     34.9405E-03    -105.931E-03     211.109E-03    -105.723E-03     34.4513E-03
             564     5.66809E-03     85.1496E-03    -74.2706E+06    -126.982E+06    -18.7217E+06     524.035E+03    -105.771E-03     211.666E-03    -105.895E-03     39.0560E-03    -105.976E-03     211.210E-03    -105.697E-03     38.4921E-03
             565     6.47798E-03     85.1952E-03    -66.5577E+06    -109.905E+06    -6.65210E+06     533.371E+03    -105.798E-03     211.692E-03    -105.893E-03     42.5665E-03    -106.018E-03     211.304E-03    -105.671E-03     41.9298E-03
             566     7.28792E-03     85.2444E-03    -59.2822E+06    -93.2741E+06     3.93172E+06     553.345E+03    -105.820E-03     211.707E-03    -105.887E-03     45.4893E-03    -106.053E-03     211.387E-03    -105.646E-03     44.7814E-03
             567     8.09788E-03     85.2965E-03    -52.4181E+06    -76.5761E+06     13.3809E+06     527.887E+03    -105.831E-03     211.706E-03    -105.876E-03     47.8563E-03    -106.079E-03     211.458E-03    -105.622E-03     47.0767E-03
             568     8.90787E-03     85.3508E-03    -45.9624E+06    -59.4720E+06     21.9181E+06     415.630E+03    -105.822E-03     211.683E-03    -105.861E-03     49.6219E-03    -106.086E-03     211.509E-03    -105.598E-03     48.7695E-03
             569     9.71791E-03     85.4067E-03    -39.9250E+06    -41.2977E+06     29.8545E+06     231.926E+03    -105.791E-03     211.633E-03    -105.842E-03     50.7284E-03    -106.073E-03     211.541E-03    -105.575E-03     49.8022E-03
             570     10.5280E-03     85.4634E-03    -34.2826E+06    -20.2017E+06     37.6321E+06     1.94510E+03    -105.735E-03     211.555E-03    -105.819E-03     51.2459E-03    -106.043E-03     211.560E-03    -105.552E-03     50.2429E-03
             571     11.3381E-03     85.5202E-03    -29.0516E+06     3.15946E+06     45.5606E+06    -256.991E+03    -105.656E-03     211.451E-03    -105.795E-03     50.9895E-03    -105.994E-03     211.565E-03    -105.530E-03     49.9075E-03
             572     12.1482E-03     85.5762E-03    -24.3999E+06     31.0467E+06     52.8599E+06    -88.0108E+03    -105.534E-03     211.296E-03    -105.762E-03     49.5597E-03    -105.907E-03     211.540E-03    -105.507E-03     48.4064E-03
             573     12.9584E-03     85.6297E-03    -19.8867E+06     67.9799E+06     62.4224E+06     546.828E+03    -105.329E-03     211.055E-03    -105.727E-03     46.6311E-03    -105.751E-03     211.467E-03    -105.484E-03     45.4223E-03
             574     13.7686E-03     85.6789E-03    -15.0671E+06     90.8525E+06     68.0012E+06     609.777E+03    -105.141E-03     210.832E-03    -105.691E-03     41.5791E-03    -105.577E-03     211.340E-03    -105.461E-03     40.3206E-03
             575     14.5788E-03     85.7208E-03    -10.1749E+06     101.155E+06     78.2252E+06     253.186E+03    -104.967E-03     210.664E-03    -105.698E-03     35.2126E-03    -105.405E-03     211.199E-03    -105.438E-03     33.8779E-03
             576     15.3892E-03     85.7554E-03    -5.12313E+06     110.116E+06     93.2374E+06     186.097E+03    -104.789E-03     210.520E-03    -105.731E-03     24.0001E-03    -105.198E-03     211.032E-03    -105.417E-03     22.8288E-03
             577     809.605E-06     86.1570E-03    -117.447E+06    -231.429E+06    -114.399E+06     96.2933E+03    -105.797E-03     211.547E-03    -105.750E-03     7.29308E-03    -105.884E-03     210.728E-03    -105.816E-03     7.19955E-03
             578     1.61923E-03     86.1683E-03    -113.131E+06    -219.166E+06    -102.054E+06     162.545E+03    -105.745E-03     211.547E-03    -105.803E-03     13.2570E-03    -105.849E-03     210.768E-03    -105.831E-03     13.0856E-03
             579     2.42890E-03     86.1866E-03    -106.732E+06    -202.059E+06    -85.0845E+06     244.012E+03    -105.724E-03     211.555E-03    -105.832E-03     19.2936E-03    -105.851E-03     210.833E-03    -105.809E-03     19.0409E-03
             580     3.23862E-03     86.2114E-03    -99.0403E+06    -182.842E+06    -66.5117E+06     331.600E+03    -105.714E-03     211.573E-03    -105.859E-03     25.0004E-03    -105.865E-03     210.916E-03    -105.783E-03     24.6671E-03
             581     4.04840E-03     86.2424E-03    -90.7496E+06    -163.798E+06    -48.6347E+06     400.310E+03    -105.722E-03     211.603E-03    -105.881E-03     30.2481E-03    -105.893E-03     211.011E-03    -105.755E-03     29.8357E-03
             582     4.85821E-03     86.2789E-03    -82.3657E+06    -144.972E+06    -32.6081E+06     453.272E+03    -105.742E-03     211.635E-03    -105.893E-03     34.9531E-03    -105.931E-03     211.112E-03    -105.727E-03     34.4636E-03
             583     5.66808E-03     86.3203E-03    -74.2126E+06    -127.083E+06    -18.6479E+06     494.276E+03    -105.768E-03     211.666E-03    -105.898E-03     39.0694E-03    -105.972E-03     211.210E-03    -105.699E-03     38.5053E-03
             584     6.47797E-03     86.3659E-03    -66.4811E+06    -110.014E+06    -6.55965E+06     538.328E+03    -105.794E-03     211.689E-03    -105.895E-03     42.5791E-03    -106.012E-03     211.300E-03    -105.672E-03     41.9427E-03
             585     7.28791E-03     86.4151E-03    -59.2347E+06    -93.3220E+06     4.00871E+06     546.510E+03    -105.813E-03     211.701E-03    -105.888E-03     45.5009E-03    -106.046E-03     211.381E-03    -105.647E-03     44.7930E-03
             586     8.09788E-03     86.4672E-03    -52.4297E+06    -76.5012E+06     13.4400E+06     485.761E+03    -105.822E-03     211.698E-03    -105.876E-03     47.8638E-03    -106.070E-03     211.449E-03    -105.622E-03     47.0837E-03
             587     8.90789E-03     86.5216E-03    -46.0915E+06    -59.3244E+06     21.9557E+06     405.163E+03    -105.815E-03     211.675E-03    -105.860E-03     49.6195E-03    -106.080E-03     211.503E-03    -105.598E-03     48.7670E-03
             588     9.71792E-03     86.5774E-03    -40.2218E+06    -41.0803E+06     29.8444E+06     330.007E+03    -105.790E-03     211.631E-03    -105.841E-03     50.7204E-03    -106.074E-03     211.541E-03    -105.574E-03     49.7954E-03
             589     10.5280E-03     86.6341E-03    -34.7643E+06    -19.9203E+06     37.5525E+06     247.429E+03    -105.741E-03     211.559E-03    -105.819E-03     51.2406E-03    -106.051E-03     211.567E-03    -105.552E-03     50.2408E-03
             590     11.3381E-03     86.6910E-03    -29.7338E+06     3.24778E+06     45.3237E+06     328.210E+03    -105.662E-03     211.457E-03    -105.795E-03     50.9907E-03    -106.003E-03     211.572E-03    -105.530E-03     49.9165E-03
             591     12.1482E-03     86.7470E-03    -24.8655E+06     30.3799E+06     52.4488E+06     660.304E+03    -105.535E-03     211.297E-03    -105.762E-03     49.5664E-03    -105.910E-03     211.539E-03    -105.508E-03     48.4232E-03
             592     12.9584E-03     86.8005E-03    -19.8050E+06     67.5619E+06     62.2568E+06     810.832E+03    -105.323E-03     211.050E-03    -105.727E-03     46.6372E-03    -105.744E-03     211.460E-03    -105.485E-03     45.4320E-03
             593     13.7686E-03     86.8497E-03    -14.8056E+06     91.3510E+06     68.1518E+06     665.455E+03    -105.132E-03     210.823E-03    -105.691E-03     41.5811E-03    -105.568E-03     211.333E-03    -105.461E-03     40.3233E-03
             594     14.5789E-03     86.8917E-03    -10.0658E+06     101.479E+06     78.2851E+06     455.977E+03    -104.962E-03     210.658E-03    -105.697E-03     35.2112E-03    -105.400E-03     211.194E-03    -105.438E-03     33.8792E-03
             595     15.3891E-03     86.9263E-03    -5.16995E+06     110.301E+06     93.3729E+06     193.795E+03    -104.777E-03     210.507E-03    -105.730E-03     23.9933E-03    -105.187E-03     211.020E-03    -105.416E-03     22.8220E-03
             596     809.595E-06     87.3277E-03    -117.508E+06    -231.624E+06    -114.455E+06     82.5909E+03    -105.802E-03     211.557E-03    -105.756E-03     7.29609E-03    -105.889E-03     210.737E-03    -105.822E-03     7.20240E-03
             597     1.61922E-03     87.3391E-03    -113.212E+06    -219.333E+06    -102.125E+06     145.384E+03    -105.749E-03     211.557E-03    -105.808E-03     13.2627E-03    -105.854E-03     210.777E-03    -105.836E-03     13.0911E-03
             598     2.42889E-03     87.3573E-03    -106.822E+06    -202.257E+06    -85.1721E+06     212.818E+03    -105.727E-03     211.563E-03    -105.836E-03     19.3017E-03    -105.854E-03     210.840E-03    -105.814E-03     19.0486E-03
             599     3.23861E-03     87.3821E-03    -99.1256E+06    -183.054E+06    -66.5995E+06     302.038E+03    -105.716E-03     211.579E-03    -105.863E-03     25.0105E-03    -105.867E-03     210.921E-03    -105.787E-03     24.6770E-03
             600     4.04838E-03     87.4131E-03    -90.8260E+06    -163.952E+06    -48.7147E+06     373.887E+03    -105.722E-03     211.606E-03    -105.884E-03     30.2600E-03    -105.893E-03     211.014E-03    -105.758E-03     29.8473E-03
             601     4.85820E-03     87.4496E-03    -82.4487E+06    -145.100E+06    -32.6774E+06     412.126E+03    -105.739E-03     211.635E-03    -105.896E-03     34.9652E-03    -105.928E-03     211.111E-03    -105.729E-03     34.4753E-03
             602     5.66806E-03     87.4910E-03    -74.3204E+06    -127.220E+06    -18.7166E+06     461.902E+03    -105.764E-03     211.663E-03    -105.900E-03     39.0799E-03    -105.968E-03     211.207E-03    -105.701E-03     38.5155E-03
             603     6.47797E-03     87.5367E-03    -66.5885E+06    -110.145E+06    -6.62039E+06     517.918E+03    -105.789E-03     211.685E-03    -105.896E-03     42.5881E-03    -106.008E-03     211.296E-03    -105.673E-03     41.9514E-03
             604     7.28791E-03     87.5859E-03    -59.3084E+06    -93.3658E+06     3.97819E+06     550.719E+03    -105.809E-03     211.697E-03    -105.888E-03     45.5077E-03    -106.042E-03     211.376E-03    -105.647E-03     44.7998E-03
             605     8.09789E-03     87.6380E-03    -52.5601E+06    -76.4838E+06     13.3976E+06     569.588E+03    -105.818E-03     211.694E-03    -105.876E-03     47.8656E-03    -106.067E-03     211.446E-03    -105.622E-03     47.0866E-03
             606     8.90789E-03     87.6923E-03    -46.3182E+06    -59.3020E+06     21.8744E+06     588.213E+03    -105.815E-03     211.675E-03    -105.860E-03     49.6170E-03    -106.081E-03     211.503E-03    -105.597E-03     48.7669E-03
             607     9.71793E-03     87.7482E-03    -40.4906E+06    -41.0333E+06     29.7417E+06     603.011E+03    -105.793E-03     211.634E-03    -105.841E-03     50.7188E-03    -106.079E-03     211.545E-03    -105.574E-03     49.7974E-03
             608     10.5280E-03     87.8049E-03    -35.0557E+06    -19.9657E+06     37.3996E+06     694.004E+03    -105.745E-03     211.564E-03    -105.819E-03     51.2424E-03    -106.056E-03     211.572E-03    -105.552E-03     50.2485E-03
             609     11.3381E-03     87.8618E-03    -29.8511E+06     2.97518E+06     45.1530E+06     854.553E+03    -105.664E-03     211.459E-03    -105.795E-03     50.9945E-03    -106.005E-03     211.573E-03    -105.530E-03     49.9273E-03
             610     12.1482E-03     87.9178E-03    -24.7576E+06     30.0614E+06     52.3441E+06     926.759E+03    -105.534E-03     211.297E-03    -105.762E-03     49.5698E-03    -105.908E-03     211.537E-03    -105.508E-03     48.4301E-03
             611     12.9584E-03     87.9713E-03    -19.7618E+06     67.6637E+06     62.2742E+06     881.064E+03    -105.321E-03     211.048E-03    -105.727E-03     46.6400E-03    -105.742E-03     211.458E-03    -105.485E-03     45.4357E-03
             612     13.7686E-03     88.0205E-03    -14.8864E+06     91.5300E+06     68.1521E+06     789.963E+03    -105.129E-03     210.819E-03    -105.691E-03     41.5825E-03    -105.566E-03     211.331E-03    -105.461E-03     40.3263E-03
             613     14.5789E-03     88.0625E-03    -10.0197E+06     101.848E+06     78.4643E+06     606.131E+03    -104.954E-03     210.651E-03    -105.697E-03     35.2103E-03    -105.393E-03     211.189E-03    -105.438E-03     33.8802E-03
             614     15.3892E-03     88.0971E-03    -4.96232E+06     110.820E+06     93.6001E+06     271.367E+03    -104.772E-03     210.502E-03    -105.730E-03     23.9921E-03    -105.182E-03     211.016E-03    -105.416E-03     22.8218E-03
             615     809.597E-06     88.4984E-03    -117.674E+06    -231.794E+06    -114.617E+06     71.2906E+03    -105.805E-03     211.564E-03    -105.760E-03     7.29922E-03    -105.893E-03     210.744E-03    -105.826E-03     7.20539E-03
             616     1.61921E-03     88.5098E-03    -113.354E+06    -219.472E+06    -102.274E+06     125.674E+03    -105.752E-03     211.563E-03    -105.811E-03     13.2680E-03    -105.857E-03     210.783E-03    -105.840E-03     13.0962E-03
             617     2.42888E-03     88.5280E-03    -106.958E+06    -202.431E+06    -85.3035E+06     189.055E+03    -105.729E-03     211.569E-03    -105.839E-03     19.3088E-03    -105.857E-03     210.845E-03    -105.817E-03     19.0555E-03
             618     3.23860E-03     88.5528E-03    -99.2746E+06    -183.261E+06    -66.7430E+06     275.274E+03    -105.717E-03     211.583E-03    -105.866E-03     25.0191E-03    -105.868E-03     210.924E-03    -105.790E-03     24.6852E-03
             619     4.04837E-03     88.5838E-03    -90.9883E+06    -164.095E+06    -48.8839E+06     345.078E+03    -105.721E-03     211.607E-03    -105.886E-03     30.2690E-03    -105.892E-03     211.015E-03    -105.761E-03     29.8559E-03
             620     4.85819E-03     88.6203E-03    -82.6298E+06    -145.225E+06    -32.8444E+06     400.348E+03    -105.736E-03     211.634E-03    -105.897E-03     34.9730E-03    -105.926E-03     211.110E-03    -105.731E-03     34.4829E-03
             621     5.66806E-03     88.6618E-03    -74.5221E+06    -127.377E+06    -18.8939E+06     462.335E+03    -105.760E-03     211.660E-03    -105.900E-03     39.0859E-03    -105.965E-03     211.204E-03    -105.702E-03     38.5215E-03
             622     6.47797E-03     88.7074E-03    -66.8223E+06    -110.262E+06    -6.79788E+06     514.793E+03    -105.785E-03     211.682E-03    -105.897E-03     42.5924E-03    -106.005E-03     211.293E-03    -105.674E-03     41.9557E-03
             623     7.28791E-03     88.7566E-03    -59.5699E+06    -93.4821E+06     3.80704E+06     568.490E+03    -105.807E-03     211.695E-03    -105.888E-03     45.5084E-03    -106.041E-03     211.375E-03    -105.647E-03     44.8007E-03
             624     8.09788E-03     88.8087E-03    -52.8107E+06    -76.6563E+06     13.2283E+06     682.299E+03    -105.819E-03     211.695E-03    -105.876E-03     47.8625E-03    -106.069E-03     211.447E-03    -105.622E-03     47.0849E-03
             625     8.90789E-03     88.8631E-03    -46.5212E+06    -59.4147E+06     21.7223E+06     799.747E+03    -105.818E-03     211.678E-03    -105.860E-03     49.6139E-03    -106.084E-03     211.506E-03    -105.598E-03     48.7665E-03
             626     9.71791E-03     88.9190E-03    -40.6539E+06    -41.1788E+06     29.5794E+06     911.907E+03    -105.797E-03     211.638E-03    -105.842E-03     50.7184E-03    -106.083E-03     211.548E-03    -105.575E-03     49.8011E-03
             627     10.5280E-03     88.9757E-03    -35.1341E+06    -20.2168E+06     37.2388E+06     1.04829E+06    -105.747E-03     211.567E-03    -105.820E-03     51.2433E-03    -106.058E-03     211.574E-03    -105.553E-03     50.2541E-03
             628     11.3381E-03     89.0326E-03    -29.8515E+06     2.79252E+06     45.0415E+06     1.12998E+06    -105.664E-03     211.460E-03    -105.796E-03     50.9954E-03    -106.004E-03     211.573E-03    -105.531E-03     49.9318E-03
             629     12.1482E-03     89.0886E-03    -24.7929E+06     30.0176E+06     52.2731E+06     1.14614E+06    -105.533E-03     211.296E-03    -105.763E-03     49.5708E-03    -105.906E-03     211.536E-03    -105.509E-03     48.4341E-03
             630     12.9584E-03     89.1422E-03    -19.8208E+06     67.7603E+06     62.2564E+06     1.09149E+06    -105.319E-03     211.046E-03    -105.727E-03     46.6410E-03    -105.740E-03     211.457E-03    -105.486E-03     45.4395E-03
             631     13.7686E-03     89.1914E-03    -14.9133E+06     91.7439E+06     68.2062E+06     918.757E+03    -105.127E-03     210.818E-03    -105.691E-03     41.5849E-03    -105.564E-03     211.330E-03    -105.461E-03     40.3304E-03
             632     14.5789E-03     89.2333E-03    -10.0877E+06     102.252E+06     78.5703E+06     641.603E+03    -104.950E-03     210.647E-03    -105.697E-03     35.2119E-03    -105.390E-03     211.186E-03    -105.438E-03     33.8823E-03
             633     15.3892E-03     89.2680E-03    -5.10351E+06     111.329E+06     93.8031E+06     343.898E+03    -104.762E-03     210.492E-03    -105.730E-03     23.9897E-03    -105.174E-03     211.009E-03    -105.415E-03     22.8204E-03
             634     809.589E-06     89.6691E-03    -117.909E+06    -231.933E+06    -114.850E+06     62.7435E+03    -105.807E-03     211.569E-03    -105.762E-03     7.30116E-03    -105.895E-03     210.748E-03    -105.829E-03     7.20720E-03
             635     1.61921E-03     89.6805E-03    -113.610E+06    -219.583E+06    -102.518E+06     104.461E+03    -105.754E-03     211.567E-03    -105.813E-03     13.2714E-03    -105.859E-03     210.787E-03    -105.843E-03     13.0992E-03
             636     2.42887E-03     89.6987E-03    -107.211E+06    -202.577E+06    -85.5443E+06     154.815E+03    -105.730E-03     211.572E-03    -105.841E-03     19.3130E-03    -105.859E-03     210.848E-03    -105.820E-03     19.0592E-03
             637     3.23860E-03     89.7236E-03    -99.4976E+06    -183.452E+06    -66.9721E+06     233.144E+03    -105.717E-03     211.585E-03    -105.868E-03     25.0233E-03    -105.868E-03     210.926E-03    -105.792E-03     24.6887E-03
             638     4.04836E-03     89.7545E-03    -91.1966E+06    -164.248E+06    -49.1150E+06     317.783E+03    -105.720E-03     211.607E-03    -105.888E-03     30.2722E-03    -105.892E-03     211.015E-03    -105.763E-03     29.8587E-03
             639     4.85819E-03     89.7911E-03    -82.8232E+06    -145.366E+06    -33.0777E+06     382.520E+03    -105.735E-03     211.633E-03    -105.898E-03     34.9748E-03    -105.925E-03     211.109E-03    -105.733E-03     34.4845E-03
             640     5.66805E-03     89.8325E-03    -74.6906E+06    -127.551E+06    -19.1113E+06     458.880E+03    -105.760E-03     211.660E-03    -105.901E-03     39.0857E-03    -105.965E-03     211.203E-03    -105.703E-03     38.5212E-03
             641     6.47796E-03     89.8782E-03    -66.9776E+06    -110.411E+06    -6.98611E+06     548.847E+03    -105.786E-03     211.684E-03    -105.897E-03     42.5897E-03    -106.006E-03     211.294E-03    -105.675E-03     41.9533E-03
             642     7.28790E-03     89.9274E-03    -59.7791E+06    -93.6669E+06     3.59064E+06     647.344E+03    -105.809E-03     211.698E-03    -105.889E-03     45.5039E-03    -106.044E-03     211.377E-03    -105.648E-03     44.7972E-03
             643     8.09788E-03     89.9795E-03    -53.0336E+06    -76.9424E+06     12.9792E+06     779.370E+03    -105.823E-03     211.699E-03    -105.877E-03     47.8575E-03    -106.072E-03     211.450E-03    -105.623E-03     47.0811E-03
             644     8.90787E-03     90.0338E-03    -46.7111E+06    -59.6840E+06     21.4828E+06     954.419E+03    -105.821E-03     211.682E-03    -105.861E-03     49.6103E-03    -106.088E-03     211.509E-03    -105.599E-03     48.7650E-03
             645     9.71790E-03     90.0898E-03    -40.7985E+06    -41.4622E+06     29.3565E+06     1.12751E+06    -105.799E-03     211.642E-03    -105.843E-03     50.7158E-03    -106.085E-03     211.551E-03    -105.577E-03     49.8014E-03
             646     10.5279E-03     90.1465E-03    -35.2096E+06    -20.4726E+06     37.0584E+06     1.26036E+06    -105.748E-03     211.569E-03    -105.821E-03     51.2400E-03    -106.059E-03     211.574E-03    -105.555E-03     50.2537E-03
             647     11.3380E-03     90.2034E-03    -29.8908E+06     2.63292E+06     44.9091E+06     1.35802E+06    -105.663E-03     211.460E-03    -105.797E-03     50.9921E-03    -106.003E-03     211.573E-03    -105.533E-03     49.9317E-03
             648     12.1482E-03     90.2594E-03    -24.7934E+06     29.9624E+06     52.1988E+06     1.38827E+06    -105.531E-03     211.295E-03    -105.764E-03     49.5682E-03    -105.904E-03     211.535E-03    -105.510E-03     48.4347E-03
             649     12.9584E-03     90.3130E-03    -19.8031E+06     67.8983E+06     62.2625E+06     1.29340E+06    -105.316E-03     211.044E-03    -105.728E-03     46.6400E-03    -105.737E-03     211.456E-03    -105.487E-03     45.4412E-03
             650     13.7686E-03     90.3622E-03    -14.9404E+06     92.0567E+06     68.2475E+06     1.08271E+06    -105.122E-03     210.814E-03    -105.692E-03     41.5844E-03    -105.560E-03     211.328E-03    -105.462E-03     40.3321E-03
             651     14.5789E-03     90.4042E-03    -10.1593E+06     102.706E+06     78.6563E+06     791.167E+03    -104.944E-03     210.642E-03    -105.698E-03     35.2118E-03    -105.385E-03     211.183E-03    -105.439E-03     33.8842E-03
             652     15.3892E-03     90.4388E-03    -5.13911E+06     111.876E+06     94.0028E+06     390.779E+03    -104.754E-03     210.484E-03    -105.731E-03     23.9897E-03    -105.167E-03     211.004E-03    -105.416E-03     22.8210E-03
             653     809.594E-06     90.8399E-03    -118.244E+06    -232.051E+06    -115.182E+06     55.1020E+03    -105.809E-03     211.572E-03    -105.764E-03     7.30171E-03    -105.898E-03     210.752E-03    -105.832E-03     7.20762E-03
             654     1.61921E-03     90.8512E-03    -113.939E+06    -219.686E+06    -102.839E+06     104.550E+03    -105.755E-03     211.570E-03    -105.815E-03     13.2720E-03    -105.862E-03     210.790E-03    -105.845E-03     13.0998E-03
             655     2.42887E-03     90.8695E-03    -107.554E+06    -202.653E+06    -85.8778E+06     125.668E+03    -105.731E-03     211.574E-03    -105.843E-03     19.3134E-03    -105.860E-03     210.851E-03    -105.822E-03     19.0591E-03
             656     3.23858E-03     90.8943E-03    -99.8633E+06    -183.626E+06    -67.3266E+06     175.659E+03    -105.718E-03     211.587E-03    -105.869E-03     25.0225E-03    -105.870E-03     210.928E-03    -105.795E-03     24.6872E-03
             657     4.04836E-03     90.9253E-03    -91.5442E+06    -164.388E+06    -49.4651E+06     247.936E+03    -105.720E-03     211.609E-03    -105.889E-03     30.2701E-03    -105.893E-03     211.017E-03    -105.765E-03     29.8556E-03
             658     4.85818E-03     90.9618E-03    -83.1356E+06    -145.512E+06    -33.4135E+06     312.798E+03    -105.736E-03     211.635E-03    -105.899E-03     34.9709E-03    -105.927E-03     211.111E-03    -105.735E-03     34.4797E-03
             659     5.66805E-03     91.0032E-03    -74.9865E+06    -127.771E+06    -19.4389E+06     419.683E+03    -105.762E-03     211.664E-03    -105.902E-03     39.0802E-03    -105.968E-03     211.207E-03    -105.705E-03     38.5151E-03
             660     6.47795E-03     91.0489E-03    -67.2614E+06    -110.632E+06    -7.31134E+06     552.572E+03    -105.789E-03     211.688E-03    -105.899E-03     42.5834E-03    -106.010E-03     211.298E-03    -105.677E-03     41.9471E-03
             661     7.28789E-03     91.0981E-03    -60.0116E+06    -93.9314E+06     3.28292E+06     700.500E+03    -105.813E-03     211.703E-03    -105.890E-03     45.4971E-03    -106.048E-03     211.382E-03    -105.651E-03     44.7910E-03
             662     8.09785E-03     91.1502E-03    -53.2275E+06    -77.2566E+06     12.6774E+06     869.067E+03    -105.827E-03     211.705E-03    -105.879E-03     47.8505E-03    -106.077E-03     211.455E-03    -105.626E-03     47.0753E-03
             663     8.90785E-03     91.2046E-03    -46.8803E+06    -60.0527E+06     21.1860E+06     1.05221E+06    -105.825E-03     211.688E-03    -105.863E-03     49.6035E-03    -106.091E-03     211.514E-03    -105.602E-03     48.7595E-03
             664     9.71787E-03     91.2605E-03    -40.9177E+06    -41.7803E+06     29.1037E+06     1.22280E+06    -105.800E-03     211.645E-03    -105.845E-03     50.7096E-03    -106.086E-03     211.553E-03    -105.580E-03     49.7965E-03
             665     10.5279E-03     91.3173E-03    -35.2753E+06    -20.7879E+06     36.8434E+06     1.38889E+06    -105.747E-03     211.570E-03    -105.823E-03     51.2331E-03    -106.058E-03     211.575E-03    -105.557E-03     50.2486E-03
             666     11.3380E-03     91.3742E-03    -29.9165E+06     2.39274E+06     44.7507E+06     1.53388E+06    -105.661E-03     211.460E-03    -105.799E-03     50.9847E-03    -106.000E-03     211.572E-03    -105.535E-03     49.9268E-03
             667     12.1482E-03     91.4302E-03    -24.8358E+06     29.8219E+06     52.0861E+06     1.63052E+06    -105.528E-03     211.293E-03    -105.766E-03     49.5613E-03    -105.900E-03     211.533E-03    -105.512E-03     48.4312E-03
             668     12.9583E-03     91.4838E-03    -19.9041E+06     68.1317E+06     62.2576E+06     1.53786E+06    -105.310E-03     211.040E-03    -105.730E-03     46.6345E-03    -105.732E-03     211.453E-03    -105.488E-03     45.4391E-03
             669     13.7686E-03     91.5330E-03    -15.0152E+06     92.4272E+06     68.3170E+06     1.23772E+06    -105.115E-03     210.808E-03    -105.693E-03     41.5811E-03    -105.554E-03     211.323E-03    -105.463E-03     40.3309E-03
             670     14.5788E-03     91.5750E-03    -10.1237E+06     103.198E+06     78.8427E+06     874.186E+03    -104.934E-03     210.633E-03    -105.698E-03     35.2096E-03    -105.376E-03     211.177E-03    -105.439E-03     33.8831E-03
             671     15.3892E-03     91.6096E-03    -5.06384E+06     112.572E+06     94.2744E+06     437.851E+03    -104.743E-03     210.474E-03    -105.731E-03     23.9891E-03    -105.157E-03     210.997E-03    -105.416E-03     22.8211E-03
             672     809.584E-06     92.0106E-03    -118.722E+06    -232.135E+06    -115.660E+06     30.4138E+03    -105.811E-03     211.576E-03    -105.765E-03     7.30094E-03    -105.901E-03     210.757E-03    -105.835E-03     7.20650E-03
             673     1.61921E-03     92.0219E-03    -114.380E+06    -219.755E+06    -103.309E+06     57.7344E+03    -105.757E-03     211.573E-03    -105.817E-03     13.2703E-03    -105.865E-03     210.795E-03    -105.849E-03     13.0974E-03
             674     2.42886E-03     92.0402E-03    -107.952E+06    -202.696E+06    -86.3032E+06     84.3288E+03    -105.733E-03     211.577E-03    -105.845E-03     19.3103E-03    -105.864E-03     210.856E-03    -105.826E-03     19.0554E-03
             675     3.23858E-03     92.0650E-03    -100.242E+06    -183.744E+06    -67.7062E+06     127.051E+03    -105.720E-03     211.592E-03    -105.871E-03     25.0174E-03    -105.874E-03     210.933E-03    -105.798E-03     24.6813E-03
             676     4.04834E-03     92.0960E-03    -91.9301E+06    -164.464E+06    -49.8516E+06     155.765E+03    -105.723E-03     211.614E-03    -105.891E-03     30.2634E-03    -105.898E-03     211.023E-03    -105.768E-03     29.8476E-03
             677     4.85816E-03     92.1325E-03    -83.5317E+06    -145.677E+06    -33.8335E+06     220.485E+03    -105.740E-03     211.642E-03    -105.902E-03     34.9628E-03    -105.932E-03     211.118E-03    -105.738E-03     34.4703E-03
             678     5.66802E-03     92.1740E-03    -75.3727E+06    -128.010E+06    -19.8676E+06     342.425E+03    -105.766E-03     211.671E-03    -105.905E-03     39.0715E-03    -105.974E-03     211.214E-03    -105.709E-03     38.5053E-03
             679     6.47793E-03     92.2196E-03    -67.6037E+06    -110.896E+06    -7.73059E+06     484.282E+03    -105.794E-03     211.696E-03    -105.902E-03     42.5741E-03    -106.015E-03     211.306E-03    -105.681E-03     41.9367E-03
             680     7.28785E-03     92.2688E-03    -60.2871E+06    -94.2674E+06     2.89636E+06     659.332E+03    -105.818E-03     211.711E-03    -105.894E-03     45.4866E-03    -106.053E-03     211.390E-03    -105.655E-03     44.7800E-03
             681     8.09782E-03     92.3210E-03    -53.4430E+06    -77.6127E+06     12.3260E+06     855.340E+03    -105.831E-03     211.713E-03    -105.882E-03     47.8388E-03    -106.081E-03     211.462E-03    -105.630E-03     47.0634E-03
             682     8.90780E-03     92.3754E-03    -47.0261E+06    -60.4287E+06     20.8673E+06     1.04601E+06    -105.828E-03     211.695E-03    -105.867E-03     49.5917E-03    -106.094E-03     211.519E-03    -105.607E-03     48.7476E-03
             683     9.71783E-03     92.4313E-03    -41.0004E+06    -42.1513E+06     28.8222E+06     1.24375E+06    -105.801E-03     211.650E-03    -105.848E-03     50.6981E-03    -106.087E-03     211.556E-03    -105.584E-03     49.7854E-03
             684     10.5279E-03     92.4880E-03    -35.3441E+06    -21.1947E+06     36.5860E+06     1.45820E+06    -105.746E-03     211.573E-03    -105.826E-03     51.2205E-03    -106.056E-03     211.576E-03    -105.561E-03     50.2370E-03
             685     11.3380E-03     92.5450E-03    -29.9859E+06     2.03511E+06     44.5350E+06     1.67641E+06    -105.658E-03     211.460E-03    -105.802E-03     50.9718E-03    -105.997E-03     211.570E-03    -105.539E-03     49.9159E-03
             686     12.1481E-03     92.6010E-03    -24.8903E+06     29.5089E+06     51.9119E+06     1.87927E+06    -105.523E-03     211.291E-03    -105.768E-03     49.5491E-03    -105.895E-03     211.529E-03    -105.515E-03     48.4224E-03
             687     12.9583E-03     92.6546E-03    -19.9502E+06     68.3926E+06     62.2787E+06     1.85010E+06    -105.301E-03     211.033E-03    -105.732E-03     46.6240E-03    -105.724E-03     211.447E-03    -105.491E-03     45.4329E-03
             688     13.7686E-03     92.7038E-03    -15.1190E+06     93.0831E+06     68.4480E+06     1.39561E+06    -105.103E-03     210.797E-03    -105.694E-03     41.5742E-03    -105.543E-03     211.316E-03    -105.465E-03     40.3262E-03
             689     14.5788E-03     92.7458E-03    -10.2615E+06     103.728E+06     78.9750E+06     871.188E+03    -104.921E-03     210.620E-03    -105.700E-03     35.2050E-03    -105.364E-03     211.167E-03    -105.440E-03     33.8785E-03
             690     15.3891E-03     92.7804E-03    -5.15862E+06     113.216E+06     94.5508E+06     471.175E+03    -104.727E-03     210.459E-03    -105.732E-03     23.9852E-03    -105.143E-03     210.984E-03    -105.416E-03     22.8178E-03
             691     809.587E-06     93.1813E-03    -119.256E+06    -232.134E+06    -116.204E+06    -4.05700E+03    -105.814E-03     211.583E-03    -105.769E-03     7.29895E-03    -105.907E-03     210.766E-03    -105.841E-03     7.20402E-03
             692     1.61919E-03     93.1927E-03    -114.933E+06    -219.727E+06    -103.883E+06    -24.4732E+03    -105.760E-03     211.581E-03    -105.820E-03     13.2667E-03    -105.871E-03     210.804E-03    -105.854E-03     13.0927E-03
             693     2.42885E-03     93.2109E-03    -108.512E+06    -202.738E+06    -86.8856E+06    -9.49373E+03    -105.737E-03     211.585E-03    -105.848E-03     19.3043E-03    -105.869E-03     210.865E-03    -105.831E-03     19.0481E-03
             694     3.23856E-03     93.2358E-03    -100.759E+06    -183.777E+06    -68.2408E+06     18.0627E+03    -105.725E-03     211.600E-03    -105.875E-03     25.0093E-03    -105.880E-03     210.943E-03    -105.804E-03     24.6717E-03
             695     4.04832E-03     93.2667E-03    -92.3888E+06    -164.487E+06    -50.3270E+06     33.9927E+03    -105.729E-03     211.624E-03    -105.895E-03     30.2535E-03    -105.905E-03     211.034E-03    -105.774E-03     29.8360E-03
             696     4.85813E-03     93.3033E-03    -83.9498E+06    -145.837E+06    -34.2953E+06     98.6079E+03    -105.747E-03     211.653E-03    -105.906E-03     34.9512E-03    -105.940E-03     211.130E-03    -105.745E-03     34.4568E-03
             697     5.66799E-03     93.3447E-03    -75.7496E+06    -128.210E+06    -20.3290E+06     202.916E+03    -105.773E-03     211.683E-03    -105.910E-03     39.0585E-03    -105.981E-03     211.226E-03    -105.716E-03     38.4903E-03
             698     6.47788E-03     93.3904E-03    -67.9441E+06    -111.163E+06    -8.18698E+06     335.030E+03    -105.801E-03     211.708E-03    -105.907E-03     42.5598E-03    -106.023E-03     211.318E-03    -105.688E-03     41.9204E-03
             699     7.28781E-03     93.4396E-03    -60.5894E+06    -94.6183E+06     2.44503E+06     510.727E+03    -105.824E-03     211.723E-03    -105.899E-03     45.4714E-03    -106.059E-03     211.400E-03    -105.662E-03     44.7627E-03
             700     8.09776E-03     93.4917E-03    -53.6873E+06    -77.9868E+06     11.9109E+06     709.817E+03    -105.835E-03     211.723E-03    -105.888E-03     47.8230E-03    -106.085E-03     211.471E-03    -105.637E-03     47.0457E-03
             701     8.90776E-03     93.5462E-03    -47.2122E+06    -60.8378E+06     20.4947E+06     931.244E+03    -105.830E-03     211.702E-03    -105.872E-03     49.5749E-03    -106.096E-03     211.525E-03    -105.613E-03     48.7294E-03
             702     9.71777E-03     93.6021E-03    -41.1462E+06    -42.6156E+06     28.4794E+06     1.18859E+06    -105.802E-03     211.656E-03    -105.854E-03     50.6794E-03    -106.087E-03     211.561E-03    -105.590E-03     49.7660E-03
             703     10.5278E-03     93.6588E-03    -35.4523E+06    -21.6980E+06     36.2690E+06     1.47639E+06    -105.745E-03     211.576E-03    -105.831E-03     51.2002E-03    -106.054E-03     211.577E-03    -105.567E-03     50.2170E-03
             704     11.3379E-03     93.7158E-03    -30.0627E+06     1.52145E+06     44.2451E+06     1.78061E+06    -105.654E-03     211.460E-03    -105.806E-03     50.9514E-03    -105.992E-03     211.568E-03    -105.543E-03     49.8970E-03
             705     12.1481E-03     93.7718E-03    -24.9538E+06     28.9996E+06     51.6517E+06     2.09242E+06    -105.516E-03     211.288E-03    -105.772E-03     49.5299E-03    -105.888E-03     211.524E-03    -105.520E-03     48.4063E-03
             706     12.9583E-03     93.8254E-03    -19.9892E+06     68.5939E+06     62.2573E+06     2.13735E+06    -105.288E-03     211.023E-03    -105.735E-03     46.6072E-03    -105.712E-03     211.439E-03    -105.494E-03     45.4200E-03
             707     13.7685E-03     93.8746E-03    -15.1333E+06      94.016E+06     68.6709E+06     1.65418E+06    -105.085E-03     210.781E-03    -105.696E-03     41.5609E-03    -105.527E-03     211.305E-03    -105.467E-03     40.3165E-03
             708     14.5788E-03     93.9166E-03    -10.3400E+06     104.452E+06     79.1384E+06     957.134E+03    -104.903E-03     210.604E-03    -105.701E-03     35.1948E-03    -105.348E-03     211.154E-03    -105.442E-03     33.8696E-03
             709     15.3892E-03     93.9512E-03    -5.24469E+06     113.819E+06     94.7715E+06     418.456E+03    -104.709E-03     210.441E-03    -105.733E-03     23.9782E-03    -105.126E-03     210.970E-03    -105.416E-03     22.8102E-03
             710     809.573E-06     94.3521E-03    -119.822E+06    -232.015E+06    -116.775E+06    -55.2079E+03    -105.821E-03     211.597E-03    -105.776E-03     7.29574E-03    -105.916E-03     210.781E-03    -105.849E-03     7.20011E-03
             711     1.61918E-03     94.3634E-03    -115.490E+06    -219.598E+06    -104.432E+06    -97.4159E+03    -105.767E-03     211.595E-03    -105.827E-03     13.2605E-03    -105.880E-03     210.820E-03    -105.863E-03     13.0855E-03
             712     2.42883E-03     94.3817E-03    -109.060E+06    -202.690E+06    -87.4465E+06    -126.296E+03    -105.745E-03     211.600E-03    -105.855E-03     19.2951E-03    -105.879E-03     210.881E-03    -105.841E-03     19.0373E-03
             713     3.23853E-03     94.4065E-03    -101.305E+06    -183.708E+06    -68.8385E+06    -150.731E+03    -105.733E-03     211.615E-03    -105.882E-03     24.9978E-03    -105.890E-03     210.960E-03    -105.813E-03     24.6579E-03
             714     4.04828E-03     94.4375E-03    -92.9200E+06    -164.464E+06    -50.9126E+06    -158.134E+03    -105.737E-03     211.640E-03    -105.903E-03     30.2396E-03    -105.915E-03     211.051E-03    -105.784E-03     29.8195E-03
             715     4.85809E-03     94.4740E-03    -84.4350E+06    -145.945E+06    -34.8306E+06    -106.211E+03    -105.756E-03     211.670E-03    -105.914E-03     34.9348E-03    -105.951E-03     211.148E-03    -105.754E-03     34.4376E-03
             716     5.66793E-03     94.5155E-03    -76.1878E+06    -128.349E+06    -20.8496E+06    -16.3032E+03    -105.782E-03     211.700E-03    -105.918E-03     39.0403E-03    -105.992E-03     211.244E-03    -105.726E-03     38.4691E-03
             717     6.47782E-03     94.5612E-03    -68.3366E+06    -111.397E+06    -8.71284E+06     103.556E+03    -105.809E-03     211.724E-03    -105.915E-03     42.5402E-03    -106.032E-03     211.334E-03    -105.698E-03     41.8976E-03
             718     7.28773E-03     94.6104E-03    -60.9301E+06    -94.9233E+06     1.93396E+06     260.904E+03    -105.830E-03     211.738E-03    -105.907E-03     45.4504E-03    -106.066E-03     211.415E-03    -105.672E-03     44.7383E-03
             719     8.09769E-03     94.6625E-03    -53.9669E+06    -78.3616E+06     11.4319E+06     459.492E+03    -105.840E-03     211.735E-03    -105.896E-03     47.7997E-03    -106.090E-03     211.483E-03    -105.647E-03     47.0191E-03
             720     8.90767E-03     94.7169E-03    -47.4474E+06    -61.3042E+06     20.0450E+06     716.164E+03    -105.833E-03     211.713E-03    -105.880E-03     49.5490E-03    -106.099E-03     211.535E-03    -105.622E-03     48.7006E-03
             721     9.71770E-03     94.7729E-03    -41.3386E+06    -43.1760E+06     28.0482E+06     1.03393E+06    -105.803E-03     211.664E-03    -105.861E-03     50.6508E-03    -106.087E-03     211.567E-03    -105.598E-03     49.7353E-03
             722     10.5277E-03     94.8296E-03    -35.5919E+06    -22.3275E+06     35.8587E+06     1.40448E+06    -105.742E-03     211.580E-03    -105.838E-03     51.1694E-03    -106.051E-03     211.579E-03    -105.575E-03     50.1854E-03
             723     11.3379E-03     94.8866E-03    -30.1613E+06     839.337E+03     43.8545E+06     1.81481E+06    -105.648E-03     211.460E-03    -105.812E-03     50.9207E-03    -105.985E-03     211.566E-03    -105.550E-03     49.8669E-03
             724     12.1480E-03     94.9426E-03    -25.0214E+06     28.2783E+06     51.2847E+06     2.25832E+06    -105.507E-03     211.284E-03    -105.777E-03     49.5006E-03    -105.877E-03     211.517E-03    -105.526E-03     48.3794E-03
             725     12.9582E-03     94.9962E-03    -20.0317E+06     68.7426E+06     62.1718E+06     2.37543E+06    -105.271E-03     211.011E-03    -105.739E-03     46.5803E-03    -105.695E-03     211.427E-03    -105.499E-03     45.3965E-03
             726     13.7685E-03     95.0454E-03    -15.1125E+06     95.0436E+06     68.8794E+06     1.85347E+06    -105.061E-03     210.761E-03    -105.699E-03     41.5385E-03    -105.505E-03     211.289E-03    -105.471E-03     40.2969E-03
             727     14.5788E-03     95.0874E-03    -10.2061E+06     105.413E+06     79.4321E+06     1.07888E+06    -104.879E-03     210.582E-03    -105.703E-03     35.1784E-03    -105.326E-03     211.136E-03    -105.444E-03     33.8550E-03
             728     15.3891E-03     95.1220E-03    -5.14174E+06     114.538E+06     95.0315E+06     434.473E+03    -104.686E-03     210.420E-03    -105.734E-03     23.9687E-03    -105.105E-03     210.952E-03    -105.417E-03     22.8010E-03
             729     809.570E-06     95.5228E-03    -120.422E+06    -231.756E+06    -117.365E+06    -118.392E+03    -105.833E-03     211.620E-03    -105.787E-03     7.29100E-03    -105.930E-03     210.807E-03    -105.863E-03     7.19449E-03
             730     1.61916E-03     95.5342E-03    -116.068E+06    -219.367E+06    -105.020E+06    -198.299E+03    -105.779E-03     211.618E-03    -105.839E-03     13.2520E-03    -105.894E-03     210.846E-03    -105.877E-03     13.0756E-03
             731     2.42880E-03     95.5525E-03    -109.608E+06    -202.486E+06    -88.0216E+06    -278.804E+03    -105.757E-03     211.624E-03    -105.867E-03     19.2829E-03    -105.894E-03     210.908E-03    -105.855E-03     19.0230E-03
             732     3.23848E-03     95.5773E-03    -101.829E+06    -183.522E+06    -69.4117E+06    -349.820E+03    -105.745E-03     211.639E-03    -105.894E-03     24.9819E-03    -105.904E-03     210.987E-03    -105.827E-03     24.6392E-03
             733     4.04823E-03     95.6083E-03    -93.4368E+06    -164.356E+06    -51.5204E+06    -386.773E+03    -105.749E-03     211.664E-03    -105.914E-03     30.2203E-03    -105.929E-03     211.078E-03    -105.798E-03     29.7970E-03
             734     4.85802E-03     95.6448E-03    -84.9505E+06    -145.943E+06    -35.4542E+06    -380.621E+03    -105.768E-03     211.694E-03    -105.926E-03     34.9125E-03    -105.964E-03     211.174E-03    -105.769E-03     34.4115E-03
             735     5.66786E-03     95.6863E-03    -76.6714E+06    -128.421E+06    -21.4529E+06    -325.850E+03    -105.794E-03     211.724E-03    -105.930E-03     39.0154E-03    -106.005E-03     211.269E-03    -105.740E-03     38.4399E-03
             736     6.47772E-03     95.7320E-03    -68.7757E+06    -111.562E+06    -9.29766E+06    -222.755E+03    -105.819E-03     211.746E-03    -105.927E-03     42.5120E-03    -106.043E-03     211.357E-03    -105.712E-03     41.8650E-03
             737     7.28764E-03     95.7812E-03    -61.3346E+06    -95.1636E+06     1.36307E+06    -79.2084E+03    -105.838E-03     211.757E-03    -105.919E-03     45.4183E-03    -106.075E-03     211.435E-03    -105.686E-03     44.7017E-03
             738     8.09758E-03     95.8333E-03    -54.3483E+06    -78.7132E+06     10.8624E+06     113.206E+03    -105.846E-03     211.753E-03    -105.907E-03     47.7638E-03    -106.097E-03     211.500E-03    -105.660E-03     46.9784E-03
             739     8.90757E-03     95.8877E-03    -47.7764E+06    -61.8077E+06     19.4730E+06     388.816E+03    -105.836E-03     211.727E-03    -105.891E-03     49.5097E-03    -106.102E-03     211.548E-03    -105.635E-03     48.6569E-03
             740     9.71758E-03     95.9437E-03    -41.6018E+06    -43.8205E+06     27.4853E+06     762.409E+03    -105.803E-03     211.674E-03    -105.871E-03     50.6077E-03    -106.087E-03     211.575E-03    -105.610E-03     49.6887E-03
             741     10.5276E-03     96.0004E-03    -35.7988E+06    -23.0917E+06     35.3097E+06     1.21726E+06    -105.739E-03     211.586E-03    -105.847E-03     51.1235E-03    -106.046E-03     211.582E-03    -105.585E-03     50.1371E-03
             742     11.3377E-03     96.0574E-03    -30.3079E+06    -22.8015E+03     43.3257E+06     1.74004E+06    -105.640E-03     211.460E-03    -105.821E-03     50.8742E-03    -105.975E-03     211.563E-03    -105.560E-03     49.8196E-03
             743     12.1479E-03     96.1134E-03    -25.0907E+06     27.3460E+06     50.7874E+06     2.30490E+06    -105.494E-03     211.278E-03    -105.784E-03     49.4560E-03    -105.862E-03     211.507E-03    -105.534E-03     48.3355E-03
             744     12.9581E-03     96.1669E-03    -20.0275E+06     68.7709E+06     61.9881E+06     2.54762E+06    -105.250E-03     210.994E-03    -105.745E-03     46.5400E-03    -105.673E-03     211.411E-03    -105.505E-03     45.3586E-03
             745     13.7684E-03     96.2162E-03    -15.1183E+06     96.1725E+06     69.0228E+06     2.04640E+06    -105.031E-03     210.734E-03    -105.703E-03     41.5046E-03    -105.477E-03     211.268E-03    -105.476E-03     40.2658E-03
             746     14.5787E-03     96.2582E-03    -10.2769E+06     106.518E+06     79.6936E+06     1.15922E+06    -104.846E-03     210.552E-03    -105.705E-03     35.1523E-03    -105.295E-03     211.111E-03    -105.446E-03     33.8301E-03
             747     15.3891E-03     96.2928E-03    -5.15303E+06     115.312E+06     95.3316E+06     476.975E+03    -104.655E-03     210.391E-03    -105.735E-03     23.9516E-03    -105.075E-03     210.925E-03    -105.418E-03     22.7847E-03
             748     809.545E-06     96.6936E-03    -121.073E+06    -231.335E+06    -118.024E+06    -178.723E+03    -105.850E-03     211.654E-03    -105.805E-03     7.28514E-03    -105.950E-03     210.846E-03    -105.884E-03     7.18778E-03
             749     1.61913E-03     96.7050E-03    -116.728E+06    -218.975E+06    -105.698E+06    -325.401E+03    -105.796E-03     211.652E-03    -105.856E-03     13.2415E-03    -105.914E-03     210.885E-03    -105.898E-03     13.0633E-03
             750     2.42874E-03     96.7233E-03    -110.274E+06    -202.118E+06    -88.7129E+06    -466.503E+03    -105.774E-03     211.658E-03    -105.884E-03     19.2674E-03    -105.913E-03     210.946E-03    -105.875E-03     19.0048E-03
             751     3.23842E-03     96.7481E-03    -102.493E+06    -183.205E+06    -70.1018E+06    -583.553E+03    -105.762E-03     211.674E-03    -105.911E-03     24.9615E-03    -105.924E-03     211.025E-03    -105.848E-03     24.6155E-03
             752     4.04814E-03     96.7791E-03    -94.0803E+06    -164.117E+06    -52.2130E+06    -668.714E+03    -105.766E-03     211.698E-03    -105.932E-03     30.1951E-03    -105.948E-03     211.115E-03    -105.818E-03     29.7678E-03
             753     4.85793E-03     96.8156E-03    -85.5554E+06    -145.792E+06    -36.1534E+06    -714.103E+03    -105.784E-03     211.727E-03    -105.943E-03     34.8826E-03    -105.982E-03     211.209E-03    -105.789E-03     34.3769E-03
             754     5.66774E-03     96.8571E-03    -77.2515E+06    -128.377E+06    -22.1468E+06    -711.297E+03    -105.808E-03     211.755E-03    -105.947E-03     38.9801E-03    -106.021E-03     211.302E-03    -105.760E-03     38.3993E-03
             755     6.47761E-03     96.9028E-03    -69.3218E+06    -111.638E+06    -9.97541E+06    -643.716E+03    -105.832E-03     211.776E-03    -105.944E-03     42.4706E-03    -106.058E-03     211.388E-03    -105.732E-03     41.8177E-03
             756     7.28750E-03     96.9520E-03    -61.8355E+06    -95.3505E+06     693.761E+03    -503.957E+03    -105.849E-03     211.785E-03    -105.936E-03     45.3710E-03    -106.087E-03     211.463E-03    -105.704E-03     44.6485E-03
             757     8.09744E-03     97.0041E-03    -54.8069E+06    -79.0076E+06     10.1926E+06    -309.114E+03    -105.854E-03     211.777E-03    -105.923E-03     47.7113E-03    -106.106E-03     211.524E-03    -105.678E-03     46.9202E-03
             758     8.90741E-03     97.0585E-03    -48.2184E+06    -62.2974E+06     18.7738E+06    -36.7551E+03    -105.841E-03     211.747E-03    -105.906E-03     49.4519E-03    -106.107E-03     211.567E-03    -105.652E-03     48.5934E-03
             759     9.71743E-03     97.1145E-03    -42.0145E+06    -44.5246E+06     26.7576E+06     363.544E+03    -105.803E-03     211.688E-03    -105.886E-03     50.5450E-03    -106.086E-03     211.587E-03    -105.626E-03     49.6207E-03
             760     10.5275E-03     97.1712E-03    -36.1353E+06    -23.9432E+06     34.5903E+06     870.170E+03    -105.733E-03     211.593E-03    -105.860E-03     51.0573E-03    -106.039E-03     211.586E-03    -105.600E-03     50.0664E-03
             761     11.3376E-03     97.2282E-03    -30.5377E+06    -1.07271E+06     42.6155E+06     1.48650E+06    -105.628E-03     211.460E-03    -105.832E-03     50.8077E-03    -105.962E-03     211.559E-03    -105.573E-03     49.7499E-03
             762     12.1478E-03     97.2841E-03    -25.2478E+06     26.1918E+06     50.1013E+06     2.21050E+06    -105.476E-03     211.270E-03    -105.794E-03     49.3929E-03    -105.842E-03     211.494E-03    -105.545E-03     48.2714E-03
             763     12.9580E-03     97.3377E-03    -20.1183E+06      68.626E+06     61.6280E+06     2.57996E+06    -105.221E-03     210.973E-03    -105.753E-03     46.4830E-03    -105.644E-03     211.390E-03    -105.515E-03     45.3024E-03
             764     13.7683E-03     97.3869E-03    -15.0611E+06     97.2821E+06     69.0845E+06     2.16320E+06    -104.992E-03     210.701E-03    -105.709E-03     41.4573E-03    -105.439E-03     211.239E-03    -105.483E-03     40.2204E-03
             765     14.5787E-03     97.4289E-03    -10.1460E+06     107.688E+06     79.9382E+06     1.33952E+06    -104.805E-03     210.514E-03    -105.709E-03     35.1176E-03    -105.255E-03     211.078E-03    -105.451E-03     33.7982E-03
             766     15.3891E-03     97.4635E-03    -5.16318E+06     116.159E+06     95.6834E+06     590.095E+03    -104.613E-03     210.351E-03    -105.738E-03     23.9304E-03    -105.035E-03     210.889E-03    -105.421E-03     22.7653E-03
             767     809.531E-06     97.8645E-03    -121.807E+06    -230.739E+06    -118.764E+06    -250.046E+03    -105.874E-03     211.703E-03    -105.829E-03     7.27782E-03    -105.978E-03     210.900E-03    -105.911E-03     7.17943E-03
             768     1.61908E-03     97.8759E-03    -117.459E+06    -218.393E+06    -106.433E+06    -456.489E+03    -105.821E-03     211.701E-03    -105.880E-03     13.2278E-03    -105.942E-03     210.938E-03    -105.925E-03     13.0477E-03
             769     2.42868E-03     97.8941E-03    -111.003E+06    -201.570E+06    -89.4518E+06    -664.267E+03    -105.798E-03     211.706E-03    -105.909E-03     19.2470E-03    -105.941E-03     210.999E-03    -105.903E-03     18.9816E-03
             770     3.23833E-03     97.9190E-03    -103.205E+06    -182.714E+06    -70.8430E+06    -854.815E+03    -105.786E-03     211.721E-03    -105.936E-03     24.9341E-03    -105.951E-03     211.077E-03    -105.875E-03     24.5843E-03
             771     4.04804E-03     97.9500E-03    -94.7685E+06    -163.715E+06    -52.9423E+06    -1.00334E+06    -105.789E-03     211.745E-03    -105.956E-03     30.1604E-03    -105.974E-03     211.166E-03    -105.846E-03     29.7284E-03
             772     4.85779E-03     97.9865E-03    -86.2361E+06    -145.488E+06    -36.8856E+06    -1.09830E+06    -105.805E-03     211.773E-03    -105.968E-03     34.8400E-03    -106.007E-03     211.259E-03    -105.816E-03     34.3290E-03
             773     5.66760E-03     98.0280E-03    -77.9233E+06    -128.179E+06    -22.8986E+06    -1.14226E+06    -105.828E-03     211.799E-03    -105.971E-03     38.9293E-03    -106.043E-03     211.349E-03    -105.787E-03     38.3425E-03
             774     6.47743E-03     98.0736E-03    -69.9904E+06    -111.583E+06    -10.7522E+06    -1.12580E+06    -105.850E-03     211.817E-03    -105.968E-03     42.4115E-03    -106.078E-03     211.432E-03    -105.758E-03     41.7520E-03
             775     7.28732E-03     98.1229E-03    -62.4787E+06    -95.4530E+06    -103.305E+03    -1.02874E+06    -105.864E-03     211.823E-03    -105.959E-03     45.3041E-03    -106.104E-03     211.502E-03    -105.730E-03     44.5744E-03
             776     8.09723E-03     98.1750E-03    -55.4005E+06    -79.2522E+06     9.39072E+06    -838.298E+03    -105.865E-03     211.810E-03    -105.945E-03     47.6368E-03    -106.118E-03     211.558E-03    -105.703E-03     46.8384E-03
             777     8.90721E-03     98.2294E-03    -48.7582E+06    -62.7573E+06     17.9529E+06    -537.849E+03    -105.847E-03     211.774E-03    -105.927E-03     49.3694E-03    -106.114E-03     211.593E-03    -105.676E-03     48.5041E-03
             778     9.71720E-03     98.2853E-03    -42.5186E+06    -45.1913E+06     25.9079E+06    -141.465E+03    -105.802E-03     211.707E-03    -105.905E-03     50.4566E-03    -106.086E-03     211.605E-03    -105.649E-03     49.5255E-03
             779     10.5273E-03     98.3420E-03    -36.5945E+06    -24.8159E+06     33.7116E+06     358.263E+03    -105.724E-03     211.602E-03    -105.878E-03     50.9667E-03    -106.030E-03     211.593E-03    -105.621E-03     49.9691E-03
             780     11.3374E-03     98.3989E-03    -30.9387E+06    -2.27623E+06     41.6974E+06     1.04322E+06    -105.611E-03     211.459E-03    -105.848E-03     50.7175E-03    -105.944E-03     211.553E-03    -105.592E-03     49.6539E-03
             781     12.1476E-03     98.4549E-03    -25.5570E+06     24.7405E+06     49.1750E+06     1.93995E+06    -105.450E-03     211.258E-03    -105.808E-03     49.3074E-03    -105.815E-03     211.477E-03    -105.561E-03     48.1826E-03
             782     12.9578E-03     98.5084E-03    -20.3226E+06     68.3925E+06      61.111E+06     2.44350E+06    -105.182E-03     210.945E-03    -105.763E-03     46.4074E-03    -105.604E-03     211.361E-03    -105.528E-03     45.2254E-03
             783     13.7682E-03     98.5576E-03    -15.2362E+06     98.1658E+06     68.9160E+06     2.14613E+06    -104.941E-03     210.658E-03    -105.716E-03     41.3952E-03    -105.390E-03     211.201E-03    -105.492E-03     40.1585E-03
             784     14.5786E-03     98.5996E-03    -10.2936E+06     108.712E+06     80.0764E+06     1.49704E+06    -104.749E-03     210.464E-03    -105.715E-03     35.0715E-03    -105.201E-03     211.033E-03    -105.457E-03     33.7548E-03
             785     15.3891E-03     98.6342E-03    -5.15109E+06     117.248E+06     96.0996E+06     730.538E+03    -104.557E-03     210.299E-03    -105.742E-03     23.9023E-03    -104.981E-03     210.842E-03    -105.424E-03     22.7398E-03
             786     809.494E-06     99.0354E-03    -122.543E+06    -229.948E+06    -119.495E+06    -329.061E+03    -105.908E-03     211.770E-03    -105.862E-03     7.26749E-03    -106.015E-03     210.973E-03    -105.949E-03     7.16796E-03
             787     1.61903E-03     99.0468E-03    -118.185E+06    -217.623E+06    -107.162E+06    -598.248E+03    -105.854E-03     211.768E-03    -105.914E-03     13.2087E-03    -105.979E-03     211.011E-03    -105.963E-03     13.0266E-03
             788     2.42859E-03     99.0651E-03    -111.724E+06    -200.830E+06    -90.1748E+06    -868.173E+03    -105.831E-03     211.773E-03    -105.942E-03     19.2185E-03    -105.978E-03     211.072E-03    -105.940E-03     18.9501E-03
             789     3.23822E-03     99.0899E-03    -103.940E+06    -182.009E+06    -71.5741E+06    -1.13277E+06    -105.818E-03     211.788E-03    -105.969E-03     24.8957E-03    -105.987E-03     211.149E-03    -105.913E-03     24.5418E-03
             790     4.04789E-03     99.1209E-03    -95.5173E+06    -163.128E+06    -53.6971E+06    -1.35678E+06    -105.821E-03     211.810E-03    -105.990E-03     30.1112E-03    -106.009E-03     211.236E-03    -105.883E-03     29.6742E-03
             791     4.85762E-03     99.1575E-03    -86.9770E+06    -145.026E+06    -37.6573E+06    -1.50607E+06    -105.835E-03     211.836E-03    -106.001E-03     34.7796E-03    -106.040E-03     211.327E-03    -105.853E-03     34.2627E-03
             792     5.66739E-03     99.1989E-03    -78.6597E+06    -127.814E+06    -23.6930E+06    -1.60245E+06    -105.856E-03     211.860E-03    -106.004E-03     38.8578E-03    -106.074E-03     211.414E-03    -105.823E-03     38.2644E-03
             793     6.47721E-03     99.2446E-03    -70.7199E+06    -111.373E+06    -11.5823E+06    -1.63485E+06    -105.874E-03     211.874E-03    -106.000E-03     42.3289E-03    -106.105E-03     211.492E-03    -105.794E-03     41.6622E-03
             794     7.28706E-03     99.2938E-03    -63.2214E+06    -95.3947E+06    -970.196E+03    -1.59460E+06    -105.884E-03     211.874E-03    -105.990E-03     45.2107E-03    -106.126E-03     211.556E-03    -105.765E-03     44.4730E-03
             795     8.09698E-03     99.3459E-03    -56.1600E+06    -79.4389E+06     8.46380E+06    -1.43938E+06    -105.879E-03     211.854E-03    -105.975E-03     47.5332E-03    -106.134E-03     211.604E-03    -105.736E-03     46.7266E-03
             796     8.90692E-03     99.4002E-03    -49.4932E+06    -63.1402E+06     16.9930E+06    -1.16349E+06    -105.853E-03     211.809E-03    -105.956E-03     49.2573E-03    -106.122E-03     211.629E-03    -105.708E-03     48.3834E-03
             797     9.71693E-03     99.4561E-03    -43.1685E+06    -45.7766E+06     24.9424E+06    -788.580E+03    -105.799E-03     211.732E-03    -105.932E-03     50.3377E-03    -106.084E-03     211.628E-03    -105.678E-03     49.3979E-03
             798     10.5270E-03     99.5128E-03    -37.1888E+06    -25.6835E+06     32.7075E+06    -263.497E+03    -105.711E-03     211.614E-03    -105.903E-03     50.8445E-03    -106.018E-03     211.602E-03    -105.648E-03     49.8386E-03
             799     11.3371E-03     99.5697E-03    -31.4900E+06    -3.52494E+06     40.6336E+06     446.902E+03    -105.587E-03     211.457E-03    -105.870E-03     50.5966E-03    -105.919E-03     211.547E-03    -105.616E-03     49.5253E-03
             800     12.1473E-03     99.6256E-03    -26.0076E+06     23.0498E+06     48.0441E+06     1.41189E+06    -105.415E-03     211.242E-03    -105.826E-03     49.1947E-03    -105.778E-03     211.454E-03    -105.582E-03     48.0632E-03
             801     12.9576E-03     99.6791E-03    -20.6577E+06     67.9118E+06     60.4217E+06     2.13486E+06    -105.129E-03     210.908E-03    -105.778E-03     46.3082E-03    -105.552E-03     211.323E-03    -105.545E-03     45.1226E-03
             802     13.7680E-03     99.7283E-03    -15.4709E+06     98.7988E+06     68.5876E+06     2.06789E+06    -104.876E-03     210.603E-03    -105.727E-03     41.3145E-03    -105.327E-03     211.151E-03    -105.505E-03     40.0774E-03
             803     14.5785E-03     99.7702E-03    -10.4138E+06     109.572E+06     80.0399E+06     1.51967E+06    -104.679E-03     210.401E-03    -105.722E-03     35.0130E-03    -105.133E-03     210.975E-03    -105.466E-03     33.6974E-03
             804     15.3890E-03     99.8048E-03    -5.24810E+06     118.433E+06     96.5024E+06     792.947E+03    -104.483E-03     210.229E-03    -105.746E-03     23.8664E-03    -104.909E-03     210.778E-03    -105.428E-03     22.7055E-03
             805     809.462E-06     100.206E-03    -123.220E+06    -228.945E+06    -120.180E+06    -413.857E+03    -105.954E-03     211.862E-03    -105.909E-03     7.25300E-03    -106.065E-03     211.072E-03    -105.999E-03     7.15220E-03
             806     1.61894E-03     100.218E-03    -118.864E+06    -216.649E+06    -107.842E+06    -750.749E+03    -105.900E-03     211.860E-03    -105.960E-03     13.1819E-03    -106.029E-03     211.110E-03    -106.013E-03     12.9975E-03
             807     2.42848E-03     100.236E-03    -112.388E+06    -199.894E+06    -90.8501E+06    -1.09072E+06    -105.877E-03     211.865E-03    -105.988E-03     19.1782E-03    -106.027E-03     211.170E-03    -105.990E-03     18.9064E-03
             808     3.23805E-03     100.261E-03    -104.636E+06    -181.111E+06    -72.2592E+06    -1.41031E+06    -105.863E-03     211.878E-03    -106.016E-03     24.8412E-03    -106.036E-03     211.246E-03    -105.962E-03     24.4832E-03
             809     4.04770E-03     100.292E-03    -96.2256E+06    -162.351E+06    -54.3953E+06    -1.68712E+06    -105.864E-03     211.900E-03    -106.036E-03     30.0418E-03    -106.056E-03     211.332E-03    -105.933E-03     29.5998E-03
             810     4.85738E-03     100.328E-03    -87.6664E+06    -144.375E+06    -38.3848E+06    -1.90940E+06    -105.877E-03     211.924E-03    -106.047E-03     34.6951E-03    -106.085E-03     211.419E-03    -105.902E-03     34.1722E-03
             811     5.66712E-03     100.370E-03    -79.3580E+06    -127.273E+06    -24.4652E+06    -2.07285E+06    -105.894E-03     211.943E-03    -106.049E-03     38.7581E-03    -106.115E-03     211.502E-03    -105.872E-03     38.1578E-03
             812     6.47690E-03     100.416E-03    -71.4213E+06    -110.993E+06    -12.3918E+06    -2.16805E+06    -105.908E-03     211.952E-03    -106.044E-03     42.2141E-03    -106.141E-03     211.573E-03    -105.842E-03     41.5395E-03
             813     7.28674E-03     100.465E-03    -63.9086E+06    -95.1759E+06    -1.81378E+06    -2.17589E+06    -105.911E-03     211.944E-03    -106.033E-03     45.0816E-03    -106.156E-03     211.629E-03    -105.812E-03     44.3355E-03
             814     8.09661E-03     100.517E-03    -56.8194E+06    -79.4725E+06     7.56854E+06    -2.08090E+06    -105.898E-03     211.914E-03    -106.017E-03     47.3909E-03    -106.154E-03     211.665E-03    -105.781E-03     46.5751E-03
             815     8.90656E-03     100.571E-03    -50.1112E+06    -63.3527E+06     16.0673E+06    -1.89091E+06    -105.861E-03     211.856E-03    -105.995E-03     49.1047E-03    -106.131E-03     211.677E-03    -105.750E-03     48.2208E-03
             816     9.71654E-03     100.627E-03    -43.7636E+06    -46.2878E+06     23.9694E+06    -1.55433E+06    -105.794E-03     211.763E-03    -105.969E-03     50.1770E-03    -106.080E-03     211.659E-03    -105.718E-03     49.2267E-03
             817     10.5266E-03     100.684E-03    -37.7189E+06    -26.5321E+06     31.6884E+06    -1.02105E+06    -105.693E-03     211.629E-03    -105.936E-03     50.6802E-03    -105.999E-03     211.615E-03    -105.684E-03     49.6642E-03
             818     11.3367E-03     100.740E-03    -31.9410E+06    -4.74488E+06     39.5720E+06    -285.315E+03    -105.554E-03     211.453E-03    -105.899E-03     50.4361E-03    -105.885E-03     211.539E-03    -105.648E-03     49.3552E-03
             819     12.1470E-03     100.796E-03    -26.4148E+06     21.3125E+06     46.8816E+06     695.747E+03    -105.368E-03     211.219E-03    -105.851E-03     49.0465E-03    -105.727E-03     211.424E-03    -105.609E-03     47.9059E-03
             820     12.9573E-03     100.850E-03    -20.9589E+06     66.9820E+06     59.5964E+06     1.59174E+06    -105.063E-03     210.861E-03    -105.798E-03     46.1796E-03    -105.484E-03     211.273E-03    -105.567E-03     44.9874E-03
             821     13.7678E-03     100.899E-03    -15.6600E+06     99.0786E+06     68.0814E+06     1.86454E+06    -104.795E-03     210.536E-03    -105.741E-03     41.2104E-03    -105.245E-03     211.085E-03    -105.522E-03     39.9714E-03
             822     14.5783E-03     100.941E-03    -10.5944E+06     110.402E+06     79.7741E+06     1.47774E+06    -104.588E-03     210.319E-03    -105.731E-03     34.9417E-03    -105.043E-03     210.897E-03    -105.477E-03     33.6266E-03
             823     15.3889E-03     100.975E-03    -5.32012E+06     119.573E+06     96.7592E+06     758.096E+03    -104.382E-03     210.134E-03    -105.752E-03     23.8297E-03    -104.811E-03     210.688E-03    -105.434E-03     22.6694E-03
             824     809.401E-06     101.378E-03    -123.836E+06    -227.718E+06    -120.785E+06    -502.937E+03    -106.017E-03     211.989E-03    -105.972E-03     7.23273E-03    -106.132E-03     211.206E-03    -106.066E-03     7.13055E-03
             825     1.61884E-03     101.389E-03    -119.466E+06    -215.459E+06    -108.439E+06    -908.915E+03    -105.963E-03     211.986E-03    -106.023E-03     13.1443E-03    -106.095E-03     211.244E-03    -106.080E-03     12.9574E-03
             826     2.42831E-03     101.407E-03    -112.995E+06    -198.754E+06    -91.4354E+06    -1.31688E+06    -105.939E-03     211.991E-03    -106.052E-03     19.1215E-03    -106.093E-03     211.304E-03    -106.057E-03     18.8462E-03
             827     3.23785E-03     101.432E-03    -105.201E+06    -180.053E+06    -72.8296E+06    -1.68830E+06    -105.924E-03     212.003E-03    -106.079E-03     24.7646E-03    -106.101E-03     211.378E-03    -106.030E-03     24.4022E-03
             828     4.04742E-03     101.463E-03    -96.7661E+06    -161.379E+06    -54.9696E+06    -2.02392E+06    -105.924E-03     212.023E-03    -106.099E-03     29.9450E-03    -106.119E-03     211.461E-03    -105.999E-03     29.4977E-03
             829     4.85707E-03     101.500E-03    -88.2145E+06    -143.512E+06    -38.9865E+06    -2.32326E+06    -105.933E-03     212.043E-03    -106.109E-03     34.5778E-03    -106.144E-03     211.544E-03    -105.968E-03     34.0485E-03
             830     5.66675E-03     101.541E-03    -79.8908E+06    -126.553E+06    -25.1064E+06    -2.55663E+06    -105.946E-03     212.056E-03    -106.111E-03     38.6200E-03    -106.170E-03     211.621E-03    -105.937E-03     38.0123E-03
             831     6.47650E-03     101.587E-03    -71.9383E+06    -110.401E+06    -13.0739E+06    -2.72841E+06    -105.952E-03     212.057E-03    -106.105E-03     42.0562E-03    -106.188E-03     211.683E-03    -105.906E-03     41.3733E-03
             832     7.28628E-03     101.636E-03    -64.3925E+06    -94.7739E+06    -2.54243E+06    -2.83123E+06    -105.946E-03     212.038E-03    -106.092E-03     44.9053E-03    -106.193E-03     211.727E-03    -105.874E-03     44.1496E-03
             833     8.09615E-03     101.688E-03    -57.2363E+06    -79.2855E+06     6.80857E+06    -2.82887E+06    -105.921E-03     211.994E-03    -106.073E-03     47.1983E-03    -106.179E-03     211.747E-03    -105.841E-03     46.3718E-03
             834     8.90604E-03     101.742E-03    -50.4739E+06    -63.3779E+06     15.2790E+06    -2.70728E+06    -105.869E-03     211.917E-03    -106.048E-03     48.8986E-03    -106.140E-03     211.739E-03    -105.807E-03     48.0032E-03
             835     9.71605E-03     101.798E-03    -44.0658E+06    -46.6842E+06     23.1191E+06    -2.41466E+06    -105.786E-03     211.803E-03    -106.017E-03     49.9620E-03    -106.071E-03     211.699E-03    -105.770E-03     49.0000E-03
             836     10.5261E-03     101.854E-03    -37.9832E+06    -27.2975E+06     30.7760E+06    -1.90937E+06    -105.665E-03     211.645E-03    -105.980E-03     50.4641E-03    -105.970E-03     211.629E-03    -105.731E-03     49.4362E-03
             837     11.3363E-03     101.911E-03    -32.1655E+06    -5.95860E+06     38.6018E+06    -1.15555E+06    -105.507E-03     211.444E-03    -105.938E-03     50.2272E-03    -105.835E-03     211.526E-03    -105.689E-03     49.1351E-03
             838     12.1465E-03     101.967E-03    -26.5609E+06     19.6732E+06     45.8570E+06    -171.192E+03    -105.301E-03     211.185E-03    -105.884E-03     48.8577E-03    -105.657E-03     211.384E-03    -105.644E-03     47.7062E-03
             839     12.9570E-03     102.020E-03    -21.0955E+06     65.5319E+06     58.6832E+06     924.870E+03    -104.977E-03     210.801E-03    -105.824E-03     46.0221E-03    -105.395E-03     211.207E-03    -105.595E-03     44.8220E-03
             840     13.7675E-03     102.069E-03    -15.8328E+06     98.8724E+06     67.3324E+06     1.59178E+06    -104.688E-03     210.447E-03    -105.759E-03     41.0907E-03    -105.138E-03     210.997E-03    -105.543E-03     39.8494E-03
             841     14.5781E-03     102.111E-03    -10.6874E+06     111.309E+06     79.3662E+06     1.33044E+06    -104.463E-03     210.205E-03    -105.741E-03     34.8691E-03    -104.920E-03     210.788E-03    -105.491E-03     33.5538E-03
             842     15.3888E-03     102.146E-03    -5.37982E+06     120.606E+06     96.8628E+06     633.055E+03    -104.249E-03     210.006E-03    -105.757E-03     23.8020E-03    -104.679E-03     210.565E-03    -105.440E-03     22.6417E-03
             843     809.338E-06     102.549E-03    -124.232E+06    -226.245E+06    -121.186E+06    -603.563E+03    -106.104E-03     212.162E-03    -106.059E-03     7.20475E-03    -106.223E-03     211.388E-03    -106.156E-03     7.10098E-03
             844     1.61869E-03     102.560E-03    -119.851E+06    -214.060E+06    -108.799E+06    -1.07498E+06    -106.049E-03     212.160E-03    -106.111E-03     13.0921E-03    -106.185E-03     211.426E-03    -106.170E-03     12.9026E-03
             845     2.42810E-03     102.579E-03    -113.355E+06    -197.423E+06    -91.7820E+06    -1.53518E+06    -106.025E-03     212.164E-03    -106.139E-03     19.0431E-03    -106.182E-03     211.484E-03    -106.147E-03     18.7642E-03
             846     3.23755E-03     102.603E-03    -105.532E+06    -178.805E+06    -73.1915E+06    -1.97638E+06    -106.008E-03     212.174E-03    -106.166E-03     24.6592E-03    -106.187E-03     211.556E-03    -106.120E-03     24.2921E-03
             847     4.04708E-03     102.634E-03    -97.0782E+06    -160.191E+06    -55.3579E+06    -2.39807E+06    -106.004E-03     212.189E-03    -106.185E-03     29.8122E-03    -106.202E-03     211.635E-03    -106.089E-03     29.3588E-03
             848     4.85664E-03     102.671E-03    -88.5263E+06    -142.443E+06    -39.4080E+06    -2.77428E+06    -106.009E-03     212.204E-03    -106.195E-03     34.4172E-03    -106.223E-03     211.712E-03    -106.057E-03     33.8807E-03
             849     5.66628E-03     102.712E-03    -80.1767E+06    -125.625E+06    -25.5623E+06    -3.08611E+06    -106.014E-03     212.209E-03    -106.195E-03     38.4325E-03    -106.240E-03     211.779E-03    -106.024E-03     37.8164E-03
             850     6.47595E-03     102.758E-03    -72.1880E+06    -109.573E+06    -13.5738E+06    -3.35182E+06    -106.010E-03     212.197E-03    -106.186E-03     41.8436E-03    -106.248E-03     211.828E-03    -105.991E-03     41.1511E-03
             851     7.28570E-03     102.807E-03    -64.6154E+06    -94.1168E+06    -3.08651E+06    -3.55814E+06    -105.990E-03     212.161E-03    -106.170E-03     44.6701E-03    -106.238E-03     211.854E-03    -105.956E-03     43.9036E-03
             852     8.09550E-03     102.859E-03    -57.4582E+06    -78.8449E+06     6.21198E+06    -3.67079E+06    -105.948E-03     212.095E-03    -106.148E-03     46.9444E-03    -106.206E-03     211.852E-03    -105.919E-03     46.1056E-03
             853     8.90541E-03     102.913E-03    -50.6684E+06    -63.2273E+06     14.6249E+06    -3.63095E+06    -105.875E-03     211.994E-03    -106.118E-03     48.6313E-03    -106.146E-03     211.817E-03    -105.880E-03     47.7228E-03
             854     9.71538E-03     102.969E-03    -44.2283E+06    -46.8942E+06     22.4020E+06    -3.40404E+06    -105.768E-03     211.850E-03    -106.082E-03     49.6881E-03    -106.052E-03     211.746E-03    -105.838E-03     48.7126E-03
             855     10.5255E-03     103.025E-03    -38.0754E+06    -27.9550E+06     29.9880E+06    -2.94040E+06    -105.621E-03     211.659E-03    -106.038E-03     50.1934E-03    -105.924E-03     211.640E-03    -105.792E-03     49.1521E-03
             856     11.3357E-03     103.082E-03    -32.1678E+06    -7.11437E+06     37.7532E+06    -2.19540E+06    -105.435E-03     211.423E-03    -105.988E-03     49.9742E-03    -105.760E-03     211.499E-03    -105.742E-03     48.8690E-03
             857     12.1460E-03     103.138E-03    -26.5528E+06     18.0315E+06     44.9253E+06    -1.13933E+06    -105.204E-03     211.129E-03    -105.925E-03     48.6396E-03    -105.556E-03     211.320E-03    -105.688E-03     47.4766E-03
             858     12.9565E-03     103.191E-03    -21.1466E+06     63.4743E+06     57.6537E+06     280.851E+03    -104.857E-03     210.714E-03    -105.856E-03     45.8545E-03    -105.271E-03     211.110E-03    -105.630E-03     44.6479E-03
             859     13.7672E-03     103.240E-03    -15.9223E+06     98.3039E+06     66.4277E+06     1.27750E+06    -104.544E-03     210.324E-03    -105.780E-03     40.9815E-03    -104.992E-03     210.872E-03    -105.567E-03     39.7386E-03
             860     14.5779E-03     103.281E-03    -10.8159E+06     112.338E+06     78.7939E+06     1.07575E+06    -104.302E-03     210.054E-03    -105.752E-03     34.8203E-03    -104.760E-03     210.644E-03    -105.505E-03     33.5046E-03
             861     15.3887E-03     103.316E-03    -5.43386E+06     121.439E+06     96.8314E+06     430.116E+03    -104.087E-03     209.848E-03    -105.762E-03     23.7976E-03    -104.519E-03     210.412E-03    -105.446E-03     22.6372E-03
             862     809.233E-06     103.721E-03    -124.264E+06    -224.517E+06    -121.195E+06    -705.149E+03    -106.222E-03     212.400E-03    -106.178E-03     7.16660E-03    -106.344E-03     211.635E-03    -106.278E-03     7.06115E-03
             863     1.61850E-03     103.732E-03    -119.870E+06    -212.445E+06    -108.821E+06    -1.24352E+06    -106.167E-03     212.397E-03    -106.230E-03     13.0212E-03    -106.306E-03     211.671E-03    -106.292E-03     12.8288E-03
             864     2.42781E-03     103.750E-03    -113.366E+06    -195.887E+06    -91.8432E+06    -1.78304E+06    -106.141E-03     212.399E-03    -106.258E-03     18.9369E-03    -106.300E-03     211.727E-03    -106.269E-03     18.6539E-03
             865     3.23718E-03     103.775E-03    -105.534E+06    -177.331E+06    -73.2983E+06    -2.30225E+06    -106.121E-03     212.405E-03    -106.284E-03     24.5170E-03    -106.302E-03     211.794E-03    -106.240E-03     24.1444E-03
             866     4.04659E-03     103.806E-03    -97.0822E+06    -158.789E+06    -55.5103E+06    -2.79345E+06    -106.112E-03     212.414E-03    -106.302E-03     29.6338E-03    -106.312E-03     211.866E-03    -106.208E-03     29.1738E-03
             867     4.85609E-03     103.842E-03    -88.5273E+06    -141.144E+06    -39.6204E+06    -3.25197E+06    -106.108E-03     212.418E-03    -106.310E-03     34.2037E-03    -106.323E-03     211.932E-03    -106.175E-03     33.6592E-03
             868     5.66562E-03     103.884E-03    -80.1827E+06    -124.441E+06    -25.8343E+06    -3.67282E+06    -106.101E-03     212.408E-03    -106.307E-03     38.1858E-03    -106.329E-03     211.984E-03    -106.139E-03     37.5603E-03
             869     6.47524E-03     103.929E-03    -72.1915E+06    -108.501E+06    -13.8859E+06    -4.03784E+06    -106.081E-03     212.376E-03    -106.295E-03     41.5671E-03    -106.319E-03     212.013E-03    -106.102E-03     40.8638E-03
             870     7.28492E-03     103.978E-03    -64.6208E+06    -93.2024E+06    -3.43993E+06    -4.33239E+06    -106.040E-03     212.315E-03    -106.274E-03     44.3682E-03    -106.289E-03     212.013E-03    -106.063E-03     43.5900E-03
             871     8.09470E-03     104.030E-03     -57.464E+06    -78.1194E+06     5.81671E+06    -4.54440E+06    -105.973E-03     212.219E-03    -106.246E-03     46.6241E-03    -106.231E-03     211.979E-03    -106.020E-03     45.7727E-03
             872     8.90456E-03     104.084E-03    -50.6773E+06    -62.8274E+06     14.1548E+06    -4.62871E+06    -105.871E-03     212.080E-03    -106.209E-03     48.3012E-03    -106.141E-03     211.906E-03    -105.974E-03     47.3790E-03
             873     9.71457E-03     104.140E-03    -44.2094E+06    -46.8822E+06     21.8528E+06    -4.50082E+06    -105.730E-03     211.894E-03    -106.164E-03     49.3600E-03    -106.013E-03     211.790E-03    -105.923E-03     48.3702E-03
             874     10.5247E-03     104.196E-03    -38.0485E+06    -28.4433E+06     29.3311E+06    -4.11024E+06    -105.546E-03     211.656E-03    -106.110E-03     49.8831E-03    -105.847E-03     211.635E-03    -105.867E-03     48.8274E-03
             875     11.3350E-03     104.253E-03    -32.1271E+06    -8.17008E+06     36.9778E+06    -3.39494E+06    -105.323E-03     211.372E-03    -106.049E-03     49.7004E-03    -105.645E-03     211.443E-03    -105.805E-03     48.5814E-03
             876     12.1454E-03     104.308E-03    -26.4839E+06     16.1522E+06     43.9893E+06    -2.17585E+06    -105.060E-03     211.034E-03    -105.974E-03     48.4205E-03    -105.407E-03     211.216E-03    -105.739E-03     47.2468E-03
             877     12.9560E-03     104.361E-03    -21.0971E+06     60.7811E+06     56.5170E+06    -365.349E+03    -104.691E-03     210.583E-03    -105.892E-03     45.7052E-03    -105.098E-03     210.967E-03    -105.667E-03     44.4940E-03
             878     13.7668E-03     104.410E-03    -15.9377E+06     97.5171E+06     65.4515E+06     948.259E+03    -104.359E-03     210.161E-03    -105.802E-03     40.9020E-03    -104.804E-03     210.706E-03    -105.593E-03     39.6592E-03
             879     14.5777E-03     104.452E-03    -10.8300E+06     113.489E+06     78.1561E+06     782.732E+03    -104.114E-03     209.875E-03    -105.761E-03     34.8035E-03    -104.572E-03     210.470E-03    -105.519E-03     33.4883E-03
             880     15.3886E-03     104.486E-03    -5.48433E+06     122.060E+06     96.6734E+06     175.383E+03    -103.912E-03     209.675E-03    -105.763E-03     23.8214E-03    -104.345E-03     210.241E-03    -105.449E-03     22.6609E-03
             881     809.112E-06     104.893E-03    -123.870E+06    -222.558E+06    -120.816E+06    -783.791E+03    -106.383E-03     212.721E-03    -106.338E-03     7.11555E-03    -106.506E-03     211.965E-03    -106.440E-03     7.00861E-03
             882     1.61824E-03     104.904E-03    -119.509E+06    -210.589E+06    -108.511E+06    -1.40816E+06    -106.326E-03     212.716E-03    -106.390E-03     12.9271E-03    -106.465E-03     211.998E-03    -106.454E-03     12.7317E-03
             883     2.42743E-03     104.922E-03    -113.039E+06    -194.105E+06    -91.6387E+06    -2.04084E+06    -106.296E-03     212.712E-03    -106.417E-03     18.7972E-03    -106.456E-03     212.048E-03    -106.429E-03     18.5096E-03
             884     3.23666E-03     104.947E-03    -105.253E+06    -175.638E+06    -73.1995E+06    -2.63874E+06    -106.270E-03     212.711E-03    -106.441E-03     24.3315E-03    -106.452E-03     212.108E-03    -106.400E-03     23.9530E-03
             885     4.04597E-03     104.978E-03    -96.8405E+06    -157.166E+06    -55.5067E+06    -3.20572E+06    -106.250E-03     212.707E-03    -106.456E-03     29.4038E-03    -106.451E-03     212.167E-03    -106.366E-03     28.9366E-03
             886     4.85533E-03     105.014E-03    -88.3204E+06    -139.584E+06    -39.6849E+06    -3.75946E+06    -106.232E-03     212.693E-03    -106.461E-03     33.9318E-03    -106.448E-03     212.215E-03    -106.329E-03     33.3788E-03
             887     5.66479E-03     105.056E-03    -79.9970E+06    -122.977E+06    -25.9440E+06    -4.28519E+06    -106.206E-03     212.660E-03    -106.454E-03     37.8761E-03    -106.434E-03     212.243E-03    -106.289E-03     37.2407E-03
             888     6.47430E-03     105.101E-03    -72.0329E+06    -107.171E+06    -14.0355E+06    -4.75572E+06    -106.161E-03     212.596E-03    -106.436E-03     41.2256E-03    -106.400E-03     212.240E-03    -106.246E-03     40.5113E-03
             889     7.28394E-03     105.150E-03    -64.4689E+06    -92.0288E+06    -3.62808E+06    -5.15209E+06    -106.089E-03     212.496E-03    -106.408E-03     44.0039E-03    -106.338E-03     212.200E-03    -106.199E-03     43.2138E-03
             890     8.09365E-03     105.202E-03    -57.3196E+06    -77.1372E+06     5.58400E+06    -5.45314E+06    -105.984E-03     212.353E-03    -106.370E-03     46.2484E-03    -106.242E-03     212.119E-03    -106.147E-03     45.3847E-03
             891     8.90354E-03     105.256E-03    -50.5867E+06    -62.1344E+06     13.8454E+06    -5.62084E+06    -105.840E-03     212.161E-03    -106.322E-03     47.9277E-03    -106.109E-03     211.990E-03    -106.089E-03     46.9930E-03
             892     9.71353E-03     105.311E-03    -44.1900E+06    -46.5450E+06     21.4298E+06    -5.64529E+06    -105.652E-03     211.915E-03    -106.263E-03     49.0048E-03    -105.934E-03     211.813E-03    -106.025E-03     48.0018E-03
             893     10.5238E-03     105.367E-03    -38.0300E+06    -28.7503E+06     28.7596E+06    -5.35119E+06    -105.421E-03     211.615E-03    -106.194E-03     49.5630E-03    -105.719E-03     211.593E-03    -105.954E-03     48.4941E-03
             894     11.3341E-03     105.423E-03    -32.1469E+06    -9.10157E+06     36.2457E+06    -4.64193E+06    -105.155E-03     211.272E-03    -106.117E-03     49.4347E-03    -105.473E-03     211.339E-03    -105.876E-03     48.3040E-03
             895     12.1447E-03     105.478E-03    -26.5461E+06     14.0146E+06     42.9804E+06    -3.33177E+06    -104.862E-03     210.888E-03    -106.026E-03     48.2242E-03    -105.204E-03     211.061E-03    -105.793E-03     47.0410E-03
             896     12.9555E-03     105.531E-03    -21.1028E+06     57.4429E+06     55.2028E+06    -1.16674E+06    -104.483E-03     210.412E-03    -105.929E-03     45.5874E-03    -104.882E-03     210.780E-03    -105.705E-03     44.3719E-03
             897     13.7665E-03     105.580E-03    -15.8154E+06     96.5034E+06     64.4418E+06     487.338E+03    -104.149E-03     209.969E-03    -105.821E-03     40.8561E-03    -104.589E-03     210.510E-03    -105.616E-03     39.6132E-03
             898     14.5775E-03     105.621E-03    -10.6734E+06     114.679E+06     77.5428E+06     444.372E+03    -103.913E-03     209.679E-03    -105.766E-03     34.8147E-03    -104.371E-03     210.281E-03    -105.529E-03     33.5000E-03
             899     15.3887E-03     105.656E-03    -5.33625E+06     122.444E+06     96.3487E+06    -31.0417E+03    -103.736E-03     209.496E-03    -105.760E-03     23.8657E-03    -104.168E-03     210.065E-03    -105.448E-03     22.7061E-03
             900     808.933E-06     106.065E-03    -123.279E+06    -220.391E+06    -120.238E+06    -856.619E+03    -106.593E-03     213.143E-03    -106.550E-03     7.05093E-03    -106.717E-03     212.396E-03    -106.653E-03     6.94251E-03
             901     1.61791E-03     106.076E-03    -118.938E+06    -208.483E+06    -108.035E+06    -1.56575E+06    -106.533E-03     213.132E-03    -106.600E-03     12.8086E-03    -106.673E-03     212.424E-03    -106.665E-03     12.6102E-03
             902     2.42692E-03     106.094E-03    -112.532E+06    -192.086E+06    -91.2864E+06    -2.27871E+06    -106.495E-03     213.119E-03    -106.624E-03     18.6226E-03    -106.657E-03     212.464E-03    -106.639E-03     18.3306E-03
             903     3.23600E-03     106.119E-03    -104.810E+06    -173.707E+06    -72.9810E+06    -2.96357E+06    -106.457E-03     213.102E-03    -106.645E-03     24.1024E-03    -106.640E-03     212.508E-03    -106.606E-03     23.7180E-03
             904     4.04515E-03     106.150E-03    -96.4566E+06    -155.307E+06    -55.3939E+06    -3.62216E+06    -106.420E-03     213.076E-03    -106.656E-03     29.1234E-03    -106.622E-03     212.545E-03    -106.568E-03     28.6490E-03
             905     4.85439E-03     106.187E-03    -87.9805E+06    -137.755E+06    -39.6188E+06    -4.27047E+06    -106.379E-03     213.033E-03    -106.654E-03     33.6055E-03    -106.595E-03     212.563E-03    -106.525E-03     33.0441E-03
             906     5.66371E-03     106.228E-03    -79.7032E+06    -121.237E+06    -25.9140E+06    -4.90269E+06    -106.321E-03     212.960E-03    -106.639E-03     37.5118E-03    -106.550E-03     212.551E-03    -106.477E-03     36.8668E-03
             907     6.47315E-03     106.273E-03    -71.7737E+06    -105.569E+06    -14.0494E+06    -5.47519E+06    -106.237E-03     212.848E-03    -106.611E-03     40.8343E-03    -106.477E-03     212.498E-03    -106.424E-03     40.1098E-03
             908     7.28270E-03     106.322E-03    -64.2621E+06    -90.5784E+06    -3.69444E+06    -5.97390E+06    -106.119E-03     212.689E-03    -106.570E-03     43.5996E-03    -106.368E-03     212.399E-03    -106.364E-03     42.7988E-03
             909     8.09243E-03     106.373E-03    -57.1634E+06    -75.9191E+06     5.44786E+06    -6.36256E+06    -105.961E-03     212.478E-03    -106.517E-03     45.8472E-03    -106.220E-03     212.249E-03    -106.297E-03     44.9729E-03
             910     8.90230E-03     106.427E-03    -50.4783E+06    -61.2294E+06     13.6323E+06    -6.57791E+06    -105.760E-03     212.212E-03    -106.452E-03     47.5452E-03    -106.029E-03     212.045E-03    -106.222E-03     46.6009E-03
             911     9.71243E-03     106.482E-03    -44.1869E+06    -45.8459E+06     21.1460E+06    -6.66333E+06    -105.515E-03     211.890E-03    -106.375E-03     48.6564E-03    -105.796E-03     211.790E-03    -106.139E-03     47.6446E-03
             912     10.5227E-03     106.538E-03    -38.2515E+06    -28.8255E+06     28.2321E+06    -6.48812E+06    -105.234E-03     211.519E-03    -106.285E-03     49.2626E-03    -105.531E-03     211.496E-03    -106.047E-03     48.1852E-03
             913     11.3333E-03     106.594E-03    -32.5654E+06    -9.93608E+06     35.4373E+06    -5.80593E+06    -104.930E-03     211.117E-03    -106.187E-03     49.1974E-03    -105.247E-03     211.180E-03    -105.948E-03     48.0592E-03
             914     12.1440E-03     106.649E-03    -27.0582E+06     11.9921E+06     41.8798E+06    -4.55965E+06    -104.623E-03     210.699E-03    -106.077E-03     48.0598E-03    -104.961E-03     210.863E-03    -105.845E-03     46.8687E-03
             915     12.9551E-03     106.701E-03    -21.4701E+06     53.7006E+06     53.6380E+06    -2.41485E+06    -104.254E-03     210.216E-03    -105.961E-03     45.5046E-03    -104.647E-03     210.567E-03    -105.740E-03     44.2807E-03
             916     13.7662E-03     106.750E-03    -15.8334E+06     95.0570E+06     63.2526E+06    -449.560E+03    -103.931E-03     209.767E-03    -105.836E-03     40.8437E-03    -104.367E-03     210.301E-03    -105.635E-03     39.5955E-03
             917     14.5775E-03     106.791E-03    -10.4395E+06     115.477E+06     76.7995E+06    -4.91423E+03    -103.716E-03     209.482E-03    -105.767E-03     34.8452E-03    -104.172E-03     210.088E-03    -105.535E-03     33.5299E-03
             918     15.3887E-03     106.825E-03    -5.20642E+06     122.473E+06     95.8765E+06    -69.2548E+03    -103.570E-03     209.324E-03    -105.754E-03     23.9167E-03    -104.001E-03     209.893E-03    -105.445E-03     22.7602E-03
             919     808.722E-06     107.238E-03    -122.500E+06    -218.015E+06    -119.527E+06    -934.882E+03    -106.861E-03     213.680E-03    -106.820E-03     6.97410E-03    -106.985E-03     212.943E-03    -106.924E-03     6.86414E-03
             920     1.61747E-03     107.249E-03    -118.238E+06    -206.157E+06    -107.457E+06    -1.71472E+06    -106.792E-03     213.658E-03    -106.866E-03     12.6687E-03    -106.933E-03     212.960E-03    -106.933E-03     12.4675E-03
             921     2.42628E-03     107.267E-03    -111.893E+06    -189.844E+06    -90.8498E+06    -2.50135E+06    -106.741E-03     213.627E-03    -106.886E-03     18.4189E-03    -106.903E-03     212.982E-03    -106.903E-03     18.1228E-03
             922     3.23516E-03     107.292E-03    -104.239E+06    -171.530E+06    -72.6545E+06    -3.27441E+06    -106.682E-03     213.583E-03    -106.901E-03     23.8386E-03    -106.866E-03     212.998E-03    -106.864E-03     23.4488E-03
             923     4.04414E-03     107.323E-03    -95.9509E+06    -153.210E+06    -55.1444E+06    -4.01974E+06    -106.617E-03     213.520E-03    -106.903E-03     28.8058E-03    -106.819E-03     212.997E-03    -106.818E-03     28.3249E-03
             924     4.85321E-03     107.359E-03    -87.5502E+06    -135.669E+06    -39.4371E+06    -4.75635E+06    -106.536E-03     213.426E-03    -106.890E-03     33.2439E-03    -106.754E-03     212.966E-03    -106.764E-03     32.6754E-03
             925     5.66242E-03     107.400E-03    -79.3434E+06    -119.227E+06    -25.7788E+06    -5.48186E+06    -106.431E-03     213.292E-03    -106.861E-03     37.1188E-03    -106.661E-03     212.892E-03    -106.702E-03     36.4663E-03
             926     6.47176E-03     107.445E-03    -71.4950E+06    -103.707E+06    -13.9601E+06    -6.14860E+06    -106.290E-03     213.107E-03    -106.817E-03     40.4249E-03    -106.531E-03     212.766E-03    -106.633E-03     39.6927E-03
             927     7.28131E-03     107.494E-03    -64.0637E+06    -88.8787E+06    -3.66088E+06    -6.72178E+06    -106.108E-03     212.865E-03    -106.757E-03     43.1905E-03    -106.358E-03     212.583E-03    -106.553E-03     42.3826E-03
             928     8.09102E-03     107.545E-03    -57.0687E+06    -74.4459E+06     5.40382E+06    -7.19205E+06    -105.883E-03     212.565E-03    -106.682E-03     45.4551E-03    -106.142E-03     212.342E-03    -106.464E-03     44.5744E-03
             929     8.90102E-03     107.598E-03    -50.4618E+06    -60.1374E+06     13.4847E+06    -7.48578E+06    -105.616E-03     212.209E-03    -106.593E-03     47.1837E-03    -105.885E-03     212.046E-03    -106.365E-03     46.2339E-03
             930     9.71122E-03     107.653E-03    -44.2106E+06    -44.9643E+06     20.9393E+06    -7.58963E+06    -105.314E-03     211.804E-03    -106.490E-03     48.3366E-03    -105.594E-03     211.707E-03    -106.256E-03     47.3211E-03
             931     10.5218E-03     107.708E-03    -38.3554E+06    -28.7362E+06     27.8334E+06    -7.35173E+06    -104.993E-03     211.369E-03    -106.376E-03     48.9896E-03    -105.289E-03     211.345E-03    -106.139E-03     47.9106E-03
             932     11.3325E-03     107.764E-03    -32.8149E+06    -10.4511E+06     34.7869E+06    -6.79987E+06    -104.670E-03     210.923E-03    -106.253E-03     48.9879E-03    -104.985E-03     210.983E-03    -106.016E-03     47.8472E-03
             933     12.1435E-03     107.818E-03    -27.3994E+06     10.2865E+06     40.9164E+06    -5.75680E+06    -104.369E-03     210.490E-03    -106.121E-03     47.9277E-03    -104.704E-03     210.646E-03    -105.892E-03     46.7315E-03
             934     12.9547E-03     107.871E-03    -21.9316E+06     50.2865E+06     52.1361E+06    -3.87136E+06    -104.030E-03     210.017E-03    -105.988E-03     45.4554E-03    -104.416E-03     210.353E-03    -105.768E-03     44.2218E-03
             935     13.7661E-03     107.919E-03    -16.2862E+06     93.0319E+06     61.9404E+06    -1.90320E+06    -103.730E-03     209.577E-03    -105.847E-03     40.8577E-03    -104.163E-03     210.102E-03    -105.648E-03     39.5980E-03
             936     14.5774E-03     107.960E-03    -10.7909E+06     115.113E+06     75.6706E+06    -654.147E+03    -103.537E-03     209.302E-03    -105.764E-03     34.8809E-03    -103.993E-03     209.908E-03    -105.537E-03     33.5624E-03
             937     15.3889E-03     107.995E-03    -5.40191E+06     122.248E+06     95.2216E+06    -128.702E+03    -103.420E-03     209.165E-03    -105.745E-03     23.9642E-03    -103.850E-03     209.734E-03    -105.438E-03     22.8103E-03
             938     808.446E-06     108.411E-03    -121.697E+06    -215.445E+06    -118.750E+06    -1.01143E+06    -107.184E-03     214.331E-03    -107.147E-03     6.89064E-03    -107.310E-03     213.604E-03    -107.252E-03     6.77937E-03
             939     1.61694E-03     108.423E-03    -117.484E+06    -203.631E+06    -106.843E+06    -1.84279E+06    -107.102E-03     214.290E-03    -107.188E-03     12.5177E-03    -107.244E-03     213.602E-03    -107.257E-03     12.3143E-03
             940     2.42549E-03     108.441E-03    -111.234E+06    -187.385E+06    -90.3998E+06    -2.70802E+06    -107.027E-03     214.227E-03    -107.200E-03     18.2014E-03    -107.190E-03     213.592E-03    -107.219E-03     17.9021E-03
             941     3.23416E-03     108.466E-03    -103.676E+06    -169.140E+06    -72.3182E+06    -3.54734E+06    -106.934E-03     214.138E-03    -107.204E-03     23.5615E-03    -107.119E-03     213.563E-03    -107.170E-03     23.1679E-03
             942     4.04292E-03     108.496E-03    -95.4867E+06    -150.879E+06    -54.8740E+06    -4.36972E+06    -106.823E-03     214.015E-03    -107.192E-03     28.4793E-03    -107.026E-03     213.503E-03    -107.109E-03     27.9943E-03
             943     4.85186E-03     108.532E-03    -87.1561E+06    -133.350E+06    -39.2034E+06    -5.19094E+06    -106.686E-03     213.847E-03    -107.162E-03     32.8812E-03    -106.905E-03     213.397E-03    -107.038E-03     32.3084E-03
             944     5.66094E-03     108.573E-03    -79.0262E+06    -116.993E+06    -25.5669E+06    -5.98371E+06    -106.514E-03     213.625E-03    -107.112E-03     36.7346E-03    -106.745E-03     213.235E-03    -106.955E-03     36.0783E-03
             945     6.47025E-03     108.618E-03    -71.2639E+06    -101.606E+06    -13.7670E+06    -6.71594E+06    -106.299E-03     213.342E-03    -107.043E-03     40.0354E-03    -106.540E-03     213.010E-03    -106.861E-03     39.3003E-03
             946     7.27978E-03     108.666E-03    -63.9273E+06    -86.9685E+06    -3.51371E+06    -7.36057E+06    -106.039E-03     212.995E-03    -106.956E-03     42.8115E-03    -106.290E-03     212.721E-03    -106.755E-03     42.0018E-03
             947     8.08962E-03     108.717E-03    -57.0258E+06    -72.7589E+06     5.47841E+06    -7.87552E+06    -105.740E-03     212.592E-03    -106.851E-03     45.1011E-03    -106.001E-03     212.375E-03    -106.636E-03     44.2202E-03
             948     8.89970E-03     108.770E-03    -50.5530E+06    -58.7767E+06     13.4420E+06    -8.25531E+06    -105.411E-03     212.143E-03    -106.732E-03     46.8643E-03    -105.681E-03     211.986E-03    -106.506E-03     45.9151E-03
             949     9.71015E-03     108.824E-03    -44.4570E+06    -44.0097E+06     20.7230E+06    -8.40705E+06    -105.063E-03     211.662E-03    -106.599E-03     48.0580E-03    -105.345E-03     211.570E-03    -106.367E-03     47.0441E-03
             950     10.5208E-03     108.879E-03    -38.6176E+06    -28.4886E+06     27.4448E+06    -8.24072E+06    -104.723E-03     211.180E-03    -106.457E-03     48.7571E-03    -105.018E-03     211.157E-03    -106.222E-03     47.6796E-03
             951     11.3319E-03     108.934E-03    -32.9187E+06    -10.5123E+06     34.3447E+06    -7.84299E+06    -104.405E-03     210.714E-03    -106.309E-03     48.8131E-03    -104.718E-03     210.773E-03    -106.075E-03     47.6718E-03
             952     12.1430E-03     108.988E-03    -27.4333E+06     8.84997E+06     40.2044E+06    -6.94151E+06    -104.132E-03     210.289E-03    -106.157E-03     47.8192E-03    -104.463E-03     210.437E-03    -105.929E-03     46.6192E-03
             953     12.9544E-03     109.040E-03    -21.8637E+06     47.7273E+06     51.1144E+06    -5.40527E+06    -103.831E-03     209.839E-03    -106.007E-03     45.4204E-03    -104.211E-03     210.162E-03    -105.789E-03     44.1765E-03
             954     13.7659E-03     109.088E-03    -16.2392E+06     90.3436E+06     60.9499E+06    -3.36998E+06    -103.568E-03     209.423E-03    -105.855E-03     40.8752E-03    -103.995E-03     209.936E-03    -105.657E-03     39.6036E-03
             955     14.5775E-03     109.130E-03    -10.8632E+06     113.369E+06     74.3978E+06    -1.37971E+06    -103.398E-03     209.159E-03    -105.760E-03     34.9060E-03    -103.849E-03     209.758E-03    -105.537E-03     33.5823E-03
             956     15.3889E-03     109.164E-03    -5.49175E+06     121.936E+06     94.3314E+06    -407.387E+03    -103.285E-03     209.018E-03    -105.733E-03     24.0011E-03    -103.713E-03     209.586E-03    -105.430E-03     22.8461E-03
             957     808.143E-06     109.586E-03    -121.000E+06    -212.706E+06    -118.106E+06    -1.07449E+06    -107.550E-03     215.068E-03    -107.518E-03     6.80917E-03    -107.676E-03     214.353E-03    -107.625E-03     6.69725E-03
             958     1.61633E-03     109.597E-03    -116.859E+06    -200.932E+06    -106.325E+06    -1.95632E+06    -107.446E-03     214.997E-03    -107.551E-03     12.3718E-03    -107.589E-03     214.321E-03    -107.622E-03     12.1674E-03
             959     2.42462E-03     109.615E-03    -110.672E+06    -184.728E+06    -90.0078E+06    -2.88164E+06    -107.335E-03     214.886E-03    -107.551E-03     17.9940E-03    -107.499E-03     214.263E-03    -107.573E-03     17.6934E-03
             960     3.23303E-03     109.640E-03    -103.183E+06    -166.579E+06    -72.0013E+06    -3.78280E+06    -107.191E-03     214.729E-03    -107.538E-03     23.3016E-03    -107.377E-03     214.167E-03    -107.507E-03     22.9068E-03
             961     4.04161E-03     109.670E-03    -95.0309E+06    -148.311E+06    -54.5522E+06    -4.68428E+06    -107.016E-03     214.522E-03    -107.506E-03     28.1791E-03    -107.221E-03     214.021E-03    -107.426E-03     27.6931E-03
             962     4.85039E-03     109.706E-03    -86.7352E+06    -130.842E+06    -38.8358E+06    -5.57766E+06    -106.804E-03     214.254E-03    -107.450E-03     32.5543E-03    -107.024E-03     213.815E-03    -107.329E-03     31.9811E-03
             963     5.65942E-03     109.746E-03    -78.6295E+06    -114.589E+06    -25.1659E+06    -6.41089E+06    -106.549E-03     213.921E-03    -107.372E-03     36.3954E-03    -106.782E-03     213.540E-03    -107.217E-03     35.7402E-03
             964     6.46870E-03     109.791E-03    -70.9070E+06    -99.3295E+06    -13.3648E+06    -7.17719E+06    -106.249E-03     213.520E-03    -107.270E-03     39.6984E-03    -106.492E-03     213.197E-03    -107.090E-03     38.9662E-03
             965     7.27833E-03     109.839E-03    -63.6381E+06    -84.8859E+06    -3.14682E+06    -7.84714E+06    -105.910E-03     213.059E-03    -107.149E-03     42.4895E-03    -106.161E-03     212.792E-03    -106.949E-03     41.6846E-03
             966     8.08826E-03     109.889E-03    -56.8204E+06    -70.8956E+06     5.77177E+06    -8.41485E+06    -105.543E-03     212.553E-03    -107.010E-03     44.8051E-03    -105.804E-03     212.343E-03    -106.796E-03     43.9304E-03
             967     8.89858E-03     109.941E-03    -50.4288E+06    -57.2287E+06     13.6318E+06    -8.81274E+06    -105.167E-03     212.023E-03    -106.856E-03     46.5984E-03    -105.437E-03     211.871E-03    -106.632E-03     45.6567E-03
             968     9.70918E-03     109.995E-03    -44.4093E+06    -42.8250E+06     20.7747E+06    -9.05874E+06    -104.799E-03     211.491E-03    -106.692E-03     47.8247E-03    -105.080E-03     211.402E-03    -106.462E-03     46.8180E-03
             969     10.5202E-03     110.049E-03    -38.6480E+06    -27.8213E+06     27.3659E+06    -9.13063E+06    -104.463E-03     210.986E-03    -106.523E-03     48.5610E-03    -104.757E-03     210.964E-03    -106.289E-03     47.4875E-03
             970     11.3313E-03     110.104E-03    -33.0445E+06    -10.1948E+06     34.1491E+06    -8.98483E+06    -104.172E-03     210.525E-03    -106.353E-03     48.6597E-03    -104.483E-03     210.584E-03    -106.120E-03     47.5179E-03
             971     12.1428E-03     110.158E-03    -27.4194E+06     7.89127E+06     39.8078E+06    -8.38488E+06    -103.939E-03     210.123E-03    -106.184E-03     47.7159E-03    -104.265E-03     210.265E-03    -105.957E-03     46.5092E-03
             972     12.9542E-03     110.209E-03    -21.6726E+06     45.9469E+06     50.4598E+06    -7.20468E+06    -103.675E-03     209.696E-03    -106.021E-03     45.3809E-03    -104.049E-03     210.010E-03    -105.804E-03     44.1230E-03
             973     13.7659E-03     110.257E-03    -15.9008E+06     86.6996E+06     59.9846E+06    -4.90727E+06    -103.446E-03     209.306E-03    -105.860E-03     40.8834E-03    -103.863E-03     209.801E-03    -105.663E-03     39.5983E-03
             974     14.5774E-03     110.299E-03    -10.4912E+06     110.498E+06     72.9235E+06    -2.08327E+06    -103.285E-03     209.040E-03    -105.755E-03     34.9244E-03    -103.728E-03     209.626E-03    -105.535E-03     33.5951E-03
             975     15.3891E-03     110.333E-03    -5.25980E+06     121.504E+06     93.2774E+06    -655.844E+03    -103.150E-03     208.870E-03    -105.719E-03     24.0433E-03    -103.575E-03     209.437E-03    -105.422E-03     22.8871E-03
             976     807.812E-06     110.761E-03    -120.409E+06    -209.811E+06    -117.522E+06    -1.13472E+06    -107.928E-03     215.833E-03    -107.905E-03     6.74023E-03    -108.057E-03     215.131E-03    -108.014E-03     6.62854E-03
             977     1.61570E-03     110.773E-03    -116.272E+06    -198.073E+06    -105.826E+06    -2.06519E+06    -107.794E-03     215.721E-03    -107.927E-03     12.2495E-03    -107.939E-03     215.057E-03    -108.000E-03     12.0457E-03
             978     2.42370E-03     110.790E-03    -110.122E+06    -181.897E+06    -89.5714E+06    -3.05044E+06    -107.634E-03     215.544E-03    -107.910E-03     17.8221E-03    -107.800E-03     214.933E-03    -107.934E-03     17.5227E-03
             979     3.23189E-03     110.815E-03    -102.633E+06    -163.811E+06    -71.5503E+06    -4.03478E+06    -107.425E-03     215.300E-03    -107.875E-03     23.0895E-03    -107.613E-03     214.749E-03    -107.846E-03     22.6964E-03
             980     4.04029E-03     110.845E-03    -94.4756E+06    -145.556E+06    -54.0400E+06    -5.00257E+06    -107.171E-03     214.985E-03    -107.815E-03     27.9381E-03    -107.377E-03     214.496E-03    -107.737E-03     27.4549E-03
             981     4.84899E-03     110.880E-03    -86.1745E+06    -128.163E+06    -38.2446E+06    -5.93871E+06    -106.871E-03     214.598E-03    -107.727E-03     32.2962E-03    -107.092E-03     214.169E-03    -107.608E-03     31.7276E-03
             982     5.65797E-03     110.920E-03    -78.0713E+06    -112.056E+06    -24.5316E+06    -6.80659E+06    -106.526E-03     214.139E-03    -107.613E-03     36.1317E-03    -106.759E-03     213.768E-03    -107.460E-03     35.4832E-03
             983     6.46734E-03     110.964E-03    -70.3374E+06    -96.9300E+06    -12.7193E+06    -7.58531E+06    -106.142E-03     213.617E-03    -107.475E-03     39.4397E-03    -106.384E-03     213.302E-03    -107.296E-03     38.7163E-03
             984     7.27705E-03     111.011E-03    -63.0449E+06    -82.6869E+06    -2.50955E+06    -8.27457E+06    -105.733E-03     213.048E-03    -107.315E-03     42.2434E-03    -105.984E-03     212.789E-03    -107.116E-03     41.4492E-03
             985     8.08719E-03     111.061E-03    -56.2092E+06    -68.8845E+06     6.38994E+06    -8.85400E+06    -105.320E-03     212.460E-03    -107.140E-03     44.5773E-03    -105.579E-03     212.256E-03    -106.926E-03     43.7145E-03
             986     8.89766E-03     111.112E-03    -49.8039E+06    -55.5614E+06     14.1864E+06    -9.30517E+06    -104.926E-03     211.879E-03    -106.954E-03     46.3896E-03    -105.193E-03     211.731E-03    -106.730E-03     45.4599E-03
             987     9.70854E-03     111.165E-03    -43.7568E+06    -41.3359E+06     21.3095E+06    -9.63878E+06    -104.565E-03     211.326E-03    -106.762E-03     47.6330E-03    -104.843E-03     211.241E-03    -106.532E-03     46.6368E-03
             988     10.5196E-03     111.219E-03    -38.0576E+06    -26.7704E+06     27.8094E+06    -9.82304E+06    -104.258E-03     210.828E-03    -106.570E-03     48.3878E-03    -104.548E-03     210.808E-03    -106.337E-03     47.3220E-03
             989     11.3310E-03     111.273E-03    -32.5993E+06    -9.34982E+06     34.4504E+06    -9.90501E+06    -104.000E-03     210.383E-03    -106.384E-03     48.5198E-03    -104.308E-03     210.443E-03    -106.151E-03     47.3810E-03
             990     12.1425E-03     111.327E-03    -27.3283E+06     7.69998E+06     39.8060E+06    -9.72193E+06    -103.800E-03     210.003E-03    -106.203E-03     47.6236E-03    -104.124E-03     210.142E-03    -105.975E-03     46.4116E-03
             991     12.9541E-03     111.378E-03    -21.9598E+06     44.7490E+06     49.9505E+06    -8.90699E+06    -103.558E-03     209.588E-03    -106.030E-03     45.3535E-03    -103.930E-03     209.896E-03    -105.813E-03     44.0827E-03
             992     13.7658E-03     111.426E-03    -16.4566E+06     82.3570E+06     58.6402E+06    -6.57090E+06    -103.342E-03     209.204E-03    -105.862E-03     40.9142E-03    -103.753E-03     209.679E-03    -105.665E-03     39.6141E-03
             993     14.5775E-03     111.468E-03    -10.9581E+06     106.466E+06     70.8373E+06    -3.14814E+06    -103.167E-03     208.913E-03    -105.746E-03     34.9717E-03    -103.602E-03     209.482E-03    -105.530E-03     33.6323E-03
             994     15.3892E-03     111.502E-03    -5.45927E+06     120.656E+06     91.9738E+06    -1.02213E+06    -103.010E-03     208.713E-03    -105.703E-03     24.1153E-03    -103.433E-03     209.278E-03    -105.410E-03     22.9565E-03
             995     807.510E-06     111.938E-03    -119.884E+06    -206.726E+06    -117.036E+06    -1.21093E+06    -108.273E-03     216.534E-03    -108.261E-03     6.69349E-03    -108.405E-03     215.846E-03    -108.373E-03     6.58300E-03
             996     1.61511E-03     111.949E-03    -115.740E+06    -195.030E+06    -105.316E+06    -2.22145E+06    -108.103E-03     216.372E-03    -108.269E-03     12.1671E-03    -108.251E-03     215.722E-03    -108.345E-03     11.9654E-03
             997     2.42288E-03     111.966E-03    -109.528E+06    -178.866E+06    -89.0115E+06    -3.27550E+06    -107.885E-03     216.118E-03    -108.232E-03     17.7077E-03    -108.053E-03     215.520E-03    -108.259E-03     17.4118E-03
             998     3.23087E-03     111.990E-03    -101.998E+06    -160.809E+06    -70.9023E+06    -4.33999E+06    -107.602E-03     215.773E-03    -108.171E-03     22.9504E-03    -107.791E-03     215.234E-03    -108.144E-03     22.5623E-03
             999     4.03917E-03     112.020E-03    -93.7726E+06    -142.621E+06    -53.2928E+06    -5.37755E+06    -107.261E-03     215.341E-03    -108.079E-03     27.7823E-03    -107.469E-03     214.863E-03    -108.003E-03     27.3060E-03
            1000     4.84780E-03     112.055E-03    -85.3911E+06    -125.355E+06    -37.4121E+06    -6.33967E+06    -106.873E-03     214.829E-03    -107.957E-03     32.1312E-03    -107.094E-03     214.411E-03    -107.838E-03     31.5720E-03
            1001     5.65684E-03     112.094E-03    -77.2049E+06    -109.368E+06    -23.6232E+06    -7.23479E+06    -106.446E-03     214.251E-03    -107.805E-03     35.9637E-03    -106.678E-03     213.889E-03    -107.652E-03     35.3268E-03
            1002     6.46628E-03     112.137E-03    -69.3792E+06    -94.4282E+06    -11.7747E+06    -8.05285E+06    -105.996E-03     213.624E-03    -107.628E-03     39.2732E-03    -106.236E-03     213.317E-03    -107.450E-03     38.5632E-03
            1003     7.27618E-03     112.183E-03    -62.0009E+06    -80.3892E+06    -1.54488E+06    -8.74564E+06    -105.544E-03     212.977E-03    -107.433E-03     42.0813E-03    -105.792E-03     212.724E-03    -107.235E-03     41.3018E-03
            1004     8.08645E-03     112.232E-03    -55.0965E+06    -66.7911E+06     7.36917E+06    -9.33433E+06    -105.115E-03     212.341E-03    -107.227E-03     44.4219E-03    -105.370E-03     212.143E-03    -107.013E-03     43.5741E-03
            1005     8.89715E-03     112.283E-03    -48.6651E+06    -53.7685E+06     15.1487E+06    -9.77773E+06    -104.731E-03     211.745E-03    -107.014E-03     46.2402E-03    -104.994E-03     211.601E-03    -106.790E-03     45.3251E-03
            1006     9.70811E-03     112.336E-03    -42.6824E+06    -39.6527E+06     22.2335E+06    -10.1506E+06    -104.398E-03     211.200E-03    -106.802E-03     47.4924E-03    -104.672E-03     211.117E-03    -106.572E-03     46.5091E-03
            1007     10.5194E-03     112.389E-03    -37.0604E+06    -25.5718E+06     28.6130E+06    -10.3527E+06    -104.125E-03     210.722E-03    -106.596E-03     48.2630E-03    -104.411E-03     210.702E-03    -106.362E-03     47.2080E-03
            1008     11.3308E-03     112.443E-03    -31.7925E+06    -8.07836E+06     35.1669E+06    -10.4843E+06    -103.893E-03     210.292E-03    -106.399E-03     48.4270E-03    -104.198E-03     210.353E-03    -106.165E-03     47.2963E-03
            1009     12.1424E-03     112.496E-03    -26.8367E+06     8.06208E+06     40.2863E+06    -10.4000E+06    -103.707E-03     209.918E-03    -106.211E-03     47.5791E-03    -104.028E-03     210.056E-03    -105.982E-03     46.3715E-03
            1010     12.9540E-03     112.547E-03    -22.0603E+06     44.2126E+06     49.8604E+06    -9.84518E+06    -103.464E-03     209.495E-03    -106.031E-03     45.3836E-03    -103.834E-03     209.799E-03    -105.814E-03     44.1112E-03
            1011     13.7659E-03     112.595E-03    -16.9624E+06     78.4395E+06     57.6034E+06    -8.07356E+06    -103.245E-03     209.103E-03    -105.858E-03     41.0132E-03    -103.651E-03     209.560E-03    -105.659E-03     39.7017E-03
            1012     14.5776E-03     112.637E-03    -11.4112E+06     101.606E+06     68.3845E+06    -4.78056E+06    -103.063E-03     208.793E-03    -105.730E-03     35.0823E-03    -103.490E-03     209.342E-03    -105.519E-03     33.7263E-03
            1013     15.3895E-03     112.671E-03    -5.61946E+06     118.662E+06     89.9666E+06    -1.89099E+06    -102.906E-03     208.585E-03    -105.679E-03     24.2295E-03    -103.324E-03     209.144E-03    -105.393E-03     23.0616E-03
            1014     807.275E-06     113.115E-03    -119.342E+06    -203.381E+06    -116.477E+06    -1.33127E+06    -108.529E-03     217.056E-03    -108.528E-03     6.67525E-03    -108.663E-03     216.383E-03    -108.642E-03     6.56688E-03
            1015     1.61467E-03     113.126E-03    -115.129E+06    -191.701E+06    -104.674E+06    -2.44054E+06    -108.320E-03     216.842E-03    -108.522E-03     12.1356E-03    -108.470E-03     216.207E-03    -108.600E-03     11.9380E-03
            1016     2.42226E-03     113.143E-03    -108.843E+06    -175.564E+06    -88.2734E+06    -3.61342E+06    -108.044E-03     216.508E-03    -108.464E-03     17.6652E-03    -108.214E-03     215.925E-03    -108.493E-03     17.3752E-03
            1017     3.23015E-03     113.166E-03    -101.173E+06    -157.540E+06    -70.0420E+06    -4.77136E+06    -107.688E-03     216.065E-03    -108.376E-03     22.9003E-03    -107.878E-03     215.539E-03    -108.351E-03     22.5204E-03
            1018     4.03839E-03     113.195E-03    -92.8268E+06    -139.483E+06    -52.3098E+06    -5.86988E+06    -107.272E-03     215.526E-03    -108.254E-03     27.7270E-03    -107.479E-03     215.060E-03    -108.179E-03     27.2615E-03
            1019     4.84707E-03     113.229E-03    -84.3167E+06    -122.373E+06    -36.3322E+06    -6.88567E+06    -106.811E-03     214.909E-03    -108.098E-03     32.0721E-03    -107.031E-03     214.501E-03    -107.980E-03     31.5260E-03
            1020     5.65617E-03     113.268E-03    -75.9725E+06    -106.504E+06    -22.4627E+06    -7.83382E+06    -106.327E-03     214.240E-03    -107.913E-03     35.9014E-03    -106.557E-03     213.887E-03    -107.761E-03     35.2793E-03
            1021     6.46576E-03     113.310E-03    -68.0027E+06    -91.7973E+06    -10.5497E+06    -8.67221E+06    -105.842E-03     213.549E-03    -107.706E-03     39.2074E-03    -106.079E-03     213.249E-03    -107.527E-03     38.5134E-03
            1022     7.27576E-03     113.356E-03    -60.4943E+06    -78.0178E+06    -282.849E+03    -9.36902E+06    -105.381E-03     212.866E-03    -107.485E-03     42.0128E-03    -105.624E-03     212.619E-03    -107.286E-03     41.2498E-03
            1023     8.08623E-03     113.404E-03    -53.4923E+06    -64.6667E+06     8.65071E+06    -9.90436E+06    -104.967E-03     212.224E-03    -107.257E-03     44.3544E-03    -105.217E-03     212.029E-03    -107.043E-03     43.5233E-03
            1024     8.89698E-03     113.454E-03    -46.9939E+06    -51.9534E+06     16.4249E+06    -10.2958E+06    -104.613E-03     211.643E-03    -107.030E-03     46.1778E-03    -104.869E-03     211.500E-03    -106.804E-03     45.2788E-03
            1025     9.70810E-03     113.506E-03    -40.9589E+06    -37.9158E+06     23.5211E+06    -10.5915E+06    -104.311E-03     211.119E-03    -106.808E-03     47.4421E-03    -104.578E-03     211.038E-03    -106.576E-03     46.4742E-03
            1026     10.5194E-03     113.559E-03    -35.4091E+06    -24.3736E+06     29.8036E+06    -10.7244E+06    -104.064E-03     210.659E-03    -106.595E-03     48.2304E-03    -104.342E-03     210.639E-03    -106.360E-03     47.1898E-03
            1027     11.3309E-03     113.612E-03    -30.2668E+06    -6.78564E+06     36.3179E+06    -10.7308E+06    -103.837E-03     210.231E-03    -106.393E-03     48.4286E-03    -104.136E-03     210.292E-03    -106.158E-03     47.3123E-03
            1028     12.1425E-03     113.665E-03    -25.5239E+06     8.61224E+06     41.3028E+06    -10.5944E+06    -103.643E-03     209.845E-03    -106.202E-03     47.6354E-03    -103.958E-03     209.980E-03    -105.971E-03     46.4408E-03
            1029     12.9543E-03     113.716E-03    -20.9006E+06     44.1550E+06     50.5220E+06    -10.1115E+06    -103.385E-03     209.403E-03    -106.017E-03     45.5167E-03    -103.749E-03     209.702E-03    -105.798E-03     44.2543E-03
            1030     13.7661E-03     113.764E-03    -16.1623E+06     76.1651E+06     57.7262E+06    -9.07942E+06    -103.171E-03     209.012E-03    -105.841E-03     41.2126E-03    -103.569E-03     209.455E-03    -105.639E-03     39.8983E-03
            1031     14.5780E-03     113.805E-03    -11.0023E+06     96.6838E+06     66.3053E+06    -6.53627E+06    -103.025E-03     208.729E-03    -105.704E-03     35.2846E-03    -103.439E-03     209.255E-03    -105.497E-03     33.9110E-03
            1032     15.3898E-03     113.839E-03    -5.49522E+06     114.869E+06     87.0680E+06    -2.96007E+06    -102.904E-03     208.551E-03    -105.647E-03     24.4114E-03    -103.312E-03     209.094E-03    -105.370E-03     23.2315E-03
            1033     807.164E-06     114.293E-03    -118.692E+06    -199.645E+06    -115.841E+06    -1.50206E+06    -108.631E-03     217.272E-03    -108.641E-03     6.68963E-03    -108.769E-03     216.615E-03    -108.758E-03     6.58445E-03
            1034     1.61447E-03     114.303E-03    -114.411E+06    -187.996E+06    -103.918E+06    -2.75203E+06    -108.391E-03     217.014E-03    -108.623E-03     12.1619E-03    -108.544E-03     216.395E-03    -108.704E-03     11.9701E-03
            1035     2.42202E-03     114.320E-03    -108.019E+06    -171.864E+06    -87.3860E+06    -4.06054E+06    -108.068E-03     216.616E-03    -108.548E-03     17.7032E-03    -108.240E-03     216.048E-03    -108.579E-03     17.4218E-03
            1036     3.22989E-03     114.343E-03    -100.197E+06    -153.927E+06    -69.0216E+06    -5.35819E+06    -107.660E-03     216.099E-03    -108.439E-03     22.9478E-03    -107.851E-03     215.588E-03    -108.416E-03     22.5790E-03
            1037     4.03820E-03     114.371E-03    -91.6927E+06    -136.065E+06    -51.1848E+06    -6.56020E+06    -107.194E-03     215.487E-03    -108.294E-03     27.7803E-03    -107.400E-03     215.034E-03    -108.219E-03     27.3283E-03
            1038     4.84693E-03     114.404E-03    -83.0597E+06    -119.105E+06    -35.1274E+06    -7.67334E+06    -106.696E-03     214.810E-03    -108.115E-03     32.1277E-03    -106.914E-03     214.413E-03    -107.997E-03     31.5968E-03
            1039     5.65618E-03     114.442E-03    -74.5464E+06    -103.446E+06    -21.1791E+06    -8.67641E+06    -106.193E-03     214.102E-03    -107.909E-03     35.9561E-03    -106.420E-03     213.758E-03    -107.757E-03     35.3503E-03
            1040     6.46585E-03     114.483E-03    -66.4164E+06    -89.0232E+06    -9.20875E+06    -9.52980E+06    -105.711E-03     213.397E-03    -107.686E-03     39.2611E-03    -105.944E-03     213.105E-03    -107.507E-03     38.5840E-03
            1041     7.27601E-03     114.528E-03    -58.7651E+06    -75.5570E+06     1.09410E+06    -10.2112E+06    -105.273E-03     212.727E-03    -107.453E-03     42.0688E-03    -105.510E-03     212.484E-03    -107.253E-03     41.3225E-03
            1042     8.08649E-03     114.575E-03    -51.6052E+06    -62.5736E+06     10.0392E+06    -10.6980E+06    -104.893E-03     212.112E-03    -107.219E-03     44.4214E-03    -105.135E-03     211.919E-03    -107.003E-03     43.6067E-03
            1043     8.89737E-03     114.625E-03    -44.9498E+06    -50.1548E+06     17.8424E+06    -10.9947E+06    -104.572E-03     211.561E-03    -106.989E-03     46.2612E-03    -104.820E-03     211.420E-03    -106.762E-03     45.3782E-03
            1044     9.70843E-03     114.676E-03    -38.8189E+06    -36.3414E+06     24.9710E+06    -11.1511E+06    -104.294E-03     211.062E-03    -106.768E-03     47.5464E-03    -104.552E-03     210.980E-03    -106.534E-03     46.5947E-03
            1045     10.5198E-03     114.729E-03    -33.2089E+06    -23.3641E+06     31.2243E+06    -11.0366E+06    -104.055E-03     210.612E-03    -106.557E-03     48.3588E-03    -104.324E-03     210.589E-03    -106.319E-03     47.3361E-03
            1046     11.3312E-03     114.781E-03    -28.0846E+06    -5.62634E+06     37.7587E+06    -10.8878E+06    -103.815E-03     210.171E-03    -106.356E-03     48.5911E-03    -104.104E-03     210.231E-03    -106.118E-03     47.4936E-03
            1047     12.1430E-03     114.834E-03    -23.2844E+06     9.16988E+06     42.7761E+06    -10.6700E+06    -103.603E-03     209.768E-03    -106.165E-03     47.8458E-03    -103.907E-03     209.898E-03    -105.931E-03     46.6695E-03
            1048     12.9547E-03     114.885E-03    -18.6806E+06     44.3735E+06     51.8027E+06    -10.2547E+06    -103.341E-03     209.320E-03    -105.978E-03     45.7929E-03    -103.694E-03     209.613E-03    -105.757E-03     44.5453E-03
            1049     13.7667E-03     114.933E-03    -14.0332E+06     75.3067E+06     58.9245E+06    -9.56649E+06    -103.159E-03     208.962E-03    -105.803E-03     41.5463E-03    -103.545E-03     209.395E-03    -105.597E-03     40.2385E-03
            1050     14.5785E-03     114.974E-03    -9.60224E+06     92.1679E+06     65.2358E+06    -7.34978E+06    -103.097E-03     208.761E-03    -105.664E-03     35.6095E-03    -103.496E-03     209.264E-03    -105.457E-03     34.2319E-03
            1051     15.3904E-03     115.008E-03    -5.02546E+06     109.693E+06     84.1956E+06    -3.59874E+06    -103.056E-03     208.663E-03    -105.607E-03     24.6859E-03    -103.450E-03     209.185E-03    -105.338E-03     23.4991E-03
            1052     807.236E-06     115.470E-03    -117.996E+06    -195.354E+06    -115.138E+06    -1.74624E+06    -108.524E-03     217.064E-03    -108.539E-03     6.73852E-03    -108.665E-03     216.426E-03    -108.661E-03     6.63732E-03
            1053     1.61462E-03     115.480E-03    -113.620E+06    -183.750E+06    -103.110E+06    -3.19443E+06    -108.269E-03     216.784E-03    -108.515E-03     12.2483E-03    -108.425E-03     216.183E-03    -108.599E-03     12.0636E-03
            1054     2.42226E-03     115.497E-03    -107.091E+06    -167.677E+06    -86.4449E+06    -4.68331E+06    -107.926E-03     216.358E-03    -108.432E-03     17.8239E-03    -108.100E-03     215.808E-03    -108.466E-03     17.5528E-03
            1055     3.23027E-03     115.519E-03    -99.1565E+06    -149.859E+06    -67.9425E+06    -6.11902E+06    -107.501E-03     215.815E-03    -108.314E-03     23.0957E-03    -107.693E-03     215.320E-03    -108.293E-03     22.7403E-03
            1056     4.03869E-03     115.546E-03    -90.5253E+06    -132.218E+06    -50.0337E+06    -7.47694E+06    -107.028E-03     215.189E-03    -108.161E-03     27.9479E-03    -107.234E-03     214.750E-03    -108.088E-03     27.5110E-03
            1057     4.84759E-03     115.579E-03    -81.7053E+06    -115.472E+06    -33.9145E+06    -8.70915E+06    -106.537E-03     214.514E-03    -107.977E-03     32.3094E-03    -106.754E-03     214.129E-03    -107.860E-03     31.7947E-03
            1058     5.65693E-03     115.616E-03    -73.0504E+06    -100.142E+06    -19.9090E+06    -9.77698E+06    -106.058E-03     213.828E-03    -107.769E-03     36.1504E-03    -106.282E-03     213.494E-03    -107.618E-03     35.5614E-03
            1059     6.46674E-03     115.656E-03    -64.7788E+06    -86.0622E+06    -7.91362E+06    -10.6506E+06    -105.613E-03     213.162E-03    -107.548E-03     39.4726E-03    -105.841E-03     212.877E-03    -107.369E-03     38.8123E-03
            1060     7.27691E-03     115.700E-03    -56.9802E+06    -72.9906E+06     2.39248E+06    -11.3230E+06    -105.218E-03     212.540E-03    -107.321E-03     42.3056E-03    -105.449E-03     212.302E-03    -107.121E-03     41.5756E-03
            1061     8.08749E-03     115.747E-03    -49.6954E+06    -60.4331E+06     11.3471E+06    -11.7711E+06    -104.879E-03     211.974E-03    -107.096E-03     44.6914E-03    -105.113E-03     211.785E-03    -106.880E-03     43.8922E-03
            1062     8.89829E-03     115.796E-03    -42.9284E+06    -48.4530E+06     19.1464E+06    -11.9713E+06    -104.586E-03     211.463E-03    -106.877E-03     46.5652E-03    -104.826E-03     211.322E-03    -106.649E-03     45.6977E-03
            1063     9.70942E-03     115.847E-03    -36.6952E+06    -35.0088E+06     26.2862E+06    -11.9056E+06    -104.321E-03     210.986E-03    -106.665E-03     47.8864E-03    -104.569E-03     210.903E-03    -106.430E-03     46.9520E-03
            1064     10.5207E-03     115.898E-03    -30.9888E+06    -22.6578E+06     32.5213E+06    -11.5782E+06    -104.079E-03     210.543E-03    -106.464E-03     48.7251E-03    -104.336E-03     210.515E-03    -106.223E-03     47.7215E-03
            1065     11.3322E-03     115.951E-03    -25.7538E+06    -4.73456E+06     39.1608E+06    -11.1315E+06    -103.825E-03     210.095E-03    -106.269E-03     48.9774E-03    -104.103E-03     210.150E-03    -106.029E-03     47.9022E-03
            1066     12.1439E-03     116.003E-03    -21.0328E+06     9.74768E+06     44.2744E+06    -10.7939E+06    -103.610E-03     209.694E-03    -106.084E-03     48.2632E-03    -103.903E-03     209.819E-03    -105.847E-03     47.1092E-03
            1067     12.9558E-03     116.054E-03    -16.4884E+06     44.7642E+06     53.1488E+06    -10.3974E+06    -103.373E-03     209.276E-03    -105.902E-03     46.2628E-03    -103.716E-03     209.564E-03    -105.678E-03     45.0340E-03
            1068     13.7676E-03     116.101E-03    -12.2706E+06     74.5581E+06     60.0323E+06    -9.49270E+06    -103.260E-03     208.996E-03    -105.735E-03     42.0595E-03    -103.637E-03     209.419E-03    -105.526E-03     40.7683E-03
            1069     14.5795E-03     116.142E-03    -8.44480E+06     87.8514E+06     64.7109E+06    -7.07564E+06    -103.321E-03     208.926E-03    -105.606E-03     36.0934E-03    -103.706E-03     209.406E-03    -105.397E-03     34.7274E-03
            1070     15.3910E-03     116.177E-03    -4.51941E+06     104.406E+06     81.9818E+06    -3.45452E+06    -103.416E-03     208.976E-03    -105.560E-03     25.0727E-03    -103.797E-03     209.474E-03    -105.295E-03     23.8887E-03
            1071     807.514E-06     116.647E-03    -117.154E+06    -190.317E+06    -114.315E+06    -2.05909E+06    -108.167E-03     216.347E-03    -108.180E-03     6.81953E-03    -108.312E-03     215.732E-03    -108.306E-03     6.72279E-03
            1072     1.61518E-03     116.657E-03     -112.73E+06    -178.795E+06    -102.217E+06    -3.75684E+06    -107.922E-03     216.081E-03    -108.159E-03     12.3914E-03    -108.081E-03     215.501E-03    -108.247E-03     12.2145E-03
            1073     2.42310E-03     116.673E-03    -106.127E+06    -162.854E+06    -85.4792E+06    -5.47662E+06    -107.597E-03     215.679E-03    -108.082E-03     18.0246E-03    -107.774E-03     215.149E-03    -108.119E-03     17.7646E-03
            1074     3.23136E-03     116.695E-03    -98.1049E+06    -145.257E+06    -66.9377E+06    -7.10003E+06    -107.201E-03     215.174E-03    -107.972E-03     23.3457E-03    -107.395E-03     214.698E-03    -107.954E-03     23.0040E-03
            1075     4.04002E-03     116.721E-03    -89.3405E+06    -127.846E+06    -48.9696E+06    -8.59254E+06    -106.770E-03     214.601E-03    -107.831E-03     28.2404E-03    -106.977E-03     214.179E-03    -107.761E-03     27.8194E-03
            1076     4.84908E-03     116.753E-03    -80.4264E+06    -111.439E+06    -32.8380E+06    -9.93649E+06    -106.332E-03     213.994E-03    -107.662E-03     32.6425E-03    -106.548E-03     213.624E-03    -107.548E-03     32.1447E-03
            1077     5.65859E-03     116.789E-03    -71.7199E+06    -96.5078E+06    -18.8595E+06    -11.0731E+06    -105.912E-03     213.385E-03    -107.473E-03     36.5273E-03    -106.133E-03     213.064E-03    -107.324E-03     35.9557E-03
            1078     6.46846E-03     116.829E-03    -63.3991E+06    -82.8647E+06    -6.90269E+06    -11.9891E+06    -105.526E-03     212.800E-03    -107.273E-03     39.9024E-03    -105.750E-03     212.525E-03    -107.096E-03     39.2591E-03
            1079     7.27873E-03     116.872E-03    -55.5534E+06    -70.2369E+06     3.37158E+06    -12.6729E+06    -105.186E-03     212.255E-03    -107.069E-03     42.7960E-03    -105.412E-03     212.025E-03    -106.870E-03     42.0825E-03
            1080     8.08925E-03     116.918E-03    -48.2246E+06    -58.2635E+06     12.2776E+06    -13.0563E+06    -104.887E-03     211.754E-03    -106.867E-03     45.2425E-03    -105.116E-03     211.569E-03    -106.651E-03     44.4601E-03
            1081     8.90011E-03     116.967E-03    -41.4567E+06    -46.7842E+06     20.0239E+06    -13.1332E+06    -104.619E-03     211.288E-03    -106.669E-03     47.1715E-03    -104.852E-03     211.149E-03    -106.441E-03     46.3219E-03
            1082     9.71114E-03     117.017E-03    -35.2249E+06    -33.9703E+06     27.0793E+06    -12.8872E+06    -104.365E-03     210.841E-03    -106.476E-03     48.5386E-03    -104.605E-03     210.757E-03    -106.240E-03     47.6239E-03
            1083     10.5225E-03     117.068E-03    -29.5376E+06    -22.1742E+06     33.2602E+06    -12.2881E+06    -104.130E-03     210.422E-03    -106.292E-03     49.3972E-03    -104.378E-03     210.390E-03    -106.051E-03     48.4164E-03
            1084     11.3339E-03     117.120E-03    -24.4117E+06    -4.39183E+06     39.8504E+06    -11.5134E+06    -103.888E-03     209.999E-03    -106.112E-03     49.6505E-03    -104.157E-03     210.051E-03    -105.871E-03     48.6017E-03
            1085     12.1457E-03     117.172E-03    -19.8531E+06     10.1117E+06     45.0752E+06    -10.7145E+06    -103.707E-03     209.649E-03    -105.942E-03     48.9463E-03    -103.993E-03     209.769E-03    -105.702E-03     47.8225E-03
            1086     12.9573E-03     117.222E-03    -15.9405E+06     45.0706E+06     53.7544E+06    -10.0288E+06    -103.543E-03     209.319E-03    -105.776E-03     46.9705E-03    -103.882E-03     209.605E-03    -105.549E-03     45.7711E-03
            1087     13.7692E-03     117.270E-03    -12.2199E+06     73.2654E+06     60.1150E+06    -8.85497E+06    -103.545E-03     209.174E-03    -105.629E-03     42.7766E-03    -103.918E-03     209.589E-03    -105.417E-03     41.5115E-03
            1088     14.5806E-03     117.311E-03    -8.59397E+06     83.8312E+06     63.7994E+06    -6.48777E+06    -103.763E-03     209.286E-03    -105.523E-03     36.7547E-03    -104.142E-03     209.747E-03    -105.313E-03     35.4051E-03
            1089     15.3920E-03     117.346E-03    -4.52813E+06     99.4660E+06     80.2117E+06    -3.21274E+06    -104.020E-03     209.525E-03    -105.505E-03     25.6000E-03    -104.391E-03     210.001E-03    -105.242E-03     24.4200E-03
            1090     808.036E-06     117.823E-03    -116.158E+06    -184.414E+06    -113.311E+06    -2.40454E+06    -107.547E-03     215.096E-03    -107.549E-03     6.92638E-03    -107.697E-03     214.507E-03    -107.680E-03     6.83427E-03
            1091     1.61618E-03     117.833E-03    -111.734E+06    -173.021E+06    -101.233E+06    -4.36745E+06    -107.338E-03     214.879E-03    -107.541E-03     12.5826E-03    -107.502E-03     214.325E-03    -107.634E-03     12.4139E-03
            1092     2.42455E-03     117.848E-03    -105.148E+06    -157.322E+06    -84.5588E+06    -6.31573E+06    -107.070E-03     214.554E-03    -107.484E-03     18.3002E-03    -107.251E-03     214.048E-03    -107.526E-03     18.0520E-03
            1093     3.23321E-03     117.869E-03    -97.1732E+06    -140.006E+06    -66.1178E+06    -8.13839E+06    -106.747E-03     214.147E-03    -107.400E-03     23.7027E-03    -106.944E-03     213.693E-03    -107.386E-03     23.3756E-03
            1094     4.04219E-03     117.896E-03    -88.4024E+06    -122.945E+06    -48.2261E+06    -9.80182E+06    -106.399E-03     213.687E-03    -107.289E-03     28.6785E-03    -106.607E-03     213.285E-03    -107.223E-03     28.2740E-03
            1095     4.85153E-03     117.927E-03    -79.5293E+06    -106.962E+06    -32.1471E+06    -11.2406E+06    -106.047E-03     213.201E-03    -107.154E-03     33.1659E-03    -106.263E-03     212.849E-03    -107.044E-03     32.6862E-03
            1096     5.66120E-03     117.962E-03    -70.9364E+06    -92.5094E+06    -18.2678E+06    -12.4504E+06    -105.710E-03     212.712E-03    -107.002E-03     37.1437E-03    -105.931E-03     212.406E-03    -106.856E-03     36.5911E-03
            1097     6.47123E-03     118.001E-03    -62.6731E+06    -79.3743E+06    -6.39651E+06    -13.3994E+06    -105.399E-03     212.238E-03    -106.839E-03     40.6210E-03    -105.623E-03     211.976E-03    -106.665E-03     39.9974E-03
            1098     7.28152E-03     118.044E-03    -54.9392E+06    -67.3154E+06     3.77327E+06    -14.0511E+06    -105.121E-03     211.792E-03    -106.670E-03     43.6198E-03    -105.346E-03     211.572E-03    -106.474E-03     42.9270E-03
            1099     8.09214E-03     118.089E-03    -47.7770E+06    -56.0264E+06     12.5203E+06    -14.3604E+06    -104.870E-03     211.372E-03    -106.502E-03     46.1589E-03    -105.097E-03     211.194E-03    -106.289E-03     45.3984E-03
            1100     8.90294E-03     118.137E-03    -41.1559E+06    -45.1599E+06     20.1127E+06    -14.3171E+06    -104.638E-03     210.973E-03    -106.335E-03     48.1606E-03    -104.868E-03     210.838E-03    -106.109E-03     47.3349E-03
            1101     9.71405E-03     118.187E-03    -35.1119E+06    -33.1495E+06     26.9704E+06    -13.8505E+06    -104.418E-03     210.590E-03    -106.171E-03     49.5752E-03    -104.655E-03     210.506E-03    -105.938E-03     48.6873E-03
            1102     10.5253E-03     118.238E-03    -29.6259E+06    -21.9820E+06     32.9520E+06    -13.0072E+06    -104.226E-03     210.240E-03    -106.014E-03     50.4398E-03    -104.471E-03     210.206E-03    -105.774E-03     49.4887E-03
            1103     11.3368E-03     118.289E-03    -24.6666E+06    -4.66798E+06     39.3626E+06    -11.7994E+06    -104.048E-03     209.909E-03    -105.861E-03     50.6658E-03    -104.314E-03     209.956E-03    -105.621E-03     49.6511E-03
            1104     12.1482E-03     118.341E-03    -20.3182E+06     9.75912E+06     44.5660E+06    -10.4825E+06    -103.962E-03     209.681E-03    -105.720E-03     49.9369E-03    -104.245E-03     209.798E-03    -105.481E-03     48.8508E-03
            1105     12.9599E-03     118.391E-03    -16.3967E+06     44.7090E+06     53.3488E+06    -9.09634E+06    -103.929E-03     209.515E-03    -105.586E-03     47.9500E-03    -104.265E-03     209.797E-03    -105.360E-03     46.7915E-03
            1106     13.7712E-03     118.439E-03    -12.8387E+06     72.2075E+06     59.4988E+06    -7.92144E+06    -104.090E-03     209.566E-03    -105.476E-03     43.7394E-03    -104.462E-03     209.976E-03    -105.265E-03     42.5062E-03
            1107     14.5824E-03     118.481E-03    -9.03016E+06     80.5218E+06     62.6104E+06    -6.25615E+06    -104.481E-03     209.894E-03    -105.413E-03     37.6637E-03    -104.856E-03     210.341E-03    -105.203E-03     36.3271E-03
            1108     15.3928E-03     118.516E-03    -4.78724E+06     94.6704E+06     78.5593E+06    -3.27853E+06    -104.885E-03     210.326E-03    -105.441E-03     26.3419E-03    -105.249E-03     210.781E-03    -105.178E-03     25.1622E-03
            1109     808.748E-06     118.998E-03    -115.090E+06    -177.653E+06    -112.262E+06    -2.72569E+06    -106.678E-03     213.342E-03    -106.664E-03     7.05222E-03    -106.834E-03     212.784E-03    -106.801E-03     6.96469E-03
            1110     1.61760E-03     119.007E-03    -110.758E+06    -166.472E+06    -100.342E+06    -4.91245E+06    -106.523E-03     213.198E-03    -106.676E-03     12.8151E-03    -106.692E-03     212.674E-03    -106.775E-03     12.6550E-03
            1111     2.42659E-03     119.022E-03    -104.317E+06    -151.103E+06    -83.8652E+06    -7.07225E+06    -106.336E-03     212.982E-03    -106.646E-03     18.6490E-03    -106.521E-03     212.504E-03    -106.695E-03     18.4132E-03
            1112     3.23580E-03     119.043E-03    -96.4977E+06    -134.140E+06    -65.6045E+06    -9.06506E+06    -106.111E-03     212.709E-03    -106.598E-03     24.1759E-03    -106.312E-03     212.282E-03    -106.592E-03     23.8648E-03
            1113     4.04525E-03     119.068E-03    -87.9869E+06    -117.487E+06    -47.9018E+06    -10.8721E+06    -105.867E-03     212.396E-03    -106.529E-03     29.2865E-03    -106.080E-03     212.019E-03    -106.471E-03     28.9008E-03
            1114     4.85495E-03     119.099E-03    -79.3264E+06    -102.059E+06    -32.0149E+06    -12.4346E+06    -105.620E-03     212.060E-03    -106.439E-03     33.9205E-03    -105.841E-03     211.729E-03    -106.336E-03     33.4620E-03
            1115     5.66494E-03     119.134E-03    -70.9015E+06    -88.2069E+06    -18.2731E+06    -13.6518E+06    -105.382E-03     211.715E-03    -106.333E-03     38.0553E-03    -105.606E-03     211.428E-03    -106.194E-03     37.5268E-03
            1116     6.47515E-03     119.172E-03    -62.9679E+06    -75.6493E+06    -6.56886E+06    -14.5609E+06    -105.160E-03     211.376E-03    -106.216E-03     41.6970E-03    -105.387E-03     211.130E-03    -106.048E-03     41.1006E-03
            1117     7.28565E-03     119.215E-03    -55.5709E+06    -64.2450E+06     3.37949E+06    -15.1676E+06    -104.961E-03     211.054E-03    -106.093E-03     44.8518E-03    -105.190E-03     210.847E-03    -105.902E-03     44.1887E-03
            1118     8.09632E-03     119.259E-03    -48.7125E+06    -53.7269E+06     11.8703E+06    -15.3939E+06    -104.783E-03     210.749E-03    -105.967E-03     47.5156E-03    -105.013E-03     210.582E-03    -105.759E-03     46.7877E-03
            1119     8.90725E-03     119.307E-03    -42.4347E+06    -43.5566E+06     19.1882E+06    -15.2349E+06    -104.625E-03     210.466E-03    -105.841E-03     49.6073E-03    -104.859E-03     210.339E-03    -105.621E-03     48.8168E-03
            1120     9.71829E-03     119.356E-03    -36.6538E+06    -32.5091E+06     25.7423E+06    -14.6291E+06    -104.494E-03     210.213E-03    -105.718E-03     51.0669E-03    -104.734E-03     210.132E-03    -105.489E-03     50.2162E-03
            1121     10.5295E-03     119.407E-03    -31.3334E+06    -21.9899E+06     31.4892E+06    -13.5967E+06    -104.412E-03     210.015E-03    -105.603E-03     51.9185E-03    -104.660E-03     209.982E-03    -105.368E-03     51.0065E-03
            1122     11.3408E-03     119.458E-03    -26.3443E+06    -5.43641E+06     37.7045E+06    -12.2255E+06    -104.374E-03     209.868E-03    -105.494E-03     52.0879E-03    -104.640E-03     209.912E-03    -105.260E-03     51.1122E-03
            1123     12.1521E-03     119.510E-03    -21.5894E+06     8.67713E+06     43.0449E+06    -10.5469E+06    -104.449E-03     209.852E-03    -105.402E-03     51.3037E-03    -104.731E-03     209.963E-03    -105.169E-03     50.2573E-03
            1124     12.9631E-03     119.560E-03    -17.1091E+06     43.4668E+06     52.1250E+06    -8.78144E+06    -104.591E-03     209.913E-03    -105.323E-03     49.2889E-03    -104.924E-03     210.189E-03    -105.100E-03     48.1682E-03
            1125     13.7741E-03     119.608E-03    -12.7189E+06     71.5201E+06     58.9281E+06    -7.35019E+06    -104.931E-03     210.203E-03    -105.271E-03     45.0594E-03    -105.299E-03     210.609E-03    -105.062E-03     43.8574E-03
            1126     14.5843E-03     119.651E-03    -8.80386E+06     78.3487E+06     62.3544E+06    -6.11846E+06    -105.507E-03     210.780E-03    -105.273E-03     38.9162E-03    -105.876E-03     211.215E-03    -105.062E-03     37.5943E-03
            1127     15.3942E-03     119.687E-03    -4.59286E+06     89.8118E+06     77.4517E+06    -3.59686E+06    -106.063E-03     211.427E-03    -105.364E-03     27.3357E-03    -106.417E-03     211.860E-03    -105.101E-03     26.1529E-03
            1128     809.661E-06     120.170E-03    -114.124E+06    -170.214E+06    -111.333E+06    -2.94974E+06    -105.593E-03     211.152E-03    -105.560E-03     7.19747E-03    -105.756E-03     210.629E-03    -105.704E-03     7.11493E-03
            1129     1.61936E-03     120.179E-03    -109.982E+06    -159.325E+06    -99.7102E+06    -5.29617E+06    -105.488E-03     211.079E-03    -105.591E-03     13.0912E-03    -105.664E-03     210.589E-03    -105.699E-03     12.9405E-03
            1130     2.42916E-03     120.194E-03    -103.788E+06    -144.341E+06    -83.5285E+06    -7.59206E+06    -105.380E-03     210.969E-03    -105.589E-03     19.0778E-03    -105.573E-03     210.523E-03    -105.647E-03     18.8563E-03
            1131     3.23910E-03     120.214E-03    -96.2949E+06    -127.828E+06    -65.5315E+06    -9.68213E+06    -105.251E-03     210.827E-03    -105.577E-03     24.7789E-03    -105.459E-03     210.430E-03    -105.579E-03     24.4870E-03
            1132     4.04918E-03     120.240E-03    -88.1781E+06    -111.638E+06    -48.0753E+06    -11.5356E+06    -105.112E-03     210.661E-03    -105.548E-03     30.0863E-03    -105.333E-03     210.311E-03    -105.499E-03     29.7252E-03
            1133     4.85945E-03     120.270E-03    -79.9049E+06    -96.8314E+06    -32.4332E+06    -13.1028E+06    -104.974E-03     210.477E-03    -105.503E-03     34.9377E-03    -105.202E-03     210.172E-03    -105.409E-03     34.5091E-03
            1134     5.66989E-03     120.304E-03    -71.8679E+06    -83.7061E+06    -18.9623E+06    -14.3352E+06    -104.844E-03     210.287E-03    -105.444E-03     39.3039E-03    -105.076E-03     210.022E-03    -105.313E-03     38.8099E-03
            1135     6.48053E-03     120.343E-03    -64.4106E+06    -71.7893E+06    -7.52835E+06    -15.2082E+06    -104.731E-03     210.106E-03    -105.375E-03     43.1789E-03    -104.967E-03     209.879E-03    -105.215E-03     42.6216E-03
            1136     7.29129E-03     120.384E-03    -57.5369E+06    -61.1378E+06     2.09639E+06    -15.7065E+06    -104.647E-03     209.947E-03    -105.300E-03     46.5435E-03    -104.885E-03     209.758E-03    -105.117E-03     45.9245E-03
            1137     8.10224E-03     120.429E-03    -51.1748E+06    -51.3323E+06     10.2581E+06    -15.8681E+06    -104.596E-03     209.821E-03    -105.225E-03     49.3672E-03    -104.836E-03     209.667E-03    -105.025E-03     48.6871E-03
            1138     8.91323E-03     120.476E-03    -45.2466E+06     -41.883E+06     17.2819E+06    -15.7304E+06    -104.585E-03     209.737E-03    -105.153E-03     51.5653E-03    -104.828E-03     209.621E-03    -104.940E-03     50.8240E-03
            1139     9.72436E-03     120.526E-03    -39.6639E+06    -31.7574E+06     23.5770E+06    -15.2111E+06    -104.628E-03     209.715E-03    -105.087E-03     53.0674E-03    -104.876E-03     209.642E-03    -104.866E-03     52.2650E-03
            1140     10.5354E-03     120.576E-03    -34.2306E+06    -21.9103E+06     29.2269E+06    -14.3703E+06    -104.748E-03     209.782E-03    -105.035E-03     53.8894E-03    -105.001E-03     209.752E-03    -104.807E-03     53.0219E-03
            1141     11.3464E-03     120.627E-03    -28.8482E+06    -6.17464E+06     35.4761E+06    -13.1378E+06    -104.932E-03     209.927E-03    -104.996E-03     53.9735E-03    -105.201E-03     209.970E-03    -104.767E-03     53.0372E-03
            1142     12.1571E-03     120.679E-03    -23.4982E+06     7.40178E+06     41.1233E+06    -11.6645E+06    -105.231E-03     210.210E-03    -104.979E-03     53.0880E-03    -105.514E-03     210.317E-03    -104.751E-03     52.0728E-03
            1143     12.9677E-03     120.730E-03    -18.0818E+06     41.5808E+06     50.6828E+06    -9.68283E+06    -105.583E-03     210.563E-03    -104.980E-03     50.9813E-03    -105.913E-03     210.829E-03    -104.761E-03     49.8859E-03
            1144     13.7776E-03     120.779E-03    -13.0485E+06     70.4742E+06     58.3160E+06    -7.84961E+06    -106.112E-03     211.124E-03    -105.012E-03     46.6587E-03    -106.477E-03     211.524E-03    -104.803E-03     45.4756E-03
            1145     14.5871E-03     120.822E-03    -8.38754E+06     76.4838E+06     62.8292E+06    -6.21820E+06    -106.869E-03     211.970E-03    -105.101E-03     40.3696E-03    -107.233E-03     212.394E-03    -104.886E-03     39.0588E-03
            1146     15.3954E-03     120.860E-03    -4.30528E+06     85.0423E+06     76.9181E+06    -3.52173E+06    -107.571E-03     212.846E-03    -105.275E-03     28.4662E-03    -107.917E-03     213.256E-03    -105.007E-03     27.2832E-03
            1147     810.686E-06     121.339E-03    -113.596E+06    -162.455E+06    -110.818E+06    -3.00126E+06    -104.313E-03     208.578E-03    -104.265E-03     7.37063E-03    -104.486E-03     208.092E-03    -104.419E-03     7.29480E-03
            1148     1.62143E-03     121.348E-03    -109.702E+06    -151.892E+06    -99.5643E+06    -5.38532E+06    -104.241E-03     208.551E-03    -104.310E-03     13.4262E-03    -104.426E-03     208.097E-03    -104.429E-03     13.2881E-03
            1149     2.43221E-03     121.363E-03    -103.907E+06    -137.357E+06    -83.7968E+06    -7.69324E+06    -104.186E-03     208.511E-03    -104.326E-03     19.6054E-03    -104.388E-03     208.100E-03    -104.395E-03     19.4031E-03
            1150     3.24308E-03     121.383E-03    -96.8547E+06    -121.349E+06    -66.1507E+06    -9.76293E+06    -104.126E-03     208.463E-03    -104.336E-03     25.5324E-03    -104.345E-03     208.098E-03    -104.351E-03     25.2670E-03
            1151     4.05404E-03     121.409E-03     -89.216E+06    -105.731E+06    -48.9862E+06    -11.5453E+06    -104.072E-03     208.409E-03    -104.337E-03     31.0989E-03    -104.304E-03     208.091E-03    -104.299E-03     30.7724E-03
            1152     4.86510E-03     121.439E-03    -81.5284E+06    -91.5769E+06    -33.6253E+06    -13.0078E+06    -104.034E-03     208.360E-03    -104.326E-03     36.2378E-03    -104.274E-03     208.083E-03    -104.243E-03     35.8520E-03
            1153     5.67627E-03     121.473E-03    -74.1740E+06    -79.0910E+06    -20.5071E+06    -14.1775E+06    -104.023E-03     208.329E-03    -104.306E-03     40.9078E-03    -104.268E-03     208.090E-03    -104.187E-03     40.4639E-03
            1154     6.48750E-03     121.511E-03    -67.2381E+06    -67.9537E+06    -9.43307E+06    -15.0025E+06    -104.055E-03     208.337E-03    -104.282E-03     45.0832E-03    -104.304E-03     208.133E-03    -104.133E-03     44.5824E-03
            1155     7.29881E-03     121.553E-03    -60.8614E+06    -57.9949E+06    -95.4826E+03    -15.4859E+06    -104.148E-03     208.407E-03    -104.259E-03     48.7098E-03    -104.400E-03     208.237E-03    -104.088E-03     48.1523E-03
            1156     8.11007E-03     121.598E-03    -54.9220E+06    -48.7139E+06     7.84715E+06    -15.7796E+06    -104.308E-03     208.553E-03    -104.244E-03     51.7250E-03    -104.563E-03     208.416E-03    -104.055E-03     51.1082E-03
            1157     8.92131E-03     121.645E-03    -49.1105E+06    -39.7893E+06     14.7736E+06    -15.9544E+06    -104.546E-03     208.788E-03    -104.242E-03     54.0396E-03    -104.803E-03     208.686E-03    -104.039E-03     53.3591E-03
            1158     9.73232E-03     121.694E-03    -43.3472E+06    -30.4757E+06     21.0669E+06    -15.8926E+06    -104.874E-03     209.131E-03    -104.257E-03     55.5722E-03    -105.134E-03     209.068E-03    -104.045E-03     54.8241E-03
            1159     10.5432E-03     121.745E-03    -37.5528E+06    -21.0926E+06     26.8818E+06    -15.6132E+06    -105.300E-03     209.595E-03    -104.295E-03     56.3298E-03    -105.563E-03     209.572E-03    -104.076E-03     55.5065E-03
            1160     11.3536E-03     121.797E-03    -31.5458E+06    -6.38309E+06     33.3149E+06    -14.9785E+06    -105.795E-03     210.151E-03    -104.356E-03     56.2615E-03    -106.070E-03     210.195E-03    -104.134E-03     55.3561E-03
            1161     12.1637E-03     121.849E-03    -25.4831E+06     6.42084E+06     39.2791E+06    -13.7270E+06    -106.383E-03     210.829E-03    -104.447E-03     55.1728E-03    -106.667E-03     210.932E-03    -104.223E-03     54.1778E-03
            1162     12.9730E-03     121.900E-03    -19.5332E+06     39.4390E+06     49.0882E+06    -11.8409E+06    -106.979E-03     211.538E-03    -104.559E-03     52.8572E-03    -107.308E-03     211.795E-03    -104.342E-03     51.7694E-03
            1163     13.7821E-03     121.950E-03    -13.6686E+06     68.2410E+06     57.2650E+06    -9.31691E+06    -107.691E-03     212.391E-03    -104.701E-03     48.3535E-03    -108.052E-03     212.781E-03    -104.493E-03     47.1735E-03
            1164     14.5899E-03     121.995E-03    -8.86752E+06     73.8161E+06     62.5252E+06    -6.72283E+06    -108.566E-03     213.466E-03    -104.900E-03     41.8825E-03    -108.928E-03     213.878E-03    -104.681E-03     40.5736E-03
            1165     15.3973E-03     122.034E-03    -4.33160E+06     80.1613E+06     76.4516E+06    -3.60441E+06    -109.334E-03     214.509E-03    -105.175E-03     29.6588E-03    -109.673E-03     214.896E-03    -104.903E-03     28.4696E-03
            1166     811.892E-06     122.505E-03    -114.397E+06    -154.896E+06    -111.660E+06    -2.82400E+06    -102.831E-03     205.607E-03    -102.776E-03     7.58905E-03    -103.017E-03     205.160E-03    -102.944E-03     7.52349E-03
            1167     1.62379E-03     122.514E-03    -110.817E+06    -144.631E+06    -100.738E+06    -5.08492E+06    -102.765E-03     205.590E-03    -102.825E-03     13.8457E-03    -102.965E-03     205.175E-03    -102.958E-03     13.7263E-03
            1168     2.43576E-03     122.529E-03    -105.402E+06    -130.580E+06    -85.3625E+06    -7.25200E+06    -102.728E-03     205.573E-03    -102.844E-03     20.2621E-03    -102.945E-03     205.199E-03    -102.929E-03     20.0878E-03
            1169     3.24778E-03     122.549E-03    -98.8551E+06    -115.094E+06    -68.0868E+06    -9.16647E+06    -102.702E-03     205.565E-03    -102.862E-03     26.4639E-03    -102.936E-03     205.237E-03    -102.893E-03     26.2366E-03
            1170     4.05988E-03     122.575E-03    -91.7712E+06    -100.109E+06    -51.1885E+06    -10.7819E+06    -102.707E-03     205.583E-03    -102.876E-03     32.3419E-03    -102.954E-03     205.298E-03    -102.854E-03     32.0637E-03
            1171     4.87203E-03     122.605E-03    -84.6796E+06    -86.6214E+06    -36.0600E+06    -12.0589E+06    -102.762E-03     205.649E-03    -102.886E-03     37.8219E-03    -103.019E-03     205.402E-03    -102.818E-03     37.4947E-03
            1172     5.68419E-03     122.639E-03    -77.8784E+06    -74.6262E+06    -23.1144E+06    -13.0912E+06    -102.892E-03     205.789E-03    -102.897E-03     42.8454E-03    -103.156E-03     205.578E-03    -102.792E-03     42.4693E-03
            1173     6.49632E-03     122.677E-03    -71.3904E+06     -64.079E+06    -12.1883E+06    -13.9795E+06    -103.124E-03     206.040E-03    -102.916E-03     47.3648E-03    -103.391E-03     205.861E-03    -102.781E-03     46.9373E-03
            1174     7.30830E-03     122.719E-03    -65.1504E+06    -54.6041E+06    -2.90940E+06    -14.7408E+06    -103.478E-03     206.429E-03    -102.952E-03     51.2854E-03    -103.747E-03     206.282E-03    -102.792E-03     50.8024E-03
            1175     8.12008E-03     122.764E-03    -59.0497E+06    -45.4911E+06     5.18528E+06    -15.5148E+06    -103.959E-03     206.970E-03    -103.011E-03     54.5052E-03    -104.230E-03     206.855E-03    -102.834E-03     53.9597E-03
            1176     8.93146E-03     122.812E-03    -52.8744E+06    -36.8417E+06     12.3590E+06    -16.3587E+06    -104.570E-03     207.671E-03    -103.101E-03     56.9287E-03    -104.841E-03     207.588E-03    -102.909E-03     56.3114E-03
            1177     9.74245E-03     122.862E-03    -46.5598E+06    -28.0540E+06     18.9174E+06    -17.1309E+06    -105.305E-03     208.530E-03    -103.225E-03     58.4610E-03    -105.576E-03     208.482E-03    -103.022E-03     57.7629E-03
            1178     10.5528E-03     122.914E-03    -40.0126E+06    -19.2117E+06     25.0394E+06    -17.6566E+06    -106.146E-03     209.533E-03    -103.386E-03     59.0960E-03    -106.417E-03     209.520E-03    -103.175E-03     58.3074E-03
            1179     11.3625E-03     122.966E-03    -33.4120E+06    -5.65936E+06     31.6311E+06    -17.5733E+06    -107.036E-03     210.618E-03    -103.582E-03     58.7975E-03    -107.314E-03     210.666E-03    -103.367E-03     57.9120E-03
            1180     12.1713E-03     123.020E-03    -26.8190E+06     5.78768E+06     37.6336E+06    -16.7344E+06    -107.959E-03     211.773E-03    -103.814E-03     57.4162E-03    -108.242E-03     211.873E-03    -103.596E-03     56.4260E-03
            1181     12.9796E-03     123.073E-03    -20.3488E+06     37.0388E+06     47.4207E+06    -14.5492E+06    -108.798E-03     212.866E-03    -104.068E-03     54.8248E-03    -109.121E-03     213.112E-03    -103.856E-03     53.7340E-03
            1182     13.7867E-03     123.124E-03    -14.5897E+06     64.6546E+06     55.5306E+06    -11.3855E+06    -109.641E-03     213.989E-03    -104.348E-03     50.1182E-03    -109.998E-03     214.362E-03    -104.143E-03     48.9299E-03
            1183     14.5934E-03     123.170E-03    -9.22095E+06     69.7016E+06     61.3270E+06    -7.75647E+06    -110.548E-03     215.223E-03    -104.675E-03     43.4643E-03    -110.904E-03     215.616E-03    -104.456E-03     42.1473E-03
            1184     15.3987E-03     123.211E-03    -4.70619E+06     75.0072E+06     75.6042E+06    -3.89135E+06    -111.279E-03     216.345E-03    -105.066E-03     30.9252E-03    -111.613E-03     216.710E-03    -104.790E-03     29.7242E-03
            1185     813.239E-06     123.667E-03    -118.463E+06    -147.961E+06    -115.760E+06    -2.55918E+06    -101.096E-03     202.141E-03    -101.045E-03     7.86802E-03    -101.307E-03     201.741E-03    -101.237E-03     7.81557E-03
            1186     1.62655E-03     123.677E-03    -114.962E+06    -138.034E+06    -104.981E+06    -4.51982E+06    -101.021E-03     202.110E-03    -101.089E-03     14.3747E-03    -101.245E-03     201.740E-03    -101.247E-03     14.2805E-03
            1187     2.43990E-03     123.691E-03    -109.775E+06    -124.396E+06    -89.7142E+06    -6.41542E+06    -100.979E-03     202.082E-03    -101.103E-03     21.0740E-03    -101.220E-03     201.752E-03    -101.212E-03     20.9372E-03
            1188     3.25335E-03     123.712E-03    -103.413E+06    -109.430E+06    -72.4044E+06    -8.09073E+06    -100.968E-03     202.087E-03    -101.120E-03     27.5895E-03    -101.225E-03     201.799E-03    -101.173E-03     27.4115E-03
            1189     4.06684E-03     123.737E-03    -96.4921E+06    -95.0607E+06    -55.3590E+06    -9.46494E+06    -101.025E-03     202.164E-03    -101.139E-03     33.8075E-03    -101.296E-03     201.915E-03    -101.138E-03     33.5902E-03
            1190     4.88034E-03     123.767E-03    -89.4325E+06    -82.0947E+06    -39.9665E+06    -10.6120E+06    -101.193E-03     202.358E-03    -101.165E-03     39.6441E-03    -101.472E-03     202.144E-03    -101.116E-03     39.3877E-03
            1191     5.69377E-03     123.802E-03    -82.4421E+06    -70.3468E+06    -26.6405E+06    -11.7021E+06    -101.509E-03     202.717E-03    -101.208E-03     45.0244E-03    -101.793E-03     202.536E-03    -101.120E-03     44.7253E-03
            1192     6.50697E-03     123.841E-03    -75.6190E+06    -59.9299E+06    -15.3045E+06    -12.8818E+06    -102.012E-03     203.290E-03    -101.278E-03     49.8823E-03    -102.298E-03     203.139E-03    -101.158E-03     49.5332E-03
            1193     7.31982E-03     123.883E-03    -68.7409E+06    -50.4964E+06    -5.56594E+06    -14.2555E+06    -102.723E-03     204.109E-03    -101.386E-03     54.0851E-03    -103.007E-03     203.986E-03    -101.241E-03     53.6760E-03
            1194     8.13208E-03     123.929E-03    -61.8110E+06    -41.2833E+06     3.05770E+06    -15.8170E+06    -103.634E-03     205.175E-03    -101.542E-03     57.4959E-03    -103.916E-03     205.083E-03    -101.377E-03     57.0155E-03
            1195     8.94367E-03     123.978E-03    -54.8801E+06    -32.6652E+06     10.7353E+06    -17.4976E+06    -104.730E-03     206.481E-03    -101.751E-03     60.0148E-03    -105.010E-03     206.419E-03    -101.570E-03     59.4503E-03
            1196     9.75431E-03     124.029E-03    -47.8545E+06    -24.2685E+06     17.6900E+06    -19.0900E+06    -105.978E-03     207.994E-03    -102.015E-03     61.5310E-03    -106.254E-03     207.962E-03    -101.822E-03     60.8712E-03
            1197     10.5640E-03     124.082E-03    -40.8836E+06    -16.0315E+06     24.0351E+06    -20.4011E+06    -107.316E-03     209.650E-03    -102.334E-03     62.0261E-03    -107.589E-03     209.651E-03    -102.131E-03     61.2595E-03
            1198     11.3725E-03     124.137E-03    -33.7688E+06    -4.13981E+06     30.6398E+06    -20.8960E+06    -108.647E-03     211.345E-03    -102.698E-03     61.4825E-03    -108.923E-03     211.398E-03    -102.490E-03     60.6036E-03
            1199     12.1801E-03     124.192E-03    -26.8720E+06     5.59981E+06     36.5436E+06    -20.1497E+06    -109.907E-03     213.010E-03    -103.103E-03     59.7962E-03    -110.185E-03     213.107E-03    -102.889E-03     58.8027E-03
            1200     12.9864E-03     124.246E-03    -20.3714E+06     33.9302E+06     45.8192E+06    -17.7406E+06    -110.953E-03     214.478E-03    -103.525E-03     56.9056E-03    -111.267E-03     214.707E-03    -103.315E-03     55.8037E-03
            1201     13.7922E-03     124.299E-03    -14.2961E+06     59.5464E+06     53.8392E+06    -13.4075E+06    -111.872E-03     215.834E-03    -103.962E-03     51.9836E-03    -112.216E-03     216.182E-03    -103.758E-03     50.7871E-03
            1202     14.5966E-03     124.347E-03    -9.48616E+06     64.7060E+06     59.6919E+06    -9.02675E+06    -112.744E-03     217.174E-03    -104.430E-03     45.1323E-03    -113.091E-03     217.545E-03    -104.212E-03     43.8032E-03
            1203     15.4008E-03     124.389E-03    -4.52907E+06     69.0835E+06     74.2067E+06    -4.74414E+06    -113.380E-03     218.326E-03    -104.946E-03     32.2766E-03    -113.703E-03     218.664E-03    -104.669E-03     31.0545E-03
            1204     814.881E-06     124.826E-03    -128.671E+06    -141.468E+06    -126.048E+06    -2.51464E+06    -99.0367E-03     198.031E-03    -98.9939E-03     8.21486E-03    -99.2925E-03     197.693E-03    -99.2324E-03     8.17479E-03
            1205     1.62979E-03     124.835E-03    -124.766E+06    -131.986E+06    -114.848E+06    -4.43036E+06    -98.9606E-03     197.993E-03    -99.0325E-03     15.0159E-03    -99.2272E-03     197.681E-03    -99.2345E-03     14.9444E-03
            1206     2.44481E-03     124.850E-03    -118.753E+06    -118.782E+06    -98.7521E+06    -6.19216E+06    -98.9260E-03     197.973E-03    -99.0472E-03     22.0316E-03    -99.2056E-03     197.695E-03    -99.1965E-03     21.9291E-03
            1207     3.25990E-03     124.870E-03    -111.422E+06    -104.370E+06    -80.2792E+06    -7.68309E+06    -98.9551E-03     198.026E-03    -99.0706E-03     28.8727E-03    -99.2467E-03     197.784E-03    -99.1591E-03     28.7408E-03
            1208     4.07503E-03     124.895E-03    -103.324E+06    -90.5157E+06    -61.9213E+06    -8.93447E+06    -99.1101E-03     198.218E-03    -99.1076E-03     35.4188E-03    -99.4092E-03     198.008E-03    -99.1362E-03     35.2576E-03
            1209     4.89008E-03     124.926E-03    -94.8809E+06    -77.6736E+06    -45.2371E+06    -10.1895E+06    -99.4502E-03     198.617E-03    -99.1668E-03     41.5791E-03    -99.7518E-03     198.437E-03    -99.1428E-03     41.3844E-03
            1210     5.70489E-03     124.961E-03    -86.3515E+06    -65.9485E+06    -30.7367E+06    -11.5683E+06    -100.027E-03     199.288E-03    -99.2611E-03     47.2656E-03    -100.327E-03     199.136E-03    -99.1940E-03     47.0297E-03
            1211     6.51926E-03     125.001E-03    -77.8781E+06    -55.2863E+06    -18.2584E+06    -13.1402E+06    -100.880E-03     200.286E-03    -99.4056E-03     52.4038E-03    -101.175E-03     200.160E-03    -99.3038E-03     52.1160E-03
            1212     7.33293E-03     125.044E-03    -69.7045E+06    -45.4054E+06    -7.50271E+06    -15.0732E+06    -102.022E-03     201.635E-03    -99.6134E-03     56.8368E-03    -102.310E-03     201.537E-03    -99.4840E-03     56.4829E-03
            1213     8.14569E-03     125.092E-03    -61.7082E+06    -35.9554E+06     1.95618E+06    -17.3053E+06    -103.430E-03     203.324E-03    -99.8933E-03     60.4119E-03    -103.713E-03     203.254E-03    -99.7419E-03     59.9771E-03
            1214     8.95726E-03     125.143E-03    -53.8774E+06    -27.4315E+06     10.3214E+06    -19.5212E+06    -105.068E-03     205.318E-03    -100.250E-03     63.0356E-03    -105.344E-03     205.276E-03    -100.081E-03     62.5072E-03
            1215     9.76754E-03     125.196E-03    -46.4795E+06    -19.3777E+06     17.7490E+06    -21.5360E+06    -106.868E-03     207.551E-03    -100.682E-03     64.5800E-03    -107.140E-03     207.537E-03    -100.498E-03     63.9465E-03
            1216     10.5763E-03     125.251E-03    -39.3636E+06    -11.6842E+06     24.3942E+06    -23.2817E+06    -108.723E-03     209.907E-03    -101.183E-03     65.0039E-03    -108.991E-03     209.923E-03    -100.988E-03     64.2528E-03
            1217     11.3836E-03     125.308E-03    -32.6922E+06    -1.84332E+06     30.7103E+06    -24.1221E+06    -110.492E-03     212.231E-03    -101.739E-03     64.2874E-03    -110.762E-03     212.290E-03    -101.535E-03     63.4138E-03
            1218     12.1894E-03     125.365E-03    -26.2744E+06     5.59211E+06     36.1453E+06    -23.5110E+06    -112.072E-03     214.407E-03    -102.334E-03     62.3383E-03    -112.343E-03     214.499E-03    -102.124E-03     61.3420E-03
            1219     12.9942E-03     125.422E-03    -19.8811E+06     30.8437E+06     44.7908E+06    -21.0731E+06    -113.304E-03     216.244E-03    -102.940E-03     59.1515E-03    -113.606E-03     216.455E-03    -102.732E-03     58.0392E-03
            1220     13.7977E-03     125.477E-03    -13.6902E+06     52.3873E+06     52.1126E+06    -16.2552E+06    -114.276E-03     217.822E-03    -103.547E-03     54.0051E-03    -114.601E-03     218.135E-03    -103.342E-03     52.7937E-03
            1221     14.6008E-03     125.527E-03    -8.13242E+06     58.1694E+06     58.4482E+06    -10.0272E+06    -115.089E-03     219.255E-03    -104.165E-03     46.9364E-03    -115.418E-03     219.592E-03    -103.946E-03     45.6031E-03
            1222     15.4025E-03     125.570E-03    -4.40598E+06     63.0250E+06     73.1279E+06    -4.93751E+06    -115.633E-03     220.447E-03    -104.815E-03     33.7645E-03    -115.947E-03     220.757E-03    -104.534E-03     32.5305E-03
            1223     816.786E-06     125.979E-03    -147.809E+06    -133.940E+06    -145.167E+06    -3.36996E+06    -96.6068E-03     193.176E-03    -96.5687E-03     8.60021E-03    -96.9413E-03     192.930E-03    -96.8860E-03     8.56194E-03
            1224     1.63365E-03     125.988E-03    -142.370E+06    -124.730E+06    -132.399E+06    -6.19475E+06    -96.5729E-03     193.189E-03    -96.6166E-03     15.7130E-03    -96.9120E-03     192.964E-03    -96.8913E-03     15.6417E-03
            1225     2.45055E-03     126.003E-03    -134.044E+06    -112.397E+06    -114.133E+06    -8.74587E+06    -96.6104E-03     193.267E-03    -96.6569E-03     23.0391E-03    -96.9523E-03     193.065E-03    -96.8703E-03     22.9368E-03
            1226     3.26750E-03     126.023E-03    -123.551E+06    -98.9040E+06    -92.8830E+06    -10.6468E+06    -96.7651E-03     193.485E-03    -96.7197E-03     30.1713E-03    -97.1050E-03     193.304E-03    -96.8616E-03     30.0433E-03
            1227     4.08436E-03     126.049E-03    -111.832E+06    -85.5786E+06    -71.6409E+06    -12.1745E+06    -97.1123E-03     193.923E-03    -96.8110E-03     36.9874E-03    -97.4441E-03     193.762E-03    -96.8829E-03     36.8342E-03
            1228     4.90100E-03     126.080E-03    -99.8497E+06    -73.1101E+06    -52.3951E+06    -13.3949E+06    -97.7205E-03     194.662E-03    -96.9418E-03     43.3947E-03    -98.0395E-03     194.519E-03    -96.9530E-03     43.2140E-03
            1229     5.71716E-03     126.116E-03    -88.4317E+06    -61.2704E+06    -35.6857E+06    -14.5670E+06    -98.6432E-03     195.771E-03    -97.1283E-03     49.3021E-03    -98.9484E-03     195.649E-03    -97.0897E-03     49.0865E-03
            1230     6.53257E-03     126.157E-03    -77.8268E+06    -50.1388E+06    -21.3561E+06    -16.1173E+06    -99.9077E-03     197.294E-03    -97.3866E-03     54.6347E-03    -100.200E-03     197.194E-03    -97.3078E-03     54.3688E-03
            1231     7.34696E-03     126.203E-03    -67.8570E+06    -39.6299E+06    -8.94863E+06    -18.1214E+06    -101.507E-03     199.236E-03    -97.7291E-03     59.2343E-03    -101.787E-03     199.161E-03    -97.6180E-03     58.9009E-03
            1232     8.16001E-03     126.252E-03    -58.5296E+06    -30.0208E+06     1.87136E+06    -20.3276E+06    -103.406E-03     201.569E-03    -98.1629E-03     62.9584E-03    -103.676E-03     201.520E-03    -98.0252E-03     62.5426E-03
            1233     8.97152E-03     126.306E-03    -50.0788E+06    -21.8859E+06     11.1674E+06    -22.3357E+06    -105.551E-03     204.241E-03    -98.6897E-03     65.7293E-03    -105.812E-03     204.214E-03    -98.5295E-03     65.2197E-03
            1234     9.78121E-03     126.362E-03    -42.5280E+06    -14.0665E+06     19.2856E+06    -24.0816E+06    -107.846E-03     207.150E-03    -99.3041E-03     67.4044E-03    -108.103E-03     207.150E-03    -99.1256E-03     66.7904E-03
            1235     10.5891E-03     126.421E-03    -35.7528E+06    -6.55202E+06     26.3684E+06    -25.8179E+06    -110.163E-03     210.158E-03    -99.9952E-03     67.9006E-03    -110.418E-03     210.187E-03    -99.8021E-03     67.1668E-03
            1236     11.3950E-03     126.481E-03    -29.4028E+06     706.507E+03     32.4042E+06    -26.5993E+06    -112.343E-03     213.087E-03    -100.745E-03     67.1500E-03    -112.598E-03     213.147E-03    -100.541E-03     66.2921E-03
            1237     12.1994E-03     126.541E-03    -23.6051E+06     6.16611E+06     37.4104E+06    -25.9935E+06    -114.240E-03     215.771E-03    -101.532E-03     65.0580E-03    -114.496E-03     215.857E-03    -101.319E-03     64.0751E-03
            1238     13.0021E-03     126.600E-03    -18.2922E+06     27.8709E+06      44.969E+06    -23.6439E+06    -115.678E-03     217.999E-03    -102.322E-03     61.6293E-03    -115.964E-03     218.190E-03    -102.111E-03     60.5252E-03
            1239     13.8041E-03     126.657E-03    -13.5604E+06     43.9713E+06     50.8118E+06    -18.1880E+06    -116.745E-03     219.848E-03    -103.103E-03     56.2538E-03    -117.053E-03     220.117E-03    -102.893E-03     55.0502E-03
            1240     14.6046E-03     126.709E-03    -9.28033E+06     50.0755E+06     56.1549E+06    -11.7126E+06    -117.544E-03     221.417E-03    -103.873E-03     48.9436E-03    -117.862E-03     221.717E-03    -103.652E-03     47.6061E-03
            1241     15.4052E-03     126.754E-03    -3.87329E+06     55.8368E+06     72.0607E+06    -5.56874E+06    -118.071E-03     222.735E-03    -104.664E-03     35.4449E-03    -118.371E-03     223.011E-03    -104.379E-03     34.1971E-03
            1242     819.021E-06     127.126E-03    -169.501E+06    -122.841E+06    -166.911E+06    -5.32314E+06    -93.8969E-03     187.746E-03    -93.8490E-03     8.92686E-03    -94.3243E-03     187.619E-03    -94.2597E-03     8.87464E-03
            1243     1.63800E-03     127.135E-03    -163.254E+06    -113.614E+06    -152.841E+06    -9.90908E+06    -93.9693E-03     187.897E-03    -93.9274E-03     16.2883E-03    -94.3988E-03     187.786E-03    -94.2902E-03     16.1891E-03
            1244     2.45699E-03     127.150E-03    -153.464E+06    -102.447E+06    -132.696E+06    -14.3346E+06    -94.1759E-03     188.206E-03    -94.0296E-03     23.8481E-03    -94.6013E-03     188.107E-03    -94.3220E-03     23.7020E-03
            1245     3.27582E-03     127.171E-03    -140.731E+06    -90.2763E+06    -109.583E+06    -18.1265E+06    -94.5646E-03     188.738E-03    -94.1736E-03     31.1827E-03    -94.9768E-03     188.648E-03    -94.3866E-03     30.9940E-03
            1246     4.09440E-03     127.197E-03    -125.745E+06    -78.1942E+06    -86.1848E+06    -21.1113E+06    -95.2106E-03     189.577E-03    -94.3659E-03     38.1679E-03    -95.5990E-03     189.491E-03    -94.5011E-03     37.9412E-03
            1247     4.91247E-03     127.229E-03    -109.486E+06    -67.3709E+06    -64.1049E+06    -23.0075E+06    -96.1825E-03     190.802E-03    -94.6198E-03     44.7154E-03    -96.5376E-03     190.715E-03    -94.6839E-03     44.4571E-03
            1248     5.72978E-03     127.267E-03    -92.9651E+06    -56.3714E+06    -44.0254E+06    -23.8693E+06    -97.5156E-03     192.464E-03    -94.9479E-03     50.7443E-03    -97.8345E-03     192.380E-03    -94.9515E-03     50.4580E-03
            1249     6.54600E-03     127.310E-03    -77.4583E+06    -45.2073E+06    -26.1656E+06    -24.3314E+06    -99.2097E-03     194.573E-03    -95.3632E-03     56.1892E-03    -99.4959E-03     194.500E-03    -95.3161E-03     55.8681E-03
            1250     7.36082E-03     127.358E-03    -64.0094E+06    -34.8283E+06    -10.7684E+06    -24.5897E+06    -101.232E-03     197.106E-03    -95.8735E-03     60.9123E-03    -101.493E-03     197.047E-03    -95.7840E-03     60.5467E-03
            1251     8.17402E-03     127.411E-03    -53.4310E+06    -25.4713E+06     2.15144E+06    -24.5271E+06    -103.538E-03     200.020E-03    -96.4815E-03     64.7963E-03    -103.785E-03     199.980E-03    -96.3563E-03     64.3772E-03
            1252     8.98529E-03     127.468E-03    -45.3815E+06    -16.5427E+06     12.9232E+06    -25.1452E+06    -106.063E-03     203.247E-03    -97.1844E-03     67.7838E-03    -106.306E-03     203.234E-03    -97.0300E-03     67.2881E-03
            1253     9.79454E-03     127.528E-03    -38.1099E+06    -8.29681E+06     22.0169E+06    -26.9324E+06    -108.711E-03     206.685E-03    -97.9741E-03     69.7264E-03    -108.953E-03     206.699E-03    -97.7967E-03     69.1253E-03
            1254     10.6016E-03     127.590E-03    -31.0617E+06    -1.98691E+06     29.5709E+06    -28.2187E+06    -111.368E-03     210.207E-03    -98.8389E-03     70.4893E-03    -111.606E-03     210.243E-03    -98.6431E-03     69.7759E-03
            1255     11.4066E-03     127.654E-03    -25.3301E+06     2.79021E+06     35.3800E+06    -27.9968E+06    -113.892E-03     213.652E-03    -99.7607E-03     69.9419E-03    -114.129E-03     213.708E-03    -99.5511E-03     69.1204E-03
            1256     12.2094E-03     127.718E-03    -20.9096E+06     6.94175E+06     40.0131E+06    -26.8368E+06    -116.127E-03     216.845E-03    -100.719E-03     67.9211E-03    -116.368E-03     216.922E-03    -100.499E-03     66.9851E-03
            1257     13.0108E-03     127.780E-03    -17.2134E+06     24.8365E+06     46.3526E+06    -24.1252E+06    -117.879E-03     219.558E-03    -101.680E-03     64.3552E-03    -118.152E-03     219.724E-03    -101.459E-03     63.3027E-03
            1258     13.8106E-03     127.839E-03    -13.1244E+06     35.9737E+06     51.1441E+06    -19.3242E+06    -119.182E-03     221.811E-03    -102.629E-03     58.7603E-03    -119.472E-03     222.034E-03    -102.407E-03     57.5925E-03
            1259     14.6098E-03     127.893E-03    -8.56897E+06     41.4006E+06     55.5853E+06    -12.7852E+06    -120.130E-03     223.685E-03    -103.555E-03     51.1864E-03    -120.429E-03     223.939E-03    -103.324E-03     49.8681E-03
            1260     15.4075E-03     127.940E-03    -5.32315E+06     47.2138E+06     70.3098E+06    -6.25742E+06    -120.761E-03     225.254E-03    -104.493E-03     37.3456E-03    -121.053E-03     225.491E-03    -104.202E-03     36.0897E-03
            1261     821.296E-06     128.266E-03    -164.309E+06    -107.028E+06    -161.570E+06    -7.18348E+06    -91.2847E-03     182.492E-03    -91.2071E-03     8.96406E-03    -91.7167E-03     182.429E-03    -91.6215E-03     8.89329E-03
            1262     1.64252E-03     128.276E-03    -158.696E+06    -97.7460E+06    -148.143E+06    -13.2495E+06    -91.5173E-03     182.851E-03    -91.3333E-03     16.3468E-03    -91.9535E-03     182.806E-03    -91.7022E-03     16.2143E-03
            1263     2.46349E-03     128.291E-03    -150.122E+06     -87.427E+06    -129.380E+06    -19.4103E+06    -91.9698E-03     183.487E-03    -91.5169E-03     23.9231E-03    -92.4044E-03     183.453E-03    -91.8194E-03     23.7255E-03
            1264     3.28411E-03     128.313E-03    -139.343E+06    -76.3483E+06    -108.756E+06    -25.2680E+06    -92.6733E-03     184.439E-03    -91.7661E-03     31.2685E-03    -93.0990E-03     184.415E-03    -91.9971E-03     31.0054E-03
            1265     4.10412E-03     128.341E-03    -127.166E+06    -66.3296E+06    -88.6896E+06    -30.2559E+06    -93.6807E-03     185.765E-03    -92.0846E-03     38.2637E-03    -94.0883E-03     185.743E-03    -92.2475E-03     37.9404E-03
            1266     4.92333E-03     128.374E-03    -113.947E+06    -57.8468E+06    -69.9257E+06    -34.0294E+06    -95.0314E-03     187.514E-03    -92.4822E-03     44.8370E-03    -95.4123E-03     187.487E-03    -92.5827E-03     44.4617E-03
            1267     5.74142E-03     128.414E-03    -99.7788E+06    -49.2682E+06    -52.2273E+06    -36.4591E+06    -96.7336E-03     189.701E-03    -92.9675E-03     50.9265E-03    -97.0826E-03     189.672E-03    -93.0125E-03     50.5070E-03
            1268     6.55812E-03     128.460E-03    -84.6000E+06    -40.0075E+06    -34.5393E+06    -37.2755E+06    -98.7691E-03     192.319E-03    -93.5502E-03     56.4628E-03    -99.0834E-03     192.291E-03    -93.5422E-03     56.0086E-03
            1269     7.37319E-03     128.511E-03    -69.0133E+06    -32.0861E+06    -16.9479E+06    -36.2061E+06    -101.105E-03     195.340E-03    -94.2347E-03     61.3141E-03    -101.382E-03     195.307E-03    -94.1728E-03     60.8366E-03
            1270     8.18637E-03     128.568E-03    -53.9963E+06    -24.2183E+06    -526.818E+03    -33.5549E+06    -103.678E-03     198.691E-03    -95.0123E-03     65.4021E-03    -103.921E-03     198.658E-03    -94.9016E-03     64.9086E-03
            1271     8.99749E-03     128.628E-03    -40.8967E+06    -13.6694E+06     14.1302E+06    -30.9579E+06    -106.407E-03     202.278E-03    -95.8712E-03     68.7067E-03    -106.628E-03     202.265E-03    -95.7214E-03     68.1831E-03
            1272     9.80636E-03     128.693E-03    -31.7973E+06    -4.09208E+06     25.7660E+06    -29.4777E+06    -109.224E-03     206.028E-03    -96.8039E-03     71.0794E-03    -109.440E-03     206.042E-03    -96.6230E-03     70.4987E-03
            1273     10.6130E-03     128.760E-03    -26.7059E+06     1.10081E+06     33.6007E+06    -28.7040E+06    -112.065E-03     209.865E-03    -97.8007E-03     72.3373E-03    -112.285E-03     209.898E-03    -97.5955E-03     71.6778E-03
            1274     11.4174E-03     128.828E-03    -22.8105E+06     4.54092E+06     39.3270E+06    -27.9369E+06    -114.842E-03     213.692E-03    -98.8495E-03     72.2694E-03    -115.069E-03     213.740E-03    -98.6263E-03     71.5166E-03
            1275     12.2196E-03     128.895E-03    -18.3660E+06     8.04047E+06     44.2522E+06    -27.1268E+06    -117.439E-03     217.375E-03    -99.9360E-03     70.6192E-03    -117.669E-03     217.440E-03    -99.6998E-03     69.7546E-03
            1276     13.0195E-03     128.961E-03    -13.8677E+06     19.9844E+06     49.7466E+06    -23.6622E+06    -119.657E-03     220.692E-03    -101.035E-03     67.1813E-03    -119.903E-03     220.816E-03    -100.795E-03     66.2149E-03
            1277     13.8181E-03     129.024E-03    -11.0732E+06     29.8551E+06     54.4262E+06    -18.1792E+06    -121.395E-03     223.529E-03    -102.134E-03     61.5408E-03    -121.663E-03     223.706E-03    -101.889E-03     60.4660E-03
            1278     14.6147E-03     129.080E-03    -8.18813E+06     34.1447E+06     57.7243E+06    -13.8234E+06    -122.675E-03     225.884E-03    -103.209E-03     53.8971E-03    -122.958E-03     226.093E-03    -102.958E-03     52.6300E-03
            1279     15.4111E-03     129.129E-03    -2.92589E+06     36.4831E+06     70.5719E+06    -7.11615E+06    -123.665E-03     227.961E-03    -104.295E-03     40.0428E-03    -123.929E-03     228.139E-03    -103.991E-03     38.8071E-03
            1280     823.234E-06     129.402E-03    -128.011E+06    -87.7279E+06    -125.085E+06    -8.28331E+06    -89.3537E-03     178.586E-03    -89.2321E-03     8.37544E-03    -89.6850E-03     178.514E-03    -89.5447E-03     8.28625E-03
            1281     1.64622E-03     129.412E-03    -123.095E+06    -78.9171E+06    -112.922E+06    -14.8407E+06    -89.7477E-03     179.162E-03    -89.4147E-03     15.2864E-03    -90.0843E-03     179.109E-03    -89.6864E-03     15.1262E-03
            1282     2.46882E-03     129.428E-03    -116.127E+06    -68.9005E+06    -96.6941E+06    -21.6372E+06    -90.4464E-03     180.125E-03    -89.6787E-03     22.4152E-03    -90.7856E-03     180.088E-03    -89.8939E-03     22.1785E-03
            1283     3.29074E-03     129.451E-03    -108.158E+06    -59.1460E+06    -79.7908E+06    -27.9055E+06    -91.4612E-03     181.494E-03    -90.0330E-03     29.3735E-03    -91.7985E-03     181.469E-03    -90.1894E-03     29.0635E-03
            1284     4.11178E-03     129.480E-03    -100.146E+06    -50.8506E+06    -64.4265E+06    -33.3244E+06    -92.8002E-03     183.275E-03    -90.4749E-03     36.0604E-03    -93.1314E-03     183.257E-03    -90.5781E-03     35.6836E-03
            1285     4.93165E-03     129.516E-03    -92.3460E+06    -44.1613E+06    -51.1334E+06    -38.1543E+06    -94.4494E-03     185.454E-03    -91.0042E-03     42.4310E-03    -94.7704E-03     185.438E-03    -91.0619E-03     41.9895E-03
            1286     5.75016E-03     129.559E-03    -84.4271E+06    -37.8731E+06    -38.9210E+06    -42.2104E+06    -96.3855E-03     188.008E-03    -91.6223E-03     48.4480E-03    -96.6944E-03     187.996E-03    -91.6396E-03     47.9454E-03
            1287     6.56705E-03     129.607E-03    -76.1593E+06    -31.8908E+06    -26.8554E+06    -44.9074E+06    -98.5769E-03     190.907E-03    -92.3300E-03     54.0476E-03    -98.8721E-03     190.897E-03    -92.3076E-03     53.4939E-03
            1288     7.38215E-03     129.662E-03    -66.9827E+06    -27.7937E+06    -14.8037E+06    -45.7170E+06    -100.987E-03     194.111E-03    -93.1242E-03     59.1405E-03    -101.262E-03     194.093E-03    -93.0608E-03     58.5512E-03
            1289     8.19529E-03     129.723E-03    -56.2633E+06    -23.1884E+06    -2.49547E+06    -44.5660E+06    -103.567E-03     197.562E-03    -93.9950E-03     63.6652E-03    -103.817E-03     197.537E-03    -93.8922E-03     63.0557E-03
            1290     9.00638E-03     129.788E-03    -44.5173E+06    -14.5924E+06     11.0233E+06    -41.0339E+06    -106.266E-03     201.201E-03    -94.9351E-03     67.5390E-03    -106.496E-03     201.189E-03    -94.7942E-03     66.9287E-03
            1291     9.81542E-03     129.857E-03    -33.0802E+06    -5.93245E+06     25.0551E+06    -35.3638E+06    -109.080E-03     205.023E-03    -95.9424E-03     70.5532E-03    -109.293E-03     205.024E-03    -95.7605E-03     69.9564E-03
            1292     10.6222E-03     129.928E-03    -23.6900E+06     802.295E+03     37.1855E+06    -30.0282E+06    -111.990E-03     208.996E-03    -97.0062E-03     72.5244E-03    -112.191E-03     209.009E-03    -96.7871E-03     71.9217E-03
            1293     11.4266E-03     130.001E-03    -17.6371E+06     5.75857E+06     45.5876E+06    -27.1643E+06    -114.935E-03     213.050E-03    -98.1146E-03     73.2545E-03    -115.136E-03     213.077E-03    -97.8694E-03     72.5984E-03
            1294     12.2285E-03     130.073E-03    -14.4943E+06     9.09673E+06     50.6559E+06    -25.5304E+06    -117.857E-03     217.120E-03    -99.2627E-03     72.4051E-03    -118.067E-03     217.164E-03    -99.0016E-03     71.6602E-03
            1295     13.0282E-03     130.144E-03    -12.3509E+06     14.5710E+06     54.4766E+06    -22.4058E+06    -120.632E-03     221.076E-03    -100.443E-03     69.5679E-03    -120.858E-03     221.152E-03    -100.174E-03     68.7255E-03
            1296     13.8254E-03     130.210E-03    -8.58344E+06     22.8801E+06     59.2758E+06    -16.9062E+06    -123.017E-03     224.663E-03    -101.646E-03     64.2030E-03    -123.258E-03     224.783E-03    -101.370E-03     63.2551E-03
            1297     14.6212E-03     130.270E-03    -5.47821E+06     28.4804E+06     62.7652E+06    -11.5096E+06    -124.919E-03     227.764E-03    -102.846E-03     56.6194E-03    -125.177E-03     227.923E-03    -102.565E-03     55.4853E-03
            1298     15.4149E-03     130.321E-03    -3.44380E+06     26.7119E+06     71.4386E+06    -6.76379E+06    -126.713E-03     230.785E-03    -104.072E-03     43.0251E-03    -126.961E-03     230.909E-03    -103.749E-03     41.8641E-03
            1299     823.968E-06     130.533E-03    -85.8447E+06    -66.7111E+06    -82.7080E+06    -8.75056E+06    -88.8831E-03     177.583E-03    -88.6995E-03     6.84532E-03    -89.0956E-03     177.493E-03    -88.8918E-03     6.73603E-03
            1300     1.64767E-03     130.544E-03    -81.3444E+06    -58.9179E+06    -71.7888E+06    -15.5334E+06    -89.3481E-03     178.285E-03    -88.9371E-03     12.5406E-03    -89.5653E-03     178.213E-03    -89.0927E-03     12.3460E-03
            1301     2.47080E-03     130.562E-03    -75.3415E+06    -49.9595E+06    -57.1882E+06    -21.9698E+06    -90.1994E-03     179.455E-03    -89.2554E-03     18.4727E-03    -90.4208E-03     179.397E-03    -89.3596E-03     18.1950E-03
            1302     3.29312E-03     130.586E-03    -68.7632E+06    -41.9325E+06    -42.1681E+06    -27.4786E+06    -91.3880E-03     181.071E-03    -89.6830E-03     24.3211E-03    -91.6102E-03     181.022E-03    -89.7334E-03     23.9693E-03
            1303     4.11433E-03     130.618E-03    -62.1219E+06    -35.0231E+06    -28.5811E+06    -32.2704E+06    -92.8628E-03     183.069E-03    -90.2060E-03     30.0521E-03    -93.0819E-03     183.026E-03    -90.2080E-03     29.6327E-03
            1304     4.93424E-03     130.656E-03    -55.9485E+06    -29.4424E+06    -16.9436E+06    -36.5043E+06    -94.5671E-03     185.379E-03    -90.8116E-03     35.6887E-03    -94.7811E-03     185.339E-03    -90.7725E-03     35.2074E-03
            1305     5.75265E-03     130.702E-03    -50.9509E+06    -24.9994E+06    -7.55630E+06    -39.9534E+06    -96.4466E-03     187.933E-03    -91.4867E-03     41.2603E-03    -96.6567E-03     187.896E-03    -91.4144E-03     40.7269E-03
            1306     6.56947E-03     130.754E-03    -47.4704E+06    -21.3627E+06    -372.128E+03    -42.3963E+06    -98.4605E-03     190.680E-03    -92.2195E-03     46.7610E-03    -98.6699E-03     190.646E-03    -92.1216E-03     46.1890E-03
            1307     7.38461E-03     130.812E-03    -45.3588E+06    -19.6685E+06     4.96294E+06    -44.1510E+06    -100.600E-03     193.604E-03    -93.0038E-03     52.1314E-03    -100.810E-03     193.569E-03    -92.8847E-03     51.5291E-03
            1308     8.19806E-03     130.876E-03    -43.7022E+06    -17.8581E+06     10.1618E+06    -45.2137E+06    -102.881E-03     196.720E-03    -93.8388E-03     57.2654E-03    -103.095E-03     196.686E-03    -93.6987E-03     56.6388E-03
            1309     9.00967E-03     130.945E-03    -40.9349E+06    -14.0878E+06     17.0055E+06    -44.5888E+06    -105.320E-03     200.047E-03    -94.7272E-03     61.9909E-03    -105.538E-03     200.021E-03    -94.5624E-03     61.3553E-03
            1310     9.81926E-03     131.018E-03    -35.8375E+06    -10.3097E+06     25.7454E+06    -40.9000E+06    -107.932E-03     203.605E-03    -95.6726E-03     66.0618E-03    -108.146E-03     203.581E-03    -95.4769E-03     65.4460E-03
            1311     10.6268E-03     131.095E-03    -28.6994E+06    -3.82669E+06     36.7221E+06    -34.8832E+06    -110.731E-03     207.407E-03    -96.6758E-03     69.2469E-03    -110.940E-03     207.394E-03    -96.4450E-03     68.6652E-03
            1312     11.4320E-03     131.172E-03    -21.3951E+06      3.3935E+06     47.6850E+06    -28.7823E+06    -113.742E-03     211.478E-03    -97.7363E-03     71.2538E-03    -113.948E-03     211.483E-03    -97.4718E-03     70.6852E-03
            1313     12.2349E-03     131.250E-03    -15.6766E+06     7.22617E+06     55.7663E+06    -23.8606E+06    -116.954E-03     215.808E-03    -98.8539E-03     71.7098E-03    -117.159E-03     215.822E-03    -98.5628E-03     71.1122E-03
            1314     13.0349E-03     131.325E-03    -11.4475E+06     11.2707E+06     61.1354E+06    -20.2404E+06    -120.284E-03     220.311E-03    -100.027E-03     70.1756E-03    -120.494E-03     220.344E-03    -99.7210E-03     69.4996E-03
            1315     13.8323E-03     131.397E-03    -7.91308E+06     17.9124E+06     65.2778E+06    -17.9409E+06    -123.582E-03     224.837E-03    -101.255E-03     65.8141E-03    -123.805E-03     224.907E-03    -100.943E-03     64.9981E-03
            1316     14.6267E-03     131.461E-03    -3.44379E+06     18.8666E+06     67.2446E+06    -11.5252E+06    -126.763E-03     229.297E-03    -102.534E-03     58.5529E-03    -126.989E-03     229.384E-03    -102.221E-03     57.5577E-03
            1317     15.4193E-03     131.517E-03     416.688E+03     17.6189E+06     72.6503E+06    -2.91275E+06    -129.451E-03     233.321E-03    -103.870E-03     45.3062E-03    -129.658E-03     233.383E-03    -103.533E-03     44.3047E-03
            1318     822.672E-06     131.666E-03    -44.3888E+06    -45.2674E+06    -41.6907E+06    -8.63124E+06    -90.7915E-03     181.433E-03    -90.6413E-03     4.18244E-03    -90.8880E-03     181.331E-03    -90.7198E-03     4.05421E-03
            1319     1.64506E-03     131.678E-03    -41.4790E+06    -39.0943E+06    -32.9948E+06    -15.1507E+06    -91.2505E-03     182.118E-03    -90.8679E-03     7.83210E-03    -91.3544E-03     182.031E-03    -90.9161E-03     7.60649E-03
            1320     2.46690E-03     131.697E-03    -37.3223E+06    -32.2930E+06    -20.7531E+06    -20.8535E+06    -92.0681E-03     183.259E-03    -91.1906E-03     11.6179E-03    -92.1795E-03     183.182E-03    -91.1934E-03     11.3013E-03
            1321     3.28782E-03     131.723E-03    -32.4626E+06    -26.3346E+06    -7.82665E+06    -25.4932E+06    -93.1357E-03     184.753E-03    -91.6178E-03     15.4512E-03    -93.2511E-03     184.682E-03    -91.5717E-03     15.0550E-03
            1322     4.10771E-03     131.757E-03    -27.9503E+06    -21.0815E+06     3.72713E+06    -29.1170E+06    -94.3698E-03     186.490E-03    -92.1205E-03     19.3978E-03    -94.4882E-03     186.423E-03    -92.0308E-03     18.9358E-03
            1323     4.92643E-03     131.798E-03    -24.6576E+06    -17.0948E+06     13.0737E+06    -31.7190E+06    -95.6979E-03     188.374E-03    -92.6764E-03     23.5463E-03    -95.8205E-03     188.310E-03    -92.5505E-03     23.0351E-03
            1324     5.74399E-03     131.846E-03    -22.8005E+06    -14.2602E+06     20.0899E+06    -33.4665E+06    -97.0645E-03     190.331E-03    -93.2662E-03     27.9711E-03    -97.1935E-03     190.270E-03    -93.1120E-03     27.4272E-03
            1325     6.56041E-03     131.900E-03    -21.9146E+06    -12.0710E+06     25.4548E+06    -34.6547E+06    -98.4557E-03     192.333E-03    -93.8771E-03     32.6976E-03    -98.5923E-03     192.275E-03    -93.7005E-03     32.1352E-03
            1326     7.37571E-03     131.962E-03    -21.5566E+06    -11.1807E+06     30.0395E+06    -35.4886E+06    -99.9202E-03     194.427E-03    -94.5064E-03     37.6892E-03    -100.064E-03     194.367E-03    -94.3087E-03     37.1191E-03
            1327     8.18974E-03     132.029E-03    -22.0374E+06    -10.4694E+06     33.8826E+06    -36.1959E+06    -101.515E-03     196.668E-03    -95.1537E-03     42.8957E-03    -101.668E-03     196.608E-03    -94.9371E-03     42.3242E-03
            1328     9.00238E-03     132.101E-03    -23.7852E+06    -9.87834E+06     36.5596E+06    -36.1365E+06    -103.299E-03     199.121E-03    -95.8229E-03     48.2198E-03    -103.466E-03     199.063E-03    -95.5913E-03     47.6597E-03
            1329     9.81352E-03     132.178E-03    -26.1692E+06    -9.81666E+06     38.7043E+06    -35.2851E+06    -105.349E-03     201.875E-03    -96.5266E-03     53.4496E-03    -105.531E-03     201.818E-03    -96.2809E-03     52.9100E-03
            1330     10.6229E-03     132.258E-03    -26.6208E+06    -6.13375E+06     43.2990E+06    -33.7401E+06    -107.729E-03     205.012E-03    -97.2827E-03     58.3042E-03    -107.926E-03     204.968E-03    -97.0188E-03     57.7861E-03
            1331     11.4302E-03     132.340E-03    -23.2798E+06    -1.44932E+06     50.6665E+06    -30.1496E+06    -110.551E-03     208.661E-03    -98.1103E-03     62.4312E-03    -110.752E-03     208.628E-03    -97.8211E-03     61.9423E-03
            1332     12.2349E-03     132.423E-03    -17.7563E+06     1.64896E+06     58.2734E+06    -24.4271E+06    -113.891E-03     212.913E-03    -99.0223E-03     65.3269E-03    -114.085E-03     212.882E-03    -98.7076E-03     64.8626E-03
            1333     13.0370E-03     132.505E-03    -13.4424E+06     8.22111E+06     65.8608E+06    -19.4918E+06    -117.747E-03     217.782E-03    -100.035E-03     66.3541E-03    -117.949E-03     217.775E-03    -99.6982E-03     65.8594E-03
            1334     13.8356E-03     132.582E-03    -10.6435E+06     17.9893E+06     72.1334E+06    -16.4598E+06    -122.200E-03     223.364E-03    -101.164E-03     64.4897E-03    -122.426E-03     223.407E-03    -100.814E-03     63.8817E-03
            1335     14.6305E-03     132.653E-03    -8.91787E+06     5.33214E+06     67.2770E+06    -10.9368E+06    -127.004E-03     229.411E-03    -102.407E-03     59.3588E-03    -127.216E-03     229.416E-03    -102.065E-03     58.5714E-03
            1336     15.4202E-03     132.716E-03    -6.23007E+06     5.24421E+06     65.8947E+06    -2.31408E+06    -130.519E-03     234.265E-03    -103.746E-03     47.0553E-03    -130.717E-03     234.269E-03    -103.416E-03     46.2271E-03
            1337     818.547E-06     132.807E-03    -7.66948E+06    -25.5452E+06    -4.64815E+06    -7.13776E+06    -96.0991E-03     191.931E-03    -95.8318E-03     661.608E-06    -96.0958E-03     191.819E-03    -95.8069E-03     541.435E-06
            1338     1.63687E-03     132.819E-03    -6.30556E+06    -21.1168E+06     1.43606E+06    -12.7642E+06    -96.3324E-03     192.441E-03    -96.1088E-03     1.30268E-03    -96.3378E-03     192.341E-03    -96.0619E-03     1.07609E-03
            1339     2.45463E-03     132.839E-03    -4.45120E+06    -16.9604E+06     10.7764E+06    -17.4016E+06    -96.8086E-03     193.175E-03    -96.3661E-03     2.11705E-03    -96.8245E-03     193.079E-03    -96.2811E-03     1.79593E-03
            1340     3.27181E-03     132.867E-03    -2.61379E+06    -13.3357E+06     20.3811E+06    -20.7573E+06    -97.3658E-03     194.045E-03    -96.6788E-03     3.17927E-03    -97.3921E-03     193.952E-03    -96.5538E-03     2.78327E-03
            1341     4.08832E-03     132.902E-03    -1.36913E+06    -10.5572E+06     28.9727E+06    -22.7203E+06    -97.9461E-03     194.971E-03    -97.0247E-03     4.56940E-03    -97.9832E-03     194.879E-03    -96.8626E-03     4.12147E-03
            1342     4.90421E-03     132.944E-03    -825.118E+03    -8.30440E+06     36.3202E+06    -23.6689E+06    -98.4932E-03     195.878E-03    -97.3851E-03     6.36793E-03    -98.5423E-03     195.787E-03    -97.1903E-03     5.88719E-03
            1343     5.71951E-03     132.994E-03    -785.556E+03    -6.74277E+06     42.7737E+06    -24.1655E+06    -98.9804E-03     196.727E-03    -97.7464E-03     8.62459E-03    -99.0418E-03     196.635E-03    -97.5216E-03     8.12384E-03
            1344     6.53434E-03     133.050E-03    -1.36822E+06    -5.43887E+06     48.4127E+06    -24.3808E+06    -99.4105E-03     197.508E-03    -98.0976E-03     11.3649E-03    -99.4858E-03     197.417E-03    -97.8457E-03     10.8554E-03
            1345     7.34869E-03     133.112E-03    -2.75353E+06    -5.12523E+06     52.6090E+06    -24.4760E+06    -99.8133E-03     198.245E-03    -98.4313E-03     14.6227E-03    -99.9028E-03     198.153E-03    -98.1568E-03     14.1137E-03
            1346     8.16268E-03     133.181E-03    -4.88136E+06    -5.20510E+06     55.4159E+06    -24.1550E+06    -100.253E-03     198.999E-03    -98.7466E-03     18.4224E-03    -100.357E-03     198.907E-03    -98.4549E-03     17.9269E-03
            1347     8.97631E-03     133.255E-03    -7.27148E+06    -6.17039E+06     57.2649E+06    -23.2456E+06    -100.836E-03     199.888E-03    -99.0518E-03     22.7516E-03    -100.955E-03     199.793E-03    -98.7460E-03     22.2835E-03
            1348     9.78938E-03     133.334E-03    -8.84043E+06    -5.21480E+06     59.5397E+06    -23.2321E+06    -101.678E-03     201.039E-03    -99.3607E-03     27.5992E-03    -101.809E-03     200.948E-03    -99.0426E-03     27.1515E-03
            1349     10.6016E-03     133.417E-03    -9.89825E+06    -3.46868E+06     61.6365E+06    -23.8294E+06    -102.904E-03     202.593E-03    -99.6891E-03     32.9227E-03    -103.046E-03     202.509E-03    -99.3615E-03     32.4908E-03
            1350     11.4125E-03     133.504E-03    -11.7401E+06    -2.99483E+06     63.0274E+06    -22.9480E+06    -104.662E-03     204.723E-03    -100.061E-03     38.6747E-03    -104.815E-03     204.642E-03    -99.7240E-03     38.2765E-03
            1351     12.2217E-03     133.591E-03    -13.2727E+06    -3.07839E+06     64.3935E+06    -20.1001E+06    -107.235E-03     207.741E-03    -100.506E-03     44.6367E-03    -107.398E-03     207.661E-03    -100.160E-03     44.2849E-03
            1352     13.0280E-03     133.679E-03    -12.1645E+06     4.98832E+06     69.7046E+06    -15.7995E+06    -110.909E-03     211.981E-03    -101.072E-03     50.2811E-03    -111.090E-03     211.936E-03    -100.713E-03     49.9649E-03
            1353     13.8305E-03     133.764E-03    -9.03414E+06     16.1605E+06     75.1464E+06    -12.2681E+06    -115.827E-03     217.622E-03    -101.795E-03     54.7327E-03    -116.023E-03     217.627E-03    -101.430E-03     54.3948E-03
            1354     14.6278E-03     133.844E-03    -7.32414E+06    -6.06437E+06     64.7724E+06    -6.87049E+06    -121.974E-03     224.670E-03    -102.696E-03     56.4943E-03    -122.128E-03     224.590E-03    -102.353E-03     56.0633E-03
            1355     15.4213E-03     133.914E-03    -3.51819E+06    -3.06204E+06     59.3196E+06    -3.52811E+06    -127.766E-03     231.559E-03    -103.793E-03     48.4123E-03    -127.903E-03     231.502E-03    -103.487E-03     47.8705E-03
            1356     811.172E-06     133.964E-03     22.8192E+06    -10.3913E+06     24.7285E+06    -4.75254E+06    -105.136E-03     210.072E-03    -104.936E-03    -3.46577E-03    -105.047E-03     209.945E-03    -104.830E-03    -3.56819E-03
            1357     1.62204E-03     133.976E-03     22.0997E+06    -7.89927E+06     29.2191E+06    -7.94775E+06    -105.013E-03     210.152E-03    -105.139E-03    -6.14891E-03    -104.938E-03     210.032E-03    -105.013E-03    -6.32551E-03
            1358     2.43289E-03     133.997E-03     20.9931E+06    -6.05818E+06     35.3519E+06    -10.3293E+06    -104.880E-03     210.118E-03    -105.238E-03    -8.77322E-03    -104.821E-03     210.001E-03    -105.083E-03    -9.01023E-03
            1359     3.24363E-03     134.024E-03     19.3602E+06    -4.67257E+06     42.0200E+06    -11.7466E+06    -104.656E-03     209.992E-03    -105.335E-03    -11.0939E-03    -104.617E-03     209.874E-03    -105.146E-03    -11.3738E-03
            1360     4.05433E-03     134.060E-03     17.5275E+06    -3.88727E+06     48.8707E+06    -12.4646E+06    -104.326E-03     209.751E-03    -105.424E-03    -13.0167E-03    -104.306E-03     209.629E-03    -105.200E-03    -13.3257E-03
            1361     4.86502E-03     134.102E-03     15.7979E+06    -3.02759E+06     55.7754E+06    -12.6827E+06    -103.881E-03     209.380E-03    -105.498E-03    -14.4878E-03    -103.880E-03     209.255E-03    -105.238E-03    -14.8148E-03
            1362     5.67579E-03     134.152E-03     14.0712E+06    -2.17393E+06     62.3177E+06    -12.5888E+06    -103.315E-03     208.863E-03    -105.548E-03    -15.4789E-03    -103.332E-03     208.736E-03    -105.254E-03    -15.8152E-03
            1363     6.48671E-03     134.208E-03     12.2724E+06    -1.85514E+06     67.6325E+06    -12.1288E+06    -102.613E-03     208.178E-03    -105.564E-03    -15.9658E-03    -102.648E-03     208.048E-03    -105.241E-03    -16.3017E-03
            1364     7.29796E-03     134.270E-03     10.3876E+06    -1.40688E+06     71.6577E+06    -11.6516E+06    -101.784E-03     207.324E-03    -105.540E-03    -15.9287E-03    -101.835E-03     207.194E-03    -105.195E-03    -16.2598E-03
            1365     8.10968E-03     134.338E-03     8.56845E+06    -2.53576E+06     74.5128E+06    -11.1791E+06    -100.871E-03     206.346E-03    -105.475E-03    -15.3734E-03    -100.933E-03     206.209E-03    -105.111E-03    -15.6959E-03
            1366     8.92188E-03     134.412E-03     7.33955E+06    -3.26833E+06     76.7954E+06    -11.2282E+06    -99.9088E-03     205.277E-03    -105.368E-03    -14.2369E-03    -99.9791E-03     205.136E-03    -104.990E-03    -14.5548E-03
            1367     9.73468E-03     134.490E-03     6.03871E+06    -1.64465E+06     78.6707E+06    -11.5660E+06    -98.9572E-03     204.177E-03    -105.220E-03    -12.3855E-03    -99.0390E-03     204.045E-03    -104.833E-03    -12.6996E-03
            1368     10.5482E-03     134.574E-03     3.32574E+06    -703.415E+03     79.2106E+06    -11.2079E+06    -98.1747E-03     203.216E-03    -105.041E-03    -9.72504E-03    -98.2722E-03     203.092E-03    -104.649E-03    -10.0227E-03
            1369     11.3624E-03     134.661E-03     138.935E+03    -1.95955E+06     78.1143E+06    -10.4392E+06    -97.7653E-03     202.611E-03    -104.845E-03    -6.12019E-03    -97.8752E-03     202.488E-03    -104.452E-03    -6.39309E-03
            1370     12.1768E-03     134.750E-03    -2.00035E+06    -2.38050E+06     76.2291E+06    -10.2474E+06    -98.0008E-03     202.657E-03    -104.656E-03    -1.20342E-03    -98.1178E-03     202.539E-03    -104.268E-03    -1.45534E-03
            1371     12.9912E-03     134.842E-03    -2.42397E+06     940.021E+03     74.7398E+06    -9.02911E+06    -99.2571E-03     203.767E-03    -104.510E-03     5.31707E-03    -99.3786E-03     203.669E-03    -104.134E-03     5.09818E-03
            1372     13.8039E-03     134.934E-03    -2.58209E+06     10.1782E+06     73.0135E+06    -5.25426E+06    -101.909E-03     206.360E-03    -104.451E-03     13.3245E-03    -102.043E-03     206.313E-03    -104.097E-03     13.1605E-03
            1373     14.6140E-03     135.023E-03    -1.87766E+06    -7.76814E+06     58.7952E+06    -3.34843E+06    -106.011E-03     210.523E-03    -104.511E-03     22.7377E-03    -106.099E-03     210.412E-03    -104.203E-03     22.5397E-03
            1374     15.4160E-03     135.106E-03     2.86219E+06    -6.06431E+06     46.3203E+06    -3.54214E+06    -110.193E-03     214.888E-03    -104.695E-03     28.8674E-03    -110.246E-03     214.802E-03    -104.459E-03     28.6137E-03
            1375     15.3892E-03     67.0223E-03    -5.06143E+06     108.533E+06     93.2252E+06     69.8673E+03    -104.801E-03     210.529E-03    -105.727E-03     23.8643E-03    -105.208E-03     211.033E-03    -105.411E-03     22.6904E-03
            1376     14.5790E-03     66.9878E-03    -10.2026E+06     105.763E+06     78.7763E+06     275.557E+03    -104.954E-03     210.641E-03    -105.688E-03     34.9780E-03    -105.399E-03     211.197E-03    -105.432E-03     33.6416E-03
            1377     13.7687E-03     66.9460E-03    -15.2429E+06     95.8478E+06     68.1255E+06     308.234E+03    -105.099E-03     210.779E-03    -105.679E-03     41.3966E-03    -105.544E-03     211.311E-03    -105.455E-03     40.1350E-03
            1378     12.9584E-03     66.8970E-03    -20.1452E+06     65.2198E+06     60.7495E+06     131.255E+03    -105.316E-03     211.034E-03    -105.718E-03     46.4973E-03    -105.733E-03     211.435E-03    -105.480E-03     45.2847E-03
            1379     12.1483E-03     66.8436E-03    -25.1251E+06     26.6088E+06     50.6410E+06    -56.5156E+03    -105.541E-03     211.295E-03    -105.754E-03     49.4503E-03    -105.908E-03     211.521E-03    -105.503E-03     48.2986E-03
            1380     11.3381E-03     66.7877E-03    -30.3034E+06    -272.832E+03     43.3894E+06     -97.805E+03    -105.668E-03     211.453E-03    -105.785E-03     50.8859E-03    -106.003E-03     211.554E-03    -105.524E-03     49.8069E-03
            1381     10.5281E-03     66.7309E-03    -35.6681E+06    -22.6917E+06     35.6511E+06    -41.3313E+03    -105.738E-03     211.547E-03    -105.809E-03     51.1485E-03    -106.046E-03     211.544E-03    -105.546E-03     50.1457E-03
            1382     9.71799E-03     66.6743E-03    -41.2973E+06    -43.1998E+06     28.0290E+06    -13.2476E+03    -105.775E-03     211.606E-03    -105.831E-03     50.6099E-03    -106.059E-03     211.508E-03    -105.568E-03     49.6817E-03
            1383     8.90794E-03     66.6186E-03    -47.2658E+06     -60.827E+06     20.2664E+06    -6.31489E+03    -105.788E-03     211.638E-03    -105.851E-03     49.4810E-03    -106.053E-03     211.461E-03    -105.593E-03     48.6251E-03
            1384     8.09791E-03     66.5645E-03    -53.6406E+06    -77.3102E+06     11.9095E+06     6.40187E+03    -105.787E-03     211.656E-03    -105.868E-03     47.7682E-03    -106.038E-03     211.407E-03    -105.619E-03     46.9833E-03
            1385     7.28792E-03     66.5125E-03    -60.4992E+06    -93.6628E+06     2.54539E+06     28.7538E+03    -105.778E-03     211.661E-03    -105.883E-03     45.4560E-03    -106.015E-03     211.343E-03    -105.647E-03     44.7424E-03
            1386     6.47795E-03     66.4635E-03    -67.8023E+06    -110.113E+06    -8.05715E+06    -23.3746E+03    -105.762E-03     211.656E-03    -105.894E-03     42.5496E-03    -105.985E-03     211.270E-03    -105.676E-03     41.9068E-03
            1387     5.66803E-03     66.4179E-03    -75.5112E+06    -127.169E+06    -20.1524E+06    -76.8802E+03    -105.744E-03     211.644E-03    -105.900E-03     39.0470E-03    -105.953E-03     211.191E-03    -105.706E-03     38.4764E-03
            1388     4.85816E-03     66.3766E-03    -83.5865E+06    -144.618E+06    -34.0299E+06    -33.4989E+03    -105.726E-03     211.624E-03    -105.899E-03     34.9374E-03    -105.919E-03     211.106E-03    -105.738E-03     34.4425E-03
            1389     4.04833E-03     66.3402E-03    -91.8657E+06    -163.194E+06    -49.9414E+06    -11.7603E+03    -105.715E-03     211.605E-03    -105.890E-03     30.2376E-03    -105.890E-03     211.019E-03    -105.770E-03     29.8205E-03
            1390     3.23856E-03     66.3093E-03    -100.064E+06    -182.472E+06    -67.6885E+06    -14.4701E+03    -105.717E-03     211.589E-03    -105.872E-03     24.9909E-03    -105.871E-03     210.937E-03    -105.801E-03     24.6536E-03
            1391     2.42885E-03     66.2845E-03    -107.705E+06    -201.373E+06    -86.1060E+06     50.4971E+03    -105.733E-03     211.580E-03    -105.847E-03     19.2860E-03    -105.865E-03     210.864E-03    -105.830E-03     19.0311E-03
            1392     1.61919E-03     66.2663E-03    -114.060E+06    -218.057E+06    -103.007E+06     89.1967E+03    -105.759E-03     211.579E-03    -105.820E-03     13.2523E-03    -105.868E-03     210.808E-03    -105.853E-03     13.0802E-03
            1393     809.582E-06     66.2550E-03    -118.302E+06    -230.422E+06    -115.289E+06     43.8571E+03    -105.814E-03     211.583E-03    -105.769E-03     7.29088E-03    -105.906E-03     210.771E-03    -105.840E-03     7.19681E-03
            1394     15.3893E-03     65.8514E-03    -5.03577E+06     108.294E+06     92.3164E+06     20.6869E+03    -104.782E-03     210.501E-03    -105.719E-03     23.8909E-03    -105.187E-03     211.005E-03    -105.407E-03     22.7174E-03
            1395     14.5790E-03     65.8170E-03    -9.92409E+06     105.352E+06     77.7964E+06     266.626E+03    -104.925E-03     210.605E-03    -105.680E-03     35.0304E-03    -105.367E-03     211.160E-03    -105.429E-03     33.6953E-03
            1396     13.7687E-03     65.7753E-03    -14.7275E+06     96.0282E+06     68.2152E+06     390.616E+03    -105.094E-03     210.771E-03    -105.677E-03     41.4392E-03    -105.536E-03     211.303E-03    -105.453E-03     40.1796E-03
            1397     12.9585E-03     65.7262E-03    -19.7917E+06     65.6192E+06     60.9802E+06     142.396E+03    -105.317E-03     211.034E-03    -105.716E-03     46.5177E-03    -105.733E-03     211.435E-03    -105.478E-03     45.3058E-03
            1398     12.1483E-03     65.6728E-03    -24.9090E+06     26.6570E+06     50.6994E+06    -22.5823E+03    -105.531E-03     211.283E-03    -105.752E-03     49.4540E-03    -105.897E-03     211.509E-03    -105.501E-03     48.3031E-03
            1399     11.3382E-03     65.6169E-03    -30.0994E+06    -341.493E+03     43.4271E+06    -11.6759E+03    -105.646E-03     211.431E-03    -105.785E-03     50.8939E-03    -105.980E-03     211.531E-03    -105.524E-03     49.8165E-03
            1400     10.5280E-03     65.5602E-03    -35.5562E+06    -22.7858E+06     35.6481E+06     3.26722E+03    -105.715E-03     211.525E-03    -105.810E-03     51.1677E-03    -106.022E-03     211.522E-03    -105.547E-03     50.1660E-03
            1401     9.71796E-03     65.5036E-03    -41.2431E+06    -43.2486E+06     28.0277E+06     32.4657E+03    -105.759E-03     211.593E-03    -105.834E-03     50.6311E-03    -106.042E-03     211.495E-03    -105.571E-03     49.7042E-03
            1402     8.90789E-03     65.4479E-03    -47.2398E+06    -60.8374E+06     20.2675E+06     24.6973E+03    -105.780E-03     211.635E-03    -105.855E-03     49.5002E-03    -106.045E-03     211.458E-03    -105.597E-03     48.6452E-03
            1403     8.09786E-03     65.3938E-03    -53.6084E+06    -77.4186E+06     11.9034E+06     49.7299E+03    -105.787E-03     211.661E-03    -105.874E-03     47.7833E-03    -106.037E-03     211.411E-03    -105.624E-03     46.9993E-03
            1404     7.28787E-03     65.3418E-03    -60.3558E+06    -93.6582E+06     2.61441E+06     66.5138E+03    -105.783E-03     211.672E-03    -105.889E-03     45.4652E-03    -106.018E-03     211.353E-03    -105.653E-03     44.7521E-03
            1405     6.47791E-03     65.2927E-03    -67.5519E+06    -110.018E+06    -7.91198E+06     11.0999E+03    -105.769E-03     211.669E-03    -105.900E-03     42.5521E-03    -105.991E-03     211.284E-03    -105.682E-03     41.9096E-03
            1406     5.66800E-03     65.2472E-03    -75.2565E+06    -127.239E+06    -20.0301E+06    -8.44399E+03    -105.752E-03     211.659E-03    -105.906E-03     39.0436E-03    -105.960E-03     211.205E-03    -105.713E-03     38.4736E-03
            1407     4.85813E-03     65.2059E-03    -83.3804E+06    -144.683E+06    -33.9331E+06    -11.3772E+03    -105.734E-03     211.639E-03    -105.905E-03     34.9317E-03    -105.926E-03     211.120E-03    -105.744E-03     34.4368E-03
            1408     4.04831E-03     65.1694E-03    -91.7198E+06    -163.197E+06    -49.8736E+06    -36.8556E+03    -105.722E-03     211.618E-03    -105.896E-03     30.2317E-03    -105.897E-03     211.032E-03    -105.775E-03     29.8140E-03
            1409     3.23855E-03     65.1385E-03    -99.9700E+06    -182.593E+06    -67.6087E+06    -9.93694E+03    -105.724E-03     211.602E-03    -105.878E-03     24.9855E-03    -105.878E-03     210.949E-03    -105.806E-03     24.6480E-03
            1410     2.42884E-03     65.1137E-03    -107.622E+06    -201.466E+06    -86.0072E+06     46.4854E+03    -105.740E-03     211.592E-03    -105.853E-03     19.2823E-03    -105.871E-03     210.876E-03    -105.835E-03     19.0272E-03
            1411     1.61919E-03     65.0956E-03    -113.958E+06    -217.984E+06    -102.904E+06     33.4949E+03    -105.764E-03     211.589E-03    -105.825E-03     13.2508E-03    -105.873E-03     210.818E-03    -105.858E-03     13.0778E-03
            1412     809.579E-06     65.0842E-03    -118.196E+06    -230.385E+06    -115.163E+06     11.3690E+03    -105.820E-03     211.594E-03    -105.774E-03     7.29018E-03    -105.911E-03     210.782E-03    -105.844E-03     7.19563E-03
            1413     15.3893E-03     64.6806E-03    -5.09448E+06     108.261E+06     91.6810E+06    -30.6141E+03    -104.748E-03     210.462E-03    -105.714E-03     23.9420E-03    -105.152E-03     210.967E-03    -105.406E-03     22.7690E-03
            1414     14.5790E-03     64.6462E-03    -9.97249E+06     104.895E+06     77.0801E+06     8.63173E+03    -104.928E-03     210.604E-03    -105.676E-03     35.0507E-03    -105.368E-03     211.158E-03    -105.429E-03     33.7128E-03
            1415     13.7687E-03     64.6044E-03    -14.6173E+06     95.8458E+06     68.3203E+06     278.453E+03    -105.107E-03     210.783E-03    -105.676E-03     41.4091E-03    -105.548E-03     211.314E-03    -105.452E-03     40.1469E-03
            1416     12.9585E-03     64.5554E-03    -19.5161E+06     66.0688E+06     61.3566E+06     338.970E+03    -105.304E-03     211.020E-03    -105.716E-03     46.4985E-03    -105.720E-03     211.423E-03    -105.477E-03     45.2888E-03
            1417     12.1483E-03     64.5020E-03    -24.7244E+06     26.7288E+06     50.7852E+06     138.807E+03    -105.501E-03     211.254E-03    -105.753E-03     49.4687E-03    -105.867E-03     211.479E-03    -105.502E-03     48.3207E-03
            1418     11.3381E-03     64.4462E-03    -30.0196E+06    -424.401E+03     43.4521E+06     112.909E+03    -105.620E-03     211.407E-03    -105.788E-03     50.9252E-03    -105.953E-03     211.507E-03    -105.526E-03     49.8504E-03
            1419     10.5280E-03     64.3894E-03    -35.4682E+06    -22.7967E+06     35.7085E+06     137.934E+03    -105.701E-03     211.515E-03    -105.814E-03     51.1974E-03    -106.007E-03     211.512E-03    -105.551E-03     50.1984E-03
            1420     9.71789E-03     64.3329E-03    -41.1572E+06    -43.2564E+06     28.0988E+06     91.7637E+03    -105.756E-03     211.596E-03    -105.840E-03     50.6482E-03    -106.039E-03     211.498E-03    -105.577E-03     49.7226E-03
            1421     8.90783E-03     64.2772E-03    -47.1362E+06    -60.8460E+06     20.3247E+06     75.2541E+03    -105.785E-03     211.646E-03    -105.862E-03     49.5071E-03    -106.050E-03     211.469E-03    -105.603E-03     48.6530E-03
            1422     8.09781E-03     64.2231E-03    -53.4846E+06    -77.4763E+06     11.9398E+06     59.7689E+03    -105.796E-03     211.676E-03    -105.880E-03     47.7838E-03    -106.046E-03     211.426E-03    -105.630E-03     46.9998E-03
            1423     7.28782E-03     64.1711E-03    -60.2435E+06    -93.6159E+06     2.67532E+06     16.7218E+03    -105.793E-03     211.688E-03    -105.895E-03     45.4617E-03    -106.028E-03     211.369E-03    -105.658E-03     44.7476E-03
            1424     6.47788E-03     64.1220E-03    -67.4603E+06    -110.056E+06    -7.84201E+06     24.2767E+03    -105.779E-03     211.685E-03    -105.906E-03     42.5462E-03    -106.001E-03     211.299E-03    -105.687E-03     41.9035E-03
            1425     5.66797E-03     64.0764E-03    -75.1519E+06    -127.284E+06    -19.9297E+06     63.9869E+03    -105.761E-03     211.672E-03    -105.911E-03     39.0375E-03    -105.968E-03     211.218E-03    -105.717E-03     38.4682E-03
            1426     4.85811E-03     64.0351E-03    -83.2504E+06    -144.661E+06    -33.8008E+06     51.3664E+03    -105.740E-03     211.650E-03    -105.909E-03     34.9265E-03    -105.932E-03     211.131E-03    -105.748E-03     34.4322E-03
            1427     4.04830E-03     63.9987E-03    -91.6082E+06    -163.208E+06    -49.7318E+06     29.2216E+03    -105.728E-03     211.628E-03    -105.900E-03     30.2274E-03    -105.902E-03     211.042E-03    -105.779E-03     29.8104E-03
            1428     3.23854E-03     63.9678E-03    -99.8953E+06    -182.683E+06    -67.4811E+06     25.9604E+03    -105.729E-03     211.611E-03    -105.882E-03     24.9833E-03    -105.882E-03     210.957E-03    -105.810E-03     24.6461E-03
            1429     2.42883E-03     63.9430E-03    -107.549E+06    -201.472E+06    -85.9389E+06     12.6440E+03    -105.744E-03     211.600E-03    -105.856E-03     19.2819E-03    -105.874E-03     210.883E-03    -105.838E-03     19.0263E-03
            1430     1.61918E-03     63.9248E-03    -113.873E+06    -217.959E+06    -102.849E+06    -25.3340E+03    -105.768E-03     211.596E-03    -105.829E-03     13.2508E-03    -105.877E-03     210.826E-03    -105.862E-03     13.0770E-03
            1431     809.576E-06     63.9134E-03    -118.108E+06    -230.455E+06    -115.087E+06    -30.7688E+03    -105.824E-03     211.601E-03    -105.778E-03     7.29005E-03    -105.915E-03     210.789E-03    -105.848E-03     7.19488E-03
            1432     15.3893E-03     63.5099E-03    -5.02616E+06     108.252E+06     91.9530E+06     14.1281E+03    -104.755E-03     210.470E-03    -105.715E-03     23.9258E-03    -105.159E-03     210.974E-03    -105.405E-03     22.7533E-03
            1433     14.5790E-03     63.4754E-03    -10.0868E+06     104.762E+06     77.1299E+06    -5.57754E+03    -104.934E-03     210.610E-03    -105.676E-03     35.0431E-03    -105.375E-03     211.164E-03    -105.428E-03     33.7050E-03
            1434     13.7688E-03     63.4336E-03    -15.0003E+06     95.4957E+06     68.0110E+06     15.4783E+03    -105.079E-03     210.754E-03    -105.676E-03     41.4311E-03    -105.521E-03     211.285E-03    -105.452E-03     40.1662E-03
            1435     12.9585E-03     63.3846E-03    -19.8174E+06     66.0310E+06     61.2747E+06     206.390E+03    -105.265E-03     210.984E-03    -105.718E-03     46.5495E-03    -105.682E-03     211.387E-03    -105.479E-03     45.3397E-03
            1436     12.1482E-03     63.3313E-03    -24.7704E+06     26.8759E+06     50.8694E+06     321.843E+03    -105.476E-03     211.233E-03    -105.757E-03     49.5177E-03    -105.842E-03     211.459E-03    -105.506E-03     48.3736E-03
            1437     11.3380E-03     63.2755E-03    -29.9973E+06    -460.596E+03     43.5093E+06     262.066E+03    -105.613E-03     211.407E-03    -105.794E-03     50.9510E-03    -105.947E-03     211.506E-03    -105.532E-03     49.8789E-03
            1438     10.5279E-03     63.2187E-03    -35.4231E+06    -22.7418E+06     35.7778E+06     209.598E+03    -105.706E-03     211.527E-03    -105.821E-03     51.2021E-03    -106.013E-03     211.523E-03    -105.558E-03     50.2042E-03
            1439     9.71782E-03     63.1622E-03    -41.0610E+06    -43.1825E+06     28.1782E+06     146.229E+03    -105.767E-03     211.613E-03    -105.846E-03     50.6395E-03    -106.049E-03     211.515E-03    -105.583E-03     49.7143E-03
            1440     8.90778E-03     63.1065E-03    -47.0359E+06    -60.8797E+06     20.3817E+06     106.065E+03    -105.797E-03     211.664E-03    -105.867E-03     49.4933E-03    -106.062E-03     211.487E-03    -105.609E-03     48.6391E-03
            1441     8.09777E-03     63.0523E-03    -53.3839E+06    -77.4160E+06     12.0075E+06     75.2751E+03    -105.807E-03     211.692E-03    -105.885E-03     47.7730E-03    -106.057E-03     211.443E-03    -105.635E-03     46.9887E-03
            1442     7.28779E-03     63.0003E-03    -60.1766E+06    -93.6145E+06     2.72654E+06     38.1086E+03    -105.802E-03     211.702E-03    -105.899E-03     45.4542E-03    -106.038E-03     211.383E-03    -105.663E-03     44.7399E-03
            1443     6.47785E-03     62.9512E-03    -67.4485E+06    -110.163E+06    -7.81581E+06     67.0142E+03    -105.787E-03     211.696E-03    -105.910E-03     42.5415E-03    -106.008E-03     211.310E-03    -105.691E-03     41.8990E-03
            1444     5.66795E-03     62.9057E-03    -75.1593E+06    -127.291E+06    -19.8518E+06     82.3128E+03    -105.766E-03     211.681E-03    -105.915E-03     39.0359E-03    -105.974E-03     211.227E-03    -105.721E-03     38.4664E-03
            1445     4.85810E-03     62.8643E-03     -83.234E+06    -144.656E+06    -33.6786E+06     72.4831E+03    -105.745E-03     211.658E-03    -105.913E-03     34.9266E-03    -105.937E-03     211.139E-03    -105.751E-03     34.4323E-03
            1446     4.04829E-03     62.8279E-03    -91.5368E+06    -163.202E+06    -49.5933E+06     62.6584E+03    -105.731E-03     211.635E-03    -105.904E-03     30.2290E-03    -105.906E-03     211.049E-03    -105.782E-03     29.8122E-03
            1447     3.23853E-03     62.7970E-03    -99.7700E+06    -182.686E+06    -67.3227E+06     36.9025E+03    -105.733E-03     211.618E-03    -105.886E-03     24.9856E-03    -105.886E-03     210.964E-03    -105.813E-03     24.6484E-03
            1448     2.42883E-03     62.7722E-03    -107.420E+06    -201.433E+06    -85.8018E+06    -8.02752E+03    -105.747E-03     211.607E-03    -105.860E-03     19.2840E-03    -105.878E-03     210.890E-03    -105.841E-03     19.0280E-03
            1449     1.61918E-03     62.7540E-03    -113.779E+06    -217.997E+06    -102.773E+06    -42.7167E+03    -105.771E-03     211.603E-03    -105.832E-03     13.2524E-03    -105.879E-03     210.831E-03    -105.865E-03     13.0783E-03
            1450     809.574E-06     62.7427E-03    -118.051E+06    -230.570E+06    -115.044E+06    -27.0218E+03    -105.827E-03     211.608E-03    -105.781E-03     7.29096E-03    -105.918E-03     210.795E-03    -105.851E-03     7.19582E-03
            1451     15.3894E-03     62.3390E-03    -5.06235E+06     108.169E+06     92.1303E+06     31.6897E+03    -104.737E-03     210.453E-03    -105.716E-03     23.9450E-03    -105.142E-03     210.957E-03    -105.405E-03     22.7738E-03
            1452     14.5790E-03     62.3046E-03    -10.0384E+06     104.808E+06     77.2760E+06     74.4373E+03    -104.879E-03     210.558E-03    -105.678E-03     35.1221E-03    -105.320E-03     211.111E-03    -105.429E-03     33.7877E-03
            1453     13.7687E-03     62.2629E-03    -14.9498E+06     95.4355E+06     68.0203E+06     30.0251E+03    -105.041E-03     210.721E-03    -105.680E-03     41.5013E-03    -105.483E-03     211.251E-03    -105.457E-03     40.2386E-03
            1454     12.9584E-03     62.2139E-03    -20.0266E+06     65.6703E+06     61.1183E+06     78.7196E+03    -105.257E-03     210.982E-03    -105.724E-03     46.5861E-03    -105.675E-03     211.384E-03    -105.485E-03     45.3756E-03
            1455     12.1481E-03     62.1606E-03    -25.0749E+06     26.7646E+06     50.7601E+06     254.013E+03    -105.487E-03     211.251E-03    -105.764E-03     49.5151E-03    -105.855E-03     211.477E-03    -105.512E-03     48.3701E-03
            1456     11.3380E-03     62.1048E-03    -30.1449E+06    -343.209E+03     43.5287E+06     295.520E+03    -105.629E-03     211.428E-03    -105.800E-03     50.9275E-03    -105.963E-03     211.528E-03    -105.538E-03     49.8554E-03
            1457     10.5279E-03     62.0480E-03    -35.4820E+06    -22.6621E+06     35.8028E+06     198.975E+03    -105.720E-03     211.546E-03    -105.826E-03     51.1749E-03    -106.027E-03     211.542E-03    -105.563E-03     50.1762E-03
            1458     9.71779E-03     61.9914E-03    -41.0987E+06    -43.1296E+06     28.2022E+06     150.363E+03    -105.776E-03     211.627E-03    -105.851E-03     50.6152E-03    -106.060E-03     211.530E-03    -105.587E-03     49.6895E-03
            1459     8.90775E-03     61.9357E-03    -47.0513E+06    -60.8751E+06     20.4157E+06     128.681E+03    -105.805E-03     211.676E-03    -105.871E-03     49.4772E-03    -106.070E-03     211.499E-03    -105.613E-03     48.6228E-03
            1460     8.09774E-03     61.8816E-03    -53.4126E+06    -77.3622E+06     12.0484E+06     94.2563E+03    -105.813E-03     211.702E-03    -105.889E-03     47.7661E-03    -106.063E-03     211.452E-03    -105.639E-03     46.9817E-03
            1461     7.28777E-03     61.8296E-03    -60.2085E+06    -93.6463E+06     2.75111E+06     87.1640E+03    -105.807E-03     211.710E-03    -105.903E-03     45.4518E-03    -106.042E-03     211.391E-03    -105.666E-03     44.7379E-03
            1462     6.47783E-03     61.7805E-03    -67.4422E+06    -110.213E+06    -7.75157E+06     88.1029E+03    -105.791E-03     211.704E-03    -105.913E-03     42.5422E-03    -106.012E-03     211.317E-03    -105.694E-03     41.8996E-03
            1463     5.66794E-03     61.7349E-03    -75.1039E+06    -127.272E+06    -19.7426E+06     71.5642E+03    -105.769E-03     211.688E-03    -105.919E-03     39.0397E-03    -105.976E-03     211.234E-03    -105.724E-03     38.4698E-03
            1464     4.85808E-03     61.6936E-03    -83.1688E+06    -144.657E+06    -33.5576E+06     42.9679E+03    -105.747E-03     211.664E-03    -105.917E-03     34.9323E-03    -105.940E-03     211.145E-03    -105.754E-03     34.4373E-03
            1465     4.04827E-03     61.6571E-03    -91.4888E+06    -163.226E+06    -49.4951E+06     42.5637E+03    -105.735E-03     211.642E-03    -105.908E-03     30.2350E-03    -105.909E-03     211.056E-03    -105.786E-03     29.8178E-03
            1466     3.23852E-03     61.6262E-03    -99.7466E+06    -182.644E+06    -67.2886E+06     33.5105E+03    -105.736E-03     211.625E-03    -105.889E-03     24.9911E-03    -105.889E-03     210.971E-03    -105.816E-03     24.6538E-03
            1467     2.42882E-03     61.6014E-03    -107.409E+06    -201.400E+06    -85.7886E+06    -16.2575E+03    -105.750E-03     211.614E-03    -105.863E-03     19.2888E-03    -105.881E-03     210.897E-03    -105.845E-03     19.0326E-03
            1468     1.61917E-03     61.5832E-03    -113.771E+06    -218.079E+06    -102.747E+06    -23.5612E+03    -105.775E-03     211.610E-03    -105.836E-03     13.2557E-03    -105.883E-03     210.839E-03    -105.868E-03     13.0818E-03
            1469     809.571E-06     61.5719E-03    -118.052E+06    -230.645E+06    -115.030E+06    -1.05661E+03    -105.831E-03     211.616E-03    -105.785E-03     7.29259E-03    -105.922E-03     210.802E-03    -105.854E-03     7.19776E-03
            1470     15.3893E-03     61.1684E-03    -5.09785E+06     108.103E+06     92.2334E+06     9.40665E+03    -104.699E-03     210.419E-03    -105.720E-03     24.0153E-03    -105.104E-03     210.922E-03    -105.408E-03     22.8454E-03
            1471     14.5789E-03     61.1339E-03    -10.0727E+06     104.751E+06     77.4537E+06     21.6492E+03    -104.854E-03     210.538E-03    -105.685E-03     35.1768E-03    -105.295E-03     211.091E-03    -105.435E-03     33.8441E-03
            1472     13.7685E-03     61.0921E-03    -14.9277E+06     95.3319E+06     68.2645E+06     138.971E+03    -105.049E-03     210.736E-03    -105.688E-03     41.4695E-03    -105.491E-03     211.266E-03    -105.463E-03     40.2079E-03
            1473     12.9583E-03     61.0432E-03    -19.9499E+06     65.5665E+06     61.3080E+06     190.738E+03    -105.281E-03     211.012E-03    -105.731E-03     46.5211E-03    -105.698E-03     211.413E-03    -105.490E-03     45.3106E-03
            1474     12.1481E-03     60.9898E-03    -25.0384E+06     26.6175E+06     50.7568E+06     159.503E+03    -105.506E-03     211.274E-03    -105.768E-03     49.4635E-03    -105.873E-03     211.500E-03    -105.516E-03     48.3159E-03
            1475     11.3379E-03     60.9340E-03    -30.1499E+06    -329.347E+03     43.5537E+06     187.938E+03    -105.640E-03     211.443E-03    -105.803E-03     50.8956E-03    -105.975E-03     211.543E-03    -105.541E-03     49.8210E-03
            1476     10.5278E-03     60.8772E-03    -35.4745E+06    -22.5435E+06     35.8814E+06     172.916E+03    -105.725E-03     211.555E-03    -105.829E-03     51.1574E-03    -106.033E-03     211.552E-03    -105.566E-03     50.1576E-03
            1477     9.71777E-03     60.8207E-03    -41.0903E+06    -43.1461E+06     28.2503E+06     126.407E+03    -105.779E-03     211.633E-03    -105.854E-03     50.6074E-03    -106.062E-03     211.535E-03    -105.590E-03     49.6810E-03
            1478     8.90773E-03     60.7650E-03    -47.0265E+06    -60.8447E+06     20.4698E+06     115.304E+03    -105.806E-03     211.681E-03    -105.874E-03     49.4773E-03    -106.071E-03     211.503E-03    -105.616E-03     48.6224E-03
            1479     8.09772E-03     60.7108E-03    -53.3562E+06    -77.3868E+06     12.1229E+06     120.427E+03    -105.815E-03     211.707E-03    -105.892E-03     47.7681E-03    -106.064E-03     211.457E-03    -105.642E-03     46.9837E-03
            1480     7.28775E-03     60.6588E-03    -60.1447E+06    -93.6436E+06     2.83297E+06     122.163E+03    -105.808E-03     211.714E-03    -105.906E-03     45.4564E-03    -106.043E-03     211.395E-03    -105.669E-03     44.7427E-03
            1481     6.47781E-03     60.6097E-03    -67.3917E+06    -110.194E+06    -7.67805E+06        85.3E+03    -105.792E-03     211.709E-03    -105.917E-03     42.5510E-03    -106.013E-03     211.322E-03    -105.698E-03     41.9082E-03
            1482     5.66792E-03     60.5641E-03    -75.0772E+06    -127.250E+06    -19.6871E+06     45.1739E+03    -105.771E-03     211.694E-03    -105.923E-03     39.0503E-03    -105.978E-03     211.240E-03    -105.728E-03     38.4799E-03
            1483     4.85806E-03     60.5228E-03    -83.1653E+06    -144.655E+06    -33.5343E+06     21.2905E+03    -105.750E-03     211.671E-03    -105.921E-03     34.9431E-03    -105.942E-03     211.152E-03    -105.759E-03     34.4476E-03
            1484     4.04826E-03     60.4863E-03    -91.5107E+06    -163.303E+06    -49.4866E+06     36.6585E+03    -105.738E-03     211.650E-03    -105.912E-03     30.2445E-03    -105.912E-03     211.063E-03    -105.790E-03     29.8270E-03
            1485     3.23850E-03     60.4554E-03    -99.7753E+06    -182.593E+06    -67.3072E+06     42.2574E+03    -105.739E-03     211.633E-03    -105.894E-03     24.9992E-03    -105.892E-03     210.979E-03    -105.821E-03     24.6619E-03
            1486     2.42880E-03     60.4307E-03    -107.451E+06    -201.372E+06    -85.8391E+06    -4.54532E+03    -105.754E-03     211.622E-03    -105.868E-03     19.2948E-03    -105.885E-03     210.905E-03    -105.849E-03     19.0386E-03
            1487     1.61916E-03     60.4125E-03    -113.827E+06    -218.170E+06    -102.772E+06    -23.0773E+03    -105.780E-03     211.620E-03    -105.841E-03     13.2595E-03    -105.888E-03     210.848E-03    -105.873E-03     13.0855E-03
            1488     809.568E-06     60.4011E-03    -118.099E+06    -230.688E+06    -115.055E+06    -1.54385E+03    -105.836E-03     211.626E-03    -105.790E-03     7.29471E-03    -105.927E-03     210.812E-03    -105.859E-03     7.19983E-03
            1489     15.3891E-03     59.9976E-03    -5.06461E+06     108.051E+06     92.8952E+06     17.5968E+03    -104.721E-03     210.450E-03    -105.729E-03     23.9787E-03    -105.126E-03     210.952E-03    -105.414E-03     22.8080E-03
            1490     14.5788E-03     59.9631E-03    -10.1244E+06     104.628E+06     78.3518E+06     40.4102E+03    -104.896E-03     210.589E-03    -105.694E-03     35.1104E-03    -105.338E-03     211.140E-03    -105.439E-03     33.7767E-03
            1491     13.7686E-03     59.9213E-03    -15.0231E+06     95.1840E+06     68.4370E+06     75.9558E+03    -105.067E-03     210.758E-03    -105.691E-03     41.4092E-03    -105.509E-03     211.287E-03    -105.465E-03     40.1458E-03
            1492     12.9583E-03     59.8724E-03    -19.9069E+06     65.5095E+06     61.3457E+06     140.947E+03    -105.286E-03     211.019E-03    -105.733E-03     46.4790E-03    -105.703E-03     211.420E-03    -105.492E-03     45.2668E-03
            1493     12.1481E-03     59.8190E-03    -24.9356E+06     26.6213E+06     50.8554E+06     183.708E+03    -105.506E-03     211.276E-03    -105.770E-03     49.4452E-03    -105.873E-03     211.501E-03    -105.518E-03     48.2973E-03
            1494     11.3379E-03     59.7632E-03    -30.1221E+06    -335.334E+03     43.5966E+06     133.193E+03    -105.638E-03     211.443E-03    -105.805E-03     50.8930E-03    -105.972E-03     211.543E-03    -105.543E-03     49.8174E-03
            1495     10.5278E-03     59.7064E-03    -35.4743E+06    -22.5228E+06     35.9138E+06     108.881E+03    -105.722E-03     211.554E-03    -105.832E-03     51.1619E-03    -106.030E-03     211.552E-03    -105.568E-03     50.1610E-03
            1496     9.71774E-03     59.6499E-03    -41.0809E+06    -43.1519E+06     28.2843E+06     116.407E+03    -105.778E-03     211.634E-03    -105.857E-03     50.6157E-03    -106.061E-03     211.537E-03    -105.593E-03     49.6888E-03
            1497     8.90770E-03     59.5942E-03    -47.0812E+06    -60.8716E+06     20.4861E+06     123.052E+03    -105.806E-03     211.684E-03    -105.878E-03     49.4889E-03    -106.071E-03     211.506E-03    -105.619E-03     48.6337E-03
            1498     8.09769E-03     59.5400E-03    -53.4586E+06    -77.3957E+06     12.1299E+06     120.633E+03    -105.814E-03     211.709E-03    -105.896E-03     47.7822E-03    -106.064E-03     211.460E-03    -105.645E-03     46.9975E-03
            1499     7.28772E-03     59.4880E-03    -60.2128E+06    -93.6500E+06     2.84423E+06     107.984E+03    -105.807E-03     211.717E-03    -105.911E-03     45.4723E-03    -106.042E-03     211.399E-03    -105.673E-03     44.7582E-03
            1500     6.47778E-03     59.4389E-03    -67.4299E+06    -110.127E+06       -7.68E+06     82.4281E+03    -105.791E-03     211.713E-03    -105.922E-03     42.5684E-03    -106.013E-03     211.327E-03    -105.703E-03     41.9253E-03
            1501     5.66789E-03     59.3934E-03    -75.1163E+06    -127.222E+06    -19.7082E+06     24.5884E+03    -105.773E-03     211.701E-03    -105.928E-03     39.0671E-03    -105.980E-03     211.247E-03    -105.733E-03     38.4961E-03
            1502     4.85804E-03     59.3520E-03    -83.2093E+06    -144.709E+06    -33.5724E+06     25.4736E+03    -105.754E-03     211.681E-03    -105.927E-03     34.9582E-03    -105.946E-03     211.161E-03    -105.764E-03     34.4625E-03
            1503     4.04823E-03     59.3156E-03    -91.5557E+06    -163.343E+06    -49.5274E+06     43.0902E+03    -105.743E-03     211.661E-03    -105.918E-03     30.2580E-03    -105.917E-03     211.074E-03    -105.796E-03     29.8404E-03
            1504     3.23848E-03     59.2846E-03    -99.8225E+06    -182.582E+06    -67.3202E+06     33.0469E+03    -105.745E-03     211.645E-03    -105.900E-03     25.0099E-03    -105.898E-03     210.991E-03    -105.827E-03     24.6722E-03
            1505     2.42879E-03     59.2599E-03    -107.482E+06    -201.335E+06    -85.8536E+06     12.5136E+03    -105.760E-03     211.635E-03    -105.874E-03     19.3025E-03    -105.891E-03     210.918E-03    -105.856E-03     19.0464E-03
            1506     1.61915E-03     59.2416E-03    -113.856E+06    -218.233E+06    -102.826E+06    -13.0633E+03    -105.786E-03     211.633E-03    -105.847E-03     13.2648E-03    -105.894E-03     210.861E-03    -105.880E-03     13.0909E-03
            1507     809.562E-06     59.2303E-03    -118.151E+06    -230.740E+06    -115.117E+06    -4.02060E+03    -105.843E-03     211.639E-03    -105.796E-03     7.29780E-03    -105.933E-03     210.825E-03    -105.866E-03     7.20281E-03
            1508     15.3891E-03     58.8268E-03    -5.07074E+06     107.971E+06     93.4295E+06     15.9192E+03    -104.758E-03     210.493E-03    -105.734E-03     23.8955E-03    -105.164E-03     210.993E-03    -105.416E-03     22.7235E-03
            1509     14.5789E-03     58.7923E-03    -10.1093E+06     104.577E+06     79.0141E+06     40.7675E+03    -104.910E-03     210.608E-03    -105.698E-03     35.0601E-03    -105.353E-03     211.157E-03    -105.440E-03     33.7253E-03
            1510     13.7686E-03     58.7506E-03    -15.0276E+06     95.1836E+06     68.4057E+06     1.95844E+03    -105.063E-03     210.755E-03    -105.692E-03     41.4185E-03    -105.506E-03     211.284E-03    -105.466E-03     40.1547E-03
            1511     12.9583E-03     58.7016E-03    -20.0323E+06     65.2823E+06     61.0749E+06     53.9516E+03    -105.277E-03     211.011E-03    -105.733E-03     46.4919E-03    -105.694E-03     211.411E-03    -105.493E-03     45.2791E-03
            1512     12.1481E-03     58.6482E-03    -25.0633E+06     26.5983E+06     50.8082E+06     153.796E+03    -105.498E-03     211.270E-03    -105.772E-03     49.4509E-03    -105.865E-03     211.495E-03    -105.520E-03     48.3027E-03
            1513     11.3379E-03     58.5925E-03    -30.1814E+06    -227.672E+03     43.6100E+06     118.085E+03    -105.630E-03     211.438E-03    -105.808E-03     50.9023E-03    -105.965E-03     211.538E-03    -105.546E-03     49.8264E-03
            1514     10.5278E-03     58.5357E-03    -35.5733E+06    -22.5915E+06     35.8789E+06     81.1597E+03    -105.717E-03     211.552E-03    -105.835E-03     51.1738E-03    -106.025E-03     211.549E-03    -105.571E-03     50.1724E-03
            1515     9.71770E-03     58.4791E-03    -41.2404E+06    -43.1863E+06     28.2408E+06     114.404E+03    -105.774E-03     211.635E-03    -105.860E-03     50.6314E-03    -106.058E-03     211.537E-03    -105.597E-03     49.7042E-03
            1516     8.90766E-03     58.4234E-03    -47.1949E+06    -60.9117E+06     20.4603E+06     133.840E+03    -105.803E-03     211.685E-03    -105.882E-03     49.5066E-03    -106.069E-03     211.508E-03    -105.623E-03     48.6513E-03
            1517     8.09765E-03     58.3693E-03    -53.5397E+06    -77.3458E+06     12.1169E+06     108.358E+03    -105.811E-03     211.712E-03    -105.901E-03     47.8023E-03    -106.061E-03     211.462E-03    -105.650E-03     47.0173E-03
            1518     7.28768E-03     58.3173E-03    -60.3366E+06    -93.6660E+06     2.79502E+06     69.8780E+03    -105.806E-03     211.722E-03    -105.916E-03     45.4941E-03    -106.042E-03     211.404E-03    -105.679E-03     44.7792E-03
            1519     6.47774E-03     58.2682E-03    -67.5626E+06    -110.076E+06    -7.73503E+06     40.0474E+03    -105.792E-03     211.720E-03    -105.928E-03     42.5904E-03    -106.015E-03     211.335E-03    -105.709E-03     41.9464E-03
            1520     5.66785E-03     58.2226E-03    -75.2386E+06    -127.199E+06    -19.7900E+06     4.84009E+03    -105.775E-03     211.710E-03    -105.935E-03     39.0882E-03    -105.983E-03     211.257E-03    -105.740E-03     38.5167E-03
            1521     4.85800E-03     58.1812E-03    -83.3240E+06    -144.801E+06    -33.6557E+06     4.56223E+03    -105.759E-03     211.693E-03    -105.935E-03     34.9770E-03    -105.951E-03     211.174E-03    -105.772E-03     34.4808E-03
            1522     4.04820E-03     58.1447E-03    -91.6430E+06    -163.354E+06    -49.5724E+06     20.8948E+03    -105.749E-03     211.675E-03    -105.926E-03     30.2740E-03    -105.924E-03     211.089E-03    -105.804E-03     29.8558E-03
            1523     3.23845E-03     58.1138E-03    -99.8899E+06    -182.597E+06    -67.3816E+06     13.4562E+03    -105.752E-03     211.660E-03    -105.908E-03     25.0231E-03    -105.906E-03     211.007E-03    -105.836E-03     24.6850E-03
            1524     2.42877E-03     58.0890E-03    -107.554E+06    -201.339E+06    -85.9356E+06     11.1625E+03    -105.768E-03     211.651E-03    -105.883E-03     19.3132E-03    -105.899E-03     210.935E-03    -105.865E-03     19.0570E-03
            1525     1.61914E-03     58.0708E-03    -113.920E+06    -218.259E+06    -102.894E+06     13.0247E+03    -105.794E-03     211.651E-03    -105.856E-03     13.2723E-03    -105.903E-03     210.878E-03    -105.889E-03     13.0986E-03
            1526     809.554E-06     58.0595E-03    -118.202E+06    -230.778E+06    -115.167E+06     3.50758E+03    -105.852E-03     211.657E-03    -105.805E-03     7.30191E-03    -105.943E-03     210.843E-03    -105.875E-03     7.20694E-03
            1527     15.3892E-03     57.6559E-03    -5.09338E+06     107.937E+06     93.2548E+06    -17.3904E+03    -104.750E-03     210.483E-03    -105.733E-03     23.8875E-03    -105.156E-03     210.984E-03    -105.416E-03     22.7153E-03
            1528     14.5788E-03     57.6215E-03    -10.1369E+06     104.543E+06     78.7804E+06    -23.1710E+03    -104.893E-03     210.590E-03    -105.697E-03     35.0554E-03    -105.336E-03     211.140E-03    -105.440E-03     33.7200E-03
            1529     13.7685E-03     57.5798E-03    -15.0511E+06     95.1191E+06     68.3516E+06     34.3989E+03    -105.057E-03     210.750E-03    -105.693E-03     41.4118E-03    -105.500E-03     211.278E-03    -105.467E-03     40.1486E-03
            1530     12.9582E-03     57.5308E-03    -20.0627E+06     65.1481E+06     61.0349E+06     75.9570E+03    -105.271E-03     211.006E-03    -105.735E-03     46.4870E-03    -105.688E-03     211.406E-03    -105.495E-03     45.2746E-03
            1531     12.1480E-03     57.4775E-03    -25.1207E+06     26.5612E+06     50.7749E+06     60.4425E+03    -105.489E-03     211.263E-03    -105.774E-03     49.4534E-03    -105.856E-03     211.488E-03    -105.522E-03     48.3041E-03
            1532     11.3379E-03     57.4217E-03    -30.2497E+06    -216.399E+03     43.5922E+06     76.1543E+03    -105.621E-03     211.432E-03    -105.811E-03     50.9088E-03    -105.957E-03     211.533E-03    -105.549E-03     49.8324E-03
            1533     10.5277E-03     57.3649E-03    -35.6283E+06    -22.6498E+06     35.8559E+06     111.461E+03    -105.709E-03     211.548E-03    -105.839E-03     51.1843E-03    -106.018E-03     211.546E-03    -105.575E-03     50.1832E-03
            1534     9.71765E-03     57.3084E-03    -41.2735E+06    -43.2080E+06     28.2249E+06     105.554E+03    -105.768E-03     211.633E-03    -105.865E-03     50.6480E-03    -106.052E-03     211.536E-03    -105.602E-03     49.7205E-03
            1535     8.90761E-03     57.2527E-03    -47.2147E+06    -60.9319E+06     20.4443E+06     85.8477E+03    -105.798E-03     211.686E-03    -105.888E-03     49.5256E-03    -106.064E-03     211.509E-03    -105.629E-03     48.6695E-03
            1536     8.09760E-03     57.1985E-03    -53.5413E+06    -77.3261E+06     12.1174E+06     82.4893E+03    -105.808E-03     211.716E-03    -105.908E-03     47.8241E-03    -106.059E-03     211.467E-03    -105.657E-03     47.0384E-03
            1537     7.28762E-03     57.1465E-03    -60.3147E+06    -93.6370E+06     2.79852E+06     55.1624E+03    -105.806E-03     211.730E-03    -105.924E-03     45.5188E-03    -106.043E-03     211.412E-03    -105.687E-03     44.8033E-03
            1538     6.47769E-03     57.0974E-03    -67.5558E+06    -110.058E+06    -7.73776E+06     14.9170E+03    -105.795E-03     211.732E-03    -105.937E-03     42.6157E-03    -106.018E-03     211.346E-03    -105.718E-03     41.9710E-03
            1539     5.66779E-03     57.0518E-03    -75.2588E+06    -127.203E+06    -19.8068E+06    -5.16590E+03    -105.781E-03     211.725E-03    -105.944E-03     39.1119E-03    -105.989E-03     211.271E-03    -105.750E-03     38.5399E-03
            1540     4.85795E-03     57.0104E-03    -83.3552E+06    -144.853E+06    -33.7009E+06    -16.7663E+03    -105.765E-03     211.710E-03    -105.944E-03     34.9983E-03    -105.958E-03     211.190E-03    -105.782E-03     34.5014E-03
            1541     4.04816E-03     56.9739E-03    -91.6928E+06    -163.398E+06    -49.6321E+06    -15.2611E+03    -105.757E-03     211.694E-03    -105.937E-03     30.2930E-03    -105.932E-03     211.107E-03    -105.815E-03     29.8739E-03
            1542     3.23842E-03     56.9430E-03    -99.9574E+06    -182.633E+06    -67.4625E+06     2.02490E+03    -105.761E-03     211.680E-03    -105.919E-03     25.0395E-03    -105.915E-03     211.026E-03    -105.847E-03     24.7009E-03
            1543     2.42874E-03     56.9182E-03    -107.621E+06    -201.371E+06    -86.0083E+06     11.9754E+03    -105.778E-03     211.672E-03    -105.894E-03     19.3260E-03    -105.909E-03     210.956E-03    -105.876E-03     19.0695E-03
            1544     1.61912E-03     56.9000E-03    -113.979E+06    -218.281E+06    -102.937E+06     10.5604E+03    -105.806E-03     211.674E-03    -105.868E-03     13.2812E-03    -105.915E-03     210.902E-03    -105.901E-03     13.1073E-03
            1545     809.545E-06     56.8886E-03    -118.254E+06    -230.789E+06    -115.220E+06     17.1043E+03    -105.864E-03     211.681E-03    -105.817E-03     7.30678E-03    -105.955E-03     210.867E-03    -105.887E-03     7.21192E-03
            1546     15.3891E-03     56.4852E-03    -5.09193E+06     107.927E+06     93.2167E+06    -14.9138E+03    -104.734E-03     210.467E-03    -105.733E-03     23.8820E-03    -105.140E-03     210.968E-03    -105.416E-03     22.7101E-03
            1547     14.5788E-03     56.4507E-03    -10.1751E+06     104.478E+06     78.8188E+06    -9.82754E+03    -104.887E-03     210.586E-03    -105.699E-03     35.0443E-03    -105.330E-03     211.135E-03    -105.441E-03     33.7093E-03
            1548     13.7685E-03     56.4090E-03    -15.1139E+06     94.9918E+06     68.3863E+06     17.7308E+03    -105.050E-03     210.745E-03    -105.695E-03     41.4078E-03    -105.493E-03     211.273E-03    -105.469E-03     40.1444E-03
            1549     12.9582E-03     56.3601E-03    -20.0586E+06     65.1147E+06     61.0455E+06     48.6415E+03    -105.261E-03     210.998E-03    -105.737E-03     46.4901E-03    -105.678E-03     211.398E-03    -105.497E-03     45.2774E-03
            1550     12.1480E-03     56.3067E-03    -25.1018E+06     26.5656E+06     50.7842E+06     43.5730E+03    -105.478E-03     211.255E-03    -105.777E-03     49.4643E-03    -105.845E-03     211.480E-03    -105.525E-03     48.3148E-03
            1551     11.3378E-03     56.2509E-03    -30.2793E+06    -309.212E+03     43.5517E+06     47.5471E+03    -105.612E-03     211.426E-03    -105.815E-03     50.9256E-03    -105.947E-03     211.527E-03    -105.552E-03     49.8487E-03
            1552     10.5277E-03     56.1942E-03    -35.6372E+06    -22.7065E+06     35.8341E+06     78.9054E+03    -105.701E-03     211.545E-03    -105.844E-03     51.2053E-03    -106.009E-03     211.542E-03    -105.580E-03     50.2035E-03
            1553     9.71760E-03     56.1376E-03    -41.2447E+06    -43.1930E+06     28.2363E+06     79.9706E+03    -105.760E-03     211.632E-03    -105.871E-03     50.6704E-03    -106.045E-03     211.534E-03    -105.608E-03     49.7423E-03
            1554     8.90755E-03     56.0819E-03    -47.2136E+06    -60.9434E+06     20.4410E+06     63.1927E+03    -105.792E-03     211.687E-03    -105.895E-03     49.5484E-03    -106.058E-03     211.510E-03    -105.636E-03     48.6917E-03
            1555     8.09753E-03     56.0277E-03    -53.5693E+06    -77.3389E+06     12.1025E+06     47.9225E+03    -105.805E-03     211.721E-03    -105.916E-03     47.8509E-03    -106.056E-03     211.472E-03    -105.666E-03     47.0643E-03
            1556     7.28755E-03     55.9757E-03    -60.3398E+06    -93.6111E+06     2.78792E+06     28.4834E+03    -105.806E-03     211.740E-03    -105.934E-03     45.5478E-03    -106.043E-03     211.422E-03    -105.697E-03     44.8315E-03
            1557     6.47761E-03     55.9266E-03    -67.5740E+06    -110.062E+06    -7.76089E+06     11.0049E+03    -105.799E-03     211.746E-03    -105.947E-03     42.6445E-03    -106.022E-03     211.361E-03    -105.728E-03     41.9993E-03
            1558     5.66773E-03     55.8809E-03    -75.2697E+06    -127.216E+06    -19.8344E+06    -4.22508E+03    -105.787E-03     211.742E-03    -105.955E-03     39.1391E-03    -105.995E-03     211.289E-03    -105.761E-03     38.5666E-03
            1559     4.85789E-03     55.8396E-03    -83.3732E+06    -144.883E+06    -33.7620E+06    -13.8477E+03    -105.773E-03     211.730E-03    -105.957E-03     35.0244E-03    -105.966E-03     211.210E-03    -105.795E-03     34.5271E-03
            1560     4.04810E-03     55.8031E-03    -91.7320E+06    -163.458E+06    -49.7216E+06    -3.31650E+03    -105.766E-03     211.716E-03    -105.950E-03     30.3167E-03    -105.941E-03     211.129E-03    -105.828E-03     29.8975E-03
            1561     3.23837E-03     55.7721E-03    -100.012E+06    -182.665E+06    -67.4953E+06    -3.94091E+03    -105.772E-03     211.706E-03    -105.933E-03     25.0591E-03    -105.927E-03     211.052E-03    -105.861E-03     24.7201E-03
            1562     2.42870E-03     55.7473E-03    -107.664E+06    -201.405E+06    -86.0208E+06    -18.1982E+03    -105.792E-03     211.701E-03    -105.909E-03     19.3410E-03    -105.923E-03     210.984E-03    -105.891E-03     19.0838E-03
            1563     1.61909E-03     55.7291E-03    -114.004E+06    -218.337E+06    -102.972E+06    -3.02978E+03    -105.820E-03     211.703E-03    -105.883E-03     13.2912E-03    -105.929E-03     210.931E-03    -105.916E-03     13.1169E-03
            1564     809.532E-06     55.7178E-03    -118.276E+06    -230.792E+06    -115.229E+06     14.3346E+03    -105.879E-03     211.711E-03    -105.832E-03     7.31196E-03    -105.970E-03     210.897E-03    -105.902E-03     7.21696E-03
            1565     15.3891E-03     55.3144E-03    -5.10889E+06     107.888E+06     93.1834E+06     6.01664E+03    -104.729E-03     210.463E-03    -105.734E-03     23.8643E-03    -105.134E-03     210.963E-03    -105.417E-03     22.6930E-03
            1566     14.5788E-03     55.2800E-03    -10.1711E+06     104.447E+06     78.8708E+06     3.34153E+03    -104.877E-03     210.578E-03    -105.700E-03     35.0324E-03    -105.321E-03     211.127E-03    -105.442E-03     33.6978E-03
            1567     13.7685E-03     55.2383E-03    -15.0857E+06     94.9405E+06     68.4269E+06    -10.5734E+03    -105.037E-03     210.734E-03    -105.697E-03     41.4064E-03    -105.479E-03     211.261E-03    -105.470E-03     40.1428E-03
            1568     12.9582E-03     55.1893E-03    -20.0723E+06     65.0399E+06     61.0326E+06    -1.24536E+03    -105.248E-03     210.988E-03    -105.740E-03     46.4962E-03    -105.665E-03     211.387E-03    -105.500E-03     45.2829E-03
            1569     12.1479E-03     55.1360E-03    -25.1231E+06     26.5292E+06     50.7744E+06     35.6493E+03    -105.465E-03     211.246E-03    -105.781E-03     49.4790E-03    -105.833E-03     211.471E-03    -105.529E-03     48.3293E-03
            1570     11.3378E-03     55.0802E-03    -30.2724E+06    -344.795E+03     43.5455E+06     39.9078E+03    -105.600E-03     211.419E-03    -105.820E-03     50.9493E-03    -105.935E-03     211.520E-03    -105.558E-03     49.8721E-03
            1571     10.5276E-03     55.0234E-03    -35.6516E+06    -22.7642E+06     35.8083E+06     31.0598E+03    -105.691E-03     211.541E-03    -105.850E-03     51.2371E-03    -105.999E-03     211.538E-03    -105.586E-03     50.2343E-03
            1572     9.71753E-03     54.9668E-03    -41.2829E+06    -43.2205E+06     28.2157E+06     48.0112E+03    -105.752E-03     211.631E-03    -105.879E-03     50.7053E-03    -106.037E-03     211.534E-03    -105.615E-03     49.7762E-03
            1573     8.90747E-03     54.9111E-03    -47.2264E+06    -60.9393E+06     20.4423E+06     42.7719E+03    -105.786E-03     211.690E-03    -105.904E-03     49.5866E-03    -106.052E-03     211.513E-03    -105.645E-03     48.7290E-03
            1574     8.09745E-03     54.8569E-03    -53.5590E+06    -77.3442E+06     12.1093E+06     18.1376E+03    -105.803E-03     211.730E-03    -105.927E-03     47.8925E-03    -106.054E-03     211.481E-03    -105.676E-03     47.1049E-03
            1575     7.28746E-03     54.8049E-03    -60.3302E+06    -93.6120E+06     2.79542E+06    -3.80343E+03    -105.809E-03     211.754E-03    -105.946E-03     45.5868E-03    -106.045E-03     211.436E-03    -105.708E-03     44.8694E-03
            1576     6.47753E-03     54.7557E-03    -67.5554E+06    -110.094E+06    -7.77194E+06    -14.1589E+03    -105.804E-03     211.764E-03    -105.960E-03     42.6809E-03    -106.026E-03     211.378E-03    -105.741E-03     42.0348E-03
            1577     5.66765E-03     54.7101E-03    -75.2244E+06    -127.231E+06    -19.8652E+06    -15.3782E+03    -105.793E-03     211.763E-03    -105.970E-03     39.1739E-03    -106.001E-03     211.309E-03    -105.775E-03     38.6006E-03
            1578     4.85781E-03     54.6687E-03    -83.2970E+06    -144.963E+06    -33.7600E+06     8.38193E+03    -105.783E-03     211.755E-03    -105.972E-03     35.0562E-03    -105.975E-03     211.235E-03    -105.810E-03     34.5586E-03
            1579     4.04804E-03     54.6322E-03    -91.6391E+06    -163.496E+06    -49.6782E+06     38.1561E+03    -105.779E-03     211.745E-03    -105.966E-03     30.3444E-03    -105.954E-03     211.158E-03    -105.845E-03     29.9252E-03
            1580     3.23832E-03     54.6013E-03    -99.8966E+06    -182.610E+06    -67.4441E+06    -15.5142E+03    -105.787E-03     211.738E-03    -105.951E-03     25.0826E-03    -105.941E-03     211.085E-03    -105.878E-03     24.7430E-03
            1581     2.42866E-03     54.5764E-03    -107.547E+06    -201.503E+06    -85.9317E+06    -41.9813E+03    -105.809E-03     211.736E-03    -105.927E-03     19.3589E-03    -105.940E-03     211.019E-03    -105.909E-03     19.1010E-03
            1582     1.61907E-03     54.5582E-03    -113.925E+06    -218.406E+06    -102.876E+06     9.66180E+03    -105.839E-03     211.740E-03    -105.902E-03     13.3034E-03    -105.947E-03     210.967E-03    -105.934E-03     13.1290E-03
            1583     809.518E-06     54.5468E-03    -118.222E+06    -230.788E+06    -115.185E+06     8.10124E+03    -105.897E-03     211.748E-03    -105.851E-03     7.31902E-03    -105.988E-03     210.934E-03    -105.920E-03     7.22380E-03
            1584     15.3891E-03     54.1436E-03    -5.07902E+06     107.862E+06     93.1618E+06     15.5199E+03    -104.718E-03     210.452E-03    -105.734E-03     23.8479E-03    -105.123E-03     210.952E-03    -105.417E-03     22.6771E-03
            1585     14.5788E-03     54.1092E-03    -10.1398E+06     104.447E+06     78.8508E+06    -4.17933E+03    -104.861E-03     210.562E-03    -105.701E-03     35.0211E-03    -105.304E-03     211.111E-03    -105.444E-03     33.6868E-03
            1586     13.7685E-03     54.0675E-03    -15.0752E+06     94.9142E+06     68.4048E+06    -17.3425E+03    -105.020E-03     210.719E-03    -105.699E-03     41.4053E-03    -105.462E-03     211.246E-03    -105.473E-03     40.1418E-03
            1587     12.9581E-03     54.0186E-03    -20.0647E+06     64.9674E+06     61.0264E+06    -6.66583E+03    -105.232E-03     210.975E-03    -105.744E-03     46.5030E-03    -105.648E-03     211.374E-03    -105.504E-03     45.2897E-03
            1588     12.1479E-03     53.9653E-03    -25.1257E+06     26.4554E+06     50.7614E+06     10.5299E+03    -105.450E-03     211.236E-03    -105.786E-03     49.4940E-03    -105.817E-03     211.461E-03    -105.534E-03     48.3438E-03
            1589     11.3377E-03     53.9095E-03    -30.2886E+06    -366.546E+03     43.5413E+06     28.1557E+03    -105.585E-03     211.411E-03    -105.826E-03     50.9720E-03    -105.921E-03     211.512E-03    -105.564E-03     49.8944E-03
            1590     10.5275E-03     53.8527E-03    -35.6685E+06    -22.7788E+06     35.8026E+06     18.1385E+03    -105.678E-03     211.536E-03    -105.858E-03     51.2663E-03    -105.987E-03     211.533E-03    -105.594E-03     50.2629E-03
            1591     9.71743E-03     53.7961E-03    -41.2836E+06    -43.2605E+06     28.2059E+06    -7.58295E+03    -105.741E-03     211.630E-03    -105.889E-03     50.7382E-03    -106.026E-03     211.532E-03    -105.625E-03     49.8080E-03
            1592     8.90736E-03     53.7403E-03    -47.2126E+06    -60.9600E+06     20.4451E+06    -8.18670E+03    -105.779E-03     211.695E-03    -105.916E-03     49.6258E-03    -106.046E-03     211.518E-03    -105.657E-03     48.7669E-03
            1593     8.09733E-03     53.6861E-03    -53.5596E+06    -77.3526E+06     12.1088E+06    -12.7914E+03    -105.802E-03     211.742E-03    -105.940E-03     47.9382E-03    -106.053E-03     211.493E-03    -105.689E-03     47.1494E-03
            1594     7.28736E-03     53.6340E-03    -60.3425E+06    -93.6435E+06     2.77329E+06    -15.1301E+03    -105.812E-03     211.772E-03    -105.960E-03     45.6319E-03    -106.048E-03     211.454E-03    -105.723E-03     44.9135E-03
            1595     6.47743E-03     53.5849E-03    -67.5815E+06    -110.115E+06    -7.80753E+06    -19.2101E+03    -105.809E-03     211.785E-03    -105.976E-03     42.7243E-03    -106.031E-03     211.399E-03    -105.757E-03     42.0773E-03
            1596     5.66755E-03     53.5392E-03    -75.2965E+06    -127.285E+06    -19.9235E+06    -20.2345E+03    -105.801E-03     211.788E-03    -105.987E-03     39.2151E-03    -106.009E-03     211.335E-03    -105.793E-03     38.6411E-03
            1597     4.85772E-03     53.4978E-03    -83.4105E+06    -145.084E+06    -33.8389E+06     26.9523E+03    -105.795E-03     211.785E-03    -105.991E-03     35.0939E-03    -105.987E-03     211.265E-03    -105.829E-03     34.5959E-03
            1598     4.04795E-03     53.4613E-03    -91.7295E+06    -163.450E+06    -49.7537E+06     17.9802E+03    -105.794E-03     211.780E-03    -105.986E-03     30.3780E-03    -105.969E-03     211.193E-03    -105.865E-03     29.9578E-03
            1599     3.23825E-03     53.4303E-03    -99.9490E+06    -182.571E+06    -67.5455E+06    -39.8314E+03    -105.805E-03     211.776E-03    -105.971E-03     25.1106E-03    -105.959E-03     211.123E-03    -105.899E-03     24.7702E-03
            1600     2.42861E-03     53.4055E-03    -107.603E+06    -201.643E+06    -86.0399E+06    -16.8259E+03    -105.829E-03     211.777E-03    -105.949E-03     19.3802E-03    -105.959E-03     211.060E-03    -105.931E-03     19.1223E-03
            1601     1.61903E-03     53.3872E-03    -113.973E+06    -218.451E+06    -102.934E+06     19.8893E+03    -105.860E-03     211.784E-03    -105.924E-03     13.3186E-03    -105.969E-03     211.011E-03    -105.956E-03     13.1441E-03
            1602     809.498E-06     53.3759E-03    -118.249E+06    -230.774E+06    -115.217E+06     26.7592E+03    -105.920E-03     211.793E-03    -105.873E-03     7.32763E-03    -106.011E-03     210.979E-03    -105.943E-03     7.23249E-03
            1603     15.3891E-03     52.9728E-03    -5.06364E+06     107.827E+06     93.1964E+06         782.796    -104.701E-03     210.437E-03    -105.735E-03     23.8343E-03    -105.107E-03     210.936E-03    -105.418E-03     22.6637E-03
            1604     14.5788E-03     52.9385E-03    -10.1213E+06     104.430E+06     78.8086E+06     12.8344E+03    -104.842E-03     210.545E-03    -105.703E-03     35.0137E-03    -105.285E-03     211.094E-03    -105.446E-03     33.6799E-03
            1605     13.7684E-03     52.8968E-03    -15.0694E+06     94.8974E+06     68.3468E+06     7.34550E+03    -105.000E-03     210.701E-03    -105.702E-03     41.4102E-03    -105.442E-03     211.229E-03    -105.476E-03     40.1472E-03
            1606     12.9581E-03     52.8479E-03    -20.0789E+06     64.9233E+06     61.0084E+06    -6.97359E+03    -105.212E-03     210.960E-03    -105.748E-03     46.5175E-03    -105.629E-03     211.359E-03    -105.508E-03     45.3042E-03
            1607     12.1478E-03     52.7946E-03    -25.1462E+06     26.3906E+06     50.7455E+06     2.35249E+03    -105.432E-03     211.224E-03    -105.792E-03     49.5181E-03    -105.800E-03     211.449E-03    -105.540E-03     48.3676E-03
            1608     11.3376E-03     52.7387E-03    -30.3045E+06    -404.772E+03     43.5332E+06     9.83616E+03    -105.570E-03     211.403E-03    -105.834E-03     51.0060E-03    -105.905E-03     211.504E-03    -105.572E-03     49.9277E-03
            1609     10.5274E-03     52.6819E-03    -35.6671E+06    -22.7604E+06     35.8062E+06    -14.3602E+03    -105.664E-03     211.532E-03    -105.868E-03     51.3066E-03    -105.973E-03     211.529E-03    -105.604E-03     50.3023E-03
            1610     9.71732E-03     52.6253E-03    -41.3019E+06    -43.2849E+06     28.1844E+06    -37.4517E+03    -105.729E-03     211.630E-03    -105.900E-03     50.7811E-03    -106.014E-03     211.532E-03    -105.637E-03     49.8499E-03
            1611     8.90724E-03     52.5696E-03    -47.3176E+06    -61.0108E+06     20.3727E+06    -38.1679E+03    -105.772E-03     211.701E-03    -105.929E-03     49.6756E-03    -106.039E-03     211.525E-03    -105.670E-03     48.8156E-03
            1612     8.09722E-03     52.5153E-03    -53.6676E+06    -77.3836E+06     12.0264E+06    -32.3708E+03    -105.800E-03     211.755E-03    -105.955E-03     47.9920E-03    -106.052E-03     211.507E-03    -105.705E-03     47.2021E-03
            1613     7.28723E-03     52.4632E-03    -60.4242E+06    -93.7050E+06     2.68740E+06    -19.8742E+03    -105.813E-03     211.790E-03    -105.977E-03     45.6821E-03    -106.050E-03     211.473E-03    -105.740E-03     44.9629E-03
            1614     6.47730E-03     52.4140E-03    -67.6861E+06    -110.146E+06    -7.88825E+06    -1.07296E+03    -105.814E-03     211.809E-03    -105.995E-03     42.7727E-03    -106.038E-03     211.424E-03    -105.776E-03     42.1251E-03
            1615     5.66743E-03     52.3683E-03    -75.4201E+06    -127.370E+06    -20.0024E+06     31.5539E+03    -105.812E-03     211.820E-03    -106.008E-03     39.2619E-03    -106.021E-03     211.366E-03    -105.814E-03     38.6878E-03
            1616     4.85761E-03     52.3269E-03    -83.5480E+06    -145.133E+06    -33.9572E+06     38.0414E+03    -105.809E-03     211.822E-03    -106.013E-03     35.1379E-03    -106.002E-03     211.302E-03    -105.851E-03     34.6393E-03
            1617     4.04786E-03     52.2903E-03    -91.8825E+06    -163.366E+06    -49.9347E+06    -15.1981E+03    -105.811E-03     211.819E-03    -106.009E-03     30.4170E-03    -105.987E-03     211.234E-03    -105.888E-03     29.9958E-03
            1618     3.23817E-03     52.2593E-03    -100.147E+06    -182.643E+06    -67.7507E+06    -32.6109E+03    -105.825E-03     211.820E-03    -105.995E-03     25.1426E-03    -105.980E-03     211.167E-03    -105.924E-03     24.8017E-03
            1619     2.42855E-03     52.2345E-03    -107.806E+06    -201.738E+06    -86.2625E+06     3.00637E+03    -105.851E-03     211.825E-03    -105.974E-03     19.4049E-03    -105.983E-03     211.108E-03    -105.956E-03     19.1468E-03
            1620     1.61898E-03     52.2162E-03    -114.144E+06    -218.474E+06    -103.148E+06     8.29092E+03    -105.885E-03     211.834E-03    -105.950E-03     13.3355E-03    -105.994E-03     211.062E-03    -105.983E-03     13.1605E-03
            1621     809.477E-06     52.2049E-03    -118.396E+06    -230.778E+06    -115.355E+06     11.2354E+03    -105.946E-03     211.846E-03    -105.900E-03     7.33665E-03    -106.038E-03     211.033E-03    -105.970E-03     7.24112E-03
            1622     15.3891E-03     51.8021E-03    -5.09659E+06     107.785E+06     93.2004E+06    -10.9720E+03    -104.680E-03     210.416E-03    -105.736E-03     23.8180E-03    -105.085E-03     210.915E-03    -105.419E-03     22.6478E-03
            1623     14.5787E-03     51.7678E-03    -10.1478E+06     104.365E+06     78.7969E+06     8.45080E+03    -104.819E-03     210.524E-03    -105.705E-03     35.0074E-03    -105.262E-03     211.073E-03    -105.448E-03     33.6740E-03
            1624     13.7684E-03     51.7261E-03    -15.0688E+06     94.8767E+06     68.3565E+06      33.297E+03    -104.976E-03     210.682E-03    -105.706E-03     41.4207E-03    -105.418E-03     211.209E-03    -105.480E-03     40.1582E-03
            1625     12.9580E-03     51.6772E-03    -20.0824E+06     64.9103E+06     61.0008E+06     29.3483E+03    -105.189E-03     210.943E-03    -105.754E-03     46.5397E-03    -105.605E-03     211.341E-03    -105.514E-03     45.3268E-03
            1626     12.1477E-03     51.6238E-03    -25.1781E+06     26.3558E+06     50.7198E+06     7.27269E+03    -105.411E-03     211.210E-03    -105.800E-03     49.5516E-03    -105.778E-03     211.435E-03    -105.548E-03     48.4009E-03
            1627     11.3375E-03     51.5680E-03    -30.3445E+06    -408.888E+03     43.5064E+06    -22.1405E+03    -105.551E-03     211.395E-03    -105.844E-03     51.0519E-03    -105.887E-03     211.495E-03    -105.581E-03     49.9727E-03
            1628     10.5273E-03     51.5112E-03    -35.7266E+06    -22.7784E+06     35.7556E+06    -36.6907E+03    -105.649E-03     211.528E-03    -105.879E-03     51.3583E-03    -105.958E-03     211.526E-03    -105.616E-03     50.3531E-03
            1629     9.71718E-03     51.4546E-03    -41.3871E+06    -43.3316E+06     28.1034E+06    -21.4049E+03    -105.718E-03     211.632E-03    -105.914E-03     50.8379E-03    -106.004E-03     211.535E-03    -105.651E-03     49.9060E-03
            1630     8.90710E-03     51.3988E-03    -47.3396E+06    -61.0238E+06     20.3065E+06    -31.5125E+03    -105.767E-03     211.712E-03    -105.945E-03     49.7410E-03    -106.034E-03     211.536E-03    -105.686E-03     48.8800E-03
            1631     8.09706E-03     51.3445E-03    -53.6943E+06    -77.4376E+06     11.9462E+06    -48.4877E+03    -105.799E-03     211.772E-03    -105.973E-03     48.0566E-03    -106.051E-03     211.524E-03    -105.723E-03     47.2654E-03
            1632     7.28708E-03     51.2923E-03    -60.5090E+06    -93.7814E+06     2.58610E+06    -26.8128E+03    -105.816E-03     211.813E-03    -105.997E-03     45.7415E-03    -106.053E-03     211.495E-03    -105.761E-03     45.0212E-03
            1633     6.47716E-03     51.2431E-03    -67.7696E+06    -110.236E+06    -7.99365E+06     20.1149E+03    -105.822E-03     211.839E-03    -106.017E-03     42.8311E-03    -106.045E-03     211.453E-03    -105.799E-03     42.1828E-03
            1634     5.66729E-03     51.1974E-03    -75.5020E+06    -127.433E+06    -20.1182E+06     57.5405E+03    -105.825E-03     211.857E-03    -106.032E-03     39.3189E-03    -106.034E-03     211.404E-03    -105.838E-03     38.7441E-03
            1635     4.85749E-03     51.1559E-03    -83.5763E+06    -145.113E+06    -34.0426E+06     47.6437E+03    -105.827E-03     211.865E-03    -106.038E-03     35.1899E-03    -106.020E-03     211.346E-03    -105.877E-03     34.6904E-03
            1636     4.04775E-03     51.1193E-03    -91.8877E+06    -163.349E+06    -50.0180E+06     34.0376E+03    -105.832E-03     211.868E-03    -106.036E-03     30.4618E-03    -106.008E-03     211.282E-03    -105.916E-03     30.0404E-03
            1637     3.23808E-03     51.0883E-03    -100.173E+06    -182.690E+06    -67.8312E+06     24.2641E+03    -105.849E-03     211.873E-03    -106.024E-03     25.1797E-03    -106.004E-03     211.221E-03    -105.953E-03     24.8388E-03
            1638     2.42847E-03     51.0634E-03    -107.838E+06    -201.790E+06    -86.2993E+06     12.6270E+03    -105.879E-03     211.883E-03    -106.004E-03     19.4335E-03    -106.011E-03     211.166E-03    -105.986E-03     19.1750E-03
            1639     1.61894E-03     51.0452E-03    -114.195E+06    -218.494E+06    -103.196E+06     20.8754E+03    -105.914E-03     211.894E-03    -105.980E-03     13.3552E-03    -106.023E-03     211.122E-03    -106.014E-03     13.1799E-03
            1640     809.451E-06     51.0338E-03    -118.487E+06    -230.782E+06    -115.469E+06     17.4618E+03    -105.977E-03     211.907E-03    -105.930E-03     7.34765E-03    -106.069E-03     211.094E-03    -106.001E-03     7.25199E-03
            1641     15.3891E-03     50.6314E-03    -5.09626E+06     107.753E+06     93.2140E+06    -2.18456E+03    -104.652E-03     210.390E-03    -105.738E-03     23.8023E-03    -105.057E-03     210.889E-03    -105.421E-03     22.6327E-03
            1642     14.5787E-03     50.5971E-03    -10.1669E+06     104.302E+06     78.7882E+06     1.23031E+03    -104.789E-03     210.498E-03    -105.709E-03     35.0041E-03    -105.232E-03     211.046E-03    -105.451E-03     33.6710E-03
            1643     13.7683E-03     50.5554E-03    -15.0914E+06     94.8076E+06     68.3314E+06     25.3789E+03    -104.947E-03     210.658E-03    -105.711E-03     41.4377E-03    -105.389E-03     211.185E-03    -105.485E-03     40.1752E-03
            1644     12.9579E-03     50.5065E-03    -20.0650E+06     64.8909E+06     60.9880E+06     48.4332E+03    -105.161E-03     210.922E-03    -105.761E-03     46.5710E-03    -105.577E-03     211.321E-03    -105.521E-03     45.3582E-03
            1645     12.1476E-03     50.4532E-03    -25.1246E+06     26.3727E+06     50.7130E+06     29.0842E+03    -105.385E-03     211.195E-03    -105.809E-03     49.5961E-03    -105.753E-03     211.419E-03    -105.557E-03     48.4452E-03
            1646     11.3374E-03     50.3973E-03    -30.3218E+06    -410.363E+03     43.4744E+06         938.623    -105.530E-03     211.386E-03    -105.855E-03     51.1092E-03    -105.866E-03     211.487E-03    -105.594E-03     50.0295E-03
            1647     10.5272E-03     50.3405E-03    -35.7537E+06    -22.8186E+06     35.6897E+06    -4.92266E+03    -105.633E-03     211.527E-03    -105.894E-03     51.4204E-03    -105.942E-03     211.524E-03    -105.630E-03     50.4146E-03
            1648     9.71702E-03     50.2838E-03    -41.4091E+06    -43.3639E+06     28.0313E+06    -20.1791E+03    -105.709E-03     211.640E-03    -105.931E-03     50.9067E-03    -105.994E-03     211.543E-03    -105.668E-03     49.9739E-03
            1649     8.90693E-03     50.2280E-03    -47.3640E+06    -61.0323E+06     20.2350E+06    -35.9980E+03    -105.764E-03     211.728E-03    -105.964E-03     49.8166E-03    -106.031E-03     211.552E-03    -105.706E-03     48.9543E-03
            1650     8.09689E-03     50.1736E-03    -53.7388E+06    -77.4951E+06     11.8527E+06    -31.0358E+03    -105.800E-03     211.794E-03    -105.994E-03     48.1285E-03    -106.052E-03     211.546E-03    -105.745E-03     47.3363E-03
            1651     7.28691E-03     50.1214E-03    -60.5745E+06    -93.8845E+06     2.46595E+06     7.01073E+03    -105.819E-03     211.840E-03    -106.021E-03     45.8124E-03    -106.057E-03     211.522E-03    -105.785E-03     45.0912E-03
            1652     6.47699E-03     50.0721E-03    -67.8582E+06    -110.351E+06    -8.13346E+06     70.1250E+03    -105.831E-03     211.874E-03    -106.043E-03     42.9027E-03    -106.055E-03     211.489E-03    -105.825E-03     42.2537E-03
            1653     5.66713E-03     50.0264E-03    -75.5609E+06    -127.425E+06    -20.2511E+06     79.1805E+03    -105.840E-03     211.900E-03    -106.060E-03     39.3873E-03    -106.049E-03     211.447E-03    -105.866E-03     38.8116E-03
            1654     4.85734E-03     49.9849E-03    -83.6713E+06    -145.111E+06    -34.1814E+06     51.6233E+03    -105.847E-03     211.916E-03    -106.068E-03     35.2510E-03    -106.041E-03     211.396E-03    -105.908E-03     34.7504E-03
            1655     4.04762E-03     49.9482E-03    -92.0280E+06    -163.408E+06    -50.1450E+06     74.5015E+03    -105.857E-03     211.925E-03    -106.068E-03     30.5144E-03    -106.034E-03     211.340E-03    -105.948E-03     30.0925E-03
            1656     3.23797E-03     49.9172E-03    -100.277E+06    -182.645E+06    -67.9396E+06     76.2635E+03    -105.878E-03     211.935E-03    -106.057E-03     25.2237E-03    -106.034E-03     211.283E-03    -105.986E-03     24.8827E-03
            1657     2.42839E-03     49.8923E-03    -107.935E+06    -201.806E+06    -86.4077E+06     38.0096E+03    -105.911E-03     211.949E-03    -106.038E-03     19.4679E-03    -106.043E-03     211.232E-03    -106.021E-03     19.2090E-03
            1658     1.61888E-03     49.8740E-03    -114.297E+06    -218.528E+06    -103.277E+06     43.5692E+03    -105.948E-03     211.963E-03    -106.015E-03     13.3790E-03    -106.058E-03     211.191E-03    -106.049E-03     13.2037E-03
            1659     809.423E-06     49.8626E-03    -118.578E+06    -230.730E+06    -115.537E+06     49.8298E+03    -106.012E-03     211.978E-03    -105.966E-03     7.36077E-03    -106.105E-03     211.165E-03    -106.037E-03     7.26531E-03
            1660     15.3891E-03     49.4607E-03    -5.08884E+06     107.718E+06     93.2118E+06     8.33104E+03    -104.618E-03     210.358E-03    -105.740E-03     23.7866E-03    -105.023E-03     210.857E-03    -105.423E-03     22.6179E-03
            1661     14.5786E-03     49.4264E-03    -10.1478E+06     104.277E+06     78.7866E+06     3.13307E+03    -104.753E-03     210.466E-03    -105.713E-03     35.0031E-03    -105.196E-03     211.014E-03    -105.455E-03     33.6706E-03
            1662     13.7682E-03     49.3848E-03    -15.0675E+06     94.7194E+06     68.2867E+06     14.6543E+03    -104.911E-03     210.628E-03    -105.717E-03     41.4596E-03    -105.353E-03     211.155E-03    -105.492E-03     40.1970E-03
            1663     12.9578E-03     49.3358E-03    -20.0719E+06     64.8125E+06     60.9242E+06     64.3647E+03    -105.128E-03     210.898E-03    -105.770E-03     46.6083E-03    -105.544E-03     211.296E-03    -105.530E-03     45.3955E-03
            1664     12.1475E-03     49.2825E-03    -25.1830E+06     26.4080E+06     50.6575E+06     73.9271E+03    -105.355E-03     211.176E-03    -105.821E-03     49.6483E-03    -105.723E-03     211.402E-03    -105.569E-03     48.4974E-03
            1665     11.3372E-03     49.2266E-03    -30.3822E+06    -417.091E+03     43.4031E+06     40.6965E+03    -105.506E-03     211.376E-03    -105.870E-03     51.1757E-03    -105.842E-03     211.477E-03    -105.608E-03     50.0955E-03
            1666     10.5270E-03     49.1697E-03    -35.7707E+06    -22.8429E+06     35.6163E+06     23.6460E+03    -105.616E-03     211.527E-03    -105.911E-03     51.4948E-03    -105.925E-03     211.525E-03    -105.648E-03     50.4883E-03
            1667     9.71682E-03     49.1130E-03    -41.4419E+06    -43.3666E+06     27.9484E+06     11.2533E+03    -105.700E-03     211.651E-03    -105.951E-03     50.9920E-03    -105.986E-03     211.554E-03    -105.688E-03     50.0581E-03
            1668     8.90672E-03     49.0571E-03    -47.4755E+06    -61.0675E+06     20.1084E+06     2.71700E+03    -105.761E-03     211.748E-03    -105.987E-03     49.9074E-03    -106.029E-03     211.572E-03    -105.729E-03     49.0441E-03
            1669     8.09668E-03     49.0027E-03    -53.8845E+06    -77.5627E+06     11.6928E+06     21.1228E+03    -105.800E-03     211.820E-03    -106.019E-03     48.2156E-03    -106.053E-03     211.572E-03    -105.770E-03     47.4226E-03
            1670     7.28671E-03     48.9505E-03    -60.7088E+06    -94.0038E+06     2.29068E+06     71.8277E+03    -105.826E-03     211.874E-03    -106.049E-03     45.8998E-03    -106.064E-03     211.557E-03    -105.813E-03     45.1780E-03
            1671     6.47679E-03     48.9012E-03    -67.9853E+06    -110.432E+06    -8.29894E+06     119.944E+03    -105.844E-03     211.918E-03    -106.073E-03     42.9890E-03    -106.069E-03     211.533E-03    -105.856E-03     42.3392E-03
            1672     5.66694E-03     48.8553E-03    -75.6874E+06    -127.382E+06    -20.3893E+06     117.610E+03    -105.859E-03     211.951E-03    -106.092E-03     39.4673E-03    -106.069E-03     211.499E-03    -105.900E-03     38.8906E-03
            1673     4.85717E-03     48.8138E-03    -83.7997E+06    -145.114E+06    -34.3188E+06     95.0100E+03    -105.871E-03     211.975E-03    -106.103E-03     35.3213E-03    -106.066E-03     211.456E-03    -105.943E-03     34.8201E-03
            1674     4.04746E-03     48.7771E-03    -92.1655E+06    -163.468E+06    -50.2881E+06     98.6845E+03    -105.887E-03     211.991E-03    -106.104E-03     30.5748E-03    -106.064E-03     211.407E-03    -105.985E-03     30.1521E-03
            1675     3.23784E-03     48.7460E-03    -100.416E+06    -182.586E+06    -68.0849E+06     93.5847E+03    -105.912E-03     212.007E-03    -106.095E-03     25.2741E-03    -106.068E-03     211.355E-03    -106.025E-03     24.9324E-03
            1676     2.42829E-03     48.7211E-03    -108.051E+06    -201.787E+06    -86.5411E+06     65.1921E+03    -105.948E-03     212.025E-03    -106.077E-03     19.5066E-03    -106.080E-03     211.308E-03    -106.061E-03     19.2474E-03
            1677     1.61881E-03     48.7028E-03    -114.402E+06    -218.544E+06    -103.384E+06     51.8295E+03    -105.988E-03     212.043E-03    -106.056E-03     13.4051E-03    -106.098E-03     211.271E-03    -106.090E-03     13.2294E-03
            1678     809.389E-06     48.6913E-03    -118.677E+06    -230.652E+06    -115.630E+06     40.4196E+03    -106.053E-03     212.059E-03    -106.006E-03     7.37492E-03    -106.146E-03     211.247E-03    -106.078E-03     7.27907E-03
            1679     15.3890E-03     48.2900E-03    -5.08497E+06     107.687E+06     93.1588E+06     4.42047E+03    -104.577E-03     210.319E-03    -105.743E-03     23.7718E-03    -104.981E-03     210.818E-03    -105.426E-03     22.6037E-03
            1680     14.5786E-03     48.2558E-03    -10.1554E+06     104.228E+06     78.7381E+06     26.0078E+03    -104.711E-03     210.428E-03    -105.718E-03     35.0034E-03    -105.153E-03     210.976E-03    -105.460E-03     33.6717E-03
            1681     13.7681E-03     48.2142E-03    -15.1609E+06     94.5986E+06     68.1757E+06     96.1095E+03    -104.870E-03     210.595E-03    -105.725E-03     41.4847E-03    -105.312E-03     211.121E-03    -105.499E-03     40.2232E-03
            1682     12.9577E-03     48.1652E-03    -20.2383E+06     64.7737E+06     60.7965E+06     124.892E+03    -105.089E-03     210.870E-03    -105.780E-03     46.6491E-03    -105.507E-03     211.269E-03    -105.541E-03     45.4368E-03
            1683     12.1473E-03     48.1119E-03    -25.3101E+06     26.4511E+06     50.5691E+06     74.3051E+03    -105.321E-03     211.156E-03    -105.834E-03     49.7047E-03    -105.690E-03     211.382E-03    -105.583E-03     48.5532E-03
            1684     11.3370E-03     48.0559E-03    -30.4583E+06    -438.923E+03     43.3020E+06     49.1325E+03    -105.477E-03     211.364E-03    -105.887E-03     51.2478E-03    -105.814E-03     211.466E-03    -105.626E-03     50.1668E-03
            1685     10.5268E-03     47.9990E-03    -35.8728E+06    -22.8683E+06     35.4907E+06     57.3908E+03    -105.595E-03     211.526E-03    -105.931E-03     51.5784E-03    -105.905E-03     211.524E-03    -105.669E-03     50.5710E-03
            1686     9.71658E-03     47.9422E-03    -41.5546E+06    -43.4043E+06     27.8051E+06     72.8771E+03    -105.688E-03     211.662E-03    -105.974E-03     51.0874E-03    -105.974E-03     211.566E-03    -105.712E-03     50.1528E-03
            1687     8.90648E-03     47.8863E-03    -47.5640E+06    -61.1007E+06     19.9665E+06     94.4315E+03    -105.756E-03     211.769E-03    -106.013E-03     50.0058E-03    -106.024E-03     211.594E-03    -105.756E-03     49.1420E-03
            1688     8.09644E-03     47.8318E-03    -53.9930E+06    -77.6256E+06     11.5364E+06     111.969E+03    -105.802E-03     211.851E-03    -106.049E-03     48.3127E-03    -106.055E-03     211.604E-03    -105.801E-03     47.5192E-03
            1689     7.28646E-03     47.7795E-03    -60.8530E+06    -94.0987E+06     2.11665E+06     145.522E+03    -105.836E-03     211.917E-03    -106.081E-03     45.9997E-03    -106.075E-03     211.600E-03    -105.846E-03     45.2770E-03
            1690     6.47655E-03     47.7301E-03    -68.1347E+06    -110.454E+06    -8.45395E+06     163.596E+03    -105.861E-03     211.970E-03    -106.109E-03     43.0866E-03    -106.087E-03     211.586E-03    -105.892E-03     42.4355E-03
            1691     5.66673E-03     47.6842E-03    -75.8630E+06    -127.347E+06    -20.5341E+06     147.992E+03    -105.882E-03     212.012E-03    -106.130E-03     39.5577E-03    -106.093E-03     211.561E-03    -105.938E-03     38.9798E-03
            1692     4.85697E-03     47.6426E-03    -83.9649E+06    -145.110E+06    -34.4580E+06     132.575E+03    -105.901E-03     212.044E-03    -106.143E-03     35.4015E-03    -106.096E-03     211.526E-03    -105.983E-03     34.8993E-03
            1693     4.04730E-03     47.6059E-03    -92.2759E+06    -163.467E+06    -50.4130E+06     119.201E+03    -105.922E-03     212.068E-03    -106.146E-03     30.6429E-03    -106.099E-03     211.484E-03    -106.027E-03     30.2193E-03
            1694     3.23770E-03     47.5747E-03    -100.504E+06    -182.545E+06    -68.1848E+06     94.8007E+03    -105.951E-03     212.089E-03    -106.138E-03     25.3296E-03    -106.107E-03     211.438E-03    -106.069E-03     24.9869E-03
            1695     2.42818E-03     47.5498E-03    -108.131E+06    -201.760E+06    -86.6199E+06     74.0098E+03    -105.990E-03     212.112E-03    -106.122E-03     19.5486E-03    -106.123E-03     211.396E-03    -106.106E-03     19.2888E-03
            1696     1.61874E-03     47.5314E-03    -114.469E+06    -218.517E+06    -103.456E+06     53.0434E+03    -106.032E-03     212.133E-03    -106.101E-03     13.4333E-03    -106.142E-03     211.361E-03    -106.135E-03     13.2571E-03
            1697     809.353E-06     47.5200E-03    -118.739E+06    -230.597E+06    -115.700E+06     29.3293E+03    -106.098E-03     212.150E-03    -106.052E-03     7.39038E-03    -106.192E-03     211.339E-03    -106.124E-03     7.29410E-03
            1698     15.3890E-03     47.1194E-03    -5.10417E+06     107.609E+06     93.0993E+06     38.5257E+03    -104.527E-03     210.273E-03    -105.745E-03     23.7580E-03    -104.932E-03     210.771E-03    -105.429E-03     22.5911E-03
            1699     14.5785E-03     47.0852E-03    -10.2555E+06     104.078E+06     78.5848E+06     140.951E+03    -104.663E-03     210.386E-03    -105.723E-03     35.0070E-03    -105.105E-03     210.934E-03    -105.466E-03     33.6773E-03
            1700     13.7680E-03     47.0436E-03    -15.2447E+06     94.5466E+06     68.0517E+06     189.322E+03    -104.825E-03     210.559E-03    -105.734E-03     41.5144E-03    -105.268E-03     211.085E-03    -105.508E-03     40.2542E-03
            1701     12.9575E-03     46.9946E-03    -20.1955E+06     64.8522E+06     60.7737E+06     111.606E+03    -105.048E-03     210.841E-03    -105.793E-03     46.6961E-03    -105.466E-03     211.241E-03    -105.553E-03     45.4832E-03
            1702     12.1471E-03     46.9412E-03    -25.2366E+06     26.4281E+06     50.5142E+06     81.5136E+03    -105.285E-03     211.135E-03    -105.850E-03     49.7681E-03    -105.653E-03     211.361E-03    -105.599E-03     48.6159E-03
            1703     11.3368E-03     46.8853E-03    -30.4595E+06    -479.123E+03     43.2032E+06     113.324E+03    -105.446E-03     211.352E-03    -105.906E-03     51.3265E-03    -105.783E-03     211.454E-03    -105.645E-03     50.2454E-03
            1704     10.5265E-03     46.8283E-03    -35.9050E+06    -22.9255E+06     35.3692E+06     141.226E+03    -105.570E-03     211.524E-03    -105.954E-03     51.6703E-03    -105.880E-03     211.523E-03    -105.692E-03     50.6627E-03
            1705     9.71632E-03     46.7714E-03    -41.6338E+06    -43.4710E+06     27.6611E+06     187.639E+03    -105.671E-03     211.672E-03    -106.001E-03     51.1912E-03    -105.958E-03     211.577E-03    -105.739E-03     50.2564E-03
            1706     8.90620E-03     46.7154E-03    -47.7168E+06    -61.1159E+06     19.8096E+06     209.280E+03    -105.747E-03     211.791E-03    -106.044E-03     50.1137E-03    -106.016E-03     211.617E-03    -105.787E-03     49.2497E-03
            1707     8.09615E-03     46.6608E-03    -54.1525E+06    -77.6629E+06     11.3794E+06     217.469E+03    -105.805E-03     211.888E-03    -106.084E-03     48.4219E-03    -106.059E-03     211.641E-03    -105.836E-03     47.6278E-03
            1708     7.28618E-03     46.6085E-03    -60.9860E+06    -94.1227E+06     1.98521E+06     218.991E+03    -105.849E-03     211.968E-03    -106.119E-03     46.1092E-03    -106.089E-03     211.652E-03    -105.884E-03     45.3855E-03
            1709     6.47629E-03     46.5590E-03    -68.2584E+06    -110.437E+06    -8.56255E+06     204.137E+03    -105.883E-03     212.032E-03    -106.149E-03     43.1922E-03    -106.109E-03     211.649E-03    -105.933E-03     42.5397E-03
            1710     5.66647E-03     46.5130E-03    -75.9517E+06    -127.297E+06    -20.6218E+06     170.903E+03    -105.911E-03     212.084E-03    -106.173E-03     39.6558E-03    -106.122E-03     211.634E-03    -105.982E-03     39.0763E-03
            1711     4.85675E-03     46.4713E-03    -84.0305E+06    -145.091E+06    -34.5345E+06     132.086E+03    -105.936E-03     212.125E-03    -106.189E-03     35.4882E-03    -106.132E-03     211.607E-03    -106.029E-03     34.9843E-03
            1712     4.04710E-03     46.4345E-03    -92.3464E+06    -163.443E+06    -50.4738E+06     110.913E+03    -105.962E-03     212.156E-03    -106.194E-03     30.7161E-03    -106.140E-03     211.572E-03    -106.075E-03     30.2910E-03
            1713     3.23754E-03     46.4033E-03    -100.570E+06    -182.509E+06    -68.2384E+06     89.8739E+03    -105.996E-03     212.183E-03    -106.187E-03     25.3888E-03    -106.152E-03     211.532E-03    -106.118E-03     25.0449E-03
            1714     2.42806E-03     46.3783E-03    -108.189E+06    -201.732E+06    -86.6717E+06     63.6389E+03    -106.038E-03     212.210E-03    -106.172E-03     19.5938E-03    -106.171E-03     211.494E-03    -106.156E-03     19.3329E-03
            1715     1.61866E-03     46.3600E-03    -114.517E+06    -218.483E+06    -103.499E+06     41.2748E+03    -106.082E-03     212.233E-03    -106.151E-03     13.4641E-03    -106.192E-03     211.462E-03    -106.186E-03     13.2872E-03
            1716     809.310E-06     46.3485E-03    -118.781E+06    -230.563E+06    -115.739E+06     22.7928E+03    -106.149E-03     212.252E-03    -106.103E-03     7.40719E-03    -106.243E-03     211.441E-03    -106.175E-03     7.31050E-03
            1717     15.3889E-03     45.9489E-03    -5.20381E+06     107.453E+06     92.9953E+06     154.084E+03    -104.467E-03     210.216E-03    -105.749E-03     23.7451E-03    -104.871E-03     210.714E-03    -105.432E-03     22.5805E-03
            1718     14.5784E-03     45.9147E-03    -10.2853E+06     103.989E+06     78.4898E+06     199.296E+03    -104.609E-03     210.339E-03    -105.730E-03     35.0172E-03    -105.052E-03     210.886E-03    -105.473E-03     33.6888E-03
            1719     13.7678E-03     45.8731E-03    -15.1323E+06     94.6274E+06     68.0879E+06     130.463E+03    -104.775E-03     210.519E-03    -105.744E-03     41.5566E-03    -105.218E-03     211.046E-03    -105.519E-03     40.2954E-03
            1720     12.9573E-03     45.8241E-03    -20.0870E+06     64.8687E+06     60.7636E+06     104.304E+03    -105.002E-03     210.809E-03    -105.806E-03     46.7580E-03    -105.419E-03     211.209E-03    -105.567E-03     45.5444E-03
            1721     12.1469E-03     45.7706E-03    -25.1947E+06     26.3266E+06     50.4267E+06     154.855E+03    -105.245E-03     211.112E-03    -105.868E-03     49.8480E-03    -105.613E-03     211.339E-03    -105.617E-03     48.6958E-03
            1722     11.3365E-03     45.7146E-03    -30.4179E+06    -588.271E+03     43.1003E+06     246.209E+03    -105.413E-03     211.340E-03    -105.928E-03     51.4223E-03    -105.750E-03     211.443E-03    -105.667E-03     50.3415E-03
            1723     10.5262E-03     45.6575E-03    -35.9584E+06    -23.0277E+06     35.2318E+06     361.597E+03    -105.544E-03     211.524E-03    -105.980E-03     51.7780E-03    -105.854E-03     211.523E-03    -105.718E-03     50.7717E-03
            1724     9.71602E-03     45.6006E-03    -41.7924E+06    -43.4570E+06     27.5249E+06     389.945E+03    -105.651E-03     211.682E-03    -106.031E-03     51.3070E-03    -105.939E-03     211.588E-03    -105.770E-03     50.3730E-03
            1725     8.90588E-03     45.5445E-03    -47.8828E+06    -61.0741E+06     19.6867E+06     345.862E+03    -105.737E-03     211.816E-03    -106.079E-03     50.2339E-03    -106.008E-03     211.643E-03    -105.822E-03     49.3696E-03
            1726     8.09583E-03     45.4898E-03    -54.3139E+06    -77.6270E+06     11.2700E+06     293.026E+03    -105.808E-03     211.931E-03    -106.122E-03     48.5423E-03    -106.064E-03     211.685E-03    -105.875E-03     47.7471E-03
            1727     7.28587E-03     45.4374E-03    -61.1261E+06    -94.0869E+06     1.89919E+06     244.675E+03    -105.865E-03     212.026E-03    -106.161E-03     46.2263E-03    -106.106E-03     211.711E-03    -105.927E-03     45.5007E-03
            1728     6.47599E-03     45.3878E-03    -68.3477E+06    -110.385E+06    -8.62160E+06     199.518E+03    -105.909E-03     212.103E-03    -106.195E-03     43.3044E-03    -106.135E-03     211.721E-03    -105.979E-03     42.6498E-03
            1729     5.66620E-03     45.3417E-03    -76.0217E+06    -127.240E+06    -20.6667E+06     153.407E+03    -105.945E-03     212.166E-03    -106.221E-03     39.7584E-03    -106.157E-03     211.716E-03    -106.030E-03     39.1768E-03
            1730     4.85650E-03     45.3000E-03    -84.0873E+06    -145.052E+06    -34.5660E+06     116.552E+03    -105.977E-03     212.216E-03    -106.239E-03     35.5771E-03    -106.173E-03     211.698E-03    -106.079E-03     35.0714E-03
            1731     4.04689E-03     45.2631E-03    -92.3766E+06    -163.423E+06    -50.4861E+06     84.9775E+03    -106.008E-03     212.253E-03    -106.245E-03     30.7909E-03    -106.186E-03     211.670E-03    -106.127E-03     30.3640E-03
            1732     3.23736E-03     45.2319E-03    -100.583E+06    -182.486E+06    -68.2406E+06     65.7739E+03    -106.045E-03     212.285E-03    -106.240E-03     25.4496E-03    -106.202E-03     211.635E-03    -106.171E-03     25.1043E-03
            1733     2.42793E-03     45.2068E-03    -108.193E+06    -201.701E+06    -86.6720E+06     44.2474E+03    -106.090E-03     212.316E-03    -106.226E-03     19.6405E-03    -106.223E-03     211.600E-03    -106.210E-03     19.3785E-03
            1734     1.61856E-03     45.1884E-03    -114.523E+06    -218.472E+06    -103.503E+06     24.2791E+03    -106.136E-03     212.342E-03    -106.207E-03     13.4961E-03    -106.246E-03     211.571E-03    -106.242E-03     13.3183E-03
            1735     809.265E-06     45.1769E-03    -118.789E+06    -230.546E+06    -115.749E+06     15.1991E+03    -106.205E-03     212.364E-03    -106.159E-03     7.42471E-03    -106.298E-03     211.553E-03    -106.231E-03     7.32758E-03
            1736     15.3889E-03     44.7785E-03    -5.07015E+06     107.303E+06     92.9318E+06     224.652E+03    -104.401E-03     210.153E-03    -105.752E-03     23.7375E-03    -104.805E-03     210.651E-03    -105.436E-03     22.5747E-03
            1737     14.5782E-03     44.7443E-03    -10.1175E+06     104.103E+06     78.5406E+06     189.676E+03    -104.542E-03     210.279E-03    -105.737E-03     35.0363E-03    -104.984E-03     210.827E-03    -105.481E-03     33.7082E-03
            1738     13.7677E-03     44.7026E-03    -15.0639E+06     94.7064E+06     68.0607E+06     99.7892E+03    -104.714E-03     210.470E-03    -105.755E-03     41.6146E-03    -105.157E-03     210.997E-03    -105.531E-03     40.3527E-03
            1739     12.9571E-03     44.6536E-03    -20.0294E+06     64.7680E+06     60.6858E+06     97.2838E+03    -104.950E-03     210.772E-03    -105.822E-03     46.8399E-03    -105.367E-03     211.172E-03    -105.584E-03     45.6254E-03
            1740     12.1466E-03     44.6001E-03    -25.1105E+06     25.9880E+06     50.2713E+06     320.355E+03    -105.200E-03     211.088E-03    -105.888E-03     49.9504E-03    -105.568E-03     211.314E-03    -105.638E-03     48.7991E-03
            1741     11.3362E-03     44.5440E-03    -30.5649E+06    -808.270E+03     42.8964E+06     639.412E+03    -105.377E-03     211.329E-03    -105.953E-03     51.5449E-03    -105.715E-03     211.432E-03    -105.693E-03     50.4675E-03
            1742     10.5259E-03     44.4868E-03    -36.2801E+06    -22.9492E+06     35.0661E+06     678.970E+03    -105.517E-03     211.527E-03    -106.010E-03     51.9127E-03    -105.830E-03     211.527E-03    -105.748E-03     50.9084E-03
            1743     9.71569E-03     44.4298E-03    -42.0745E+06    -43.3071E+06     27.4128E+06     542.441E+03    -105.634E-03     211.700E-03    -106.065E-03     51.4479E-03    -105.924E-03     211.607E-03    -105.805E-03     50.5136E-03
            1744     8.90554E-03     44.3735E-03    -48.1008E+06    -60.9272E+06     19.6166E+06     412.966E+03    -105.732E-03     211.850E-03    -106.117E-03     50.3761E-03    -106.005E-03     211.678E-03    -105.861E-03     49.5101E-03
            1745     8.09549E-03     44.3188E-03    -54.4543E+06    -77.5034E+06     11.2347E+06     292.303E+03    -105.815E-03     211.980E-03    -106.165E-03     48.6789E-03    -106.072E-03     211.736E-03    -105.918E-03     47.8812E-03
            1746     7.28553E-03     44.2662E-03    -61.2017E+06    -94.0092E+06     1.88330E+06     201.504E+03    -105.884E-03     212.092E-03    -106.208E-03     46.3558E-03    -106.126E-03     211.777E-03    -105.973E-03     45.6273E-03
            1747     6.47567E-03     44.2165E-03    -68.3977E+06    -110.328E+06    -8.61592E+06     142.162E+03    -105.940E-03     212.184E-03    -106.244E-03     43.4235E-03    -106.167E-03     211.802E-03    -106.028E-03     42.7659E-03
            1748     5.66590E-03     44.1704E-03    -76.0333E+06    -127.198E+06    -20.6386E+06     102.201E+03    -105.984E-03     212.257E-03    -106.273E-03     39.8628E-03    -106.197E-03     211.808E-03    -106.082E-03     39.2785E-03
            1749     4.85624E-03     44.1285E-03    -84.0634E+06    -145.017E+06    -34.5274E+06     63.3417E+03    -106.022E-03     212.314E-03    -106.293E-03     35.6670E-03    -106.218E-03     211.797E-03    -106.133E-03     35.1589E-03
            1750     4.04666E-03     44.0915E-03    -92.3407E+06    -163.418E+06    -50.4500E+06     40.5824E+03    -106.057E-03     212.358E-03    -106.301E-03     30.8674E-03    -106.235E-03     211.774E-03    -106.182E-03     30.4384E-03
            1751     3.23718E-03     44.0602E-03    -100.543E+06    -182.485E+06    -68.2020E+06     29.1011E+03    -106.097E-03     212.394E-03    -106.297E-03     25.5123E-03    -106.254E-03     211.744E-03    -106.228E-03     25.1652E-03
            1752     2.42778E-03     44.0351E-03    -108.148E+06    -201.693E+06    -86.6276E+06     17.9271E+03    -106.145E-03     212.429E-03    -106.285E-03     19.6886E-03    -106.278E-03     211.714E-03    -106.268E-03     19.4253E-03
            1753     1.61847E-03     44.0167E-03    -114.470E+06    -218.481E+06    -103.453E+06     7.91568E+03    -106.194E-03     212.460E-03    -106.266E-03     13.5293E-03    -106.304E-03     211.688E-03    -106.301E-03     13.3506E-03
            1754     809.215E-06     44.0052E-03    -118.734E+06    -230.555E+06    -115.689E+06     3.99284E+03    -106.264E-03     212.483E-03    -106.219E-03     7.44276E-03    -106.358E-03     211.672E-03    -106.291E-03     7.34513E-03
            1755     15.3888E-03     43.6080E-03    -4.94635E+06     107.141E+06     93.0141E+06     162.496E+03    -104.317E-03     210.073E-03    -105.756E-03     23.7306E-03    -104.720E-03     210.569E-03    -105.439E-03     22.5678E-03
            1756     14.5781E-03     43.5739E-03    -9.96663E+06     104.198E+06     78.6099E+06     224.711E+03    -104.463E-03     210.208E-03    -105.745E-03     35.0642E-03    -104.904E-03     210.756E-03    -105.489E-03     33.7369E-03
            1757     13.7675E-03     43.5322E-03    -14.8612E+06     94.8589E+06     68.0588E+06     122.417E+03    -104.640E-03     210.408E-03    -105.768E-03     41.6812E-03    -105.082E-03     210.937E-03    -105.544E-03     40.4191E-03
            1758     12.9569E-03     43.4831E-03    -19.9885E+06     64.2713E+06     60.4537E+06     333.457E+03    -104.887E-03     210.728E-03    -105.841E-03     46.9301E-03    -105.303E-03     211.126E-03    -105.602E-03     45.7177E-03
            1759     12.1463E-03     43.4295E-03    -25.6003E+06     25.3213E+06     49.8122E+06     953.425E+03    -105.151E-03     211.062E-03    -105.911E-03     50.0593E-03    -105.520E-03     211.286E-03    -105.662E-03     48.9149E-03
            1760     11.3359E-03     43.3734E-03    -31.2532E+06    -639.180E+03     42.6443E+06     1.09153E+06    -105.338E-03     211.319E-03    -105.981E-03     51.6711E-03    -105.679E-03     211.424E-03    -105.722E-03     50.5978E-03
            1761     10.5256E-03     43.3161E-03    -36.7525E+06    -22.5843E+06     34.9762E+06     775.155E+03    -105.491E-03     211.534E-03    -106.043E-03     52.0507E-03    -105.807E-03     211.538E-03    -105.782E-03     51.0454E-03
            1762     9.71530E-03     43.2589E-03    -42.3545E+06    -43.0257E+06     27.3952E+06     512.526E+03    -105.624E-03     211.727E-03    -106.104E-03     51.5942E-03    -105.916E-03     211.637E-03    -105.843E-03     50.6569E-03
            1763     8.90516E-03     43.2026E-03    -48.2283E+06    -60.7083E+06     19.6559E+06     309.971E+03    -105.735E-03     211.894E-03    -106.160E-03     50.5234E-03    -106.009E-03     211.725E-03    -105.903E-03     49.6534E-03
            1764     8.09511E-03     43.1477E-03    -54.4741E+06    -77.3648E+06     11.3012E+06     175.551E+03    -105.828E-03     212.039E-03    -106.211E-03     48.8205E-03    -106.086E-03     211.796E-03    -105.963E-03     48.0186E-03
            1765     7.28516E-03     43.0950E-03    -61.1591E+06    -93.9236E+06     1.96914E+06     87.1886E+03    -105.910E-03     212.167E-03    -106.257E-03     46.4891E-03    -106.152E-03     211.853E-03    -106.023E-03     45.7566E-03
            1766     6.47532E-03     43.0451E-03    -68.3469E+06    -110.315E+06    -8.53256E+06     41.4816E+03    -105.976E-03     212.273E-03    -106.296E-03     43.5409E-03    -106.204E-03     211.891E-03    -106.080E-03     42.8798E-03
            1767     5.66560E-03     42.9989E-03    -75.9727E+06    -127.189E+06    -20.5477E+06     26.5278E+03    -106.027E-03     212.354E-03    -106.327E-03     39.9640E-03    -106.240E-03     211.906E-03    -106.136E-03     39.3768E-03
            1768     4.85596E-03     42.9569E-03    -83.9721E+06    -145.001E+06    -34.4356E+06     7.82681E+03    -106.068E-03     212.417E-03    -106.349E-03     35.7546E-03    -106.265E-03     211.900E-03    -106.189E-03     35.2440E-03
            1769     4.04643E-03     42.9199E-03    -92.2527E+06    -163.440E+06    -50.3669E+06    -10.9655E+03    -106.107E-03     212.466E-03    -106.359E-03     30.9417E-03    -106.285E-03     211.883E-03    -106.240E-03     30.5106E-03
            1770     3.23698E-03     42.8885E-03    -100.446E+06    -182.513E+06    -68.1110E+06    -11.6691E+03    -106.151E-03     212.508E-03    -106.357E-03     25.5736E-03    -106.308E-03     211.858E-03    -106.287E-03     25.2248E-03
            1771     2.42764E-03     42.8633E-03    -108.046E+06    -201.714E+06    -86.5308E+06    -12.9723E+03    -106.203E-03     212.548E-03    -106.345E-03     19.7365E-03    -106.336E-03     211.832E-03    -106.329E-03     19.4719E-03
            1772     1.61837E-03     42.8448E-03    -114.365E+06    -218.513E+06    -103.343E+06    -16.1098E+03    -106.254E-03     212.582E-03    -106.328E-03     13.5623E-03    -106.364E-03     211.811E-03    -106.362E-03     13.3826E-03
            1773     809.166E-06     42.8333E-03    -118.624E+06    -230.598E+06    -115.579E+06    -13.0578E+03    -106.326E-03     212.608E-03    -106.282E-03     7.46041E-03    -106.419E-03     211.796E-03    -106.354E-03     7.36220E-03
            1774     15.3888E-03     42.4378E-03    -5.05682E+06     106.955E+06     93.0250E+06     45.4778E+03    -104.226E-03     209.986E-03    -105.760E-03     23.7361E-03    -104.630E-03     210.482E-03    -105.443E-03     22.5725E-03
            1775     14.5780E-03     42.4036E-03    -9.97888E+06     104.115E+06     78.4738E+06     154.143E+03    -104.367E-03     210.121E-03    -105.754E-03     35.0977E-03    -104.808E-03     210.669E-03    -105.498E-03     33.7699E-03
            1776     13.7673E-03     42.3618E-03    -15.1962E+06     94.4122E+06     67.6306E+06     626.317E+03    -104.555E-03     210.338E-03    -105.782E-03     41.7545E-03    -104.998E-03     210.865E-03    -105.559E-03     40.4987E-03
            1777     12.9566E-03     42.3127E-03    -21.1418E+06     63.4341E+06     59.7413E+06     1.39484E+06    -104.820E-03     210.681E-03    -105.860E-03     47.0148E-03    -105.240E-03     211.077E-03    -105.623E-03     45.8157E-03
            1778     12.1460E-03     42.2591E-03    -26.8357E+06     25.3931E+06     49.3952E+06     1.46101E+06    -105.101E-03     211.038E-03    -105.937E-03     50.1564E-03    -105.477E-03     211.265E-03    -105.688E-03     49.0173E-03
            1779     11.3355E-03     42.2027E-03    -31.8790E+06     37.6345E+03     42.6549E+06     922.909E+03    -105.301E-03     211.312E-03    -106.011E-03     51.7839E-03    -105.647E-03     211.422E-03    -105.752E-03     50.7064E-03
            1780     10.5252E-03     42.1453E-03    -36.9556E+06    -22.1315E+06     35.0978E+06     501.013E+03    -105.469E-03     211.548E-03    -106.078E-03     52.1723E-03    -105.788E-03     211.555E-03    -105.817E-03     51.1611E-03
            1781     9.71491E-03     42.0880E-03    -42.3322E+06    -42.7142E+06     27.5734E+06     229.411E+03    -105.619E-03     211.762E-03    -106.143E-03     51.7183E-03    -105.913E-03     211.674E-03    -105.882E-03     50.7749E-03
            1782     8.90476E-03     42.0315E-03    -48.0903E+06    -60.5540E+06     19.8406E+06     76.0007E+03    -105.744E-03     211.947E-03    -106.203E-03     50.6395E-03    -106.018E-03     211.778E-03    -105.946E-03     49.7641E-03
            1783     8.09472E-03     41.9765E-03    -54.3040E+06    -77.2806E+06     11.4923E+06    -1.68362E+03    -105.849E-03     212.106E-03    -106.258E-03     48.9294E-03    -106.106E-03     211.863E-03    -106.009E-03     48.1230E-03
            1784     7.28479E-03     41.9236E-03    -60.9899E+06    -93.9110E+06     2.14655E+06    -36.8360E+03    -105.940E-03     212.246E-03    -106.306E-03     46.5914E-03    -106.181E-03     211.932E-03    -106.071E-03     45.8551E-03
            1785     6.47499E-03     41.8737E-03    -68.1284E+06    -110.325E+06    -8.35952E+06    -52.6400E+03    -106.013E-03     212.361E-03    -106.348E-03     43.6296E-03    -106.240E-03     211.979E-03    -106.131E-03     42.9654E-03
            1786     5.66528E-03     41.8273E-03    -75.7550E+06    -127.232E+06    -20.3858E+06    -63.1284E+03    -106.069E-03     212.450E-03    -106.381E-03     40.0399E-03    -106.281E-03     212.000E-03    -106.188E-03     39.4499E-03
            1787     4.85569E-03     41.7852E-03    -83.8110E+06    -145.031E+06    -34.2776E+06    -56.4000E+03    -106.114E-03     212.518E-03    -106.404E-03     35.8199E-03    -106.310E-03     212.001E-03    -106.244E-03     35.3071E-03
            1788     4.04619E-03     41.7481E-03    -92.0832E+06    -163.480E+06    -50.2064E+06    -52.5901E+03    -106.157E-03     212.573E-03    -106.416E-03     30.9976E-03    -106.334E-03     211.989E-03    -106.296E-03     30.5648E-03
            1789     3.23679E-03     41.7166E-03    -100.289E+06    -182.573E+06    -67.9627E+06    -46.2457E+03    -106.205E-03     212.620E-03    -106.415E-03     25.6205E-03    -106.361E-03     211.969E-03    -106.345E-03     25.2704E-03
            1790     2.42749E-03     41.6914E-03    -107.896E+06    -201.753E+06    -86.3863E+06    -39.3854E+03    -106.260E-03     212.665E-03    -106.405E-03     19.7727E-03    -106.392E-03     211.948E-03    -106.388E-03     19.5071E-03
            1791     1.61827E-03     41.6728E-03    -114.218E+06    -218.572E+06    -103.206E+06    -39.0470E+03    -106.314E-03     212.702E-03    -106.389E-03     13.5870E-03    -106.423E-03     211.930E-03    -106.422E-03     13.4066E-03
            1792     809.113E-06     41.6613E-03    -118.480E+06    -230.679E+06    -115.440E+06    -26.7389E+03    -106.385E-03     212.730E-03    -106.345E-03     7.47341E-03    -106.478E-03     211.917E-03    -106.415E-03     7.37477E-03
            1793     15.3887E-03     41.2676E-03    -5.14106E+06     106.781E+06     92.7471E+06     67.6858E+03    -104.158E-03     209.923E-03    -105.765E-03     23.7743E-03    -104.561E-03     210.418E-03    -105.448E-03     22.6116E-03
            1794     14.5779E-03     41.2335E-03    -10.6622E+06     103.335E+06     77.8052E+06     616.240E+03    -104.281E-03     210.044E-03    -105.763E-03     35.1483E-03    -104.724E-03     210.590E-03    -105.508E-03     33.8270E-03
            1795     13.7670E-03     41.1916E-03    -16.4515E+06     92.9614E+06     66.5887E+06     1.81764E+06    -104.483E-03     210.279E-03    -105.796E-03     41.8175E-03    -104.929E-03     210.803E-03    -105.574E-03     40.5772E-03
            1796     12.9563E-03     41.1424E-03    -21.8799E+06     63.6577E+06     59.6451E+06     2.12297E+06    -104.770E-03     210.650E-03    -105.881E-03     47.0774E-03    -105.194E-03     211.050E-03    -105.643E-03     45.8871E-03
            1797     12.1457E-03     41.0886E-03    -26.6758E+06     26.7481E+06     49.9915E+06     1.12818E+06    -105.060E-03     211.022E-03    -105.962E-03     50.2288E-03    -105.438E-03     211.255E-03    -105.712E-03     49.0840E-03
            1798     11.3352E-03     41.0321E-03    -31.3975E+06     643.292E+03     43.1627E+06     333.092E+03    -105.274E-03     211.315E-03    -106.041E-03     51.8662E-03    -105.620E-03     211.426E-03    -105.780E-03     50.7794E-03
            1799     10.5248E-03     40.9746E-03    -36.4151E+06    -21.7693E+06     35.5599E+06     41.8930E+03    -105.458E-03     211.569E-03    -106.111E-03     52.2615E-03    -105.775E-03     211.577E-03    -105.849E-03     51.2426E-03
            1800     9.71455E-03     40.9171E-03    -41.8109E+06    -42.5961E+06     27.9549E+06    -87.2511E+03    -105.623E-03     211.803E-03    -106.180E-03     51.8048E-03    -105.916E-03     211.714E-03    -105.917E-03     50.8555E-03
            1801     8.90441E-03     40.8604E-03    -47.6469E+06    -60.5142E+06     20.1710E+06    -118.043E+03    -105.761E-03     212.003E-03    -106.242E-03     50.7107E-03    -106.034E-03     211.834E-03    -105.984E-03     49.8313E-03
            1802     8.09438E-03     40.8052E-03    -53.9269E+06    -77.3063E+06     11.7761E+06    -126.758E+03    -105.875E-03     212.174E-03    -106.299E-03     48.9896E-03    -106.131E-03     211.930E-03    -106.049E-03     48.1802E-03
            1803     7.28448E-03     40.7522E-03    -60.6545E+06    -93.9522E+06     2.40168E+06    -121.519E+03    -105.971E-03     212.319E-03    -106.349E-03     46.6417E-03    -106.211E-03     212.004E-03    -106.113E-03     45.9032E-03
            1804     6.47469E-03     40.7021E-03    -67.8254E+06    -110.378E+06    -8.11972E+06    -114.273E+03    -106.046E-03     212.438E-03    -106.392E-03     43.6659E-03    -106.272E-03     212.055E-03    -106.174E-03     42.9999E-03
            1805     5.66502E-03     40.6555E-03    -75.4907E+06    -127.288E+06    -20.1665E+06    -103.174E+03    -106.104E-03     212.531E-03    -106.426E-03     40.0639E-03    -106.315E-03     212.080E-03    -106.233E-03     39.4727E-03
            1806     4.85545E-03     40.6133E-03    -83.5748E+06    -145.100E+06    -34.0768E+06    -98.9440E+03    -106.153E-03     212.604E-03    -106.451E-03     35.8388E-03    -106.348E-03     212.086E-03    -106.290E-03     35.3250E-03
            1807     4.04599E-03     40.5761E-03    -91.8722E+06    -163.559E+06    -50.0113E+06    -76.0970E+03    -106.200E-03     212.664E-03    -106.464E-03     31.0138E-03    -106.376E-03     212.079E-03    -106.344E-03     30.5803E-03
            1808     3.23662E-03     40.5446E-03    -100.089E+06    -182.641E+06    -67.7783E+06    -53.2545E+03    -106.251E-03     212.716E-03    -106.465E-03     25.6338E-03    -106.406E-03     212.064E-03    -106.394E-03     25.2832E-03
            1809     2.42736E-03     40.5193E-03    -107.712E+06    -201.805E+06    -86.2195E+06    -49.2652E+03    -106.308E-03     212.763E-03    -106.455E-03     19.7819E-03    -106.440E-03     212.046E-03    -106.437E-03     19.5158E-03
            1810     1.61818E-03     40.5007E-03    -114.044E+06    -218.645E+06    -103.048E+06    -45.4010E+03    -106.363E-03     212.803E-03    -106.439E-03     13.5929E-03    -106.472E-03     212.029E-03    -106.472E-03     13.4122E-03
            1811     809.071E-06     40.4891E-03    -118.312E+06    -230.783E+06    -115.280E+06    -31.0878E+03    -106.434E-03     212.832E-03    -106.398E-03     7.47627E-03    -106.526E-03     212.018E-03    -106.468E-03     7.37752E-03
            1812     15.3885E-03     40.0975E-03    -5.02111E+06     106.765E+06     92.4114E+06     97.6697E+03    -104.081E-03     209.852E-03    -105.771E-03     23.8128E-03    -104.483E-03     210.347E-03    -105.456E-03     22.6511E-03
            1813     14.5777E-03     40.0634E-03    -9.89317E+06     101.102E+06     77.8539E+06     1.09939E+06    -104.259E-03     210.036E-03    -105.777E-03     35.2098E-03    -104.695E-03     210.570E-03    -105.520E-03     33.8950E-03
            1814     13.7669E-03     40.0214E-03    -14.6585E+06     91.5209E+06     67.6144E+06     2.62011E+06    -104.475E-03     210.289E-03    -105.814E-03     41.8778E-03    -104.911E-03     210.802E-03    -105.588E-03     40.6475E-03
            1815     12.9561E-03     39.9720E-03    -19.6204E+06     65.6809E+06     61.3407E+06     2.21380E+06    -104.743E-03     210.642E-03    -105.899E-03     47.1249E-03    -105.161E-03     211.046E-03    -105.659E-03     45.9350E-03
            1816     12.1455E-03     39.9181E-03    -24.6742E+06     28.3567E+06     51.4306E+06     829.249E+03    -105.038E-03     211.021E-03    -105.983E-03     50.2733E-03    -105.410E-03     211.257E-03    -105.731E-03     49.1237E-03
            1817     11.3349E-03     39.8615E-03    -29.8330E+06     1.18816E+06     44.1207E+06     123.025E+03    -105.265E-03     211.330E-03    -106.065E-03     51.9052E-03    -105.606E-03     211.441E-03    -105.803E-03     50.8148E-03
            1818     10.5245E-03     39.8038E-03    -35.2708E+06    -21.6663E+06     36.2208E+06    -93.1429E+03    -105.462E-03     211.599E-03    -106.138E-03     52.2988E-03    -105.775E-03     211.605E-03    -105.874E-03     51.2772E-03
            1819     9.71427E-03     39.7461E-03    -40.9892E+06    -42.5886E+06     28.4562E+06    -110.471E+03    -105.637E-03     211.845E-03    -106.208E-03     51.8332E-03    -105.926E-03     211.754E-03    -105.944E-03     50.8828E-03
            1820     8.90414E-03     39.6893E-03    -47.0252E+06    -60.5625E+06     20.5674E+06    -120.581E+03    -105.784E-03     212.055E-03    -106.271E-03     50.7264E-03    -106.054E-03     211.883E-03    -106.012E-03     49.8464E-03
            1821     8.09414E-03     39.6339E-03    -53.4244E+06    -77.3590E+06     12.1096E+06    -112.460E+03    -105.904E-03     212.232E-03    -106.328E-03     48.9972E-03    -106.158E-03     211.987E-03    -106.078E-03     48.1877E-03
            1822     7.28426E-03     39.5807E-03    -60.2375E+06    -94.0083E+06     2.69683E+06    -114.298E+03    -106.001E-03     212.379E-03    -106.378E-03     46.6379E-03    -106.240E-03     212.063E-03    -106.141E-03     45.8994E-03
            1823     6.47450E-03     39.5304E-03    -67.5183E+06    -110.465E+06    -7.86365E+06    -94.1318E+03    -106.074E-03     212.495E-03    -106.421E-03     43.6496E-03    -106.299E-03     212.111E-03    -106.202E-03     42.9841E-03
            1824     5.66485E-03     39.4838E-03    -75.2351E+06    -127.348E+06    -19.9346E+06    -70.2694E+03    -106.130E-03     212.586E-03    -106.456E-03     40.0389E-03    -106.340E-03     212.135E-03    -106.261E-03     39.4486E-03
            1825     4.85530E-03     39.4414E-03    -83.3298E+06    -145.147E+06    -33.8683E+06    -67.9271E+03    -106.180E-03     212.660E-03    -106.481E-03     35.8129E-03    -106.373E-03     212.141E-03    -106.319E-03     35.2999E-03
            1826     4.04586E-03     39.4041E-03    -91.6659E+06    -163.655E+06    -49.8303E+06    -64.7466E+03    -106.229E-03     212.723E-03    -106.494E-03     30.9892E-03    -106.404E-03     212.136E-03    -106.373E-03     30.5563E-03
            1827     3.23652E-03     39.3725E-03    -99.9026E+06    -182.710E+06    -67.6091E+06    -41.1763E+03    -106.281E-03     212.776E-03    -106.495E-03     25.6118E-03    -106.436E-03     212.123E-03    -106.423E-03     25.2617E-03
            1828     2.42728E-03     39.3471E-03    -107.531E+06    -201.849E+06    -86.0587E+06    -33.0656E+03    -106.338E-03     212.823E-03    -106.485E-03     19.7625E-03    -106.469E-03     212.105E-03    -106.466E-03     19.4970E-03
            1829     1.61813E-03     39.3285E-03    -113.873E+06    -218.716E+06    -102.884E+06    -34.9253E+03    -106.393E-03     212.862E-03    -106.469E-03     13.5790E-03    -106.501E-03     212.088E-03    -106.501E-03     13.3987E-03
            1830     809.044E-06     39.3168E-03    -118.147E+06    -230.883E+06    -115.116E+06    -24.9282E+03    -106.463E-03     212.891E-03    -106.428E-03     7.46837E-03    -106.554E-03     212.077E-03    -106.498E-03     7.36981E-03
            1831     15.3884E-03     38.9275E-03    -4.78817E+06     106.783E+06     92.0705E+06    -73.7385E+03    -104.006E-03     209.783E-03    -105.776E-03     23.8205E-03    -104.407E-03     210.278E-03    -105.464E-03     22.6567E-03
            1832     14.5775E-03     38.8932E-03    -9.32691E+06     98.7137E+06     77.7067E+06     514.978E+03    -104.250E-03     210.039E-03    -105.789E-03     35.2470E-03    -104.680E-03     210.561E-03    -105.530E-03     33.9240E-03
            1833     13.7667E-03     38.8512E-03    -13.2664E+06     89.8499E+06     68.4296E+06     1.88360E+06    -104.492E-03     210.322E-03    -105.830E-03     41.9503E-03    -104.920E-03     210.824E-03    -105.599E-03     40.7092E-03
            1834     12.9559E-03     38.8017E-03    -17.5909E+06     67.7071E+06     62.9498E+06     2.29733E+06    -104.744E-03     210.657E-03    -105.913E-03     47.1838E-03    -105.158E-03     211.066E-03    -105.671E-03     45.9941E-03
            1835     12.1453E-03     38.7476E-03    -22.8599E+06     30.0242E+06     52.7959E+06     1.31519E+06    -105.040E-03     211.038E-03    -105.998E-03     50.3097E-03    -105.408E-03     211.279E-03    -105.744E-03     49.1659E-03
            1836     11.3348E-03     38.6909E-03    -28.5341E+06     1.71860E+06     44.9578E+06     577.366E+03    -105.279E-03     211.359E-03    -106.081E-03     51.9311E-03    -105.615E-03     211.470E-03    -105.817E-03     50.8461E-03
            1837     10.5244E-03     38.6330E-03    -34.3539E+06    -21.4916E+06     36.7996E+06     331.314E+03    -105.481E-03     211.635E-03    -106.153E-03     52.3227E-03    -105.791E-03     211.639E-03    -105.888E-03     51.3062E-03
            1838     9.71415E-03     38.5751E-03    -40.3218E+06    -42.5145E+06     28.8981E+06     176.778E+03    -105.659E-03     211.881E-03    -106.223E-03     51.8499E-03    -105.945E-03     211.790E-03    -105.958E-03     50.9029E-03
            1839     8.90403E-03     38.5181E-03    -46.5024E+06    -60.5364E+06     20.9256E+06     101.415E+03    -105.806E-03     212.091E-03    -106.285E-03     50.7350E-03    -106.074E-03     211.918E-03    -106.025E-03     49.8577E-03
            1840     8.09405E-03     38.4625E-03    -53.0130E+06    -77.3581E+06     12.4111E+06     46.8321E+03    -105.928E-03     212.269E-03    -106.341E-03     49.0035E-03    -106.180E-03     212.023E-03    -106.090E-03     48.1959E-03
            1841     7.28419E-03     38.4091E-03    -59.9181E+06    -94.0335E+06     2.95183E+06     27.6779E+03    -106.025E-03     212.416E-03    -106.391E-03     46.6383E-03    -106.263E-03     212.098E-03    -106.153E-03     45.9016E-03
            1842     6.47445E-03     38.3587E-03    -67.2334E+06    -110.508E+06    -7.63484E+06     12.7678E+03    -106.095E-03     212.527E-03    -106.432E-03     43.6448E-03    -106.318E-03     212.142E-03    -106.213E-03     42.9807E-03
            1843     5.66481E-03     38.3119E-03    -74.9762E+06    -127.388E+06    -19.7172E+06     4.89288E+03    -106.147E-03     212.612E-03    -106.466E-03     40.0333E-03    -106.355E-03     212.160E-03    -106.271E-03     39.4441E-03
            1844     4.85527E-03     38.2695E-03    -83.1081E+06    -145.168E+06    -33.6665E+06     1.30243E+03    -106.194E-03     212.684E-03    -106.490E-03     35.8099E-03    -106.387E-03     212.165E-03    -106.328E-03     35.2980E-03
            1845     4.04584E-03     38.2321E-03      -91.46E+06    -163.702E+06    -49.6511E+06    -3.85767E+03    -106.243E-03     212.745E-03    -106.503E-03     30.9859E-03    -106.417E-03     212.158E-03    -106.381E-03     30.5539E-03
            1846     3.23651E-03     38.2003E-03    -99.7196E+06    -182.769E+06    -67.4462E+06    -3.55455E+03    -106.293E-03     212.796E-03    -106.502E-03     25.6063E-03    -106.447E-03     212.142E-03    -106.430E-03     25.2569E-03
            1847     2.42728E-03     38.1749E-03    -107.361E+06    -201.873E+06    -85.9035E+06    -1.23755E+03    -106.348E-03     212.839E-03    -106.491E-03     19.7557E-03    -106.478E-03     212.120E-03    -106.472E-03     19.4908E-03
            1848     1.61813E-03     38.1562E-03    -113.701E+06    -218.759E+06    -102.731E+06    -10.5605E+03    -106.400E-03     212.875E-03    -106.474E-03     13.5737E-03    -106.508E-03     212.100E-03    -106.506E-03     13.3939E-03
            1849     809.046E-06     38.1445E-03    -117.973E+06    -230.957E+06    -114.948E+06    -12.4098E+03    -106.470E-03     212.902E-03    -106.432E-03     7.46539E-03    -106.560E-03     212.086E-03    -106.501E-03     7.36708E-03
            1850     15.3883E-03     37.7575E-03    -5.22281E+06     106.547E+06     91.6133E+06    -35.3810E+03    -103.964E-03     209.743E-03    -105.779E-03     23.8359E-03    -104.366E-03     210.239E-03    -105.468E-03     22.6723E-03
            1851     14.5774E-03     37.7232E-03    -10.4472E+06     97.7862E+06     76.9167E+06     139.854E+03    -104.212E-03     210.007E-03    -105.794E-03     35.2880E-03    -104.645E-03     210.527E-03    -105.536E-03     33.9591E-03
            1852     13.7666E-03     37.6810E-03    -15.0507E+06     88.3321E+06     67.2668E+06      451.95E+03    -104.479E-03     210.316E-03    -105.837E-03     42.0184E-03    -104.913E-03     210.815E-03    -105.607E-03     40.7569E-03
            1853     12.9558E-03     37.6313E-03    -18.9955E+06     67.6252E+06     62.5094E+06     1.18835E+06    -104.758E-03     210.679E-03    -105.921E-03     47.2482E-03    -105.178E-03     211.091E-03    -105.679E-03     46.0425E-03
            1854     12.1452E-03     37.5771E-03    -23.3179E+06     31.2190E+06     53.0856E+06     1.53087E+06    -105.061E-03     211.066E-03    -106.005E-03     50.3575E-03    -105.433E-03     211.313E-03    -105.751E-03     49.2157E-03
            1855     11.3347E-03     37.5202E-03    -28.5554E+06     2.31749E+06     45.2333E+06     1.17473E+06    -105.303E-03     211.390E-03    -106.087E-03     51.9765E-03    -105.641E-03     211.503E-03    -105.823E-03     50.8986E-03
            1856     10.5244E-03     37.4621E-03    -34.2258E+06    -21.0495E+06     37.0857E+06     816.087E+03    -105.506E-03     211.664E-03    -106.158E-03     52.3812E-03    -105.816E-03     211.671E-03    -105.893E-03     51.3701E-03
            1857     9.71413E-03     37.4041E-03    -40.1146E+06    -42.2656E+06     29.1526E+06     569.151E+03    -105.681E-03     211.907E-03    -106.226E-03     51.9140E-03    -105.967E-03     211.817E-03    -105.961E-03     50.9711E-03
            1858     8.90403E-03     37.3468E-03    -46.3003E+06    -60.3594E+06     21.1558E+06     397.230E+03    -105.824E-03     212.111E-03    -106.288E-03     50.7997E-03    -106.092E-03     211.939E-03    -106.027E-03     49.9253E-03
            1859     8.09406E-03     37.2911E-03    -52.8150E+06    -77.2616E+06     12.6136E+06     288.946E+03    -105.942E-03     212.284E-03    -106.343E-03     49.0715E-03    -106.194E-03     212.038E-03    -106.091E-03     48.2660E-03
            1860     7.28420E-03     37.2376E-03    -59.7171E+06    -93.9628E+06     3.14063E+06     203.515E+03    -106.036E-03     212.427E-03    -106.391E-03     46.7016E-03    -106.273E-03     212.109E-03    -106.152E-03     45.9663E-03
            1861     6.47447E-03     37.1870E-03    -67.0477E+06    -110.476E+06    -7.46389E+06     145.341E+03    -106.103E-03     212.535E-03    -106.431E-03     43.7026E-03    -106.326E-03     212.149E-03    -106.211E-03     43.0394E-03
            1862     5.66483E-03     37.1401E-03    -74.8068E+06    -127.380E+06    -19.5581E+06     116.857E+03    -106.154E-03     212.618E-03    -106.464E-03     40.0935E-03    -106.362E-03     212.165E-03    -106.269E-03     39.5048E-03
            1863     4.85530E-03     37.0975E-03    -82.9349E+06    -145.159E+06    -33.5087E+06     94.8704E+03    -106.201E-03     212.688E-03    -106.487E-03     35.8695E-03    -106.393E-03     212.168E-03    -106.324E-03     35.3579E-03
            1864     4.04587E-03     37.0600E-03    -91.2945E+06    -163.699E+06    -49.4943E+06     73.0850E+03    -106.247E-03     212.745E-03    -106.498E-03     31.0360E-03    -106.422E-03     212.158E-03    -106.376E-03     30.6042E-03
            1865     3.23654E-03     37.0282E-03     -99.554E+06    -182.780E+06    -67.2887E+06     57.8761E+03    -106.294E-03     212.790E-03    -106.496E-03     25.6441E-03    -106.447E-03     212.136E-03    -106.423E-03     25.2950E-03
            1866     2.42731E-03     37.0027E-03    -107.199E+06    -201.869E+06    -85.7549E+06     41.6761E+03    -106.344E-03     212.827E-03    -106.483E-03     19.7829E-03    -106.474E-03     212.108E-03    -106.464E-03     19.5182E-03
            1867     1.61815E-03     36.9839E-03    -113.540E+06    -218.760E+06    -102.582E+06     21.1194E+03    -106.393E-03     212.858E-03    -106.465E-03     13.5918E-03    -106.500E-03     212.083E-03    -106.496E-03     13.4122E-03
            1868     809.056E-06     36.9723E-03    -117.807E+06    -230.991E+06    -114.788E+06     5.53137E+03    -106.462E-03     212.882E-03    -106.420E-03     7.47499E-03    -106.551E-03     212.066E-03    -106.489E-03     7.37682E-03
            1869     15.3883E-03     36.5876E-03    -5.22612E+06     106.235E+06     91.5156E+06     265.864E+03    -103.941E-03     209.721E-03    -105.780E-03     23.8934E-03    -104.343E-03     210.216E-03    -105.469E-03     22.7331E-03
            1870     14.5774E-03     36.5532E-03    -10.2894E+06     97.7855E+06     77.0376E+06     310.980E+03    -104.196E-03     209.992E-03    -105.797E-03     35.3651E-03    -104.629E-03     210.513E-03    -105.538E-03     34.0373E-03
            1871     13.7666E-03     36.5108E-03    -15.1935E+06     88.3062E+06     67.1549E+06    -10.6366E+03    -104.475E-03     210.314E-03    -105.840E-03     42.0957E-03    -104.910E-03     210.814E-03    -105.610E-03     40.8265E-03
            1872     12.9558E-03     36.4609E-03    -20.1019E+06     66.5007E+06     61.7325E+06    -21.4810E+03    -104.772E-03     210.695E-03    -105.923E-03     47.3149E-03    -105.195E-03     211.104E-03    -105.682E-03     46.0918E-03
            1873     12.1452E-03     36.4066E-03    -24.7186E+06     30.7581E+06     52.4222E+06     719.461E+03    -105.085E-03     211.091E-03    -106.006E-03     50.4226E-03    -105.463E-03     211.338E-03    -105.753E-03     49.2688E-03
            1874     11.3347E-03     36.3495E-03    -29.3992E+06     2.84308E+06     45.0767E+06     1.11916E+06    -105.322E-03     211.409E-03    -106.086E-03     52.0544E-03    -105.665E-03     211.527E-03    -105.822E-03     50.9743E-03
            1875     10.5244E-03     36.2913E-03    -34.6496E+06    -20.6495E+06     37.0628E+06     955.252E+03    -105.521E-03     211.678E-03    -106.156E-03     52.4826E-03    -105.835E-03     211.687E-03    -105.891E-03     51.4716E-03
            1876     9.71417E-03     36.2330E-03    -40.3233E+06    -41.8948E+06     29.2121E+06     773.864E+03    -105.694E-03     211.917E-03    -106.223E-03     52.0283E-03    -105.982E-03     211.829E-03    -105.958E-03     51.0862E-03
            1877     8.90408E-03     36.1756E-03    -46.3641E+06    -60.1081E+06     21.2402E+06     598.986E+03    -105.834E-03     212.117E-03    -106.283E-03     50.9173E-03    -106.103E-03     211.947E-03    -106.023E-03     50.0435E-03
            1878     8.09411E-03     36.1197E-03    -52.8055E+06    -77.0675E+06     12.7133E+06     462.422E+03    -105.948E-03     212.285E-03    -106.337E-03     49.1901E-03    -106.201E-03     212.040E-03    -106.085E-03     48.3848E-03
            1879     7.28426E-03     36.0660E-03    -59.6661E+06    -93.8089E+06     3.24540E+06     355.124E+03    -106.036E-03     212.421E-03    -106.385E-03     46.8098E-03    -106.274E-03     212.105E-03    -106.146E-03     46.0747E-03
            1880     6.47451E-03     36.0153E-03    -66.9657E+06    -110.376E+06    -7.36509E+06     272.325E+03    -106.102E-03     212.527E-03    -106.425E-03     43.8008E-03    -106.325E-03     212.142E-03    -106.205E-03     43.1377E-03
            1881     5.66488E-03     35.9683E-03    -74.7057E+06    -127.327E+06    -19.4628E+06     216.708E+03    -106.157E-03     212.614E-03    -106.457E-03     40.1880E-03    -106.365E-03     212.161E-03    -106.261E-03     39.5990E-03
            1882     4.85534E-03     35.9256E-03    -82.8332E+06    -145.107E+06    -33.4037E+06     180.900E+03    -106.205E-03     212.684E-03    -106.479E-03     35.9524E-03    -106.398E-03     212.164E-03    -106.315E-03     35.4403E-03
            1883     4.04592E-03     35.8880E-03    -91.1763E+06    -163.649E+06    -49.3789E+06     145.246E+03    -106.248E-03     212.736E-03    -106.488E-03     31.1018E-03    -106.422E-03     212.148E-03    -106.365E-03     30.6698E-03
            1884     3.23658E-03     35.8561E-03    -99.4288E+06    -182.749E+06    -67.1686E+06     115.264E+03    -106.290E-03     212.774E-03    -106.484E-03     25.6935E-03    -106.443E-03     212.119E-03    -106.410E-03     25.3443E-03
            1885     2.42734E-03     35.8305E-03    -107.067E+06    -201.823E+06    -85.6278E+06     89.9996E+03    -106.336E-03     212.805E-03    -106.469E-03     19.8182E-03    -106.465E-03     212.086E-03    -106.449E-03     19.5536E-03
            1886     1.61818E-03     35.8117E-03    -113.406E+06    -218.717E+06    -102.448E+06     54.2136E+03    -106.381E-03     212.831E-03    -106.450E-03     13.6146E-03    -106.487E-03     212.055E-03    -106.480E-03     13.4350E-03
            1887     809.071E-06     35.8000E-03    -117.676E+06    -230.976E+06    -114.652E+06     25.2357E+03    -106.447E-03     212.850E-03    -106.404E-03     7.48680E-03    -106.536E-03     212.034E-03    -106.471E-03     7.38868E-03
            1888     15.3883E-03     35.4177E-03    -4.76523E+06     105.925E+06     91.6382E+06     282.905E+03    -103.939E-03     209.719E-03    -105.779E-03     23.9865E-03    -104.339E-03     210.211E-03    -105.468E-03     22.8250E-03
            1889     14.5774E-03     35.3831E-03    -9.62156E+06     97.9633E+06     77.3467E+06     327.057E+03    -104.210E-03     210.007E-03    -105.796E-03     35.4718E-03    -104.641E-03     210.527E-03    -105.538E-03     34.1423E-03
            1890     13.7666E-03     35.3406E-03    -14.4594E+06     88.8587E+06     67.5658E+06     137.168E+03    -104.493E-03     210.331E-03    -105.838E-03     42.1982E-03    -104.926E-03     210.832E-03    -105.608E-03     40.9291E-03
            1891     12.9558E-03     35.2906E-03    -19.5623E+06     66.0909E+06     61.7337E+06     10.3580E+03    -104.790E-03     210.711E-03    -105.920E-03     47.4031E-03    -105.211E-03     211.118E-03    -105.679E-03     46.1787E-03
            1892     12.1453E-03     35.2360E-03    -24.8279E+06     29.7804E+06     52.0019E+06     197.815E+03    -105.100E-03     211.102E-03    -106.002E-03     50.5122E-03    -105.478E-03     211.346E-03    -105.749E-03     49.3497E-03
            1893     11.3348E-03     35.1788E-03    -29.9206E+06     2.70214E+06     44.7783E+06     593.126E+03    -105.331E-03     211.412E-03    -106.081E-03     52.1654E-03    -105.677E-03     211.531E-03    -105.818E-03     51.0763E-03
            1894     10.5245E-03     35.1204E-03    -35.0870E+06    -20.4388E+06     36.9165E+06     773.181E+03    -105.526E-03     211.676E-03    -106.151E-03     52.6208E-03    -105.842E-03     211.689E-03    -105.886E-03     51.6048E-03
            1895     9.71423E-03     35.0620E-03    -40.6198E+06    -41.6448E+06     29.1421E+06     721.131E+03    -105.696E-03     211.913E-03    -106.217E-03     52.1787E-03    -105.987E-03     211.828E-03    -105.952E-03     51.2332E-03
            1896     8.90414E-03     35.0044E-03    -46.5542E+06    -59.8533E+06     21.2231E+06     630.146E+03    -105.837E-03     212.114E-03    -106.277E-03     51.0683E-03    -106.108E-03     211.946E-03    -106.016E-03     50.1923E-03
            1897     8.09417E-03     34.9483E-03    -52.9171E+06    -76.8675E+06     12.7158E+06     524.931E+03    -105.950E-03     212.280E-03    -106.330E-03     49.3359E-03    -106.204E-03     212.037E-03    -106.079E-03     48.5289E-03
            1898     7.28432E-03     34.8945E-03    -59.7165E+06    -93.6235E+06     3.26744E+06     430.827E+03    -106.035E-03     212.412E-03    -106.377E-03     46.9415E-03    -106.273E-03     212.097E-03    -106.139E-03     46.2049E-03
            1899     6.47457E-03     34.8436E-03    -66.9660E+06    -110.238E+06    -7.33029E+06     346.281E+03    -106.102E-03     212.519E-03    -106.417E-03     43.9210E-03    -106.326E-03     212.135E-03    -106.197E-03     43.2566E-03
            1900     5.66493E-03     34.7965E-03    -74.6848E+06    -127.239E+06    -19.4254E+06     288.250E+03    -106.162E-03     212.610E-03    -106.448E-03     40.2935E-03    -106.370E-03     212.158E-03    -106.252E-03     39.7034E-03
            1901     4.85540E-03     34.7537E-03    -82.7913E+06    -145.020E+06    -33.3584E+06     241.891E+03    -106.210E-03     212.678E-03    -106.468E-03     36.0340E-03    -106.403E-03     212.158E-03    -106.304E-03     35.5212E-03
            1902     4.04597E-03     34.7159E-03    -91.1145E+06    -163.564E+06    -49.3197E+06     196.854E+03    -106.248E-03     212.722E-03    -106.474E-03     31.1616E-03    -106.422E-03     212.135E-03    -106.352E-03     30.7291E-03
            1903     3.23664E-03     34.6840E-03    -99.3500E+06    -182.686E+06    -67.0939E+06     160.983E+03    -106.284E-03     212.752E-03    -106.468E-03     25.7354E-03    -106.436E-03     212.098E-03    -106.394E-03     25.3858E-03
            1904     2.42738E-03     34.6583E-03    -106.976E+06    -201.740E+06    -85.5415E+06     125.085E+03    -106.324E-03     212.775E-03    -106.452E-03     19.8460E-03    -106.453E-03     212.057E-03    -106.432E-03     19.5812E-03
            1905     1.61821E-03     34.6395E-03    -113.302E+06    -218.633E+06    -102.352E+06     82.3495E+03    -106.364E-03     212.795E-03    -106.431E-03     13.6313E-03    -106.471E-03     212.020E-03    -106.461E-03     13.4517E-03
            1906     809.086E-06     34.6278E-03    -117.561E+06    -230.913E+06    -114.542E+06     41.5849E+03    -106.427E-03     212.811E-03    -106.384E-03     7.49504E-03    -106.516E-03     211.995E-03    -106.451E-03     7.39690E-03
            1907     15.3884E-03     34.2478E-03    -4.94409E+06     105.680E+06     91.7305E+06     33.3914E+03    -103.953E-03     209.732E-03    -105.779E-03     24.1041E-03    -104.354E-03     210.224E-03    -105.466E-03     22.9371E-03
            1908     14.5774E-03     34.2131E-03    -9.74079E+06     97.8998E+06     77.3405E+06     177.204E+03    -104.236E-03     210.029E-03    -105.794E-03     35.5994E-03    -104.668E-03     210.550E-03    -105.535E-03     34.2654E-03
            1909     13.7666E-03     34.1703E-03    -14.5542E+06     89.0676E+06     67.5548E+06     258.092E+03    -104.513E-03     210.347E-03    -105.834E-03     42.3200E-03    -104.947E-03     210.850E-03    -105.604E-03     41.0501E-03
            1910     12.9559E-03     34.1201E-03    -19.5877E+06     66.1346E+06     61.6982E+06     208.052E+03    -104.800E-03     210.715E-03    -105.915E-03     47.5217E-03    -105.222E-03     211.123E-03    -105.674E-03     46.2978E-03
            1911     12.1453E-03     34.0655E-03    -24.6884E+06     29.4174E+06     51.8795E+06     239.466E+03    -105.103E-03     211.099E-03    -105.996E-03     50.6382E-03    -105.479E-03     211.342E-03    -105.744E-03     49.4740E-03
            1912     11.3349E-03     34.0081E-03    -29.9058E+06     2.34540E+06     44.5994E+06     353.009E+03    -105.330E-03     211.405E-03    -106.075E-03     52.3125E-03    -105.675E-03     211.523E-03    -105.812E-03     51.2176E-03
            1913     10.5245E-03     33.9496E-03    -35.2663E+06    -20.5038E+06     36.7602E+06     494.929E+03    -105.524E-03     211.669E-03    -106.144E-03     52.7926E-03    -105.842E-03     211.682E-03    -105.880E-03     51.7698E-03
            1914     9.71430E-03     33.8909E-03    -40.8180E+06    -41.5378E+06     29.0353E+06     569.220E+03    -105.696E-03     211.907E-03    -106.211E-03     52.3557E-03    -105.989E-03     211.823E-03    -105.946E-03     51.4048E-03
            1915     8.90420E-03     33.8332E-03    -46.7265E+06    -59.7020E+06     21.1464E+06     544.853E+03    -105.839E-03     212.109E-03    -106.270E-03     51.2372E-03    -106.111E-03     211.942E-03    -106.010E-03     50.3568E-03
            1916     8.09422E-03     33.7769E-03    -53.0369E+06    -76.7025E+06     12.6661E+06     495.757E+03    -105.952E-03     212.275E-03    -106.323E-03     49.4859E-03    -106.207E-03     212.033E-03    -106.072E-03     48.6754E-03
            1917     7.28437E-03     33.7229E-03    -59.7981E+06    -93.4596E+06     3.23647E+06     427.769E+03    -106.038E-03     212.408E-03    -106.370E-03     47.0721E-03    -106.278E-03     212.094E-03    -106.131E-03     46.3327E-03
            1918     6.47462E-03     33.6720E-03    -67.0302E+06    -110.109E+06    -7.35286E+06     368.507E+03    -106.111E-03     212.519E-03    -106.408E-03     44.0396E-03    -106.335E-03     212.136E-03    -106.188E-03     43.3728E-03
            1919     5.66499E-03     33.6246E-03    -74.7079E+06    -127.137E+06    -19.4340E+06     319.718E+03    -106.172E-03     212.609E-03    -106.437E-03     40.3885E-03    -106.382E-03     212.158E-03    -106.241E-03     39.7965E-03
            1920     4.85546E-03     33.5817E-03    -82.7807E+06    -144.905E+06    -33.3533E+06     270.463E+03    -106.216E-03     212.670E-03    -106.453E-03     36.0976E-03    -106.409E-03     212.151E-03    -106.290E-03     35.5834E-03
            1921     4.04604E-03     33.5439E-03    -91.0914E+06    -163.466E+06    -49.3014E+06     220.740E+03    -106.247E-03     212.704E-03    -106.457E-03     31.2009E-03    -106.421E-03     212.117E-03    -106.334E-03     30.7675E-03
            1922     3.23670E-03     33.5119E-03    -99.3084E+06    -182.600E+06    -67.0554E+06     182.748E+03    -106.275E-03     212.723E-03    -106.447E-03     25.7577E-03    -106.428E-03     212.069E-03    -106.374E-03     25.4075E-03
            1923     2.42744E-03     33.4862E-03    -106.916E+06    -201.632E+06    -85.4900E+06     143.404E+03    -106.308E-03     212.736E-03    -106.428E-03     19.8566E-03    -106.437E-03     212.018E-03    -106.408E-03     19.5914E-03
            1924     1.61825E-03     33.4674E-03    -113.228E+06    -218.526E+06    -102.285E+06     94.8209E+03    -106.343E-03     212.748E-03    -106.405E-03     13.6348E-03    -106.449E-03     211.973E-03    -106.436E-03     13.4550E-03
            1925     809.108E-06     33.4556E-03    -117.475E+06    -230.815E+06    -114.458E+06     52.0974E+03    -106.401E-03     212.759E-03    -106.358E-03     7.49523E-03    -106.490E-03     211.943E-03    -106.425E-03     7.39707E-03
            1926     15.3884E-03     33.0779E-03    -5.05931E+06     105.559E+06     91.8602E+06     12.8024E+03    -103.979E-03     209.757E-03    -105.778E-03     24.2432E-03    -104.381E-03     210.249E-03    -105.464E-03     23.0732E-03
            1927     14.5775E-03     33.0430E-03    -10.1483E+06     97.6493E+06     77.1550E+06     92.4417E+03    -104.261E-03     210.051E-03    -105.790E-03     35.7366E-03    -104.695E-03     210.572E-03    -105.531E-03     34.3986E-03
            1928     13.7667E-03     33.0001E-03    -14.9108E+06     89.0931E+06     67.3953E+06     147.298E+03    -104.523E-03     210.351E-03    -105.829E-03     42.4582E-03    -104.960E-03     210.856E-03    -105.599E-03     41.1843E-03
            1929     12.9560E-03     32.9498E-03    -19.7074E+06     66.1596E+06     61.6140E+06     152.215E+03    -104.796E-03     210.706E-03    -105.910E-03     47.6703E-03    -105.219E-03     211.115E-03    -105.669E-03     46.4429E-03
            1930     12.1454E-03     32.8950E-03    -24.7470E+06     29.2581E+06     51.7580E+06     207.717E+03    -105.095E-03     211.086E-03    -105.991E-03     50.7967E-03    -105.473E-03     211.329E-03    -105.739E-03     49.6292E-03
            1931     11.3349E-03     32.8375E-03    -29.9068E+06     2.20880E+06     44.4918E+06     303.161E+03    -105.325E-03     211.395E-03    -106.070E-03     52.4888E-03    -105.671E-03     211.514E-03    -105.808E-03     51.3899E-03
            1932     10.5246E-03     32.7787E-03    -35.2894E+06    -20.6409E+06     36.6376E+06     367.593E+03    -105.524E-03     211.664E-03    -106.140E-03     52.9875E-03    -105.843E-03     211.678E-03    -105.876E-03     51.9592E-03
            1933     9.71434E-03     32.7199E-03    -40.9150E+06    -41.5354E+06     28.9242E+06     416.854E+03    -105.702E-03     211.908E-03    -106.206E-03     52.5486E-03    -105.996E-03     211.825E-03    -105.942E-03     51.5918E-03
            1934     8.90424E-03     32.6620E-03    -46.8298E+06    -59.6340E+06     21.0535E+06     432.440E+03    -105.849E-03     212.113E-03    -106.265E-03     51.4120E-03    -106.123E-03     211.949E-03    -106.005E-03     50.5263E-03
            1935     8.09427E-03     32.6055E-03    -53.1448E+06    -76.6058E+06     12.5859E+06     415.924E+03    -105.964E-03     212.281E-03    -106.317E-03     49.6284E-03    -106.221E-03     212.041E-03    -106.065E-03     48.8136E-03
            1936     7.28442E-03     32.5514E-03    -59.8932E+06    -93.3414E+06     3.17136E+06     389.854E+03    -106.055E-03     212.416E-03    -106.361E-03     47.1887E-03    -106.296E-03     212.104E-03    -106.123E-03     46.4459E-03
            1937     6.47469E-03     32.5003E-03    -67.0944E+06    -110.000E+06    -7.40675E+06     344.427E+03    -106.132E-03     212.528E-03    -106.396E-03     44.1349E-03    -106.357E-03     212.146E-03    -106.176E-03     43.4653E-03
            1938     5.66507E-03     32.4528E-03    -74.7445E+06    -127.040E+06    -19.4689E+06     303.166E+03    -106.189E-03     212.610E-03    -106.420E-03     40.4495E-03    -106.399E-03     212.160E-03    -106.225E-03     39.8553E-03
            1939     4.85556E-03     32.4098E-03    -82.7948E+06    -144.793E+06    -33.3666E+06     265.712E+03    -106.224E-03     212.656E-03    -106.432E-03     36.1248E-03    -106.417E-03     212.138E-03    -106.269E-03     35.6092E-03
            1940     4.04614E-03     32.3719E-03    -91.0852E+06    -163.357E+06    -49.3018E+06     220.057E+03    -106.245E-03     212.676E-03    -106.431E-03     31.2047E-03    -106.419E-03     212.090E-03    -106.309E-03     30.7704E-03
            1941     3.23679E-03     32.3398E-03    -99.2851E+06    -182.510E+06    -67.0397E+06     179.560E+03    -106.262E-03     212.680E-03    -106.418E-03     25.7476E-03    -106.415E-03     212.027E-03    -106.344E-03     25.3969E-03
            1942     2.42752E-03     32.3142E-03    -106.877E+06    -201.516E+06    -85.4540E+06     141.329E+03    -106.285E-03     212.679E-03    -106.395E-03     19.8398E-03    -106.414E-03     211.961E-03    -106.375E-03     19.5743E-03
            1943     1.61830E-03     32.2953E-03    -113.177E+06    -218.412E+06    -102.232E+06     95.5909E+03    -106.311E-03     212.680E-03    -106.369E-03     13.6192E-03    -106.417E-03     211.905E-03    -106.399E-03     13.4393E-03
            1944     809.137E-06     32.2836E-03    -117.424E+06    -230.703E+06    -114.401E+06     53.0895E+03    -106.363E-03     212.684E-03    -106.321E-03     7.48618E-03    -106.451E-03     211.868E-03    -106.388E-03     7.38797E-03
            1945     15.3884E-03     31.9080E-03    -5.13237E+06     105.466E+06     91.7742E+06     121.973E+03    -104.013E-03     209.789E-03    -105.776E-03     24.3898E-03    -104.415E-03     210.281E-03    -105.462E-03     23.2182E-03
            1946     14.5776E-03     31.8729E-03    -10.0286E+06     97.7090E+06     77.1286E+06     36.0232E+03    -104.277E-03     210.064E-03    -105.786E-03     35.8776E-03    -104.711E-03     210.585E-03    -105.528E-03     34.5361E-03
            1947     13.7668E-03     31.8298E-03    -14.7695E+06     89.0413E+06     67.3656E+06    -55.8378E+03    -104.518E-03     210.343E-03    -105.825E-03     42.6083E-03    -104.955E-03     210.848E-03    -105.596E-03     41.3290E-03
            1948     12.9560E-03     31.7794E-03    -19.6871E+06     65.9952E+06     61.5147E+06     59.3943E+03    -104.785E-03     210.691E-03    -105.906E-03     47.8376E-03    -105.208E-03     211.101E-03    -105.666E-03     46.6059E-03
            1949     12.1454E-03     31.7245E-03    -24.7518E+06     29.1438E+06     51.6626E+06     183.511E+03    -105.087E-03     211.075E-03    -105.988E-03     50.9695E-03    -105.465E-03     211.319E-03    -105.736E-03     49.7982E-03
            1950     11.3349E-03     31.6668E-03    -29.9531E+06     2.09917E+06     44.3782E+06     241.252E+03    -105.325E-03     211.393E-03    -106.068E-03     52.6698E-03    -105.672E-03     211.512E-03    -105.806E-03     51.5664E-03
            1951     10.5246E-03     31.6079E-03    -35.3338E+06    -20.6966E+06     36.5364E+06     297.277E+03    -105.535E-03     211.672E-03    -106.137E-03     53.1753E-03    -105.854E-03     211.687E-03    -105.873E-03     52.1420E-03
            1952     9.71436E-03     31.5489E-03    -40.9510E+06    -41.5606E+06     28.8283E+06     319.937E+03    -105.720E-03     211.923E-03    -106.202E-03     52.7247E-03    -106.015E-03     211.841E-03    -105.939E-03     51.7625E-03
            1953     8.90428E-03     31.4907E-03    -46.8971E+06    -59.6133E+06     20.9601E+06     331.081E+03    -105.873E-03     212.132E-03    -106.259E-03     51.5626E-03    -106.148E-03     211.969E-03    -106.000E-03     50.6717E-03
            1954     8.09433E-03     31.4341E-03    -53.2105E+06    -76.5641E+06     12.5040E+06     337.062E+03    -105.994E-03     212.302E-03    -106.308E-03     49.7443E-03    -106.252E-03     212.063E-03    -106.057E-03     48.9251E-03
            1955     7.28450E-03     31.3799E-03    -59.9453E+06    -93.2637E+06     3.10668E+06     319.742E+03    -106.091E-03     212.439E-03    -106.348E-03     47.2781E-03    -106.332E-03     212.128E-03    -106.110E-03     46.5315E-03
            1956     6.47480E-03     31.3286E-03      -67.13E+06    -109.910E+06    -7.45614E+06     288.535E+03    -106.166E-03     212.543E-03    -106.378E-03     44.1922E-03    -106.392E-03     212.163E-03    -106.158E-03     43.5194E-03
            1957     5.66521E-03     31.2810E-03    -74.7739E+06    -126.967E+06    -19.5074E+06     261.488E+03    -106.212E-03     212.607E-03    -106.395E-03     40.4647E-03    -106.422E-03     212.158E-03    -106.200E-03     39.8684E-03
            1958     4.85571E-03     31.2379E-03    -82.8085E+06    -144.699E+06    -33.3877E+06     236.015E+03    -106.231E-03     212.632E-03    -106.400E-03     36.1073E-03    -106.425E-03     212.114E-03    -106.238E-03     35.5904E-03
            1959     4.04629E-03     31.2000E-03    -91.0751E+06    -163.252E+06    -49.3041E+06     200.188E+03    -106.237E-03     212.630E-03    -106.393E-03     31.1658E-03    -106.412E-03     212.045E-03    -106.271E-03     30.7307E-03
            1960     3.23693E-03     31.1679E-03    -99.2636E+06    -182.420E+06    -67.0322E+06     162.827E+03    -106.241E-03     212.614E-03    -106.373E-03     25.6979E-03    -106.394E-03     211.961E-03    -106.300E-03     25.3469E-03
            1961     2.42764E-03     31.1422E-03    -106.849E+06    -201.411E+06    -85.4397E+06     128.087E+03    -106.249E-03     212.594E-03    -106.345E-03     19.7896E-03    -106.378E-03     211.877E-03    -106.325E-03     19.5240E-03
            1962     1.61839E-03     31.1233E-03    -113.145E+06    -218.301E+06    -102.208E+06     89.4921E+03    -106.264E-03     212.579E-03    -106.315E-03     13.5791E-03    -106.370E-03     211.804E-03    -106.345E-03     13.3993E-03
            1963     809.182E-06     31.1116E-03    -117.384E+06    -230.592E+06    -114.365E+06     48.1381E+03    -106.307E-03     212.572E-03    -106.265E-03     7.46187E-03    -106.395E-03     211.757E-03    -106.332E-03     7.36371E-03
            1964     15.3885E-03     30.7380E-03    -4.82789E+06     105.527E+06     91.7667E+06     49.9983E+03    -104.038E-03     209.811E-03    -105.774E-03     24.5243E-03    -104.439E-03     210.304E-03    -105.461E-03     23.3491E-03
            1965     14.5776E-03     30.7027E-03    -9.74611E+06     97.8746E+06     77.2339E+06    -48.5947E+03    -104.278E-03     210.062E-03    -105.784E-03     36.0092E-03    -104.712E-03     210.585E-03    -105.526E-03     34.6641E-03
            1966     13.7668E-03     30.6596E-03    -14.6510E+06     88.8863E+06     67.3141E+06     5.38891E+03    -104.509E-03     210.332E-03    -105.823E-03     42.7528E-03    -104.945E-03     210.837E-03    -105.594E-03     41.4715E-03
            1967     12.9560E-03     30.6090E-03    -19.7102E+06     65.8193E+06     61.4039E+06     99.9241E+03    -104.778E-03     210.684E-03    -105.905E-03     47.9978E-03    -105.203E-03     211.093E-03    -105.665E-03     46.7633E-03
            1968     12.1454E-03     30.5540E-03    -24.8348E+06     29.0437E+06     51.5489E+06     154.878E+03    -105.092E-03     211.079E-03    -105.987E-03     51.1276E-03    -105.471E-03     211.323E-03    -105.736E-03     49.9524E-03
            1969     11.3349E-03     30.4962E-03    -29.9999E+06     2.03975E+06     44.2841E+06     199.046E+03    -105.343E-03     211.409E-03    -106.066E-03     52.8241E-03    -105.691E-03     211.529E-03    -105.804E-03     51.7164E-03
            1970     10.5246E-03     30.4370E-03    -35.3797E+06    -20.7495E+06     36.4428E+06     217.469E+03    -105.563E-03     211.697E-03    -106.134E-03     53.3234E-03    -105.884E-03     211.713E-03    -105.871E-03     52.2850E-03
            1971     9.71440E-03     30.3778E-03    -41.0003E+06    -41.5673E+06     28.7459E+06     239.753E+03    -105.755E-03     211.952E-03    -106.197E-03     52.8523E-03    -106.051E-03     211.871E-03    -105.933E-03     51.8853E-03
            1972     8.90434E-03     30.3195E-03    -46.9301E+06    -59.6176E+06      20.883E+06     248.035E+03    -105.913E-03     212.163E-03    -106.250E-03     51.6597E-03    -106.189E-03     212.000E-03    -105.991E-03     50.7644E-03
            1973     8.09443E-03     30.2627E-03    -53.2436E+06    -76.5437E+06     12.4351E+06     250.263E+03    -106.041E-03     212.335E-03    -106.293E-03     49.8071E-03    -106.300E-03     212.096E-03    -106.043E-03     48.9841E-03
            1974     7.28464E-03     30.2083E-03    -59.9704E+06    -93.2145E+06     3.05459E+06     240.797E+03    -106.141E-03     212.468E-03    -106.327E-03     47.3108E-03    -106.383E-03     212.157E-03    -106.089E-03     46.5608E-03
            1975     6.47498E-03     30.1569E-03    -67.1528E+06    -109.853E+06    -7.49968E+06     224.625E+03    -106.207E-03     212.555E-03    -106.348E-03     44.1863E-03    -106.434E-03     212.175E-03    -106.128E-03     43.5111E-03
            1976     5.66542E-03     30.1092E-03    -74.7831E+06    -126.911E+06    -19.5445E+06     208.006E+03    -106.236E-03     212.592E-03    -106.356E-03     40.4195E-03    -106.446E-03     212.143E-03    -106.162E-03     39.8217E-03
            1977     4.85594E-03     30.0660E-03    -82.8048E+06    -144.628E+06    -33.4133E+06     187.438E+03    -106.236E-03     212.588E-03    -106.352E-03     36.0346E-03    -106.429E-03     212.071E-03    -106.190E-03     35.5169E-03
            1978     4.04651E-03     30.0281E-03    -91.0617E+06    -163.170E+06    -49.3214E+06     164.808E+03    -106.221E-03     212.557E-03    -106.336E-03     31.0772E-03    -106.396E-03     211.972E-03    -106.214E-03     30.6419E-03
            1979     3.23714E-03     29.9960E-03    -99.2345E+06    -182.340E+06    -67.0364E+06     141.410E+03    -106.205E-03     212.514E-03    -106.309E-03     25.6058E-03    -106.357E-03     211.861E-03    -106.236E-03     25.2549E-03
            1980     2.42781E-03     29.9703E-03    -106.810E+06    -201.319E+06    -85.4290E+06     114.543E+03    -106.196E-03     212.469E-03    -106.274E-03     19.7071E-03    -106.325E-03     211.752E-03    -106.254E-03     19.4419E-03
            1981     1.61852E-03     29.9515E-03    -113.094E+06    -218.201E+06    -102.179E+06     80.2060E+03    -106.196E-03     212.435E-03    -106.238E-03     13.5164E-03    -106.302E-03     211.661E-03    -106.269E-03     13.3369E-03
            1982     809.250E-06     29.9398E-03    -117.327E+06    -230.487E+06    -114.315E+06     44.2460E+03    -106.229E-03     212.413E-03    -106.184E-03     7.42421E-03    -106.317E-03     211.599E-03    -106.252E-03     7.32624E-03
            1983     15.3885E-03     29.5679E-03    -5.00329E+06     105.617E+06     91.8487E+06    -42.1206E+03    -104.042E-03     209.816E-03    -105.774E-03     24.6321E-03    -104.446E-03     210.310E-03    -105.460E-03     23.4536E-03
            1984     14.5776E-03     29.5326E-03    -10.0049E+06     97.8345E+06     77.1815E+06    -5.11785E+03    -104.272E-03     210.056E-03    -105.784E-03     36.1084E-03    -104.707E-03     210.580E-03    -105.526E-03     34.7620E-03
            1985     13.7668E-03     29.4894E-03    -14.8768E+06     88.6814E+06     67.1363E+06     88.8577E+03    -104.508E-03     210.331E-03    -105.823E-03     42.8637E-03    -104.946E-03     210.836E-03    -105.594E-03     41.5811E-03
            1986     12.9560E-03     29.4387E-03    -19.8176E+06     65.8019E+06     61.3167E+06     135.848E+03    -104.790E-03     210.695E-03    -105.904E-03     48.1173E-03    -105.216E-03     211.105E-03    -105.664E-03     46.8804E-03
            1987     12.1454E-03     29.3835E-03    -24.8710E+06     28.9808E+06     51.4714E+06     122.476E+03    -105.119E-03     211.104E-03    -105.985E-03     51.2370E-03    -105.499E-03     211.349E-03    -105.734E-03     50.0583E-03
            1988     11.3350E-03     29.3255E-03    -30.0452E+06     1.99888E+06       44.21E+06     135.628E+03    -105.384E-03     211.446E-03    -106.062E-03     52.9218E-03    -105.733E-03     211.567E-03    -105.800E-03     51.8099E-03
            1989     10.5247E-03     29.2661E-03    -35.4099E+06    -20.7705E+06     36.3803E+06     147.630E+03    -105.613E-03     211.739E-03    -106.126E-03     53.4067E-03    -105.934E-03     211.755E-03    -105.863E-03     52.3641E-03
            1990     9.71450E-03     29.2067E-03    -41.0208E+06    -41.5931E+06     28.6849E+06     152.743E+03    -105.808E-03     211.992E-03    -106.184E-03     52.9139E-03    -106.105E-03     211.912E-03    -105.920E-03     51.9427E-03
            1991     8.90449E-03     29.1482E-03    -46.9531E+06    -59.6196E+06     20.8258E+06     165.527E+03    -105.971E-03     212.202E-03    -106.231E-03     51.6928E-03    -106.247E-03     212.039E-03    -105.972E-03     50.7939E-03
            1992     8.09462E-03     29.0913E-03    -53.2559E+06    -76.5354E+06     12.3849E+06     162.710E+03    -106.103E-03     212.369E-03    -106.267E-03     49.8044E-03    -106.362E-03     212.131E-03    -106.016E-03     48.9782E-03
            1993     7.28490E-03     29.0367E-03    -59.9793E+06    -93.1947E+06     3.00915E+06     159.532E+03    -106.197E-03     212.487E-03    -106.290E-03     47.2705E-03    -106.440E-03     212.177E-03    -106.053E-03     46.5182E-03
            1994     6.47528E-03     28.9851E-03    -67.1461E+06    -109.822E+06    -7.53883E+06     154.791E+03    -106.247E-03     212.547E-03    -106.300E-03     44.1040E-03    -106.473E-03     212.167E-03    -106.081E-03     43.4274E-03
            1995     5.66574E-03     28.9374E-03    -74.7663E+06    -126.874E+06    -19.5788E+06     147.416E+03    -106.253E-03     212.550E-03    -106.298E-03     40.3046E-03    -106.463E-03     212.102E-03    -106.103E-03     39.7062E-03
            1996     4.85627E-03     28.8943E-03    -82.7833E+06    -144.581E+06    -33.4486E+06     139.698E+03    -106.229E-03     212.512E-03    -106.283E-03     35.9012E-03    -106.422E-03     211.995E-03    -106.121E-03     35.3836E-03
            1997     4.04684E-03     28.8563E-03    -91.0320E+06    -163.116E+06    -49.3489E+06     128.029E+03    -106.189E-03     212.445E-03    -106.256E-03     30.9363E-03    -106.363E-03     211.860E-03    -106.135E-03     30.5016E-03
            1998     3.23743E-03     28.8243E-03    -99.1960E+06    -182.279E+06    -67.0430E+06     115.984E+03    -106.147E-03     212.367E-03    -106.220E-03     25.4715E-03    -106.300E-03     211.715E-03    -106.147E-03     25.1215E-03
            1999     2.42804E-03     28.7986E-03    -106.756E+06    -201.241E+06    -85.4043E+06     97.0541E+03    -106.118E-03     212.296E-03    -106.177E-03     19.5942E-03    -106.247E-03     211.579E-03    -106.158E-03     19.3299E-03
            2000     1.61868E-03     28.7798E-03    -113.030E+06    -218.114E+06    -102.126E+06     70.6490E+03    -106.104E-03     212.240E-03    -106.136E-03     13.4337E-03    -106.210E-03     211.466E-03    -106.167E-03     13.2548E-03
            2001     809.337E-06     28.7682E-03    -117.258E+06    -230.393E+06    -114.248E+06     39.6527E+03    -106.125E-03     212.205E-03    -106.080E-03     7.37607E-03    -106.213E-03     211.390E-03    -106.147E-03     7.27855E-03
            2002     15.3885E-03     28.3979E-03    -5.08117E+06     105.579E+06     91.8500E+06     8.81340E+03    -104.054E-03     209.828E-03    -105.774E-03     24.7019E-03    -104.458E-03     210.322E-03    -105.460E-03     23.5225E-03
            2003     14.5776E-03     28.3626E-03    -10.1186E+06     97.7172E+06     77.1052E+06     59.5585E+03    -104.284E-03     210.067E-03    -105.783E-03     36.1629E-03    -104.721E-03     210.591E-03    -105.524E-03     34.8159E-03
            2004     13.7668E-03     28.3192E-03    -14.9654E+06     88.6172E+06     67.0637E+06     71.5505E+03    -104.534E-03     210.354E-03    -105.820E-03     42.9227E-03    -104.972E-03     210.860E-03    -105.592E-03     41.6381E-03
            2005     12.9561E-03     28.2683E-03    -19.8667E+06     65.7867E+06     61.2687E+06     57.9755E+03    -104.830E-03     210.730E-03    -105.900E-03     48.1753E-03    -105.257E-03     211.142E-03    -105.660E-03     46.9351E-03
            2006     12.1455E-03     28.2129E-03    -24.8945E+06     28.9649E+06     51.4302E+06     74.2794E+03    -105.174E-03     211.151E-03    -105.977E-03     51.2806E-03    -105.554E-03     211.397E-03    -105.726E-03     50.0988E-03
            2007     11.3351E-03     28.1547E-03    -30.0336E+06     1.97921E+06     44.1810E+06     64.6051E+03    -105.450E-03     211.499E-03    -106.049E-03     52.9439E-03    -105.799E-03     211.620E-03    -105.788E-03     51.8287E-03
            2008     10.5248E-03     28.0952E-03    -35.3864E+06    -20.7960E+06     36.3517E+06     66.0153E+03    -105.680E-03     211.787E-03    -106.107E-03     53.4084E-03    -106.002E-03     211.804E-03    -105.844E-03     52.3626E-03
            2009     9.71474E-03     28.0356E-03    -40.9998E+06    -41.6121E+06     28.6539E+06     82.6504E+03    -105.878E-03     212.035E-03    -106.157E-03     52.8972E-03    -106.174E-03     211.955E-03    -105.894E-03     51.9233E-03
            2010     8.90478E-03     27.9769E-03    -46.9266E+06    -59.6290E+06     20.7949E+06     80.2724E+03    -106.044E-03     212.239E-03    -106.195E-03     51.6482E-03    -106.320E-03     212.077E-03    -105.937E-03     50.7467E-03
            2011     8.09498E-03     27.9198E-03    -53.2258E+06    -76.5362E+06     12.3517E+06     81.6237E+03    -106.172E-03     212.392E-03    -106.220E-03     49.7206E-03    -106.430E-03     212.154E-03    -105.970E-03     48.8924E-03
            2012     7.28531E-03     27.8650E-03    -59.9443E+06    -93.1944E+06     2.97047E+06     81.8719E+03    -106.250E-03     212.481E-03    -106.231E-03     47.1447E-03    -106.492E-03     212.171E-03    -105.995E-03     46.3912E-03
            2013     6.47573E-03     27.8134E-03    -67.1135E+06    -109.818E+06    -7.58162E+06     89.3803E+03    -106.274E-03     212.503E-03    -106.229E-03     43.9370E-03    -106.500E-03     212.123E-03    -106.010E-03     43.2604E-03
            2014     5.66621E-03     27.7657E-03    -74.7328E+06    -126.859E+06    -19.6228E+06     98.2913E+03    -106.252E-03     212.466E-03    -106.214E-03     40.1120E-03    -106.462E-03     212.017E-03    -106.020E-03     39.5146E-03
            2015     4.85673E-03     27.7226E-03    -82.7431E+06    -144.555E+06    -33.4822E+06     98.4970E+03    -106.199E-03     212.386E-03    -106.187E-03     35.6984E-03    -106.392E-03     211.869E-03    -106.025E-03     35.1822E-03
            2016     4.04726E-03     27.6847E-03    -90.9856E+06    -163.086E+06    -49.3609E+06     99.8595E+03    -106.131E-03     212.280E-03    -106.149E-03     30.7371E-03    -106.304E-03     211.695E-03    -106.028E-03     30.3042E-03
            2017     3.23781E-03     27.6527E-03    -99.1457E+06    -182.230E+06    -67.0319E+06     94.2262E+03    -106.063E-03     212.166E-03    -106.103E-03     25.2921E-03    -106.215E-03     211.514E-03    -106.031E-03     24.9439E-03
            2018     2.42834E-03     27.6272E-03    -106.705E+06    -201.177E+06    -85.3732E+06     77.8987E+03    -106.012E-03     212.065E-03    -106.054E-03     19.4489E-03    -106.140E-03     211.348E-03    -106.034E-03     19.1861E-03
            2019     1.61889E-03     27.6085E-03    -112.975E+06    -218.045E+06    -102.078E+06     59.4178E+03    -105.982E-03     211.989E-03    -106.007E-03     13.3277E-03    -106.088E-03     211.216E-03    -106.038E-03     13.1502E-03
            2020     809.442E-06     27.5968E-03    -117.203E+06    -230.310E+06    -114.194E+06     37.1713E+03    -105.993E-03     211.942E-03    -105.949E-03     7.31411E-03    -106.081E-03     211.128E-03    -106.016E-03     7.21749E-03
            2021     15.3885E-03     27.2279E-03    -4.93866E+06     105.401E+06     91.7454E+06     50.2491E+03    -104.096E-03     209.867E-03    -105.772E-03     24.7439E-03    -104.498E-03     210.361E-03    -105.459E-03     23.5638E-03
            2022     14.5776E-03     27.1924E-03    -9.92720E+06     97.6591E+06     77.0794E+06     151.579E+03    -104.334E-03     210.112E-03    -105.779E-03     36.1919E-03    -104.769E-03     210.636E-03    -105.521E-03     34.8447E-03
            2023     13.7669E-03     27.1490E-03    -14.8143E+06     88.7307E+06     67.1450E+06     90.4494E+03    -104.596E-03     210.408E-03    -105.813E-03     42.9513E-03    -105.034E-03     210.915E-03    -105.584E-03     41.6652E-03
            2024     12.9562E-03     27.0979E-03    -19.7903E+06     65.7676E+06     61.2774E+06     19.7734E+03    -104.908E-03     210.796E-03    -105.888E-03     48.1918E-03    -105.334E-03     211.208E-03    -105.648E-03     46.9493E-03
            2025     12.1457E-03     27.0423E-03    -24.8326E+06     28.9666E+06     51.4326E+06    -6.19966E+03    -105.262E-03     211.221E-03    -105.959E-03     51.2693E-03    -105.643E-03     211.467E-03    -105.707E-03     50.0847E-03
            2026     11.3354E-03     26.9839E-03    -29.9706E+06     1.95082E+06     44.1756E+06    -1.65108E+03    -105.540E-03     211.562E-03    -106.023E-03     52.8962E-03    -105.889E-03     211.684E-03    -105.761E-03     51.7785E-03
            2027     10.5252E-03     26.9242E-03    -35.3485E+06    -20.8105E+06     36.3363E+06     12.7813E+03    -105.769E-03     211.841E-03    -106.072E-03     53.3333E-03    -106.090E-03     211.857E-03    -105.808E-03     52.2857E-03
            2028     9.71516E-03     26.8645E-03    -40.9598E+06    -41.6277E+06     28.6302E+06     1.15777E+03    -105.968E-03     212.079E-03    -106.111E-03     52.7972E-03    -106.264E-03     211.999E-03    -105.848E-03     51.8214E-03
            2029     8.90529E-03     26.8055E-03    -46.8765E+06    -59.6469E+06     20.7614E+06     9.25203E+03    -106.128E-03     212.265E-03    -106.136E-03     51.5113E-03    -106.404E-03     212.102E-03    -105.878E-03     50.6085E-03
            2030     8.09555E-03     26.7483E-03    -53.1776E+06    -76.5433E+06     12.3117E+06     11.9964E+03    -106.239E-03     212.386E-03    -106.147E-03     49.5369E-03    -106.497E-03     212.148E-03    -105.898E-03     48.7083E-03
            2031     7.28593E-03     26.6935E-03    -59.8998E+06    -93.2144E+06     2.92100E+06     21.9105E+03    -106.290E-03     212.434E-03    -106.144E-03     46.9138E-03    -106.532E-03     212.123E-03    -105.907E-03     46.1610E-03
            2032     6.47638E-03     26.6418E-03    -67.0706E+06    -109.840E+06    -7.63501E+06     44.3361E+03    -106.282E-03     212.409E-03    -106.127E-03     43.6674E-03    -106.507E-03     212.028E-03    -105.908E-03     42.9926E-03
            2033     5.66686E-03     26.5942E-03    -74.6881E+06    -126.858E+06    -19.6633E+06     59.0293E+03    -106.226E-03     212.324E-03    -106.097E-03     39.8219E-03    -106.435E-03     211.874E-03    -105.903E-03     39.2269E-03
            2034     4.85735E-03     26.5511E-03    -82.6984E+06    -144.550E+06    -33.4967E+06     72.8474E+03    -106.138E-03     212.196E-03    -106.057E-03     35.4044E-03    -106.331E-03     211.678E-03    -105.895E-03     34.8914E-03
            2035     4.04783E-03     26.5133E-03    -90.9407E+06    -163.063E+06    -49.3659E+06     80.6062E+03    -106.038E-03     212.046E-03    -106.008E-03     30.4569E-03    -106.211E-03     211.461E-03    -105.887E-03     30.0274E-03
            2036     3.23828E-03     26.4815E-03    -99.0910E+06    -182.190E+06    -67.0385E+06     77.6566E+03    -105.944E-03     211.897E-03    -105.953E-03     25.0440E-03    -106.096E-03     211.244E-03    -105.880E-03     24.6991E-03
            2037     2.42872E-03     26.4560E-03    -106.639E+06    -201.136E+06    -85.3731E+06     76.1499E+03    -105.872E-03     211.767E-03    -105.895E-03     19.2474E-03    -106.000E-03     211.050E-03    -105.876E-03     18.9875E-03
            2038     1.61915E-03     26.4374E-03    -112.912E+06    -217.981E+06    -102.063E+06     69.9487E+03    -105.826E-03     211.669E-03    -105.843E-03     13.1824E-03    -105.931E-03     210.896E-03    -105.874E-03     13.0071E-03
            2039     809.574E-06     26.4259E-03    -117.141E+06    -230.220E+06    -114.153E+06     45.7383E+03    -105.827E-03     211.610E-03    -105.783E-03     7.23217E-03    -105.915E-03     210.796E-03    -105.850E-03     7.13683E-03
            2040     15.3885E-03     26.0578E-03    -5.16595E+06     105.255E+06     91.6320E+06     58.2038E+03    -104.168E-03     209.936E-03    -105.768E-03     24.7816E-03    -104.572E-03     210.430E-03    -105.455E-03     23.5999E-03
            2041     14.5778E-03     26.0223E-03    -10.0720E+06     97.6188E+06     77.0249E+06     70.4206E+03    -104.419E-03     210.190E-03    -105.771E-03     36.2291E-03    -104.856E-03     210.714E-03    -105.513E-03     34.8788E-03
            2042     13.7671E-03     25.9787E-03    -14.7829E+06     88.8442E+06     67.1788E+06     66.5459E+03    -104.703E-03     210.502E-03    -105.799E-03     42.9857E-03    -105.143E-03     211.009E-03    -105.570E-03     41.6970E-03
            2043     12.9565E-03     25.9274E-03    -19.6598E+06     65.8192E+06     61.3190E+06     1.76278E+03    -105.035E-03     210.900E-03    -105.865E-03     48.1924E-03    -105.460E-03     211.312E-03    -105.626E-03     46.9473E-03
            2044     12.1461E-03     25.8716E-03    -24.7304E+06     28.9600E+06     51.4404E+06    -18.4862E+03    -105.390E-03     211.316E-03    -105.926E-03     51.2235E-03    -105.770E-03     211.562E-03    -105.675E-03     50.0368E-03
            2045     11.3359E-03     25.8131E-03    -29.9437E+06     1.94575E+06     44.1527E+06    -21.2599E+03    -105.665E-03     211.643E-03    -105.979E-03     52.8029E-03    -106.013E-03     211.765E-03    -105.717E-03     51.6839E-03
            2046     10.5258E-03     25.7532E-03    -35.3055E+06    -20.7917E+06     36.3183E+06    -61.6629E+03    -105.894E-03     211.908E-03    -106.014E-03     53.1935E-03    -106.215E-03     211.925E-03    -105.751E-03     52.1444E-03
            2047     9.71586E-03     25.6932E-03    -40.8978E+06    -41.6538E+06     28.5977E+06    -66.1527E+03    -106.084E-03     212.122E-03    -106.038E-03     52.6127E-03    -106.380E-03     212.042E-03    -105.776E-03     51.6360E-03
            2048     8.90607E-03     25.6342E-03    -46.8214E+06    -59.6754E+06     20.7141E+06     -54.542E+03    -106.224E-03     212.271E-03    -106.047E-03     51.2735E-03    -106.499E-03     212.108E-03    -105.789E-03     50.3707E-03
            2049     8.09641E-03     25.5768E-03    -53.1153E+06    -76.5658E+06     12.2606E+06    -36.1908E+03    -106.303E-03     212.344E-03    -106.040E-03     49.2365E-03    -106.561E-03     212.105E-03    -105.791E-03     48.4093E-03
            2050     7.28683E-03     25.5220E-03    -59.8418E+06    -93.2525E+06     2.87332E+06    -9.41255E+03    -106.316E-03     212.335E-03    -106.019E-03     46.5576E-03    -106.556E-03     212.023E-03    -105.782E-03     45.8076E-03
            2051     6.47729E-03     25.4704E-03    -67.0174E+06    -109.864E+06    -7.66535E+06     14.7304E+03    -106.267E-03     212.251E-03    -105.984E-03     43.2725E-03    -106.491E-03     211.869E-03    -105.766E-03     42.6015E-03
            2052     5.66775E-03     25.4228E-03    -74.6325E+06    -126.866E+06    -19.6796E+06     33.4114E+03    -106.169E-03     212.108E-03    -105.939E-03     39.4088E-03    -106.377E-03     211.658E-03    -105.745E-03     38.8184E-03
            2053     4.85818E-03     25.3799E-03    -82.6277E+06    -144.561E+06    -33.5320E+06     51.7701E+03    -106.042E-03     211.926E-03    -105.884E-03     34.9921E-03    -106.233E-03     211.407E-03    -105.722E-03     34.4841E-03
            2054     4.04857E-03     25.3423E-03    -90.8465E+06    -163.059E+06    -49.4332E+06     78.8729E+03    -105.907E-03     211.728E-03    -105.821E-03     30.0658E-03    -106.079E-03     211.142E-03    -105.700E-03     29.6415E-03
            2055     3.23891E-03     25.3106E-03    -98.9911E+06    -182.173E+06    -67.1340E+06     109.093E+03    -105.785E-03     211.538E-03    -105.753E-03     24.6937E-03    -105.935E-03     210.885E-03    -105.681E-03     24.3538E-03
            2056     2.42922E-03     25.2853E-03    -106.545E+06    -201.096E+06    -85.4575E+06     129.167E+03    -105.687E-03     211.373E-03    -105.686E-03     18.9567E-03    -105.814E-03     210.656E-03    -105.667E-03     18.7013E-03
            2057     1.61949E-03     25.2668E-03    -112.801E+06    -217.882E+06    -102.067E+06     122.442E+03    -105.621E-03     211.247E-03    -105.627E-03     12.9724E-03    -105.726E-03     210.474E-03    -105.657E-03     12.8005E-03
            2058     809.748E-06     25.2553E-03    -117.009E+06    -230.068E+06    -114.064E+06     81.0345E+03    -105.608E-03     211.171E-03    -105.562E-03     7.11349E-03    -105.696E-03     210.357E-03    -105.629E-03     7.02000E-03
            2059     15.3886E-03     24.8876E-03    -4.90018E+06     105.273E+06     91.6303E+06     103.869E+03    -104.277E-03     210.040E-03    -105.763E-03     24.8301E-03    -104.679E-03     210.533E-03    -105.450E-03     23.6466E-03
            2060     14.5779E-03     24.8520E-03    -9.91330E+06     97.6913E+06     77.1273E+06     18.1543E+03    -104.549E-03     210.308E-03    -105.759E-03     36.2835E-03    -104.985E-03     210.832E-03    -105.501E-03     34.9295E-03
            2061     13.7674E-03     24.8082E-03    -14.7513E+06     88.8096E+06     67.1797E+06    -35.8690E+03    -104.864E-03     210.642E-03    -105.778E-03     43.0293E-03    -105.303E-03     211.149E-03    -105.549E-03     41.7357E-03
            2062     12.9569E-03     24.7568E-03    -19.6961E+06     65.8361E+06     61.2690E+06     19.3195E+03    -105.207E-03     211.039E-03    -105.832E-03     48.1796E-03    -105.633E-03     211.451E-03    -105.593E-03     46.9316E-03
            2063     12.1467E-03     24.7008E-03    -24.7984E+06     29.0243E+06     51.3908E+06    -4.59961E+03    -105.565E-03     211.444E-03    -105.879E-03     51.1567E-03    -105.946E-03     211.691E-03    -105.628E-03     49.9680E-03
            2064     11.3366E-03     24.6421E-03    -29.9101E+06     2.02285E+06     44.1298E+06    -109.302E+03    -105.848E-03     211.763E-03    -105.915E-03     52.6688E-03    -106.197E-03     211.885E-03    -105.654E-03     51.5474E-03
            2065     10.5266E-03     24.5821E-03    -35.2138E+06    -20.8003E+06     36.2856E+06    -144.091E+03    -106.071E-03     212.002E-03    -105.932E-03     52.9759E-03    -106.391E-03     212.019E-03    -105.669E-03     51.9255E-03
            2066     9.71685E-03     24.5220E-03    -40.8569E+06    -41.6947E+06     28.5397E+06    -124.794E+03    -106.236E-03     212.170E-03    -105.934E-03     52.3262E-03    -106.531E-03     212.089E-03    -105.672E-03     51.3493E-03
            2067     8.90719E-03     24.4628E-03    -46.7776E+06    -59.7250E+06     20.6581E+06    -89.2016E+03    -106.339E-03     212.259E-03    -105.921E-03     50.9116E-03    -106.613E-03     212.096E-03    -105.663E-03     50.0103E-03
            2068     8.09760E-03     24.4054E-03    -53.0391E+06    -76.5965E+06     12.2344E+06    -58.0188E+03    -106.370E-03     212.261E-03    -105.891E-03     48.7954E-03    -106.626E-03     212.021E-03    -105.642E-03     47.9715E-03
            2069     7.28807E-03     24.3506E-03    -59.7546E+06    -93.2869E+06     2.85769E+06    -37.4127E+03    -106.330E-03     212.178E-03    -105.847E-03     46.0530E-03    -106.569E-03     211.865E-03    -105.611E-03     45.3076E-03
            2070     6.47852E-03     24.2992E-03    -66.9324E+06    -109.899E+06    -7.70509E+06    -3.20168E+03    -106.230E-03     212.020E-03    -105.791E-03     42.7236E-03    -106.452E-03     211.637E-03    -105.573E-03     42.0585E-03
            2071     5.66894E-03     24.2517E-03    -74.5377E+06    -126.893E+06    -19.7766E+06     41.7426E+03    -106.083E-03     211.808E-03    -105.724E-03     38.8364E-03    -106.290E-03     211.356E-03    -105.531E-03     38.2528E-03
            2072     4.85929E-03     24.2090E-03    -82.5236E+06    -144.582E+06    -33.7080E+06     90.8002E+03    -105.911E-03     211.560E-03    -105.649E-03     34.4202E-03    -106.100E-03     211.041E-03    -105.489E-03     33.9194E-03
            2073     4.04957E-03     24.1717E-03    -90.7381E+06    -163.085E+06    -49.6597E+06     148.767E+03    -105.734E-03     211.302E-03    -105.568E-03     29.5234E-03    -105.904E-03     210.716E-03    -105.448E-03     29.1063E-03
            2074     3.23976E-03     24.1402E-03    -98.8734E+06    -182.156E+06    -67.3276E+06     205.221E+03    -105.572E-03     211.056E-03    -105.484E-03     24.2101E-03    -105.721E-03     210.403E-03    -105.413E-03     23.8769E-03
            2075     2.42989E-03     24.1151E-03    -106.406E+06    -201.007E+06    -85.5416E+06     227.853E+03    -105.440E-03     210.843E-03    -105.403E-03     18.5594E-03    -105.566E-03     210.126E-03    -105.385E-03     18.3096E-03
            2076     1.61996E-03     24.0968E-03    -112.605E+06    -217.701E+06    -101.993E+06     201.028E+03    -105.345E-03     210.678E-03    -105.333E-03     12.6885E-03    -105.449E-03     209.906E-03    -105.364E-03     12.5206E-03
            2077     809.991E-06     24.0854E-03    -116.768E+06    -229.805E+06    -113.861E+06     130.406E+03    -105.313E-03     210.575E-03    -105.262E-03     6.95371E-03    -105.400E-03     209.762E-03    -105.329E-03     6.86255E-03
            2078     15.3887E-03     23.7173E-03    -4.91820E+06     105.224E+06     91.5870E+06     12.2113E+03    -104.425E-03     210.181E-03    -105.756E-03     24.8834E-03    -104.828E-03     210.674E-03    -105.444E-03     23.6957E-03
            2079     14.5781E-03     23.6816E-03    -9.78429E+06     97.7656E+06     77.1409E+06     65.5836E+03    -104.729E-03     210.471E-03    -105.743E-03     36.3487E-03    -105.165E-03     210.997E-03    -105.484E-03     34.9911E-03
            2080     13.7677E-03     23.6375E-03    -14.7059E+06     88.7438E+06     67.1201E+06     90.8210E+03    -105.067E-03     210.815E-03    -105.749E-03     43.0714E-03    -105.506E-03     211.323E-03    -105.521E-03     41.7751E-03
            2081     12.9575E-03     23.5860E-03    -19.7485E+06     65.9230E+06     61.2203E+06     38.0676E+03    -105.427E-03     211.216E-03    -105.788E-03     48.1627E-03    -105.855E-03     211.629E-03    -105.549E-03     46.9116E-03
            2082     12.1474E-03     23.5299E-03    -24.7252E+06     29.2132E+06     51.3923E+06    -122.853E+03    -105.816E-03     211.632E-03    -105.816E-03     51.0672E-03    -106.197E-03     211.880E-03    -105.566E-03     49.8742E-03
            2083     11.3375E-03     23.4710E-03    -29.8228E+06     2.03922E+06     44.0894E+06    -189.997E+03    -106.109E-03     211.938E-03    -105.829E-03     52.4624E-03    -106.457E-03     212.060E-03    -105.568E-03     51.3381E-03
            2084     10.5278E-03     23.4108E-03    -35.1996E+06    -20.7981E+06     36.2242E+06    -187.681E+03    -106.310E-03     212.129E-03    -105.819E-03     52.6494E-03    -106.630E-03     212.145E-03    -105.557E-03     51.5981E-03
            2085     9.71821E-03     23.3507E-03    -40.8070E+06    -41.7630E+06     28.4953E+06    -176.840E+03    -106.436E-03     212.229E-03    -105.794E-03     51.9040E-03    -106.730E-03     212.148E-03    -105.531E-03     50.9277E-03
            2086     8.90869E-03     23.2915E-03    -46.7074E+06    -59.7873E+06     20.6283E+06    -131.480E+03    -106.484E-03     212.234E-03    -105.750E-03     50.3869E-03    -106.757E-03     212.069E-03    -105.492E-03     49.4883E-03
            2087     8.09921E-03     23.2342E-03    -52.9706E+06    -76.6352E+06     12.1788E+06    -90.1320E+03    -106.453E-03     212.143E-03    -105.690E-03     48.1690E-03    -106.707E-03     211.902E-03    -105.441E-03     47.3500E-03
            2088     7.28972E-03     23.1795E-03    -59.6796E+06    -93.3378E+06     2.72282E+06    -35.7416E+03    -106.349E-03     211.965E-03    -105.616E-03     45.3403E-03    -106.585E-03     211.650E-03    -105.380E-03     44.6020E-03
            2089     6.48017E-03     23.1283E-03    -66.8277E+06    -109.952E+06    -7.93980E+06     28.8095E+03    -106.183E-03     211.713E-03    -105.530E-03     41.9487E-03    -106.403E-03     211.328E-03    -105.313E-03     41.2919E-03
            2090     5.67054E-03     23.0811E-03    -74.4409E+06    -126.954E+06    -20.0955E+06     108.019E+03    -105.972E-03     211.406E-03    -105.434E-03     38.0324E-03    -106.176E-03     210.954E-03    -105.243E-03     37.4580E-03
            2091     4.86080E-03     23.0387E-03    -82.4599E+06    -144.638E+06    -34.0308E+06     212.452E+03    -105.737E-03     211.069E-03    -105.332E-03     33.6277E-03    -105.924E-03     210.549E-03    -105.173E-03     33.1366E-03
            2092     4.05092E-03     23.0016E-03    -90.6703E+06    -163.076E+06    -49.9073E+06     296.090E+03    -105.499E-03     210.726E-03    -105.227E-03     28.7855E-03    -105.668E-03     210.139E-03    -105.108E-03     28.3777E-03
            2093     3.24092E-03     22.9704E-03    -98.7565E+06    -182.077E+06    -67.4378E+06     328.212E+03    -105.281E-03     210.403E-03    -105.122E-03     23.5662E-03    -105.429E-03     209.749E-03    -105.051E-03     23.2411E-03
            2094     2.43080E-03     22.9456E-03    -106.194E+06    -200.827E+06    -85.4719E+06     318.577E+03    -105.102E-03     210.125E-03    -105.023E-03     18.0426E-03    -105.227E-03     209.408E-03    -105.005E-03     17.7992E-03
            2095     1.62059E-03     22.9275E-03    -112.327E+06    -217.424E+06    -101.775E+06     258.680E+03    -104.972E-03     209.913E-03    -104.940E-03     12.3240E-03    -105.075E-03     209.140E-03    -104.971E-03     12.1606E-03
            2096     810.313E-06     22.9162E-03    -116.441E+06    -229.437E+06    -113.545E+06     161.574E+03    -104.916E-03     209.777E-03    -104.862E-03     6.74944E-03    -105.002E-03     208.965E-03    -104.928E-03     6.66080E-03
            2097     15.3888E-03     22.5468E-03    -5.05216E+06     105.143E+06     91.4859E+06    -44.7434E+03    -104.623E-03     210.370E-03    -105.747E-03     24.9574E-03    -105.027E-03     210.864E-03    -105.435E-03     23.7651E-03
            2098     14.5784E-03     22.5109E-03    -10.0445E+06     97.6013E+06     76.9897E+06     36.6193E+03    -104.947E-03     210.668E-03    -105.722E-03     36.4241E-03    -105.385E-03     211.194E-03    -105.464E-03     35.0612E-03
            2099     13.7682E-03     22.4667E-03    -14.7617E+06     88.8230E+06     67.1144E+06     82.3108E+03    -105.314E-03     211.027E-03    -105.713E-03     43.1330E-03    -105.755E-03     211.536E-03    -105.485E-03     41.8321E-03
            2100     12.9582E-03     22.4149E-03    -19.5307E+06     66.1145E+06     61.2957E+06    -49.8159E+03    -105.735E-03     211.468E-03    -105.733E-03     48.1336E-03    -106.162E-03     211.882E-03    -105.494E-03     46.8774E-03
            2101     12.1484E-03     22.3586E-03    -24.5929E+06     29.3433E+06     51.4108E+06    -121.000E+03    -106.159E-03     211.894E-03    -105.735E-03     50.8968E-03    -106.540E-03     212.143E-03    -105.485E-03     49.7003E-03
            2102     11.3388E-03     22.2996E-03    -29.8232E+06     2.11160E+06     44.0711E+06    -196.628E+03    -106.448E-03     212.165E-03    -105.717E-03     52.1412E-03    -106.796E-03     212.287E-03    -105.457E-03     51.0148E-03
            2103     10.5293E-03     22.2394E-03    -35.1513E+06    -20.7926E+06     36.2091E+06    -264.419E+03    -106.625E-03     212.298E-03    -105.672E-03     52.1817E-03    -106.944E-03     212.313E-03    -105.410E-03     51.1296E-03
            2104     9.71998E-03     22.1793E-03    -40.6934E+06    -41.8490E+06     28.4283E+06    -232.504E+03    -106.707E-03     212.316E-03    -105.608E-03     51.2957E-03    -106.999E-03     212.232E-03    -105.346E-03     50.3211E-03
            2105     8.91067E-03     22.1202E-03    -46.5918E+06    -59.8766E+06     20.4543E+06    -159.095E+03    -106.692E-03     212.216E-03    -105.524E-03     49.6226E-03    -106.963E-03     212.049E-03    -105.267E-03     48.7284E-03
            2106     8.10133E-03     22.0631E-03    -52.9067E+06    -76.7142E+06     11.8603E+06    -68.9970E+03    -106.583E-03     212.004E-03    -105.421E-03     47.2519E-03    -106.835E-03     211.761E-03    -105.174E-03     46.4401E-03
            2107     7.29192E-03     22.0087E-03    -59.6374E+06    -93.4371E+06     2.30301E+06     37.8969E+03    -106.392E-03     211.696E-03    -105.305E-03     44.3020E-03    -106.626E-03     211.380E-03    -105.071E-03     43.5731E-03
            2108     6.48240E-03     21.9578E-03    -66.8120E+06    -110.020E+06    -8.37760E+06     155.712E+03    -106.132E-03     211.309E-03    -105.177E-03     40.8375E-03    -106.349E-03     210.923E-03    -104.962E-03     40.1919E-03
            2109     5.67272E-03     21.9110E-03    -74.4458E+06    -127.021E+06    -20.4712E+06     269.843E+03    -105.825E-03     210.867E-03    -105.042E-03     36.9053E-03    -106.026E-03     210.413E-03    -104.852E-03     36.3430E-03
            2110     4.86284E-03     21.8690E-03    -82.4429E+06    -144.658E+06    -34.2754E+06     367.361E+03    -105.496E-03     210.400E-03    -104.904E-03     32.5429E-03    -105.681E-03     209.878E-03    -104.746E-03     32.0638E-03
            2111     4.05276E-03     21.8323E-03    -90.6036E+06    -162.986E+06    -49.9915E+06     422.762E+03    -105.172E-03     209.939E-03    -104.767E-03     27.7952E-03    -105.339E-03     209.351E-03    -104.649E-03     27.3985E-03
            2112     3.24247E-03     21.8016E-03    -98.6079E+06    -181.887E+06    -67.3754E+06     422.876E+03    -104.880E-03     209.515E-03    -104.635E-03     22.7147E-03    -105.027E-03     208.862E-03    -104.565E-03     22.3993E-03
            2113     2.43202E-03     21.7771E-03    -105.975E+06    -200.556E+06    -85.3035E+06     368.807E+03    -104.643E-03     209.158E-03    -104.515E-03     17.3663E-03    -104.767E-03     208.442E-03    -104.497E-03     17.1304E-03
            2114     1.62142E-03     21.7592E-03    -112.074E+06    -217.078E+06    -101.541E+06     282.781E+03    -104.471E-03     208.888E-03    -104.417E-03     11.8479E-03    -104.574E-03     208.117E-03    -104.447E-03     11.6897E-03
            2115     810.740E-06     21.7482E-03    -116.174E+06    -229.015E+06    -113.284E+06     166.207E+03    -104.384E-03     208.716E-03    -104.332E-03     6.48199E-03    -104.470E-03     207.905E-03    -104.398E-03     6.39620E-03
            2116     15.3890E-03     21.3760E-03    -5.00191E+06     105.146E+06     91.5295E+06     51.1911E+03    -104.835E-03     210.572E-03    -105.737E-03     25.0539E-03    -105.239E-03     211.066E-03    -105.424E-03     23.8593E-03
            2117     14.5788E-03     21.3400E-03    -9.97545E+06     97.5997E+06     77.0851E+06    -31.5050E+03    -105.224E-03     210.921E-03    -105.697E-03     36.5407E-03    -105.663E-03     211.448E-03    -105.439E-03     35.1725E-03
            2118     13.7688E-03     21.2956E-03    -14.7496E+06     88.8139E+06     67.1454E+06    -111.462E+03    -105.676E-03     211.344E-03    -105.668E-03     43.1689E-03    -106.118E-03     211.854E-03    -105.440E-03     41.8598E-03
            2119     12.9590E-03     21.2435E-03    -19.6884E+06     66.2071E+06     61.2253E+06    -58.0992E+03    -106.148E-03     211.807E-03    -105.660E-03     47.9981E-03    -106.576E-03     212.223E-03    -105.421E-03     46.7363E-03
            2120     12.1496E-03     21.1870E-03    -24.7145E+06     29.5473E+06     51.4082E+06    -165.635E+03    -106.588E-03     212.217E-03    -105.629E-03     50.5931E-03    -106.970E-03     212.467E-03    -105.379E-03     49.3924E-03
            2121     11.3404E-03     21.1279E-03    -29.7159E+06     2.23694E+06     44.0333E+06    -314.734E+03    -106.884E-03     212.455E-03    -105.571E-03     51.6518E-03    -107.231E-03     212.577E-03    -105.311E-03     50.5228E-03
            2122     10.5313E-03     21.0678E-03    -35.0023E+06    -20.8509E+06     35.9718E+06    -304.854E+03    -107.052E-03     212.531E-03    -105.480E-03     51.4670E-03    -107.368E-03     212.546E-03    -105.219E-03     50.4158E-03
            2123     9.72227E-03     21.0078E-03    -40.6385E+06    -41.9814E+06     27.9964E+06    -202.911E+03    -107.093E-03     212.456E-03    -105.363E-03     50.3491E-03    -107.382E-03     212.371E-03    -105.103E-03     49.3786E-03
            2124     8.91326E-03     20.9490E-03    -46.6896E+06    -60.0117E+06     19.8711E+06    -68.0237E+03    -107.001E-03     212.222E-03    -105.221E-03     48.4457E-03    -107.269E-03     212.054E-03    -104.967E-03     47.5587E-03
            2125     8.10417E-03     20.8922E-03    -53.0418E+06    -76.8384E+06     11.2635E+06     76.3943E+03    -106.785E-03     211.845E-03    -105.060E-03     45.8797E-03    -107.034E-03     211.600E-03    -104.815E-03     45.0780E-03
            2126     7.29492E-03     20.8382E-03    -59.7431E+06    -93.5226E+06     1.79861E+06     209.450E+03    -106.465E-03     211.349E-03    -104.884E-03     42.7956E-03    -106.697E-03     211.031E-03    -104.653E-03     42.0793E-03
            2127     6.48544E-03     20.7878E-03    -66.9353E+06    -110.086E+06    -8.75184E+06     329.587E+03    -106.068E-03     210.767E-03    -104.699E-03     39.2645E-03    -106.283E-03     210.379E-03    -104.486E-03     38.6332E-03
            2128     5.67567E-03     20.7416E-03    -74.5015E+06    -127.018E+06    -20.6892E+06     434.243E+03    -105.623E-03     210.133E-03    -104.510E-03     35.3339E-03    -105.822E-03     209.677E-03    -104.322E-03     34.7870E-03
            2129     4.86560E-03     20.7002E-03    -82.3903E+06    -144.557E+06    -34.3546E+06     481.616E+03    -105.163E-03     209.486E-03    -104.324E-03     31.0413E-03    -105.346E-03     208.964E-03    -104.167E-03     30.5773E-03
            2130     4.05522E-03     20.6641E-03    -90.4763E+06    -162.813E+06    -49.9742E+06     489.244E+03    -104.722E-03     208.866E-03    -104.144E-03     26.4264E-03    -104.888E-03     208.278E-03    -104.027E-03     26.0437E-03
            2131     3.24456E-03     20.6339E-03    -98.4209E+06    -181.611E+06    -67.2820E+06     462.621E+03    -104.333E-03     208.310E-03    -103.977E-03     21.5364E-03    -104.479E-03     207.656E-03    -103.907E-03     21.2332E-03
            2132     2.43364E-03     20.6099E-03    -105.740E+06    -200.224E+06    -85.1373E+06     398.742E+03    -104.019E-03     207.849E-03    -103.829E-03     16.4290E-03    -104.142E-03     207.132E-03    -103.811E-03     16.2030E-03
            2133     1.62254E-03     20.5924E-03    -111.824E+06    -216.683E+06    -101.328E+06     302.751E+03    -103.793E-03     207.503E-03    -103.711E-03     11.1903E-03    -103.894E-03     206.733E-03    -103.741E-03     11.0391E-03
            2134     811.306E-06     20.5815E-03    -115.916E+06    -228.568E+06    -113.057E+06     174.376E+03    -103.665E-03     207.287E-03    -103.622E-03     6.11569E-03    -103.751E-03     206.477E-03    -103.687E-03     6.03378E-03
            2135     15.3892E-03     20.2051E-03    -4.95865E+06     105.164E+06     91.6450E+06    -24.1464E+03    -105.113E-03     210.836E-03    -105.723E-03     25.1506E-03    -105.517E-03     211.330E-03    -105.410E-03     23.9508E-03
            2136     14.5791E-03     20.1687E-03    -9.83553E+06     97.6861E+06     77.0253E+06    -18.5735E+03    -105.612E-03     211.275E-03    -105.663E-03     36.5850E-03    -106.051E-03     211.803E-03    -105.406E-03     35.2111E-03
            2137     13.7696E-03     20.1240E-03    -14.7342E+06     88.7952E+06     66.9524E+06    -35.3722E+03    -106.162E-03     211.768E-03    -105.606E-03     43.0979E-03    -106.603E-03     212.278E-03    -105.379E-03     41.7826E-03
            2138     12.9603E-03     20.0717E-03    -19.5972E+06     66.4235E+06     61.1607E+06    -229.482E+03    -106.676E-03     212.238E-03    -105.562E-03     47.7417E-03    -107.105E-03     212.656E-03    -105.324E-03     46.4723E-03
            2139     12.1512E-03     20.0150E-03    -24.4065E+06     29.7162E+06     51.1584E+06    -361.908E+03    -107.153E-03     212.639E-03    -105.486E-03     50.0928E-03    -107.533E-03     212.889E-03    -105.238E-03     48.8862E-03
            2140     11.3425E-03     19.9559E-03    -29.5623E+06     2.14867E+06     43.4583E+06    -260.632E+03    -107.480E-03     212.854E-03    -105.374E-03     50.8423E-03    -107.825E-03     212.976E-03    -105.117E-03     49.7128E-03
            2141     10.5339E-03     19.8959E-03    -35.1091E+06    -20.9763E+06     35.2493E+06    -88.4817E+03    -107.644E-03     212.864E-03    -105.220E-03     50.3133E-03    -107.958E-03     212.877E-03    -104.962E-03     49.2663E-03
            2142     9.72537E-03     19.8361E-03    -40.9212E+06    -42.1164E+06     27.2533E+06     57.5761E+03    -107.630E-03     212.661E-03    -105.031E-03     48.8662E-03    -107.917E-03     212.574E-03    -104.775E-03     47.9034E-03
            2143     8.91680E-03     19.7777E-03    -47.0054E+06    -60.0744E+06     19.2400E+06     152.977E+03    -107.430E-03     212.241E-03    -104.812E-03     46.6719E-03    -107.695E-03     212.071E-03    -104.560E-03     45.7958E-03
            2144     8.10804E-03     19.7215E-03    -53.3635E+06    -76.9153E+06     10.7511E+06     226.979E+03    -107.066E-03     211.635E-03    -104.569E-03     43.8716E-03    -107.312E-03     211.388E-03    -104.327E-03     43.0837E-03
            2145     7.29899E-03     19.6683E-03    -60.0152E+06    -93.5522E+06     1.42227E+06     324.537E+03    -106.574E-03     210.886E-03    -104.311E-03     40.6229E-03    -106.803E-03     210.565E-03    -104.082E-03     39.9233E-03
            2146     6.48956E-03     19.6186E-03    -67.0370E+06    -110.083E+06    -8.98111E+06     417.776E+03    -105.991E-03     210.037E-03    -104.046E-03     37.0062E-03    -106.203E-03     209.646E-03    -103.834E-03     36.3940E-03
            2147     5.67970E-03     19.5733E-03    -74.4645E+06    -126.908E+06    -20.8097E+06     472.437E+03    -105.357E-03     209.139E-03    -103.782E-03     33.0784E-03    -105.553E-03     208.681E-03    -103.594E-03     32.5515E-03
            2148     4.86938E-03     19.5327E-03    -82.2418E+06    -144.383E+06     -34.391E+06     501.338E+03    -104.717E-03     208.243E-03    -103.526E-03     28.8838E-03    -104.897E-03     207.719E-03    -103.370E-03     28.4397E-03
            2149     4.05861E-03     19.4974E-03    -90.2142E+06    -162.569E+06    -49.9186E+06     510.016E+03    -104.114E-03     207.400E-03    -103.286E-03     24.4600E-03    -104.276E-03     206.810E-03    -103.169E-03     24.0962E-03
            2150     3.24743E-03     19.4679E-03    -98.0860E+06    -181.299E+06    -67.1435E+06     484.793E+03    -103.586E-03     206.653E-03    -103.067E-03     19.8466E-03    -103.728E-03     205.999E-03    -102.998E-03     19.5601E-03
            2151     2.43590E-03     19.4444E-03    -105.375E+06    -199.853E+06    -84.9183E+06     430.303E+03    -103.161E-03     206.040E-03    -102.880E-03     15.0869E-03    -103.282E-03     205.324E-03    -102.862E-03     14.8746E-03
            2152     1.62408E-03     19.4274E-03    -111.418E+06    -216.240E+06    -101.006E+06     330.799E+03    -102.854E-03     205.586E-03    -102.732E-03     10.2491E-03    -102.954E-03     204.817E-03    -102.762E-03     10.1077E-03
            2153     812.090E-06     19.4168E-03    -115.491E+06    -228.076E+06    -112.661E+06     198.774E+03    -102.674E-03     205.305E-03    -102.631E-03     5.58727E-03    -102.758E-03     204.496E-03    -102.696E-03     5.51097E-03
            2154     15.3894E-03     19.0337E-03    -4.99675E+06     105.191E+06     91.3944E+06    -83.2871E+03    -105.588E-03     211.291E-03    -105.703E-03     25.2731E-03    -105.993E-03     211.787E-03    -105.391E-03     24.0657E-03
            2155     14.5799E-03     18.9970E-03    -9.89963E+06     97.6210E+06     76.4628E+06    -81.3359E+03    -106.152E-03     211.764E-03    -105.612E-03     36.6279E-03    -106.590E-03     212.292E-03    -105.357E-03     35.2477E-03
            2156     13.7707E-03     18.9518E-03    -14.3996E+06     89.1137E+06     66.5999E+06    -246.613E+03    -106.794E-03     212.311E-03    -105.517E-03     42.9278E-03    -107.234E-03     212.824E-03    -105.293E-03     41.6037E-03
            2157     12.9619E-03     18.8993E-03    -19.1295E+06     66.3903E+06     60.6064E+06    -263.381E+03    -107.415E-03     212.839E-03    -105.424E-03     47.1930E-03    -107.840E-03     213.256E-03    -105.189E-03     45.9160E-03
            2158     12.1535E-03     18.8425E-03    -24.6276E+06     29.4830E+06     50.1655E+06     134.688E+03    -107.959E-03     213.244E-03    -105.285E-03     49.1318E-03    -108.336E-03     213.493E-03    -105.041E-03     47.9272E-03
            2159     11.3454E-03     18.7833E-03    -30.4035E+06     2.25378E+06     42.4784E+06     254.559E+03    -108.304E-03     213.403E-03    -105.099E-03     49.4389E-03    -108.649E-03     213.524E-03    -104.845E-03     48.3151E-03
            2160     10.5375E-03     18.7235E-03    -36.0785E+06    -21.0434E+06     34.3694E+06     193.545E+03    -108.437E-03     213.295E-03    -104.858E-03     48.4646E-03    -108.751E-03     213.306E-03    -104.603E-03     47.4251E-03
            2161     9.72967E-03     18.6642E-03    -41.7162E+06    -42.0838E+06     26.6147E+06     218.378E+03    -108.333E-03     212.905E-03    -104.572E-03     46.6004E-03    -108.619E-03     212.816E-03    -104.318E-03     45.6493E-03
            2162     8.92167E-03     18.6064E-03    -47.4973E+06    -59.9883E+06     18.7986E+06     193.072E+03    -107.987E-03     212.235E-03    -104.248E-03     44.0440E-03    -108.250E-03     212.061E-03    -103.998E-03     43.1834E-03
            2163     8.11336E-03     18.5511E-03    -53.6470E+06    -76.8823E+06     10.4141E+06     201.650E+03    -107.435E-03     211.330E-03    -103.895E-03     40.9571E-03    -107.677E-03     211.078E-03    -103.653E-03     40.1884E-03
            2164     7.30460E-03     18.4989E-03    -60.1387E+06    -93.5389E+06     1.15965E+06     264.747E+03    -106.719E-03     210.244E-03    -103.525E-03     37.5200E-03    -106.943E-03     209.919E-03    -103.296E-03     36.8425E-03
            2165     6.49528E-03     18.4504E-03    -66.9513E+06    -109.994E+06    -9.14213E+06     331.871E+03    -105.887E-03     209.036E-03    -103.149E-03     33.8346E-03    -106.093E-03     208.641E-03    -102.938E-03     33.2461E-03
            2166     5.68531E-03     18.4063E-03    -74.2231E+06    -126.769E+06    -20.8769E+06     390.743E+03    -104.995E-03     207.776E-03    -102.781E-03     29.9698E-03    -105.186E-03     207.314E-03    -102.594E-03     29.4672E-03
            2167     4.87467E-03     18.3669E-03    -81.8971E+06    -144.204E+06    -34.3732E+06     455.117E+03    -104.106E-03     206.536E-03    -102.430E-03     25.9699E-03    -104.281E-03     206.008E-03    -102.274E-03     25.5498E-03
            2168     4.06338E-03     18.3327E-03    -89.7695E+06    -162.314E+06    -49.7941E+06     502.252E+03    -103.277E-03     205.383E-03    -102.106E-03     21.8603E-03    -103.435E-03     204.790E-03    -101.989E-03     21.5187E-03
            2169     3.25148E-03     18.3041E-03    -97.5535E+06    -180.972E+06    -66.8981E+06     517.323E+03    -102.557E-03     204.375E-03    -101.818E-03     17.6582E-03    -102.696E-03     203.719E-03    -101.749E-03     17.3910E-03
            2170     2.43907E-03     18.2815E-03    -104.794E+06    -199.436E+06    -84.5509E+06     476.587E+03    -101.982E-03     203.558E-03    -101.576E-03     13.3808E-03    -102.100E-03     202.841E-03    -101.558E-03     13.1839E-03
            2171     1.62628E-03     18.2650E-03    -110.799E+06    -215.747E+06    -100.503E+06     376.828E+03    -101.568E-03     202.958E-03    -101.390E-03     9.06991E-03    -101.667E-03     202.188E-03    -101.419E-03     8.93939E-03
            2172     813.210E-06     18.2548E-03    -114.834E+06    -227.504E+06    -112.052E+06     227.506E+03    -101.321E-03     202.584E-03    -101.263E-03     4.93582E-03    -101.404E-03     201.777E-03    -101.327E-03     4.86562E-03
            2173     15.3899E-03     17.8617E-03    -5.01514E+06     105.316E+06     90.8050E+06    -90.4970E+03    -106.282E-03     211.956E-03    -105.674E-03     25.4322E-03    -106.687E-03     212.454E-03    -105.366E-03     24.2149E-03
            2174     14.5807E-03     17.8247E-03     -9.8269E+06     97.7850E+06     76.2928E+06    -328.388E+03    -106.973E-03     212.515E-03    -105.542E-03     36.6141E-03    -107.411E-03     213.044E-03    -105.288E-03     35.2222E-03
            2175     13.7723E-03     17.7789E-03    -14.9025E+06     88.6014E+06     66.1911E+06     36.6797E+03    -107.735E-03     213.127E-03    -105.391E-03     42.4943E-03    -108.177E-03     213.638E-03    -105.167E-03     41.1640E-03
            2176     12.9643E-03     17.7261E-03    -20.9398E+06     65.9668E+06     59.0607E+06     847.288E+03    -108.458E-03     213.681E-03    -105.223E-03     46.2181E-03    -108.888E-03     214.099E-03    -104.993E-03     44.9458E-03
            2177     12.1568E-03     17.6691E-03    -26.8081E+06     29.8347E+06     48.8980E+06     774.146E+03    -109.062E-03     214.059E-03    -104.997E-03     47.6493E-03    -109.446E-03     214.312E-03    -104.757E-03     46.4481E-03
            2178     11.3497E-03     17.6100E-03    -31.9044E+06     2.70520E+06     41.8002E+06     317.866E+03    -109.396E-03     214.105E-03    -104.709E-03     47.4354E-03    -109.744E-03     214.229E-03    -104.458E-03     46.3131E-03
            2179     10.5428E-03     17.5505E-03    -36.9229E+06    -20.7960E+06     33.8955E+06     82.4206E+03    -109.457E-03     213.808E-03    -104.352E-03     45.9432E-03    -109.769E-03     213.818E-03    -104.099E-03     44.9095E-03
            2180     9.73577E-03     17.4919E-03    -42.1594E+06    -41.9447E+06     26.3065E+06    -43.9583E+03    -109.220E-03     213.158E-03    -103.939E-03     43.5813E-03    -109.501E-03     213.065E-03    -103.685E-03     42.6406E-03
            2181     8.92852E-03     17.4352E-03    -47.6780E+06    -59.7960E+06     18.5669E+06    -93.8527E+03    -108.677E-03     212.154E-03    -103.476E-03     40.6127E-03    -108.934E-03     211.975E-03    -103.227E-03     39.7674E-03
            2182     8.12078E-03     17.3811E-03    -53.5554E+06    -76.8785E+06     10.2234E+06    -72.4758E+03    -107.874E-03     210.854E-03    -102.980E-03     37.2347E-03    -108.109E-03     210.597E-03    -102.740E-03     36.4849E-03
            2183     7.31236E-03     17.3304E-03    -59.8666E+06    -93.4894E+06     1.04112E+06     31.0805E+03    -106.861E-03     209.327E-03    -102.466E-03     33.6462E-03    -107.077E-03     208.996E-03    -102.238E-03     32.9901E-03
            2184     6.50312E-03     17.2836E-03    -66.5955E+06    -109.927E+06    -9.21033E+06     128.802E+03    -105.703E-03     207.653E-03    -101.950E-03     29.9612E-03    -105.903E-03     207.253E-03    -101.740E-03     29.3950E-03
            2185     5.69294E-03     17.2411E-03    -73.7603E+06    -126.695E+06    -20.8810E+06     267.804E+03    -104.480E-03     205.928E-03    -101.449E-03     26.2444E-03    -104.664E-03     205.462E-03    -101.263E-03     25.7645E-03
            2186     4.88181E-03     17.2033E-03    -81.3326E+06    -144.053E+06    -34.2929E+06     402.628E+03    -103.272E-03     204.250E-03    -100.978E-03     22.5265E-03    -103.442E-03     203.719E-03    -100.823E-03     22.1284E-03
            2187     4.06974E-03     17.1707E-03    -89.1239E+06    -162.086E+06    -49.5940E+06     503.051E+03    -102.156E-03     202.706E-03    -100.550E-03     18.8155E-03    -102.309E-03     202.111E-03    -100.434E-03     18.4942E-03
            2188     3.25684E-03     17.1434E-03    -96.8604E+06    -180.643E+06    -66.5486E+06     562.634E+03    -101.193E-03     201.369E-03    -100.176E-03     15.1080E-03    -101.328E-03     200.712E-03    -100.107E-03     14.8588E-03
            2189     2.44325E-03     17.1218E-03    -104.015E+06    -198.969E+06    -84.0105E+06     551.472E+03    -100.427E-03     200.294E-03    -99.8672E-03     11.4013E-03    -100.542E-03     199.577E-03    -99.8480E-03     11.2191E-03
            2190     1.62913E-03     17.1061E-03    -109.957E+06    -215.167E+06    -99.7812E+06     445.399E+03    -99.8794E-03     199.512E-03    -99.6331E-03     7.71045E-03    -99.9751E-03     198.743E-03    -99.6605E-03     7.59027E-03
            2191     814.663E-06     17.0965E-03    -113.954E+06    -226.836E+06    -111.206E+06     265.510E+03    -99.5428E-03     199.031E-03    -99.4877E-03     4.19727E-03    -99.6234E-03     198.223E-03    -99.5496E-03     4.13266E-03
            2192     15.3902E-03     16.6888E-03    -5.01993E+06     105.457E+06     91.3951E+06    -90.8121E+03    -107.250E-03     212.889E-03    -105.639E-03     25.5089E-03    -107.657E-03     213.388E-03    -105.328E-03     24.2755E-03
            2193     14.5822E-03     16.6513E-03    -10.5636E+06     97.2432E+06     76.7842E+06     382.062E+03    -108.160E-03     213.606E-03    -105.446E-03     36.3785E-03    -108.603E-03     214.134E-03    -105.188E-03     34.9787E-03
            2194     13.7747E-03     16.6050E-03    -16.8509E+06     86.8000E+06     65.2425E+06     1.75225E+06    -109.068E-03     214.278E-03    -105.210E-03     41.8099E-03    -109.514E-03     214.784E-03    -104.986E-03     40.4865E-03
            2195     12.9679E-03     16.5517E-03    -22.6772E+06     66.9533E+06     58.5016E+06     1.88740E+06    -109.869E-03     214.809E-03    -104.940E-03     44.9559E-03    -110.306E-03     215.234E-03    -104.712E-03     43.6857E-03
            2196     12.1616E-03     16.4946E-03    -27.4054E+06     31.7014E+06     49.0301E+06     368.490E+03    -110.492E-03     215.090E-03    -104.598E-03     45.7723E-03    -110.879E-03     215.350E-03    -104.359E-03     44.5604E-03
            2197     11.3557E-03     16.4358E-03    -31.8215E+06     2.86459E+06     41.7740E+06    -398.460E+03    -110.781E-03     214.958E-03    -104.177E-03     44.9408E-03    -111.124E-03     215.077E-03    -103.926E-03     43.8099E-03
            2198     10.5499E-03     16.3769E-03    -36.5500E+06    -20.3704E+06     34.0045E+06    -418.094E+03    -110.713E-03     214.384E-03    -103.671E-03     42.8540E-03    -111.019E-03     214.389E-03    -103.419E-03     41.8209E-03
            2199     9.74392E-03     16.3194E-03    -41.6323E+06    -41.8442E+06     26.3914E+06    -499.387E+03    -110.273E-03     213.370E-03    -103.097E-03     39.9487E-03    -110.546E-03     213.270E-03    -102.844E-03     39.0146E-03
            2200     8.93752E-03     16.2641E-03    -47.0677E+06    -59.6524E+06     18.6650E+06    -472.634E+03    -109.456E-03     211.922E-03    -102.466E-03     36.5671E-03    -109.704E-03     211.737E-03    -102.218E-03     35.7335E-03
            2201     8.13040E-03     16.2118E-03    -52.9081E+06    -76.9285E+06     10.2695E+06    -383.770E+03    -108.323E-03     210.120E-03    -101.798E-03     32.9270E-03    -108.548E-03     209.855E-03    -101.558E-03     32.1917E-03
            2202     7.32230E-03     16.1632E-03    -59.1997E+06    -93.4935E+06     1.07555E+06    -233.617E+03    -106.943E-03     208.055E-03    -101.112E-03     29.2194E-03    -107.150E-03     207.717E-03    -100.885E-03     28.5793E-03
            2203     6.51304E-03     16.1186E-03    -65.9574E+06    -109.965E+06    -9.22144E+06    -38.1510E+03    -105.403E-03     205.831E-03    -100.428E-03     25.5541E-03    -105.595E-03     205.425E-03    -100.219E-03     25.0052E-03
            2204     5.70253E-03     16.0784E-03    -73.1146E+06    -126.702E+06    -20.8751E+06     182.070E+03    -103.797E-03     203.566E-03    -99.7689E-03     21.9905E-03    -103.974E-03     203.095E-03    -99.5836E-03     21.5285E-03
            2205     4.89073E-03     16.0428E-03    -80.6104E+06    -143.952E+06    -34.1730E+06     382.729E+03    -102.220E-03     201.372E-03    -99.1518E-03     18.5548E-03    -102.383E-03     200.837E-03    -98.9970E-03     18.1747E-03
            2206     4.07771E-03     16.0122E-03    -88.3571E+06    -161.881E+06    -49.3125E+06     541.206E+03    -100.761E-03     199.355E-03    -98.5937E-03     15.2535E-03    -100.909E-03     198.757E-03    -98.4774E-03     14.9497E-03
            2207     3.26357E-03     15.9867E-03    -96.0327E+06    -180.294E+06    -66.0605E+06     637.058E+03    -99.4967E-03     197.606E-03    -98.1089E-03     12.0784E-03    -99.6276E-03     196.947E-03    -98.0385E-03     11.8452E-03
            2208     2.44851E-03     15.9665E-03    -103.127E+06    -198.434E+06    -83.3130E+06     630.865E+03    -98.4838E-03     196.195E-03    -97.7109E-03     9.01145E-03    -98.5955E-03     195.477E-03    -97.6902E-03     8.84263E-03
            2209     1.63274E-03     15.9518E-03    -108.996E+06    -214.476E+06    -98.9098E+06     505.875E+03    -97.7536E-03     195.165E-03    -97.4116E-03     6.04126E-03    -97.8464E-03     194.396E-03    -97.4372E-03     5.93083E-03
            2210     816.488E-06     15.9427E-03    -112.949E+06    -226.060E+06    -110.224E+06     300.881E+03    -97.2983E-03     194.532E-03    -97.2333E-03     3.26207E-03    -97.3764E-03     193.725E-03    -97.2928E-03     3.20309E-03
            2211     15.3912E-03     15.5146E-03    -5.82500E+06     104.645E+06     91.2384E+06     830.553E+03    -108.618E-03     214.198E-03    -105.581E-03     25.6131E-03    -109.029E-03     214.696E-03    -105.268E-03     24.3684E-03
            2212     14.5842E-03     15.4764E-03    -12.1040E+06     95.7614E+06     76.1731E+06     2.14696E+06    -109.704E-03     215.006E-03    -105.303E-03     36.0876E-03    -110.152E-03     215.531E-03    -105.043E-03     34.6864E-03
            2213     13.7781E-03     15.4295E-03    -17.1845E+06     86.4523E+06     65.3906E+06     2.31883E+06    -110.796E-03     215.758E-03    -104.962E-03     41.0078E-03    -111.244E-03     216.262E-03    -104.735E-03     39.6705E-03
            2214     12.9728E-03     15.3758E-03    -20.9826E+06     69.3500E+06     59.9413E+06     1.08689E+06    -111.676E-03     216.239E-03    -104.563E-03     43.4748E-03    -112.108E-03     216.669E-03    -104.333E-03     42.1774E-03
            2215     12.1680E-03     15.3188E-03    -25.2273E+06     33.7450E+06     50.3782E+06    -107.438E+03    -112.275E-03     216.347E-03    -104.072E-03     43.5601E-03    -112.652E-03     216.608E-03    -103.833E-03     42.3323E-03
            2216     11.3635E-03     15.2605E-03    -30.2563E+06     3.12726E+06     42.3794E+06    -712.131E+03    -112.453E-03     215.940E-03    -103.486E-03     42.0175E-03    -112.784E-03     216.052E-03    -103.235E-03     40.8795E-03
            2217     10.5591E-03     15.2026E-03    -35.3493E+06    -20.1041E+06     34.4627E+06    -887.912E+03    -112.169E-03     214.970E-03    -102.801E-03     39.2904E-03    -112.464E-03     214.968E-03    -102.548E-03     38.2539E-03
            2218     9.75433E-03     15.1466E-03    -40.5018E+06    -41.7961E+06     26.7233E+06    -843.901E+03    -111.427E-03     213.465E-03    -102.038E-03     35.8440E-03    -111.688E-03     213.357E-03    -101.785E-03     34.9127E-03
            2219     8.94884E-03     15.0933E-03    -46.0249E+06    -59.6849E+06     18.8966E+06    -704.634E+03    -110.251E-03     211.463E-03    -101.213E-03     32.0702E-03    -110.487E-03     211.270E-03    -100.965E-03     31.2434E-03
            2220     8.14231E-03     15.0435E-03    -51.9686E+06    -76.9934E+06     10.4028E+06    -501.660E+03    -108.726E-03     209.075E-03    -100.349E-03     28.1913E-03    -108.942E-03     208.803E-03    -100.110E-03     27.4655E-03
            2221     7.33446E-03     14.9976E-03    -58.3289E+06    -93.5872E+06     1.13373E+06    -276.896E+03    -106.941E-03     206.409E-03    -99.4688E-03     24.3766E-03    -107.139E-03     206.065E-03    -99.2428E-03     23.7474E-03
            2222     6.52513E-03     14.9560E-03    -65.1158E+06    -110.046E+06    -9.18813E+06    -33.1384E+03    -104.987E-03     203.583E-03    -98.5958E-03     20.7402E-03    -105.170E-03     203.171E-03    -98.3878E-03     20.2027E-03
            2223     5.71419E-03     14.9187E-03    -72.2964E+06    -126.730E+06    -20.7963E+06     205.454E+03    -102.964E-03     200.717E-03    -97.7535E-03     17.3498E-03    -103.134E-03     200.242E-03    -97.5688E-03     16.8986E-03
            2224     4.90163E-03     14.8860E-03    -79.8176E+06    -143.887E+06    -33.9598E+06     437.963E+03    -100.975E-03     197.939E-03    -96.9641E-03     14.2354E-03    -101.132E-03     197.400E-03    -96.8096E-03     13.8654E-03
            2225     4.08748E-03     14.8580E-03    -87.5452E+06    -161.661E+06    -48.8959E+06     627.416E+03    -99.1197E-03     195.368E-03    -96.2487E-03     11.4009E-03    -99.2631E-03     194.769E-03    -96.1318E-03     11.1064E-03
            2226     3.27188E-03     14.8347E-03    -95.1593E+06    -179.869E+06    -65.4023E+06     709.820E+03    -97.4930E-03     193.119E-03    -95.6261E-03     8.82571E-03    -97.6201E-03     192.459E-03    -95.5544E-03     8.60013E-03
            2227     2.45506E-03     14.8164E-03    -102.172E+06    -197.814E+06    -82.4442E+06     669.016E+03    -96.1713E-03     191.286E-03    -95.1144E-03     6.46947E-03    -96.2798E-03     190.568E-03    -95.0917E-03     6.30635E-03
            2228     1.63727E-03     14.8031E-03    -107.985E+06    -213.710E+06    -97.9173E+06     527.217E+03    -95.2045E-03     189.934E-03    -94.7291E-03     4.28666E-03    -95.2946E-03     189.165E-03    -94.7523E-03     4.18020E-03
            2229     818.816E-06     14.7948E-03    -111.903E+06    -225.204E+06    -109.155E+06     307.432E+03    -94.6115E-03     189.092E-03    -94.4804E-03     2.29253E-03    -94.6871E-03     188.287E-03    -94.5373E-03     2.23583E-03
            2230     15.3923E-03     14.3387E-03    -4.79634E+06     101.890E+06     90.3764E+06     1.56230E+06    -110.461E-03     215.959E-03    -105.498E-03     25.9168E-03    -110.865E-03     216.445E-03    -105.187E-03     24.6506E-03
            2231     14.5870E-03     14.2997E-03    -9.43750E+06     94.7126E+06     77.6230E+06     3.10421E+06    -111.730E-03     216.845E-03    -105.115E-03     35.8670E-03    -112.167E-03     217.360E-03    -104.851E-03     34.4440E-03
            2232     13.7825E-03     14.2519E-03    -14.1330E+06     89.4259E+06     68.4169E+06     1.95170E+06    -112.905E-03     217.548E-03    -104.643E-03     40.1291E-03    -113.346E-03     218.058E-03    -104.410E-03     38.7558E-03
            2233     12.9789E-03     14.1981E-03    -19.0262E+06     71.1286E+06     61.2735E+06     173.823E+03    -113.827E-03     217.912E-03    -104.084E-03     41.8445E-03    -114.253E-03     218.345E-03    -103.854E-03     40.5098E-03
            2234     12.1760E-03     14.1414E-03    -23.8519E+06     34.7858E+06     51.2351E+06    -216.222E+03    -114.367E-03     217.784E-03    -103.417E-03     41.1310E-03    -114.736E-03     218.044E-03    -103.177E-03     39.8838E-03
            2235     11.3733E-03     14.0840E-03    -28.6793E+06     4.08036E+06     43.2096E+06    -648.920E+03    -114.341E-03     216.979E-03    -102.638E-03     38.8486E-03    -114.662E-03     217.088E-03    -102.386E-03     37.7000E-03
            2236     10.5703E-03     14.0276E-03    -33.7591E+06    -19.9531E+06     34.9846E+06    -975.283E+03    -113.734E-03     215.483E-03    -101.748E-03     35.4980E-03    -114.017E-03     215.474E-03    -101.496E-03     34.4535E-03
            2237     9.76679E-03     13.9737E-03    -39.1716E+06    -41.8384E+06     27.0337E+06    -822.328E+03    -112.595E-03     213.372E-03    -100.777E-03     31.5655E-03    -112.845E-03     213.257E-03    -100.525E-03     30.6305E-03
            2238     8.96218E-03     13.9232E-03    -44.9195E+06    -59.7848E+06     19.0574E+06    -594.523E+03    -110.993E-03     210.736E-03    -99.7431E-03     27.4657E-03    -111.220E-03     210.536E-03    -99.4960E-03     26.6376E-03
            2239     8.15618E-03     13.8766E-03    -51.0010E+06    -77.0923E+06     10.4860E+06    -346.516E+03    -109.033E-03     207.705E-03    -98.6720E-03     23.4152E-03    -109.240E-03     207.427E-03    -98.4339E-03     22.6888E-03
            2240     7.34852E-03     13.8342E-03    -57.4471E+06    -93.6757E+06     1.19416E+06    -85.9029E+03    -106.805E-03     204.393E-03    -97.5884E-03     19.5825E-03    -106.995E-03     204.044E-03    -97.3633E-03     18.9524E-03
            2241     6.53900E-03     13.7961E-03    -64.2714E+06    -110.068E+06    -9.05932E+06     155.745E+03    -104.407E-03     200.925E-03    -96.5180E-03     16.0840E-03    -104.584E-03     200.510E-03    -96.3105E-03     15.5443E-03
            2242     5.72750E-03     13.7625E-03    -71.4731E+06    -126.694E+06    -20.5435E+06     375.172E+03    -101.944E-03     197.431E-03    -95.4866E-03     12.9769E-03    -102.109E-03     196.952E-03    -95.3020E-03     12.5219E-03
            2243     4.91397E-03     13.7334E-03    -78.9964E+06    -143.771E+06    -33.5350E+06     576.734E+03    -99.5257E-03     194.046E-03    -94.5199E-03     10.2717E-03    -99.6787E-03     193.505E-03    -94.3645E-03     9.89607E-03
            2244     4.09849E-03     13.7087E-03    -86.6714E+06    -161.342E+06    -48.2105E+06     700.994E+03    -97.2619E-03     190.904E-03    -93.6421E-03     7.94814E-03    -97.4017E-03     190.303E-03    -93.5235E-03     7.64632E-03
            2245     3.28120E-03     13.6883E-03    -94.2146E+06    -179.350E+06    -64.4666E+06     709.256E+03    -95.2590E-03     188.135E-03    -92.8764E-03     5.96618E-03    -95.3832E-03     187.475E-03    -92.8020E-03     5.73237E-03
            2246     2.46235E-03     13.6724E-03    -101.181E+06    -197.146E+06    -81.3550E+06      627.27E+03    -93.6120E-03     185.857E-03    -92.2450E-03     4.26592E-03    -93.7179E-03     185.139E-03    -92.2192E-03     4.09505E-03
            2247     1.64228E-03     13.6608E-03    -106.946E+06    -212.942E+06      -96.77E+06     465.033E+03    -92.3909E-03     184.159E-03    -91.7681E-03     2.77750E-03    -92.4786E-03     183.391E-03    -91.7881E-03     2.66487E-03
            2248     821.361E-06     13.6537E-03    -110.816E+06    -224.388E+06    -107.993E+06     261.888E+03    -91.6521E-03     183.091E-03    -91.4389E-03     1.47027E-03    -91.7252E-03     182.287E-03    -91.4929E-03     1.40986E-03
            2249     15.3937E-03     13.1603E-03    -3.98079E+06     99.2954E+06     89.6956E+06     418.217E+03    -112.669E-03     218.063E-03    -105.394E-03     26.2878E-03    -113.067E-03     218.539E-03    -105.084E-03     24.9642E-03
            2250     14.5904E-03     13.1205E-03    -7.20139E+06     93.2392E+06     79.2337E+06     1.67697E+06    -114.168E-03     219.054E-03    -104.886E-03     35.7746E-03    -114.598E-03     219.560E-03    -104.615E-03     34.2855E-03
            2251     13.7880E-03     13.0723E-03    -11.1289E+06     92.0594E+06     71.3254E+06     2.26638E+06    -115.398E-03     219.653E-03    -104.255E-03     39.3348E-03    -115.835E-03     220.170E-03    -104.016E-03     37.9232E-03
            2252     12.9864E-03     13.0183E-03    -16.5729E+06     73.2645E+06     62.8150E+06     1.20233E+06    -116.286E-03     219.797E-03    -103.511E-03     40.1724E-03    -116.705E-03     220.235E-03    -103.279E-03     38.8153E-03
            2253     12.1855E-03     12.9621E-03    -22.1131E+06     35.9391E+06     52.0739E+06    -101.969E+03    -116.657E-03     219.302E-03    -102.645E-03     38.6089E-03    -117.019E-03     219.563E-03    -102.404E-03     37.3339E-03
            2254     11.3846E-03     12.9061E-03    -27.1625E+06     4.87431E+06     43.7886E+06    -570.430E+03    -116.310E-03     217.965E-03    -101.655E-03     35.5924E-03    -116.623E-03     218.072E-03    -101.403E-03     34.4207E-03
            2255     10.5832E-03     12.8520E-03    -32.4973E+06    -19.7838E+06     35.2515E+06    -512.202E+03    -115.274E-03     215.824E-03    -100.551E-03     31.6771E-03    -115.548E-03     215.811E-03    -100.298E-03     30.6175E-03
            2256     9.78082E-03     12.8011E-03    -38.1940E+06    -41.8336E+06     27.1338E+06    -354.961E+03    -113.659E-03     213.025E-03    -99.3665E-03     27.3717E-03    -113.902E-03     212.906E-03    -99.1148E-03     26.4227E-03
            2257     8.97698E-03     12.7540E-03    -44.0831E+06    -59.8030E+06     19.1263E+06    -177.415E+03    -111.567E-03     209.692E-03    -98.1250E-03     23.0805E-03    -111.788E-03     209.489E-03    -97.8788E-03     22.2376E-03
            2258     8.17136E-03     12.7113E-03    -50.2378E+06    -77.1114E+06     10.5970E+06     34.2272E+03    -109.110E-03     205.966E-03    -96.8555E-03     19.0255E-03    -109.312E-03     205.685E-03    -96.6178E-03     18.2830E-03
            2259     7.36365E-03     12.6732E-03    -56.6968E+06    -93.6441E+06     1.40049E+06     232.758E+03    -106.396E-03     201.981E-03    -95.5851E-03     15.3674E-03    -106.583E-03     201.630E-03    -95.3601E-03     14.7194E-03
            2260     6.55367E-03     12.6395E-03    -63.4812E+06    -109.968E+06    -8.69369E+06     407.304E+03    -103.540E-03     197.882E-03    -94.3418E-03     12.1889E-03    -103.714E-03     197.465E-03    -94.1338E-03     11.6294E-03
            2261     5.74132E-03     12.6103E-03    -70.6071E+06    -126.547E+06    -19.9389E+06     566.573E+03    -100.659E-03     193.812E-03    -93.1528E-03     9.50320E-03    -100.821E-03     193.332E-03    -92.9666E-03     9.02721E-03
            2262     4.92660E-03     12.5854E-03    -78.0307E+06    -143.502E+06    -32.6350E+06     670.929E+03    -97.8635E-03     189.907E-03    -92.0434E-03     7.27883E-03    -98.0136E-03     189.365E-03    -91.8853E-03     6.88137E-03
            2263     4.10961E-03     12.5646E-03    -85.6239E+06    -160.885E+06    -47.0201E+06     670.371E+03    -95.2633E-03     186.301E-03    -91.0379E-03     5.46184E-03    -95.4006E-03     185.700E-03    -90.9156E-03     5.13798E-03
            2264     3.29052E-03     12.5478E-03    -93.1222E+06    -178.779E+06    -63.0327E+06     581.960E+03    -92.9654E-03     183.125E-03    -90.1598E-03     3.98361E-03    -93.0872E-03     182.464E-03    -90.0807E-03     3.72900E-03
            2265     2.46962E-03     12.5347E-03    -100.063E+06    -196.499E+06    -79.7823E+06     424.967E+03    -91.0633E-03     180.495E-03    -89.4321E-03     2.77204E-03    -91.1670E-03     179.777E-03    -89.4010E-03     2.58288E-03
            2266     1.64729E-03     12.5253E-03    -105.829E+06    -212.311E+06    -95.2851E+06     240.153E+03    -89.6332E-03     178.510E-03    -88.8770E-03     1.75930E-03    -89.7184E-03     177.742E-03    -88.8922E-03     1.63247E-03
            2267     823.926E-06     12.5196E-03    -109.728E+06    -223.843E+06    -106.678E+06     78.5933E+03    -88.7574E-03     177.240E-03    -88.4822E-03     910.034E-06    -88.8277E-03     176.434E-03    -88.5319E-03     840.853E-06
            2268     15.3957E-03     11.9794E-03    -5.18480E+06     99.0989E+06     89.2222E+06    -449.453E+03    -115.118E-03     220.386E-03    -105.268E-03     26.8050E-03    -115.525E-03     220.868E-03    -104.958E-03     25.4176E-03
            2269     14.5943E-03     11.9385E-03    -9.56926E+06     91.8303E+06     77.6848E+06    -682.777E+03    -116.819E-03     221.428E-03    -104.609E-03     35.7834E-03    -117.262E-03     221.937E-03    -104.340E-03     34.2031E-03
            2270     13.7942E-03     11.8898E-03    -12.5329E+06     90.7042E+06     70.4641E+06     457.966E+03    -118.185E-03     221.989E-03    -103.804E-03     38.6146E-03    -118.629E-03     222.506E-03    -103.565E-03     37.1224E-03
            2271     12.9950E-03     11.8360E-03    -15.7541E+06     74.9927E+06     63.6215E+06     1.53132E+06    -118.955E-03     221.817E-03    -102.863E-03     38.5310E-03    -119.375E-03     222.263E-03    -102.630E-03     37.1275E-03
            2272     12.1961E-03     11.7810E-03    -20.6638E+06     38.1376E+06     52.8752E+06     892.869E+03    -118.990E-03     220.774E-03    -101.784E-03     36.0887E-03    -119.350E-03     221.043E-03    -101.545E-03     34.7819E-03
            2273     11.3971E-03     11.7271E-03    -26.4889E+06     5.30858E+06     43.8194E+06     228.620E+03    -118.188E-03     218.769E-03    -100.581E-03     32.3951E-03    -118.498E-03     218.877E-03    -100.331E-03     31.1925E-03
            2274     10.5971E-03     11.6761E-03    -32.2145E+06    -19.4504E+06     35.1932E+06     230.171E+03    -116.624E-03     215.892E-03    -99.2679E-03     28.0381E-03    -116.897E-03     215.880E-03    -99.0170E-03     26.9483E-03
            2275     9.79564E-03     11.6289E-03    -37.8569E+06    -41.6014E+06     27.1494E+06     260.596E+03    -114.442E-03     212.328E-03    -97.8864E-03     23.5338E-03    -114.684E-03     212.210E-03    -97.6354E-03     22.5530E-03
            2276     8.99231E-03     11.5862E-03    -43.6873E+06    -59.6261E+06     19.2674E+06     323.965E+03    -111.767E-03     208.232E-03    -96.4648E-03     19.2795E-03    -111.987E-03     208.030E-03    -96.2187E-03     18.4033E-03
            2277     8.18669E-03     11.5482E-03    -49.7604E+06    -76.9294E+06     10.9164E+06     409.706E+03    -108.747E-03     203.785E-03    -95.0376E-03     15.4843E-03    -108.949E-03     203.506E-03    -94.7994E-03     14.7075E-03
            2278     7.37853E-03     11.5151E-03    -56.0991E+06    -93.4049E+06     1.96335E+06     471.807E+03    -105.529E-03     199.165E-03    -93.6353E-03     12.2582E-03    -105.716E-03     198.815E-03    -93.4087E-03     11.5754E-03
            2279     6.56769E-03     11.4865E-03    -62.7421E+06    -109.725E+06    -7.83069E+06     518.018E+03    -102.254E-03     194.540E-03    -92.2863E-03     9.61113E-03    -102.428E-03     194.125E-03    -92.0754E-03     9.01751E-03
            2280     5.75414E-03     11.4623E-03    -69.6889E+06    -126.238E+06    -18.7094E+06     534.437E+03    -99.0430E-03     190.059E-03    -91.0159E-03     7.49255E-03    -99.2042E-03     189.579E-03    -90.8253E-03     6.98350E-03
            2281     4.93797E-03     11.4422E-03    -76.9045E+06    -143.086E+06    -30.9752E+06     475.566E+03    -96.0043E-03     185.850E-03    -89.8460E-03     5.81922E-03    -96.1534E-03     185.308E-03    -89.6819E-03     5.39023E-03
            2282     4.11932E-03     11.4258E-03    -84.3101E+06    -160.393E+06    -44.9469E+06     359.084E+03    -93.2356E-03     182.032E-03    -88.7963E-03     4.48900E-03    -93.3712E-03     181.429E-03    -88.6662E-03     4.13624E-03
            2283     3.29846E-03     11.4128E-03    -91.7106E+06    -178.241E+06    -60.6494E+06     182.321E+03    -90.8221E-03     178.707E-03    -87.8852E-03     3.40414E-03    -90.9419E-03     178.045E-03    -87.7970E-03     3.12403E-03
            2284     2.47570E-03     11.4029E-03    -98.7077E+06    -196.016E+06    -77.3891E+06    -30.0853E+03    -88.8377E-03     175.969E-03    -87.1314E-03     2.47953E-03    -88.9392E-03     175.249E-03    -87.0910E-03     2.26900E-03
            2285     1.65140E-03     11.3960E-03    -104.650E+06    -212.029E+06    -93.3172E+06    -206.391E+03    -87.3463E-03     173.901E-03    -86.5550E-03     1.64679E-03    -87.4290E-03     173.130E-03    -86.5624E-03     1.50367E-03
            2286     826.015E-06     11.3918E-03    -108.774E+06    -223.952E+06    -105.357E+06    -233.644E+03    -86.4304E-03     172.574E-03    -86.1440E-03     886.414E-06    -86.4976E-03     171.766E-03    -86.1883E-03     807.488E-06
            2287     15.3979E-03     10.7956E-03    -4.88679E+06     99.9098E+06     89.9534E+06    -202.927E+03    -117.861E-03     222.987E-03    -105.126E-03     27.5535E-03    -118.275E-03     223.477E-03    -104.814E-03     26.1067E-03
            2288     14.5988E-03     10.7537E-03    -10.1655E+06     92.3937E+06     77.2477E+06    -984.494E+03    -119.711E-03     224.011E-03    -104.300E-03     35.9247E-03    -120.164E-03     224.533E-03    -104.033E-03     34.2669E-03
            2289     13.8010E-03     10.7044E-03    -15.3424E+06     88.8676E+06     68.2107E+06    -1.53549E+06    -121.075E-03     224.381E-03    -103.306E-03     37.8810E-03    -121.533E-03     224.903E-03    -103.072E-03     36.2897E-03
            2290     13.0041E-03     10.6512E-03    -19.3594E+06     73.7137E+06     61.5783E+06    -541.032E+03    -121.595E-03     223.758E-03    -102.163E-03     36.8516E-03    -122.032E-03     224.210E-03    -101.934E-03     35.3527E-03
            2291     12.2074E-03     10.5981E-03    -23.0191E+06     39.1865E+06     52.0854E+06     824.586E+03    -121.168E-03     222.046E-03    -100.878E-03     33.5882E-03    -121.543E-03     222.328E-03    -100.641E-03     32.2173E-03
            2292     11.4099E-03     10.5472E-03    -27.5240E+06     6.22834E+06     43.5605E+06     900.469E+03    -119.778E-03     219.253E-03    -99.4754E-03     29.3088E-03    -120.097E-03     219.371E-03    -99.2268E-03     28.0542E-03
            2293     10.6111E-03     10.5001E-03    -32.6022E+06    -18.9979E+06     35.1578E+06     642.187E+03    -117.543E-03     215.525E-03    -97.9816E-03     24.7010E-03    -117.822E-03     215.519E-03    -97.7310E-03     23.5570E-03
            2294     9.81022E-03     10.4576E-03    -37.9389E+06    -41.1701E+06     27.3807E+06     664.237E+03    -114.652E-03     211.099E-03    -96.4471E-03     20.3024E-03    -114.899E-03     210.987E-03    -96.1955E-03     19.2694E-03
            2295     9.00686E-03     10.4202E-03    -43.5602E+06    -59.1845E+06     19.7948E+06     601.981E+03    -111.299E-03     206.207E-03    -94.9089E-03     16.4573E-03    -111.524E-03     206.011E-03    -94.6609E-03     15.5311E-03
            2296     8.20067E-03     10.3878E-03    -49.4141E+06    -76.4819E+06     11.8039E+06     488.613E+03    -107.699E-03     201.105E-03    -93.4061E-03     13.2879E-03    -107.905E-03     200.831E-03    -93.1646E-03     12.4638E-03
            2297     7.39146E-03     10.3604E-03    -55.4995E+06    -92.9581E+06     3.30964E+06     339.622E+03    -104.037E-03     196.006E-03    -91.9697E-03     10.7939E-03    -104.227E-03     195.660E-03    -91.7379E-03     10.0672E-03
            2298     6.57923E-03     10.3374E-03    -61.8317E+06    -109.309E+06    -5.95368E+06     168.966E+03    -100.462E-03     191.088E-03    -90.6253E-03     8.88974E-03    -100.638E-03     190.674E-03    -90.4070E-03     8.25600E-03
            2299     5.76408E-03     10.3186E-03    -68.4291E+06    -125.762E+06    -16.2662E+06    -62.7862E+03    -97.0971E-03     186.490E-03    -89.3928E-03     7.44993E-03    -97.2594E-03     186.010E-03    -89.1925E-03     6.90444E-03
            2300     4.94619E-03     10.3034E-03    -75.2875E+06    -142.654E+06    -27.9600E+06    -335.263E+03    -94.0340E-03     182.321E-03    -88.2873E-03     6.32781E-03    -94.1825E-03     181.777E-03    -88.1111E-03     5.86634E-03
            2301     4.12586E-03     10.2914E-03    -82.3902E+06    -160.073E+06    -41.4367E+06    -563.812E+03    -91.3420E-03     178.662E-03    -87.3199E-03     5.38604E-03    -91.4754E-03     178.055E-03    -87.1756E-03     5.00567E-03
            2302     3.30339E-03     10.2822E-03    -89.6287E+06    -178.042E+06    -57.0141E+06    -709.892E+03    -89.0761E-03     175.576E-03    -86.4995E-03     4.50174E-03    -89.1923E-03     174.907E-03    -86.3964E-03     4.20003E-03
            2303     2.47915E-03     10.2755E-03    -96.6802E+06    -196.080E+06    -74.2446E+06    -724.752E+03    -87.2803E-03     173.115E-03    -85.8346E-03     3.57094E-03    -87.3769E-03     172.388E-03    -85.7813E-03     3.34582E-03
            2304     1.65355E-03     10.2709E-03    -102.962E+06    -212.444E+06    -91.1549E+06    -535.940E+03    -85.9836E-03     171.319E-03    -85.3356E-03     2.52997E-03    -86.0606E-03     170.541E-03    -85.3340E-03     2.37998E-03
            2305     827.014E-06     10.2682E-03    -107.594E+06    -224.623E+06    -104.122E+06    -239.803E+03    -85.2131E-03     170.204E-03    -84.9910E-03     1.42245E-03    -85.2752E-03     169.389E-03    -85.0299E-03     1.34255E-03
            2306     15.4002E-03     9.60855E-03    -4.99872E+06     100.292E+06     90.3730E+06    -44.1474E+03    -120.851E-03     225.826E-03    -104.975E-03     28.3981E-03    -121.275E-03     226.326E-03    -104.661E-03     26.8780E-03
            2307     14.6035E-03     9.56560E-03    -9.98364E+06     93.3650E+06     77.8179E+06    -248.650E+03    -122.776E-03     226.751E-03    -103.975E-03     36.1198E-03    -123.240E-03     227.285E-03    -103.706E-03     34.3829E-03
            2308     13.8083E-03     9.51610E-03    -15.1661E+06     89.7196E+06     68.3397E+06    -1.04200E+06    -123.945E-03     226.732E-03    -102.787E-03     37.0920E-03    -124.412E-03     227.266E-03    -102.554E-03     35.4202E-03
            2309     13.0136E-03     9.46420E-03    -20.4391E+06     72.4550E+06     60.5530E+06    -1.78047E+06    -124.039E-03     225.485E-03    -101.446E-03     35.0194E-03    -124.485E-03     225.940E-03    -101.219E-03     33.4205E-03
            2310     12.2186E-03     9.41370E-03    -24.6287E+06     37.8376E+06     51.2110E+06    -1.06770E+06    -122.969E-03     222.944E-03    -99.9743E-03     30.9511E-03    -123.355E-03     223.228E-03    -99.7374E-03     29.4735E-03
            2311     11.4225E-03     9.36677E-03    -28.2827E+06     6.45166E+06     43.6442E+06     154.181E+03    -120.749E-03     219.159E-03    -98.4100E-03     26.3226E-03    -121.079E-03     219.285E-03    -98.1602E-03     24.9797E-03
            2312     10.6242E-03     9.32466E-03    -32.8236E+06    -18.6487E+06     35.6554E+06     659.432E+03    -117.617E-03     214.413E-03    -96.7961E-03     21.9124E-03    -117.905E-03     214.416E-03    -96.5432E-03     20.6968E-03
            2313     9.82319E-03     9.28798E-03    -38.0147E+06    -40.5440E+06     28.3601E+06     641.503E+03    -113.887E-03     209.082E-03    -95.1952E-03     18.1483E-03    -114.143E-03     208.978E-03    -94.9395E-03     17.0526E-03
            2314     9.01896E-03     9.25677E-03    -43.3648E+06    -58.4611E+06      21.312E+06     349.200E+03    -109.853E-03     203.502E-03    -93.6489E-03     15.2050E-03    -110.087E-03     203.313E-03    -93.3947E-03     14.2239E-03
            2315     8.21133E-03     9.23076E-03    -48.8562E+06    -75.7536E+06     13.9424E+06    -68.7110E+03    -105.780E-03     197.975E-03    -92.1949E-03     13.0296E-03    -105.994E-03     197.707E-03    -91.9445E-03     12.1576E-03
            2316     7.40036E-03     9.20943E-03    -54.4917E+06    -92.2806E+06     6.15006E+06    -565.142E+03    -101.858E-03     192.717E-03    -90.8591E-03     11.4917E-03    -102.054E-03     192.374E-03    -90.6155E-03     10.7236E-03
            2317     6.58620E-03     9.19229E-03    -60.2988E+06    -108.723E+06    -2.36420E+06    -1.10614E+06    -98.2309E-03     187.890E-03    -89.6592E-03     10.4046E-03    -98.4099E-03     187.476E-03    -89.4260E-03     9.73501E-03
            2318     5.76910E-03     9.17871E-03    -66.3198E+06    -125.268E+06    -11.9085E+06    -1.65631E+06    -94.9961E-03     183.601E-03    -88.6052E-03     9.56824E-03    -95.1587E-03     183.119E-03    -88.3870E-03     8.99206E-03
            2319     4.94946E-03     9.16818E-03    -72.6436E+06    -142.427E+06    -23.1033E+06    -2.14532E+06    -92.2114E-03     179.912E-03    -87.7004E-03     8.80156E-03    -92.3569E-03     179.361E-03    -87.5040E-03     8.31420E-03
            2320     4.12761E-03     9.16019E-03    -79.3098E+06    -160.390E+06    -36.7377E+06    -2.34641E+06    -89.9098E-03     176.852E-03    -86.9419E-03     7.94697E-03    -90.0361E-03     176.234E-03    -86.7780E-03     7.54650E-03
            2321     3.30400E-03     9.15429E-03    -86.2732E+06    -178.894E+06    -53.2035E+06    -2.05437E+06    -88.1017E-03     174.425E-03    -86.3237E-03     6.88010E-03    -88.2067E-03     173.743E-03    -86.2053E-03     6.56690E-03
            2322     2.47904E-03     9.15010E-03    -93.2914E+06    -197.437E+06    -71.5433E+06    -1.23445E+06    -86.7751E-03     172.616E-03    -85.8413E-03     5.53290E-03    -86.8574E-03     171.874E-03    -85.7775E-03     5.30763E-03
            2323     1.65315E-03     9.14732E-03    -99.6687E+06    -213.599E+06    -88.8003E+06    -218.070E+03    -85.8879E-03     171.380E-03    -85.4923E-03     3.91731E-03    -85.9505E-03     170.588E-03    -85.4820E-03     3.77663E-03
            2324     826.721E-06     9.14569E-03    -104.324E+06    -224.823E+06    -101.286E+06     312.305E+03    -85.3887E-03     170.653E-03    -85.2643E-03     2.18954E-03    -85.4384E-03     169.828E-03    -85.2935E-03     2.11987E-03
            2325     15.4025E-03     8.41796E-03    -5.01513E+06     100.455E+06     91.1943E+06     134.397E+03    -123.943E-03     228.763E-03    -104.820E-03     29.2794E-03    -124.377E-03     229.271E-03    -104.502E-03     27.6745E-03
            2326     14.6085E-03     8.37408E-03    -9.82649E+06     94.1191E+06     78.8563E+06    -322.067E+03    -125.853E-03     229.496E-03    -103.642E-03     36.2414E-03    -126.331E-03     230.043E-03    -103.370E-03     34.4018E-03
            2327     13.8156E-03     8.32496E-03    -13.9736E+06     91.2647E+06     69.7508E+06    -1.24977E+06    -126.704E-03     228.969E-03    -102.266E-03     35.9778E-03    -127.178E-03     229.516E-03    -102.029E-03     34.2016E-03
            2328     13.0230E-03     8.27504E-03    -17.7489E+06     73.1772E+06     62.2751E+06    -2.12863E+06    -126.054E-03     226.799E-03    -100.745E-03     32.7311E-03    -126.498E-03     227.260E-03    -100.514E-03     31.0263E-03
            2329     12.2295E-03     8.22831E-03    -22.3340E+06     35.8797E+06     52.1951E+06    -1.73167E+06    -123.903E-03     223.034E-03    -99.1313E-03     28.1891E-03    -124.284E-03     223.312E-03    -98.8899E-03     26.6088E-03
            2330     11.4338E-03     8.18674E-03    -27.7171E+06     5.16092E+06     44.5695E+06    -257.206E+03    -120.505E-03     217.990E-03    -97.4849E-03     23.8941E-03    -120.840E-03     218.116E-03    -97.2294E-03     22.4663E-03
            2331     10.6350E-03     8.15097E-03    -32.9570E+06    -18.1155E+06     37.3521E+06     345.128E+03    -116.323E-03     212.186E-03    -95.8627E-03     20.3963E-03    -116.623E-03     212.197E-03    -95.6018E-03     19.1153E-03
            2332     9.83260E-03     8.12117E-03    -37.9097E+06    -39.6293E+06     30.7810E+06    -70.7131E+03    -111.800E-03     206.129E-03    -94.3293E-03     17.8523E-03    -112.069E-03     206.034E-03    -94.0630E-03     16.7043E-03
            2333     9.02635E-03     8.09686E-03    -42.7960E+06    -57.3504E+06     24.5244E+06    -831.134E+03    -107.281E-03     200.202E-03    -92.9211E-03     16.1926E-03    -107.526E-03     200.021E-03    -92.6532E-03     15.1703E-03
            2334     8.21643E-03     8.07743E-03    -47.6690E+06    -74.7558E+06     18.0157E+06    -1.75296E+06    -103.031E-03     194.697E-03    -91.6658E-03     15.1829E-03    -103.252E-03     194.432E-03    -91.3982E-03     14.2787E-03
            2335     7.40305E-03     8.06221E-03    -52.5956E+06    -91.3466E+06     11.1567E+06    -2.76053E+06    -99.2166E-03     189.792E-03    -90.5753E-03     14.5523E-03    -99.4169E-03     189.449E-03    -90.3108E-03     13.7583E-03
            2336     6.58663E-03     8.05044E-03    -57.6265E+06    -108.115E+06     3.41400E+06    -3.78813E+06    -95.9327E-03     185.584E-03    -89.6514E-03     14.0291E-03    -96.1117E-03     185.165E-03    -89.3940E-03     13.3373E-03
            2337     5.76767E-03     8.04151E-03    -62.8875E+06    -125.094E+06    -6.01358E+06    -4.62963E+06    -93.2152E-03     182.101E-03    -88.8857E-03     13.3935E-03    -93.3724E-03     181.608E-03    -88.6432E-03     12.7975E-03
            2338     4.94659E-03     8.03482E-03    -68.5520E+06    -143.103E+06    -18.2574E+06    -4.99858E+06    -91.0668E-03     179.330E-03    -88.2633E-03     12.4742E-03    -91.1998E-03     178.765E-03    -88.0477E-03     11.9709E-03
            2339     4.12394E-03     8.02988E-03    -74.7881E+06    -162.262E+06    -33.8915E+06    -4.49376E+06    -89.4521E-03     177.218E-03    -87.7658E-03     11.1713E-03    -89.5585E-03     176.581E-03    -87.5915E-03     10.7627E-03
            2340     3.30014E-03     8.02629E-03    -81.5664E+06    -181.765E+06    -52.0083E+06    -2.95089E+06    -88.3052E-03     175.683E-03    -87.3774E-03     9.46640E-03    -88.3850E-03     174.978E-03    -87.2556E-03     9.15769E-03
            2341     2.47561E-03     8.02373E-03    -88.4187E+06    -200.292E+06    -70.1152E+06    -820.158E+03    -87.5414E-03     174.629E-03    -87.0871E-03     7.41292E-03    -87.5977E-03     173.863E-03    -87.0191E-03     7.20459E-03
            2342     1.65063E-03     8.02199E-03    -94.4160E+06    -214.639E+06    -85.5045E+06     759.372E+03    -87.0661E-03     173.949E-03    -86.8828E-03     5.12429E-03    -87.1060E-03     173.139E-03    -86.8622E-03     5.00352E-03
            2343     825.368E-06     8.02098E-03    -98.5039E+06    -223.521E+06    -96.0568E+06     1.04126E+06    -86.8025E-03     173.559E-03    -86.7568E-03     2.81611E-03    -86.8327E-03     172.725E-03    -86.7702E-03     2.75956E-03
            2344     15.4051E-03     7.22384E-03    -4.47892E+06     100.737E+06     92.4684E+06    -177.390E+03    -127.141E-03     231.799E-03    -104.659E-03     30.0106E-03    -127.585E-03     232.317E-03    -104.336E-03     28.3032E-03
            2345     14.6134E-03     7.17923E-03    -8.64372E+06     95.5129E+06     81.2073E+06    -1.06263E+06    -128.866E-03     232.171E-03    -103.306E-03     35.7975E-03    -129.355E-03     232.734E-03    -103.025E-03     33.8267E-03
            2346     13.8230E-03     7.13092E-03    -12.3365E+06     93.0542E+06     72.4400E+06    -2.71142E+06    -128.883E-03     230.642E-03    -101.759E-03     34.1851E-03    -129.367E-03     231.203E-03    -101.514E-03     32.2709E-03
            2347     13.0321E-03     7.08442E-03    -16.6970E+06     72.2037E+06     63.9917E+06    -2.54551E+06    -126.847E-03     226.962E-03    -100.116E-03     30.3335E-03    -127.297E-03     227.425E-03    -99.8761E-03     28.5217E-03
            2348     12.2388E-03     7.04343E-03    -22.4238E+06     33.7008E+06     53.5897E+06    -375.677E+03    -123.166E-03     221.626E-03    -98.4600E-03     26.2112E-03    -123.556E-03     221.901E-03    -98.2084E-03     24.5736E-03
            2349     11.4420E-03     7.00878E-03    -28.3351E+06     5.36097E+06     46.9212E+06     112.220E+03    -118.445E-03     215.313E-03    -96.8677E-03     23.0928E-03    -118.796E-03     215.446E-03    -96.5998E-03     21.6256E-03
            2350     10.6411E-03     6.98059E-03    -33.2472E+06    -17.0403E+06     40.7133E+06    -922.841E+03    -113.348E-03     208.742E-03    -95.3942E-03     21.1258E-03    -113.665E-03     208.763E-03    -95.1178E-03     19.8121E-03
            2351     9.83587E-03     6.95828E-03    -37.4494E+06    -38.1282E+06     35.2295E+06    -2.09285E+06    -108.372E-03     202.463E-03    -94.0911E-03     20.1349E-03    -108.654E-03     202.376E-03    -93.8054E-03     18.9687E-03
            2352     9.02663E-03     6.94099E-03    -41.4368E+06    -55.8328E+06     30.0138E+06    -3.60446E+06    -103.846E-03     196.820E-03    -92.9745E-03     19.7811E-03    -104.100E-03     196.642E-03    -92.6834E-03     18.7506E-03
            2353     8.21372E-03     6.92783E-03    -45.2978E+06    -73.5323E+06     24.3739E+06    -5.18757E+06    -99.9710E-03     192.020E-03    -92.0485E-03     19.6193E-03    -100.196E-03     191.752E-03    -91.7543E-03     18.7117E-03
            2354     7.39781E-03     6.91789E-03    -49.1243E+06    -90.4198E+06     17.8046E+06    -6.74981E+06    -96.8035E-03     188.103E-03    -91.2993E-03     19.3157E-03    -96.9998E-03     187.752E-03    -91.0079E-03     18.5176E-03
            2355     6.57950E-03     6.91048E-03    -53.1728E+06    -108.113E+06     8.85673E+06    -7.94514E+06    -94.3329E-03     185.037E-03    -90.7040E-03     18.6403E-03    -94.4987E-03     184.605E-03    -90.4258E-03     17.9420E-03
            2356     5.75935E-03     6.90495E-03    -57.7937E+06    -126.262E+06    -3.38202E+06    -8.31645E+06    -92.4942E-03     182.729E-03    -90.2353E-03     17.4732E-03    -92.6285E-03     182.220E-03    -89.9853E-03     16.8717E-03
            2357     4.93798E-03     6.90082E-03    -63.3035E+06    -146.011E+06    -19.1150E+06    -7.45102E+06    -91.1960E-03     181.065E-03    -89.8689E-03     15.7932E-03    -91.2974E-03     180.479E-03    -89.6610E-03     15.2921E-03
            2358     4.11576E-03     6.89772E-03    -69.7584E+06    -166.648E+06    -36.7962E+06    -5.17833E+06    -90.3224E-03     179.909E-03    -89.5864E-03     13.6685E-03    -90.3931E-03     179.247E-03    -89.4276E-03     13.2759E-03
            2359     3.29304E-03     6.89539E-03    -76.7643E+06    -186.679E+06    -54.1527E+06    -1.98690E+06    -89.7572E-03     179.131E-03    -89.3737E-03     11.2143E-03    -89.8027E-03     178.398E-03    -89.2624E-03     10.9349E-03
            2360     2.47002E-03     6.89366E-03    -83.4764E+06    -203.356E+06    -69.6596E+06     902.484E+03    -89.3988E-03     178.613E-03    -89.2146E-03     8.55549E-03    -89.4266E-03     177.825E-03    -89.1470E-03     8.38003E-03
            2361     1.64678E-03     6.89247E-03    -88.8362E+06    -214.234E+06    -82.1592E+06     2.11801E+06    -89.1730E-03     178.270E-03    -89.0975E-03     5.80836E-03    -89.1904E-03     177.450E-03    -89.0689E-03     5.71125E-03
            2362     823.438E-06     6.89175E-03    -92.1786E+06    -220.452E+06    -90.4228E+06     1.69642E+06    -89.0300E-03     178.065E-03    -89.0350E-03     3.15953E-03    -89.0413E-03     177.228E-03    -89.0338E-03     3.11443E-03
            2363     15.4077E-03     6.02588E-03    -4.00691E+06     101.818E+06     94.7806E+06    -1.43872E+06    -130.312E-03     234.804E-03    -104.492E-03     30.4513E-03    -130.770E-03     235.335E-03    -104.160E-03     28.6212E-03
            2364     14.6190E-03     5.98080E-03    -7.46574E+06     96.8587E+06     83.5428E+06    -2.70693E+06    -131.155E-03     234.135E-03    -102.980E-03     35.1894E-03    -131.659E-03     234.714E-03    -102.692E-03     33.0715E-03
            2365     13.8302E-03     5.93522E-03    -12.4003E+06     92.9207E+06     73.3162E+06    -2.35051E+06    -129.456E-03     230.785E-03    -101.329E-03     32.6988E-03    -129.954E-03     231.357E-03    -101.079E-03     30.6888E-03
            2366     13.0389E-03     5.89459E-03    -19.5572E+06     69.6057E+06     64.5229E+06    -486.375E+03    -125.454E-03     225.144E-03    -99.6905E-03     29.1276E-03    -125.926E-03     225.608E-03    -99.4405E-03     27.2899E-03
            2367     12.2439E-03     5.86116E-03    -25.8244E+06     33.4117E+06     55.8879E+06    -121.835E+03    -120.151E-03     218.309E-03    -98.1576E-03     26.3012E-03    -120.570E-03     218.593E-03    -97.8892E-03     24.6590E-03
            2368     11.4441E-03     5.83494E-03    -29.7885E+06     7.90156E+06     51.4718E+06    -1.74153E+06    -114.392E-03     211.188E-03    -96.7962E-03     25.0015E-03    -114.766E-03     211.336E-03    -96.5071E-03     23.5450E-03
            2369     10.6395E-03     5.81484E-03    -33.1013E+06    -14.8848E+06     46.2981E+06    -4.00213E+06    -108.968E-03     204.608E-03    -95.6394E-03     24.7905E-03    -109.298E-03     204.634E-03    -95.3383E-03     23.5053E-03
            2370     9.83045E-03     5.79993E-03    -36.1438E+06    -36.0896E+06     41.5855E+06    -6.31965E+06    -104.315E-03     199.018E-03    -94.7033E-03     25.0117E-03    -104.603E-03     198.930E-03    -94.3906E-03     23.8805E-03
            2371     9.01768E-03     5.78883E-03    -38.7460E+06    -54.1834E+06     36.3502E+06    -8.55879E+06    -100.574E-03     194.539E-03    -93.9652E-03     25.1096E-03    -100.824E-03     194.355E-03    -93.6487E-03     24.1122E-03
            2372     8.20218E-03     5.78058E-03    -41.2102E+06    -72.5609E+06     29.1246E+06    -10.6038E+06    -97.7287E-03     191.125E-03    -93.3959E-03     24.7155E-03    -97.9381E-03     190.846E-03    -93.0853E-03     23.8311E-03
            2373     7.38465E-03     5.77443E-03    -44.0052E+06    -90.7963E+06     18.7476E+06    -11.8411E+06    -95.6666E-03     188.624E-03    -92.9578E-03     23.7039E-03    -95.8347E-03     188.260E-03    -92.6686E-03     22.9215E-03
            2374     6.56573E-03     5.76978E-03    -47.7856E+06    -110.319E+06     5.06427E+06    -11.7075E+06    -94.2459E-03     186.867E-03    -92.6212E-03     22.0655E-03    -94.3729E-03     186.418E-03    -92.3666E-03     21.3842E-03
            2375     5.74601E-03     5.76618E-03    -53.0141E+06    -130.421E+06    -11.0565E+06    -9.97759E+06    -93.3036E-03     185.664E-03    -92.3606E-03     19.9116E-03    -93.3941E-03     185.135E-03    -92.1499E-03     19.3380E-03
            2376     4.92574E-03     5.76338E-03    -59.5629E+06    -151.765E+06    -28.0549E+06    -6.86510E+06    -92.6984E-03     184.859E-03    -92.1603E-03     17.3839E-03    -92.7578E-03     184.249E-03    -91.9941E-03     16.9255E-03
            2377     4.10516E-03     5.76118E-03    -66.7159E+06    -173.070E+06    -43.8495E+06    -2.92095E+06    -92.3126E-03     184.321E-03    -92.0088E-03     14.6266E-03    -92.3471E-03     183.631E-03    -91.8803E-03     14.2875E-03
            2378     3.28436E-03     5.75947E-03    -73.6273E+06    -191.792E+06    -57.6131E+06     945.582E+03    -92.0604E-03     183.952E-03    -91.8920E-03     11.7534E-03    -92.0769E-03     183.193E-03    -91.7952E-03     11.5283E-03
            2379     2.46341E-03     5.75818E-03    -79.4087E+06    -204.600E+06    -69.4855E+06     3.22611E+06    -91.8841E-03     183.679E-03    -91.7951E-03     8.84422E-03    -91.8895E-03     182.877E-03    -91.7307E-03     8.70944E-03
            2380     1.64235E-03     5.75728E-03    -83.4279E+06    -211.722E+06    -78.8397E+06     3.36034E+06    -91.7581E-03     183.476E-03    -91.7176E-03     5.95521E-03    -91.7567E-03     182.655E-03    -91.6839E-03     5.88055E-03
            2381     821.182E-06     5.75677E-03    -85.7196E+06    -215.805E+06    -84.5435E+06     2.22320E+06    -91.6535E-03     183.349E-03    -91.6950E-03     3.22405E-03    -91.6477E-03     182.517E-03    -91.6805E-03     3.18898E-03
            2382     15.4109E-03     4.82435E-03    -5.17629E+06     104.924E+06     94.7060E+06    -2.13209E+06    -132.545E-03     236.903E-03    -104.358E-03     31.6490E-03    -133.026E-03     237.464E-03    -104.029E-03     29.7249E-03
            2383     14.6233E-03     4.78027E-03    -10.7707E+06     96.9127E+06     80.3614E+06    -3.36537E+06    -131.502E-03     234.265E-03    -102.763E-03     35.8954E-03    -132.034E-03     234.870E-03    -102.486E-03     33.6989E-03
            2384     13.8340E-03     4.74061E-03    -16.7124E+06     87.5533E+06     70.7853E+06    -466.339E+03    -127.512E-03     228.671E-03    -101.160E-03     32.8715E-03    -128.033E-03     229.240E-03    -100.908E-03     30.8633E-03
            2385     13.0404E-03     4.70815E-03    -22.4246E+06     70.6430E+06     67.1945E+06     1.11256E+06    -121.397E-03     221.107E-03    -99.7096E-03     30.4497E-03    -121.895E-03     221.582E-03    -99.4436E-03     28.6898E-03
            2386     12.2413E-03     4.68404E-03    -26.8499E+06     37.9636E+06     61.1880E+06    -2.62760E+06    -114.971E-03     213.455E-03    -98.4843E-03     29.6172E-03    -115.408E-03     213.755E-03    -98.1945E-03     28.0638E-03
            2387     11.4368E-03     4.66667E-03    -29.9843E+06     10.7362E+06     56.5388E+06    -6.41835E+06    -109.246E-03     206.751E-03    -97.5057E-03     29.9547E-03    -109.626E-03     206.900E-03    -97.1951E-03     28.5982E-03
            2388     10.6275E-03     4.65414E-03    -32.1524E+06    -11.6269E+06     50.4371E+06    -9.51134E+06    -104.696E-03     201.444E-03    -96.7479E-03     30.3375E-03    -105.022E-03     201.469E-03    -96.4322E-03     29.1555E-03
            2389     9.81483E-03     4.64496E-03    -33.5434E+06    -34.2229E+06     42.7415E+06    -12.7274E+06    -101.353E-03     197.532E-03    -96.1798E-03     30.0926E-03    -101.621E-03     197.436E-03    -95.8678E-03     29.0436E-03
            2390     9.00002E-03     4.63808E-03    -34.7559E+06    -53.4609E+06     32.7180E+06    -14.9154E+06    -98.9971E-03     194.747E-03    -95.7503E-03     29.1085E-03    -99.2111E-03     194.553E-03    -95.4588E-03     28.1723E-03
            2391     8.18370E-03     4.63285E-03    -36.8033E+06    -73.9174E+06     19.6800E+06    -15.6528E+06    -97.4185E-03     192.843E-03    -95.4247E-03     27.4117E-03    -97.5794E-03     192.554E-03    -95.1657E-03     26.5791E-03
            2392     7.36649E-03     4.62872E-03    -40.5356E+06    -94.4936E+06     4.57799E+06    -14.4589E+06    -96.3915E-03     191.565E-03    -95.1737E-03     25.1678E-03    -96.5072E-03     191.188E-03    -94.9550E-03     24.4427E-03
            2393     6.54881E-03     4.62542E-03    -46.0605E+06    -116.128E+06    -11.2548E+06    -11.5649E+06    -95.7355E-03     190.715E-03    -94.9795E-03     22.5655E-03    -95.8145E-03     190.250E-03    -94.8006E-03     21.9553E-03
            2394     5.73073E-03     4.62276E-03    -52.7115E+06    -137.546E+06    -26.2416E+06    -7.48220E+06    -95.3103E-03     190.139E-03    -94.8285E-03     19.7712E-03    -95.3614E-03     189.590E-03    -94.6838E-03     19.2819E-03
            2395     4.91245E-03     4.62060E-03    -59.5656E+06    -158.840E+06    -39.2040E+06    -3.10049E+06    -95.0250E-03     189.738E-03    -94.7127E-03     16.8988E-03    -95.0539E-03     189.104E-03    -94.5921E-03     16.5284E-03
            2396     4.09398E-03     4.61889E-03    -65.9129E+06    -179.192E+06    -49.9304E+06     943.847E+03    -94.8244E-03     189.448E-03    -94.6232E-03     14.0163E-03    -94.8344E-03     188.732E-03    -94.5174E-03     13.7568E-03
            2397     3.27537E-03     4.61755E-03    -71.1706E+06    -194.772E+06    -59.4022E+06     3.86278E+06    -94.6702E-03     189.215E-03    -94.5443E-03     11.1606E-03    -94.6657E-03     188.438E-03    -94.4557E-03     10.9950E-03
            2398     2.45665E-03     4.61656E-03    -74.9341E+06    -203.162E+06    -67.9199E+06     4.75644E+06    -94.5429E-03     189.012E-03    -94.4694E-03     8.35297E-03    -94.5292E-03     188.208E-03    -94.4057E-03     8.25334E-03
            2399     1.63781E-03     4.61589E-03    -77.3017E+06    -207.574E+06    -74.0959E+06     3.94671E+06    -94.4457E-03     188.857E-03    -94.4109E-03     5.60551E-03    -94.4261E-03     188.040E-03    -94.3683E-03     5.54827E-03
            2400     818.945E-06     4.61550E-03    -78.6043E+06    -210.168E+06    -77.7697E+06     2.41284E+06    -94.3405E-03     188.758E-03    -94.4174E-03     3.02863E-03    -94.3169E-03     187.934E-03    -94.3875E-03     3.00119E-03
            2401     15.4111E-03     3.62116E-03    -6.52238E+06     107.668E+06     94.6872E+06    -250.589E+03    -132.873E-03     237.339E-03    -104.466E-03     36.2747E-03    -133.383E-03     237.934E-03    -104.139E-03     34.3600E-03
            2402     14.6228E-03     3.58078E-03    -13.8209E+06     96.8088E+06     78.3652E+06    -1.27879E+06    -129.384E-03     232.309E-03    -102.925E-03     39.3159E-03    -129.945E-03     232.938E-03    -102.654E-03     37.1896E-03
            2403     13.8307E-03     3.54969E-03    -19.2789E+06     82.9767E+06     69.2729E+06    -698.638E+03    -122.834E-03     224.371E-03    -101.537E-03     36.0383E-03    -123.358E-03     224.922E-03    -101.283E-03     34.1733E-03
            2404     13.0321E-03     3.52815E-03    -22.8445E+06     74.9613E+06     65.9910E+06    -1.45214E+06    -115.598E-03     216.013E-03    -100.415E-03     35.0232E-03    -116.085E-03     216.495E-03    -100.161E-03     33.4782E-03
            2405     12.2271E-03     3.51340E-03    -26.0235E+06     45.6417E+06     58.0397E+06    -6.35523E+06    -109.758E-03     209.336E-03    -99.5781E-03     34.9045E-03    -110.172E-03     209.652E-03    -99.3163E-03     33.5910E-03
            2406     11.4178E-03     3.50330E-03    -28.4236E+06     14.0638E+06     49.0820E+06    -11.9612E+06    -105.648E-03     204.616E-03    -98.9675E-03     34.3711E-03    -105.987E-03     204.762E-03    -98.7013E-03     33.2154E-03
            2407     10.6059E-03     3.49559E-03    -29.4956E+06    -8.70996E+06     37.0627E+06    -15.8808E+06    -102.847E-03     201.343E-03    -98.4963E-03     33.0049E-03    -103.118E-03     201.371E-03    -98.2556E-03     31.9749E-03
            2408     9.79265E-03     3.48979E-03    -30.6428E+06    -34.0271E+06     23.7443E+06    -18.2945E+06    -100.997E-03     199.140E-03    -98.1430E-03     30.9258E-03    -101.200E-03     199.044E-03    -97.9305E-03     29.9970E-03
            2409     8.97825E-03     3.48516E-03    -33.2717E+06    -56.1821E+06     9.20904E+06    -18.1897E+06    -99.7803E-03     197.645E-03    -97.8642E-03     28.3971E-03    -99.9288E-03     197.448E-03    -97.6885E-03     27.5722E-03
            2410     8.16330E-03     3.48138E-03    -37.8172E+06    -79.3047E+06    -5.12881E+06    -15.8160E+06    -98.9733E-03     196.620E-03    -97.6471E-03     25.6179E-03    -99.0791E-03     196.325E-03    -97.5030E-03     24.9053E-03
            2411     7.34794E-03     3.47829E-03    -43.7731E+06    -101.852E+06    -18.3571E+06    -11.8940E+06    -98.4168E-03     195.892E-03    -97.4753E-03     22.7747E-03    -98.4917E-03     195.503E-03    -97.3559E-03     22.1811E-03
            2412     6.53218E-03     3.47574E-03    -50.1413E+06    -124.040E+06    -29.7123E+06    -7.33194E+06    -98.0152E-03     195.355E-03    -97.3399E-03     19.9614E-03    -98.0662E-03     194.873E-03    -97.2359E-03     19.4862E-03
            2413     5.71622E-03     3.47365E-03    -56.0361E+06    -144.997E+06    -39.1334E+06    -3.00168E+06    -97.7132E-03     194.945E-03    -97.2317E-03     17.2274E-03    -97.7438E-03     194.375E-03    -97.1359E-03     16.8620E-03
            2414     4.89999E-03     3.47197E-03    -60.9938E+06    -164.745E+06    -46.6999E+06     747.955E+03    -97.4808E-03     194.626E-03    -97.1454E-03     14.5819E-03    -97.4918E-03     193.971E-03    -97.0516E-03     14.3151E-03
            2415     4.08362E-03     3.47064E-03    -64.9299E+06    -182.933E+06    -52.6576E+06     3.53882E+06    -97.2998E-03     194.376E-03    -97.0762E-03     12.0216E-03    -97.2916E-03     193.640E-03    -96.9801E-03     11.8388E-03
            2416     3.26709E-03     3.46963E-03    -67.8414E+06    -195.034E+06    -58.5255E+06     4.99030E+06    -97.1490E-03     194.158E-03    -97.0085E-03     9.53960E-03    -97.1263E-03     193.371E-03    -96.9200E-03     9.42205E-03
            2417     2.45043E-03     3.46889E-03    -69.7927E+06    -200.036E+06    -64.3946E+06     4.91542E+06    -97.0213E-03     193.963E-03    -96.9413E-03     7.12576E-03    -96.9902E-03     193.160E-03    -96.8720E-03     7.05269E-03
            2418     1.63369E-03     3.46840E-03    -70.9815E+06    -202.838E+06    -68.5456E+06     3.77251E+06    -96.9274E-03     193.819E-03    -96.8913E-03     4.77565E-03    -96.8905E-03     193.008E-03    -96.8370E-03     4.73234E-03
            2419     816.846E-06     3.46813E-03    -71.5910E+06    -204.440E+06    -70.9824E+06     2.18646E+06    -96.8083E-03     193.731E-03    -96.9223E-03     2.57865E-03    -96.7676E-03     192.915E-03    -96.8770E-03     2.55693E-03
            2420     15.4021E-03     2.41635E-03    -6.06490E+06     107.250E+06     96.4822E+06     2.04732E+06    -131.724E-03     236.866E-03    -105.142E-03     45.5286E-03    -132.253E-03     237.475E-03    -104.806E-03     43.7281E-03
            2421     14.6122E-03     2.38469E-03    -12.0425E+06     99.6505E+06     78.8084E+06     1.06945E+06    -125.876E-03     229.627E-03    -103.751E-03     43.8293E-03    -126.416E-03     230.250E-03    -103.484E-03     41.9959E-03
            2422     13.8146E-03     2.36586E-03    -17.3616E+06     86.0296E+06     61.0594E+06    -2.26250E+06    -117.847E-03     220.456E-03    -102.609E-03     39.5214E-03    -118.307E-03     220.984E-03    -102.403E-03     38.0616E-03
            2423     13.0103E-03     2.35432E-03    -20.6107E+06     77.1691E+06     47.5640E+06    -5.07841E+06    -111.873E-03     213.642E-03    -101.769E-03     37.2212E-03    -112.272E-03     214.105E-03    -101.613E-03     36.0654E-03
            2424     12.2025E-03     2.34606E-03    -22.8157E+06     52.8998E+06     29.1539E+06    -8.57248E+06    -108.088E-03     209.229E-03    -101.141E-03     34.4798E-03    -108.405E-03     209.568E-03    -101.038E-03     33.5140E-03
            2425     11.3931E-03     2.33957E-03    -25.4039E+06     19.1934E+06     15.0691E+06    -14.5796E+06    -105.645E-03     206.333E-03    -100.688E-03     31.3915E-03    -105.883E-03     206.506E-03    -100.604E-03     30.5072E-03
            2426     10.5826E-03     2.33474E-03    -28.5778E+06    -8.47822E+06     1.56437E+06    -17.9593E+06    -103.983E-03     204.307E-03    -100.324E-03     28.2490E-03    -104.162E-03     204.350E-03    -100.263E-03     27.4374E-03
            2427     9.77086E-03     2.33074E-03    -33.0042E+06    -37.1757E+06    -10.8933E+06    -17.5501E+06    -102.802E-03     202.836E-03    -100.034E-03     25.1823E-03    -102.933E-03     202.749E-03    -99.9867E-03     24.4634E-03
            2428     8.95864E-03     2.32747E-03    -38.8279E+06    -62.7370E+06    -20.7912E+06    -14.8245E+06    -101.911E-03     201.712E-03    -99.8012E-03     22.2838E-03    -102.011E-03     201.512E-03    -99.7579E-03     21.6687E-03
            2429     8.14573E-03     2.32478E-03    -45.0718E+06    -86.9821E+06    -29.2532E+06    -10.8311E+06    -101.212E-03     200.823E-03    -99.6110E-03     19.6073E-03    -101.290E-03     200.516E-03    -99.5657E-03     19.1005E-03
            2430     7.33229E-03     2.32255E-03    -50.7513E+06    -109.822E+06    -35.9938E+06    -6.73909E+06    -100.654E-03     200.110E-03    -99.4563E-03     17.1374E-03    -100.713E-03     199.703E-03    -99.4035E-03     16.7316E-03
            2431     6.51852E-03     2.32071E-03    -55.3201E+06    -130.851E+06    -41.5710E+06    -3.05529E+06    -100.206E-03     199.534E-03    -99.3286E-03     14.8549E-03    -100.245E-03     199.033E-03    -99.2665E-03     14.5392E-03
            2432     5.70432E-03     2.31922E-03    -58.7955E+06    -150.417E+06    -46.1303E+06     8.57982E+03    -99.8468E-03     199.071E-03    -99.2244E-03     12.7264E-03    -99.8651E-03     198.480E-03    -99.1517E-03     12.4888E-03
            2433     4.88990E-03     2.31802E-03    -61.3556E+06    -168.237E+06    -49.9411E+06     2.32954E+06    -99.5635E-03     198.703E-03    -99.1395E-03     10.7226E-03    -99.5607E-03     198.030E-03    -99.0563E-03     10.5511E-03
            2434     4.07523E-03     2.31710E-03    -63.1625E+06    -184.287E+06    -52.9462E+06     3.78696E+06    -99.3441E-03     198.416E-03    -99.0719E-03     8.81740E-03    -99.3206E-03     197.667E-03    -98.9778E-03     8.69915E-03
            2435     3.26039E-03     2.31640E-03    -64.4060E+06    -193.781E+06    -56.5697E+06     4.29474E+06    -99.1687E-03     198.175E-03    -99.0062E-03     6.98852E-03    -99.1308E-03     197.384E-03    -98.9147E-03     6.91042E-03
            2436     2.44542E-03     2.31592E-03    -65.1388E+06    -196.808E+06    -60.5480E+06     3.91176E+06    -99.0300E-03     197.974E-03    -98.9437E-03     5.21792E-03    -98.9843E-03     197.173E-03    -98.8666E-03     5.16796E-03
            2437     1.63032E-03     2.31561E-03    -65.5221E+06    -198.519E+06    -63.4344E+06     2.93699E+06    -98.9351E-03     197.834E-03    -98.8989E-03     3.49580E-03    -98.8837E-03     197.029E-03    -98.8332E-03     3.46586E-03
            2438     815.194E-06     2.31544E-03    -65.7357E+06    -199.550E+06    -65.1979E+06     1.65768E+06    -98.8016E-03     197.753E-03    -98.9514E-03     1.88744E-03    -98.7468E-03     196.945E-03    -98.8928E-03     1.87193E-03
            2439     15.3799E-03     1.20920E-03    -4.29147E+06     107.075E+06     96.8437E+06     1.71531E+06    -134.550E-03     241.018E-03    -106.468E-03     47.3845E-03    -135.023E-03     241.575E-03    -106.133E-03     45.9822E-03
            2440     14.5882E-03     1.19312E-03    -8.58645E+06     103.154E+06     77.0906E+06     1.15293E+06    -124.593E-03     229.680E-03    -105.087E-03     36.8867E-03    -125.016E-03     230.216E-03    -104.838E-03     35.7651E-03
            2441     13.7883E-03     1.18597E-03    -12.8212E+06     92.1071E+06     45.6694E+06    -1.68627E+06    -117.247E-03     221.247E-03    -104.000E-03     30.4390E-03    -117.579E-03     221.729E-03    -103.887E-03     29.6489E-03
            2442     12.9851E-03     1.17954E-03    -16.6697E+06     77.8736E+06     17.1932E+06    -4.71492E+06    -112.835E-03     216.010E-03    -103.175E-03     25.8032E-03    -113.102E-03     216.444E-03    -103.178E-03     25.1667E-03
            2443     12.1805E-03     1.17514E-03    -20.4647E+06     57.4096E+06    -9.24810E+06    -6.69168E+06    -109.920E-03     212.439E-03    -102.518E-03     21.8181E-03    -110.123E-03     212.799E-03    -102.618E-03     21.2795E-03
            2444     11.3737E-03     1.17178E-03    -25.5791E+06     24.4391E+06    -25.3264E+06    -10.0663E+06    -107.786E-03     209.823E-03    -102.037E-03     18.7504E-03    -107.935E-03     210.041E-03    -102.162E-03     18.2518E-03
            2445     10.5651E-03     1.16904E-03    -32.3409E+06    -10.9424E+06    -32.4829E+06    -11.6508E+06    -106.165E-03     207.847E-03    -101.682E-03     16.1815E-03    -106.280E-03     207.903E-03    -101.782E-03     15.7230E-03
            2446     9.75578E-03     1.16689E-03    -39.5728E+06    -42.1208E+06    -37.2927E+06    -10.0251E+06    -104.885E-03     206.278E-03    -101.393E-03     14.0338E-03    -104.980E-03     206.191E-03    -101.461E-03     13.6424E-03
            2447     8.94521E-03     1.16513E-03    -46.1458E+06    -69.2113E+06    -40.0913E+06    -7.55252E+06    -103.838E-03     204.994E-03    -101.156E-03     12.2015E-03    -103.919E-03     204.782E-03    -101.189E-03     11.8791E-03
            2448     8.13392E-03     1.16367E-03    -51.4161E+06    -93.1844E+06    -42.7172E+06    -4.94785E+06    -102.987E-03     203.943E-03    -100.955E-03     10.6049E-03    -103.054E-03     203.620E-03    -100.959E-03     10.3464E-03
            2449     7.32201E-03     1.16248E-03    -55.3493E+06    -115.062E+06    -44.8210E+06    -2.70031E+06    -102.294E-03     203.083E-03    -100.789E-03     9.19324E-03    -102.344E-03     202.658E-03    -100.766E-03     8.98958E-03
            2450     6.50948E-03     1.16150E-03    -58.1871E+06    -135.015E+06    -46.9724E+06    -833.886E+03    -101.734E-03     202.384E-03    -100.650E-03     7.92394E-03    -101.765E-03     201.865E-03    -100.604E-03     7.76690E-03
            2451     5.69660E-03     1.16071E-03    -60.0425E+06    -153.323E+06    -49.0135E+06     658.210E+03    -101.290E-03     201.826E-03    -100.536E-03     6.76394E-03    -101.300E-03     201.220E-03    -100.472E-03     6.64654E-03
            2452     4.88331E-03     1.16008E-03    -61.0856E+06    -169.824E+06    -50.8981E+06     1.73088E+06    -100.944E-03     201.389E-03    -100.445E-03     5.68701E-03    -100.931E-03     200.704E-03    -100.365E-03     5.60246E-03
            2453     4.06977E-03     1.15960E-03    -61.6406E+06    -184.387E+06    -52.5293E+06     2.32338E+06    -100.683E-03     201.057E-03    -100.374E-03     4.67129E-03    -100.650E-03     200.302E-03    -100.280E-03     4.61253E-03
            2454     3.25604E-03     1.15925E-03    -61.9102E+06    -192.478E+06    -54.9046E+06     2.41182E+06    -100.485E-03     200.794E-03    -100.309E-03     3.70133E-03    -100.437E-03     200.002E-03    -100.215E-03     3.66141E-03
            2455     2.44213E-03     1.15901E-03    -61.9691E+06    -194.505E+06    -57.9007E+06     2.14008E+06    -100.338E-03     200.587E-03    -100.249E-03     2.76343E-03    -100.282E-03     199.789E-03    -100.167E-03     2.73750E-03
            2456     1.62815E-03     1.15886E-03    -61.8946E+06    -195.537E+06    -60.0028E+06     1.58784E+06    -100.243E-03     200.453E-03    -100.209E-03     1.85174E-03    -100.183E-03     199.652E-03    -100.136E-03     1.83601E-03
            2457     814.070E-06     1.15878E-03    -61.7945E+06    -196.270E+06    -61.3448E+06     926.851E+03    -100.102E-03     200.380E-03    -100.278E-03     1.00017E-03    -100.037E-03     199.577E-03    -100.211E-03     992.432E-06


