********************************************************************************
Field Output Report, written Tue May 28 22:15:59 2024

Source 1
---------

   ODB: G:/Abaqus_calc_2019/1740/Vel_10/odb/zeides_2a_40_red_1000_cal_75_vel_10_fric_050.odb
   Step: Step-1
   Frame: Increment  10286290: Step Time =    1.144

Loc 1 : Nodal values from source 1

Output sorted by column "Nodal Label".

Field Output reported at nodes for region: DIE_2A_40_D0_36-1.Region_1
   Computation algorithm: EXTRAPOLATE_COMPUTE_AVERAGE
   Averaged at nodes
   Averaging regions: ODB_REGIONS

      Node Label     COORD.COOR1     COORD.COOR2
                          @Loc 1          @Loc 1
-------------------------------------------------
               1     21.7407E-03     125.548E-03


Field Output reported at nodes for region: DIE_2A_40_D0_36-1.Region_2
   Computation algorithm: EXTRAPOLATE_COMPUTE_AVERAGE
   Averaged at nodes
   Averaging regions: ODB_REGIONS

      Node Label     COORD.COOR1     COORD.COOR2
                          @Loc 1          @Loc 1
-------------------------------------------------
               1     21.7407E-03     125.548E-03


Field Output reported at nodes for part: WIRE-1
   Computation algorithm: EXTRAPOLATE_COMPUTE_AVERAGE
   Averaged at nodes
   Averaging regions: ODB_REGIONS

      Node Label     COORD.COOR1     COORD.COOR2           S.S11           S.S22           S.S33           S.S12         PE.PE11         PE.PE22         PE.PE33         PE.PE12         LE.LE11         LE.LE22         LE.LE33         LE.LE12
                          @Loc 1          @Loc 1          @Loc 1          @Loc 1          @Loc 1          @Loc 1          @Loc 1          @Loc 1          @Loc 1          @Loc 1          @Loc 1          @Loc 1          @Loc 1          @Loc 1
-------------------------------------------------------------------------------------------------------------------------------------------------------------------------------------------------------------------------------------------------
               1     124.932E-09     67.3704E-03    -86.2766E+06    -240.099E+06    -87.0248E+06    -644.088E+03    -112.236E-03     224.167E-03    -111.931E-03     9.49135E-03    -112.196E-03     223.222E-03    -111.893E-03     9.28096E-03
               2     16.0984E-03     70.3956E-03    -3.59683E+06     113.983E+06     91.7310E+06     1.82560E+06    -110.096E-03     222.020E-03    -111.924E-03     102.287E-03    -114.548E-03     226.597E-03    -111.625E-03     99.6177E-03
               3     15.0363E-03     140.188E-03    -5.30787E+06    -25.4400E+06     2.95274E+06    -23.5564E+06     87.4566E-03     78.1102E-03    -165.567E-03     932.697E-06     87.6963E-03     78.2199E-03    -165.508E-03     628.731E-06
               4     1.06968E-06     134.439E-03     34.5524E+06    -8.07189E+06     35.5128E+06    -3.21878E+06    -107.450E-03     215.387E-03    -107.937E-03    -14.0546E-03    -107.390E-03     215.168E-03    -107.798E-03    -14.1788E-03
               5     550.947E-09     2.06779E-15    -48.5043E+06    -202.128E+06    -48.4426E+06     643.307E+03    -112.006E-03     223.638E-03    -111.633E-03     1.47686E-03    -111.883E-03     222.769E-03    -111.512E-03     1.46973E-03
               6     15.6367E-03     2.06779E-15     10.3990E+06     105.493E+06     97.5291E+06     6.16804E+06    -276.849E-03     406.382E-03    -129.534E-03     294.231E-03    -282.514E-03     412.038E-03    -129.214E-03     277.025E-03
               7     804.591E-06     67.3814E-03    -85.6628E+06    -238.788E+06    -84.7619E+06    -240.042E+03    -112.224E-03     224.238E-03    -112.013E-03     15.4351E-03    -112.196E-03     223.304E-03    -111.967E-03     15.0900E-03
               8     1.60913E-03     67.4053E-03    -83.6446E+06    -234.214E+06    -77.4079E+06     190.380E+03    -112.267E-03     224.377E-03    -112.110E-03     28.0790E-03    -112.273E-03     223.479E-03    -112.036E-03     27.4403E-03
               9     2.41390E-03     67.4444E-03    -80.3044E+06    -226.775E+06    -66.3370E+06     348.338E+03    -112.405E-03     224.538E-03    -112.133E-03     41.3902E-03    -112.469E-03     223.704E-03    -112.019E-03     40.4221E-03
              10     3.21861E-03     67.4980E-03    -75.9920E+06    -218.890E+06    -55.0983E+06     433.643E+03    -112.639E-03     224.782E-03    -112.142E-03     54.6437E-03    -112.781E-03     224.036E-03    -111.990E-03     53.3127E-03
              11     4.02331E-03     67.5666E-03    -70.8066E+06    -208.259E+06    -44.4133E+06     98.9292E+03    -112.975E-03     225.119E-03    -112.144E-03     67.7849E-03    -113.222E-03     224.504E-03    -111.961E-03     66.0470E-03
              12     4.82813E-03     67.6496E-03    -65.3882E+06    -190.460E+06    -33.5580E+06    -174.540E+03    -113.365E-03     225.505E-03    -112.140E-03     80.6673E-03    -113.762E-03     225.090E-03    -111.936E-03     78.4764E-03
              13     5.63301E-03     67.7466E-03    -60.1914E+06    -171.307E+06    -24.4232E+06     90.1747E+03    -113.786E-03     225.913E-03    -112.127E-03     93.3493E-03    -114.375E-03     225.751E-03    -111.913E-03     90.6591E-03
              14     6.43781E-03     67.8577E-03    -55.1206E+06    -153.292E+06    -17.2654E+06     166.141E+03    -114.240E-03     226.347E-03    -112.108E-03     105.786E-03    -115.073E-03     226.491E-03    -111.892E-03     102.532E-03
              15     7.24280E-03     67.9823E-03    -50.6327E+06    -133.039E+06    -11.5658E+06     131.616E+03    -114.735E-03     226.817E-03    -112.082E-03     118.110E-03    -115.889E-03     227.353E-03    -111.874E-03     114.211E-03
              16     8.04728E-03     68.1207E-03    -46.5803E+06    -112.202E+06    -6.16076E+06     660.122E+03    -115.225E-03     227.284E-03    -112.059E-03     130.724E-03    -116.797E-03     228.310E-03    -111.860E-03     126.100E-03
              17     8.85267E-03     68.2730E-03    -42.2563E+06    -86.6266E+06    -1.32173E+06     794.667E+03    -115.636E-03     227.663E-03    -112.026E-03     143.449E-03    -117.755E-03     229.328E-03    -111.846E-03     137.995E-03
              18     9.65698E-03     68.4391E-03    -38.7141E+06    -51.3875E+06     2.13795E+06     983.662E+03    -115.949E-03     227.922E-03    -111.973E-03     156.015E-03    -118.791E-03     230.437E-03    -111.831E-03     149.629E-03
              19     10.4625E-03     68.6177E-03    -35.6534E+06    -101.078E+03     8.39392E+06     910.192E+03    -116.280E-03     228.192E-03    -111.912E-03     170.493E-03    -120.154E-03     231.915E-03    -111.818E-03     163.006E-03
              20     11.2672E-03     68.8158E-03    -32.2508E+06     47.5101E+06     18.3512E+06     162.274E+03    -116.843E-03     228.711E-03    -111.868E-03     193.798E-03    -122.379E-03     234.248E-03    -111.798E-03     184.898E-03
              21     12.0712E-03     69.0451E-03    -28.5002E+06     72.3825E+06     41.1350E+06     284.800E+03    -118.157E-03     230.050E-03    -111.894E-03     231.216E-03    -126.499E-03     238.429E-03    -111.752E-03     220.521E-03
              22     12.8791E-03     69.3261E-03    -23.5580E+06     89.2224E+06     71.2284E+06      798.82E+03    -119.843E-03     231.788E-03    -111.945E-03     270.725E-03    -132.104E-03     244.076E-03    -111.684E-03     258.341E-03
              23     13.6854E-03     69.6445E-03    -16.4196E+06     104.852E+06     90.8918E+06     279.154E+03    -119.751E-03     231.710E-03    -111.959E-03     286.697E-03    -135.335E-03     247.345E-03    -111.633E-03     274.294E-03
              24     14.4887E-03     69.9637E-03    -9.49045E+06     120.143E+06     99.5244E+06    -896.663E+03    -117.872E-03     229.829E-03    -111.957E-03     283.535E-03    -135.841E-03     247.902E-03    -111.620E-03     273.404E-03
              25     15.2936E-03     70.2949E-03    -5.24834E+06     121.033E+06     96.5069E+06     216.764E+03    -113.461E-03     225.400E-03    -111.939E-03     191.938E-03    -125.278E-03     237.348E-03    -111.624E-03     186.338E-03
              26     16.1008E-03     71.5928E-03    -1.65340E+06     115.826E+06     94.0383E+06    -528.591E+03    -109.874E-03     221.769E-03    -111.895E-03     107.074E-03    -114.462E-03     226.489E-03    -111.590E-03     104.308E-03
              27     16.0985E-03     72.7801E-03    -1.86173E+06     114.881E+06     92.0808E+06     463.082E+03    -109.916E-03     221.828E-03    -111.912E-03     108.551E-03    -114.591E-03     226.637E-03    -111.615E-03     105.763E-03
              28     16.0991E-03     73.9550E-03    -3.24526E+06     116.080E+06     91.8407E+06     889.376E+03    -110.191E-03     222.113E-03    -111.922E-03     103.505E-03    -114.683E-03     226.739E-03    -111.627E-03     100.748E-03
              29     16.0988E-03     75.1446E-03    -2.15440E+06     117.746E+06     93.4436E+06    -40.7127E+03    -110.135E-03     222.044E-03    -111.909E-03     104.073E-03    -114.636E-03     226.685E-03    -111.609E-03     101.312E-03
              30     16.0999E-03     76.3363E-03    -2.57175E+06     115.985E+06     92.0753E+06    -767.282E+03    -109.440E-03     221.330E-03    -111.890E-03     110.235E-03    -114.144E-03     226.170E-03    -111.594E-03     107.422E-03
              31     16.1004E-03     77.5165E-03    -3.28263E+06     115.823E+06     92.6425E+06    -766.534E+03    -110.783E-03     222.641E-03    -111.858E-03     109.157E-03    -115.486E-03     227.475E-03    -111.558E-03     106.273E-03
              32     16.0984E-03     78.7038E-03    -2.51143E+06     117.390E+06     94.4518E+06     1.26609E+06    -111.220E-03     223.122E-03    -111.902E-03     104.841E-03    -115.827E-03     227.863E-03    -111.596E-03     102.073E-03
              33     16.0985E-03     79.8922E-03    -1.94233E+06     117.723E+06     93.9281E+06     658.317E+03    -108.794E-03     220.759E-03    -111.964E-03     110.203E-03    -113.548E-03     225.651E-03    -111.662E-03     107.539E-03
              34     16.1004E-03     81.0771E-03    -3.19921E+06     114.776E+06     91.7399E+06    -2.17256E+06    -108.260E-03     220.183E-03    -111.923E-03     113.631E-03    -113.094E-03     225.147E-03    -111.626E-03     110.850E-03
              35     16.0999E-03     82.2567E-03    -1.89278E+06     117.348E+06     95.4081E+06    -1.57394E+06    -110.123E-03     222.004E-03    -111.881E-03     108.658E-03    -114.828E-03     226.841E-03    -111.571E-03     105.822E-03
              36     16.0991E-03     83.4420E-03    -1.30823E+06     117.337E+06     95.4906E+06     602.691E+03    -110.819E-03     222.684E-03    -111.866E-03     105.903E-03    -115.409E-03     227.410E-03    -111.556E-03     103.105E-03
              37     16.1008E-03     84.6304E-03    -3.02365E+06     114.734E+06     92.8682E+06     1.44471E+06    -110.535E-03     222.405E-03    -111.870E-03     108.998E-03    -115.176E-03     227.173E-03    -111.567E-03     106.212E-03
              38     16.0982E-03     85.8212E-03    -2.44496E+06     116.212E+06     94.1436E+06      601.55E+03    -109.715E-03     221.643E-03    -111.928E-03     110.210E-03    -114.422E-03     226.481E-03    -111.622E-03     107.481E-03
              39     16.0996E-03     86.9973E-03    -735.097E+03     116.662E+06     94.5663E+06     1.24698E+06    -108.430E-03     220.348E-03    -111.918E-03     109.554E-03    -113.076E-03     225.131E-03    -111.613E-03     106.905E-03
              40     16.1020E-03     88.1819E-03    -1.73453E+06     117.972E+06     94.3470E+06    -180.145E+03    -110.306E-03     222.156E-03    -111.850E-03     107.805E-03    -114.926E-03     226.916E-03    -111.547E-03     104.950E-03
              41     16.0968E-03     89.3743E-03    -5.97443E+06     113.934E+06     91.3415E+06    -3.04741E+06    -111.335E-03     223.203E-03    -111.868E-03     107.424E-03    -115.997E-03     227.983E-03    -111.567E-03     104.466E-03
              42     16.1018E-03     90.5534E-03    -1.44734E+06     117.066E+06     95.9273E+06    -850.663E+03    -110.458E-03     222.343E-03    -111.885E-03     108.335E-03    -115.123E-03     227.140E-03    -111.573E-03     105.526E-03
              43     16.0982E-03     91.7450E-03    -425.954E+03     121.154E+06     97.2290E+06     2.99843E+06    -109.762E-03     221.667E-03    -111.906E-03     105.671E-03    -114.346E-03     226.398E-03    -111.594E-03     102.991E-03
              44     16.1001E-03     92.9256E-03    -4.84662E+06     119.299E+06     93.9560E+06     1.34844E+06    -107.770E-03     219.689E-03    -111.919E-03     107.617E-03    -112.383E-03     224.437E-03    -111.616E-03     105.061E-03
              45     16.1019E-03     94.1058E-03    -840.645E+03     118.797E+06     96.5325E+06    -1.45189E+06    -109.213E-03     221.064E-03    -111.851E-03     106.966E-03    -113.869E-03     225.859E-03    -111.539E-03     104.236E-03
              46     16.0987E-03     95.2974E-03    -2.32569E+06     117.591E+06     95.1510E+06     590.371E+03    -113.103E-03     224.933E-03    -111.831E-03     106.149E-03    -117.784E-03     229.748E-03    -111.522E-03     103.147E-03
              47     16.0980E-03     96.4861E-03    -5.01949E+06     119.221E+06     93.6227E+06     608.853E+03    -111.637E-03     223.511E-03    -111.874E-03     110.231E-03    -116.318E-03     228.325E-03    -111.571E-03     107.288E-03
              48     16.1023E-03     97.6775E-03     -489.93E+03     126.021E+06     98.8241E+06     518.312E+03    -107.427E-03     219.356E-03    -111.930E-03     111.488E-03    -112.148E-03     224.237E-03    -111.617E-03     108.827E-03
              49     16.0983E-03     98.8471E-03    -2.45153E+06     128.966E+06     98.8432E+06     1.82310E+06    -110.081E-03     221.977E-03    -111.896E-03     105.528E-03    -114.691E-03     226.749E-03    -111.585E-03     102.814E-03
              50     16.0993E-03     100.033E-03    -4.34609E+06     126.227E+06     96.1216E+06    -266.608E+03    -111.491E-03     223.328E-03    -111.837E-03     99.5597E-03    -115.837E-03     227.829E-03    -111.533E-03     96.7118E-03
              51     16.1021E-03     101.230E-03    -1.19677E+06     129.623E+06     99.4025E+06    -1.10630E+06    -109.296E-03     221.162E-03    -111.865E-03     106.804E-03    -113.881E-03     225.915E-03    -111.555E-03     104.044E-03
              52     16.0982E-03     102.410E-03    -3.79966E+06     129.479E+06     97.5601E+06     574.955E+03    -108.850E-03     220.735E-03    -111.885E-03     107.572E-03    -113.494E-03     225.542E-03    -111.579E-03     104.923E-03
              53     16.1024E-03     103.591E-03    -2.31993E+06     131.827E+06     99.6022E+06     537.698E+03    -108.446E-03     220.303E-03    -111.857E-03     106.814E-03    -113.049E-03     225.077E-03    -111.547E-03     104.170E-03
              54     16.1005E-03     104.778E-03    -1.55147E+06     133.017E+06     101.718E+06     1.22024E+06    -110.932E-03     222.702E-03    -111.770E-03     109.380E-03    -115.629E-03     227.570E-03    -111.452E-03     106.541E-03
              55     16.1021E-03     105.969E-03    -2.79284E+06     129.252E+06      99.246E+06     1.21490E+06    -109.752E-03     221.494E-03    -111.742E-03     110.006E-03    -114.447E-03     226.350E-03    -111.429E-03     107.232E-03
              56     16.1042E-03     107.151E-03    -3.68520E+06     129.142E+06     99.0068E+06    -1.45543E+06    -106.676E-03     218.352E-03    -111.676E-03     113.011E-03    -111.487E-03     223.321E-03    -111.362E-03     110.371E-03
              57     16.1077E-03     108.325E-03    -1.59482E+06     134.621E+06     103.830E+06    -1.21177E+06    -108.655E-03     220.129E-03    -111.473E-03     110.115E-03    -113.389E-03     225.034E-03    -111.147E-03     107.374E-03
              58     16.1087E-03     109.518E-03    -848.692E+03     134.557E+06     104.603E+06     1.96424E+06    -110.215E-03     221.507E-03    -111.292E-03     109.209E-03    -114.894E-03     226.357E-03    -110.963E-03     106.376E-03
              59     16.1122E-03     110.699E-03    -3.56244E+06     131.288E+06     101.752E+06     3.27974E+06    -109.597E-03     220.663E-03    -111.066E-03     112.438E-03    -114.318E-03     225.542E-03    -110.742E-03     109.588E-03
              60     16.1193E-03     111.883E-03    -3.51135E+06     134.967E+06     104.177E+06     127.541E+03    -108.164E-03     218.863E-03    -110.700E-03     112.916E-03    -112.888E-03     223.752E-03    -110.369E-03     110.077E-03
              61     16.1274E-03     113.063E-03    -2.07868E+06     138.446E+06     108.003E+06    -1.01472E+06    -108.988E-03     219.208E-03    -110.220E-03     113.727E-03    -113.764E-03     224.156E-03    -109.878E-03     110.817E-03
              62     16.1337E-03     114.247E-03    -3.21125E+06     136.393E+06     106.877E+06     1.11505E+06    -111.046E-03     220.679E-03    -109.633E-03     115.798E-03    -115.832E-03     225.628E-03    -109.292E-03     112.772E-03
              63     16.1468E-03     115.436E-03    -1.94534E+06     138.832E+06     108.630E+06     2.52649E+06    -112.542E-03     221.487E-03    -108.945E-03     118.030E-03    -117.416E-03     226.533E-03    -108.600E-03     114.857E-03
              64     16.1554E-03     116.616E-03    -2.13260E+06     144.066E+06     111.753E+06     3.69895E+06    -118.402E-03     226.544E-03    -108.142E-03     116.673E-03    -123.322E-03     231.645E-03    -107.789E-03     113.094E-03
              65     16.1665E-03     117.819E-03    -2.29571E+06     143.702E+06     112.030E+06     3.43617E+06    -125.639E-03     232.948E-03    -107.308E-03     118.762E-03    -130.661E-03     238.148E-03    -106.953E-03     114.552E-03
              66     16.1770E-03     119.027E-03    -3.14836E+06     145.633E+06     114.485E+06     878.252E+03    -133.825E-03     240.332E-03    -106.507E-03     125.855E-03    -139.216E-03     245.898E-03    -106.141E-03     120.786E-03
              67     16.1836E-03     120.242E-03    -3.47358E+06     143.299E+06     114.257E+06    -262.518E+03    -147.376E-03     253.072E-03    -105.696E-03     129.889E-03    -153.076E-03     258.939E-03    -105.327E-03     123.505E-03
              68     16.1902E-03     121.481E-03    -4.24058E+06     139.349E+06     113.426E+06    -273.322E+03    -161.922E-03     266.899E-03    -104.978E-03     135.943E-03    -167.891E-03     273.024E-03    -104.606E-03     128.055E-03
              69     16.1939E-03     122.742E-03    -1.71385E+06     138.616E+06     114.341E+06     1.24511E+06    -174.157E-03     278.583E-03    -104.426E-03     146.297E-03    -180.586E-03     285.171E-03    -104.053E-03     136.925E-03
              70     16.1971E-03     124.005E-03    -4.05014E+06     134.169E+06     111.763E+06    -2.76213E+06    -188.178E-03     292.092E-03    -103.914E-03     155.231E-03    -195.102E-03     299.157E-03    -103.544E-03     143.908E-03
              71     16.1987E-03     125.290E-03    -2.06109E+06     123.408E+06     110.516E+06    -2.65126E+06    -206.776E-03     310.182E-03    -103.406E-03     161.565E-03    -214.028E-03     317.552E-03    -103.030E-03     147.725E-03
              72     16.1979E-03     126.610E-03    -3.99756E+06     114.051E+06     110.654E+06    -2.41348E+06    -224.807E-03     327.791E-03    -102.984E-03     173.029E-03    -232.587E-03     335.650E-03    -102.590E-03     156.522E-03
              73     16.2006E-03     127.942E-03    -1.09293E+06     107.940E+06     110.528E+06    -566.226E+03    -243.528E-03     346.025E-03    -102.497E-03     194.170E-03    -252.065E-03     354.636E-03    -102.099E-03     174.860E-03
              74     16.2031E-03     129.316E-03    -6.87475E+06     84.1550E+06     103.800E+06    -8.77663E+06    -263.063E-03     365.056E-03    -101.993E-03     215.188E-03    -272.512E-03     374.499E-03    -101.586E-03     192.183E-03
              75     16.2032E-03     130.704E-03     3.84985E+06     67.9490E+06     110.783E+06    -864.836E+03    -275.416E-03     377.141E-03    -101.725E-03     233.598E-03    -285.831E-03     387.502E-03    -101.275E-03     207.442E-03
              76     16.2056E-03     132.090E-03    -7.80026E+06     56.1117E+06     121.358E+06    -4.87586E+06    -282.660E-03     384.280E-03    -101.621E-03     249.384E-03    -294.037E-03     395.487E-03    -101.084E-03     220.829E-03
              77     16.2050E-03     133.484E-03    -2.61842E+06     21.8917E+06     130.528E+06    -10.2717E+06    -290.090E-03     391.607E-03    -101.517E-03     267.770E-03    -302.159E-03     403.385E-03    -100.892E-03     237.377E-03
              78     16.2095E-03     134.903E-03     5.02017E+06     32.4156E+06     167.977E+06     12.2437E+06    -278.825E-03     380.769E-03    -101.944E-03     299.150E-03    -292.538E-03     394.165E-03    -101.158E-03     268.263E-03
              79     16.2052E-03     136.288E-03    -12.1655E+06     47.5872E+06     139.384E+06    -1.20585E+06    -230.617E-03     333.698E-03    -103.081E-03     381.424E-03    -247.491E-03     350.335E-03    -102.436E-03     353.654E-03
              80     16.2195E-03     137.566E-03    -5.25784E+06    -2.42244E+06     50.3506E+06    -29.1557E+06    -109.777E-03     217.210E-03    -107.432E-03     415.081E-03    -121.388E-03     228.773E-03    -107.170E-03     402.426E-03
              81     16.0838E-03     138.446E-03    -2.24724E+06    -2.70934E+06     73.8554E+06     10.9916E+06     26.2872E-03     95.7015E-03    -121.989E-03     239.254E-03     23.7481E-03     97.8657E-03    -121.612E-03     239.280E-03
              82     15.5397E-03     139.260E-03     8.64260E+06     5.14202E+06     70.2361E+06     21.3671E+06     80.9616E-03     68.2438E-03    -149.205E-03     47.7369E-03     80.8854E-03     68.1466E-03    -148.874E-03     48.0128E-03
              83     14.1553E-03     139.604E-03    -22.4451E+06    -720.966E+03     23.8790E+06     8.40943E+06     84.2561E-03     83.2573E-03    -167.513E-03     16.3373E-03     84.1757E-03     83.3198E-03    -167.360E-03     16.4461E-03
              84     13.3720E-03     139.042E-03    -16.2196E+06     36.5285E+06     88.4290E+06    -17.6216E+06     55.1568E-03     114.616E-03    -169.773E-03     3.96708E-03     54.8686E-03     114.682E-03    -169.361E-03     3.67932E-03
              85     12.6117E-03     138.438E-03    -16.2853E+06    -25.3569E+06     107.186E+06    -19.2767E+06     20.3288E-03     147.894E-03    -168.223E-03    -63.2316E-03     20.1294E-03     147.568E-03    -167.626E-03    -63.7551E-03
              86     11.9314E-03     137.870E-03    -18.6564E+06    -17.8168E+06     89.9640E+06    -10.2764E+06     3.09894E-03     160.456E-03    -163.555E-03    -120.757E-03     2.90659E-03     160.031E-03    -163.053E-03    -121.414E-03
              87     11.2392E-03     137.346E-03    -6.86440E+06    -5.03228E+06     87.8637E+06    -25.5632E+06    -15.6644E-03     173.539E-03    -157.875E-03    -159.482E-03    -15.7199E-03     173.041E-03    -157.418E-03    -160.583E-03
              88     10.5569E-03     136.879E-03     1.17293E+06    -24.3305E+06     98.7041E+06    -12.3383E+06    -36.4414E-03     188.365E-03    -151.923E-03    -191.229E-03    -36.3691E-03     187.612E-03    -151.396E-03    -192.397E-03
              89     9.86790E-03     136.464E-03     18.1633E+06    -10.9900E+06     109.485E+06    -12.8667E+06    -56.0440E-03     201.936E-03    -145.892E-03    -206.836E-03    -55.8807E-03     201.169E-03    -145.355E-03    -208.128E-03
              90     9.16882E-03     136.104E-03     21.0796E+06    -16.6882E+06     105.082E+06     1.44701E+06    -73.7728E-03     213.911E-03    -140.138E-03    -209.545E-03    -73.5864E-03     213.138E-03    -139.619E-03    -210.675E-03
              91     8.45789E-03     135.793E-03     24.2992E+06    -2.78516E+06     99.9668E+06     512.165E+03    -89.1081E-03     223.821E-03    -134.713E-03    -200.968E-03    -88.9520E-03     223.178E-03    -134.244E-03    -202.067E-03
              92     7.73704E-03     135.524E-03     26.5241E+06    -4.02027E+06     91.2185E+06     270.773E+03    -100.520E-03     230.195E-03    -129.675E-03    -183.476E-03    -100.381E-03     229.625E-03    -129.252E-03    -184.507E-03
              93     7.00365E-03     135.294E-03     29.7465E+06     465.175E+03     87.4936E+06    -1.15761E+06    -107.731E-03     232.844E-03    -125.113E-03    -161.186E-03    -107.617E-03     232.373E-03    -124.719E-03    -162.129E-03
              94     6.25762E-03     135.099E-03     31.1279E+06    -2.13526E+06     80.4088E+06     144.055E+03    -111.582E-03     232.625E-03    -121.043E-03    -138.140E-03    -111.484E-03     232.221E-03    -120.683E-03    -138.931E-03
              95     5.49994E-03     134.935E-03     31.7310E+06     1.94333E+06     73.4501E+06    -698.904E+03    -112.808E-03     230.260E-03    -117.452E-03    -116.037E-03    -112.732E-03     229.943E-03    -117.134E-03    -116.704E-03
              96     4.73236E-03     134.798E-03     32.0016E+06     470.811E+03     66.1819E+06    -2.02540E+06    -112.355E-03     226.711E-03    -114.356E-03    -95.6987E-03    -112.287E-03     226.439E-03    -114.072E-03    -96.2599E-03
              97     3.95609E-03     134.686E-03     33.0307E+06     961.047E+03     60.8544E+06    -3.50717E+06    -110.979E-03     222.735E-03    -111.756E-03    -77.0986E-03    -110.915E-03     222.503E-03    -111.501E-03    -77.5697E-03
              98     3.17274E-03     134.596E-03     35.4564E+06    -130.611E+03     53.0046E+06    -4.27194E+06    -109.094E-03     218.760E-03    -109.666E-03    -60.2058E-03    -109.016E-03     218.553E-03    -109.453E-03    -60.5882E-03
              99     2.38337E-03     134.528E-03     39.1006E+06    -1.19491E+06     46.1003E+06    -4.55085E+06    -107.085E-03     215.296E-03    -108.211E-03    -45.3028E-03    -106.985E-03     215.105E-03    -108.035E-03    -45.6038E-03
             100     1.58869E-03     134.479E-03     42.9326E+06    -1.51209E+06     45.8828E+06    -4.59424E+06    -105.755E-03     213.349E-03    -107.595E-03    -32.6961E-03    -105.639E-03     213.162E-03    -107.425E-03    -32.9282E-03
             101     790.765E-06     134.449E-03     39.5648E+06    -3.67965E+06     41.8295E+06    -3.95418E+06    -106.426E-03     214.156E-03    -107.729E-03    -20.5376E-03    -106.339E-03     213.957E-03    -107.572E-03    -20.7008E-03
             102    -1.17260E-06     133.259E-03     22.8766E+06    -8.18480E+06     22.3814E+06    -2.30781E+06    -91.3837E-03     183.591E-03    -92.2074E-03    -7.25456E-03    -91.3351E-03     183.437E-03    -92.1168E-03    -7.34418E-03
             103     289.794E-09     132.159E-03    -7.68881E+06    -20.6597E+06    -8.19311E+06    -3.75111E+06    -66.2141E-03     133.024E-03    -66.8097E-03     576.353E-06    -66.2246E-03     132.930E-03    -66.8095E-03     495.733E-06
             104    -259.327E-09     131.096E-03    -44.9558E+06    -39.7211E+06    -45.5867E+06    -4.49802E+06    -50.7642E-03     101.519E-03    -50.7553E-03     3.29781E-03    -50.8719E-03     101.446E-03    -50.8605E-03     3.22059E-03
             105     301.004E-09     130.061E-03    -84.8316E+06    -57.0839E+06    -83.2841E+06    -5.27262E+06    -40.8497E-03     81.5995E-03    -40.7498E-03     5.88484E-03    -41.0722E-03     81.5566E-03    -40.9604E-03     5.80927E-03
             106    -146.088E-09     129.039E-03    -127.004E+06    -78.4208E+06    -125.978E+06    -6.76948E+06    -35.7340E-03     71.4301E-03    -35.6961E-03     8.04802E-03    -36.0728E-03     71.4050E-03    -36.0281E-03     7.95949E-03
             107     42.2805E-09     128.024E-03    -170.449E+06    -98.0599E+06    -170.678E+06    -4.74501E+06    -34.8020E-03     69.6039E-03    -34.8019E-03     10.1058E-03    -35.2642E-03     69.6085E-03    -35.2659E-03     10.0484E-03
             108     12.8506E-09     127.007E-03    -167.060E+06    -105.532E+06    -168.363E+06     1.38660E+06    -38.2362E-03     76.2501E-03    -38.0138E-03     11.5889E-03    -38.6751E-03     76.2077E-03    -38.4604E-03     11.6138E-03
             109     251.109E-09     125.979E-03    -114.976E+06    -93.5551E+06    -114.437E+06     5.88894E+06    -45.3883E-03     90.3340E-03    -44.9457E-03     12.4993E-03    -45.6639E-03     90.1962E-03    -45.2155E-03     12.5818E-03
             110     205.107E-09     124.932E-03    -82.3112E+06    -82.2735E+06    -79.6606E+06     1.25844E+06    -54.3814E-03     108.328E-03    -53.9471E-03     13.0085E-03    -54.5615E-03     108.149E-03    -54.1067E-03     13.0239E-03
             111     64.3879E-09     123.865E-03    -67.0095E+06    -87.2022E+06    -66.9027E+06    -3.46042E+06    -63.5291E-03     126.759E-03    -63.2300E-03     13.1341E-03    -63.6442E-03     126.515E-03    -63.3409E-03     13.0774E-03
             112     123.767E-09     122.779E-03    -57.5937E+06    -100.176E+06    -58.3664E+06    -2.68822E+06    -72.2655E-03     144.204E-03    -71.9383E-03     13.0600E-03    -72.3271E-03     143.870E-03    -72.0014E-03     12.9990E-03
             113     174.331E-09     121.674E-03     -58.502E+06    -111.565E+06    -57.8027E+06    -2.69273E+06    -80.4034E-03     160.279E-03    -79.8757E-03     12.7897E-03    -80.4538E-03     159.889E-03    -79.9181E-03     12.7104E-03
             114     356.579E-09     120.553E-03    -59.0180E+06    -125.952E+06    -58.9812E+06    -4.14756E+06    -87.5480E-03     174.573E-03    -87.0255E-03     12.2006E-03    -87.5782E-03     174.115E-03    -87.0522E-03     12.0800E-03
             115    -76.3904E-09     119.417E-03    -61.3927E+06    -142.197E+06    -64.2767E+06    -3.59582E+06    -93.4838E-03     186.690E-03    -93.2064E-03     11.5243E-03    -93.4946E-03     186.163E-03    -93.2325E-03     11.3848E-03
             116     172.145E-09     118.268E-03    -65.9055E+06    -155.638E+06    -66.3912E+06    -2.90339E+06    -98.4633E-03     196.690E-03    -98.2270E-03     11.1912E-03    -98.4742E-03     196.106E-03    -98.2377E-03     11.0352E-03
             117     63.0388E-09     117.109E-03    -68.7663E+06    -167.450E+06    -69.1540E+06    -2.89230E+06    -102.606E-03     204.855E-03    -102.249E-03     10.9954E-03    -102.610E-03     204.221E-03    -102.252E-03     10.8172E-03
             118     229.211E-09     115.941E-03    -74.6451E+06    -179.524E+06    -74.8138E+06    -2.84922E+06    -105.672E-03     210.990E-03    -105.318E-03     10.7162E-03    -105.679E-03     210.313E-03    -105.324E-03     10.5243E-03
             119     879.653E-12     114.768E-03    -78.0836E+06    -191.990E+06    -78.1561E+06    -2.54046E+06    -107.691E-03     215.241E-03    -107.550E-03     10.6279E-03    -107.693E-03     214.512E-03    -107.550E-03     10.4271E-03
             120    -53.0913E-09     113.591E-03    -81.0509E+06    -201.514E+06    -81.5053E+06    -1.61079E+06    -109.197E-03     218.315E-03    -109.118E-03     10.0503E-03    -109.196E-03     217.548E-03    -109.116E-03     9.84749E-03
             121     185.514E-09     112.411E-03    -84.6993E+06    -208.379E+06    -84.7210E+06    -1.42538E+06    -110.391E-03     220.585E-03    -110.194E-03     9.55070E-03    -110.393E-03     219.793E-03    -110.193E-03     9.33870E-03
             122    -40.0242E-09     111.228E-03    -85.8143E+06    -214.226E+06    -85.9358E+06    -1.69259E+06    -111.159E-03     222.147E-03    -110.988E-03     9.46857E-03    -111.157E-03     221.329E-03    -110.982E-03     9.24935E-03
             123     131.999E-09     110.044E-03    -85.5715E+06    -220.846E+06    -85.4736E+06    -1.82931E+06    -111.661E-03     223.081E-03    -111.421E-03     9.20644E-03    -111.648E-03     222.229E-03    -111.404E-03     8.98738E-03
             124     127.260E-09     108.861E-03    -84.7524E+06    -226.876E+06    -85.0048E+06    -1.59655E+06    -112.025E-03     223.791E-03    -111.766E-03     9.00928E-03    -112.000E-03     222.907E-03    -111.739E-03     8.78600E-03
             125    -5.02199E-09     107.674E-03    -87.8051E+06    -232.684E+06    -88.0192E+06    -1.35668E+06    -112.131E-03     224.291E-03    -112.160E-03     9.17504E-03    -112.108E-03     223.387E-03    -112.135E-03     8.95238E-03
             126    -201.431E-09     106.488E-03    -90.5568E+06    -237.603E+06    -90.7071E+06    -786.987E+03    -112.097E-03     224.392E-03    -112.295E-03     9.44743E-03    -112.077E-03     223.471E-03    -112.272E-03     9.23312E-03
             127     50.1584E-09     105.303E-03    -90.9375E+06    -240.231E+06    -90.7236E+06    -422.310E+03    -112.263E-03     224.386E-03    -112.123E-03     9.53190E-03    -112.241E-03     223.453E-03    -112.097E-03     9.32119E-03
             128     290.092E-09     104.117E-03    -91.9948E+06    -242.309E+06    -92.2454E+06    -476.037E+03    -112.368E-03     224.295E-03    -111.927E-03     9.54549E-03    -112.347E-03     223.355E-03    -111.903E-03     9.33476E-03
             129     39.1414E-09     102.932E-03    -91.7261E+06    -242.621E+06    -91.8627E+06     387.353E+03    -112.272E-03     224.187E-03    -111.915E-03     9.50841E-03    -112.250E-03     223.245E-03    -111.889E-03     9.31230E-03
             130     167.199E-09     101.746E-03    -91.3095E+06    -242.719E+06    -91.1929E+06     80.5902E+03    -112.247E-03     224.162E-03    -111.915E-03     9.36564E-03    -112.223E-03     223.217E-03    -111.887E-03     9.17003E-03
             131     123.346E-09     100.561E-03    -91.2410E+06    -243.280E+06    -91.1474E+06    -243.863E+03    -112.187E-03     224.119E-03    -111.932E-03     9.28458E-03    -112.162E-03     223.172E-03    -111.902E-03     9.07814E-03
             132    -37.4826E-09     99.3756E-03    -90.4633E+06    -243.007E+06    -90.3436E+06    -506.508E+03    -112.058E-03     224.113E-03    -112.055E-03     9.29487E-03    -112.030E-03     223.165E-03    -112.023E-03     9.08047E-03
             133    -79.3408E-09     98.1902E-03    -91.2612E+06    -244.433E+06    -91.5996E+06    -408.419E+03    -112.077E-03     224.157E-03    -112.081E-03     9.30924E-03    -112.049E-03     223.205E-03    -112.052E-03     9.10146E-03
             134     149.961E-09     97.0048E-03    -90.8077E+06    -243.992E+06    -90.8572E+06     505.192E+03    -112.147E-03     224.067E-03    -111.920E-03     9.23063E-03    -112.119E-03     223.115E-03    -111.889E-03     9.04107E-03
             135     106.817E-09     95.8196E-03    -89.8125E+06    -243.277E+06    -89.9534E+06     940.057E+03    -112.035E-03     223.873E-03    -111.838E-03     9.26588E-03    -112.005E-03     222.922E-03    -111.805E-03     9.08122E-03
             136    -83.5486E-09     94.6350E-03    -89.3845E+06    -242.730E+06    -88.9499E+06     465.716E+03    -112.053E-03     223.945E-03    -111.892E-03     9.32298E-03    -112.023E-03     222.995E-03    -111.855E-03     9.12560E-03
             137     286.796E-09     93.4491E-03    -88.4503E+06    -241.929E+06    -88.5275E+06    -419.473E+03    -112.128E-03     224.030E-03    -111.902E-03     9.37706E-03    -112.094E-03     223.081E-03    -111.866E-03     9.16540E-03
             138    -165.003E-09     92.2644E-03    -88.7842E+06    -242.139E+06    -88.5392E+06     71.3946E+03    -112.121E-03     224.089E-03    -111.968E-03     9.51199E-03    -112.089E-03     223.140E-03    -111.931E-03     9.30732E-03
             139     254.435E-09     91.0784E-03    -88.3157E+06    -241.933E+06    -88.1042E+06    -391.616E+03    -112.258E-03     224.199E-03    -111.941E-03     9.41335E-03    -112.225E-03     223.249E-03    -111.902E-03     9.20426E-03
             140     131.414E-09     89.8934E-03    -88.1792E+06    -242.461E+06    -88.9771E+06     63.7472E+03    -112.312E-03     224.186E-03    -111.874E-03     9.49330E-03    -112.276E-03     223.235E-03    -111.839E-03     9.29295E-03
             141     141.706E-09     88.7077E-03    -88.7668E+06    -242.304E+06    -88.2569E+06     484.934E+03    -112.179E-03     224.211E-03    -112.032E-03     9.65537E-03    -112.147E-03     223.261E-03    -111.994E-03     9.46327E-03
             142    -213.585E-09     87.5220E-03    -89.0979E+06    -242.853E+06    -89.3898E+06     7.72769E+03    -112.048E-03     224.109E-03    -112.061E-03     9.59901E-03    -112.015E-03     223.157E-03    -112.027E-03     9.40351E-03
             143     221.670E-09     86.3371E-03    -89.1198E+06    -242.509E+06    -88.7303E+06    -756.582E+03    -112.090E-03     224.024E-03    -111.934E-03     9.61599E-03    -112.059E-03     223.074E-03    -111.896E-03     9.41380E-03
             144    -13.2131E-09     85.1517E-03    -88.1448E+06    -241.645E+06    -88.4544E+06    -609.890E+03    -112.293E-03     224.145E-03    -111.852E-03     9.65879E-03    -112.259E-03     223.197E-03    -111.816E-03     9.45238E-03
             145     472.242E-09     83.9662E-03    -88.6525E+06    -241.884E+06    -88.3659E+06     1.59366E+06    -112.371E-03     224.215E-03    -111.844E-03     9.67296E-03    -112.340E-03     223.267E-03    -111.806E-03     9.48557E-03
             146    -118.786E-09     82.7809E-03    -88.1470E+06    -241.840E+06    -88.2223E+06     199.776E+03    -112.183E-03     224.059E-03    -111.875E-03     9.42535E-03    -112.149E-03     223.110E-03    -111.838E-03     9.22062E-03
             147     223.162E-09     81.5962E-03    -86.7597E+06    -240.650E+06    -87.6410E+06    -707.123E+03    -112.104E-03     224.035E-03    -111.931E-03     9.24481E-03    -112.066E-03     223.089E-03    -111.894E-03     9.03023E-03
             148    -93.7248E-09     80.4108E-03    -86.6749E+06    -239.867E+06    -86.3569E+06     608.504E+03    -112.201E-03     224.284E-03    -112.082E-03     9.30840E-03    -112.165E-03     223.340E-03    -112.041E-03     9.11310E-03
             149     122.104E-09     79.2245E-03    -87.8784E+06    -241.238E+06    -87.6950E+06     150.791E+03    -112.248E-03     224.344E-03    -112.096E-03     9.49059E-03    -112.215E-03     223.397E-03    -112.057E-03     9.28944E-03
             150     58.8441E-09     78.0391E-03    -87.7676E+06    -241.216E+06    -87.5887E+06    -402.924E+03    -112.255E-03     224.240E-03    -111.985E-03     9.60091E-03    -112.221E-03     223.293E-03    -111.946E-03     9.38783E-03
             151     157.381E-09     76.8538E-03    -87.0812E+06    -240.883E+06    -87.2157E+06    -142.128E+03    -112.168E-03     224.161E-03    -111.993E-03     9.48522E-03    -112.132E-03     223.214E-03    -111.953E-03     9.27147E-03
             152    -130.452E-09     75.6685E-03    -88.3390E+06    -241.773E+06    -87.8014E+06    -122.238E+03    -112.093E-03     224.127E-03    -112.035E-03     9.24983E-03    -112.060E-03     223.178E-03    -111.995E-03     9.03848E-03
             153     167.094E-09     74.4836E-03    -88.2937E+06    -242.070E+06    -88.4384E+06     75.6525E+03    -112.134E-03     224.122E-03    -111.988E-03     9.04202E-03    -112.100E-03     223.172E-03    -111.951E-03     8.83807E-03
             154    -3.49284E-09     73.2979E-03    -87.6103E+06    -241.534E+06    -87.8236E+06     188.418E+03    -112.135E-03     224.045E-03    -111.910E-03     9.09267E-03    -112.099E-03     223.096E-03    -111.872E-03     8.89669E-03
             155     164.012E-09     72.1128E-03    -88.1191E+06    -241.287E+06    -87.6516E+06     19.0646E+03    -112.194E-03     224.132E-03    -111.938E-03     9.26482E-03    -112.162E-03     223.185E-03    -111.898E-03     9.06655E-03
             156     57.1328E-09     70.9273E-03     -87.984E+06    -241.499E+06    -88.3645E+06     21.3804E+03    -112.275E-03     224.292E-03    -112.018E-03     9.33517E-03    -112.240E-03     223.345E-03    -111.982E-03     9.13297E-03
             157     93.8983E-09     69.7411E-03    -87.5050E+06    -241.258E+06    -87.7140E+06     118.612E+03    -112.187E-03     224.202E-03    -112.015E-03     9.56893E-03    -112.151E-03     223.254E-03    -111.977E-03     9.37060E-03
             158    -9.59331E-09     68.5561E-03    -87.3205E+06    -240.413E+06    -86.2877E+06    -466.304E+03    -112.149E-03     224.155E-03    -112.007E-03     9.72281E-03    -112.115E-03     223.210E-03    -111.963E-03     9.51648E-03
             159     203.789E-09     66.1856E-03    -86.8627E+06    -240.170E+06    -86.6050E+06     884.514E+03    -112.219E-03     224.120E-03    -111.902E-03     9.38350E-03    -112.183E-03     223.176E-03    -111.860E-03     9.18991E-03
             160    -56.6828E-09     65.0000E-03    -87.1999E+06    -240.631E+06    -87.1521E+06     634.899E+03    -112.123E-03     224.054E-03    -111.931E-03     9.27624E-03    -112.087E-03     223.108E-03    -111.891E-03     9.07801E-03
             161     182.982E-09     63.8150E-03    -86.3668E+06    -239.759E+06    -86.9223E+06    -312.234E+03    -112.114E-03     224.017E-03    -111.903E-03     9.43791E-03    -112.075E-03     223.073E-03    -111.865E-03     9.22928E-03
             162    -13.3309E-09     62.6292E-03    -87.3439E+06    -240.266E+06    -87.0028E+06    -139.816E+03    -112.088E-03     224.053E-03    -111.964E-03     9.59616E-03    -112.054E-03     223.109E-03    -111.924E-03     9.39214E-03
             163     7.32483E-09     61.4444E-03    -87.0129E+06    -240.056E+06    -86.6323E+06    -67.2901E+03    -112.089E-03     224.067E-03    -111.978E-03     9.39788E-03    -112.054E-03     223.123E-03    -111.937E-03     9.19566E-03
             164     143.445E-09     60.2590E-03    -86.6817E+06    -240.174E+06    -87.1738E+06     28.7645E+03    -112.125E-03     223.976E-03    -111.851E-03     9.19616E-03    -112.087E-03     223.031E-03    -111.813E-03     8.99356E-03
             165     107.063E-09     59.0742E-03    -87.4978E+06    -240.480E+06    -86.7076E+06    -153.901E+03    -112.007E-03     223.960E-03    -111.952E-03     9.32575E-03    -111.974E-03     223.015E-03    -111.910E-03     9.11592E-03
             166    -297.408E-09     57.8888E-03    -86.4896E+06    -239.741E+06    -86.2305E+06    -777.047E+03    -112.015E-03     224.010E-03    -111.996E-03     9.18248E-03    -111.978E-03     223.066E-03    -111.954E-03     8.96817E-03
             167     485.650E-09     56.7034E-03    -86.5054E+06    -240.341E+06    -87.8037E+06    -158.096E+03    -112.147E-03     223.904E-03    -111.757E-03     9.17016E-03    -112.107E-03     222.959E-03    -111.723E-03     8.97257E-03
             168    -96.5656E-09     55.5188E-03    -88.3101E+06    -241.178E+06    -87.8588E+06     1.10440E+06    -112.149E-03     223.885E-03    -111.736E-03     9.15174E-03    -112.117E-03     222.939E-03    -111.698E-03     8.96206E-03
             169     340.766E-09     54.3336E-03    -87.1680E+06    -240.126E+06    -86.7440E+06     684.731E+03    -112.141E-03     223.914E-03    -111.773E-03     9.03389E-03    -112.107E-03     222.970E-03    -111.732E-03     8.83376E-03
             170    -21.3370E-09     53.1484E-03    -86.3061E+06    -239.561E+06    -86.5391E+06    -817.332E+03    -111.984E-03     223.850E-03    -111.865E-03     9.43547E-03    -111.946E-03     222.907E-03    -111.826E-03     9.22575E-03
             171    -147.380E-09     51.9629E-03    -87.3476E+06    -240.460E+06    -87.3410E+06    -737.174E+03    -111.807E-03     223.609E-03    -111.802E-03     9.29511E-03    -111.772E-03     222.664E-03    -111.763E-03     9.09007E-03
             172     288.114E-09     50.7790E-03    -86.9229E+06    -240.384E+06    -87.4734E+06     83.6716E+03    -111.750E-03     223.332E-03    -111.582E-03     9.15404E-03    -111.713E-03     222.387E-03    -111.545E-03     8.95344E-03
             173    -198.392E-09     49.5949E-03    -87.5027E+06    -240.660E+06    -87.3251E+06     589.415E+03    -111.561E-03     223.195E-03    -111.634E-03     8.84310E-03    -111.526E-03     222.250E-03    -111.595E-03     8.64439E-03
             174    -40.4540E-09     48.4109E-03    -86.8786E+06    -239.624E+06    -86.3812E+06     150.721E+03    -111.571E-03     223.143E-03    -111.571E-03     8.73312E-03    -111.536E-03     222.200E-03    -111.530E-03     8.53110E-03
             175     252.404E-09     47.2262E-03    -86.2617E+06    -239.242E+06    -86.5774E+06    -490.152E+03    -111.611E-03     223.101E-03    -111.489E-03     9.07132E-03    -111.574E-03     222.159E-03    -111.450E-03     8.86271E-03
             176    -305.499E-09     46.0421E-03    -87.5494E+06    -240.491E+06    -87.5189E+06    -68.9402E+03    -111.382E-03     222.759E-03    -111.377E-03     9.05184E-03    -111.347E-03     221.814E-03    -111.339E-03     8.85037E-03
             177     331.772E-09     44.8587E-03    -87.4447E+06    -240.538E+06    -87.6048E+06     201.672E+03    -111.343E-03     222.431E-03    -111.088E-03     9.22818E-03    -111.308E-03     221.486E-03    -111.050E-03     9.03717E-03
             178     15.2437E-09     43.6752E-03    -86.2635E+06    -239.608E+06    -86.6056E+06     297.693E+03    -111.227E-03     222.290E-03    -111.064E-03     9.45017E-03    -111.188E-03     221.347E-03    -111.024E-03     9.26392E-03
             179    -141.485E-09     42.4922E-03    -87.2077E+06    -239.935E+06    -87.0449E+06     27.8010E+03    -110.952E-03     221.930E-03    -110.977E-03     9.17935E-03    -110.917E-03     220.987E-03    -110.938E-03     8.98717E-03
             180     193.372E-09     41.3099E-03    -88.2213E+06    -240.608E+06    -88.0570E+06     106.448E+03    -110.803E-03     221.281E-03    -110.478E-03     8.83839E-03    -110.770E-03     220.337E-03    -110.441E-03     8.64464E-03
             181     247.094E-09     40.1287E-03    -87.2452E+06    -240.238E+06    -87.6919E+06    -248.971E+03    -110.527E-03     220.707E-03    -110.180E-03     9.05625E-03    -110.491E-03     219.764E-03    -110.144E-03     8.85965E-03
             182    -168.219E-09     38.9470E-03    -87.5908E+06    -240.426E+06    -87.7242E+06     19.3850E+03    -110.131E-03     220.091E-03    -109.960E-03     8.92572E-03    -110.096E-03     219.148E-03    -109.923E-03     8.73479E-03
             183     329.842E-09     37.7675E-03    -87.6661E+06    -240.043E+06    -87.1795E+06    -123.437E+03    -109.734E-03     219.257E-03    -109.522E-03     8.78985E-03    -109.701E-03     218.314E-03    -109.483E-03     8.59886E-03
             184    -177.470E-09     36.5882E-03    -86.6049E+06    -239.262E+06    -87.0116E+06    -250.993E+03    -109.356E-03     218.575E-03    -109.219E-03     8.85542E-03    -109.319E-03     217.634E-03    -109.181E-03     8.66731E-03
             185     208.650E-09     35.4097E-03    -87.9788E+06    -240.605E+06    -88.4815E+06     1.05685E+06    -108.950E-03     217.690E-03    -108.740E-03     8.59486E-03    -108.916E-03     216.747E-03    -108.706E-03     8.42554E-03
             186     63.6759E-09     34.2329E-03    -87.5881E+06    -239.594E+06    -86.8769E+06     926.666E+03    -108.320E-03     216.555E-03    -108.235E-03     8.67485E-03    -108.288E-03     215.614E-03    -108.195E-03     8.50487E-03
             187    -222.122E-09     33.0570E-03    -85.9697E+06    -238.095E+06    -86.0737E+06    -604.092E+03    -107.569E-03     215.362E-03    -107.793E-03     8.43479E-03    -107.532E-03     214.425E-03    -107.753E-03     8.24386E-03
             188    -11.0186E-09     31.8830E-03    -86.6623E+06    -238.943E+06    -87.5501E+06    -394.317E+03    -106.874E-03     213.914E-03    -107.040E-03     8.01802E-03    -106.836E-03     212.976E-03    -107.006E-03     7.82811E-03
             189    -60.5599E-09     30.7111E-03    -86.0362E+06    -237.829E+06    -86.3148E+06     89.4905E+03    -106.137E-03     212.420E-03    -106.283E-03     7.61515E-03    -106.100E-03     211.484E-03    -106.245E-03     7.43523E-03
             190    -129.890E-09     29.5406E-03    -86.0113E+06    -237.502E+06    -86.1350E+06    -282.821E+03    -105.453E-03     210.935E-03    -105.482E-03     7.22843E-03    -105.416E-03     210.000E-03    -105.444E-03     7.04985E-03
             191     251.037E-09     28.3715E-03    -86.4021E+06    -237.616E+06    -86.5017E+06    -220.088E+03    -104.604E-03     209.249E-03    -104.645E-03     7.22501E-03    -104.569E-03     208.315E-03    -104.608E-03     7.05242E-03
             192    -460.788E-09     27.2048E-03    -86.3731E+06    -237.070E+06    -86.4238E+06    -204.916E+03    -103.550E-03     207.361E-03    -103.811E-03     7.25374E-03    -103.515E-03     206.430E-03    -103.774E-03     7.08410E-03
             193     224.922E-09     26.0399E-03    -87.1025E+06    -237.201E+06    -87.0880E+06    -66.1214E+03    -102.864E-03     205.436E-03    -102.572E-03     7.01440E-03    -102.832E-03     204.506E-03    -102.537E-03     6.85277E-03
             194     466.481E-09     24.8784E-03    -86.5552E+06    -236.201E+06    -86.3547E+06     422.030E+03    -102.031E-03     203.435E-03    -101.404E-03     6.84849E-03    -101.998E-03     202.508E-03    -101.368E-03     6.69788E-03
             195    -156.494E-09     23.7183E-03    -85.0713E+06    -234.192E+06    -84.7778E+06     290.332E+03    -100.859E-03     201.724E-03    -100.865E-03     6.69837E-03    -100.824E-03     200.802E-03    -100.826E-03     6.54345E-03
             196    -178.768E-09     22.5608E-03    -84.7148E+06    -233.162E+06    -84.5007E+06    -460.182E+03    -100.267E-03     200.356E-03    -100.089E-03     6.21489E-03    -100.232E-03     199.439E-03    -100.051E-03     6.05302E-03
             197     790.898E-09     21.4030E-03    -85.2702E+06    -232.847E+06    -85.1156E+06     395.588E+03    -99.5456E-03     198.578E-03    -99.0323E-03     6.53174E-03    -99.5128E-03     197.664E-03    -98.9966E-03     6.39381E-03
             198    -582.135E-09     20.2491E-03    -84.7445E+06    -231.195E+06    -84.4740E+06     1.02253E+06    -98.2816E-03     196.442E-03    -98.1599E-03     6.20487E-03    -98.2492E-03     195.534E-03    -98.1242E-03     6.08577E-03
             199     558.635E-09     19.0985E-03    -83.6907E+06    -229.786E+06    -84.2118E+06     269.367E+03    -97.1396E-03     194.193E-03    -97.0534E-03     5.02740E-03    -97.1041E-03     193.290E-03    -97.0199E-03     4.89722E-03
             200    -409.037E-09     17.9497E-03    -83.5383E+06    -228.420E+06    -83.7953E+06    -207.365E+03    -95.4745E-03     191.161E-03    -95.6869E-03     4.27969E-03    -95.4408E-03     190.264E-03    -95.6536E-03     4.14558E-03
             201    -96.8413E-09     16.8046E-03    -82.6988E+06    -226.371E+06    -83.4211E+06    -110.260E+03    -93.3675E-03     186.988E-03    -93.6204E-03     3.43301E-03    -93.3329E-03     186.099E-03    -93.5893E-03     3.31179E-03
             202     179.657E-09     15.6661E-03    -82.6467E+06    -224.209E+06    -82.7773E+06     569.278E+03    -91.0234E-03     181.768E-03    -90.7443E-03     2.67304E-03    -90.9925E-03     180.888E-03    -90.7132E-03     2.57515E-03
             203     196.527E-09     14.5325E-03    -81.3459E+06    -220.365E+06    -81.1459E+06     948.173E+03    -87.5811E-03     175.041E-03    -87.4604E-03     2.10956E-03    -87.5515E-03     174.176E-03    -87.4286E-03     2.03621E-03
             204    -368.562E-09     13.4086E-03    -78.9990E+06    -216.426E+06    -79.5526E+06     1.32699E+06    -83.4344E-03     166.840E-03    -83.4056E-03     1.56914E-03    -83.4010E-03     165.988E-03    -83.3750E-03     1.51632E-03
             205     590.115E-09     12.2937E-03    -77.9814E+06    -211.759E+06    -77.2630E+06     1.80539E+06    -79.1294E-03     157.708E-03    -78.5782E-03     802.086E-06    -79.1010E-03     156.874E-03    -78.5443E-03     764.237E-06
             206     123.189E-09     11.1911E-03    -74.2428E+06    -204.518E+06    -73.3872E+06     1.43509E+06    -74.3750E-03     148.207E-03    -73.8322E-03     292.319E-06    -74.3440E-03     147.399E-03    -73.7950E-03     255.071E-06
             207     87.1019E-09     10.0969E-03    -68.4204E+06    -197.233E+06    -69.0454E+06     1.66879E+06    -69.8718E-03     139.362E-03    -69.4902E-03     137.317E-06    -69.8283E-03     138.576E-03    -69.4503E-03     106.673E-06
             208     343.623E-09     9.01295E-03    -64.9048E+06    -191.619E+06    -63.9944E+06     1.23519E+06    -66.7249E-03     132.915E-03    -66.1906E-03     881.649E-06    -66.6790E-03     132.145E-03    -66.1386E-03     848.290E-06
             209     138.199E-09     7.93325E-03    -64.0421E+06    -190.696E+06    -62.6277E+06    -123.589E+03    -65.8592E-03     131.541E-03    -65.6821E-03     2.48186E-03    -65.8123E-03     130.773E-03    -65.6258E-03     2.43145E-03
             210    -307.121E-09     6.85231E-03    -65.0171E+06    -194.024E+06    -64.3152E+06    -804.249E+03    -68.5973E-03     137.434E-03    -68.8365E-03     4.32921E-03    -68.5492E-03     136.652E-03    -68.7824E-03     4.27134E-03
             211     84.4365E-09     5.75957E-03    -65.6227E+06    -198.891E+06    -65.2908E+06    -1.27623E+06    -75.2311E-03     150.653E-03    -75.4220E-03     5.91997E-03    -75.1792E-03     149.847E-03    -75.3649E-03     5.85595E-03
             212    -166.002E-09     4.64975E-03    -63.6746E+06    -203.009E+06    -64.5803E+06    -755.967E+03    -84.2596E-03     168.872E-03    -84.6122E-03     6.48233E-03    -84.1942E-03     168.040E-03    -84.5484E-03     6.42145E-03
             213    -323.206E-09     3.51670E-03    -59.5281E+06    -204.414E+06    -60.2039E+06     83.7311E+03    -94.4185E-03     189.138E-03    -94.7196E-03     6.30833E-03    -94.3367E-03     188.287E-03    -94.6380E-03     6.25712E-03
             214     330.838E-09     2.35990E-03    -54.3552E+06    -203.826E+06    -54.4671E+06     259.480E+03    -103.720E-03     207.392E-03    -103.672E-03     5.01623E-03    -103.619E-03     206.529E-03    -103.570E-03     4.97545E-03
             215    -251.431E-09     1.18476E-03    -50.2891E+06    -202.748E+06    -50.0794E+06     405.975E+03    -109.854E-03     219.475E-03    -109.621E-03     2.68106E-03    -109.738E-03     218.607E-03    -109.504E-03     2.65998E-03
             216     803.792E-06     2.06779E-15    -48.5932E+06    -202.097E+06    -48.2858E+06     229.576E+03    -112.023E-03     223.787E-03    -111.764E-03     2.58899E-03    -111.902E-03     222.917E-03    -111.642E-03     2.56828E-03
             217     1.60778E-03     2.06779E-15    -48.5004E+06    -201.688E+06    -47.6122E+06    -137.485E+03    -112.071E-03     224.005E-03    -111.934E-03     4.50126E-03    -111.953E-03     223.136E-03    -111.809E-03     4.45326E-03
             218     2.41154E-03     2.06779E-15    -48.0041E+06    -200.815E+06    -46.5952E+06     14.8628E+03    -112.040E-03     224.026E-03    -111.986E-03     6.44315E-03    -111.922E-03     223.160E-03    -111.858E-03     6.37097E-03
             219     3.21520E-03     2.06779E-15    -47.0494E+06    -199.694E+06    -45.6822E+06    -811.470E+03    -111.940E-03     223.935E-03    -111.996E-03     8.68961E-03    -111.821E-03     223.073E-03    -111.867E-03     8.58283E-03
             220     4.01921E-03     2.06779E-15    -45.1156E+06    -198.034E+06    -45.0701E+06    -1.87922E+06    -111.917E-03     223.903E-03    -111.986E-03     10.8461E-03    -111.793E-03     223.046E-03    -111.859E-03     10.7030E-03
             221     4.82305E-03     2.06779E-15    -42.0669E+06    -190.022E+06    -46.5696E+06    -2.97888E+06    -112.018E-03     223.981E-03    -111.963E-03     13.1560E-03    -111.889E-03     223.162E-03    -111.859E-03     12.9753E-03
             222     5.62659E-03     2.06779E-15    -37.7228E+06    -171.762E+06    -52.0149E+06    -5.54928E+06    -112.231E-03     224.158E-03    -111.927E-03     15.5356E-03    -112.100E-03     223.434E-03    -111.883E-03     15.2925E-03
             223     6.43023E-03     2.06779E-15    -30.7660E+06    -145.212E+06    -58.3732E+06    -8.50746E+06    -112.605E-03     224.507E-03    -111.902E-03     18.1437E-03    -112.471E-03     223.917E-03    -111.939E-03     17.8272E-03
             224     7.23278E-03     2.06779E-15    -22.6190E+06    -110.826E+06    -62.1099E+06    -9.19026E+06    -113.237E-03     225.159E-03    -111.922E-03     20.8092E-03    -113.108E-03     224.736E-03    -112.039E-03     20.4433E-03
             225     8.03568E-03     2.06779E-15    -15.5261E+06    -69.9292E+06    -62.9108E+06    -8.11101E+06    -114.256E-03     226.270E-03    -112.014E-03     23.5423E-03    -114.153E-03     226.046E-03    -112.204E-03     23.1421E-03
             226     8.83630E-03     2.06779E-15    -10.6819E+06    -22.4881E+06    -55.9847E+06    -5.87979E+06    -115.715E-03     227.940E-03    -112.225E-03     27.2793E-03    -115.671E-03     227.940E-03    -112.457E-03     26.8491E-03
             227     9.63524E-03     2.06779E-15    -8.25160E+06     16.8899E+06    -30.5481E+06    -1.69286E+06    -117.748E-03     230.403E-03    -112.655E-03     31.5351E-03    -117.794E-03     230.568E-03    -112.821E-03     31.0685E-03
             228     10.4333E-03     2.06779E-15    -8.45125E+06     36.8918E+06     1.47303E+06     589.851E+03    -120.995E-03     234.299E-03    -113.304E-03     36.5382E-03    -121.129E-03     234.529E-03    -113.338E-03     35.9684E-03
             229     11.2257E-03     2.06779E-15    -9.27284E+06     48.6225E+06     31.1241E+06     1.96964E+06    -125.111E-03     239.260E-03    -114.149E-03     40.4593E-03    -125.325E-03     239.523E-03    -114.051E-03     39.7255E-03
             230     12.0188E-03     2.06779E-15    -7.93965E+06     55.7102E+06     58.1036E+06     1.56547E+06    -131.149E-03     246.378E-03    -115.229E-03     48.7350E-03    -131.431E-03     246.659E-03    -115.008E-03     47.7994E-03
             231     12.7960E-03     2.06779E-15    -3.62490E+06     66.1778E+06     78.4043E+06    -2.08700E+06    -143.005E-03     259.704E-03    -116.699E-03     70.3466E-03    -143.398E-03     260.087E-03    -116.398E-03     68.8421E-03
             232     13.5587E-03     2.06779E-15     1.09597E+06     80.4169E+06     90.1251E+06     127.430E+03    -160.816E-03     279.634E-03    -118.819E-03     93.4852E-03    -161.380E-03     280.226E-03    -118.486E-03     91.0465E-03
             233     14.3144E-03     2.06779E-15    -1.23026E+06     85.3482E+06     87.6481E+06     6.33566E+06    -189.241E-03     311.130E-03    -121.889E-03     120.377E-03    -190.266E-03     312.209E-03    -121.573E-03     115.723E-03
             234     15.0371E-03     2.06779E-15     2.69035E+06     95.1792E+06     90.3827E+06     7.35616E+06    -242.299E-03     368.922E-03    -126.623E-03     216.344E-03    -245.830E-03     372.476E-03    -126.313E-03     204.546E-03
             235     15.8895E-03     1.52784E-03     638.942E+03     105.612E+06     86.4403E+06     4.03686E+06    -241.645E-03     366.643E-03    -124.998E-03     273.656E-03    -247.998E-03     373.069E-03    -124.720E-03     257.633E-03
             236     15.9697E-03     2.83582E-03    -5.59741E+06     103.748E+06     71.7172E+06     5.03694E+06    -214.250E-03     332.226E-03    -117.976E-03     199.492E-03    -219.792E-03     337.912E-03    -117.760E-03     185.142E-03
             237     16.0292E-03     4.14996E-03    -4.66171E+06     100.084E+06     69.1388E+06     3.73993E+06    -218.628E-03     332.914E-03    -114.287E-03     127.928E-03    -222.362E-03     336.778E-03    -114.079E-03     114.427E-03
             238     16.0499E-03     5.47389E-03    -1.27726E+06     105.697E+06     78.2800E+06     594.348E+03    -214.629E-03     327.190E-03    -112.561E-03     102.557E-03    -218.022E-03     330.734E-03    -112.321E-03     89.4438E-03
             239     16.0640E-03     6.80654E-03    -1.06588E+06     107.056E+06     81.6761E+06     1.81689E+06    -205.976E-03     317.924E-03    -111.948E-03     98.8775E-03    -209.477E-03     321.568E-03    -111.693E-03     86.2682E-03
             240     16.0672E-03     8.09936E-03    -2.95058E+06     105.510E+06     82.1781E+06     1.04796E+06    -192.516E-03     304.454E-03    -111.937E-03     101.732E-03    -196.209E-03     308.273E-03    -111.675E-03     90.0756E-03
             241     16.0676E-03     9.38472E-03    -1.47332E+06     107.107E+06     85.1013E+06     1.20519E+06    -178.882E-03     291.027E-03    -112.145E-03     99.0091E-03    -182.557E-03     294.829E-03    -111.873E-03     88.7010E-03
             242     16.0713E-03     10.6316E-03    -1.63449E+06     106.799E+06     84.5199E+06     867.605E+03    -164.757E-03     277.076E-03    -112.319E-03     95.2127E-03    -168.325E-03     280.770E-03    -112.049E-03     86.3448E-03
             243     16.0736E-03     11.8778E-03    -4.10852E+06     105.727E+06     83.7153E+06    -2.02881E+06    -155.908E-03     268.254E-03    -112.346E-03     94.1493E-03    -159.516E-03     271.980E-03    -112.075E-03     86.1389E-03
             244     16.0771E-03     13.1174E-03    -1.91761E+06     109.531E+06     87.8872E+06    -1.26316E+06    -148.984E-03     261.339E-03    -112.355E-03     93.4462E-03    -152.677E-03     265.159E-03    -112.071E-03     86.1990E-03
             245     16.0786E-03     14.3429E-03    -329.529E+03     110.430E+06     88.2142E+06     1.96434E+06    -142.560E-03     254.873E-03    -112.313E-03     94.6761E-03    -146.300E-03     258.747E-03    -112.032E-03     88.1307E-03
             246     16.0847E-03     15.5659E-03    -3.64973E+06     107.675E+06     85.1924E+06     2.75104E+06    -139.288E-03     251.467E-03    -112.179E-03     97.7116E-03    -143.098E-03     255.400E-03    -111.904E-03     91.5727E-03
             247     16.0843E-03     16.7932E-03    -2.48152E+06     111.256E+06     87.8272E+06     1.73317E+06    -136.898E-03     248.985E-03    -112.088E-03     100.677E-03    -140.890E-03     253.109E-03    -111.806E-03     94.7666E-03
             248     16.0888E-03     18.0045E-03    -2.68821E+06     111.773E+06     88.1001E+06     617.471E+03    -134.441E-03     246.430E-03    -111.989E-03     102.661E-03    -138.547E-03     250.667E-03    -111.707E-03     96.9248E-03
             249     16.0903E-03     19.2206E-03    -1.19608E+06     113.768E+06     89.5538E+06     374.073E+03    -131.662E-03     243.550E-03    -111.889E-03     101.521E-03    -135.764E-03     247.794E-03    -111.604E-03     96.0891E-03
             250     16.0935E-03     20.4311E-03    -2.87794E+06     112.669E+06     88.5992E+06    -1.27203E+06    -129.928E-03     241.758E-03    -111.830E-03     101.927E-03    -134.129E-03     246.091E-03    -111.546E-03     96.6589E-03
             251     16.0919E-03     21.6362E-03    -2.11268E+06     114.001E+06     90.8210E+06    -375.872E+03    -130.407E-03     242.159E-03    -111.752E-03     101.793E-03    -134.635E-03     246.521E-03    -111.461E-03     96.6047E-03
             252     16.0965E-03     22.8518E-03    -1.47975E+06     114.965E+06     91.0601E+06     1.29560E+06    -128.613E-03     240.322E-03    -111.708E-03     102.438E-03    -132.872E-03     244.719E-03    -111.418E-03     97.4872E-03
             253     16.0945E-03     24.0573E-03    -2.69825E+06     113.099E+06     89.3074E+06     219.776E+03    -126.015E-03     237.758E-03    -111.743E-03     105.058E-03    -130.413E-03     242.289E-03    -111.456E-03     100.336E-03
             254     16.0956E-03     25.2611E-03    -2.37432E+06     113.814E+06     90.7945E+06     15.0348E+03    -123.798E-03     235.561E-03    -111.763E-03     106.649E-03    -128.277E-03     240.172E-03    -111.471E-03     102.170E-03
             255     16.0980E-03     26.4600E-03    -1.57312E+06     115.339E+06     92.0248E+06     252.352E+03    -121.258E-03     233.014E-03    -111.757E-03     106.123E-03    -125.753E-03     237.646E-03    -111.462E-03     101.937E-03
             256     16.0966E-03     27.6591E-03    -2.31434E+06     115.085E+06     91.3517E+06    -297.072E+03    -121.498E-03     233.261E-03    -111.763E-03     106.239E-03    -126.046E-03     237.944E-03    -111.470E-03     102.115E-03
             257     16.0961E-03     28.8578E-03    -3.49944E+06     114.051E+06     90.1357E+06     446.695E+03    -120.636E-03     232.442E-03    -111.806E-03     107.211E-03    -125.188E-03     237.126E-03    -111.516E-03     103.219E-03
             258     16.0972E-03     30.0601E-03    -1.33161E+06     116.104E+06     91.3043E+06     874.409E+03    -115.961E-03     227.821E-03    -111.860E-03     110.529E-03    -120.615E-03     232.618E-03    -111.570E-03     106.894E-03
             259     16.0998E-03     31.2413E-03    -2.43304E+06     115.540E+06     90.9221E+06    -534.235E+03    -115.996E-03     227.801E-03    -111.806E-03     110.134E-03    -120.679E-03     232.622E-03    -111.515E-03     106.538E-03
             260     16.0967E-03     32.4389E-03    -3.15321E+06     114.862E+06     91.0848E+06     215.788E+03    -117.716E-03     229.497E-03    -111.781E-03     106.931E-03    -122.306E-03     234.220E-03    -111.488E-03     103.317E-03
             261     16.0991E-03     33.6381E-03    -1.67586E+06     116.239E+06     91.8155E+06     447.936E+03    -114.057E-03     225.910E-03    -111.853E-03     111.126E-03    -118.781E-03     230.775E-03    -111.560E-03     107.769E-03
             262     16.0990E-03     34.8189E-03    -1.85233E+06     116.201E+06     91.3185E+06    -144.378E+03    -112.407E-03     224.247E-03    -111.840E-03     111.745E-03    -117.157E-03     229.138E-03    -111.549E-03     108.559E-03
             263     16.1001E-03     36.0092E-03    -2.67169E+06     115.507E+06     90.9714E+06    -228.541E+03    -113.282E-03     225.073E-03    -111.790E-03     107.974E-03    -117.938E-03     229.865E-03    -111.499E-03     104.790E-03
             264     16.0994E-03     37.1974E-03    -2.81676E+06     115.351E+06     91.0035E+06       6.403E+03    -113.467E-03     225.265E-03    -111.798E-03     106.760E-03    -118.113E-03     230.046E-03    -111.506E-03     103.609E-03
             265     16.0989E-03     38.3867E-03    -2.05915E+06     116.275E+06     91.8463E+06     580.814E+03    -113.059E-03     224.879E-03    -111.821E-03     108.146E-03    -117.740E-03     229.700E-03    -111.527E-03     105.061E-03
             266     16.1000E-03     39.5795E-03    -2.04865E+06     116.628E+06     92.2010E+06     193.458E+03    -111.862E-03     223.711E-03    -111.850E-03     109.464E-03    -116.597E-03     228.586E-03    -111.555E-03     106.424E-03
             267     16.0985E-03     40.7608E-03    -2.04058E+06     116.554E+06     91.8096E+06    -567.119E+03    -111.605E-03     223.472E-03    -111.867E-03     106.366E-03    -116.257E-03     228.264E-03    -111.574E-03     103.374E-03
             268     16.0995E-03     41.9465E-03    -3.98729E+06     114.230E+06     89.4067E+06    -2.04419E+06    -111.977E-03     223.805E-03    -111.828E-03     107.332E-03    -116.593E-03     228.553E-03    -111.541E-03     104.314E-03
             269     16.1007E-03     43.1438E-03    -629.896E+03     118.103E+06     93.5642E+06    -1.35847E+06    -110.948E-03     222.761E-03    -111.813E-03     111.433E-03    -115.670E-03     227.630E-03    -111.516E-03     108.451E-03
             270     16.1008E-03     44.3240E-03    -1.25695E+06     117.965E+06     93.5553E+06     1.52090E+06    -110.660E-03     222.528E-03    -111.868E-03     106.977E-03    -115.282E-03     227.292E-03    -111.569E-03     104.176E-03
             271     16.0962E-03     45.5038E-03    -3.84843E+06     114.824E+06     90.0210E+06     1.92482E+06    -110.387E-03     222.293E-03    -111.906E-03     103.529E-03    -114.866E-03     226.905E-03    -111.617E-03     100.801E-03
             272     16.1026E-03     46.6965E-03    -2.19552E+06     116.842E+06     91.5672E+06     878.524E+03    -109.685E-03     221.569E-03    -111.884E-03     108.466E-03    -114.311E-03     226.337E-03    -111.593E-03     105.688E-03
             273     16.0973E-03     47.8819E-03    -2.41454E+06     117.474E+06     91.8307E+06    -33.2031E+03    -110.760E-03     222.630E-03    -111.870E-03     108.662E-03    -115.457E-03     227.469E-03    -111.578E-03     105.800E-03
             274     16.1006E-03     49.0646E-03    -2.82992E+06     116.912E+06     92.0640E+06    -1.42859E+06    -111.286E-03     223.159E-03    -111.873E-03     105.581E-03    -115.912E-03     227.923E-03    -111.578E-03     102.651E-03
             275     16.0982E-03     50.2516E-03    -2.74096E+06     116.221E+06     91.3310E+06    -25.4205E+03    -110.964E-03     222.839E-03    -111.875E-03     106.256E-03    -115.566E-03     227.580E-03    -111.583E-03     103.422E-03
             276     16.1000E-03     51.4460E-03    -3.07016E+06     115.412E+06     90.0779E+06    -977.721E+03    -108.890E-03     220.802E-03    -111.912E-03     109.512E-03    -113.571E-03     225.621E-03    -111.625E-03     106.798E-03
             277     16.0998E-03     52.6187E-03    -1.40527E+06     117.848E+06     93.3053E+06    -1.77966E+06    -109.648E-03     221.548E-03    -111.900E-03     110.364E-03    -114.351E-03     226.394E-03    -111.602E-03     107.579E-03
             278     16.0987E-03     53.8128E-03    -1.66051E+06     117.928E+06     93.5692E+06     1.07041E+06    -111.015E-03     222.884E-03    -111.870E-03     108.522E-03    -115.666E-03     227.677E-03    -111.570E-03     105.671E-03
             279     16.1008E-03     54.9961E-03    -2.71603E+06     115.927E+06     90.9832E+06     928.929E+03    -108.956E-03     220.859E-03    -111.902E-03     107.424E-03    -113.592E-03     225.632E-03    -111.612E-03     104.723E-03
             280     16.0983E-03     56.1745E-03    -3.47015E+06     114.636E+06     89.9741E+06    -1.50425E+06    -109.881E-03     221.770E-03    -111.889E-03     106.306E-03    -114.479E-03     226.502E-03    -111.601E-03     103.577E-03
             281     16.1004E-03     57.3660E-03    -1.77198E+06     116.726E+06     93.3306E+06    -1.14958E+06    -110.934E-03     222.797E-03    -111.863E-03     107.324E-03    -115.554E-03     227.555E-03    -111.563E-03     104.471E-03
             282     16.0994E-03     58.5537E-03    -2.04147E+06     116.831E+06     93.1488E+06     1.91172E+06    -111.609E-03     223.488E-03    -111.879E-03     109.943E-03    -116.342E-03     228.358E-03    -111.580E-03     107.072E-03
             283     16.0972E-03     59.7417E-03    -4.02534E+06     114.816E+06     89.6846E+06     1.92832E+06    -111.463E-03     223.355E-03    -111.891E-03     111.626E-03    -116.226E-03     228.251E-03    -111.604E-03     108.732E-03
             284     16.1015E-03     60.9290E-03    -2.13726E+06     116.758E+06     91.6492E+06    -1.34430E+06    -108.343E-03     220.254E-03    -111.912E-03     113.076E-03    -113.123E-03     225.176E-03    -111.619E-03     110.358E-03
             285     16.0993E-03     62.1094E-03    -1.17492E+06     117.991E+06     93.6556E+06    -1.77028E+06    -107.713E-03     219.652E-03    -111.939E-03     109.752E-03    -112.433E-03     224.515E-03    -111.640E-03     107.169E-03
             286     16.0989E-03     63.2856E-03    -2.48840E+06     115.581E+06     91.5009E+06    -243.063E+03    -109.446E-03     221.351E-03    -111.904E-03     103.461E-03    -113.893E-03     225.934E-03    -111.611E-03     100.777E-03
             287     16.1007E-03     64.4697E-03    -2.41095E+06     115.975E+06     92.4143E+06     302.944E+03    -111.376E-03     223.226E-03    -111.850E-03     102.339E-03    -115.750E-03     227.735E-03    -111.552E-03     99.5027E-03
             288     16.0980E-03     65.6691E-03    -860.195E+03     118.598E+06     93.9867E+06     1.96028E+06    -111.230E-03     223.137E-03    -111.907E-03     104.317E-03    -115.736E-03     227.789E-03    -111.608E-03     101.511E-03
             289     16.0983E-03     66.8458E-03    -4.18622E+06     114.861E+06     89.6223E+06    -275.356E+03    -109.308E-03     221.226E-03    -111.918E-03     108.055E-03    -113.882E-03     225.934E-03    -111.631E-03     105.326E-03
             290     16.1024E-03     68.0336E-03    -1.43205E+06     116.838E+06     93.1471E+06    -2.24146E+06    -109.485E-03     221.342E-03    -111.857E-03     107.866E-03    -114.081E-03     226.078E-03    -111.559E-03     105.092E-03
             291     16.0981E-03     69.2223E-03    -2.02192E+06     115.095E+06     92.4929E+06     1.36361E+06    -110.367E-03     222.262E-03    -111.895E-03     103.701E-03    -114.931E-03     226.959E-03    -111.597E-03     100.982E-03
             292     804.610E-06     68.5668E-03    -86.3631E+06    -239.005E+06    -84.3513E+06    -178.452E+03    -112.167E-03     224.211E-03    -112.045E-03     15.5847E-03    -112.142E-03     223.277E-03    -111.995E-03     15.2411E-03
             293     1.60927E-03     68.5908E-03    -83.9474E+06    -234.684E+06    -77.9735E+06     269.121E+03    -112.248E-03     224.341E-03    -112.093E-03     28.1231E-03    -112.254E-03     223.443E-03    -112.021E-03     27.4859E-03
             294     2.41384E-03     68.6296E-03    -80.1804E+06    -227.575E+06    -67.5462E+06     689.392E+03    -112.406E-03     224.520E-03    -112.113E-03     41.3889E-03    -112.467E-03     223.683E-03    -112.005E-03     40.4252E-03
             295     3.21858E-03     68.6833E-03    -75.3955E+06    -218.887E+06    -55.1551E+06     857.772E+03    -112.658E-03     224.790E-03    -112.132E-03     54.6582E-03    -112.797E-03     224.044E-03    -111.981E-03     53.3331E-03
             296     4.02339E-03     68.7518E-03    -70.5159E+06    -207.450E+06    -43.4230E+06     413.598E+03    -112.992E-03     225.135E-03    -112.143E-03     67.7739E-03    -113.240E-03     224.522E-03    -111.957E-03     66.0403E-03
             297     4.82823E-03     68.8348E-03    -65.5424E+06    -190.391E+06    -33.1200E+06         511.238    -113.384E-03     225.526E-03    -112.142E-03     80.6127E-03    -113.781E-03     225.111E-03    -111.936E-03     78.4230E-03
             298     5.63293E-03     68.9321E-03    -60.2797E+06    -171.629E+06    -24.2573E+06    -25.0745E+03    -113.839E-03     225.973E-03    -112.134E-03     93.2599E-03    -114.429E-03     225.810E-03    -111.919E-03     90.5658E-03
             299     6.43777E-03     69.0430E-03    -55.5103E+06    -153.481E+06    -17.3040E+06     240.695E+03    -114.286E-03     226.406E-03    -112.120E-03     105.717E-03    -115.121E-03     226.549E-03    -111.904E-03     102.462E-03
             300     7.24244E-03     69.1679E-03    -51.3132E+06    -133.270E+06    -11.8310E+06     374.044E+03    -114.761E-03     226.858E-03    -112.097E-03     118.215E-03    -115.917E-03     227.393E-03    -111.889E-03     114.320E-03
             301     8.04758E-03     69.3061E-03    -46.8553E+06    -112.336E+06    -6.33138E+06     261.605E+03    -115.238E-03     227.311E-03    -112.073E-03     130.864E-03    -116.810E-03     228.337E-03    -111.874E-03     126.236E-03
             302     8.85191E-03     69.4585E-03    -42.9066E+06    -87.0077E+06    -1.83095E+06     215.980E+03    -115.582E-03     227.618E-03    -112.036E-03     143.532E-03    -117.703E-03     229.283E-03    -111.857E-03     138.075E-03
             303     9.65770E-03     69.6241E-03    -38.6655E+06    -52.2687E+06     2.03914E+06     523.228E+03    -115.941E-03     227.921E-03    -111.980E-03     156.183E-03    -118.781E-03     230.432E-03    -111.838E-03     149.792E-03
             304     10.4618E-03     69.8041E-03    -34.8021E+06    -304.301E+03     8.66669E+06     952.672E+03    -116.074E-03     227.982E-03    -111.908E-03     170.828E-03    -119.945E-03     231.704E-03    -111.814E-03     163.356E-03
             305     11.2669E-03     70.0007E-03    -31.7852E+06     48.4792E+06     19.1395E+06     1.25378E+06    -116.456E-03     228.297E-03    -111.841E-03     194.253E-03    -121.982E-03     233.827E-03    -111.770E-03     185.417E-03
             306     12.0741E-03     70.2305E-03    -28.0753E+06     73.1695E+06     41.1431E+06     1.38392E+06    -118.238E-03     230.092E-03    -111.854E-03     231.085E-03    -126.596E-03     238.491E-03    -111.713E-03     220.388E-03
             307     12.8788E-03     70.5095E-03    -22.9816E+06     89.2691E+06     71.1971E+06     289.374E+03    -120.432E-03     232.370E-03    -111.938E-03     269.196E-03    -132.693E-03     244.660E-03    -111.678E-03     256.698E-03
             308     13.6834E-03     70.8303E-03    -16.9754E+06     106.055E+06     91.6174E+06    -567.111E+03    -120.910E-03     232.927E-03    -112.017E-03     286.606E-03    -136.569E-03     248.637E-03    -111.688E-03     274.018E-03
             309     14.4851E-03     71.1550E-03    -11.7791E+06     119.397E+06     97.9588E+06     174.914E+03    -117.373E-03     229.395E-03    -112.022E-03     284.200E-03    -135.288E-03     247.408E-03    -111.689E-03     274.225E-03
             310     15.2946E-03     71.4683E-03    -5.53764E+06     119.822E+06     96.1385E+06     114.587E+03    -112.057E-03     224.003E-03    -111.946E-03     193.931E-03    -123.789E-03     235.861E-03    -111.631E-03     188.555E-03
             311     804.669E-06     69.7523E-03    -86.7592E+06    -239.682E+06    -85.2755E+06     265.828E+03    -112.157E-03     224.205E-03    -112.048E-03     15.4453E-03    -112.133E-03     223.269E-03    -112.001E-03     15.1074E-03
             312     1.60926E-03     69.7761E-03    -84.4874E+06    -235.024E+06    -78.1234E+06     329.447E+03    -112.191E-03     224.274E-03    -112.083E-03     28.0078E-03    -112.199E-03     223.374E-03    -112.010E-03     27.3716E-03
             313     2.41402E-03     69.8151E-03    -80.6780E+06    -228.013E+06    -67.6541E+06     196.696E+03    -112.397E-03     224.491E-03    -112.095E-03     41.3663E-03    -112.459E-03     223.654E-03    -111.985E-03     40.3962E-03
             314     3.21870E-03     69.8686E-03    -75.6283E+06    -219.485E+06    -55.4863E+06     452.398E+03    -112.708E-03     224.830E-03    -112.122E-03     54.6402E-03    -112.846E-03     224.081E-03    -111.971E-03     53.3081E-03
             315     4.02337E-03     69.9373E-03    -70.1020E+06    -207.215E+06    -43.0934E+06     813.671E+03    -113.048E-03     225.195E-03    -112.147E-03     67.7004E-03    -113.295E-03     224.582E-03    -111.961E-03     65.9700E-03
             316     4.82801E-03     70.0202E-03    -64.7265E+06    -189.631E+06    -32.4659E+06     417.682E+03    -113.424E-03     225.578E-03    -112.154E-03     80.5950E-03    -113.820E-03     225.165E-03    -111.947E-03     78.4104E-03
             317     5.63288E-03     70.1174E-03    -59.8688E+06    -171.818E+06    -24.3163E+06     311.166E+03    -113.839E-03     225.985E-03    -112.146E-03     93.2987E-03    -114.427E-03     225.820E-03    -111.931E-03     90.6109E-03
             318     6.43755E-03     70.2286E-03    -55.3701E+06    -154.142E+06    -17.2468E+06     823.507E+03    -114.283E-03     226.414E-03    -112.131E-03     105.798E-03    -115.117E-03     226.554E-03    -111.913E-03     102.551E-03
             319     7.24262E-03     70.3530E-03    -51.0086E+06    -133.088E+06    -11.2824E+06     813.724E+03    -114.736E-03     226.841E-03    -112.105E-03     118.358E-03    -115.891E-03     227.376E-03    -111.895E-03     114.472E-03
             320     8.04716E-03     70.4919E-03    -47.3617E+06    -111.916E+06    -6.15330E+06     379.239E+03    -115.173E-03     227.247E-03    -112.074E-03     130.990E-03    -116.749E-03     228.275E-03    -111.874E-03     126.369E-03
             321     8.85265E-03     70.6436E-03    -43.8050E+06    -87.1848E+06    -1.93949E+06     278.748E+03    -115.639E-03     227.675E-03    -112.036E-03     143.684E-03    -117.766E-03     229.342E-03    -111.856E-03     138.223E-03
             322     9.65673E-03     70.8099E-03    -40.7326E+06    -52.1660E+06     1.49862E+06    -242.485E+03    -115.829E-03     227.805E-03    -111.976E-03     156.384E-03    -118.682E-03     230.324E-03    -111.834E-03     149.986E-03
             323     10.4626E-03     70.9893E-03    -36.8887E+06    -1.07701E+06     7.78186E+06    -585.892E+03    -115.715E-03     227.602E-03    -111.888E-03     170.596E-03    -119.586E-03     231.317E-03    -111.794E-03     163.133E-03
             324     11.2690E-03     71.1852E-03    -31.9723E+06     46.8986E+06     16.7625E+06     834.717E+03    -116.464E-03     228.268E-03    -111.804E-03     193.427E-03    -121.977E-03     233.786E-03    -111.742E-03     184.578E-03
             325     12.0730E-03     71.4156E-03    -27.5255E+06     73.4100E+06     39.3377E+06     1.58014E+06    -118.848E-03     230.692E-03    -111.844E-03     230.393E-03    -127.214E-03     239.106E-03    -111.714E-03     219.617E-03
             326     12.8775E-03     71.6964E-03    -22.4193E+06     91.2919E+06     72.0949E+06     755.721E+03    -120.992E-03     232.970E-03    -111.978E-03     269.713E-03    -133.322E-03     245.335E-03    -111.717E-03     257.122E-03
             327     13.6813E-03     72.0163E-03    -16.3477E+06     106.118E+06     92.0199E+06     208.416E+03    -119.928E-03     231.958E-03    -112.030E-03     288.885E-03    -135.535E-03     247.617E-03    -111.700E-03     276.499E-03
             328     14.4902E-03     72.3412E-03    -9.77946E+06     119.461E+06     98.8019E+06     517.251E+03    -117.226E-03     229.214E-03    -111.988E-03     284.655E-03    -135.135E-03     247.225E-03    -111.653E-03     274.761E-03
             329     15.2940E-03     72.6511E-03    -4.17777E+06     120.648E+06     96.2874E+06     675.827E+03    -113.034E-03     224.969E-03    -111.935E-03     193.543E-03    -124.912E-03     236.981E-03    -111.622E-03     187.996E-03
             330     804.451E-06     70.9375E-03    -87.2332E+06    -240.110E+06    -85.9597E+06     34.8192E+03    -112.185E-03     224.245E-03    -112.059E-03     15.3246E-03    -112.161E-03     223.308E-03    -112.014E-03     14.9818E-03
             331     1.60923E-03     70.9615E-03    -84.7862E+06    -235.333E+06    -78.3249E+06     164.291E+03    -112.168E-03     224.263E-03    -112.095E-03     27.9493E-03    -112.177E-03     223.363E-03    -112.023E-03     27.3102E-03
             332     2.41397E-03     71.0001E-03    -80.9750E+06    -227.929E+06    -67.2412E+06     219.922E+03    -112.399E-03     224.500E-03    -112.101E-03     41.3215E-03    -112.463E-03     223.663E-03    -111.990E-03     40.3522E-03
             333     3.21863E-03     71.0542E-03    -76.5333E+06    -220.361E+06    -56.2434E+06     401.167E+03    -112.725E-03     224.852E-03    -112.127E-03     54.6074E-03    -112.865E-03     224.101E-03    -111.977E-03     53.2746E-03
             334     4.02326E-03     71.1225E-03    -71.4660E+06    -207.105E+06    -45.5848E+06     359.401E+03    -113.054E-03     225.198E-03    -112.145E-03     67.7215E-03    -113.303E-03     224.591E-03    -111.969E-03     65.9856E-03
             335     4.82811E-03     71.2057E-03    -65.9450E+06    -189.301E+06    -34.1029E+06     187.374E+03    -113.413E-03     225.566E-03    -112.153E-03     80.7000E-03    -113.812E-03     225.158E-03    -111.954E-03     78.5146E-03
             336     5.63274E-03     71.3029E-03    -60.5747E+06    -172.593E+06    -24.1697E+06     635.652E+03    -113.811E-03     225.961E-03    -112.151E-03     93.3687E-03    -114.400E-03     225.794E-03    -111.934E-03     90.6865E-03
             337     6.43783E-03     71.4138E-03    -55.4467E+06    -154.668E+06    -16.8986E+06     976.985E+03    -114.255E-03     226.387E-03    -112.132E-03     105.899E-03    -115.089E-03     226.524E-03    -111.912E-03     102.656E-03
             338     7.24237E-03     71.5388E-03    -50.9184E+06    -133.418E+06    -11.0172E+06     1.19339E+06    -114.708E-03     226.809E-03    -112.101E-03     118.413E-03    -115.863E-03     227.342E-03    -111.889E-03     114.533E-03
             339     8.04772E-03     71.6769E-03    -47.0952E+06    -111.486E+06    -5.32835E+06     1.62492E+06    -115.148E-03     227.218E-03    -112.070E-03     131.005E-03    -116.724E-03     228.246E-03    -111.866E-03     126.401E-03
             340     8.85213E-03     71.8295E-03    -44.2055E+06    -86.9868E+06    -1.62187E+06     1.35005E+06    -115.589E-03     227.615E-03    -112.026E-03     143.843E-03    -117.719E-03     229.284E-03    -111.844E-03     138.400E-03
             341     9.65766E-03     71.9955E-03    -41.6293E+06    -50.7911E+06     1.60534E+06     868.406E+03    -115.770E-03     227.732E-03    -111.962E-03     156.152E-03    -118.630E-03     230.259E-03    -111.820E-03     149.768E-03
             342     10.4627E-03     72.1737E-03    -39.5798E+06     832.648E+03     7.61426E+06    -366.464E+03    -115.920E-03     227.804E-03    -111.884E-03     169.979E-03    -119.804E-03     231.529E-03    -111.790E-03     162.502E-03
             343     11.2670E-03     72.3705E-03    -36.8095E+06     45.1884E+06     14.4493E+06    -2.22200E+06    -116.876E-03     228.701E-03    -111.825E-03     193.157E-03    -122.415E-03     234.227E-03    -111.765E-03     184.225E-03
             344     12.0727E-03     72.6012E-03    -30.7241E+06     71.2529E+06     36.4338E+06    -1.83178E+06    -118.691E-03     230.557E-03    -111.867E-03     231.102E-03    -127.067E-03     238.971E-03    -111.743E-03     220.296E-03
             345     12.8776E-03     72.8832E-03    -22.7450E+06     90.6124E+06     70.5545E+06    -469.003E+03    -120.289E-03     232.252E-03    -111.963E-03     271.102E-03    -132.605E-03     244.604E-03    -111.708E-03     258.608E-03
             346     13.6845E-03     73.2017E-03    -15.5731E+06     105.694E+06     91.8988E+06     179.352E+03    -119.579E-03     231.567E-03    -111.988E-03     287.441E-03    -135.139E-03     247.181E-03    -111.660E-03     275.098E-03
             347     14.4901E-03     73.5220E-03    -9.99245E+06     119.579E+06     98.8500E+06     833.770E+03    -117.640E-03     229.601E-03    -111.961E-03     284.408E-03    -135.636E-03     247.699E-03    -111.625E-03     274.380E-03
             348     15.2927E-03     73.8467E-03    -5.34749E+06     121.093E+06     95.9466E+06     1.04696E+06    -113.582E-03     225.516E-03    -111.934E-03     192.885E-03    -125.494E-03     237.561E-03    -111.622E-03     187.242E-03
             349     804.674E-06     72.1231E-03    -87.2942E+06    -240.039E+06    -85.6972E+06    -140.901E+03    -112.175E-03     224.177E-03    -112.002E-03     15.2941E-03    -112.152E-03     223.241E-03    -111.956E-03     14.9510E-03
             350     1.60925E-03     72.1467E-03    -84.8753E+06    -235.652E+06    -78.8697E+06    -82.6463E+03    -112.247E-03     224.329E-03    -112.082E-03     28.0082E-03    -112.256E-03     223.428E-03    -112.011E-03     27.3655E-03
             351     2.41387E-03     72.1857E-03    -81.0250E+06    -228.487E+06    -68.0683E+06     404.171E+03    -112.444E-03     224.557E-03    -112.113E-03     41.3882E-03    -112.506E-03     223.718E-03    -112.005E-03     40.4208E-03
             352     3.21857E-03     72.2395E-03    -76.1165E+06    -220.431E+06    -56.4205E+06     399.649E+03    -112.696E-03     224.835E-03    -112.139E-03     54.6437E-03    -112.834E-03     224.084E-03    -111.991E-03     53.3118E-03
             353     4.02336E-03     72.3080E-03    -70.7573E+06    -206.698E+06    -45.2378E+06     88.6380E+03    -113.024E-03     225.173E-03    -112.149E-03     67.7482E-03    -113.272E-03     224.567E-03    -111.973E-03     66.0094E-03
             354     4.82800E-03     72.3910E-03    -65.6301E+06    -189.507E+06    -33.9864E+06     267.345E+03    -113.382E-03     225.534E-03    -112.152E-03     80.6812E-03    -113.780E-03     225.125E-03    -111.952E-03     78.4983E-03
             355     5.63300E-03     72.4882E-03    -60.5270E+06    -173.748E+06    -24.1554E+06     529.350E+03    -113.794E-03     225.941E-03    -112.147E-03     93.3696E-03    -114.381E-03     225.767E-03    -111.928E-03     90.6866E-03
             356     6.43756E-03     72.5992E-03    -55.5694E+06    -155.456E+06    -16.8008E+06     950.340E+03    -114.242E-03     226.369E-03    -112.127E-03     105.897E-03    -115.076E-03     226.502E-03    -111.905E-03     102.653E-03
             357     7.24285E-03     72.7239E-03    -51.0769E+06    -133.936E+06    -10.9104E+06     1.57590E+06    -114.704E-03     226.801E-03    -112.096E-03     118.355E-03    -115.859E-03     227.330E-03    -111.882E-03     114.481E-03
             358     8.04729E-03     72.8625E-03    -46.8789E+06    -112.463E+06    -5.29921E+06     2.22190E+06    -115.156E-03     227.221E-03    -112.065E-03     130.923E-03    -116.731E-03     228.246E-03    -111.861E-03     126.322E-03
             359     8.85275E-03     73.0146E-03    -42.8497E+06    -86.4401E+06    -625.297E+03     2.52975E+06    -115.534E-03     227.557E-03    -112.022E-03     143.670E-03    -117.658E-03     229.223E-03    -111.838E-03     138.245E-03
             360     9.65744E-03     73.1808E-03    -39.3383E+06    -50.5051E+06     2.83912E+06     2.51402E+06    -115.841E-03     227.800E-03    -111.960E-03     155.853E-03    -118.686E-03     230.319E-03    -111.815E-03     149.492E-03
             361     10.4622E-03     73.3594E-03    -36.3043E+06     3.41962E+06     9.87304E+06     2.27414E+06    -116.103E-03     227.995E-03    -111.892E-03     170.207E-03    -119.984E-03     231.731E-03    -111.795E-03     162.749E-03
             362     11.2677E-03     73.5563E-03    -33.6293E+06     50.1685E+06     21.3081E+06    -402.447E+03    -116.916E-03     228.771E-03    -111.855E-03     194.245E-03    -122.470E-03     234.321E-03    -111.772E-03     185.339E-03
             363     12.0720E-03     73.7868E-03    -30.3971E+06     70.7508E+06     43.3183E+06    -3.87230E+06    -118.540E-03     230.441E-03    -111.901E-03     231.316E-03    -126.939E-03     238.858E-03    -111.743E-03     220.494E-03
             364     12.8791E-03     74.0663E-03    -25.4148E+06     86.5446E+06     71.6395E+06    -3.08586E+06    -120.046E-03     232.017E-03    -111.970E-03     269.907E-03    -132.308E-03     244.288E-03    -111.701E-03     257.429E-03
             365     13.6837E-03     74.3884E-03    -19.3618E+06     104.312E+06     90.1008E+06    -646.699E+03    -120.160E-03     232.159E-03    -111.999E-03     286.508E-03    -135.749E-03     247.788E-03    -111.672E-03     274.072E-03
             366     14.4866E-03     74.7077E-03    -13.0222E+06     118.729E+06     96.6410E+06    -176.106E+03    -117.584E-03     229.572E-03    -111.988E-03     284.080E-03    -135.539E-03     247.621E-03    -111.658E-03     274.024E-03
             367     15.2958E-03     75.0301E-03    -6.01823E+06     120.525E+06     95.3493E+06    -146.656E+03    -112.798E-03     224.737E-03    -111.940E-03     193.051E-03    -124.577E-03     236.647E-03    -111.629E-03     187.518E-03
             368     804.706E-06     73.3083E-03    -87.0880E+06    -240.150E+06    -85.6030E+06     206.645E+03    -112.154E-03     224.131E-03    -111.977E-03     15.1952E-03    -112.129E-03     223.193E-03    -111.931E-03     14.8580E-03
             369     1.60931E-03     73.3322E-03    -85.1505E+06    -235.748E+06    -78.7243E+06     197.148E+03    -112.277E-03     224.347E-03    -112.070E-03     28.0197E-03    -112.286E-03     223.445E-03    -111.998E-03     27.3813E-03
             370     2.41388E-03     73.3711E-03    -81.2773E+06    -228.627E+06    -68.1114E+06    -143.217E+03    -112.467E-03     224.583E-03    -112.115E-03     41.4013E-03    -112.531E-03     223.744E-03    -112.007E-03     40.4256E-03
             371     3.21856E-03     73.4248E-03    -76.0475E+06    -220.305E+06    -56.2141E+06    -277.435E+03    -112.694E-03     224.839E-03    -112.144E-03     54.6606E-03    -112.833E-03     224.088E-03    -111.996E-03     53.3191E-03
             372     4.02325E-03     73.4934E-03    -70.8883E+06    -206.680E+06    -45.1183E+06    -4.71065E+03    -113.006E-03     225.158E-03    -112.152E-03     67.7641E-03    -113.255E-03     224.552E-03    -111.975E-03     66.0242E-03
             373     4.82813E-03     73.5764E-03    -65.6238E+06    -190.065E+06    -34.1779E+06     322.195E+03    -113.371E-03     225.522E-03    -112.151E-03     80.6320E-03    -113.767E-03     225.110E-03    -111.951E-03     78.4486E-03
             374     5.63279E-03     73.6735E-03    -60.4521E+06    -174.572E+06    -24.4647E+06     673.277E+03    -113.787E-03     225.932E-03    -112.145E-03     93.3310E-03    -114.373E-03     225.755E-03    -111.927E-03     90.6499E-03
             375     6.43795E-03     73.7846E-03    -55.6429E+06    -156.084E+06    -16.9499E+06     1.07021E+06    -114.259E-03     226.386E-03    -112.126E-03     105.830E-03    -115.092E-03     226.516E-03    -111.904E-03     102.586E-03
             376     7.24239E-03     73.9093E-03    -50.8993E+06    -135.053E+06    -11.0820E+06     1.56269E+06    -114.724E-03     226.823E-03    -112.098E-03     118.280E-03    -115.877E-03     227.347E-03    -111.884E-03     114.403E-03
             377     8.04773E-03     74.0479E-03    -46.0877E+06    -113.792E+06    -5.44283E+06     1.71241E+06    -115.168E-03     227.237E-03    -112.069E-03     130.834E-03    -116.737E-03     228.254E-03    -111.864E-03     126.224E-03
             378     8.85220E-03     74.1998E-03    -41.2912E+06    -87.1551E+06    -187.330E+03     2.22418E+06    -115.567E-03     227.596E-03    -112.029E-03     143.565E-03    -117.682E-03     229.255E-03    -111.843E-03     138.135E-03
             379     9.65738E-03     74.3663E-03    -36.9156E+06    -50.6914E+06     4.15999E+06     2.58958E+06    -115.781E-03     227.747E-03    -111.966E-03     155.998E-03    -118.613E-03     230.256E-03    -111.818E-03     149.650E-03
             380     10.4627E-03     74.5448E-03    -32.2054E+06     4.01175E+06     11.8637E+06     2.32608E+06    -116.017E-03     227.907E-03    -111.890E-03     170.335E-03    -119.883E-03     231.638E-03    -111.789E-03     162.882E-03
             381     11.2677E-03     74.7415E-03    -27.3514E+06     54.6078E+06     26.0575E+06     1.92585E+06    -116.866E-03     228.720E-03    -111.853E-03     193.786E-03    -122.396E-03     234.271E-03    -111.762E-03     184.911E-03
             382     12.0739E-03     74.9728E-03    -24.6663E+06     74.1222E+06     51.3708E+06     1.56454E+06    -118.675E-03     230.600E-03    -111.925E-03     230.610E-03    -127.052E-03     239.004E-03    -111.740E-03     219.854E-03
             383     12.8763E-03     75.2522E-03    -22.9555E+06     86.9922E+06     77.5188E+06     768.091E+03    -120.426E-03     232.436E-03    -112.011E-03     269.876E-03    -132.708E-03     244.721E-03    -111.716E-03     257.403E-03
             384     13.6827E-03     75.5712E-03    -18.5988E+06     104.190E+06     91.2992E+06    -428.242E+03    -120.275E-03     232.298E-03    -112.024E-03     288.532E-03    -135.893E-03     247.956E-03    -111.691E-03     276.099E-03
             385     14.4891E-03     75.8984E-03    -11.3611E+06     118.315E+06     97.2322E+06    -751.522E+03    -117.395E-03     229.390E-03    -111.995E-03     283.952E-03    -135.293E-03     247.385E-03    -111.664E-03     273.990E-03
             386     15.2918E-03     76.2080E-03    -4.86022E+06     120.369E+06     95.6182E+06    -714.153E+03    -112.352E-03     224.283E-03    -111.932E-03     194.238E-03    -124.172E-03     236.236E-03    -111.621E-03     188.742E-03
             387     804.561E-06     74.4934E-03    -87.4353E+06    -240.555E+06    -86.0022E+06     157.395E+03    -112.149E-03     224.176E-03    -112.027E-03     15.2313E-03    -112.125E-03     223.237E-03    -111.981E-03     14.8907E-03
             388     1.60926E-03     74.5176E-03    -84.8176E+06    -235.672E+06    -78.5059E+06     50.0570E+03    -112.247E-03     224.330E-03    -112.083E-03     28.0669E-03    -112.255E-03     223.428E-03    -112.011E-03     27.4272E-03
             389     2.41391E-03     74.5565E-03    -80.9967E+06    -228.110E+06    -67.3696E+06    -103.845E+03    -112.445E-03     224.561E-03    -112.116E-03     41.3774E-03    -112.509E-03     223.723E-03    -112.004E-03     40.4024E-03
             390     3.21857E-03     74.6103E-03    -76.6705E+06    -220.140E+06    -55.7384E+06    -301.038E+03    -112.706E-03     224.851E-03    -112.145E-03     54.6541E-03    -112.849E-03     224.101E-03    -111.993E-03     53.3119E-03
             391     4.02333E-03     74.6787E-03    -71.6337E+06    -207.105E+06    -45.4161E+06    -260.375E+03    -113.014E-03     225.166E-03    -112.152E-03     67.7588E-03    -113.265E-03     224.559E-03    -111.975E-03     66.0154E-03
             392     4.82801E-03     74.7618E-03    -66.3060E+06    -191.117E+06    -34.8243E+06     269.471E+03    -113.386E-03     225.538E-03    -112.153E-03     80.6081E-03    -113.783E-03     225.123E-03    -111.954E-03     78.4221E-03
             393     5.63298E-03     74.8588E-03    -60.8649E+06    -174.816E+06    -24.7097E+06     585.243E+03    -113.821E-03     225.972E-03    -112.151E-03     93.2748E-03    -114.408E-03     225.794E-03    -111.933E-03     90.5903E-03
             394     6.43751E-03     74.9700E-03    -55.2159E+06    -156.442E+06    -17.0583E+06     509.689E+03    -114.272E-03     226.406E-03    -112.134E-03     105.803E-03    -115.102E-03     226.534E-03    -111.913E-03     102.552E-03
             395     7.24272E-03     75.0948E-03    -49.7759E+06    -136.094E+06    -10.9794E+06     806.593E+03    -114.726E-03     226.833E-03    -112.107E-03     118.251E-03    -115.871E-03     227.350E-03    -111.892E-03     114.363E-03
             396     8.04721E-03     75.2331E-03    -45.1183E+06    -114.117E+06    -5.16326E+06     1.23521E+06    -115.182E-03     227.259E-03    -112.077E-03     130.874E-03    -116.746E-03     228.273E-03    -111.872E-03     126.260E-03
             397     8.85248E-03     75.3856E-03    -40.8054E+06    -88.4212E+06    -412.135E+03     1.13324E+06    -115.529E-03     227.563E-03    -112.034E-03     143.572E-03    -117.639E-03     229.215E-03    -111.849E-03     138.130E-03
             398     9.65744E-03     75.5512E-03    -36.4477E+06    -51.2931E+06     4.33913E+06     1.46266E+06    -115.794E-03     227.765E-03    -111.971E-03     155.921E-03    -118.623E-03     230.270E-03    -111.822E-03     149.555E-03
             399     10.4626E-03     75.7302E-03    -32.7929E+06     4.61486E+06     12.0658E+06     1.33511E+06    -116.125E-03     228.025E-03    -111.900E-03     170.127E-03    -119.995E-03     231.759E-03    -111.799E-03     162.652E-03
             400     11.2675E-03     75.9274E-03    -30.6543E+06     52.2033E+06     22.3532E+06     1.96658E+06    -116.848E-03     228.705E-03    -111.857E-03     193.593E-03    -122.384E-03     234.253E-03    -111.776E-03     184.720E-03
             401     12.0712E-03     76.1576E-03    -27.4030E+06     73.5021E+06     43.7849E+06     3.95438E+06    -118.397E-03     230.290E-03    -111.894E-03     230.885E-03    -126.749E-03     238.679E-03    -111.742E-03     220.212E-03
             402     12.8796E-03     76.4381E-03    -21.3250E+06     91.6759E+06     74.2675E+06     3.43868E+06    -120.419E-03     232.391E-03    -111.972E-03     270.517E-03    -132.711E-03     244.718E-03    -111.703E-03     258.073E-03
             403     13.6835E-03     76.7583E-03    -14.8612E+06     107.404E+06     93.8728E+06     1.23936E+06    -119.869E-03     231.866E-03    -111.997E-03     288.734E-03    -135.435E-03     247.488E-03    -111.662E-03     276.402E-03
             404     14.4881E-03     77.0815E-03    -9.74607E+06     118.181E+06     99.1144E+06    -178.075E+03    -116.948E-03     228.890E-03    -111.943E-03     285.194E-03    -134.847E-03     246.887E-03    -111.604E-03     275.347E-03
             405     15.2963E-03     77.3969E-03    -5.52040E+06     119.736E+06     96.0517E+06    -739.304E+03    -113.187E-03     225.067E-03    -111.880E-03     195.119E-03    -125.098E-03     237.105E-03    -111.565E-03     189.565E-03
             406     804.690E-06     75.6790E-03    -87.2367E+06    -240.214E+06    -85.6167E+06    -309.616E+03    -112.147E-03     224.203E-03    -112.057E-03     15.3425E-03    -112.123E-03     223.266E-03    -112.010E-03     14.9925E-03
             407     1.60921E-03     75.7029E-03    -84.5151E+06    -235.478E+06    -78.5172E+06    -360.843E+03    -112.255E-03     224.349E-03    -112.094E-03     28.0712E-03    -112.262E-03     223.448E-03    -112.022E-03     27.4256E-03
             408     2.41392E-03     75.7419E-03    -80.7567E+06    -228.386E+06    -67.8144E+06    -66.4867E+03    -112.427E-03     224.547E-03    -112.120E-03     41.3418E-03    -112.489E-03     223.708E-03    -112.011E-03     40.3681E-03
             409     3.21861E-03     75.7956E-03    -75.7182E+06    -219.559E+06    -55.2635E+06    -15.8528E+03    -112.705E-03     224.852E-03    -112.146E-03     54.6025E-03    -112.844E-03     224.103E-03    -111.994E-03     53.2641E-03
             410     4.02325E-03     75.8642E-03    -70.5402E+06    -207.729E+06    -43.3198E+06     156.283E+03    -113.041E-03     225.206E-03    -112.165E-03     67.6990E-03    -113.288E-03     224.592E-03    -111.979E-03     65.9594E-03
             411     4.82810E-03     75.9470E-03    -65.3652E+06    -191.577E+06    -33.4842E+06     285.008E+03    -113.427E-03     225.595E-03    -112.167E-03     80.5836E-03    -113.822E-03     225.174E-03    -111.962E-03     78.3968E-03
             412     5.63267E-03     76.0443E-03    -59.7183E+06    -174.362E+06    -24.8119E+06    -48.1342E+03    -113.853E-03     226.013E-03    -112.160E-03     93.2657E-03    -114.435E-03     225.836E-03    -111.945E-03     90.5715E-03
             413     6.43773E-03     76.1553E-03    -54.6879E+06    -157.102E+06    -17.3243E+06     22.9878E+03    -114.276E-03     226.422E-03    -112.146E-03     105.786E-03    -115.102E-03     226.546E-03    -111.925E-03     102.529E-03
             414     7.24230E-03     76.2801E-03    -50.4422E+06    -136.830E+06    -11.5269E+06     290.832E+03    -114.708E-03     226.825E-03    -112.117E-03     118.253E-03    -115.855E-03     227.340E-03    -111.903E-03     114.360E-03
             415     8.04755E-03     76.4186E-03    -46.0190E+06    -114.279E+06    -5.71610E+06     400.311E+03    -115.154E-03     227.237E-03    -112.083E-03     130.887E-03    -116.720E-03     228.250E-03    -111.879E-03     126.265E-03
             416     8.85221E-03     76.5707E-03    -41.9658E+06    -88.2914E+06    -795.975E+03     517.826E+03    -115.570E-03     227.611E-03    -112.041E-03     143.402E-03    -117.684E-03     229.265E-03    -111.856E-03     137.951E-03
             417     9.65739E-03     76.7364E-03    -38.5591E+06     -52.432E+06     2.86120E+06     632.569E+03    -115.896E-03     227.879E-03    -111.983E-03     155.879E-03    -118.734E-03     230.385E-03    -111.836E-03     149.492E-03
             418     10.4619E-03     76.9162E-03    -35.9189E+06     2.46366E+06     9.32645E+06     1.81063E+06    -116.003E-03     227.909E-03    -111.906E-03     170.440E-03    -119.879E-03     231.639E-03    -111.811E-03     162.984E-03
             419     11.2671E-03     77.1125E-03    -33.2573E+06     49.5828E+06     18.7171E+06     3.49708E+06    -116.580E-03     228.421E-03    -111.841E-03     194.076E-03    -122.113E-03     233.957E-03    -111.771E-03     185.260E-03
             420     12.0742E-03     77.3433E-03    -29.1114E+06     73.4104E+06     39.7461E+06     3.07822E+06    -118.566E-03     230.431E-03    -111.865E-03     231.003E-03    -126.922E-03     238.829E-03    -111.730E-03     220.300E-03
             421     12.8773E-03     77.6221E-03    -23.4232E+06     94.7049E+06     71.3264E+06     1.30584E+06    -120.359E-03     232.311E-03    -111.952E-03     270.048E-03    -132.644E-03     244.642E-03    -111.698E-03     257.583E-03
             422     13.6833E-03     77.9452E-03    -16.1858E+06     107.946E+06     91.7916E+06     220.329E+03    -119.312E-03     231.289E-03    -111.977E-03     286.801E-03    -134.837E-03     246.874E-03    -111.651E-03     274.499E-03
             423     14.4922E-03     78.2628E-03    -8.93814E+06     117.454E+06     99.2631E+06     192.786E+03    -117.051E-03     228.988E-03    -111.937E-03     283.148E-03    -134.864E-03     246.898E-03    -111.598E-03     273.193E-03
             424     15.2959E-03     78.5858E-03    -4.03243E+06     121.117E+06     98.2094E+06     881.937E+03    -113.735E-03     225.642E-03    -111.907E-03     192.578E-03    -125.536E-03     237.574E-03    -111.586E-03     186.980E-03
             425     804.572E-06     76.8644E-03    -86.5876E+06    -239.606E+06    -85.0956E+06    -119.338E+03    -112.189E-03     224.233E-03    -112.043E-03     15.4284E-03    -112.164E-03     223.297E-03    -111.996E-03     15.0805E-03
             426     1.60924E-03     76.8884E-03    -84.8165E+06    -235.355E+06    -78.2806E+06    -124.864E+03    -112.269E-03     224.379E-03    -112.109E-03     28.0153E-03    -112.278E-03     223.478E-03    -112.036E-03     27.3731E-03
             427     2.41382E-03     76.9272E-03    -81.0516E+06    -228.076E+06    -67.4766E+06    -461.092E+03    -112.438E-03     224.575E-03    -112.136E-03     41.3262E-03    -112.502E-03     223.737E-03    -112.026E-03     40.3468E-03
             428     3.21852E-03     76.9810E-03    -76.1037E+06    -219.964E+06    -55.9081E+06    -309.439E+03    -112.706E-03     224.863E-03    -112.157E-03     54.5828E-03    -112.845E-03     224.114E-03    -112.008E-03     53.2403E-03
             429     4.02330E-03     77.0496E-03    -70.4370E+06    -208.176E+06    -44.0612E+06     261.601E+03    -113.054E-03     225.229E-03    -112.174E-03     67.6722E-03    -113.300E-03     224.613E-03    -111.990E-03     65.9332E-03
             430     4.82788E-03     77.1325E-03    -64.7954E+06    -190.881E+06    -33.3721E+06    -4.20371E+03    -113.439E-03     225.616E-03    -112.177E-03     80.5995E-03    -113.831E-03     225.198E-03    -111.974E-03     78.4096E-03
             431     5.63281E-03     77.2298E-03    -60.1985E+06    -174.624E+06    -25.3231E+06    -20.7163E+03    -113.850E-03     226.019E-03    -112.169E-03     93.2928E-03    -114.434E-03     225.843E-03    -111.955E-03     90.5999E-03
             432     6.43739E-03     77.3407E-03    -56.0764E+06    -157.408E+06    -18.0235E+06     429.807E+03    -114.283E-03     226.438E-03    -112.154E-03     105.788E-03    -115.115E-03     226.563E-03    -111.935E-03     102.536E-03
             433     7.24251E-03     77.4655E-03    -51.6431E+06    -136.344E+06    -11.8432E+06     101.904E+03    -114.721E-03     226.847E-03    -112.126E-03     118.245E-03    -115.874E-03     227.367E-03    -111.913E-03     114.348E-03
             434     8.04715E-03     77.6038E-03    -47.4232E+06    -115.040E+06    -6.74943E+06    -106.492E+03    -115.153E-03     227.244E-03    -112.092E-03     130.812E-03    -116.723E-03     228.257E-03    -111.890E-03     126.183E-03
             435     8.85235E-03     77.7563E-03    -43.7149E+06    -89.0992E+06    -2.31585E+06     495.493E+03    -115.606E-03     227.655E-03    -112.049E-03     143.533E-03    -117.724E-03     229.308E-03    -111.868E-03     138.084E-03
             436     9.65679E-03     77.9221E-03    -40.6689E+06    -52.6911E+06     1.34582E+06     894.656E+03    -115.802E-03     227.788E-03    -111.986E-03     156.076E-03    -118.648E-03     230.299E-03    -111.844E-03     149.699E-03
             437     10.4625E-03     78.1012E-03    -37.1687E+06    -436.702E+03     7.02576E+06     1.71670E+06    -115.802E-03     227.698E-03    -111.896E-03     170.387E-03    -119.672E-03     231.415E-03    -111.806E-03     162.946E-03
             438     11.2684E-03     78.2975E-03    -32.2355E+06     47.7202E+06     16.5050E+06     2.99523E+06    -116.676E-03     228.501E-03    -111.824E-03     193.548E-03    -122.191E-03     234.023E-03    -111.764E-03     184.712E-03
             439     12.0722E-03     78.5281E-03    -27.2443E+06     74.7285E+06     40.4646E+06     3.07132E+06    -118.801E-03     230.671E-03    -111.871E-03     230.817E-03    -127.160E-03     239.082E-03    -111.737E-03     220.077E-03
             440     12.8779E-03     78.8102E-03    -22.1719E+06     97.5728E+06     74.4123E+06     1.86318E+06    -120.278E-03     232.253E-03    -111.976E-03     269.522E-03    -132.539E-03     244.567E-03    -111.713E-03     257.092E-03
             441     13.6841E-03     79.1263E-03    -17.1728E+06     109.224E+06     92.5895E+06     20.1652E+03    -120.228E-03     232.254E-03    -112.026E-03     286.116E-03    -135.862E-03     247.946E-03    -111.697E-03     273.624E-03
             442     14.4859E-03     79.4500E-03    -12.4437E+06     116.424E+06     96.9892E+06    -523.120E+03    -117.965E-03     230.006E-03    -112.040E-03     281.765E-03    -135.846E-03     247.974E-03    -111.706E-03     271.612E-03
             443     15.2908E-03     79.7682E-03    -6.02836E+06     121.206E+06     96.3103E+06     306.801E+03    -112.364E-03     224.367E-03    -112.004E-03     193.736E-03    -124.164E-03     236.297E-03    -111.689E-03     188.223E-03
             444     804.633E-06     78.0499E-03    -86.9551E+06    -239.822E+06    -85.3862E+06    -80.9766E+03    -112.227E-03     224.278E-03    -112.051E-03     15.4558E-03    -112.203E-03     223.341E-03    -112.004E-03     15.1097E-03
             445     1.60915E-03     78.0739E-03    -84.4844E+06    -235.060E+06    -78.1061E+06     61.6396E+03    -112.261E-03     224.387E-03    -112.126E-03     27.9967E-03    -112.269E-03     223.487E-03    -112.053E-03     27.3559E-03
             446     2.41385E-03     78.1127E-03    -81.0050E+06    -227.657E+06    -67.1664E+06     80.0172E+03    -112.445E-03     224.592E-03    -112.147E-03     41.3571E-03    -112.510E-03     223.756E-03    -112.035E-03     40.3844E-03
             447     3.21849E-03     78.1665E-03    -76.8230E+06    -220.136E+06    -56.0536E+06     1.78380E+03    -112.728E-03     224.896E-03    -112.169E-03     54.6265E-03    -112.870E-03     224.147E-03    -112.018E-03     53.2889E-03
             448     4.02311E-03     78.2350E-03    -71.9435E+06    -207.944E+06    -46.6648E+06    -585.591E+03    -113.053E-03     225.227E-03    -112.174E-03     67.7352E-03    -113.303E-03     224.619E-03    -112.002E-03     65.9864E-03
             449     4.82798E-03     78.3181E-03    -66.8841E+06    -191.090E+06    -35.7664E+06    -221.818E+03    -113.417E-03     225.594E-03    -112.177E-03     80.6368E-03    -113.816E-03     225.181E-03    -111.982E-03     78.4449E-03
             450     5.63262E-03     78.4151E-03    -61.8583E+06    -175.252E+06    -25.2765E+06     415.831E+03    -113.839E-03     226.017E-03    -112.178E-03     93.3109E-03    -114.430E-03     225.839E-03    -111.960E-03     90.6245E-03
             451     6.43762E-03     78.5263E-03    -56.3943E+06    -157.320E+06    -18.0514E+06     464.428E+03    -114.290E-03     226.449E-03    -112.159E-03     105.813E-03    -115.124E-03     226.576E-03    -111.940E-03     102.560E-03
             452     7.24221E-03     78.6508E-03    -51.7277E+06    -135.887E+06    -12.2345E+06     471.598E+03    -114.744E-03     226.874E-03    -112.130E-03     118.307E-03    -115.898E-03     227.397E-03    -111.919E-03     114.413E-03
             453     8.04725E-03     78.7895E-03    -48.1686E+06    -115.063E+06    -7.46483E+06     327.383E+03    -115.174E-03     227.270E-03    -112.096E-03     130.900E-03    -116.747E-03     228.285E-03    -111.897E-03     126.275E-03
             454     8.85198E-03     78.9413E-03    -44.7297E+06    -90.4461E+06    -3.75636E+06     646.509E+03    -115.516E-03     227.563E-03    -112.048E-03     143.695E-03    -117.636E-03     229.215E-03    -111.871E-03     138.251E-03
             455     9.65751E-03     79.1080E-03    -41.0281E+06    -53.2828E+06     209.440E+03     1.24736E+06    -115.744E-03     227.721E-03    -111.978E-03     155.956E-03    -118.589E-03     230.231E-03    -111.840E-03     149.585E-03
             456     10.4623E-03     79.2856E-03    -37.5038E+06    -886.019E+03      6.5075E+06     1.22332E+06    -116.063E-03     227.963E-03    -111.901E-03     169.966E-03    -119.938E-03     231.683E-03    -111.812E-03     162.491E-03
             457     11.2669E-03     79.4832E-03    -34.0766E+06     46.6241E+06     15.5717E+06     808.949E+03    -116.943E-03     228.794E-03    -111.851E-03     193.441E-03    -122.474E-03     234.324E-03    -111.791E-03     184.544E-03
             458     12.0726E-03     79.7141E-03    -29.0416E+06     73.9477E+06     39.3995E+06     1.07122E+06    -118.468E-03     230.362E-03    -111.894E-03     230.864E-03    -126.820E-03     238.759E-03    -111.762E-03     220.141E-03
             459     12.8780E-03     79.9943E-03    -22.6239E+06     97.3938E+06     74.5038E+06     1.77089E+06    -120.459E-03     232.454E-03    -111.995E-03     269.563E-03    -132.748E-03     244.793E-03    -111.731E-03     257.075E-03
             460     13.6820E-03     80.3130E-03    -16.2034E+06     110.910E+06     94.8120E+06     2.55695E+06    -120.994E-03     233.065E-03    -112.071E-03     287.935E-03    -136.711E-03     248.844E-03    -111.735E-03     275.379E-03
             461     14.4862E-03     80.6407E-03    -10.7219E+06     119.809E+06     99.7435E+06     2.03285E+06    -117.639E-03     229.718E-03    -112.079E-03     283.804E-03    -135.561E-03     247.738E-03    -111.738E-03     273.870E-03
             462     15.2930E-03     80.9483E-03     -5.7201E+06     121.693E+06     96.4275E+06    -593.147E+03    -111.561E-03     223.553E-03    -111.991E-03     195.729E-03    -123.406E-03     235.530E-03    -111.677E-03     190.337E-03
             463     804.499E-06     79.2355E-03    -86.9442E+06    -239.617E+06    -85.3096E+06    -138.388E+03    -112.202E-03     224.319E-03    -112.117E-03     15.3596E-03    -112.178E-03     223.383E-03    -112.070E-03     15.0137E-03
             464     1.60920E-03     79.2592E-03    -84.4505E+06    -235.080E+06    -78.4468E+06    -220.347E+03    -112.231E-03     224.367E-03    -112.135E-03     27.9734E-03    -112.239E-03     223.467E-03    -112.064E-03     27.3280E-03
             465     2.41382E-03     79.2982E-03    -80.5184E+06    -228.171E+06    -68.1179E+06     149.452E+03    -112.447E-03     224.590E-03    -112.142E-03     41.3966E-03    -112.508E-03     223.752E-03    -112.035E-03     40.4254E-03
             466     3.21850E-03     79.3519E-03    -75.3120E+06    -219.429E+06    -55.5944E+06     229.161E+03    -112.738E-03     224.906E-03    -112.168E-03     54.6629E-03    -112.875E-03     224.158E-03    -112.018E-03     53.3284E-03
             467     4.02322E-03     79.4205E-03    -70.3622E+06    -207.675E+06    -43.6215E+06     240.233E+03    -113.065E-03     225.253E-03    -112.188E-03     67.7567E-03    -113.312E-03     224.639E-03    -112.003E-03     66.0182E-03
             468     4.82786E-03     79.5033E-03    -65.6750E+06    -191.778E+06    -33.9437E+06     178.443E+03    -113.430E-03     225.617E-03    -112.188E-03     80.6509E-03    -113.825E-03     225.197E-03    -111.984E-03     78.4631E-03
             469     5.63274E-03     79.6007E-03    -60.3892E+06    -175.101E+06    -25.3793E+06     204.772E+03    -113.836E-03     226.013E-03    -112.177E-03     93.3314E-03    -114.420E-03     225.834E-03    -111.962E-03     90.6431E-03
             470     6.43739E-03     79.7115E-03    -55.6251E+06    -158.004E+06    -18.3600E+06     442.586E+03    -114.276E-03     226.433E-03    -112.157E-03     105.861E-03    -115.105E-03     226.556E-03    -111.939E-03     102.608E-03
             471     7.24244E-03     79.8365E-03    -51.2220E+06    -136.258E+06    -12.7784E+06     873.080E+03    -114.736E-03     226.860E-03    -112.124E-03     118.381E-03    -115.887E-03     227.382E-03    -111.916E-03     114.495E-03
             472     8.04721E-03     79.9746E-03    -47.2575E+06    -114.737E+06    -7.23257E+06     1.20532E+06    -115.189E-03     227.282E-03    -112.093E-03     130.911E-03    -116.759E-03     228.298E-03    -111.894E-03     126.296E-03
             473     8.85231E-03     80.1271E-03    -43.6229E+06    -90.4985E+06    -3.08513E+06     1.08988E+06    -115.531E-03     227.580E-03    -112.049E-03     143.495E-03    -117.649E-03     229.231E-03    -111.870E-03     138.049E-03
             474     9.65710E-03     80.2924E-03    -40.0958E+06    -54.4614E+06     157.670E+03     1.31403E+06    -115.860E-03     227.843E-03    -111.983E-03     155.897E-03    -118.699E-03     230.346E-03    -111.845E-03     149.520E-03
             475     10.4621E-03     80.4722E-03    -36.8687E+06    -1.16796E+06     7.07970E+06     1.63022E+06    -116.247E-03     228.165E-03    -111.918E-03     170.283E-03    -120.128E-03     231.891E-03    -111.828E-03     162.796E-03
             476     11.2670E-03     80.6685E-03    -33.4885E+06     48.0478E+06     17.8564E+06     1.12720E+06    -116.857E-03     228.733E-03    -111.875E-03     193.833E-03    -122.396E-03     234.271E-03    -111.807E-03     184.950E-03
             477     12.0720E-03     80.8992E-03    -29.7270E+06     74.2478E+06     42.2120E+06    -158.696E+03    -118.526E-03     230.447E-03    -111.921E-03     230.872E-03    -126.883E-03     238.839E-03    -111.774E-03     220.133E-03
             478     12.8778E-03     81.1786E-03    -24.2600E+06     94.3307E+06     74.8393E+06     463.135E+03    -120.583E-03     232.600E-03    -112.017E-03     270.719E-03    -132.934E-03     244.983E-03    -111.744E-03     258.179E-03
             479     13.6822E-03     81.5029E-03    -17.4516E+06     108.643E+06     92.9287E+06     2.17636E+06    -119.698E-03     231.731E-03    -112.033E-03     289.393E-03    -135.336E-03     247.423E-03    -111.701E-03     277.055E-03
             480     14.4892E-03     81.8223E-03    -10.3123E+06     121.026E+06     99.7076E+06     2.04718E+06    -116.811E-03     228.781E-03    -111.970E-03     284.829E-03    -134.698E-03     246.772E-03    -111.632E-03     275.024E-03
             481     15.2948E-03     82.1370E-03    -4.25625E+06     123.570E+06     98.9115E+06     8.22145E+03    -112.873E-03     224.778E-03    -111.905E-03     194.142E-03    -124.750E-03     236.792E-03    -111.584E-03     188.625E-03
             482     804.536E-06     80.4209E-03    -86.2781E+06    -239.055E+06    -84.9490E+06     183.579E+03    -112.183E-03     224.282E-03    -112.099E-03     15.3139E-03    -112.157E-03     223.348E-03    -112.052E-03     14.9724E-03
             483     1.60915E-03     80.4447E-03    -84.4748E+06    -235.148E+06    -78.5895E+06    -242.260E+03    -112.254E-03     224.378E-03    -112.124E-03     28.0145E-03    -112.262E-03     223.479E-03    -112.053E-03     27.3692E-03
             484     2.41387E-03     80.4835E-03    -80.7133E+06    -228.008E+06    -67.7553E+06    -493.015E+03    -112.456E-03     224.600E-03    -112.143E-03     41.4050E-03    -112.518E-03     223.762E-03    -112.035E-03     40.4258E-03
             485     3.21849E-03     80.5375E-03    -76.1660E+06    -220.013E+06    -56.1353E+06    -122.050E+03    -112.724E-03     224.891E-03    -112.167E-03     54.6479E-03    -112.863E-03     224.141E-03    -112.018E-03     53.3076E-03
             486     4.02319E-03     80.6058E-03    -70.8486E+06    -208.290E+06    -44.3521E+06     656.158E+03    -113.055E-03     225.239E-03    -112.183E-03     67.7356E-03    -113.302E-03     224.623E-03    -112.000E-03     66.0023E-03
             487     4.82794E-03     80.6890E-03    -65.2681E+06    -191.271E+06    -34.0339E+06     555.611E+03    -113.424E-03     225.606E-03    -112.182E-03     80.6649E-03    -113.817E-03     225.188E-03    -111.981E-03     78.4833E-03
             488     5.63263E-03     80.7858E-03    -60.6375E+06    -175.477E+06    -26.3504E+06     398.690E+03    -113.837E-03     226.006E-03    -112.169E-03     93.3622E-03    -114.420E-03     225.827E-03    -111.959E-03     90.6761E-03
             489     6.43763E-03     80.8972E-03    -56.1462E+06    -158.210E+06    -19.1309E+06     397.553E+03    -114.292E-03     226.444E-03    -112.152E-03     105.846E-03    -115.122E-03     226.568E-03    -111.937E-03     102.592E-03
             490     7.24236E-03     81.0215E-03    -51.7972E+06    -136.908E+06    -13.1452E+06     637.154E+03    -114.727E-03     226.850E-03    -112.123E-03     118.267E-03    -115.879E-03     227.370E-03    -111.915E-03     114.377E-03
             491     8.04732E-03     81.1605E-03    -47.4067E+06    -115.601E+06    -7.48061E+06     1.09032E+06    -115.155E-03     227.245E-03    -112.091E-03     130.871E-03    -116.723E-03     228.257E-03    -111.892E-03     126.258E-03
             492     8.85204E-03     81.3120E-03    -43.2424E+06    -90.0102E+06    -2.67802E+06     1.07818E+06    -115.595E-03     227.644E-03    -112.049E-03     143.534E-03    -117.713E-03     229.297E-03    -111.869E-03     138.085E-03
             493     9.65712E-03     81.4783E-03    -39.4640E+06    -55.2705E+06     925.405E+03     1.16495E+06    -115.905E-03     227.894E-03    -111.989E-03     156.247E-03    -118.745E-03     230.395E-03    -111.847E-03     149.865E-03
             494     10.4620E-03     81.6573E-03    -35.5183E+06    -2.18217E+06     7.54823E+06     1.49454E+06    -116.040E-03     227.952E-03    -111.912E-03     170.787E-03    -119.910E-03     231.667E-03    -111.820E-03     163.323E-03
             495     11.2672E-03     81.8545E-03    -31.2235E+06     48.9400E+06     19.2001E+06     1.46462E+06    -116.828E-03     228.687E-03    -111.858E-03     194.046E-03    -122.356E-03     234.222E-03    -111.788E-03     185.179E-03
             496     12.0729E-03     82.0839E-03    -26.7066E+06     75.7903E+06     44.8622E+06     1.45510E+06    -118.929E-03     230.847E-03    -111.918E-03     231.379E-03    -127.303E-03     239.265E-03    -111.765E-03     220.612E-03
             497     12.8767E-03     82.3662E-03    -22.3857E+06     93.2394E+06     75.1776E+06     1.92042E+06    -120.086E-03     232.089E-03    -112.004E-03     270.735E-03    -132.397E-03     244.434E-03    -111.731E-03     258.312E-03
             498     13.6842E-03     82.6848E-03    -17.1103E+06     108.314E+06     92.3470E+06     1.99343E+06    -118.809E-03     230.790E-03    -111.981E-03     287.840E-03    -134.355E-03     246.392E-03    -111.652E-03     275.643E-03
             499     14.4918E-03     83.0071E-03    -10.6639E+06     122.655E+06     99.5792E+06     805.201E+03    -116.890E-03     228.799E-03    -111.909E-03     283.641E-03    -134.745E-03     246.762E-03    -111.573E-03     273.710E-03
             500     15.2957E-03     83.3257E-03    -4.33818E+06     123.883E+06     98.5517E+06     236.136E+03    -113.436E-03     225.307E-03    -111.871E-03     192.697E-03    -125.260E-03     237.270E-03    -111.552E-03     187.069E-03
             501     804.700E-06     81.6063E-03    -86.3296E+06    -239.406E+06    -85.3166E+06    -52.6523E+03    -112.172E-03     224.169E-03    -111.997E-03     15.3281E-03    -112.146E-03     223.234E-03    -111.951E-03     14.9834E-03
             502     1.60929E-03     81.6302E-03    -84.4993E+06    -234.945E+06    -78.0050E+06     440.470E+03    -112.317E-03     224.411E-03    -112.094E-03     28.0522E-03    -112.326E-03     223.512E-03    -112.021E-03     27.4166E-03
             503     2.41376E-03     81.6691E-03    -81.2728E+06    -227.644E+06    -67.0654E+06     348.666E+03    -112.479E-03     224.622E-03    -112.144E-03     41.3828E-03    -112.545E-03     223.787E-03    -112.031E-03     40.4138E-03
             504     3.21851E-03     81.7228E-03    -77.2193E+06    -220.546E+06    -56.5972E+06     227.570E+03    -112.715E-03     224.883E-03    -112.168E-03     54.6545E-03    -112.858E-03     224.133E-03    -112.019E-03     53.3190E-03
             505     4.02317E-03     81.7914E-03    -72.4203E+06    -208.526E+06    -47.4208E+06    -72.3880E+03    -113.032E-03     225.201E-03    -112.169E-03     67.7465E-03    -113.282E-03     224.591E-03    -111.999E-03     66.0055E-03
             506     4.82797E-03     81.8742E-03    -67.1623E+06    -191.693E+06    -36.2291E+06     379.830E+03    -113.409E-03     225.579E-03    -112.171E-03     80.6479E-03    -113.808E-03     225.164E-03    -111.977E-03     78.4656E-03
             507     5.63282E-03     81.9716E-03    -61.7273E+06    -175.479E+06    -25.7393E+06     618.227E+03    -113.854E-03     226.025E-03    -112.171E-03     93.2980E-03    -114.443E-03     225.847E-03    -111.956E-03     90.6122E-03
             508     6.43746E-03     82.0823E-03    -56.7964E+06    -157.858E+06    -18.9299E+06     321.346E+03    -114.302E-03     226.456E-03    -112.154E-03     105.827E-03    -115.135E-03     226.582E-03    -111.937E-03     102.573E-03
             509     7.24226E-03     82.2075E-03    -52.2725E+06    -137.894E+06    -13.2716E+06     405.268E+03    -114.702E-03     226.827E-03    -112.125E-03     118.293E-03    -115.855E-03     227.343E-03    -111.915E-03     114.400E-03
             510     8.04722E-03     82.3451E-03    -47.9543E+06    -116.068E+06    -7.57666E+06     564.270E+03    -115.106E-03     227.193E-03    -112.088E-03     130.959E-03    -116.675E-03     228.203E-03    -111.888E-03     126.344E-03
             511     8.85243E-03     82.4982E-03    -43.8937E+06     -90.126E+06    -2.52973E+06     768.704E+03    -115.562E-03     227.604E-03    -112.042E-03     143.724E-03    -117.683E-03     229.257E-03    -111.861E-03     138.277E-03
             512     9.65718E-03     82.6632E-03    -40.4786E+06    -55.7793E+06     781.169E+03     739.475E+03    -115.818E-03     227.796E-03    -111.978E-03     156.250E-03    -118.663E-03     230.297E-03    -111.835E-03     149.864E-03
             513     10.4625E-03     82.8432E-03    -36.8860E+06    -2.22879E+06     6.96586E+06     213.013E+03    -115.953E-03     227.847E-03    -111.894E-03     170.597E-03    -119.820E-03     231.556E-03    -111.803E-03     163.130E-03
             514     11.2681E-03     83.0390E-03    -32.9471E+06     48.9338E+06     17.9542E+06    -109.248E+03    -116.910E-03     228.749E-03    -111.839E-03     193.964E-03    -122.443E-03     234.287E-03    -111.772E-03     185.068E-03
             515     12.0722E-03     83.2713E-03    -29.1580E+06     73.3353E+06     39.9604E+06     1.60738E+06    -118.635E-03     230.515E-03    -111.880E-03     231.392E-03    -127.000E-03     238.921E-03    -111.744E-03     220.665E-03
             516     12.8784E-03     83.5509E-03    -23.5754E+06     93.3208E+06     72.6140E+06     2.45566E+06    -119.948E-03     231.910E-03    -111.962E-03     269.863E-03    -132.222E-03     244.222E-03    -111.701E-03     257.478E-03
             517     13.6840E-03     83.8679E-03    -16.6561E+06     109.956E+06     93.8865E+06     1.41413E+06    -119.851E-03     231.845E-03    -111.994E-03     286.625E-03    -135.466E-03     247.519E-03    -111.660E-03     274.243E-03
             518     14.4874E-03     84.1923E-03    -9.72836E+06     124.510E+06     101.315E+06     926.834E+03    -117.010E-03     228.977E-03    -111.967E-03     282.503E-03    -134.829E-03     246.910E-03    -111.627E-03     272.561E-03
             519     15.2942E-03     84.5089E-03    -4.63653E+06     124.930E+06     98.4704E+06     1.06465E+06    -112.614E-03     224.519E-03    -111.905E-03     193.457E-03    -124.342E-03     236.388E-03    -111.587E-03     187.981E-03
             520     804.730E-06     82.7916E-03    -87.4737E+06    -240.198E+06    -85.5563E+06     342.169E+03    -112.195E-03     224.165E-03    -111.969E-03     15.3987E-03    -112.173E-03     223.228E-03    -111.922E-03     15.0593E-03
             521     1.60922E-03     82.8158E-03    -85.0059E+06    -235.318E+06    -78.1825E+06     567.227E+03    -112.288E-03     224.376E-03    -112.088E-03     28.0234E-03    -112.298E-03     223.476E-03    -112.014E-03     27.3907E-03
             522     2.41392E-03     82.8545E-03    -80.9485E+06    -228.258E+06    -68.0044E+06     880.139E+03    -112.480E-03     224.609E-03    -112.129E-03     41.3704E-03    -112.543E-03     223.772E-03    -112.021E-03     40.4088E-03
             523     3.21846E-03     82.9083E-03    -75.8591E+06    -219.806E+06    -55.9419E+06     503.031E+03    -112.732E-03     224.893E-03    -112.161E-03     54.6598E-03    -112.870E-03     224.145E-03    -112.012E-03     53.3285E-03
             524     4.02326E-03     82.9767E-03    -70.6743E+06    -208.549E+06    -44.2020E+06     250.612E+03    -113.054E-03     225.234E-03    -112.180E-03     67.7198E-03    -113.300E-03     224.617E-03    -111.997E-03     65.9818E-03
             525     4.82794E-03     83.0598E-03    -65.7653E+06    -192.781E+06    -34.1575E+06     589.187E+03    -113.422E-03     225.604E-03    -112.181E-03     80.6177E-03    -113.816E-03     225.179E-03    -111.977E-03     78.4363E-03
             526     5.63263E-03     83.1568E-03    -60.7302E+06    -175.245E+06    -25.2277E+06     523.628E+03    -113.828E-03     226.000E-03    -112.171E-03     93.3705E-03    -114.413E-03     225.820E-03    -111.955E-03     90.6870E-03
             527     6.43750E-03     83.2681E-03    -55.8806E+06    -157.876E+06    -17.7787E+06     668.549E+03    -114.239E-03     226.390E-03    -112.151E-03     105.919E-03    -115.069E-03     226.513E-03    -111.930E-03     102.673E-03
             528     7.24254E-03     83.3924E-03    -51.6173E+06    -137.935E+06    -12.3033E+06     793.964E+03    -114.681E-03     226.797E-03    -112.116E-03     118.395E-03    -115.831E-03     227.310E-03    -111.903E-03     114.509E-03
             529     8.04740E-03     83.5311E-03    -47.8345E+06    -116.135E+06    -7.00688E+06     868.782E+03    -115.139E-03     227.219E-03    -112.079E-03     130.967E-03    -116.711E-03     228.228E-03    -111.877E-03     126.351E-03
             530     8.85226E-03     83.6827E-03    -44.4940E+06    -91.1830E+06    -2.71137E+06     988.118E+03    -115.527E-03     227.561E-03    -112.034E-03     143.742E-03    -117.649E-03     229.209E-03    -111.851E-03     138.298E-03
             531     9.65744E-03     83.8496E-03    -41.1087E+06    -55.2273E+06     770.636E+03     645.893E+03    -115.848E-03     227.818E-03    -111.970E-03     156.059E-03    -118.696E-03     230.321E-03    -111.826E-03     149.670E-03
             532     10.4624E-03     84.0272E-03    -37.8193E+06    -576.931E+03     7.18756E+06     167.263E+03    -116.126E-03     228.023E-03    -111.896E-03     170.253E-03    -120.005E-03     231.744E-03    -111.805E-03     162.766E-03
             533     11.2670E-03     84.2257E-03    -36.0961E+06     47.7522E+06     16.3354E+06     836.667E+03    -116.773E-03     228.616E-03    -111.843E-03     193.946E-03    -122.315E-03     234.152E-03    -111.778E-03     185.076E-03
             534     12.0730E-03     84.4557E-03    -33.1319E+06     72.4589E+06     37.8497E+06     398.728E+03    -118.267E-03     230.136E-03    -111.869E-03     230.725E-03    -126.624E-03     238.522E-03    -111.737E-03     220.023E-03
             535     12.8789E-03     84.7352E-03    -26.3327E+06     92.5243E+06     70.3199E+06    -864.735E+03    -120.199E-03     232.149E-03    -111.950E-03     269.423E-03    -132.488E-03     244.470E-03    -111.695E-03     256.933E-03
             536     13.6828E-03     85.0557E-03    -18.1861E+06     108.232E+06     92.2785E+06    -266.030E+03    -120.238E-03     232.240E-03    -112.002E-03     287.955E-03    -135.905E-03     247.958E-03    -111.671E-03     275.474E-03
             537     14.4879E-03     85.3783E-03    -12.3579E+06     124.275E+06     100.213E+06     447.241E+03    -117.581E-03     229.577E-03    -111.996E-03     283.317E-03    -135.509E-03     247.611E-03    -111.657E-03     273.307E-03
             538     15.2949E-03     85.6896E-03    -6.46163E+06     125.849E+06     98.2215E+06     583.917E+03    -112.774E-03     224.728E-03    -111.954E-03     193.820E-03    -124.616E-03     236.710E-03    -111.636E-03     188.309E-03
             539     804.464E-06     83.9771E-03    -87.6520E+06    -240.483E+06    -86.2039E+06     681.659E+03    -112.262E-03     224.230E-03    -111.968E-03     15.5164E-03    -112.240E-03     223.293E-03    -111.923E-03     15.1812E-03
             540     1.60927E-03     84.0010E-03    -84.9772E+06    -235.900E+06    -79.1001E+06     21.3641E+03    -112.230E-03     224.328E-03    -112.099E-03     28.0503E-03    -112.238E-03     223.426E-03    -112.029E-03     27.4114E-03
             541     2.41385E-03     84.0401E-03    -80.9999E+06    -228.719E+06    -68.2869E+06     84.3807E+03    -112.442E-03     224.562E-03    -112.119E-03     41.3895E-03    -112.504E-03     223.722E-03    -112.012E-03     40.4187E-03
             542     3.21861E-03     84.0937E-03    -76.1277E+06    -220.170E+06    -56.0044E+06     487.377E+03    -112.735E-03     224.884E-03    -112.150E-03     54.6682E-03    -112.874E-03     224.134E-03    -112.000E-03     53.3373E-03
             543     4.02316E-03     84.1623E-03    -71.1279E+06    -208.663E+06    -43.9583E+06     743.132E+03    -113.061E-03     225.234E-03    -112.174E-03     67.7901E-03    -113.309E-03     224.617E-03    -111.988E-03     66.0584E-03
             544     4.82791E-03     84.2451E-03    -65.7312E+06    -192.681E+06    -33.6524E+06     359.632E+03    -113.410E-03     225.585E-03    -112.176E-03     80.7160E-03    -113.804E-03     225.160E-03    -111.969E-03     78.5318E-03
             545     5.63281E-03     84.3424E-03    -60.3015E+06    -175.841E+06    -25.1157E+06     731.163E+03    -113.778E-03     225.938E-03    -112.160E-03     93.4272E-03    -114.360E-03     225.754E-03    -111.943E-03     90.7494E-03
             546     6.43775E-03     84.4532E-03    -55.8372E+06    -158.721E+06    -17.6260E+06     1.25921E+06    -114.207E-03     226.344E-03    -112.137E-03     105.883E-03    -115.036E-03     226.463E-03    -111.914E-03     102.645E-03
             547     7.24254E-03     84.5780E-03    -51.7462E+06    -137.682E+06    -11.6856E+06     1.43703E+06    -114.688E-03     226.792E-03    -112.104E-03     118.343E-03    -115.841E-03     227.306E-03    -111.887E-03     114.466E-03
             548     8.04751E-03     84.7162E-03    -47.8222E+06    -116.317E+06    -6.69034E+06     1.40196E+06    -115.169E-03     227.238E-03    -112.069E-03     130.939E-03    -116.742E-03     228.248E-03    -111.865E-03     126.327E-03
             549     8.85244E-03     84.8685E-03    -43.9060E+06    -91.2055E+06    -2.33292E+06     1.26063E+06    -115.609E-03     227.639E-03    -112.030E-03     143.652E-03    -117.731E-03     229.287E-03    -111.845E-03     138.203E-03
             550     9.65745E-03     85.0341E-03    -40.1417E+06    -54.2268E+06     1.58197E+06     976.407E+03    -115.929E-03     227.902E-03    -111.973E-03     156.109E-03    -118.775E-03     230.409E-03    -111.828E-03     149.719E-03
             551     10.4620E-03     85.2142E-03    -37.7488E+06    -1.49250E+06     7.31023E+06     1.91141E+06    -116.157E-03     228.061E-03    -111.903E-03     170.484E-03    -120.041E-03     231.784E-03    -111.810E-03     163.013E-03
             552     11.2675E-03     85.4098E-03    -34.2085E+06     47.6181E+06     17.3550E+06     2.52854E+06    -116.715E-03     228.564E-03    -111.849E-03     193.785E-03    -122.251E-03     234.097E-03    -111.782E-03     184.936E-03
             553     12.0728E-03     85.6413E-03    -28.7690E+06     75.3237E+06     42.2122E+06     934.058E+03    -118.392E-03     230.278E-03    -111.886E-03     230.589E-03    -126.738E-03     238.668E-03    -111.743E-03     219.876E-03
             554     12.8771E-03     85.9203E-03    -24.0677E+06     93.1050E+06     73.3757E+06    -399.755E+03    -120.168E-03     232.135E-03    -111.967E-03     270.107E-03    -132.462E-03     244.461E-03    -111.700E-03     257.642E-03
             555     13.6839E-03     86.2411E-03    -19.2128E+06     106.921E+06     90.7874E+06    -977.437E+03    -119.981E-03     231.971E-03    -111.990E-03     287.992E-03    -135.617E-03     247.655E-03    -111.663E-03     275.543E-03
             556     14.4908E-03     86.5634E-03    -11.2779E+06     123.901E+06     99.3209E+06    -478.610E+03    -117.892E-03     229.877E-03    -111.985E-03     283.049E-03    -135.840E-03     247.937E-03    -111.652E-03     272.956E-03
             557     15.2903E-03     86.8811E-03    -3.42086E+06     125.838E+06     98.9340E+06     770.422E+03    -112.484E-03     224.436E-03    -111.952E-03     193.736E-03    -124.348E-03     236.448E-03    -111.635E-03     188.191E-03
             558     804.712E-06     85.1626E-03    -87.3668E+06    -240.416E+06    -86.3386E+06    -177.426E+03    -112.229E-03     224.189E-03    -111.961E-03     15.5376E-03    -112.204E-03     223.252E-03    -111.917E-03     15.1951E-03
             559     1.60916E-03     85.1864E-03    -85.2733E+06    -236.045E+06    -79.1169E+06     142.738E+03    -112.229E-03     224.312E-03    -112.083E-03     28.1088E-03    -112.238E-03     223.410E-03    -112.012E-03     27.4706E-03
             560     2.41397E-03     85.2253E-03    -81.7950E+06    -228.753E+06    -67.8610E+06     197.528E+03    -112.420E-03     224.530E-03    -112.109E-03     41.4592E-03    -112.487E-03     223.690E-03    -111.998E-03     40.4903E-03
             561     3.21854E-03     85.2792E-03    -77.2203E+06    -221.353E+06    -57.0877E+06     482.530E+03    -112.709E-03     224.841E-03    -112.132E-03     54.7015E-03    -112.850E-03     224.088E-03    -111.985E-03     53.3712E-03
             562     4.02339E-03     85.3476E-03    -71.9080E+06    -208.288E+06    -46.8463E+06     424.409E+03    -113.036E-03     225.178E-03    -112.142E-03     67.7958E-03    -113.284E-03     224.568E-03    -111.970E-03     66.0610E-03
             563     4.82813E-03     85.4306E-03    -66.6391E+06    -192.213E+06    -34.8851E+06     169.999E+03    -113.388E-03     225.540E-03    -112.152E-03     80.6682E-03    -113.786E-03     225.120E-03    -111.951E-03     78.4814E-03
             564     5.63287E-03     85.5275E-03    -61.8001E+06    -177.760E+06    -24.9620E+06     835.177E+03    -113.781E-03     225.931E-03    -112.150E-03     93.3200E-03    -114.368E-03     225.740E-03    -111.928E-03     90.6405E-03
             565     6.43770E-03     85.6386E-03    -56.7934E+06    -159.374E+06    -17.7857E+06     1.50111E+06    -114.226E-03     226.353E-03    -112.127E-03     105.845E-03    -115.058E-03     226.470E-03    -111.903E-03     102.610E-03
             566     7.24269E-03     85.7632E-03    -51.7636E+06    -138.023E+06    -11.6006E+06     1.36335E+06    -114.695E-03     226.792E-03    -112.096E-03     118.311E-03    -115.848E-03     227.304E-03    -111.879E-03     114.432E-03
             567     8.04754E-03     85.9017E-03    -46.9660E+06    -116.189E+06    -5.95230E+06     1.37962E+06    -115.195E-03     227.261E-03    -112.066E-03     130.926E-03    -116.765E-03     228.269E-03    -111.859E-03     126.311E-03
             568     8.85247E-03     86.0537E-03    -42.6031E+06    -90.9446E+06    -1.33877E+06     1.19877E+06    -115.670E-03     227.701E-03    -112.031E-03     143.677E-03    -117.788E-03     229.349E-03    -111.844E-03     138.222E-03
             569     9.65702E-03     86.2202E-03    -39.1651E+06    -54.8804E+06     2.33779E+06     1.64816E+06    -115.916E-03     227.891E-03    -111.976E-03     156.220E-03    -118.759E-03     230.394E-03    -111.828E-03     149.840E-03
             570     10.4627E-03     86.3987E-03    -35.1046E+06    -2.86044E+06     9.29001E+06     2.40660E+06    -116.062E-03     227.968E-03    -111.906E-03     170.506E-03    -119.929E-03     231.673E-03    -111.804E-03     163.055E-03
             571     11.2673E-03     86.5965E-03    -30.4108E+06     48.1829E+06     19.4757E+06     2.01217E+06    -116.721E-03     228.565E-03    -111.844E-03     193.739E-03    -122.245E-03     234.096E-03    -111.773E-03     184.878E-03
             572     12.0723E-03     86.8254E-03    -26.3858E+06     77.0205E+06     42.9520E+06     1.69674E+06    -118.315E-03     230.184E-03    -111.870E-03     231.158E-03    -126.654E-03     238.579E-03    -111.728E-03     220.471E-03
             573     12.8791E-03     87.1068E-03    -21.2333E+06     93.2180E+06     75.3823E+06     2.23052E+06    -120.276E-03     232.230E-03    -111.954E-03     270.581E-03    -132.557E-03     244.548E-03    -111.682E-03     258.155E-03
             574     13.6838E-03     87.4249E-03    -15.4026E+06     110.460E+06     94.7579E+06     2.06085E+06    -120.424E-03     232.417E-03    -111.993E-03     288.514E-03    -136.093E-03     248.148E-03    -111.657E-03     276.082E-03
             575     14.4853E-03     87.7513E-03    -11.9882E+06     124.477E+06     99.2798E+06     -300.18E+03    -117.028E-03     228.988E-03    -111.959E-03     284.313E-03    -134.946E-03     247.017E-03    -111.626E-03     274.422E-03
             576     15.2974E-03     88.0636E-03    -6.49977E+06     123.552E+06     96.5416E+06    -1.13435E+06    -112.356E-03     224.242E-03    -111.886E-03     193.556E-03    -124.142E-03     236.164E-03    -111.574E-03     188.092E-03
             577     804.596E-06     86.3478E-03    -88.3309E+06    -241.024E+06    -86.3626E+06    -213.850E+03    -112.126E-03     224.110E-03    -111.984E-03     15.5389E-03    -112.105E-03     223.171E-03    -111.938E-03     15.1984E-03
             578     1.60941E-03     86.3718E-03    -85.8019E+06    -236.229E+06    -79.0401E+06     438.816E+03    -112.243E-03     224.299E-03    -112.056E-03     28.0766E-03    -112.254E-03     223.397E-03    -111.984E-03     27.4408E-03
             579     2.41391E-03     86.4106E-03    -81.7948E+06    -229.022E+06    -68.3688E+06     598.210E+03    -112.427E-03     224.520E-03    -112.094E-03     41.4092E-03    -112.492E-03     223.680E-03    -111.985E-03     40.4452E-03
             580     3.21874E-03     86.4646E-03    -76.9562E+06    -221.242E+06    -57.0185E+06     283.435E+03    -112.689E-03     224.809E-03    -112.121E-03     54.6715E-03    -112.829E-03     224.056E-03    -111.973E-03     53.3386E-03
             581     4.02330E-03     86.5330E-03    -71.9681E+06    -208.322E+06    -46.8586E+06     37.3027E+03    -113.011E-03     225.140E-03    -112.129E-03     67.7446E-03    -113.260E-03     224.530E-03    -111.957E-03     66.0049E-03
             582     4.82809E-03     86.6159E-03    -67.1529E+06    -193.227E+06    -35.4030E+06     759.548E+03    -113.377E-03     225.515E-03    -112.138E-03     80.6260E-03    -113.775E-03     225.092E-03    -111.937E-03     78.4473E-03
             583     5.63295E-03     86.7129E-03    -62.0129E+06    -178.401E+06    -24.4596E+06     977.612E+03    -113.806E-03     225.950E-03    -112.143E-03     93.2843E-03    -114.395E-03     225.756E-03    -111.917E-03     90.6045E-03
             584     6.43783E-03     86.8238E-03    -56.2840E+06    -159.662E+06    -17.1939E+06     761.252E+03    -114.245E-03     226.368E-03    -112.124E-03     105.836E-03    -115.075E-03     226.482E-03    -111.896E-03     102.590E-03
             585     7.24261E-03     86.9487E-03    -51.0741E+06    -138.418E+06    -11.2272E+06     998.142E+03    -114.720E-03     226.815E-03    -112.095E-03     118.324E-03    -115.870E-03     227.324E-03    -111.876E-03     114.438E-03
             586     8.04758E-03     87.0869E-03    -46.5888E+06    -116.636E+06    -5.62784E+06     947.801E+03    -115.218E-03     227.285E-03    -112.067E-03     130.985E-03    -116.787E-03     228.290E-03    -111.858E-03     126.363E-03
             587     8.85230E-03     87.2396E-03    -42.6287E+06    -91.2246E+06    -1.15109E+06     1.00571E+06    -115.615E-03     227.645E-03    -112.029E-03     143.737E-03    -117.733E-03     229.290E-03    -111.841E-03     138.285E-03
             588     9.65774E-03     87.4051E-03    -38.4955E+06    -55.9383E+06     2.93499E+06     1.46297E+06    -115.846E-03     227.817E-03    -111.971E-03     156.227E-03    -118.681E-03     230.309E-03    -111.820E-03     149.855E-03
             589     10.4620E-03     87.5849E-03    -34.5949E+06    -3.52378E+06     9.75853E+06     1.41180E+06    -115.934E-03     227.826E-03    -111.892E-03     170.698E-03    -119.795E-03     231.524E-03    -111.788E-03     163.248E-03
             590     11.2678E-03     87.7808E-03    -31.4519E+06     48.6633E+06     19.7639E+06     1.61016E+06    -116.582E-03     228.402E-03    -111.819E-03     194.030E-03    -122.102E-03     233.925E-03    -111.746E-03     185.194E-03
             591     12.0738E-03     88.0116E-03    -27.6348E+06     77.4791E+06     42.3654E+06     1.91747E+06    -118.382E-03     230.224E-03    -111.842E-03     230.705E-03    -126.731E-03     238.627E-03    -111.702E-03     220.005E-03
             592     12.8785E-03     88.2899E-03    -22.8409E+06     91.9409E+06     72.7272E+06     1.60525E+06    -120.411E-03     232.341E-03    -111.930E-03     270.609E-03    -132.711E-03     244.675E-03    -111.666E-03     258.128E-03
             593     13.6831E-03     88.6141E-03    -17.5643E+06     109.199E+06     93.3293E+06     2.76301E+06    -119.711E-03     231.666E-03    -111.956E-03     289.165E-03    -135.342E-03     247.352E-03    -111.622E-03     276.855E-03
             594     14.4927E-03     88.9350E-03    -10.7333E+06     129.562E+06     103.375E+06     2.62426E+06    -116.986E-03     228.900E-03    -111.914E-03     283.488E-03    -134.857E-03     246.893E-03    -111.570E-03     273.665E-03
             595     15.2952E-03     89.2470E-03    -6.24898E+06     126.201E+06     98.7983E+06    -903.931E+03    -113.577E-03     225.454E-03    -111.877E-03     192.463E-03    -125.378E-03     237.394E-03    -111.557E-03     186.876E-03
             596     804.771E-06     87.5331E-03    -88.3093E+06    -241.365E+06    -86.9957E+06     67.6586E+03    -112.094E-03     224.151E-03    -112.057E-03     15.4895E-03    -112.072E-03     223.211E-03    -112.014E-03     15.1512E-03
             597     1.60921E-03     87.5572E-03    -85.7868E+06    -236.695E+06    -79.7530E+06     109.232E+03    -112.229E-03     224.297E-03    -112.068E-03     28.0202E-03    -112.239E-03     223.393E-03    -111.999E-03     27.3804E-03
             598     2.41399E-03     87.5960E-03    -81.5764E+06    -229.278E+06    -68.7928E+06     162.853E+03    -112.420E-03     224.517E-03    -112.097E-03     41.3354E-03    -112.483E-03     223.676E-03    -111.990E-03     40.3647E-03
             599     3.21856E-03     87.6498E-03    -76.5897E+06    -220.654E+06    -56.2945E+06     61.7753E+03    -112.651E-03     224.772E-03    -112.122E-03     54.6321E-03    -112.791E-03     224.021E-03    -111.972E-03     53.2962E-03
             600     4.02346E-03     87.7184E-03    -71.5557E+06    -209.341E+06    -44.4358E+06     465.181E+03    -112.972E-03     225.106E-03    -112.133E-03     67.7488E-03    -113.221E-03     224.486E-03    -111.948E-03     66.0161E-03
             601     4.82825E-03     87.8012E-03    -66.1687E+06    -194.374E+06    -33.6485E+06     1.07189E+06    -113.377E-03     225.513E-03    -112.136E-03     80.6413E-03    -113.771E-03     225.079E-03    -111.926E-03     78.4677E-03
             602     5.63299E-03     87.8983E-03    -60.5032E+06    -177.498E+06    -24.2364E+06     812.900E+03    -113.816E-03     225.947E-03    -112.131E-03     93.3192E-03    -114.398E-03     225.755E-03    -111.907E-03     90.6382E-03
             603     6.43774E-03     88.0092E-03    -55.5533E+06    -159.838E+06    -16.8758E+06     561.801E+03    -114.278E-03     226.396E-03    -112.118E-03     105.850E-03    -115.106E-03     226.508E-03    -111.890E-03     102.598E-03
             604     7.24276E-03     88.1338E-03    -51.0318E+06    -139.150E+06    -11.2879E+06     706.084E+03    -114.746E-03     226.838E-03    -112.092E-03     118.402E-03    -115.894E-03     227.343E-03    -111.873E-03     114.511E-03
             605     8.04744E-03     88.2726E-03    -46.8293E+06    -116.987E+06    -5.83047E+06     919.974E+03    -115.165E-03     227.226E-03    -112.062E-03     131.058E-03    -116.733E-03     228.230E-03    -111.853E-03     126.439E-03
             606     8.85265E-03     88.4245E-03    -42.9416E+06    -91.2866E+06    -1.06849E+06     1.06133E+06    -115.539E-03     227.558E-03    -112.019E-03     143.865E-03    -117.656E-03     229.202E-03    -111.830E-03     138.424E-03
             607     9.65709E-03     88.5910E-03    -39.7312E+06    -56.4416E+06     2.32543E+06     823.560E+03    -115.728E-03     227.679E-03    -111.952E-03     156.334E-03    -118.566E-03     230.170E-03    -111.801E-03     149.963E-03
             608     10.4632E-03     88.7692E-03    -36.5674E+06    -3.74687E+06     8.96172E+06     1.15289E+06    -115.855E-03     227.722E-03    -111.867E-03     170.572E-03    -119.724E-03     231.422E-03    -111.764E-03     163.123E-03
             609     11.2684E-03     88.9665E-03    -32.8829E+06     48.3266E+06     19.1663E+06     1.63623E+06    -116.620E-03     228.417E-03    -111.797E-03     193.639E-03    -122.141E-03     233.937E-03    -111.724E-03     184.798E-03
             610     12.0731E-03     89.1961E-03    -29.1018E+06     75.8403E+06     41.1470E+06     2.10112E+06    -118.559E-03     230.387E-03    -111.829E-03     230.738E-03    -126.937E-03     238.813E-03    -111.691E-03     219.998E-03
             611     12.8781E-03     89.4768E-03    -24.8122E+06     92.6240E+06     71.9122E+06     2.27832E+06    -120.289E-03     232.209E-03    -111.920E-03     270.627E-03    -132.605E-03     244.557E-03    -111.659E-03     258.167E-03
             612     13.6853E-03     89.7968E-03    -18.2079E+06     108.924E+06     92.8526E+06     1.05407E+06    -119.519E-03     231.466E-03    -111.947E-03     287.118E-03    -135.069E-03     247.069E-03    -111.615E-03     274.791E-03
             613     14.4893E-03     90.1181E-03    -9.84641E+06     128.214E+06     102.601E+06     1.41887E+06    -117.333E-03     229.254E-03    -111.920E-03     282.814E-03    -135.215E-03     247.258E-03    -111.579E-03     272.831E-03
             614     15.2930E-03     90.4393E-03    -3.67811E+06     128.184E+06     100.727E+06     876.096E+03    -113.404E-03     225.298E-03    -111.894E-03     193.996E-03    -125.281E-03     237.325E-03    -111.571E-03     188.388E-03
             615     804.398E-06     88.7185E-03    -87.9892E+06    -241.076E+06    -86.4610E+06     63.5143E+03    -112.165E-03     224.225E-03    -112.060E-03     15.5610E-03    -112.143E-03     223.286E-03    -112.015E-03     15.2213E-03
             616     1.60929E-03     88.7424E-03    -85.5903E+06    -236.556E+06    -79.5904E+06    -355.976E+03    -112.221E-03     224.316E-03    -112.095E-03     28.0801E-03    -112.231E-03     223.412E-03    -112.025E-03     27.4352E-03
             617     2.41384E-03     88.7815E-03    -81.9148E+06    -229.353E+06    -68.6820E+06    -388.305E+03    -112.381E-03     224.489E-03    -112.108E-03     41.3410E-03    -112.446E-03     223.648E-03    -112.000E-03     40.3636E-03
             618     3.21869E-03     88.8351E-03    -77.0524E+06    -220.817E+06    -56.4477E+06    -90.8802E+03    -112.620E-03     224.741E-03    -112.121E-03     54.6213E-03    -112.762E-03     223.989E-03    -111.971E-03     53.2834E-03
             619     4.02342E-03     88.9036E-03    -71.3004E+06    -210.524E+06    -43.4187E+06     582.572E+03    -112.961E-03     225.095E-03    -112.134E-03     67.7297E-03    -113.208E-03     224.468E-03    -111.943E-03     65.9991E-03
             620     4.82819E-03     88.9866E-03    -65.5319E+06    -194.757E+06    -32.4954E+06     793.936E+03    -113.353E-03     225.487E-03    -112.134E-03     80.6230E-03    -113.745E-03     225.049E-03    -111.919E-03     78.4468E-03
             621     5.63306E-03     89.0836E-03    -60.3994E+06    -177.343E+06    -24.5278E+06     817.460E+03    -113.798E-03     225.917E-03    -112.120E-03     93.3352E-03    -114.379E-03     225.726E-03    -111.898E-03     90.6566E-03
             622     6.43801E-03     89.1946E-03    -55.7298E+06    -159.982E+06    -17.1228E+06     999.889E+03    -114.294E-03     226.402E-03    -112.108E-03     105.896E-03    -115.122E-03     226.514E-03    -111.881E-03     102.651E-03
             623     7.24257E-03     89.3194E-03    -51.5056E+06    -139.570E+06    -11.5305E+06     904.336E+03    -114.718E-03     226.801E-03    -112.083E-03     118.412E-03    -115.868E-03     227.306E-03    -111.864E-03     114.525E-03
             624     8.04778E-03     89.4576E-03    -47.4433E+06    -117.375E+06    -6.25282E+06     1.06004E+06    -115.084E-03     227.132E-03    -112.048E-03     131.086E-03    -116.653E-03     228.134E-03    -111.840E-03     126.476E-03
             625     8.85254E-03     89.6101E-03    -43.9255E+06    -91.5214E+06    -1.68909E+06     1.38306E+06    -115.462E-03     227.461E-03    -111.999E-03     143.891E-03    -117.581E-03     229.104E-03    -111.811E-03     138.462E-03
             626     9.65833E-03     89.7759E-03    -40.7348E+06    -55.9730E+06     2.07906E+06     1.41159E+06    -115.752E-03     227.685E-03    -111.932E-03     156.103E-03    -118.596E-03     230.179E-03    -111.782E-03     149.736E-03
             627     10.4627E-03     89.9547E-03    -37.5590E+06    -3.86776E+06     8.47813E+06     1.35148E+06    -115.974E-03     227.831E-03    -111.856E-03     170.209E-03    -119.846E-03     231.531E-03    -111.754E-03     162.753E-03
             628     11.2678E-03     90.1515E-03    -34.7580E+06     46.5402E+06     17.2673E+06     1.44955E+06    -116.667E-03     228.459E-03    -111.792E-03     193.523E-03    -122.198E-03     233.982E-03    -111.723E-03     184.664E-03
             629     12.0736E-03     90.3817E-03    -30.6443E+06     74.8985E+06     39.9437E+06     1.86466E+06    -118.587E-03     230.416E-03    -111.829E-03     230.801E-03    -126.968E-03     238.838E-03    -111.693E-03     220.056E-03
             630     12.8794E-03     90.6623E-03    -23.9753E+06     93.5866E+06     73.2521E+06     2.44367E+06    -120.447E-03     232.385E-03    -111.938E-03     269.442E-03    -132.741E-03     244.713E-03    -111.672E-03     256.966E-03
             631     13.6828E-03     90.9815E-03    -16.4826E+06     111.990E+06     94.6403E+06     875.633E+03    -120.072E-03     232.063E-03    -111.991E-03     286.804E-03    -135.672E-03     247.728E-03    -111.656E-03     274.380E-03
             632     14.4879E-03     91.3051E-03    -10.6638E+06     126.036E+06     101.350E+06    -1.09952E+06    -117.407E-03     229.384E-03    -111.977E-03     283.388E-03    -135.312E-03     247.404E-03    -111.637E-03     273.338E-03
             633     15.2977E-03     91.6204E-03    -4.35528E+06     126.493E+06     99.7723E+06     899.563E+03    -112.699E-03     224.630E-03    -111.932E-03     192.340E-03    -124.497E-03     236.573E-03    -111.610E-03     186.807E-03
             634     804.810E-06     89.9038E-03    -87.4829E+06    -240.776E+06    -86.2242E+06     6.22356E+03    -112.240E-03     224.222E-03    -111.982E-03     15.4888E-03    -112.216E-03     223.283E-03    -111.937E-03     15.1476E-03
             635     1.60914E-03     89.9280E-03    -85.5362E+06    -236.194E+06    -78.9450E+06    -50.6462E+03    -112.213E-03     224.307E-03    -112.094E-03     28.0835E-03    -112.223E-03     223.404E-03    -112.022E-03     27.4432E-03
             636     2.41396E-03     89.9666E-03    -82.1952E+06    -229.187E+06    -68.4190E+06    -102.531E+03    -112.362E-03     224.465E-03    -112.103E-03     41.3286E-03    -112.429E-03     223.625E-03    -111.994E-03     40.3547E-03
             637     3.21866E-03     90.0204E-03    -77.6405E+06    -221.291E+06    -57.1410E+06    -32.0861E+03    -112.629E-03     224.742E-03    -112.113E-03     54.6126E-03    -112.773E-03     223.990E-03    -111.965E-03     53.2757E-03
             638     4.02342E-03     90.0889E-03    -72.3543E+06    -211.244E+06    -45.1249E+06     64.6817E+03    -112.957E-03     225.081E-03    -112.125E-03     67.7525E-03    -113.205E-03     224.454E-03    -111.939E-03     66.0161E-03
             639     4.82827E-03     90.1718E-03    -66.6696E+06    -195.489E+06    -33.3686E+06     398.054E+03    -113.332E-03     225.459E-03    -112.127E-03     80.6595E-03    -113.727E-03     225.020E-03    -111.914E-03     78.4804E-03
             640     5.63313E-03     90.2689E-03    -61.1073E+06    -177.990E+06    -24.3945E+06     1.03390E+06    -113.787E-03     225.902E-03    -112.116E-03     93.3484E-03    -114.370E-03     225.708E-03    -111.891E-03     90.6737E-03
             641     6.43782E-03     90.3800E-03    -56.2798E+06    -160.248E+06    -17.3806E+06     1.36588E+06    -114.234E-03     226.332E-03    -112.098E-03     105.918E-03    -115.064E-03     226.443E-03    -111.871E-03     102.681E-03
             642     7.24296E-03     90.5047E-03    -51.7871E+06    -139.235E+06    -11.5651E+06     1.29332E+06    -114.681E-03     226.750E-03    -112.069E-03     118.405E-03    -115.833E-03     227.257E-03    -111.850E-03     114.525E-03
             643     8.04767E-03     90.6429E-03    -47.6807E+06    -117.899E+06    -6.52516E+06     1.28447E+06    -115.119E-03     227.154E-03    -112.036E-03     130.918E-03    -116.688E-03     228.155E-03    -111.828E-03     126.306E-03
             644     8.85310E-03     90.7951E-03    -43.7912E+06    -92.0896E+06    -2.04111E+06     1.68881E+06    -115.491E-03     227.483E-03    -111.991E-03     143.559E-03    -117.607E-03     229.121E-03    -111.804E-03     138.130E-03
             645     9.65743E-03     90.9612E-03    -40.1985E+06    -56.2603E+06     1.97987E+06     2.36542E+06    -115.780E-03     227.709E-03    -111.929E-03     155.969E-03    -118.616E-03     230.197E-03    -111.780E-03     149.619E-03
             646     10.4629E-03     91.1402E-03    -37.5936E+06    -4.55042E+06     7.77048E+06     2.26444E+06    -115.946E-03     227.797E-03    -111.852E-03     170.292E-03    -119.817E-03     231.497E-03    -111.752E-03     162.847E-03
             647     11.2683E-03     91.3365E-03    -34.4629E+06     46.3486E+06     17.8894E+06     1.99355E+06    -116.930E-03     228.730E-03    -111.800E-03     193.682E-03    -122.468E-03     234.258E-03    -111.728E-03     184.808E-03
             648     12.0731E-03     91.5669E-03    -29.8647E+06     75.6129E+06     40.8293E+06     1.47631E+06    -118.887E-03     230.742E-03    -111.856E-03     230.416E-03    -127.262E-03     239.162E-03    -111.718E-03     219.643E-03
             649     12.8770E-03     91.8480E-03    -23.6657E+06     93.5485E+06     72.3998E+06     606.514E+03    -120.474E-03     232.441E-03    -111.967E-03     269.534E-03    -132.755E-03     244.761E-03    -111.707E-03     257.041E-03
             650     13.6833E-03     92.1670E-03    -17.4132E+06     113.712E+06     94.7492E+06     557.277E+03    -120.276E-03     232.304E-03    -112.027E-03     287.320E-03    -135.933E-03     248.027E-03    -111.693E-03     274.846E-03
             651     14.4897E-03     92.4902E-03    -11.3203E+06     128.525E+06     102.660E+06     156.971E+03    -117.808E-03     229.841E-03    -112.033E-03     282.791E-03    -135.713E-03     247.865E-03    -111.690E-03     272.708E-03
             652     15.2881E-03     92.8070E-03    -6.37744E+06     125.208E+06     98.4780E+06     511.796E+03    -111.934E-03     223.908E-03    -111.973E-03     192.812E-03    -123.685E-03     235.795E-03    -111.653E-03     187.357E-03
             653     804.399E-06     91.0894E-03    -87.7472E+06    -240.734E+06    -86.1605E+06    -55.9461E+03    -112.185E-03     224.192E-03    -112.007E-03     15.3964E-03    -112.162E-03     223.253E-03    -111.961E-03     15.0539E-03
             654     1.60935E-03     91.1132E-03    -85.5555E+06    -236.369E+06    -79.4346E+06     248.289E+03    -112.174E-03     224.247E-03    -112.073E-03     28.0222E-03    -112.184E-03     223.344E-03    -112.003E-03     27.3858E-03
             655     2.41396E-03     91.1520E-03    -81.8116E+06    -229.303E+06    -68.9342E+06     308.795E+03    -112.370E-03     224.450E-03    -112.080E-03     41.3428E-03    -112.434E-03     223.610E-03    -111.974E-03     40.3741E-03
             656     3.21868E-03     91.2056E-03    -77.3480E+06    -221.150E+06    -57.1055E+06     216.000E+03    -112.639E-03     224.739E-03    -112.099E-03     54.6410E-03    -112.781E-03     223.986E-03    -111.952E-03     53.3081E-03
             657     4.02348E-03     91.2741E-03    -72.4282E+06    -211.286E+06    -44.7524E+06     102.605E+03    -112.955E-03     225.073E-03    -112.117E-03     67.7597E-03    -113.205E-03     224.445E-03    -111.929E-03     66.0238E-03
             658     4.82829E-03     91.3570E-03    -67.0405E+06    -196.577E+06    -33.6309E+06     533.392E+03    -113.345E-03     225.465E-03    -112.121E-03     80.6851E-03    -113.739E-03     225.021E-03    -111.906E-03     78.5078E-03
             659     5.63306E-03     91.4542E-03    -61.7091E+06    -178.882E+06    -24.9386E+06     1.01836E+06    -113.774E-03     225.883E-03    -112.109E-03     93.4009E-03    -114.359E-03     225.686E-03    -111.885E-03     90.7268E-03
             660     6.43810E-03     91.5652E-03    -56.3321E+06    -160.713E+06    -17.5934E+06     1.18642E+06    -114.210E-03     226.299E-03    -112.090E-03     105.857E-03    -115.038E-03     226.409E-03    -111.863E-03     102.617E-03
             661     7.24290E-03     91.6899E-03    -51.4940E+06    -139.509E+06    -11.8050E+06     1.50536E+06    -114.693E-03     226.754E-03    -112.060E-03     118.309E-03    -115.841E-03     227.258E-03    -111.842E-03     114.435E-03
             662     8.04795E-03     91.8284E-03    -47.4222E+06    -117.964E+06    -6.47077E+06     1.62534E+06    -115.202E-03     227.236E-03    -112.034E-03     130.808E-03    -116.770E-03     228.236E-03    -111.827E-03     126.198E-03
             663     8.85230E-03     91.9802E-03    -43.6500E+06    -93.0066E+06    -2.19623E+06     1.93235E+06    -115.527E-03     227.523E-03    -111.996E-03     143.501E-03    -117.639E-03     229.157E-03    -111.809E-03     138.073E-03
             664     9.65804E-03     92.1465E-03    -39.9809E+06    -57.5881E+06     1.54835E+06     2.30216E+06    -115.734E-03     227.666E-03    -111.932E-03     156.113E-03    -118.566E-03     230.147E-03    -111.783E-03     149.768E-03
             665     10.4630E-03     92.3252E-03    -35.9541E+06    -5.34603E+06     8.24726E+06     2.65680E+06    -116.080E-03     227.939E-03    -111.859E-03     169.995E-03    -119.944E-03     231.633E-03    -111.758E-03     162.539E-03
             666     11.2681E-03     92.5217E-03    -32.0074E+06     47.1119E+06     18.8613E+06     2.91022E+06    -117.043E-03     228.858E-03    -111.815E-03     193.765E-03    -122.568E-03     234.382E-03    -111.743E-03     184.898E-03
             667     12.0721E-03     92.7546E-03    -28.2857E+06     76.8570E+06     42.0589E+06     2.16586E+06    -118.863E-03     230.733E-03    -111.870E-03     231.168E-03    -127.238E-03     239.158E-03    -111.730E-03     220.422E-03
             668     12.8785E-03     93.0317E-03    -24.1412E+06     95.6427E+06     73.7683E+06     599.088E+03    -120.489E-03     232.467E-03    -111.978E-03     269.940E-03    -132.802E-03     244.821E-03    -111.713E-03     257.437E-03
             669     13.6834E-03     93.3539E-03    -18.0168E+06     112.465E+06     94.4265E+06     674.870E+03    -120.177E-03     232.201E-03    -112.024E-03     288.919E-03    -135.871E-03     247.956E-03    -111.689E-03     276.465E-03
             670     14.4845E-03     93.6771E-03    -11.8840E+06     128.108E+06     101.278E+06     1.71909E+06    -117.107E-03     229.089E-03    -111.982E-03     285.698E-03    -135.049E-03     247.150E-03    -111.644E-03     275.825E-03
             671     15.2979E-03     93.9913E-03    -5.19321E+06     127.679E+06     99.4894E+06     109.192E+03    -112.053E-03     223.949E-03    -111.896E-03     193.927E-03    -123.852E-03     235.895E-03    -111.576E-03     188.553E-03
             672     804.790E-06     92.2746E-03    -87.9412E+06    -240.777E+06    -86.4875E+06    -87.2615E+03    -112.118E-03     224.120E-03    -112.002E-03     15.4250E-03    -112.095E-03     223.182E-03    -111.958E-03     15.0806E-03
             673     1.60924E-03     92.2985E-03    -85.5208E+06    -236.491E+06    -79.9492E+06    -163.299E+03    -112.174E-03     224.215E-03    -112.042E-03     27.9843E-03    -112.182E-03     223.313E-03    -111.975E-03     27.3424E-03
             674     2.41407E-03     92.3372E-03    -81.6623E+06    -229.575E+06    -69.5823E+06    -47.8640E+03    -112.352E-03     224.408E-03    -112.056E-03     41.3442E-03    -112.414E-03     223.567E-03    -111.953E-03     40.3724E-03
             675     3.21879E-03     92.3910E-03    -76.9259E+06    -221.199E+06    -57.2850E+06     281.657E+03    -112.637E-03     224.716E-03    -112.078E-03     54.6362E-03    -112.777E-03     223.963E-03    -111.933E-03     53.3043E-03
             676     4.02354E-03     92.4592E-03    -71.9439E+06    -211.826E+06    -44.4563E+06     798.223E+03    -112.995E-03     225.101E-03    -112.106E-03     67.7459E-03    -113.242E-03     224.470E-03    -111.917E-03     66.0175E-03
             677     4.82831E-03     92.5423E-03    -66.7690E+06    -197.125E+06    -33.9203E+06     896.164E+03    -113.374E-03     225.489E-03    -112.115E-03     80.6421E-03    -113.766E-03     225.043E-03    -111.902E-03     78.4675E-03
             678     5.63324E-03     92.6394E-03    -61.2752E+06    -179.063E+06    -25.6024E+06     692.180E+03    -113.780E-03     225.884E-03    -112.104E-03     93.3085E-03    -114.361E-03     225.686E-03    -111.884E-03     90.6290E-03
             679     6.43794E-03     92.7505E-03    -56.1425E+06    -161.610E+06    -18.2051E+06     815.661E+03    -114.235E-03     226.324E-03    -112.089E-03     105.766E-03    -115.061E-03     226.429E-03    -111.864E-03     102.521E-03
             680     7.24287E-03     92.8751E-03    -51.5516E+06    -140.492E+06    -12.2489E+06     1.42508E+06    -114.700E-03     226.763E-03    -112.063E-03     118.319E-03    -115.846E-03     227.262E-03    -111.845E-03     114.445E-03
             681     8.04764E-03     93.0138E-03    -47.3901E+06    -118.475E+06    -6.57975E+06     1.92346E+06    -115.140E-03     227.174E-03    -112.033E-03     130.949E-03    -116.705E-03     228.168E-03    -111.826E-03     126.353E-03
             682     8.85300E-03     93.1658E-03    -43.4020E+06    -93.2408E+06    -1.91461E+06     2.07805E+06    -115.561E-03     227.556E-03    -111.995E-03     143.476E-03    -117.674E-03     229.189E-03    -111.806E-03     138.048E-03
             683     9.65761E-03     93.3310E-03    -39.6498E+06    -57.9343E+06     1.51981E+06     1.93018E+06    -115.863E-03     227.800E-03    -111.936E-03     155.997E-03    -118.695E-03     230.280E-03    -111.787E-03     149.635E-03
             684     10.4627E-03     93.5112E-03    -36.2269E+06    -6.15233E+06     7.96245E+06     2.23845E+06    -116.235E-03     228.108E-03    -111.873E-03     170.493E-03    -120.099E-03     231.799E-03    -111.772E-03     163.031E-03
             685     11.2668E-03     93.7075E-03    -32.9625E+06     46.5728E+06     17.3804E+06     2.89167E+06    -116.859E-03     228.679E-03    -111.820E-03     193.937E-03    -122.399E-03     234.217E-03    -111.753E-03     185.068E-03
             686     12.0742E-03     93.9384E-03    -28.7911E+06     77.6078E+06     41.2734E+06     2.35577E+06    -118.397E-03     230.249E-03    -111.852E-03     231.341E-03    -126.746E-03     238.652E-03    -111.717E-03     220.653E-03
             687     12.8776E-03     94.2201E-03    -22.9259E+06     96.8524E+06     75.4799E+06     2.11944E+06    -120.262E-03     232.205E-03    -111.943E-03     270.924E-03    -132.603E-03     244.589E-03    -111.672E-03     258.470E-03
             688     13.6825E-03     94.5371E-03    -17.1594E+06     111.374E+06     94.7089E+06     1.71912E+06    -119.230E-03     231.176E-03    -111.946E-03     289.718E-03    -134.918E-03     246.923E-03    -111.609E-03     277.412E-03
             689     14.4951E-03     94.8641E-03    -10.6006E+06     129.485E+06     102.715E+06     490.984E+03    -116.381E-03     228.241E-03    -111.860E-03     285.373E-03    -134.275E-03     246.259E-03    -111.519E-03     275.586E-03
             690     15.2952E-03     95.1739E-03    -4.48838E+06     129.945E+06     100.809E+06     345.039E+03    -114.170E-03     225.989E-03    -111.819E-03     192.870E-03    -126.005E-03     237.977E-03    -111.497E-03     187.285E-03
             691     804.592E-06     93.4600E-03    -87.7421E+06    -240.617E+06    -86.4486E+06    -147.378E+03    -112.101E-03     224.054E-03    -111.953E-03     15.3156E-03    -112.078E-03     223.116E-03    -111.909E-03     14.9696E-03
             692     1.60941E-03     93.4837E-03    -85.7882E+06    -236.299E+06    -79.5000E+06    -65.8407E+03    -112.157E-03     224.172E-03    -112.015E-03     27.9625E-03    -112.167E-03     223.270E-03    -111.946E-03     27.3220E-03
             693     2.41403E-03     93.5224E-03    -82.4477E+06    -229.579E+06    -69.1567E+06    -240.536E+03    -112.362E-03     224.402E-03    -112.040E-03     41.3496E-03    -112.428E-03     223.561E-03    -111.933E-03     40.3757E-03
             694     3.21884E-03     93.5761E-03    -77.7858E+06    -222.019E+06    -58.1545E+06     34.9236E+03    -112.663E-03     224.730E-03    -112.067E-03     54.6065E-03    -112.805E-03     223.976E-03    -111.923E-03     53.2704E-03
             695     4.02357E-03     93.6446E-03    -72.0617E+06    -212.787E+06    -45.9044E+06     557.941E+03    -113.020E-03     225.119E-03    -112.099E-03     67.6755E-03    -113.264E-03     224.485E-03    -111.915E-03     65.9426E-03
             696     4.82830E-03     93.7275E-03    -66.1956E+06    -197.095E+06    -34.3156E+06     764.278E+03    -113.392E-03     225.506E-03    -112.114E-03     80.5959E-03    -113.781E-03     225.060E-03    -111.904E-03     78.4193E-03
             697     5.63298E-03     93.8247E-03    -61.3434E+06    -179.151E+06    -25.9616E+06     814.498E+03    -113.791E-03     225.897E-03    -112.106E-03     93.3166E-03    -114.372E-03     225.700E-03    -111.887E-03     90.6397E-03
             698     6.43798E-03     93.9358E-03    -56.9051E+06    -161.980E+06    -18.6766E+06     997.871E+03    -114.233E-03     226.325E-03    -112.092E-03     105.850E-03    -115.061E-03     226.430E-03    -111.868E-03     102.609E-03
             699     7.24283E-03     94.0605E-03    -52.4046E+06    -141.251E+06    -12.8196E+06     1.08259E+06    -114.668E-03     226.732E-03    -112.063E-03     118.346E-03    -115.816E-03     227.229E-03    -111.847E-03     114.468E-03
             700     8.04796E-03     94.1990E-03    -47.7631E+06    -119.491E+06    -7.28096E+06     1.48488E+06    -115.106E-03     227.135E-03    -112.030E-03     130.901E-03    -116.668E-03     228.125E-03    -111.824E-03     126.303E-03
             701     8.85274E-03     94.3509E-03    -43.4517E+06    -93.5954E+06    -2.47319E+06     1.68665E+06    -115.613E-03     227.604E-03    -111.991E-03     143.503E-03    -117.724E-03     229.236E-03    -111.805E-03     138.066E-03
             702     9.65760E-03     94.5173E-03    -39.9186E+06    -58.3957E+06     1.02872E+06     1.94064E+06    -115.944E-03     227.883E-03    -111.939E-03     156.063E-03    -118.780E-03     230.367E-03    -111.791E-03     149.690E-03
             703     10.4627E-03     94.6956E-03    -36.5834E+06    -6.95733E+06     7.48329E+06     2.53042E+06    -116.050E-03     227.921E-03    -111.871E-03     170.800E-03    -119.913E-03     231.608E-03    -111.770E-03     163.359E-03
             704     11.2687E-03     94.8943E-03    -32.7643E+06     46.4180E+06     18.0027E+06     2.50240E+06    -116.685E-03     228.493E-03    -111.807E-03     194.104E-03    -122.227E-03     234.031E-03    -111.737E-03     185.244E-03
             705     12.0715E-03     95.1225E-03    -28.4572E+06     78.7797E+06     41.6026E+06     2.53706E+06    -118.098E-03     229.918E-03    -111.820E-03     231.467E-03    -126.448E-03     238.327E-03    -111.685E-03     220.805E-03
             706     12.8803E-03     95.4043E-03    -23.5004E+06     95.4524E+06     73.2891E+06     1.79042E+06    -119.800E-03     231.679E-03    -111.879E-03     271.326E-03    -132.111E-03     244.032E-03    -111.616E-03     258.935E-03
             707     13.6871E-03     95.7250E-03    -16.6529E+06     113.347E+06     95.7277E+06     945.172E+03    -119.787E-03     231.697E-03    -111.910E-03     286.131E-03    -135.415E-03     247.391E-03    -111.571E-03     273.736E-03
             708     14.4885E-03     96.0411E-03    -10.0822E+06     131.535E+06     104.580E+06     1.33039E+06    -117.196E-03     229.101E-03    -111.905E-03     280.265E-03    -134.970E-03     247.004E-03    -111.559E-03     270.292E-03
             709     15.2982E-03     96.3671E-03    -6.29365E+06     128.584E+06     99.4704E+06     1.10823E+06    -113.570E-03     225.453E-03    -111.883E-03     193.574E-03    -125.317E-03     237.346E-03    -111.563E-03     187.949E-03
             710     804.693E-06     94.6450E-03    -88.6244E+06    -241.202E+06    -86.5930E+06     310.259E+03    -112.051E-03     223.984E-03    -111.932E-03     15.3245E-03    -112.032E-03     223.045E-03    -111.887E-03     14.9856E-03
             711     1.60940E-03     94.6688E-03    -86.3011E+06    -236.538E+06    -79.4721E+06     432.570E+03    -112.162E-03     224.152E-03    -111.990E-03     27.9887E-03    -112.175E-03     223.249E-03    -111.920E-03     27.3548E-03
             712     2.41419E-03     94.7077E-03    -82.7977E+06    -229.481E+06    -68.7754E+06     630.520E+03    -112.415E-03     224.449E-03    -112.034E-03     41.3070E-03    -112.483E-03     223.609E-03    -111.926E-03     40.3444E-03
             713     3.21876E-03     94.7614E-03    -78.3704E+06    -221.955E+06    -57.8901E+06     253.043E+03    -112.691E-03     224.766E-03    -112.076E-03     54.5688E-03    -112.835E-03     224.013E-03    -111.930E-03     53.2358E-03
             714     4.02345E-03     94.8299E-03    -73.3242E+06    -212.828E+06    -46.8277E+06    -223.795E+03    -112.996E-03     225.099E-03    -112.103E-03     67.6965E-03    -113.244E-03     224.467E-03    -111.922E-03     65.9546E-03
             715     4.82825E-03     94.9128E-03    -68.1214E+06    -198.024E+06    -35.5600E+06     293.641E+03    -113.354E-03     225.468E-03    -112.113E-03     80.6490E-03    -113.749E-03     225.021E-03    -111.905E-03     78.4681E-03
             716     5.63322E-03     95.0101E-03    -62.7199E+06    -179.875E+06    -26.2073E+06     1.06445E+06    -113.779E-03     225.885E-03    -112.106E-03     93.3679E-03    -114.365E-03     225.686E-03    -111.885E-03     90.6956E-03
             717     6.43797E-03     95.1209E-03    -57.4472E+06    -161.947E+06    -18.9013E+06     848.743E+03    -114.241E-03     226.331E-03    -112.089E-03     105.883E-03    -115.071E-03     226.436E-03    -111.866E-03     102.640E-03
             718     7.24287E-03     95.2459E-03    -52.5177E+06    -141.561E+06    -13.2851E+06     835.115E+03    -114.691E-03     226.753E-03    -112.062E-03     118.280E-03    -115.837E-03     227.249E-03    -111.847E-03     114.399E-03
             719     8.04772E-03     95.3838E-03    -48.0448E+06    -119.856E+06    -7.81181E+06     913.004E+03    -115.151E-03     227.183E-03    -112.032E-03     130.893E-03    -116.714E-03     228.173E-03    -111.827E-03     126.283E-03
             720     8.85271E-03     95.5367E-03    -44.1062E+06    -94.6437E+06    -3.30401E+06     1.20083E+06    -115.560E-03     227.552E-03    -111.992E-03     143.647E-03    -117.672E-03     229.182E-03    -111.808E-03     138.206E-03
             721     9.65783E-03     95.7021E-03    -40.2279E+06    -59.3495E+06     639.534E+03     1.81578E+06    -115.832E-03     227.766E-03    -111.934E-03     156.152E-03    -118.668E-03     230.247E-03    -111.786E-03     149.783E-03
             722     10.4626E-03     95.8818E-03    -36.3413E+06    -7.88482E+06     7.24890E+06     2.10401E+06    -115.922E-03     227.780E-03    -111.857E-03     170.720E-03    -119.786E-03     231.465E-03    -111.757E-03     163.275E-03
             723     11.2675E-03     96.0777E-03    -32.4544E+06     46.2049E+06     17.8849E+06     2.44244E+06    -116.391E-03     228.169E-03    -111.779E-03     194.087E-03    -121.910E-03     233.686E-03    -111.709E-03     185.271E-03
             724     12.0756E-03     96.3098E-03    -28.7417E+06     79.1852E+06     41.8658E+06     2.84001E+06    -118.359E-03     230.158E-03    -111.798E-03     230.545E-03    -126.729E-03     238.585E-03    -111.662E-03     219.840E-03
             725     12.8790E-03     96.5862E-03    -23.9727E+06     97.6517E+06     74.3621E+06     1.79521E+06    -120.439E-03     232.341E-03    -111.902E-03     269.202E-03    -132.723E-03     244.671E-03    -111.637E-03     256.712E-03
             726     13.6831E-03     96.9109E-03    -17.8161E+06     113.256E+06     94.4254E+06     484.853E+03    -120.535E-03     232.507E-03    -111.972E-03     286.413E-03    -136.110E-03     248.147E-03    -111.638E-03     273.952E-03
             727     14.4870E-03     97.2318E-03    -11.0266E+06     127.190E+06     101.403E+06     1.72373E+06    -118.400E-03     230.404E-03    -112.004E-03     282.034E-03    -136.259E-03     248.381E-03    -111.665E-03     271.950E-03
             728     15.2890E-03     97.5419E-03    -3.91464E+06     130.056E+06     101.044E+06     1.76392E+06    -112.092E-03     224.065E-03    -111.974E-03     194.561E-03    -123.930E-03     236.058E-03    -111.651E-03     189.019E-03
             729     804.820E-06     95.8301E-03    -89.1426E+06    -241.949E+06    -87.7579E+06     786.254E+03    -112.078E-03     223.981E-03    -111.903E-03     15.2658E-03    -112.058E-03     223.041E-03    -111.862E-03     14.9365E-03
             730     1.60946E-03     95.8540E-03    -86.9558E+06    -237.396E+06    -80.5212E+06     743.639E+03    -112.209E-03     224.207E-03    -111.998E-03     27.9330E-03    -112.223E-03     223.303E-03    -111.930E-03     27.3025E-03
             731     2.41400E-03     95.8929E-03    -82.9495E+06    -229.867E+06    -69.3856E+06     874.080E+03    -112.402E-03     224.450E-03    -112.048E-03     41.3079E-03    -112.470E-03     223.608E-03    -111.941E-03     40.3481E-03
             732     3.21871E-03     95.9468E-03    -77.9806E+06    -221.262E+06    -57.1216E+06     608.380E+03    -112.652E-03     224.735E-03    -112.083E-03     54.6087E-03    -112.797E-03     223.983E-03    -111.935E-03     53.2814E-03
             733     4.02354E-03     96.0150E-03    -73.1405E+06    -212.606E+06    -45.6898E+06     416.162E+03    -112.983E-03     225.090E-03    -112.106E-03     67.7401E-03    -113.233E-03     224.458E-03    -111.920E-03     66.0071E-03
             734     4.82833E-03     96.0982E-03    -68.1664E+06    -198.779E+06    -35.6816E+06     431.275E+03    -113.369E-03     225.481E-03    -112.112E-03     80.6156E-03    -113.763E-03     225.031E-03    -111.904E-03     78.4344E-03
             735     5.63310E-03     96.1950E-03    -62.5440E+06    -180.473E+06    -26.8032E+06     429.449E+03    -113.789E-03     225.893E-03    -112.104E-03     93.3027E-03    -114.372E-03     225.692E-03    -111.886E-03     90.6207E-03
             736     6.43799E-03     96.3065E-03    -57.1086E+06    -161.923E+06    -19.3094E+06     535.465E+03    -114.249E-03     226.338E-03    -112.089E-03     105.820E-03    -115.077E-03     226.444E-03    -111.868E-03     102.573E-03
             737     7.24288E-03     96.4308E-03    -52.3103E+06    -141.605E+06    -13.4498E+06     396.209E+03    -114.733E-03     226.798E-03    -112.065E-03     118.252E-03    -115.879E-03     227.294E-03    -111.851E-03     114.361E-03
             738     8.04774E-03     96.5697E-03    -47.8339E+06    -120.451E+06    -8.15841E+06     538.855E+03    -115.153E-03     227.191E-03    -112.037E-03     130.848E-03    -116.715E-03     228.179E-03    -111.834E-03     126.229E-03
             739     8.85277E-03     96.7213E-03    -43.6064E+06    -95.5926E+06    -3.49221E+06     938.136E+03    -115.480E-03     227.475E-03    -111.995E-03     143.593E-03    -117.587E-03     229.098E-03    -111.811E-03     138.153E-03
             740     9.65765E-03     96.8880E-03    -39.8631E+06    -60.3866E+06     324.226E+03     1.57196E+06    -115.708E-03     227.636E-03    -111.928E-03     156.121E-03    -118.538E-03     230.108E-03    -111.781E-03     149.760E-03
             741     10.4632E-03     97.0662E-03    -36.6978E+06    -7.61757E+06     7.03433E+06     1.88903E+06    -115.896E-03     227.742E-03    -111.846E-03     170.374E-03    -119.759E-03     231.427E-03    -111.747E-03     162.927E-03
             742     11.2691E-03     97.2638E-03    -33.7191E+06     44.7775E+06     16.8799E+06     2.34723E+06    -116.731E-03     228.515E-03    -111.784E-03     193.060E-03    -122.248E-03     234.022E-03    -111.716E-03     184.207E-03
             743     12.0726E-03     97.4920E-03    -29.0937E+06     78.6848E+06     41.2699E+06     2.30384E+06    -118.778E-03     230.613E-03    -111.834E-03     230.027E-03    -127.161E-03     239.051E-03    -111.700E-03     219.258E-03
             744     12.8773E-03     97.7767E-03    -22.6587E+06     99.0476E+06     74.9092E+06     2.39231E+06    -120.593E-03     232.547E-03    -111.953E-03     269.978E-03    -132.890E-03     244.898E-03    -111.690E-03     257.483E-03
             745     13.6829E-03     98.0920E-03    -17.1162E+06     113.924E+06     94.9038E+06     2.59026E+06    -119.433E-03     231.409E-03    -111.976E-03     289.283E-03    -134.995E-03     247.040E-03    -111.642E-03     277.012E-03
             746     14.4909E-03     98.4211E-03    -12.1640E+06     126.644E+06     101.361E+06     461.688E+03    -117.693E-03     229.618E-03    -111.925E-03     287.852E-03    -135.830E-03     247.867E-03    -111.584E-03     277.824E-03
             747     15.2946E-03     98.7345E-03    -5.98128E+06     130.221E+06     100.497E+06     388.963E+03    -113.844E-03     225.742E-03    -111.898E-03     195.089E-03    -125.914E-03     237.961E-03    -111.576E-03     189.418E-03
             748     804.575E-06     97.0153E-03    -90.1089E+06    -242.788E+06    -88.8735E+06     402.448E+03    -112.133E-03     224.109E-03    -111.976E-03     15.2722E-03    -112.115E-03     223.168E-03    -111.937E-03     14.9388E-03
             749     1.60924E-03     97.0394E-03    -87.4589E+06    -238.016E+06    -81.5573E+06     366.255E+03    -112.179E-03     224.220E-03    -112.041E-03     27.9803E-03    -112.192E-03     223.315E-03    -111.977E-03     27.3448E-03
             750     2.41402E-03     97.0782E-03    -83.2629E+06    -230.202E+06    -69.9673E+06     409.543E+03    -112.344E-03     224.404E-03    -112.061E-03     41.3469E-03    -112.412E-03     223.563E-03    -111.956E-03     40.3810E-03
             751     3.21886E-03     97.1319E-03    -78.4404E+06    -221.395E+06    -57.1167E+06     583.201E+03    -112.628E-03     224.712E-03    -112.084E-03     54.6061E-03    -112.775E-03     223.960E-03    -111.935E-03     53.2787E-03
             752     4.02353E-03     97.2005E-03    -73.0313E+06    -213.126E+06    -45.4238E+06     840.300E+03    -113.007E-03     225.115E-03    -112.108E-03     67.6627E-03    -113.256E-03     224.480E-03    -111.920E-03     65.9339E-03
             753     4.82828E-03     97.2833E-03    -67.3533E+06    -198.258E+06    -35.7196E+06     629.695E+03    -113.418E-03     225.534E-03    -112.116E-03     80.5766E-03    -113.809E-03     225.086E-03    -111.910E-03     78.3961E-03
             754     5.63305E-03     97.3806E-03    -62.0919E+06    -179.794E+06    -27.5417E+06    -134.067E+03    -113.831E-03     225.942E-03    -112.111E-03     93.2351E-03    -114.413E-03     225.745E-03    -111.898E-03     90.5416E-03
             755     6.43794E-03     97.4914E-03    -56.8626E+06    -162.537E+06    -20.1273E+06    -206.289E+03    -114.268E-03     226.367E-03    -112.100E-03     105.746E-03    -115.091E-03     226.471E-03    -111.882E-03     102.488E-03
             756     7.24271E-03     97.6166E-03    -51.9739E+06    -141.659E+06    -13.9412E+06     93.2705E+03    -114.707E-03     226.783E-03    -112.075E-03     118.178E-03    -115.851E-03     227.279E-03    -111.864E-03     114.282E-03
             757     8.04764E-03     97.7545E-03    -47.7044E+06    -121.014E+06    -8.72470E+06     18.5991E+03    -115.129E-03     227.174E-03    -112.045E-03     130.767E-03    -116.689E-03     228.160E-03    -111.844E-03     126.139E-03
             758     8.85252E-03     97.9071E-03    -43.8272E+06    -96.8637E+06    -4.54279E+06     509.932E+03    -115.491E-03     227.492E-03    -112.001E-03     143.416E-03    -117.597E-03     229.111E-03    -111.819E-03     137.968E-03
             759     9.65801E-03     98.0723E-03    -40.1832E+06    -61.4448E+06    -558.895E+03     1.30137E+06    -115.762E-03     227.700E-03    -111.938E-03     155.759E-03    -118.588E-03     230.167E-03    -111.793E-03     149.390E-03
             760     10.4627E-03     98.2521E-03    -36.8562E+06    -8.78466E+06     6.23271E+06     2.23332E+06    -116.034E-03     227.900E-03    -111.866E-03     169.809E-03    -119.888E-03     231.574E-03    -111.769E-03     162.360E-03
             761     11.2672E-03     98.4479E-03    -33.4911E+06     44.2184E+06     16.3687E+06     2.39206E+06    -116.886E-03     228.699E-03    -111.813E-03     193.517E-03    -122.408E-03     234.212E-03    -111.747E-03     184.658E-03
             762     12.0722E-03     98.6806E-03    -29.5358E+06     78.6859E+06     40.4999E+06     2.04608E+06    -118.581E-03     230.431E-03    -111.850E-03     231.699E-03    -126.975E-03     238.882E-03    -111.718E-03     220.963E-03
             763     12.8790E-03     98.9581E-03    -24.8166E+06     98.3483E+06     73.1827E+06     1.97597E+06    -119.857E-03     231.783E-03    -111.926E-03     270.929E-03    -132.144E-03     244.118E-03    -111.666E-03     258.551E-03
             764     13.6848E-03     99.2816E-03    -18.0731E+06     114.786E+06     95.4943E+06     1.77063E+06    -119.237E-03     231.172E-03    -111.935E-03     287.544E-03    -134.843E-03     246.845E-03    -111.598E-03     275.242E-03
             765     14.4920E-03     99.5970E-03    -10.4996E+06     130.554E+06     104.586E+06     2.19406E+06    -116.998E-03     228.888E-03    -111.890E-03     284.760E-03    -135.044E-03     247.057E-03    -111.541E-03     274.784E-03
             766     15.2994E-03     99.9306E-03    -5.62588E+06     131.320E+06     101.029E+06     1.20276E+06    -113.577E-03     225.426E-03    -111.849E-03     190.873E-03    -125.368E-03     237.370E-03    -111.526E-03     185.296E-03
             767     804.618E-06     98.2007E-03    -90.4438E+06    -242.837E+06    -89.1185E+06    -428.148E+03    -112.086E-03     224.154E-03    -112.068E-03     15.3517E-03    -112.069E-03     223.213E-03    -112.030E-03     15.0042E-03
             768     1.60930E-03     98.2246E-03    -87.9336E+06    -238.163E+06    -81.9536E+06    -437.696E+03    -112.165E-03     224.221E-03    -112.056E-03     28.0260E-03    -112.180E-03     223.316E-03    -111.993E-03     27.3800E-03
             769     2.41405E-03     98.2633E-03    -83.7932E+06    -230.680E+06    -70.8380E+06    -91.8893E+03    -112.370E-03     224.439E-03    -112.069E-03     41.3104E-03    -112.439E-03     223.597E-03    -111.967E-03     40.3375E-03
             770     3.21867E-03     98.3172E-03    -78.6519E+06    -222.116E+06    -58.5516E+06     419.023E+03    -112.669E-03     224.764E-03    -112.095E-03     54.5347E-03    -112.814E-03     224.011E-03    -111.952E-03     53.2042E-03
             771     4.02348E-03     98.3856E-03    -73.1185E+06    -213.456E+06    -46.5584E+06     550.391E+03    -113.032E-03     225.156E-03    -112.124E-03     67.5841E-03    -113.279E-03     224.521E-03    -111.941E-03     65.8506E-03
             772     4.82820E-03     98.4687E-03    -67.3075E+06    -197.310E+06    -35.8349E+06    -75.7075E+03    -113.426E-03     225.561E-03    -112.135E-03     80.5045E-03    -113.818E-03     225.118E-03    -111.930E-03     78.3136E-03
             773     5.63299E-03     98.5658E-03    -61.4900E+06    -178.751E+06    -27.5177E+06    -808.689E+03    -113.862E-03     225.991E-03    -112.129E-03     93.1804E-03    -114.442E-03     225.799E-03    -111.919E-03     90.4751E-03
             774     6.43762E-03     98.6769E-03    -56.3992E+06    -163.007E+06    -20.8180E+06    -974.562E+03    -114.281E-03     226.399E-03    -112.118E-03     105.702E-03    -115.102E-03     226.501E-03    -111.904E-03     102.431E-03
             775     7.24263E-03     98.8016E-03    -51.5548E+06    -142.416E+06    -14.8920E+06    -568.178E+03    -114.676E-03     226.765E-03    -112.089E-03     118.178E-03    -115.815E-03     227.258E-03    -111.882E-03     114.276E-03
             776     8.04756E-03     98.9400E-03    -47.3378E+06    -121.413E+06    -9.12792E+06     131.887E+03    -115.117E-03     227.174E-03    -112.056E-03     130.699E-03    -116.674E-03     228.158E-03    -111.857E-03     126.074E-03
             777     8.85267E-03     99.0920E-03    -43.7388E+06    -97.3143E+06    -4.80964E+06     531.408E+03    -115.594E-03     227.611E-03    -112.017E-03     143.367E-03    -117.698E-03     229.228E-03    -111.836E-03     137.916E-03
             778     9.65705E-03     99.2580E-03    -40.3052E+06    -62.9629E+06    -1.57060E+06     958.697E+03    -115.819E-03     227.776E-03    -111.957E-03     155.825E-03    -118.643E-03     230.238E-03    -111.815E-03     149.448E-03
             779     10.4623E-03     99.4370E-03    -37.0118E+06    -11.3885E+06     4.83944E+06     2.14808E+06    -115.876E-03     227.751E-03    -111.876E-03     170.662E-03    -119.722E-03     231.412E-03    -111.781E-03     163.238E-03
             780     11.2677E-03     99.6342E-03    -34.0408E+06     44.3664E+06     14.8459E+06     3.05592E+06    -116.549E-03     228.341E-03    -111.793E-03     194.513E-03    -122.078E-03     233.865E-03    -111.734E-03     185.692E-03
             781     12.0747E-03     99.8638E-03    -30.8685E+06     79.5596E+06     38.7283E+06     2.76915E+06    -118.419E-03     230.229E-03    -111.809E-03     231.547E-03    -126.803E-03     238.673E-03    -111.686E-03     220.845E-03
             782     12.8783E-03     100.146E-03    -25.6596E+06     99.7059E+06     73.6087E+06     1.47720E+06    -120.186E-03     232.097E-03    -111.911E-03     269.024E-03    -132.454E-03     244.415E-03    -111.651E-03     256.597E-03
             783     13.6854E-03     100.461E-03    -18.6837E+06     114.260E+06     95.4111E+06     905.380E+03    -120.311E-03     232.290E-03    -111.979E-03     286.060E-03    -135.935E-03     247.977E-03    -111.641E-03     273.606E-03
             784     14.4858E-03     100.791E-03    -12.3670E+06     128.251E+06     101.873E+06     1.81602E+06    -117.487E-03     229.462E-03    -111.975E-03     283.868E-03    -135.398E-03     247.489E-03    -111.633E-03     273.888E-03
             785     15.2900E-03     101.101E-03    -5.52820E+06     132.969E+06     101.128E+06     605.909E+03    -112.159E-03     224.068E-03    -111.909E-03     193.512E-03    -123.924E-03     235.993E-03    -111.588E-03     188.053E-03
             786     804.627E-06     99.3860E-03    -89.9731E+06    -241.953E+06    -88.5414E+06    -408.155E+03    -112.094E-03     224.146E-03    -112.053E-03     15.2771E-03    -112.077E-03     223.208E-03    -112.014E-03     14.9272E-03
             787     1.60932E-03     99.4098E-03    -88.0186E+06    -237.762E+06    -81.8663E+06    -439.844E+03    -112.224E-03     224.290E-03    -112.065E-03     27.9450E-03    -112.241E-03     223.387E-03    -112.002E-03     27.2990E-03
             788     2.41389E-03     99.4487E-03    -84.3837E+06    -230.956E+06    -71.6568E+06    -586.984E+03    -112.435E-03     224.531E-03    -112.095E-03     41.2804E-03    -112.506E-03     223.689E-03    -111.996E-03     40.2997E-03
             789     3.21864E-03     99.5025E-03    -79.3589E+06    -222.963E+06    -60.3815E+06    -371.226E+03    -112.707E-03     224.831E-03    -112.124E-03     54.5318E-03    -112.851E-03     224.077E-03    -111.988E-03     53.1891E-03
             790     4.02325E-03     99.5711E-03    -73.3959E+06    -212.826E+06    -48.0696E+06    -567.523E+03    -113.054E-03     225.204E-03    -112.150E-03     67.6168E-03    -113.301E-03     224.575E-03    -111.976E-03     65.8682E-03
             791     4.82799E-03     99.6540E-03    -67.3894E+06    -195.891E+06    -36.6202E+06    -1.32006E+06    -113.430E-03     225.590E-03    -112.160E-03     80.5125E-03    -113.824E-03     225.155E-03    -111.962E-03     78.3052E-03
             792     5.63274E-03     99.7513E-03    -62.0310E+06    -178.731E+06    -28.2980E+06    -1.53337E+06    -113.825E-03     225.976E-03    -112.151E-03     93.2207E-03    -114.407E-03     225.785E-03    -111.943E-03     90.5088E-03
             793     6.43766E-03     99.8623E-03    -57.1133E+06     -162.45E+06    -21.5640E+06    -1.47178E+06    -114.263E-03     226.395E-03    -112.132E-03     105.713E-03    -115.086E-03     226.502E-03    -111.922E-03     102.437E-03
             794     7.24246E-03     99.9868E-03    -52.6651E+06    -143.174E+06    -16.0764E+06    -1.51654E+06    -114.696E-03     226.799E-03    -112.102E-03     118.161E-03    -115.837E-03     227.291E-03    -111.899E-03     114.246E-03
             795     8.04741E-03     100.125E-03    -48.0346E+06    -122.991E+06    -10.5139E+06    -665.719E+03    -115.138E-03     227.207E-03    -112.070E-03     130.707E-03    -116.691E-03     228.184E-03    -111.874E-03     126.076E-03
             796     8.85218E-03     100.277E-03    -43.5202E+06    -97.8128E+06    -5.42673E+06     285.666E+03    -115.475E-03     227.499E-03    -112.024E-03     143.572E-03    -117.574E-03     229.111E-03    -111.846E-03     138.130E-03
             797     9.65752E-03     100.444E-03    -40.2304E+06    -64.4079E+06    -2.20003E+06     1.07342E+06    -115.647E-03     227.597E-03    -111.950E-03     156.181E-03    -118.463E-03     230.048E-03    -111.809E-03     149.826E-03
             798     10.4629E-03     100.621E-03    -37.4565E+06    -13.7115E+06     3.80230E+06     2.38959E+06    -115.811E-03     227.670E-03    -111.859E-03     170.391E-03    -119.655E-03     231.322E-03    -111.766E-03     162.966E-03
             799     11.2692E-03     100.819E-03    -34.1903E+06     43.2056E+06     13.6970E+06     3.37500E+06    -116.686E-03     228.467E-03    -111.782E-03     193.613E-03    -122.205E-03     233.979E-03    -111.726E-03     184.776E-03
             800     12.0722E-03     101.050E-03    -29.6066E+06     81.5460E+06     38.7917E+06     2.95792E+06    -118.578E-03     230.393E-03    -111.815E-03     230.528E-03    -126.943E-03     238.830E-03    -111.697E-03     219.813E-03
             801     12.8795E-03     101.330E-03    -24.0572E+06     101.248E+06     73.8548E+06     2.03589E+06    -120.695E-03     232.636E-03    -111.941E-03     269.382E-03    -132.992E-03     244.993E-03    -111.683E-03     256.875E-03
             802     13.6803E-03     101.650E-03    -18.5137E+06     113.676E+06     94.3765E+06     1.61189E+06    -120.448E-03     232.462E-03    -112.013E-03     287.999E-03    -136.071E-03     248.148E-03    -111.679E-03     275.551E-03
             803     14.4900E-03     101.973E-03    -11.5539E+06     128.795E+06     102.499E+06     541.018E+03    -117.358E-03     229.359E-03    -112.000E-03     284.628E-03    -135.314E-03     247.433E-03    -111.658E-03     274.669E-03
             804     15.2987E-03     102.291E-03    -5.53230E+06     133.962E+06     101.612E+06     158.438E+03    -112.184E-03     224.116E-03    -111.931E-03     193.602E-03    -124.059E-03     236.152E-03    -111.609E-03     188.146E-03
             805     804.641E-06     100.571E-03    -90.3524E+06    -241.672E+06    -88.6615E+06    -101.774E+03    -112.193E-03     224.199E-03    -112.005E-03     15.2736E-03    -112.178E-03     223.263E-03    -111.967E-03     14.9300E-03
             806     1.60918E-03     100.595E-03    -87.9941E+06    -237.118E+06    -81.6798E+06    -83.9073E+03    -112.275E-03     224.372E-03    -112.097E-03     27.9631E-03    -112.292E-03     223.472E-03    -112.034E-03     27.3213E-03
             807     2.41385E-03     100.634E-03    -84.4839E+06    -230.212E+06    -71.4825E+06    -550.397E+03    -112.466E-03     224.597E-03    -112.131E-03     41.3061E-03    -112.538E-03     223.760E-03    -112.032E-03     40.3254E-03
             808     3.21842E-03     100.688E-03    -79.9047E+06    -222.604E+06    -60.5463E+06    -1.23926E+06    -112.727E-03     224.884E-03    -112.157E-03     54.5660E-03    -112.874E-03     224.133E-03    -112.021E-03     53.2119E-03
             809     4.02319E-03     100.756E-03    -74.4806E+06    -211.175E+06    -49.8052E+06    -2.08300E+06    -113.049E-03     225.219E-03    -112.170E-03     67.7123E-03    -113.302E-03     224.602E-03    -112.005E-03     65.9454E-03
             810     4.82788E-03     100.840E-03    -68.8915E+06    -195.386E+06    -39.0808E+06    -2.37749E+06    -113.414E-03     225.587E-03    -112.172E-03     80.6091E-03    -113.812E-03     225.160E-03    -111.984E-03     78.3897E-03
             811     5.63269E-03     100.937E-03    -63.4127E+06    -178.768E+06    -29.4448E+06    -2.17276E+06    -113.810E-03     225.975E-03    -112.165E-03     93.2542E-03    -114.397E-03     225.787E-03    -111.961E-03     90.5358E-03
             812     6.43753E-03     101.048E-03    -58.0769E+06    -161.761E+06    -22.2670E+06    -2.40653E+06    -114.246E-03     226.389E-03    -112.143E-03     105.733E-03    -115.074E-03     226.501E-03    -111.935E-03     102.446E-03
             813     7.24238E-03     101.172E-03    -52.9673E+06    -142.985E+06    -16.6772E+06    -2.38539E+06    -114.690E-03     226.800E-03    -112.110E-03     118.195E-03    -115.831E-03     227.294E-03    -111.910E-03     114.272E-03
             814     8.04726E-03     101.310E-03    -48.2718E+06    -124.206E+06    -11.5157E+06    -2.15157E+06    -115.055E-03     227.127E-03    -112.071E-03     130.908E-03    -116.606E-03     228.099E-03    -111.879E-03     126.264E-03
             815     8.85240E-03     101.463E-03    -44.0544E+06    -100.696E+06    -7.13616E+06    -813.740E+03    -115.346E-03     227.360E-03    -112.014E-03     143.591E-03    -117.439E-03     228.960E-03    -111.840E-03     138.141E-03
             816     9.65792E-03     101.628E-03    -40.2258E+06    -66.1811E+06    -2.77706E+06     1.31530E+06    -115.688E-03     227.629E-03    -111.941E-03     155.839E-03    -118.497E-03     230.069E-03    -111.800E-03     149.485E-03
             817     10.4629E-03     101.808E-03    -36.7307E+06    -15.6868E+06     3.51114E+06     2.49502E+06    -116.150E-03     228.018E-03    -111.868E-03     170.040E-03    -119.998E-03     231.670E-03    -111.775E-03     162.577E-03
             818     11.2664E-03     102.003E-03    -32.6972E+06     42.5486E+06     14.2599E+06     2.64809E+06    -116.945E-03     228.759E-03    -111.814E-03     193.665E-03    -122.468E-03     234.275E-03    -111.757E-03     184.788E-03
             819     12.0739E-03     102.236E-03    -28.2999E+06     81.7417E+06     39.5705E+06     2.83593E+06    -118.488E-03     230.338E-03    -111.850E-03     230.893E-03    -126.848E-03     238.773E-03    -111.729E-03     220.185E-03
             820     12.8765E-03     102.515E-03    -23.3827E+06     101.096E+06     72.7663E+06     3.03334E+06    -120.021E-03     231.953E-03    -111.932E-03     271.021E-03    -132.315E-03     244.311E-03    -111.680E-03     258.618E-03
             821     13.6863E-03     102.838E-03    -16.4009E+06     116.015E+06     95.0088E+06     1.93382E+06    -120.065E-03     232.028E-03    -111.963E-03     289.342E-03    -135.744E-03     247.785E-03    -111.632E-03     276.915E-03
             822     14.4880E-03     103.157E-03    -9.95594E+06     129.874E+06     103.774E+06     1.25558E+06    -117.693E-03     229.648E-03    -111.955E-03     284.707E-03    -135.793E-03     247.873E-03    -111.610E-03     274.675E-03
             823     15.2884E-03     103.476E-03    -4.99839E+06     133.974E+06     102.278E+06     982.742E+03    -112.123E-03     224.023E-03    -111.901E-03     193.452E-03    -124.062E-03     236.124E-03    -111.576E-03     187.995E-03
             824     804.587E-06     101.757E-03    -90.6327E+06    -241.423E+06    -89.1409E+06         843.414    -112.231E-03     224.237E-03    -112.006E-03     15.3539E-03    -112.218E-03     223.303E-03    -111.970E-03     15.0148E-03
             825     1.60919E-03     101.781E-03    -88.3086E+06    -236.768E+06    -81.9920E+06    -182.894E+03    -112.292E-03     224.408E-03    -112.116E-03     28.0323E-03    -112.311E-03     223.511E-03    -112.054E-03     27.3890E-03
             826     2.41375E-03     101.820E-03    -84.1349E+06    -228.933E+06    -70.8252E+06    -726.127E+03    -112.482E-03     224.633E-03    -112.151E-03     41.3833E-03    -112.555E-03     223.800E-03    -112.051E-03     40.4006E-03
             827     3.21844E-03     101.873E-03    -78.9080E+06    -220.321E+06    -58.8981E+06    -1.87444E+06    -112.750E-03     224.929E-03    -112.179E-03     54.6317E-03    -112.898E-03     224.186E-03    -112.040E-03     53.2700E-03
             828     4.02306E-03     101.942E-03    -73.6576E+06    -209.873E+06    -48.4229E+06    -2.62784E+06    -113.054E-03     225.246E-03    -112.192E-03     67.7203E-03    -113.307E-03     224.632E-03    -112.023E-03     65.9458E-03
             829     4.82787E-03     102.025E-03    -68.3479E+06    -194.900E+06    -39.0852E+06    -2.89446E+06    -113.400E-03     225.585E-03    -112.185E-03     80.5906E-03    -113.796E-03     225.159E-03    -111.998E-03     78.3656E-03
             830     5.63265E-03     102.122E-03    -62.7462E+06    -177.666E+06    -30.2834E+06    -3.34513E+06    -113.813E-03     225.982E-03    -112.169E-03     93.2731E-03    -114.397E-03     225.800E-03    -111.972E-03     90.5398E-03
             831     6.43740E-03     102.233E-03    -57.1124E+06    -160.872E+06    -22.5314E+06    -3.70290E+06    -114.222E-03     226.368E-03    -112.147E-03     105.787E-03    -115.045E-03     226.484E-03    -111.943E-03     102.485E-03
             832     7.24240E-03     102.357E-03    -51.8549E+06    -142.924E+06    -16.7704E+06    -3.74119E+06    -114.599E-03     226.707E-03    -112.108E-03     118.274E-03    -115.734E-03     227.199E-03    -111.909E-03     114.337E-03
             833     8.04741E-03     102.496E-03    -47.3430E+06    -125.329E+06    -11.7879E+06    -2.95144E+06    -114.998E-03     227.060E-03    -112.062E-03     130.811E-03    -116.543E-03     228.027E-03    -111.871E-03     126.155E-03
             834     8.85279E-03     102.647E-03    -43.4209E+06    -103.436E+06    -7.81325E+06    -1.50809E+06    -115.485E-03     227.495E-03    -112.010E-03     143.411E-03    -117.570E-03     229.082E-03    -111.836E-03     137.943E-03
             835     9.65720E-03     102.814E-03    -39.2394E+06    -69.6273E+06    -4.15409E+06     7.14364E+03    -115.847E-03     227.793E-03    -111.947E-03     155.935E-03    -118.653E-03     230.225E-03    -111.809E-03     149.545E-03
             836     10.4622E-03     102.992E-03    -34.8678E+06    -17.5958E+06     3.33753E+06     1.81663E+06    -116.118E-03     227.996E-03    -111.877E-03     170.668E-03    -119.954E-03     231.635E-03    -111.785E-03     163.210E-03
             837     11.2686E-03     103.191E-03    -32.1599E+06     42.1737E+06     13.9697E+06     3.43186E+06    -116.812E-03     228.623E-03    -111.810E-03     194.372E-03    -122.341E-03     234.146E-03    -111.755E-03     185.521E-03
             838     12.0713E-03     103.419E-03    -29.9553E+06     81.2640E+06     37.7225E+06     3.36589E+06    -118.171E-03     229.993E-03    -111.821E-03     231.673E-03    -126.549E-03     238.443E-03    -111.707E-03     220.997E-03
             839     12.8803E-03     103.701E-03    -24.8530E+06     102.438E+06     72.7585E+06     2.14745E+06    -119.929E-03     231.826E-03    -111.897E-03     270.948E-03    -132.250E-03     244.211E-03    -111.645E-03     258.526E-03
             840     13.6839E-03     104.019E-03    -18.3907E+06     116.724E+06     95.0922E+06     1.15450E+06    -119.823E-03     231.750E-03    -111.927E-03     288.836E-03    -135.526E-03     247.527E-03    -111.594E-03     276.430E-03
             841     14.4904E-03     104.350E-03    -12.0772E+06     129.251E+06     102.602E+06     542.515E+03    -116.476E-03     228.352E-03    -111.876E-03     284.926E-03    -134.436E-03     246.431E-03    -111.533E-03     275.077E-03
             842     15.3017E-03     104.658E-03    -5.11878E+06     135.058E+06     103.248E+06     783.754E+03    -112.538E-03     224.338E-03    -111.800E-03     194.816E-03    -124.390E-03     236.352E-03    -111.472E-03     189.371E-03
             843     804.610E-06     102.942E-03    -90.9334E+06    -241.079E+06    -89.3606E+06     63.4324E+03    -112.247E-03     224.258E-03    -112.011E-03     15.4412E-03    -112.235E-03     223.327E-03    -111.977E-03     15.1012E-03
             844     1.60918E-03     102.966E-03    -88.3800E+06    -236.087E+06    -81.8918E+06    -497.086E+03    -112.297E-03     224.423E-03    -112.126E-03     28.0359E-03    -112.318E-03     223.529E-03    -112.065E-03     27.3894E-03
             845     2.41381E-03     103.005E-03    -84.0724E+06    -227.285E+06    -70.4047E+06    -1.12791E+06    -112.488E-03     224.648E-03    -112.160E-03     41.3760E-03    -112.564E-03     223.823E-03    -112.061E-03     40.3887E-03
             846     3.21839E-03     103.059E-03    -78.8842E+06    -217.240E+06    -57.8944E+06    -2.43789E+06    -112.753E-03     224.942E-03    -112.189E-03     54.6385E-03    -112.907E-03     224.213E-03    -112.049E-03     53.2692E-03
             847     4.02306E-03     103.127E-03    -73.0472E+06    -208.883E+06    -46.9871E+06    -3.46405E+06    -113.074E-03     225.281E-03    -112.207E-03     67.6979E-03    -113.327E-03     224.669E-03    -112.033E-03     65.9103E-03
             848     4.82774E-03     103.210E-03    -67.0552E+06    -193.322E+06    -38.3058E+06    -3.78821E+06    -113.401E-03     225.596E-03    -112.195E-03     80.5939E-03    -113.793E-03     225.175E-03    -112.009E-03     78.3564E-03
             849     5.63255E-03     103.307E-03    -61.5954E+06    -175.468E+06    -30.8679E+06    -4.69743E+06    -113.760E-03     225.926E-03    -112.166E-03     93.3162E-03    -114.340E-03     225.754E-03    -111.977E-03     90.5677E-03
             850     6.43754E-03     103.418E-03    -56.2464E+06    -160.002E+06    -23.3543E+06    -5.41560E+06    -114.157E-03     226.293E-03    -112.136E-03     105.827E-03    -114.976E-03     226.412E-03    -111.939E-03     102.506E-03
             851     7.24240E-03     103.543E-03    -51.3344E+06    -143.318E+06    -17.4367E+06    -5.07067E+06    -114.567E-03     226.663E-03    -112.095E-03     118.234E-03    -115.699E-03     227.153E-03    -111.900E-03     114.279E-03
             852     8.04766E-03     103.680E-03    -46.8682E+06    -127.092E+06    -12.5872E+06    -3.86320E+06    -115.079E-03     227.133E-03    -112.054E-03     130.809E-03    -116.618E-03     228.090E-03    -111.864E-03     126.140E-03
             853     8.85210E-03     103.833E-03    -42.4713E+06    -104.619E+06    -8.68872E+06    -2.77313E+06    -115.516E-03     227.520E-03    -112.004E-03     143.613E-03    -117.595E-03     229.103E-03    -111.834E-03     138.129E-03
             854     9.65770E-03     103.998E-03    -38.5361E+06    -72.2787E+06    -5.54710E+06    -1.72988E+06    -115.763E-03     227.699E-03    -111.936E-03     156.330E-03    -118.560E-03     230.119E-03    -111.803E-03     149.927E-03
             855     10.4629E-03     104.178E-03    -35.4690E+06    -22.5129E+06     943.156E+03     1.20737E+06    -115.917E-03     227.770E-03    -111.853E-03     171.030E-03    -119.743E-03     231.388E-03    -111.765E-03     163.584E-03
             856     11.2671E-03     104.374E-03    -32.8405E+06     39.0466E+06     10.0129E+06     4.63168E+06    -116.460E-03     228.215E-03    -111.755E-03     194.528E-03    -121.967E-03     233.715E-03    -111.714E-03     185.738E-03
             857     12.0755E-03     104.606E-03    -29.2535E+06     84.2017E+06     35.3799E+06     4.88174E+06    -118.345E-03     230.105E-03    -111.761E-03     231.039E-03    -126.715E-03     238.568E-03    -111.663E-03     220.367E-03
             858     12.8786E-03     104.883E-03    -24.8356E+06     105.573E+06     72.9098E+06     2.65894E+06    -120.401E-03     232.277E-03    -111.877E-03     270.603E-03    -132.747E-03     244.699E-03    -111.629E-03     258.122E-03
             859     13.6836E-03     105.209E-03    -19.4918E+06     116.944E+06     95.7075E+06     1.08439E+06    -119.559E-03     231.483E-03    -111.924E-03     288.625E-03    -135.207E-03     247.200E-03    -111.587E-03     276.293E-03
             860     14.4912E-03     105.525E-03    -12.7350E+06     131.369E+06     104.387E+06    -329.528E+03    -116.192E-03     228.062E-03    -111.870E-03     281.636E-03    -133.911E-03     245.900E-03    -111.520E-03     271.819E-03
             861     15.2952E-03     105.844E-03    -5.97223E+06     135.302E+06     103.136E+06    -73.3786E+03    -112.044E-03     223.827E-03    -111.783E-03     192.387E-03    -123.721E-03     235.664E-03    -111.455E-03     186.921E-03
             862     804.572E-06     104.128E-03    -90.9118E+06    -240.460E+06    -89.4250E+06    -446.457E+03    -112.297E-03     224.334E-03    -112.037E-03     15.4204E-03    -112.286E-03     223.406E-03    -112.003E-03     15.0716E-03
             863     1.60913E-03     104.152E-03    -88.1095E+06    -234.706E+06    -81.4530E+06    -819.098E+03    -112.296E-03     224.454E-03    -112.157E-03     27.9837E-03    -112.318E-03     223.566E-03    -112.096E-03     27.3331E-03
             864     2.41371E-03     104.191E-03    -84.0937E+06    -225.399E+06    -70.6857E+06    -1.65711E+06    -112.474E-03     224.649E-03    -112.175E-03     41.3535E-03    -112.552E-03     223.834E-03    -112.080E-03     40.3595E-03
             865     3.21835E-03     104.244E-03    -79.0922E+06    -214.140E+06    -59.2187E+06    -2.80363E+06    -112.718E-03     224.906E-03    -112.188E-03     54.6404E-03    -112.876E-03     224.194E-03    -112.059E-03     53.2662E-03
             866     4.02305E-03     104.313E-03    -73.5467E+06    -205.915E+06    -47.9675E+06    -4.46734E+06    -113.035E-03     225.235E-03    -112.199E-03     67.7436E-03    -113.294E-03     224.640E-03    -112.034E-03     65.9446E-03
             867     4.82775E-03     104.396E-03    -67.6218E+06    -191.621E+06    -39.0070E+06    -5.67346E+06    -113.368E-03     225.553E-03    -112.185E-03     80.6618E-03    -113.765E-03     225.143E-03    -112.004E-03     78.4004E-03
             868     5.63265E-03     104.493E-03    -61.9008E+06    -173.168E+06    -31.4612E+06    -6.27432E+06    -113.705E-03     225.855E-03    -112.150E-03     93.3923E-03    -114.288E-03     225.695E-03    -111.966E-03     90.6274E-03
             869     6.43750E-03     104.604E-03    -56.7830E+06    -158.594E+06    -24.5882E+06    -6.99661E+06    -114.100E-03     226.213E-03    -112.113E-03     105.877E-03    -114.921E-03     226.340E-03    -111.923E-03     102.541E-03
             870     7.24271E-03     104.728E-03    -51.8822E+06    -144.528E+06    -19.0892E+06    -6.43108E+06    -114.577E-03     226.649E-03    -112.072E-03     118.344E-03    -115.707E-03     227.137E-03    -111.883E-03     114.374E-03
             871     8.04732E-03     104.866E-03    -47.5275E+06    -128.392E+06    -14.4438E+06    -5.29587E+06    -115.014E-03     227.042E-03    -112.027E-03     131.129E-03    -116.551E-03     227.995E-03    -111.844E-03     126.451E-03
             872     8.85293E-03     105.018E-03    -43.3936E+06    -105.206E+06    -10.4878E+06    -4.88322E+06    -115.390E-03     227.357E-03    -111.968E-03     144.039E-03    -117.470E-03     228.940E-03    -111.805E-03     138.540E-03
             873     9.65768E-03     105.184E-03    -39.5881E+06    -75.0089E+06    -7.22951E+06    -2.99306E+06    -115.675E-03     227.569E-03    -111.894E-03     156.691E-03    -118.469E-03     229.977E-03    -111.764E-03     150.287E-03
             874     10.4629E-03     105.363E-03    -36.3841E+06    -29.2460E+06    -2.17120E+06     594.266E+03    -115.743E-03     227.543E-03    -111.800E-03     171.191E-03    -119.557E-03     231.130E-03    -111.716E-03     163.758E-03
             875     11.2698E-03     105.560E-03    -32.3313E+06     35.1664E+06     6.79207E+06     3.83039E+06    -116.566E-03     228.259E-03    -111.693E-03     194.657E-03    -122.053E-03     233.737E-03    -111.664E-03     185.861E-03
             876     12.0729E-03     105.790E-03    -27.6716E+06     85.4159E+06     31.6845E+06     4.82090E+06    -118.678E-03     230.379E-03    -111.701E-03     231.852E-03    -127.065E-03     238.879E-03    -111.626E-03     221.146E-03
             877     12.8784E-03     106.073E-03    -22.1827E+06     107.653E+06     70.9394E+06     4.28399E+06    -120.239E-03     232.063E-03    -111.824E-03     271.259E-03    -132.572E-03     244.494E-03    -111.593E-03     258.839E-03
             878     13.6863E-03     106.389E-03    -16.2928E+06     120.295E+06     97.8403E+06     3.20691E+06    -119.683E-03     231.567E-03    -111.884E-03     289.038E-03    -135.306E-03     247.276E-03    -111.546E-03     276.736E-03
             879     14.4891E-03     106.717E-03    -10.9465E+06     133.529E+06     106.926E+06     2.05537E+06    -117.164E-03     229.020E-03    -111.855E-03     284.072E-03    -134.999E-03     246.980E-03    -111.499E-03     274.186E-03
             880     15.2943E-03     107.024E-03    -5.94525E+06     135.516E+06     103.861E+06     159.735E+03    -111.081E-03     222.833E-03    -111.752E-03     195.877E-03    -122.915E-03     234.826E-03    -111.421E-03     190.461E-03
             881     804.446E-06     105.313E-03    -90.1904E+06    -238.727E+06    -88.6306E+06    -817.494E+03    -112.257E-03     224.410E-03    -112.153E-03     15.4244E-03    -112.246E-03     223.489E-03    -112.119E-03     15.0693E-03
             882     1.60905E-03     105.337E-03    -87.5123E+06    -232.866E+06    -81.6786E+06    -1.53900E+06    -112.295E-03     224.477E-03    -112.182E-03     28.0091E-03    -112.316E-03     223.598E-03    -112.126E-03     27.3479E-03
             883     2.41366E-03     105.376E-03    -83.3195E+06    -222.681E+06    -71.8899E+06    -2.59172E+06    -112.431E-03     224.607E-03    -112.176E-03     41.4036E-03    -112.508E-03     223.806E-03    -112.092E-03     40.3979E-03
             884     3.21836E-03     105.430E-03      -78.28E+06    -211.286E+06    -61.0830E+06    -3.75564E+06    -112.658E-03     224.826E-03    -112.168E-03     54.7137E-03    -112.813E-03     224.130E-03    -112.054E-03     53.3293E-03
             885     4.02308E-03     105.498E-03    -73.1035E+06    -202.320E+06    -48.9867E+06    -4.84919E+06    -112.950E-03     225.119E-03    -112.169E-03     67.8202E-03    -113.209E-03     224.542E-03    -112.014E-03     66.0209E-03
             886     4.82796E-03     105.581E-03    -68.1149E+06    -187.909E+06    -38.9722E+06    -6.80568E+06    -113.284E-03     225.434E-03    -112.150E-03     80.7588E-03    -113.688E-03     225.042E-03    -111.973E-03     78.4891E-03
             887     5.63275E-03     105.678E-03    -62.7896E+06    -171.428E+06    -32.1777E+06    -8.04397E+06    -113.635E-03     225.743E-03    -112.108E-03     93.5074E-03    -114.223E-03     225.593E-03    -111.929E-03     90.7254E-03
             888     6.43788E-03     105.789E-03    -58.1036E+06    -157.346E+06    -25.9482E+06    -7.66380E+06    -114.038E-03     226.102E-03    -112.065E-03     106.130E-03    -114.864E-03     226.239E-03    -111.882E-03     102.793E-03
             889     7.24267E-03     105.913E-03    -54.1541E+06    -144.536E+06    -20.8195E+06    -7.82872E+06    -114.460E-03     226.478E-03    -112.018E-03     118.738E-03    -115.597E-03     226.970E-03    -111.834E-03     114.763E-03
             890     8.04818E-03     106.051E-03    -49.4681E+06    -128.540E+06    -16.0630E+06    -7.74476E+06    -114.859E-03     226.822E-03    -111.963E-03     131.509E-03    -116.401E-03     227.779E-03    -111.785E-03     126.814E-03
             891     8.85312E-03     106.203E-03    -44.7887E+06    -105.790E+06    -11.7183E+06    -6.75093E+06    -115.238E-03     227.132E-03    -111.894E-03     144.483E-03    -117.319E-03     228.713E-03    -111.734E-03     138.981E-03
             892     9.65869E-03     106.369E-03    -40.3624E+06    -79.1786E+06    -9.22786E+06    -5.30420E+06    -115.466E-03     227.274E-03    -111.808E-03     157.281E-03    -118.254E-03     229.664E-03    -111.681E-03     150.871E-03
             893     10.4642E-03     106.547E-03    -35.4228E+06    -36.0185E+06    -4.17399E+06    -1.52143E+06    -115.782E-03     227.491E-03    -111.709E-03     171.823E-03    -119.576E-03     231.044E-03    -111.627E-03     164.377E-03
             894     11.2687E-03     106.744E-03    -31.5645E+06     30.7014E+06     3.49317E+06     2.58927E+06    -116.724E-03     228.322E-03    -111.598E-03     195.856E-03    -122.212E-03     233.797E-03    -111.580E-03     187.041E-03
             895     12.0754E-03     106.977E-03    -28.0806E+06     84.5727E+06     27.8192E+06     3.34813E+06    -118.459E-03     230.050E-03    -111.592E-03     233.420E-03    -126.843E-03     238.554E-03    -111.534E-03     222.741E-03
             896     12.8818E-03     107.255E-03    -23.0213E+06     106.972E+06     68.3588E+06     3.59054E+06    -120.100E-03     231.804E-03    -111.704E-03     272.167E-03    -132.424E-03     244.228E-03    -111.484E-03     259.784E-03
             897     13.6845E-03     107.577E-03    -17.0356E+06     121.797E+06     96.7411E+06     4.39723E+06    -119.353E-03     231.102E-03    -111.749E-03     290.806E-03    -135.016E-03     246.856E-03    -111.417E-03     278.565E-03
             898     14.4937E-03     107.898E-03    -11.0546E+06     134.185E+06     106.726E+06     3.46802E+06    -115.873E-03     227.542E-03    -111.669E-03     286.983E-03    -133.788E-03     245.585E-03    -111.314E-03     277.309E-03
             899     15.3017E-03     108.214E-03    -4.86302E+06     137.057E+06     105.995E+06     675.805E+03    -111.190E-03     222.728E-03    -111.538E-03     195.804E-03    -123.037E-03     234.737E-03    -111.200E-03     190.486E-03
             900     804.595E-06     106.499E-03    -89.4450E+06    -236.070E+06    -87.9948E+06    -1.17833E+06    -112.153E-03     224.387E-03    -112.234E-03     15.4050E-03    -112.143E-03     223.477E-03    -112.202E-03     15.0467E-03
             901     1.60903E-03     106.523E-03    -86.4968E+06    -228.912E+06    -81.8039E+06    -2.95955E+06    -112.251E-03     224.408E-03    -112.158E-03     28.0576E-03    -112.272E-03     223.547E-03    -112.109E-03     27.3778E-03
             902     2.41373E-03     106.562E-03    -82.2949E+06    -219.691E+06    -72.9697E+06    -4.40816E+06    -112.368E-03     224.503E-03    -112.135E-03     41.4889E-03    -112.443E-03     223.717E-03    -112.062E-03     40.4609E-03
             903     3.21845E-03     106.615E-03    -77.8497E+06    -209.379E+06    -61.5762E+06    -4.43885E+06    -112.561E-03     224.680E-03    -112.119E-03     54.8437E-03    -112.715E-03     223.993E-03    -112.010E-03     53.4561E-03
             904     4.02331E-03     106.684E-03    -72.9262E+06    -198.261E+06    -49.4373E+06    -5.65328E+06    -112.837E-03     224.940E-03    -112.104E-03     67.9867E-03    -113.100E-03     224.384E-03    -111.958E-03     66.1842E-03
             905     4.82817E-03     106.766E-03    -66.9392E+06    -182.705E+06    -38.5218E+06    -8.05929E+06    -113.148E-03     225.221E-03    -112.074E-03     80.9819E-03    -113.553E-03     224.852E-03    -111.905E-03     78.7054E-03
             906     5.63327E-03     106.863E-03    -61.5200E+06    -170.229E+06    -30.7685E+06    -8.70101E+06    -113.507E-03     225.538E-03    -112.031E-03     93.7644E-03    -114.092E-03     225.390E-03    -111.849E-03     90.9835E-03
             907     6.43825E-03     106.974E-03    -56.8422E+06    -156.762E+06    -25.0778E+06    -8.09900E+06    -113.877E-03     225.852E-03    -111.975E-03     106.516E-03    -114.697E-03     225.987E-03    -111.791E-03     103.189E-03
             908     7.24373E-03     107.098E-03    -52.0752E+06    -141.914E+06    -19.1076E+06    -8.46854E+06    -114.271E-03     226.187E-03    -111.916E-03     119.210E-03    -115.402E-03     226.684E-03    -111.730E-03     115.247E-03
             909     8.04877E-03     107.236E-03    -47.8202E+06    -127.672E+06    -14.8864E+06    -9.10159E+06    -114.673E-03     226.521E-03    -111.848E-03     132.093E-03    -116.207E-03     227.475E-03    -111.668E-03     127.403E-03
             910     8.85434E-03     107.388E-03    -43.6435E+06    -106.713E+06    -12.3689E+06    -8.81922E+06    -114.997E-03     226.755E-03    -111.759E-03     145.297E-03    -117.066E-03     228.327E-03    -111.603E-03     139.800E-03
             911     9.65987E-03     107.553E-03    -39.6666E+06    -81.7370E+06    -10.1448E+06    -7.25486E+06    -115.289E-03     226.949E-03    -111.661E-03     158.046E-03    -118.063E-03     229.322E-03    -111.535E-03     151.643E-03
             912     10.4657E-03     107.732E-03    -36.3351E+06    -42.7383E+06    -6.57543E+06    -4.37576E+06    -115.677E-03     227.232E-03    -111.555E-03     172.999E-03    -119.462E-03     230.755E-03    -111.474E-03     165.546E-03
             913     11.2716E-03     107.930E-03    -32.1571E+06     23.8753E+06    -1.46988E+06    -322.012E+03    -116.559E-03     227.981E-03    -111.422E-03     197.303E-03    -122.043E-03     233.439E-03    -111.417E-03     188.478E-03
             914     12.0770E-03     108.160E-03    -27.9896E+06     83.0164E+06     23.3903E+06     3.36410E+06    -118.142E-03     229.534E-03    -111.392E-03     234.639E-03    -126.495E-03     238.015E-03    -111.355E-03     224.038E-03
             915     12.8815E-03     108.443E-03    -24.5744E+06     107.075E+06     65.5758E+06     4.41241E+06    -119.529E-03     231.008E-03    -111.480E-03     274.303E-03    -131.867E-03     243.449E-03    -111.271E-03     262.041E-03
             916     13.6913E-03     108.760E-03    -19.0102E+06     121.816E+06     94.7753E+06     3.52956E+06    -118.783E-03     230.275E-03    -111.492E-03     292.384E-03    -134.501E-03     246.083E-03    -111.167E-03     280.204E-03
             917     14.4968E-03     109.084E-03    -10.9730E+06     136.336E+06     107.474E+06     2.01500E+06    -115.723E-03     227.136E-03    -111.413E-03     286.336E-03    -133.697E-03     245.243E-03    -111.057E-03     276.618E-03
             918     15.3047E-03     109.393E-03    -3.78234E+06     139.380E+06     107.574E+06     1.49156E+06    -112.029E-03     223.353E-03    -111.324E-03     194.635E-03    -123.898E-03     235.391E-03    -110.983E-03     189.207E-03
             919     804.403E-06     107.685E-03    -86.7802E+06    -231.334E+06    -85.9728E+06    -2.38296E+06    -112.097E-03     224.218E-03    -112.122E-03     15.3346E-03    -112.083E-03     223.325E-03    -112.091E-03     14.9616E-03
             920     1.60926E-03     107.708E-03    -84.3235E+06    -222.807E+06    -79.9893E+06    -4.48922E+06    -112.139E-03     224.202E-03    -112.063E-03     28.1912E-03    -112.161E-03     223.366E-03    -112.018E-03     27.4951E-03
             921     2.41390E-03     107.747E-03    -80.8925E+06    -216.715E+06    -70.6789E+06    -5.56323E+06    -112.281E-03     224.325E-03    -112.045E-03     41.5666E-03    -112.356E-03     223.549E-03    -111.967E-03     40.5262E-03
             922     3.21881E-03     107.800E-03    -76.1507E+06    -207.884E+06    -60.3860E+06    -5.67530E+06    -112.421E-03     224.440E-03    -112.020E-03     54.9708E-03    -112.570E-03     223.757E-03    -111.910E-03     53.5731E-03
             923     4.02374E-03     107.869E-03    -70.3397E+06    -192.093E+06    -49.0243E+06    -7.55379E+06    -112.650E-03     224.628E-03    -111.978E-03     68.2649E-03    -112.909E-03     224.098E-03    -111.843E-03     66.4485E-03
             924     4.82883E-03     107.951E-03    -64.7891E+06    -178.832E+06    -37.9262E+06    -9.44913E+06    -112.949E-03     224.886E-03    -111.937E-03     81.3026E-03    -113.349E-03     224.532E-03    -111.774E-03     79.0205E-03
             925     5.63399E-03     108.048E-03    -59.6873E+06    -169.511E+06    -29.5559E+06    -9.15658E+06    -113.274E-03     225.161E-03    -111.887E-03     94.1836E-03    -113.851E-03     225.010E-03    -111.703E-03     91.4140E-03
             926     6.43937E-03     108.158E-03    -54.4054E+06    -154.337E+06    -23.8463E+06    -9.58476E+06    -113.617E-03     225.427E-03    -111.811E-03     107.037E-03    -114.428E-03     225.567E-03    -111.627E-03     103.711E-03
             927     7.24474E-03     108.282E-03    -49.3260E+06    -140.515E+06    -18.8471E+06    -9.79822E+06    -113.967E-03     225.696E-03    -111.728E-03     119.939E-03    -115.082E-03     226.191E-03    -111.547E-03     115.990E-03
             928     8.05045E-03     108.420E-03    -44.8609E+06    -125.777E+06    -14.3105E+06    -9.72791E+06    -114.314E-03     225.953E-03    -111.639E-03     132.997E-03    -115.832E-03     226.907E-03    -111.463E-03     128.338E-03
             929     8.85634E-03     108.571E-03    -41.1537E+06    -106.727E+06    -11.5560E+06    -9.83278E+06    -114.694E-03     226.228E-03    -111.534E-03     146.332E-03    -116.748E-03     227.790E-03    -111.377E-03     140.863E-03
             930     9.66228E-03     108.738E-03    -38.1835E+06    -84.5820E+06    -10.4003E+06    -7.85477E+06    -115.125E-03     226.549E-03    -111.424E-03     159.487E-03    -117.883E-03     228.902E-03    -111.298E-03     153.120E-03
             931     10.4677E-03     108.916E-03    -35.4202E+06    -46.2421E+06    -6.67976E+06    -5.62048E+06    -115.456E-03     226.769E-03    -111.314E-03     174.421E-03    -119.236E-03     230.279E-03    -111.229E-03     166.988E-03
             932     11.2741E-03     109.113E-03    -33.3127E+06     16.3511E+06    -3.77850E+06    -2.26831E+06    -116.117E-03     227.277E-03    -111.160E-03     198.933E-03    -121.585E-03     232.695E-03    -111.154E-03     190.159E-03
             933     12.0798E-03     109.347E-03    -30.5558E+06     78.2400E+06     14.8681E+06     2.16792E+06    -117.550E-03     228.613E-03    -111.063E-03     236.667E-03    -125.890E-03     237.080E-03    -111.058E-03     226.163E-03
             934     12.8893E-03     109.624E-03    -24.3580E+06     107.795E+06     58.2782E+06     3.84219E+06    -119.307E-03     230.429E-03    -111.121E-03     275.895E-03    -131.657E-03     242.906E-03    -110.951E-03     263.672E-03
             935     13.6938E-03     109.947E-03    -16.4029E+06     123.002E+06     94.5578E+06     3.09312E+06    -119.000E-03     230.178E-03    -111.178E-03     292.112E-03    -134.727E-03     246.009E-03    -110.860E-03     279.918E-03
             936     14.5016E-03     110.265E-03    -10.1400E+06     139.760E+06     110.409E+06     1.90627E+06    -116.489E-03     227.646E-03    -111.158E-03     286.711E-03    -134.480E-03     245.778E-03    -110.794E-03     276.893E-03
             937     15.3054E-03     110.581E-03    -5.64926E+06     140.885E+06     107.806E+06     2.30761E+06    -112.372E-03     223.470E-03    -111.097E-03     197.511E-03    -124.279E-03     235.544E-03    -110.755E-03     191.980E-03
             938     804.806E-06     108.870E-03    -84.1861E+06    -224.358E+06    -82.4175E+06    -2.87159E+06    -111.987E-03     223.812E-03    -111.826E-03     15.3104E-03    -111.975E-03     222.945E-03    -111.790E-03     14.9341E-03
             939     1.60948E-03     108.894E-03    -82.3336E+06    -217.147E+06    -75.6434E+06    -4.44811E+06    -111.974E-03     223.852E-03    -111.878E-03     28.3407E-03    -112.000E-03     223.035E-03    -111.822E-03     27.6501E-03
             940     2.41438E-03     108.932E-03    -79.0404E+06    -212.925E+06    -66.7679E+06    -5.52647E+06    -112.083E-03     223.950E-03    -111.866E-03     41.7639E-03    -112.160E-03     223.184E-03    -111.777E-03     40.7305E-03
             941     3.21923E-03     108.985E-03    -74.2928E+06    -203.042E+06    -58.6763E+06    -7.89515E+06    -112.222E-03     224.047E-03    -111.825E-03     55.2614E-03    -112.371E-03     223.382E-03    -111.716E-03     53.8431E-03
             942     4.02452E-03     109.053E-03    -69.0377E+06    -186.494E+06    -50.0159E+06    -9.80220E+06    -112.377E-03     224.136E-03    -111.759E-03     68.6699E-03    -112.635E-03     223.632E-03    -111.639E-03     66.8397E-03
             943     4.82981E-03     109.136E-03    -64.3869E+06    -176.159E+06    -39.6858E+06    -10.0386E+06    -112.621E-03     224.321E-03    -111.701E-03     81.7908E-03    -113.018E-03     223.980E-03    -111.550E-03     79.5232E-03
             944     5.63529E-03     109.232E-03    -59.5747E+06    -167.482E+06    -31.1473E+06    -10.5971E+06    -112.900E-03     224.530E-03    -111.630E-03     94.8177E-03    -113.474E-03     224.389E-03    -111.457E-03     92.0570E-03
             945     6.44098E-03     109.342E-03    -54.4981E+06    -151.060E+06    -25.5974E+06    -11.5883E+06    -113.183E-03     224.710E-03    -111.526E-03     107.906E-03    -113.993E-03     224.864E-03    -111.356E-03     104.592E-03
             946     7.24686E-03     109.466E-03    -49.8322E+06    -139.424E+06    -20.8704E+06    -12.0630E+06    -113.479E-03     224.897E-03    -111.418E-03     120.972E-03    -114.589E-03     225.396E-03    -111.248E-03     117.041E-03
             947     8.05312E-03     109.604E-03    -45.1672E+06    -124.315E+06    -16.1731E+06    -11.7276E+06    -113.865E-03     225.168E-03    -111.302E-03     134.253E-03    -115.377E-03     226.125E-03    -111.137E-03     129.624E-03
             948     8.85919E-03     109.756E-03    -41.1939E+06    -106.965E+06    -11.8999E+06    -10.7068E+06    -114.279E-03     225.465E-03    -111.187E-03     147.724E-03    -116.325E-03     227.020E-03    -111.031E-03     142.302E-03
             949     9.66552E-03     109.921E-03    -37.5247E+06    -87.4589E+06    -11.5965E+06    -9.30610E+06    -114.642E-03     225.696E-03    -111.054E-03     161.348E-03    -117.381E-03     228.026E-03    -110.931E-03     155.040E-03
             950     10.4723E-03     110.101E-03    -33.9540E+06    -49.9189E+06    -8.25296E+06    -6.67459E+06    -115.121E-03     226.042E-03    -110.921E-03     176.841E-03    -118.888E-03     229.535E-03    -110.840E-03     169.468E-03
             951     11.2778E-03     110.297E-03    -30.6321E+06     10.3596E+06    -4.56164E+06    -1.96320E+06    -115.708E-03     226.463E-03    -110.755E-03     200.878E-03    -121.140E-03     231.836E-03    -110.748E-03     192.208E-03
             952     12.0869E-03     110.528E-03    -26.9873E+06     74.2490E+06     14.6590E+06     1.96543E+06    -117.505E-03     228.158E-03    -110.652E-03     238.178E-03    -125.813E-03     236.591E-03    -110.647E-03     227.735E-03
             953     12.8913E-03     110.809E-03    -23.2634E+06     106.783E+06     56.8507E+06     2.63921E+06    -119.764E-03     230.492E-03    -110.728E-03     277.122E-03    -132.117E-03     242.976E-03    -110.565E-03     264.880E-03
             954     13.6992E-03     111.130E-03    -18.7787E+06     123.245E+06     92.5065E+06     2.48972E+06    -119.359E-03     230.176E-03    -110.817E-03     293.754E-03    -135.110E-03     246.030E-03    -110.506E-03     281.564E-03
             955     14.5044E-03     111.450E-03    -13.5457E+06     139.923E+06     110.417E+06     3.23553E+06    -116.592E-03     227.416E-03    -110.824E-03     289.044E-03    -134.583E-03     245.535E-03    -110.455E-03     279.279E-03
             956     15.3137E-03     111.765E-03    -7.19134E+06     142.003E+06     109.125E+06     1.95959E+06    -111.576E-03     222.325E-03    -110.749E-03     198.875E-03    -123.456E-03     234.367E-03    -110.399E-03     193.400E-03
             957     805.004E-06     110.055E-03    -84.5272E+06    -217.846E+06    -82.1526E+06    -2.37079E+06    -111.652E-03     223.139E-03    -111.487E-03     15.4149E-03    -111.652E-03     222.304E-03    -111.459E-03     15.0503E-03
             958     1.60997E-03     110.078E-03    -81.8825E+06    -212.426E+06    -74.7956E+06    -3.54266E+06    -111.643E-03     223.190E-03    -111.547E-03     28.4839E-03    -111.675E-03     222.395E-03    -111.495E-03     27.8119E-03
             959     2.41511E-03     110.117E-03    -78.2411E+06    -207.499E+06    -66.0364E+06    -5.56750E+06    -111.720E-03     223.248E-03    -111.528E-03     42.1398E-03    -111.801E-03     222.506E-03    -111.443E-03     41.1196E-03
             960     3.22047E-03     110.170E-03    -74.2779E+06    -195.056E+06    -57.6145E+06     -8.6229E+06    -111.870E-03     223.348E-03    -111.478E-03     55.7485E-03    -112.031E-03     222.720E-03    -111.375E-03     54.3377E-03
             961     4.02573E-03     110.237E-03    -70.5284E+06    -181.889E+06    -50.8981E+06    -10.8708E+06    -111.979E-03     223.380E-03    -111.401E-03     69.2655E-03    -112.248E-03     222.901E-03    -111.290E-03     67.4441E-03
             962     4.83151E-03     110.319E-03    -66.2022E+06    -173.910E+06    -43.1663E+06    -11.2341E+06    -112.111E-03     223.424E-03    -111.313E-03     82.6236E-03    -112.512E-03     223.098E-03    -111.181E-03     80.3759E-03
             963     5.63745E-03     110.416E-03    -61.1071E+06    -162.922E+06    -33.8800E+06    -12.4583E+06    -112.338E-03     223.550E-03    -111.212E-03     95.8780E-03    -112.918E-03     223.433E-03    -111.057E-03     93.1376E-03
             964     6.44360E-03     110.525E-03    -55.8153E+06    -147.798E+06    -27.0022E+06    -13.9371E+06    -112.568E-03     223.654E-03    -111.085E-03     109.117E-03    -113.381E-03     223.822E-03    -110.925E-03     105.829E-03
             965     7.25023E-03     110.649E-03    -50.8635E+06    -137.291E+06    -21.9188E+06    -14.0763E+06    -112.859E-03     223.809E-03    -110.950E-03     122.372E-03    -113.967E-03     224.313E-03    -110.787E-03     118.480E-03
             966     8.05669E-03     110.786E-03    -46.9126E+06    -123.874E+06    -18.6949E+06    -13.8968E+06    -113.198E-03     223.999E-03    -110.800E-03     136.087E-03    -114.705E-03     224.953E-03    -110.646E-03     131.512E-03
             967     8.86369E-03     110.938E-03    -42.6247E+06    -107.573E+06    -14.5625E+06    -13.2588E+06    -113.621E-03     224.274E-03    -110.653E-03     150.084E-03    -115.656E-03     225.819E-03    -110.508E-03     144.728E-03
             968     9.67071E-03     111.103E-03    -38.2800E+06     -88.561E+06    -13.0884E+06    -12.0385E+06    -114.075E-03     224.575E-03    -110.500E-03     163.951E-03    -116.806E-03     226.894E-03    -110.381E-03     157.705E-03
             969     10.4776E-03     111.283E-03    -33.9135E+06    -54.2558E+06    -10.5493E+06    -9.51313E+06    -114.557E-03     224.900E-03    -110.343E-03     179.633E-03    -118.288E-03     228.349E-03    -110.268E-03     172.360E-03
             970     11.2859E-03     111.481E-03    -29.3882E+06     2.45349E+06    -6.09570E+06    -4.57019E+06    -115.774E-03     225.959E-03    -110.185E-03     203.131E-03    -121.178E-03     231.285E-03    -110.177E-03     194.506E-03
             971     12.0906E-03     111.711E-03    -26.8509E+06     67.9380E+06     10.2414E+06     1.97145E+06    -118.033E-03     228.134E-03    -110.101E-03     241.202E-03    -126.364E-03     236.581E-03    -110.110E-03     230.768E-03
             972     12.8994E-03     111.995E-03    -25.4537E+06     107.246E+06     51.0390E+06     4.94067E+06    -119.853E-03     230.038E-03    -110.185E-03     280.851E-03    -132.205E-03     242.532E-03    -110.048E-03     268.743E-03
             973     13.7050E-03     112.313E-03    -22.3219E+06     124.447E+06     89.5636E+06     3.58461E+06    -119.449E-03     229.735E-03    -110.286E-03     297.822E-03    -135.192E-03     245.581E-03    -109.986E-03     285.760E-03
             974     14.5132E-03     112.637E-03    -15.0543E+06     139.119E+06     109.063E+06     1.93095E+06    -116.640E-03     226.937E-03    -110.296E-03     293.123E-03    -134.722E-03     245.142E-03    -109.931E-03     283.407E-03
             975     15.3176E-03     112.947E-03    -6.11364E+06     142.881E+06     111.102E+06     166.851E+03    -111.850E-03     222.098E-03    -110.248E-03     200.771E-03    -123.836E-03     234.247E-03    -109.891E-03     195.281E-03
             976     805.314E-06     111.238E-03    -85.2072E+06    -212.349E+06    -84.2914E+06    -2.33199E+06    -111.106E-03     222.114E-03    -111.008E-03     15.6679E-03    -111.115E-03     221.311E-03    -110.998E-03     15.3080E-03
             977     1.61083E-03     111.262E-03    -82.8893E+06    -207.235E+06    -78.2721E+06    -4.07228E+06    -111.097E-03     222.112E-03    -111.015E-03     28.7717E-03    -111.137E-03     221.348E-03    -110.986E-03     28.1064E-03
             978     2.41639E-03     111.300E-03    -78.8511E+06    -200.467E+06    -68.1477E+06    -6.58765E+06    -111.184E-03     222.171E-03    -110.987E-03     42.5925E-03    -111.274E-03     221.467E-03    -110.923E-03     41.5796E-03
             979     3.22199E-03     111.353E-03    -73.9613E+06    -187.620E+06    -57.2602E+06    -9.18462E+06    -111.246E-03     222.179E-03    -110.932E-03     56.3861E-03    -111.416E-03     221.585E-03    -110.839E-03     54.9972E-03
             980     4.02803E-03     111.420E-03    -69.0002E+06    -177.210E+06    -47.7653E+06    -10.7491E+06    -111.322E-03     222.169E-03    -110.847E-03     70.0930E-03    -111.592E-03     221.703E-03    -110.729E-03     68.3096E-03
             981     4.83421E-03     111.502E-03    -64.4580E+06    -169.980E+06    -40.8929E+06    -12.1206E+06    -111.417E-03     222.146E-03    -110.729E-03     83.7418E-03    -111.815E-03     221.830E-03    -110.593E-03     81.5292E-03
             982     5.64085E-03     111.598E-03    -59.7597E+06    -156.809E+06    -34.0683E+06    -14.2609E+06    -111.543E-03     222.124E-03    -110.581E-03     97.3242E-03    -112.117E-03     222.028E-03    -110.438E-03     94.6258E-03
             983     6.44778E-03     111.707E-03    -55.1327E+06    -144.401E+06    -26.8391E+06    -15.4904E+06    -111.734E-03     222.158E-03    -110.424E-03     110.844E-03    -112.539E-03     222.333E-03    -110.269E-03     107.613E-03
             984     7.25480E-03     111.830E-03    -51.0508E+06    -135.369E+06    -22.0753E+06    -15.6970E+06    -111.964E-03     222.216E-03    -110.252E-03     124.617E-03    -113.063E-03     222.718E-03    -110.092E-03     120.801E-03
             985     8.06253E-03     111.968E-03    -46.6164E+06    -121.807E+06    -19.0752E+06    -15.9961E+06    -112.283E-03     222.344E-03    -110.061E-03     138.727E-03    -113.775E-03     223.293E-03    -109.912E-03     134.238E-03
             986     8.87052E-03     112.118E-03    -42.3166E+06    -107.056E+06    -14.9884E+06    -15.7564E+06    -112.797E-03     222.677E-03    -109.881E-03     153.146E-03    -114.813E-03     224.207E-03    -109.739E-03     147.884E-03
             987     9.67834E-03     112.285E-03    -38.2592E+06    -89.2309E+06    -12.9066E+06    -14.8839E+06    -113.422E-03     223.131E-03    -109.710E-03     167.278E-03    -116.134E-03     225.428E-03    -109.589E-03     161.129E-03
             988     10.4863E-03     112.464E-03    -34.5671E+06    -57.4395E+06    -10.2821E+06    -12.8173E+06    -114.192E-03     223.743E-03    -109.552E-03     183.306E-03    -117.898E-03     227.152E-03    -109.470E-03     176.131E-03
             989     11.2929E-03     112.663E-03    -32.2185E+06    -8.12324E+06    -7.96178E+06    -7.24314E+06    -115.732E-03     225.137E-03    -109.405E-03     207.933E-03    -121.128E-03     230.413E-03    -109.386E-03     199.400E-03
             990     12.1014E-03     112.895E-03    -29.8682E+06     57.0804E+06     2.39617E+06     1.22775E+06    -118.042E-03     227.343E-03    -109.301E-03     246.170E-03    -126.365E-03     235.756E-03    -109.329E-03     235.855E-03
             991     12.9075E-03     113.177E-03    -25.2100E+06     107.272E+06     40.2738E+06     6.07314E+06    -119.959E-03     229.312E-03    -109.353E-03     286.055E-03    -132.298E-03     241.826E-03    -109.271E-03     274.091E-03
             992     13.7167E-03     113.499E-03    -17.7774E+06     129.080E+06     85.7348E+06     4.82826E+06    -120.102E-03     229.598E-03    -109.495E-03     302.566E-03    -135.885E-03     245.527E-03    -109.228E-03     290.545E-03
             993     14.5231E-03     113.820E-03    -10.0967E+06     142.386E+06     111.117E+06     1.52675E+06    -117.232E-03     226.817E-03    -109.585E-03     294.775E-03    -135.401E-03     245.133E-03    -109.221E-03     285.045E-03
             994     15.3337E-03     114.134E-03    -4.95631E+06     142.884E+06     112.141E+06     464.287E+03    -112.975E-03     222.595E-03    -109.619E-03     201.662E-03    -125.014E-03     234.798E-03    -109.258E-03     196.122E-03
             995     805.967E-06     112.421E-03    -83.8889E+06    -205.962E+06    -82.9249E+06    -2.69765E+06    -110.364E-03     220.594E-03    -110.230E-03     15.8780E-03    -110.376E-03     219.819E-03    -110.225E-03     15.5228E-03
             996     1.61199E-03     112.444E-03    -81.5615E+06    -200.162E+06    -77.2212E+06    -5.33663E+06    -110.349E-03     220.601E-03    -110.252E-03     29.2089E-03    -110.393E-03     219.869E-03    -110.230E-03     28.5457E-03
             997     2.41807E-03     112.482E-03    -77.8621E+06    -192.495E+06    -67.8931E+06    -8.36651E+06    -110.340E-03     220.547E-03    -110.207E-03     43.2545E-03    -110.436E-03     219.880E-03    -110.154E-03     42.2471E-03
             998     3.22455E-03     112.535E-03    -72.9283E+06    -181.084E+06    -56.5669E+06    -10.5224E+06    -110.301E-03     220.422E-03    -110.121E-03     57.3154E-03    -110.472E-03     219.856E-03    -110.036E-03     55.9510E-03
             999     4.03129E-03     112.602E-03     -67.508E+06    -172.720E+06    -45.6504E+06    -11.5975E+06    -110.323E-03     220.327E-03    -110.004E-03     71.3204E-03    -110.590E-03     219.874E-03    -109.884E-03     69.5811E-03
            1000     4.83838E-03     112.683E-03    -61.7800E+06    -163.728E+06    -37.6047E+06    -13.4954E+06    -110.381E-03     220.229E-03    -109.848E-03     85.3125E-03    -110.772E-03     219.928E-03    -109.709E-03     83.1509E-03
            1001     5.64580E-03     112.778E-03    -56.8020E+06     -150.94E+06    -31.9696E+06    -15.4307E+06    -110.412E-03     220.064E-03    -109.652E-03     99.3669E-03    -110.973E-03     219.980E-03    -109.511E-03     96.7443E-03
            1002     6.45374E-03     112.887E-03    -52.7716E+06    -141.698E+06    -26.0773E+06    -16.1464E+06    -110.505E-03     219.949E-03    -109.444E-03     113.429E-03    -111.289E-03     220.118E-03    -109.293E-03     110.303E-03
            1003     7.26230E-03     113.010E-03    -48.4110E+06    -131.638E+06    -20.1312E+06    -16.9043E+06    -110.736E-03     219.961E-03    -109.226E-03     127.662E-03    -111.812E-03     220.457E-03    -109.065E-03     123.963E-03
            1004     8.07104E-03     113.146E-03    -44.4169E+06    -118.919E+06    -16.9120E+06    -17.5517E+06    -111.182E-03     220.179E-03    -108.997E-03     142.351E-03    -112.650E-03     221.116E-03    -108.844E-03     137.991E-03
            1005     8.87964E-03     113.298E-03    -40.9493E+06    -105.812E+06    -13.4820E+06    -17.1844E+06    -111.828E-03     220.617E-03    -108.789E-03     157.376E-03    -113.819E-03     222.126E-03    -108.644E-03     152.259E-03
            1006     9.68876E-03     113.464E-03    -37.9464E+06    -88.1199E+06    -11.7919E+06    -16.6970E+06    -112.579E-03     221.177E-03    -108.598E-03     172.151E-03    -115.263E-03     223.448E-03    -108.474E-03     166.165E-03
            1007     10.4972E-03     113.644E-03    -35.5537E+06    -61.3080E+06    -10.3823E+06    -14.5320E+06    -113.515E-03     221.944E-03    -108.429E-03     189.022E-03    -117.198E-03     225.313E-03    -108.340E-03     182.017E-03
            1008     11.3065E-03     113.844E-03    -32.2694E+06    -19.0366E+06    -9.14080E+06    -8.83614E+06    -115.197E-03     223.468E-03    -108.271E-03     215.034E-03    -120.555E-03     228.670E-03    -108.242E-03     206.700E-03
            1009     12.1138E-03     114.078E-03    -27.2400E+06     46.0881E+06    -1.61356E+06    -1.16644E+06    -118.095E-03     226.242E-03    -108.146E-03     253.371E-03    -126.393E-03     234.610E-03    -108.182E-03     243.208E-03
            1010     12.9233E-03     114.360E-03    -20.8752E+06     105.251E+06     34.1782E+06     3.88844E+06    -121.036E-03     229.253E-03    -108.217E-03     292.310E-03    -133.459E-03     241.877E-03    -108.169E-03     280.321E-03
            1011     13.7301E-03     114.683E-03    -14.3168E+06     133.030E+06     82.3370E+06     3.72681E+06    -121.539E-03     229.992E-03    -108.453E-03     308.149E-03    -137.503E-03     246.138E-03    -108.213E-03     296.021E-03
            1012     14.5356E-03     115.008E-03    -8.93066E+06     143.676E+06     110.749E+06     3.16198E+06    -119.260E-03     227.939E-03    -108.680E-03     298.874E-03    -137.628E-03     246.465E-03    -108.321E-03     289.003E-03
            1013     15.3376E-03     115.314E-03    -4.27068E+06     143.164E+06     113.277E+06     3.16808E+06    -115.104E-03     223.965E-03    -108.861E-03     204.375E-03    -127.285E-03     236.311E-03    -108.496E-03     198.666E-03
            1014     806.855E-06     113.601E-03    -80.2974E+06    -197.966E+06    -79.2603E+06    -3.19533E+06    -109.242E-03     218.379E-03    -109.138E-03     16.3933E-03    -109.253E-03     217.633E-03    -109.131E-03     16.0463E-03
            1015     1.61362E-03     113.624E-03    -78.0417E+06    -191.561E+06    -73.1377E+06    -6.23698E+06    -109.227E-03     218.367E-03    -109.140E-03     29.8957E-03    -109.270E-03     217.665E-03    -109.115E-03     29.2459E-03
            1016     2.42078E-03     113.662E-03    -74.7723E+06    -184.024E+06    -64.5347E+06    -9.00291E+06    -109.092E-03     218.158E-03    -109.066E-03     44.2055E-03    -109.187E-03     217.521E-03    -109.013E-03     43.2300E-03
            1017     3.22824E-03     113.714E-03    -70.8445E+06    -174.707E+06    -55.4683E+06    -11.3320E+06    -108.977E-03     217.906E-03    -108.929E-03     58.6255E-03    -109.145E-03     217.363E-03    -108.851E-03     57.3083E-03
            1018     4.03608E-03     113.781E-03    -66.0345E+06    -166.787E+06    -46.2816E+06    -13.5140E+06    -108.899E-03     217.655E-03    -108.756E-03     73.0996E-03    -109.160E-03     217.223E-03    -108.650E-03     71.4136E-03
            1019     4.84441E-03     113.861E-03    -60.6963E+06    -156.836E+06    -37.0400E+06    -15.6617E+06    -108.824E-03     217.373E-03    -108.548E-03     87.5935E-03    -109.210E-03     217.094E-03    -108.418E-03     85.5047E-03
            1020     5.65330E-03     113.956E-03    -55.4448E+06    -146.462E+06    -29.7404E+06    -16.7592E+06    -108.786E-03     217.089E-03    -108.303E-03     102.172E-03    -109.335E-03     217.008E-03    -108.159E-03     99.6549E-03
            1021     6.46280E-03     114.064E-03    -50.7665E+06    -138.106E+06    -24.3118E+06    -17.1937E+06    -108.861E-03     216.896E-03    -108.034E-03     116.842E-03    -109.623E-03     217.057E-03    -107.882E-03     113.853E-03
            1022     7.27261E-03     114.186E-03    -46.6717E+06    -127.128E+06    -18.8808E+06    -18.0574E+06    -109.135E-03     216.895E-03    -107.760E-03     131.765E-03    -110.186E-03     217.383E-03    -107.602E-03     128.226E-03
            1023     8.08273E-03     114.323E-03    -42.9974E+06    -116.492E+06    -15.2073E+06    -18.3521E+06    -109.635E-03     217.126E-03    -107.491E-03     147.323E-03    -111.071E-03     218.039E-03    -107.336E-03     143.153E-03
            1024     8.89347E-03     114.474E-03    -39.8101E+06    -103.909E+06    -12.4523E+06    -18.0947E+06    -110.368E-03     217.607E-03    -107.239E-03     163.415E-03    -112.321E-03     219.086E-03    -107.093E-03     158.518E-03
            1025     9.70355E-03     114.641E-03    -37.1232E+06    -87.3355E+06    -10.8014E+06    -16.9589E+06    -111.290E-03     218.303E-03    -107.013E-03     179.354E-03    -113.934E-03     220.537E-03    -106.887E-03     173.623E-03
            1026     10.5142E-03     114.822E-03    -34.8743E+06    -63.5884E+06    -9.88844E+06    -14.7675E+06    -112.541E-03     219.363E-03    -106.822E-03     197.095E-03    -116.192E-03     222.693E-03    -106.729E-03     190.343E-03
            1027     11.3238E-03     115.022E-03    -32.4321E+06    -27.0197E+06    -8.86215E+06    -11.0304E+06    -114.873E-03     221.548E-03    -106.675E-03     223.453E-03    -120.212E-03     226.702E-03    -106.633E-03     215.316E-03
            1028     12.1347E-03     115.259E-03    -29.3814E+06     37.6914E+06    -8.73377E+06    -6.04524E+06    -118.906E-03     225.474E-03    -106.568E-03     261.819E-03    -127.240E-03     233.863E-03    -106.624E-03     251.712E-03
            1029     12.9412E-03     115.545E-03    -25.2722E+06     100.871E+06     21.8990E+06    -2.48475E+06    -122.855E-03     229.574E-03    -106.719E-03     299.922E-03    -135.451E-03     242.375E-03    -106.719E-03     287.791E-03
            1030     13.7473E-03     115.870E-03    -19.3250E+06     130.007E+06     74.9034E+06     684.700E+03    -123.429E-03     230.542E-03    -107.113E-03     314.447E-03    -139.604E-03     246.893E-03    -106.899E-03     302.189E-03
            1031     14.5544E-03     116.195E-03    -13.0162E+06     141.781E+06     106.241E+06     2.77775E+06    -121.885E-03     229.384E-03    -107.499E-03     305.403E-03    -140.492E-03     248.140E-03    -107.155E-03     295.253E-03
            1032     15.3597E-03     116.510E-03    -6.17036E+06     144.039E+06     113.304E+06     3.32291E+06    -119.830E-03     227.743E-03    -107.914E-03     207.362E-03    -132.190E-03     240.265E-03    -107.547E-03     201.187E-03
            1033     808.099E-06     114.779E-03    -77.2780E+06    -188.502E+06    -76.3398E+06    -3.94966E+06    -107.643E-03     215.199E-03    -107.556E-03     17.0217E-03    -107.656E-03     214.491E-03    -107.553E-03     16.6857E-03
            1034     1.61628E-03     114.802E-03    -75.1596E+06    -182.570E+06    -70.5541E+06    -6.77162E+06    -107.514E-03     215.033E-03    -107.519E-03     30.7180E-03    -107.559E-03     214.368E-03    -107.498E-03     30.0973E-03
            1035     2.42468E-03     114.839E-03    -71.7603E+06    -175.484E+06    -62.5172E+06    -9.60413E+06    -107.337E-03     214.733E-03    -107.396E-03     45.4876E-03    -107.430E-03     214.129E-03    -107.350E-03     44.5597E-03
            1036     3.23358E-03     114.890E-03    -67.3492E+06    -167.215E+06    -53.9262E+06    -12.3349E+06    -107.130E-03     214.343E-03    -107.213E-03     60.4477E-03    -107.288E-03     213.824E-03    -107.142E-03     59.1947E-03
            1037     4.04304E-03     114.956E-03    -62.7009E+06    -159.203E+06    -44.6170E+06    -14.8681E+06    -106.901E-03     213.883E-03    -106.983E-03     75.4704E-03    -107.149E-03     213.473E-03    -106.884E-03     73.8702E-03
            1038     4.85312E-03     115.036E-03    -58.2328E+06    -150.255E+06    -35.6976E+06    -16.9493E+06    -106.705E-03     213.413E-03    -106.708E-03     90.5799E-03    -107.076E-03     213.147E-03    -106.584E-03     88.6063E-03
            1039     5.66389E-03     115.129E-03    -53.9764E+06    -142.292E+06    -28.2346E+06    -17.9035E+06    -106.617E-03     213.018E-03    -106.400E-03     105.786E-03    -107.147E-03     212.933E-03    -106.257E-03     103.415E-03
            1040     6.47516E-03     115.237E-03    -49.6488E+06    -133.692E+06    -22.8060E+06    -18.5780E+06    -106.659E-03     212.727E-03    -106.067E-03     121.279E-03    -107.397E-03     212.878E-03    -105.915E-03     118.465E-03
            1041     7.28709E-03     115.359E-03    -45.4861E+06    -123.298E+06    -18.1775E+06    -19.1301E+06    -106.901E-03     212.626E-03    -105.725E-03     137.295E-03    -107.916E-03     213.094E-03    -105.571E-03     133.974E-03
            1042     8.09954E-03     115.495E-03    -41.7877E+06    -114.408E+06    -14.5298E+06    -19.0436E+06    -107.465E-03     212.861E-03    -105.396E-03     153.951E-03    -108.855E-03     213.737E-03    -105.242E-03     150.040E-03
            1043     8.91189E-03     115.647E-03    -38.8148E+06    -101.538E+06    -12.0492E+06    -18.5836E+06    -108.309E-03     213.395E-03    -105.087E-03     171.059E-03    -110.209E-03     214.832E-03    -104.944E-03     166.457E-03
            1044     9.72516E-03     115.814E-03    -36.3509E+06    -88.4454E+06    -10.6207E+06    -17.1581E+06    -109.584E-03     214.409E-03    -104.825E-03     187.927E-03    -112.171E-03     216.583E-03    -104.697E-03     182.508E-03
            1045     10.5374E-03     115.997E-03    -33.8175E+06    -64.1915E+06    -9.53152E+06    -14.7323E+06    -111.848E-03     216.487E-03    -104.639E-03     206.433E-03    -115.461E-03     219.780E-03    -104.545E-03     199.956E-03
            1046     11.3490E-03     116.200E-03    -31.4929E+06    -29.9517E+06    -6.89078E+06    -12.2075E+06    -115.483E-03     220.063E-03    -104.580E-03     232.893E-03    -120.831E-03     225.213E-03    -104.525E-03     224.913E-03
            1047     12.1570E-03     116.439E-03    -28.4261E+06     32.5053E+06    -8.46706E+06    -8.74691E+06    -120.376E-03     224.969E-03    -104.592E-03     271.840E-03    -128.764E-03     233.395E-03    -104.641E-03     261.787E-03
            1048     12.9652E-03     116.732E-03    -24.5092E+06     96.8380E+06     21.8636E+06    -4.93524E+06    -125.111E-03     229.998E-03    -104.887E-03     309.914E-03    -137.846E-03     242.926E-03    -104.883E-03     297.733E-03
            1049     13.7713E-03     117.058E-03    -19.8417E+06     123.862E+06     73.2524E+06    -628.625E+03    -127.335E-03     232.824E-03    -105.490E-03     320.941E-03    -143.743E-03     249.391E-03    -105.274E-03     308.325E-03
            1050     14.5735E-03     117.384E-03    -13.0409E+06     141.562E+06     104.039E+06     2.49446E+06    -126.535E-03     232.687E-03    -106.152E-03     308.054E-03    -145.352E-03     251.659E-03    -105.818E-03     297.302E-03
            1051     15.3724E-03     117.702E-03    -5.65996E+06     145.861E+06     114.496E+06     3.11103E+06    -125.585E-03     232.493E-03    -106.908E-03     209.124E-03    -138.075E-03     245.150E-03    -106.539E-03     202.321E-03
            1052     809.686E-06     115.951E-03    -74.1256E+06    -177.711E+06    -73.1244E+06    -4.34098E+06    -105.438E-03     210.772E-03    -105.334E-03     17.4500E-03    -105.456E-03     210.108E-03    -105.334E-03     17.1331E-03
            1053     1.61978E-03     115.974E-03    -71.9157E+06    -172.852E+06    -68.0417E+06    -7.70672E+06    -105.104E-03     210.363E-03    -105.259E-03     31.7545E-03    -105.148E-03     209.735E-03    -105.244E-03     31.1690E-03
            1054     2.43027E-03     116.011E-03    -68.2418E+06    -165.850E+06    -60.6809E+06    -11.2864E+06    -104.880E-03     209.941E-03    -105.061E-03     47.1394E-03    -104.967E-03     209.372E-03    -105.025E-03     46.2614E-03
            1055     3.24119E-03     116.061E-03    -64.1427E+06    -159.095E+06    -51.8719E+06    -13.8572E+06    -104.581E-03     209.405E-03    -104.824E-03     62.7130E-03    -104.730E-03     208.912E-03    -104.760E-03     61.5385E-03
            1056     4.05276E-03     116.126E-03    -59.8239E+06    -151.422E+06    -42.6023E+06    -15.9196E+06    -104.224E-03     208.756E-03    -104.532E-03     78.3838E-03    -104.459E-03     208.364E-03    -104.439E-03     76.8991E-03
            1057     4.86520E-03     116.205E-03    -55.5521E+06    -144.381E+06    -34.3002E+06    -17.5613E+06    -103.918E-03     208.105E-03    -104.188E-03     94.2751E-03    -104.266E-03     207.843E-03    -104.069E-03     92.4585E-03
            1058     5.67827E-03     116.298E-03    -51.4081E+06    -137.547E+06    -27.1967E+06    -18.4266E+06    -103.718E-03     207.522E-03    -103.804E-03     110.438E-03    -104.216E-03     207.427E-03    -103.666E-03     108.264E-03
            1059     6.49221E-03     116.405E-03    -47.2773E+06    -128.115E+06    -21.4129E+06    -19.6983E+06    -103.688E-03     207.080E-03    -103.392E-03     127.026E-03    -104.386E-03     207.217E-03    -103.245E-03     124.441E-03
            1060     7.30690E-03     116.526E-03    -43.3463E+06    -120.573E+06    -17.3203E+06    -20.0932E+06    -103.960E-03     206.934E-03    -102.975E-03     144.150E-03    -104.921E-03     207.363E-03    -102.824E-03     141.101E-03
            1061     8.12208E-03     116.662E-03    -39.9914E+06    -112.065E+06    -14.1084E+06    -19.6178E+06    -104.675E-03     207.252E-03    -102.577E-03     161.983E-03    -106.000E-03     208.078E-03    -102.427E-03     158.388E-03
            1062     8.93778E-03     116.814E-03    -36.8079E+06    -99.9712E+06    -11.2605E+06    -18.8976E+06    -106.018E-03     208.249E-03    -102.231E-03     180.056E-03    -107.848E-03     209.625E-03    -102.089E-03     175.789E-03
            1063     9.75267E-03     116.983E-03    -33.5731E+06    -87.8861E+06    -8.64858E+06    -17.6468E+06    -108.280E-03     210.271E-03    -101.990E-03     197.665E-03    -110.805E-03     212.389E-03    -101.857E-03     192.552E-03
            1064     10.5670E-03     117.168E-03    -30.0857E+06    -65.8316E+06    -7.74876E+06    -15.6175E+06    -111.682E-03     213.567E-03    -101.885E-03     216.924E-03    -115.239E-03     216.806E-03    -101.784E-03     210.705E-03
            1065     11.3778E-03     117.376E-03    -26.2685E+06    -31.5111E+06    -1.86137E+06    -12.7070E+06    -116.455E-03     218.427E-03    -101.972E-03     244.430E-03    -121.791E-03     223.563E-03    -101.897E-03     236.633E-03
            1066     12.1878E-03     117.620E-03    -23.3585E+06     31.0830E+06     320.072E+03    -9.45072E+06    -122.479E-03     224.655E-03    -102.176E-03     283.517E-03    -130.949E-03     233.152E-03    -102.186E-03     273.503E-03
            1067     12.9954E-03     117.917E-03    -21.2165E+06     90.5578E+06     28.1281E+06    -3.62282E+06    -128.943E-03     231.641E-03    -102.697E-03     320.613E-03    -141.869E-03     244.732E-03    -102.657E-03     308.210E-03
            1068     13.7978E-03     118.253E-03    -18.4541E+06     119.479E+06     75.1877E+06     1.67959E+06    -133.112E-03     236.709E-03    -103.597E-03     329.540E-03    -149.880E-03     253.618E-03    -103.367E-03     316.336E-03
            1069     14.5937E-03     118.582E-03    -14.3979E+06     140.811E+06     103.171E+06     2.21584E+06    -133.981E-03     238.634E-03    -104.653E-03     314.414E-03    -153.289E-03     258.093E-03    -104.321E-03     302.704E-03
            1070     15.3890E-03     118.900E-03    -7.58003E+06     146.862E+06     115.315E+06     1.16539E+06    -133.862E-03     239.733E-03    -105.871E-03     215.560E-03    -146.797E-03     252.829E-03    -105.496E-03     207.759E-03
            1071     812.129E-06     117.119E-03    -68.2276E+06    -166.092E+06    -67.9166E+06    -4.73076E+06    -102.382E-03     204.647E-03    -102.265E-03     18.0669E-03    -102.394E-03     204.023E-03    -102.265E-03     17.7733E-03
            1072     1.62473E-03     117.140E-03    -66.8119E+06    -161.259E+06    -64.2905E+06    -8.73045E+06    -101.992E-03     204.164E-03    -102.173E-03     33.0698E-03    -102.030E-03     203.579E-03    -102.164E-03     32.5273E-03
            1073     2.43774E-03     117.176E-03    -64.3924E+06    -155.668E+06    -57.8761E+06    -12.2275E+06    -101.617E-03     203.548E-03    -101.931E-03     49.0732E-03    -101.698E-03     203.015E-03    -101.902E-03     48.2694E-03
            1074     3.25140E-03     117.226E-03    -61.2370E+06    -150.687E+06    -49.8257E+06    -15.0241E+06    -101.171E-03     202.800E-03    -101.629E-03     65.3499E-03    -101.310E-03     202.330E-03    -101.571E-03     64.2812E-03
            1075     4.06588E-03     117.290E-03    -57.6351E+06    -144.101E+06    -41.8492E+06    -17.1529E+06    -100.714E-03     201.974E-03    -101.260E-03     81.9077E-03    -100.933E-03     201.597E-03    -101.177E-03     80.5645E-03
            1076     4.88116E-03     117.367E-03    -53.4700E+06    -138.501E+06    -33.8444E+06    -18.3895E+06    -100.271E-03     201.110E-03    -100.839E-03     98.7393E-03    -100.593E-03     200.847E-03    -100.730E-03     97.1103E-03
            1077     5.69761E-03     117.459E-03    -48.9344E+06    -131.608E+06    -26.7897E+06    -19.8504E+06    -99.9339E-03     200.303E-03    -100.369E-03     115.971E-03    -100.392E-03     200.196E-03    -100.241E-03     114.021E-03
            1078     6.51499E-03     117.565E-03    -44.7471E+06    -123.492E+06    -21.2298E+06    -20.4971E+06    -99.9220E-03     199.794E-03    -99.8723E-03     133.719E-03    -100.565E-03     199.900E-03    -99.7345E-03     131.411E-03
            1079     7.33303E-03     117.686E-03    -41.4238E+06    -117.259E+06    -16.6925E+06    -20.7269E+06    -100.411E-03     199.803E-03    -99.3923E-03     152.043E-03    -101.307E-03     200.183E-03    -99.2457E-03     149.310E-03
            1080     8.15164E-03     117.822E-03    -37.8709E+06    -109.177E+06    -12.8938E+06    -20.7294E+06    -101.606E-03     200.569E-03    -98.9633E-03     170.966E-03    -102.855E-03     201.332E-03    -98.8146E-03     167.708E-03
            1081     8.97004E-03     117.976E-03    -34.3987E+06    -99.1280E+06    -9.85947E+06    -19.4621E+06    -103.889E-03     202.528E-03    -98.6391E-03     190.100E-03    -105.635E-03     203.828E-03    -98.4948E-03     186.177E-03
            1082     9.78750E-03     118.147E-03    -31.3103E+06    -86.1754E+06    -6.52896E+06    -18.7504E+06    -107.413E-03     205.902E-03    -98.4890E-03     209.026E-03    -109.872E-03     207.963E-03    -98.3513E-03     204.215E-03
            1083     10.6017E-03     118.336E-03    -28.7149E+06    -67.4345E+06    -5.04060E+06    -17.1723E+06    -111.982E-03     210.524E-03    -98.5421E-03     229.397E-03    -115.506E-03     213.722E-03    -98.4279E-03     223.417E-03
            1084     11.4151E-03     118.549E-03    -26.4247E+06    -32.7075E+06     1.78284E+06    -14.2003E+06    -117.944E-03     216.773E-03    -98.8289E-03     257.331E-03    -123.305E-03     221.920E-03    -98.7343E-03     249.682E-03
            1085     12.2241E-03     118.801E-03    -25.0666E+06     28.0106E+06     8.39006E+06    -9.26087E+06    -126.012E-03     225.332E-03    -99.3205E-03     295.825E-03    -134.666E-03     233.974E-03    -99.2829E-03     285.691E-03
            1086     13.0282E-03     119.104E-03    -25.0451E+06     82.0738E+06     30.5612E+06    -1.71851E+06    -134.509E-03     234.681E-03    -100.171E-03     332.339E-03    -147.827E-03     248.114E-03    -100.101E-03     319.437E-03
            1087     13.8275E-03     119.452E-03    -22.2898E+06     117.371E+06     70.8175E+06     1.94517E+06    -139.357E-03     240.775E-03    -101.418E-03     339.642E-03    -156.593E-03     258.145E-03    -101.201E-03     325.692E-03
            1088     14.6230E-03     119.787E-03    -14.9970E+06     143.024E+06     104.039E+06     260.959E+03    -142.583E-03     245.519E-03    -102.936E-03     323.071E-03    -162.510E-03     265.602E-03    -102.601E-03     310.049E-03
            1089     15.4070E-03     120.115E-03    -6.95057E+06     146.933E+06     117.139E+06    -717.680E+03    -146.104E-03     250.841E-03    -104.737E-03     222.028E-03    -159.585E-03     264.482E-03    -104.354E-03     212.666E-03
            1090     815.621E-06     118.277E-03    -64.9779E+06    -153.509E+06    -64.7901E+06    -5.09599E+06    -98.3142E-03     196.540E-03    -98.2260E-03     18.6961E-03    -98.3321E-03     195.969E-03    -98.2332E-03     18.4341E-03
            1091     1.63123E-03     118.299E-03    -63.1767E+06    -148.973E+06    -61.1542E+06    -9.21125E+06    -97.9709E-03     196.091E-03    -98.1200E-03     34.5162E-03    -98.0108E-03     195.553E-03    -98.1181E-03     34.0338E-03
            1092     2.44752E-03     118.334E-03    -61.1509E+06    -145.276E+06    -55.4618E+06    -12.8564E+06    -97.4587E-03     195.319E-03    -97.8599E-03     51.2569E-03    -97.5352E-03     194.821E-03    -97.8379E-03     50.5452E-03
            1093     3.26472E-03     118.382E-03    -58.5428E+06    -141.424E+06    -48.3244E+06    -15.8845E+06    -96.8276E-03     194.325E-03    -97.4978E-03     68.3686E-03    -96.9560E-03     193.882E-03    -97.4495E-03     67.4273E-03
            1094     4.08286E-03     118.445E-03    -55.2913E+06    -136.729E+06    -41.2551E+06    -18.0254E+06    -96.2089E-03     193.258E-03    -97.0493E-03     85.8849E-03    -96.4062E-03     192.892E-03    -96.9772E-03     84.7116E-03
            1095     4.90212E-03     118.521E-03    -51.5510E+06    -131.720E+06    -34.4290E+06    -19.7662E+06    -95.6633E-03     192.202E-03    -96.5388E-03     103.745E-03    -95.9518E-03     191.938E-03    -96.4452E-03     102.323E-03
            1096     5.72243E-03     118.611E-03    -47.9581E+06    -125.550E+06    -27.9496E+06    -21.1606E+06    -95.3515E-03     191.342E-03    -95.9900E-03     122.118E-03    -95.7657E-03     191.219E-03    -95.8782E-03     120.421E-03
            1097     6.54379E-03     118.717E-03    -44.5942E+06    -120.054E+06    -22.1834E+06    -21.5778E+06    -95.5166E-03     190.957E-03    -95.4400E-03     141.055E-03    -96.1020E-03     191.020E-03    -95.3121E-03     139.044E-03
            1098     7.36596E-03     118.837E-03    -41.1319E+06    -113.093E+06    -17.1093E+06    -21.4837E+06    -96.5038E-03     191.440E-03    -94.9362E-03     160.601E-03    -97.3301E-03     191.767E-03    -94.7981E-03     158.202E-03
            1099     8.18800E-03     118.975E-03    -38.8093E+06    -106.958E+06    -13.0468E+06    -21.1043E+06    -98.6061E-03     193.151E-03    -94.5448E-03     180.701E-03    -99.7807E-03     193.844E-03    -94.3987E-03     177.793E-03
            1100     9.00919E-03     119.130E-03    -37.0524E+06    -97.7965E+06    -10.3321E+06    -20.4499E+06    -102.001E-03     196.321E-03    -94.3198E-03     201.338E-03    -103.681E-03     197.551E-03    -94.1759E-03     197.754E-03
            1101     9.82813E-03     119.306E-03    -35.4585E+06    -84.3475E+06    -6.63950E+06    -19.5232E+06    -106.774E-03     201.104E-03    -94.3292E-03     221.637E-03    -109.193E-03     203.116E-03    -94.1887E-03     217.134E-03
            1102     10.6453E-03     119.501E-03    -34.4993E+06    -67.7142E+06    -4.25844E+06    -17.8409E+06    -112.952E-03     207.566E-03    -94.6138E-03     242.564E-03    -116.491E-03     210.755E-03    -94.4869E-03     236.793E-03
            1103     11.4566E-03     119.721E-03    -33.7768E+06    -32.9915E+06     1.84265E+06    -15.3840E+06    -120.924E-03     216.125E-03    -95.2003E-03     270.721E-03    -126.402E-03     221.362E-03    -95.0943E-03     263.080E-03
            1104     12.2644E-03     119.982E-03    -32.5537E+06     20.2848E+06     11.2912E+06    -9.49810E+06    -131.022E-03     227.113E-03    -96.0904E-03     309.731E-03    -139.954E-03     235.970E-03    -96.0162E-03     299.310E-03
            1105     13.0661E-03     120.300E-03    -28.1888E+06     74.5086E+06     33.5359E+06    -2.05480E+06    -141.215E-03     238.579E-03    -97.3641E-03     345.200E-03    -155.014E-03     252.448E-03    -97.2636E-03     331.599E-03
            1106     13.8616E-03     120.653E-03    -20.2501E+06     120.257E+06     72.0810E+06    -491.383E+03    -148.233E-03     247.321E-03    -99.0874E-03     348.531E-03    -166.078E-03     265.316E-03    -98.8720E-03     333.287E-03
            1107     14.6481E-03     120.999E-03    -11.8023E+06     145.159E+06     104.679E+06    -1.59329E+06    -153.575E-03     254.777E-03    -101.203E-03     328.800E-03    -174.062E-03     275.439E-03    -100.873E-03     313.872E-03
            1108     15.4268E-03     121.344E-03    -6.10761E+06     144.181E+06     115.582E+06    -785.330E+03    -159.219E-03     262.886E-03    -103.667E-03     227.590E-03    -173.081E-03     276.907E-03    -103.289E-03     216.394E-03
            1109     819.466E-06     119.426E-03    -61.7802E+06    -139.707E+06    -62.7123E+06    -5.85092E+06    -93.2742E-03     186.470E-03    -93.1960E-03     19.4545E-03    -93.2982E-03     185.959E-03    -93.2174E-03     19.2227E-03
            1110     1.63957E-03     119.447E-03    -61.0960E+06    -136.556E+06    -58.7366E+06    -10.0948E+06    -92.8226E-03     185.882E-03    -93.0599E-03     36.0014E-03    -92.8699E-03     185.396E-03    -93.0670E-03     35.5807E-03
            1111     2.46006E-03     119.481E-03    -58.9895E+06    -134.449E+06    -53.8973E+06    -13.7055E+06    -92.2423E-03     184.992E-03    -92.7496E-03     53.5187E-03    -92.3173E-03     184.534E-03    -92.7386E-03     52.9064E-03
            1112     3.28151E-03     119.528E-03    -56.6913E+06    -132.061E+06    -48.3854E+06    -16.4794E+06    -91.5044E-03     183.834E-03    -92.3300E-03     71.5569E-03    -91.6210E-03     183.418E-03    -92.2982E-03     70.7583E-03
            1113     4.10415E-03     119.589E-03    -54.1219E+06    -128.974E+06    -42.3030E+06    -18.6352E+06    -90.7272E-03     182.542E-03    -91.8144E-03     90.0236E-03    -90.9021E-03     182.186E-03    -91.7604E-03     89.0366E-03
            1114     4.92810E-03     119.663E-03    -51.7269E+06    -124.583E+06    -36.3871E+06    -20.4225E+06    -90.1586E-03     181.391E-03    -91.2329E-03     108.995E-03    -90.4161E-03     181.126E-03    -91.1591E-03     107.804E-03
            1115     5.75318E-03     119.753E-03    -49.5206E+06    -120.220E+06    -30.4846E+06    -21.3436E+06    -90.0785E-03     180.717E-03    -90.6383E-03     128.591E-03    -90.4505E-03     180.572E-03    -90.5446E-03     127.172E-03
            1116     6.57912E-03     119.857E-03    -47.5257E+06    -115.570E+06    -24.9563E+06    -21.7971E+06    -90.7804E-03     180.867E-03    -90.0871E-03     148.799E-03    -91.3140E-03     180.892E-03    -89.9754E-03     147.100E-03
            1117     7.40523E-03     119.979E-03    -46.3976E+06    -110.500E+06    -20.6520E+06    -21.2888E+06    -92.5990E-03     182.240E-03    -89.6407E-03     169.662E-03    -93.3681E-03     182.510E-03    -89.5165E-03     167.605E-03
            1118     8.23076E-03     120.118E-03    -45.5650E+06    -104.531E+06    -16.0956E+06    -20.1792E+06    -95.8179E-03     185.192E-03    -89.3741E-03     191.113E-03    -96.9375E-03     185.824E-03    -89.2369E-03     188.562E-03
            1119     9.05453E-03     120.278E-03    -44.9014E+06    -94.1068E+06    -11.9802E+06    -20.3274E+06    -100.585E-03     189.929E-03    -89.3437E-03     212.928E-03    -102.231E-03     191.115E-03    -89.2020E-03     209.662E-03
            1120     9.87616E-03     120.459E-03    -43.6242E+06    -84.2201E+06    -8.02669E+06    -19.6317E+06    -106.927E-03     196.542E-03    -89.6151E-03     234.106E-03    -109.329E-03     198.514E-03    -89.4698E-03     229.867E-03
            1121     10.6920E-03     120.662E-03    -41.3143E+06    -66.4795E+06    -4.35272E+06    -18.4950E+06    -114.976E-03     205.202E-03    -90.2258E-03     255.827E-03    -118.549E-03     208.406E-03    -90.0913E-03     250.197E-03
            1122     11.5041E-03     120.892E-03    -38.2346E+06    -33.9703E+06     3.10423E+06    -16.0374E+06    -125.101E-03     216.315E-03    -91.2139E-03     284.791E-03    -130.722E-03     221.673E-03    -91.0937E-03     277.060E-03
            1123     12.3083E-03     121.166E-03    -33.3921E+06     13.1761E+06     15.7102E+06    -10.2110E+06    -137.283E-03     229.864E-03    -92.5809E-03     324.067E-03    -146.527E-03     238.994E-03    -92.4731E-03     313.189E-03
            1124     13.1068E-03     121.495E-03    -26.7844E+06     70.8612E+06     37.4128E+06    -6.71420E+06    -150.000E-03     244.374E-03    -94.3739E-03     358.107E-03    -164.368E-03     258.795E-03    -94.2507E-03     343.365E-03
            1125     13.8953E-03     121.866E-03    -18.5893E+06     119.637E+06     71.5662E+06    -5.12174E+06    -160.242E-03     256.957E-03    -96.7153E-03     359.383E-03    -178.913E-03     275.786E-03    -96.5040E-03     342.170E-03
            1126     14.6704E-03     122.225E-03    -11.2650E+06     142.514E+06     102.400E+06    -2.62990E+06    -167.765E-03     267.337E-03    -99.5714E-03     337.127E-03    -189.088E-03     288.834E-03    -99.2497E-03     319.587E-03
            1127     15.4367E-03     122.578E-03    -5.05938E+06     141.714E+06     114.467E+06    -182.341E+03    -172.690E-03     275.460E-03    -102.769E-03     236.052E-03    -187.150E-03     290.078E-03    -102.395E-03     222.677E-03
            1128     824.618E-06     120.562E-03    -59.1547E+06    -124.789E+06    -59.0067E+06    -6.31164E+06    -87.2473E-03     174.311E-03    -87.0639E-03     20.2979E-03    -87.2843E-03     173.863E-03    -87.0922E-03     20.1002E-03
            1129     1.64940E-03     120.582E-03    -59.2289E+06    -124.058E+06    -57.6508E+06    -10.2935E+06    -86.6197E-03     173.568E-03    -86.9485E-03     37.4169E-03    -86.6732E-03     173.135E-03    -86.9710E-03     37.0672E-03
            1130     2.47526E-03     120.615E-03    -58.5827E+06    -123.478E+06    -54.7190E+06    -13.8600E+06    -85.9316E-03     172.510E-03    -86.5787E-03     55.7509E-03    -86.0093E-03     172.097E-03    -86.5883E-03     55.2501E-03
            1131     3.30196E-03     120.660E-03    -57.2453E+06    -123.024E+06    -50.8269E+06    -16.7677E+06    -85.1475E-03     171.251E-03    -86.1033E-03     74.6404E-03    -85.2580E-03     170.865E-03    -86.0961E-03     73.9917E-03
            1132     4.12996E-03     120.719E-03    -55.9244E+06    -121.499E+06    -45.8508E+06    -18.4862E+06    -84.3890E-03     169.935E-03    -85.5457E-03     94.1067E-03    -84.5488E-03     169.594E-03    -85.5177E-03     93.3162E-03
            1133     4.95923E-03     120.793E-03    -55.0439E+06    -118.293E+06    -40.3927E+06    -19.3804E+06    -84.0118E-03     168.958E-03    -84.9458E-03     114.220E-03    -84.2452E-03     168.689E-03    -84.8965E-03     113.278E-03
            1134     5.78956E-03     120.881E-03    -54.7854E+06    -115.193E+06    -35.3868E+06    -19.8164E+06    -84.4363E-03     168.809E-03    -84.3727E-03     135.025E-03    -84.7751E-03     168.644E-03    -84.3032E-03     133.897E-03
            1135     6.62022E-03     120.986E-03    -55.2289E+06    -111.512E+06    -30.5011E+06    -19.6458E+06    -86.0454E-03     169.955E-03    -83.9094E-03     156.525E-03    -86.5415E-03     169.945E-03    -83.8201E-03     155.151E-03
            1136     7.45040E-03     121.109E-03    -55.4722E+06    -108.230E+06    -24.9749E+06    -18.9684E+06    -89.0291E-03     172.664E-03    -83.6352E-03     178.576E-03    -89.7571E-03     172.882E-03    -83.5227E-03     176.856E-03
            1137     8.27915E-03     121.252E-03    -54.6282E+06    -100.388E+06    -19.0974E+06    -19.1812E+06    -93.6278E-03     177.233E-03    -83.6048E-03     201.262E-03    -94.7092E-03     177.818E-03    -83.4755E-03     199.025E-03
            1138     9.10524E-03     121.418E-03    -52.6614E+06    -90.5977E+06    -13.3501E+06    -19.3145E+06    -100.077E-03     183.961E-03    -83.8834E-03     224.149E-03    -101.694E-03     185.107E-03    -83.7424E-03     221.159E-03
            1139     9.92633E-03     121.607E-03    -50.6307E+06    -81.8585E+06    -8.77106E+06    -19.7362E+06    -108.173E-03     192.699E-03    -84.5259E-03     246.203E-03    -110.573E-03     194.655E-03    -84.3776E-03     242.154E-03
            1140     10.7438E-03     121.820E-03    -47.6090E+06    -63.7626E+06    -4.67692E+06    -20.9352E+06    -118.003E-03     203.558E-03    -85.5551E-03     269.139E-03    -121.630E-03     206.806E-03    -85.4170E-03     263.548E-03
            1141     11.5525E-03     122.064E-03    -42.4683E+06    -36.7915E+06     3.41201E+06    -19.6045E+06    -130.111E-03     217.124E-03    -87.0125E-03     299.046E-03    -135.897E-03     222.622E-03    -86.8805E-03     291.096E-03
            1142     12.3552E-03     122.351E-03    -35.6071E+06     7.30064E+06     16.7235E+06    -16.0207E+06    -144.978E-03     233.886E-03    -88.9079E-03     338.920E-03    -154.620E-03     243.384E-03    -88.7832E-03     327.292E-03
            1143     13.1475E-03     122.699E-03    -28.3150E+06     69.9014E+06     38.9516E+06    -12.2958E+06    -160.611E-03     251.912E-03    -91.3011E-03     373.469E-03    -175.724E-03     267.066E-03    -91.1666E-03     357.214E-03
            1144     13.9276E-03     123.088E-03    -22.7664E+06     115.357E+06     70.4790E+06    -9.66550E+06    -173.237E-03     267.553E-03    -94.3158E-03     375.341E-03    -193.017E-03     287.465E-03    -94.0977E-03     355.773E-03
            1145     14.6964E-03     123.468E-03    -16.5292E+06     135.162E+06     99.1833E+06    -6.36737E+06    -183.223E-03     281.138E-03    -97.9153E-03     351.788E-03    -205.910E-03     303.967E-03    -97.5914E-03     331.066E-03
            1146     15.4500E-03     123.838E-03    -8.28916E+06     138.139E+06     111.461E+06    -3.34877E+06    -188.105E-03     289.983E-03    -101.878E-03     246.982E-03    -203.535E-03     305.556E-03    -101.509E-03     230.845E-03
            1147     830.372E-06     121.683E-03    -58.4376E+06    -110.876E+06    -57.4174E+06    -5.13580E+06    -80.0981E-03     160.016E-03    -79.9180E-03     21.0094E-03    -80.1530E-03     159.632E-03    -79.9596E-03     20.8646E-03
            1148     1.66141E-03     121.702E-03    -57.8957E+06    -111.569E+06    -56.6680E+06    -9.83526E+06    -79.4526E-03     159.250E-03    -79.7973E-03     38.6470E-03    -79.5144E-03     158.870E-03    -79.8350E-03     38.3739E-03
            1149     2.49305E-03     121.734E-03    -57.4499E+06    -112.849E+06    -55.5817E+06    -13.4692E+06    -78.6824E-03     158.083E-03    -79.4008E-03     57.7290E-03    -78.7578E-03     157.710E-03    -79.4318E-03     57.3401E-03
            1150     3.32595E-03     121.778E-03    -58.0785E+06    -115.251E+06    -53.3910E+06    -15.2942E+06    -77.9036E-03     156.802E-03    -78.8982E-03     77.4206E-03    -78.0057E-03     156.439E-03    -78.9138E-03     76.9353E-03
            1151     4.15996E-03     121.836E-03    -59.7725E+06    -115.625E+06    -50.9771E+06    -15.6979E+06    -77.4343E-03     155.775E-03    -78.3410E-03     97.8669E-03    -77.5825E-03     155.444E-03    -78.3415E-03     97.2931E-03
            1152     4.99507E-03     121.908E-03    -62.0986E+06    -113.221E+06    -47.7137E+06    -15.7246E+06    -77.6528E-03     155.456E-03    -77.8033E-03     119.053E-03    -77.8725E-03     155.188E-03    -77.7877E-03     118.371E-03
            1153     5.83063E-03     121.996E-03    -64.3187E+06    -111.068E+06    -42.2047E+06    -15.7328E+06    -78.9982E-03     156.377E-03    -77.3792E-03     140.966E-03    -79.3212E-03     156.197E-03    -77.3359E-03     140.129E-03
            1154     6.66589E-03     122.103E-03    -65.5498E+06    -108.151E+06    -35.3638E+06    -15.6065E+06    -81.7699E-03     158.915E-03    -77.1449E-03     163.527E-03    -82.2440E-03     158.872E-03    -77.0699E-03     162.459E-03
            1155     7.49959E-03     122.230E-03    -64.9814E+06    -103.625E+06    -28.1802E+06    -16.8697E+06    -86.1691E-03     163.334E-03    -77.1649E-03     186.606E-03    -86.8686E-03     163.515E-03    -77.0613E-03     185.170E-03
            1156     8.33067E-03     122.378E-03    -62.4129E+06    -94.9831E+06    -21.1809E+06    -18.9281E+06    -92.3465E-03     169.837E-03    -77.4901E-03     210.462E-03    -93.3957E-03     170.388E-03    -77.3678E-03     208.472E-03
            1157     9.15778E-03     122.551E-03    -58.2814E+06    -88.2813E+06    -15.0175E+06    -20.3222E+06    -100.371E-03     178.545E-03    -78.1735E-03     234.711E-03    -101.951E-03     179.648E-03    -78.0361E-03     231.924E-03
            1158     9.98042E-03     122.750E-03    -52.3247E+06    -76.3868E+06    -8.33088E+06    -21.7624E+06    -110.257E-03     189.513E-03    -79.2567E-03     258.172E-03    -112.647E-03     191.473E-03    -79.1117E-03     254.233E-03
            1159     10.7947E-03     122.976E-03    -46.0276E+06    -59.1953E+06    -2.30733E+06    -22.8478E+06    -121.917E-03     202.687E-03    -80.7699E-03     282.418E-03    -125.595E-03     206.001E-03    -80.6289E-03     276.795E-03
            1160     11.6035E-03     123.234E-03    -40.3254E+06    -37.4822E+06     5.30345E+06    -22.5293E+06    -136.193E-03     218.939E-03    -82.7464E-03     313.760E-03    -142.163E-03     224.623E-03    -82.6070E-03     305.474E-03
            1161     12.4013E-03     123.540E-03    -35.1511E+06     4.29166E+06     17.5598E+06    -19.7364E+06    -153.671E-03     238.875E-03    -85.2043E-03     355.122E-03    -163.744E-03     248.795E-03    -85.0718E-03     342.629E-03
            1162     13.1887E-03     123.910E-03    -29.6323E+06     68.8191E+06     37.6789E+06    -16.9336E+06    -171.697E-03     259.896E-03    -88.1990E-03     390.679E-03    -187.659E-03     275.896E-03    -88.0674E-03     372.715E-03
            1163     13.9645E-03     124.321E-03    -20.8488E+06     109.286E+06     69.2859E+06    -12.8974E+06    -186.844E-03     278.732E-03    -91.8883E-03     392.618E-03    -207.879E-03     299.891E-03    -91.6701E-03     370.355E-03
            1164     14.7216E-03     124.726E-03    -11.5890E+06     128.866E+06     100.566E+06    -7.33933E+06    -198.464E-03     294.688E-03    -96.2244E-03     366.866E-03    -222.450E-03     318.810E-03    -95.8916E-03     342.747E-03
            1165     15.4663E-03     125.117E-03    -4.91958E+06     134.505E+06     112.097E+06    -3.91609E+06    -205.140E-03     306.101E-03    -100.961E-03     256.719E-03    -221.341E-03     322.446E-03    -100.589E-03     237.500E-03
            1166     837.324E-06     122.787E-03    -57.8954E+06    -98.9110E+06    -58.9696E+06    -4.71961E+06    -71.9924E-03     143.910E-03    -71.9173E-03     21.4719E-03    -72.0586E-03     143.585E-03    -71.9848E-03     21.3654E-03
            1167     1.67481E-03     122.806E-03    -59.5105E+06    -99.6476E+06    -60.1458E+06    -8.71251E+06    -71.3794E-03     143.109E-03    -71.7292E-03     39.5296E-03    -71.4569E-03     142.790E-03    -71.7992E-03     39.3331E-03
            1168     2.51332E-03     122.835E-03    -62.6329E+06    -104.864E+06    -61.7551E+06    -10.8665E+06    -70.6807E-03     142.018E-03    -71.3368E-03     59.2144E-03    -70.7738E-03     141.689E-03    -71.4027E-03     58.9519E-03
            1169     3.35289E-03     122.878E-03    -66.9680E+06    -110.698E+06    -63.0111E+06    -10.5207E+06    -70.1931E-03     141.066E-03    -70.8725E-03     79.6661E-03    -70.3123E-03     140.732E-03    -70.9300E-03     79.3663E-03
            1170     4.19347E-03     122.935E-03    -71.7768E+06    -111.643E+06    -62.0755E+06    -9.90894E+06    -70.3780E-03     140.805E-03    -70.4270E-03     100.929E-03    -70.5448E-03     140.496E-03    -70.4714E-03     100.581E-03
            1171     5.03430E-03     123.007E-03    -75.4379E+06    -109.128E+06    -57.2590E+06    -10.1885E+06    -71.6403E-03     141.744E-03    -70.1039E-03     122.993E-03    -71.8761E-03     141.487E-03    -70.1226E-03     122.555E-03
            1172     5.87470E-03     123.097E-03    -76.7540E+06    -107.013E+06    -48.5713E+06    -11.2090E+06    -74.2449E-03     144.234E-03    -69.9886E-03     145.822E-03    -74.5732E-03     144.048E-03    -69.9650E-03     145.231E-03
            1173     6.71351E-03     123.207E-03    -74.9728E+06    -103.421E+06    -38.9378E+06    -13.4080E+06    -78.3438E-03     148.467E-03    -70.1237E-03     169.337E-03    -78.8036E-03     148.405E-03    -70.0597E-03     168.497E-03
            1174     7.55009E-03     123.339E-03    -70.6627E+06    -96.4040E+06    -29.9256E+06    -16.8226E+06    -84.1337E-03     154.682E-03    -70.5483E-03     193.639E-03    -84.8002E-03     154.841E-03    -70.4557E-03     192.409E-03
            1175     8.38284E-03     123.495E-03    -65.3939E+06    -89.6050E+06    -22.1907E+06    -19.9348E+06    -91.7696E-03     163.080E-03    -71.3105E-03     218.941E-03    -92.7712E-03     163.596E-03    -71.1967E-03     217.137E-03
            1176     9.21104E-03     123.677E-03     -59.541E+06    -82.0802E+06    -15.1065E+06    -23.0934E+06    -101.364E-03     173.816E-03    -72.4527E-03     244.749E-03    -102.903E-03     174.898E-03    -72.3229E-03     242.096E-03
            1177     10.0326E-03     123.889E-03    -52.8736E+06    -70.2033E+06    -8.54002E+06    -26.9316E+06    -112.826E-03     186.835E-03    -74.0097E-03     269.813E-03    -115.205E-03     188.805E-03    -73.8740E-03     265.911E-03
            1178     10.8479E-03     124.130E-03    -45.0242E+06    -57.3484E+06    -2.19390E+06    -28.2249E+06    -126.404E-03     202.429E-03    -76.0256E-03     295.680E-03    -130.129E-03     205.802E-03    -75.8881E-03     289.943E-03
            1179     11.6522E-03     124.404E-03    -37.7274E+06    -38.0874E+06     5.55490E+06    -25.8476E+06    -143.115E-03     221.652E-03    -78.5375E-03     329.278E-03    -149.285E-03     227.543E-03    -78.3998E-03     320.575E-03
            1180     12.4470E-03     124.733E-03    -31.1246E+06     2.33055E+06     17.9386E+06    -22.0157E+06    -162.974E-03     244.541E-03    -81.5675E-03     372.120E-03    -173.485E-03     254.907E-03    -81.4360E-03     358.676E-03
            1181     13.2300E-03     125.125E-03    -24.2158E+06     71.0081E+06     40.4698E+06    -18.8354E+06    -183.975E-03     269.167E-03    -85.1915E-03     408.502E-03    -200.849E-03     286.101E-03    -85.0570E-03     388.546E-03
            1182     13.9958E-03     125.565E-03    -18.0417E+06     102.753E+06     66.1590E+06    -17.3211E+06    -201.314E-03     290.873E-03    -89.5591E-03     410.033E-03    -223.658E-03     313.339E-03    -89.3511E-03     384.667E-03
            1183     14.7456E-03     125.999E-03    -11.8506E+06     116.225E+06     94.5839E+06    -11.2899E+06    -214.179E-03     308.801E-03    -94.6222E-03     381.801E-03    -239.318E-03     334.049E-03    -94.3006E-03     353.941E-03
            1184     15.4800E-03     126.410E-03    -6.29287E+06     126.560E+06     111.168E+06    -4.03807E+06    -222.472E-03     322.611E-03    -100.139E-03     269.246E-03    -239.408E-03     339.664E-03    -99.7575E-03     246.702E-03
            1185     844.429E-06     123.873E-03    -68.1159E+06    -87.6712E+06    -69.8257E+06    -4.98154E+06    -63.2252E-03     126.410E-03    -63.1844E-03     21.6453E-03    -63.3420E-03     126.170E-03    -63.3076E-03     21.5611E-03
            1186     1.68967E-03     123.890E-03    -71.4871E+06    -92.2971E+06    -74.6027E+06    -6.13972E+06    -62.6759E-03     125.655E-03    -62.9794E-03     39.9569E-03    -62.7985E-03     125.406E-03    -63.1150E-03     39.8428E-03
            1187     2.53551E-03     123.919E-03    -77.3711E+06    -102.271E+06    -77.1274E+06    -4.54069E+06    -62.3842E-03     125.049E-03    -62.6649E-03     60.0424E-03    -62.5222E-03     124.767E-03    -62.7900E-03     59.9344E-03
            1188     3.38199E-03     123.961E-03    -83.9055E+06    -109.343E+06    -77.2797E+06    -2.90707E+06    -62.6877E-03     125.080E-03    -62.3925E-03     81.0402E-03    -62.8550E-03     124.781E-03    -62.4987E-03     80.9325E-03
            1189     4.22852E-03     124.018E-03    -88.0153E+06    -107.887E+06    -72.7881E+06    -3.60291E+06    -63.9572E-03     126.206E-03    -62.2484E-03     102.898E-03    -64.1686E-03     125.929E-03    -62.3283E-03     102.743E-03
            1190     5.07449E-03     124.092E-03    -88.0359E+06    -104.055E+06    -63.1836E+06    -6.52633E+06    -66.4662E-03     128.780E-03    -62.3142E-03     125.648E-03    -66.7284E-03     128.541E-03    -62.3516E-03     125.382E-03
            1191     5.91873E-03     124.186E-03    -83.9734E+06    -101.402E+06    -51.8938E+06    -10.3286E+06    -70.3495E-03     132.979E-03    -62.6295E-03     149.326E-03    -70.6725E-03     132.792E-03    -62.6202E-03     148.886E-03
            1192     6.76081E-03     124.300E-03    -77.8261E+06    -95.9766E+06    -40.7589E+06    -14.5168E+06    -75.7203E-03     138.938E-03    -63.2175E-03     173.952E-03    -76.1485E-03     138.866E-03    -63.1693E-03     173.252E-03
            1193     7.59928E-03     124.439E-03    -71.6567E+06    -88.8419E+06    -30.8420E+06    -18.5636E+06    -82.7255E-03     146.833E-03    -64.1074E-03     199.604E-03    -83.3443E-03     146.971E-03    -64.0289E-03     198.518E-03
            1194     8.43380E-03     124.604E-03    -65.3840E+06    -82.7117E+06    -22.5022E+06    -22.5129E+06    -91.6785E-03     157.015E-03    -65.3367E-03     226.455E-03    -92.6239E-03     157.501E-03    -65.2345E-03     224.787E-03
            1195     9.26245E-03     124.798E-03    -58.6171E+06    -73.1620E+06    -14.9727E+06    -26.7816E+06    -102.710E-03     169.655E-03    -66.9446E-03     254.074E-03    -104.200E-03     170.722E-03    -66.8284E-03     251.524E-03
            1196     10.0842E-03     125.023E-03    -52.3202E+06    -61.7685E+06     -8.4373E+06    -30.9961E+06    -115.698E-03     184.673E-03    -68.9747E-03     281.045E-03    -118.053E-03     186.650E-03    -68.8515E-03     277.187E-03
            1197     10.8968E-03     125.280E-03    -47.5616E+06    -55.4861E+06    -4.18762E+06    -33.4928E+06    -131.305E-03     202.787E-03    -71.4819E-03     309.238E-03    -135.083E-03     206.216E-03    -71.3534E-03     303.372E-03
            1198     11.7003E-03     125.577E-03    -41.9762E+06    -41.1063E+06     1.53278E+06    -32.8036E+06    -150.431E-03     224.946E-03    -74.5149E-03     344.975E-03    -156.790E-03     231.013E-03    -74.3868E-03     335.803E-03
            1199     12.4910E-03     125.928E-03    -34.3628E+06     1.69818E+06     15.3851E+06    -30.9686E+06    -173.169E-03     251.288E-03    -78.1199E-03     389.143E-03    -184.140E-03     262.110E-03    -77.9956E-03     374.533E-03
            1200     13.2674E-03     126.348E-03    -26.8583E+06     63.4060E+06     38.9566E+06    -25.3143E+06    -196.975E-03     279.354E-03    -82.3793E-03     427.925E-03    -214.722E-03     297.131E-03    -82.2376E-03     405.804E-03
            1201     14.0265E-03     126.823E-03    -20.8970E+06     100.882E+06     67.0048E+06    -19.4650E+06    -215.651E-03     303.038E-03    -87.3868E-03     431.213E-03    -239.390E-03     326.882E-03    -87.1678E-03     402.623E-03
            1202     14.7672E-03     127.281E-03    -16.1029E+06     104.085E+06     88.9283E+06    -16.9904E+06    -230.046E-03     323.122E-03    -93.0764E-03     404.277E-03    -256.827E-03     349.973E-03    -92.7594E-03     372.303E-03
            1203     15.4893E-03     127.728E-03    -7.37653E+06     104.742E+06     103.713E+06    -7.99512E+06    -240.430E-03     339.712E-03    -99.2817E-03     291.744E-03    -258.537E-03     357.879E-03    -98.9043E-03     265.569E-03
            1204     852.438E-06     124.939E-03    -86.4936E+06    -82.4602E+06    -84.5420E+06      933.38E+03    -54.1821E-03     108.169E-03    -53.9867E-03     21.5384E-03    -54.3757E-03     108.001E-03    -54.1644E-03     21.5496E-03
            1205     1.70515E-03     124.956E-03    -95.0194E+06    -90.6219E+06    -93.0000E+06     853.018E+03    -54.0787E-03     108.056E-03    -53.9770E-03     39.8519E-03    -54.2906E-03     107.872E-03    -54.1728E-03     39.8623E-03
            1206     2.55827E-03     124.984E-03    -100.727E+06    -104.171E+06    -95.4356E+06     1.96490E+06    -54.6351E-03     108.578E-03    -53.9427E-03     59.9963E-03    -54.8521E-03     108.339E-03    -54.1228E-03     60.0201E-03
            1207     3.41101E-03     125.027E-03    -101.052E+06    -107.788E+06    -89.3650E+06     1.44537E+06    -56.0735E-03     110.137E-03    -54.0631E-03     81.2580E-03    -56.2976E-03     109.874E-03    -54.2071E-03     81.2659E-03
            1208     4.26274E-03     125.086E-03    -97.1630E+06    -102.797E+06    -78.2533E+06    -2.06294E+06    -58.5940E-03     112.979E-03    -54.3850E-03     103.583E-03    -58.8309E-03     112.730E-03    -54.4863E-03     103.518E-03
            1209     5.11259E-03     125.164E-03    -91.4925E+06    -97.0990E+06    -65.7297E+06    -6.69038E+06    -62.2695E-03     117.208E-03    -54.9386E-03     126.953E-03    -62.5282E-03     116.986E-03    -54.9938E-03     126.770E-03
            1210     5.96036E-03     125.262E-03    -85.5933E+06    -92.6066E+06    -53.9847E+06    -12.5784E+06    -67.2139E-03     122.951E-03    -55.7369E-03     151.458E-03    -67.5184E-03     122.778E-03    -55.7484E-03     151.091E-03
            1211     6.80471E-03     125.383E-03    -78.7969E+06    -87.8110E+06    -43.3052E+06    -18.1772E+06    -73.6020E-03     130.397E-03    -56.7950E-03     177.220E-03    -73.9957E-03     130.324E-03    -56.7699E-03     176.594E-03
            1212     7.64542E-03     125.530E-03    -71.0959E+06    -81.7073E+06    -32.8393E+06    -21.9222E+06    -81.7371E-03     139.883E-03    -58.1458E-03     204.287E-03    -82.3022E-03     140.001E-03    -58.0885E-03     203.297E-03
            1213     8.48069E-03     125.705E-03    -63.4918E+06    -73.5127E+06    -23.0809E+06    -26.0476E+06    -91.8967E-03     151.724E-03    -59.8275E-03     232.902E-03    -92.7772E-03     152.187E-03    -59.7443E-03     231.341E-03
            1214     9.30972E-03     125.912E-03    -56.0958E+06    -64.2077E+06    -15.0230E+06    -31.0654E+06    -104.106E-03     165.981E-03    -61.8757E-03     262.311E-03    -105.522E-03     167.017E-03    -61.7764E-03     259.860E-03
            1215     10.1314E-03     126.152E-03    -49.9260E+06    -56.0435E+06    -8.29650E+06    -33.1222E+06    -118.745E-03     183.094E-03    -64.3490E-03     291.364E-03    -121.035E-03     185.036E-03    -64.2368E-03     287.588E-03
            1216     10.9438E-03     126.429E-03    -44.7614E+06    -48.7634E+06    -1.92117E+06    -34.7670E+06    -136.523E-03     203.850E-03    -67.3272E-03     321.993E-03    -140.297E-03     207.305E-03    -67.2012E-03     316.066E-03
            1217     11.7436E-03     126.747E-03    -38.1716E+06    -37.9259E+06     4.47228E+06    -38.1122E+06    -158.194E-03     229.065E-03    -70.8712E-03     359.663E-03    -164.637E-03     235.234E-03    -70.7385E-03     350.065E-03
            1218     12.5304E-03     127.126E-03    -30.4817E+06     603.769E+03     18.5203E+06    -36.4044E+06    -183.571E-03     258.593E-03    -75.0224E-03     406.323E-03    -194.813E-03     269.688E-03    -74.8864E-03     390.691E-03
            1219     13.3011E-03     127.578E-03    -23.2359E+06     49.2189E+06     37.0968E+06    -27.5907E+06    -208.800E-03     288.601E-03    -79.8013E-03     448.346E-03    -227.119E-03     306.918E-03    -79.6534E-03     424.431E-03
            1220     14.0565E-03     128.084E-03    -16.2264E+06     95.1013E+06     67.7221E+06    -17.7798E+06    -228.802E-03     314.100E-03    -85.2975E-03     455.803E-03    -253.829E-03     339.227E-03    -85.0733E-03     424.162E-03
            1221     14.7919E-03     128.583E-03    -10.1906E+06     105.967E+06     92.6218E+06    -13.6210E+06    -245.595E-03     337.123E-03    -91.5281E-03     428.422E-03    -274.306E-03     365.925E-03    -91.2039E-03     391.984E-03
            1222     15.5122E-03     129.060E-03    -7.33166E+06     86.3326E+06     99.2401E+06    -11.1402E+06    -258.612E-03     357.013E-03    -98.4006E-03     312.785E-03    -278.181E-03     376.595E-03    -98.0190E-03     282.249E-03
            1223     860.399E-06     125.986E-03    -115.781E+06    -90.3682E+06    -114.274E+06     7.85651E+06    -45.5956E-03     90.7275E-03    -45.1319E-03     20.8935E-03    -45.8795E-03     90.6059E-03    -45.4044E-03     21.0050E-03
            1224     1.72044E-03     126.003E-03    -117.024E+06    -92.3536E+06    -111.633E+06     8.50294E+06    -46.4488E-03     91.9514E-03    -45.5026E-03     38.9834E-03    -46.7379E-03     91.8164E-03    -45.7571E-03     39.1110E-03
            1225     2.57939E-03     126.033E-03    -115.643E+06    -103.000E+06    -106.157E+06     4.16984E+06    -48.1842E-03     94.1440E-03    -45.9598E-03     59.0785E-03    -48.4561E-03     93.9441E-03    -46.1735E-03     59.1558E-03
            1226     3.43714E-03     126.078E-03    -110.261E+06    -103.693E+06    -97.3866E+06    -979.761E+03    -50.7797E-03     97.3765E-03    -46.5968E-03     80.3832E-03    -51.0353E-03     97.1525E-03    -46.7735E-03     80.3916E-03
            1227     4.29293E-03     126.140E-03    -102.714E+06    -95.0553E+06    -85.0912E+06    -6.56294E+06    -54.2817E-03     101.708E-03    -47.4267E-03     102.880E-03    -54.5344E-03     101.504E-03    -47.5654E-03     102.798E-03
            1228     5.14645E-03     126.223E-03    -93.1136E+06    -89.1945E+06    -71.5390E+06    -12.5457E+06    -58.8533E-03     107.318E-03    -48.4643E-03     126.749E-03    -59.1033E-03     107.127E-03    -48.5576E-03     126.545E-03
            1229     5.99660E-03     126.327E-03    -82.1283E+06    -82.5938E+06    -56.9205E+06    -17.9539E+06    -64.6420E-03     114.362E-03    -49.7199E-03     152.053E-03    -64.9099E-03     114.210E-03    -49.7656E-03     151.691E-03
            1230     6.84342E-03     126.456E-03    -72.3862E+06    -79.9169E+06    -43.9948E+06    -22.6105E+06    -71.9205E-03     123.136E-03    -51.2155E-03     178.849E-03    -72.2506E-03     123.053E-03    -51.2146E-03     178.261E-03
            1231     7.68541E-03     126.612E-03    -64.1576E+06    -74.9314E+06    -32.7603E+06    -25.8177E+06    -81.0202E-03     134.001E-03    -52.9808E-03     207.322E-03    -81.5022E-03     134.085E-03    -52.9429E-03     206.405E-03
            1232     8.52185E-03     126.799E-03    -56.5561E+06    -64.0027E+06    -21.9343E+06    -29.5168E+06    -92.1280E-03     147.185E-03    -55.0569E-03     237.519E-03    -92.9103E-03     147.605E-03    -54.9918E-03     236.065E-03
            1233     9.35160E-03     127.020E-03    -50.6288E+06    -55.8366E+06    -12.5694E+06    -33.2639E+06    -105.660E-03     163.163E-03    -57.5029E-03     268.676E-03    -106.967E-03     164.132E-03    -57.4114E-03     266.361E-03
            1234     10.1727E-03     127.277E-03    -43.9588E+06    -51.2260E+06    -4.17466E+06    -36.0157E+06    -122.073E-03     182.468E-03    -60.3946E-03     299.691E-03    -124.243E-03     184.317E-03    -60.2774E-03     296.008E-03
            1235     10.9830E-03     127.573E-03    -33.9915E+06    -41.9681E+06      5.4034E+06    -37.5479E+06    -141.825E-03     205.635E-03    -63.8101E-03     332.508E-03    -145.464E-03     208.996E-03    -63.6729E-03     326.584E-03
            1236     11.7809E-03     127.918E-03    -25.9102E+06    -30.1100E+06     14.4444E+06    -38.4393E+06    -165.830E-03     233.647E-03    -67.8177E-03     372.803E-03    -172.170E-03     239.758E-03    -67.6643E-03     362.991E-03
            1237     12.5636E-03     128.325E-03    -21.9361E+06    -4.36870E+06     22.5577E+06    -35.3699E+06    -192.864E-03     265.282E-03    -72.4181E-03     421.251E-03    -204.019E-03     276.290E-03    -72.2672E-03     405.039E-03
            1238     13.3326E-03     128.809E-03    -18.5161E+06     36.1938E+06     34.5717E+06    -27.3956E+06    -218.972E-03     296.571E-03    -77.5985E-03     464.593E-03    -237.276E-03     314.851E-03    -77.4512E-03     439.504E-03
            1239     14.0846E-03     129.350E-03    -13.4935E+06     83.1765E+06     67.7207E+06    -20.0179E+06    -241.473E-03     325.000E-03    -83.5266E-03     475.791E-03    -267.235E-03     350.833E-03    -83.2891E-03     441.237E-03
            1240     14.8158E-03     129.894E-03    -6.96115E+06     100.884E+06     97.5057E+06    -13.1412E+06    -261.690E-03     352.004E-03    -90.3140E-03     448.196E-03    -292.357E-03     382.748E-03    -89.9627E-03     406.127E-03
            1241     15.5144E-03     130.411E-03     223.679E+03     78.7237E+06     106.123E+06    -5.12180E+06    -273.552E-03     371.371E-03    -97.8192E-03     330.360E-03    -294.865E-03     392.677E-03    -97.4031E-03     294.741E-03
            1242     866.923E-06     127.015E-03    -161.459E+06    -100.053E+06    -162.473E+06     2.04772E+06    -38.7776E-03     77.0197E-03    -38.2421E-03     19.4141E-03    -39.2043E-03     76.9872E-03    -38.6753E-03     19.4521E-03
            1243     1.73256E-03     127.034E-03    -148.446E+06    -93.1728E+06    -147.733E+06     1.22784E+06    -40.4220E-03     79.2418E-03    -38.8198E-03     36.6797E-03    -40.8128E-03     79.2012E-03    -39.2081E-03     36.7168E-03
            1244     2.59661E-03     127.067E-03    -134.114E+06    -94.9683E+06    -130.740E+06    -4.51311E+06    -43.0953E-03     82.7455E-03    -39.6503E-03     56.4789E-03    -43.4330E-03     82.6475E-03    -39.9718E-03     56.4509E-03
            1245     3.45800E-03     127.116E-03    -119.883E+06    -95.6819E+06    -114.334E+06    -11.9361E+06    -46.6032E-03     87.3119E-03    -40.7087E-03     77.8358E-03    -46.8896E-03     87.1636E-03    -40.9678E-03     77.7152E-03
            1246     4.31696E-03     127.184E-03    -105.549E+06    -86.0928E+06    -96.6213E+06    -17.2340E+06    -50.8894E-03     92.8422E-03    -41.9528E-03     100.514E-03    -51.1449E-03     92.6970E-03    -42.1580E-03     100.316E-03
            1247     5.17285E-03     127.272E-03    -92.2744E+06    -78.4735E+06    -78.9340E+06    -23.5802E+06    -56.1161E-03     99.4965E-03    -43.3805E-03     124.673E-03    -56.3531E-03     99.3562E-03    -43.5275E-03     124.361E-03
            1248     6.02566E-03     127.383E-03    -80.2038E+06    -75.4666E+06    -62.7213E+06    -28.1679E+06    -62.5675E-03     107.569E-03    -45.0018E-03     150.457E-03    -62.8044E-03     107.436E-03    -45.0897E-03     150.016E-03
            1249     6.87394E-03     127.521E-03    -69.8220E+06    -73.7507E+06    -47.7297E+06    -29.5486E+06    -70.6000E-03     117.449E-03    -46.8492E-03     178.027E-03    -70.8825E-03     117.362E-03    -46.8797E-03     177.430E-03
            1250     7.71718E-03     127.687E-03    -60.6100E+06    -67.8478E+06    -33.2992E+06    -32.0944E+06    -80.4448E-03     129.404E-03    -48.9590E-03     207.540E-03    -80.8574E-03     129.459E-03    -48.9393E-03     206.656E-03
            1251     8.55434E-03     127.886E-03    -51.6572E+06    -56.5783E+06    -19.4429E+06    -34.9492E+06    -92.4983E-03     143.873E-03    -51.3745E-03     238.806E-03    -93.1775E-03     144.227E-03    -51.3148E-03     237.435E-03
            1252     9.38403E-03     128.121E-03    -42.3002E+06    -50.2541E+06    -6.65459E+06    -36.0638E+06    -107.390E-03     161.565E-03    -54.1755E-03     271.365E-03    -108.538E-03     162.408E-03    -54.0745E-03     269.202E-03
            1253     10.2042E-03     128.397E-03    -34.5959E+06    -42.9731E+06     4.47836E+06    -38.0668E+06    -125.363E-03     182.802E-03    -57.4384E-03     304.261E-03    -127.329E-03     184.485E-03    -57.3035E-03     300.757E-03
            1254     11.0129E-03     128.715E-03    -30.6725E+06    -35.5844E+06     11.4293E+06    -42.1236E+06    -146.836E-03     208.070E-03    -61.2344E-03     339.157E-03    -150.233E-03     211.207E-03    -61.0812E-03     333.356E-03
            1255     11.8083E-03     129.085E-03    -26.8615E+06    -29.2987E+06     17.2739E+06    -42.4028E+06    -172.452E-03     238.080E-03    -65.6282E-03     381.168E-03    -178.448E-03     243.837E-03    -65.4604E-03     371.420E-03
            1256     12.5887E-03     129.524E-03    -20.9264E+06    -14.3775E+06     22.5680E+06    -37.1263E+06    -200.787E-03     271.393E-03    -70.6067E-03     429.406E-03    -211.347E-03     281.775E-03    -70.4427E-03     413.149E-03
            1257     13.3528E-03     130.036E-03    -15.2440E+06     23.5094E+06     36.0119E+06    -27.7051E+06    -228.727E-03     304.909E-03    -76.1825E-03     472.145E-03    -246.240E-03     322.363E-03    -76.0144E-03     446.467E-03
            1258     14.1013E-03     130.614E-03    -12.5785E+06     78.9714E+06     70.8577E+06    -20.2722E+06    -253.520E-03     336.029E-03    -82.5086E-03     489.894E-03    -279.131E-03     361.691E-03    -82.2505E-03     453.125E-03
            1259     14.8208E-03     131.212E-03    -10.2534E+06     87.2714E+06     97.7478E+06    -14.6132E+06    -274.829E-03     364.504E-03    -89.6748E-03     475.084E-03    -307.496E-03     397.188E-03    -89.2978E-03     427.607E-03
            1260     15.5212E-03     131.781E-03    -8.05440E+06     61.8144E+06     111.490E+06    -7.77127E+06    -283.751E-03     381.294E-03    -97.5426E-03     354.939E-03    -307.293E-03     404.722E-03    -97.0631E-03     314.406E-03
            1261     869.619E-06     128.033E-03    -167.186E+06    -93.9100E+06    -166.316E+06    -7.99959E+06    -35.3650E-03     70.3346E-03    -34.9697E-03     17.0400E-03    -35.8230E-03     70.3482E-03    -35.4227E-03     16.9433E-03
            1262     1.73867E-03     128.055E-03    -158.409E+06    -85.7846E+06    -156.381E+06    -13.6129E+06    -37.0414E-03     72.5140E-03    -35.4727E-03     32.6582E-03    -37.4805E-03     72.5394E-03    -35.9005E-03     32.4959E-03
            1263     2.60563E-03     128.091E-03    -146.797E+06    -82.1341E+06    -144.135E+06    -19.5111E+06    -39.7551E-03     76.0491E-03    -36.2940E-03     51.1001E-03    -40.1566E-03     76.0557E-03    -36.6827E-03     50.8698E-03
            1264     3.47047E-03     128.145E-03    -134.258E+06    -81.1411E+06    -130.953E+06    -27.8451E+06    -43.4228E-03     80.8071E-03    -37.3843E-03     71.7139E-03    -43.7791E-03     80.7785E-03    -37.7267E-03     71.3823E-03
            1265     4.33197E-03     128.219E-03    -119.969E+06    -75.4638E+06    -117.090E+06    -35.1925E+06    -48.0546E-03     86.7567E-03    -38.7021E-03     94.3488E-03    -48.3665E-03     86.7146E-03    -39.0042E-03     93.9215E-03
            1266     5.19008E-03     128.313E-03    -105.492E+06    -67.0535E+06    -98.4787E+06    -39.2400E+06    -53.8011E-03     94.0661E-03    -40.2650E-03     118.822E-03    -54.0854E-03     94.0241E-03    -40.5072E-03     118.324E-03
            1267     6.04387E-03     128.432E-03    -92.2834E+06    -68.7395E+06    -75.3005E+06    -42.3529E+06    -60.9269E-03     103.035E-03    -42.1077E-03     145.031E-03    -61.1990E-03     102.955E-03    -42.2507E-03     144.443E-03
            1268     6.89328E-03     128.578E-03    -77.4599E+06    -70.3730E+06    -54.3918E+06    -43.4138E+06    -69.6145E-03     113.815E-03    -44.2009E-03     172.973E-03    -69.8965E-03     113.732E-03    -44.2585E-03     172.260E-03
            1269     7.73703E-03     128.756E-03    -62.4238E+06    -62.1542E+06    -35.8046E+06    -43.4085E+06    -80.1446E-03     126.704E-03    -46.5596E-03     202.766E-03    -80.5088E-03     126.732E-03    -46.5579E-03     201.839E-03
            1270     8.57416E-03     128.967E-03    -51.1514E+06    -53.5779E+06    -17.6495E+06    -42.1705E+06    -93.1276E-03     142.389E-03    -49.2611E-03     234.625E-03    -93.7039E-03     142.648E-03    -49.1974E-03     233.319E-03
            1271     9.40278E-03     129.218E-03    -44.9527E+06    -46.0567E+06    -3.61870E+06    -41.5295E+06    -109.056E-03     161.417E-03    -52.3616E-03     268.148E-03    -110.050E-03     162.103E-03    -52.2478E-03     266.144E-03
            1272     10.2215E-03     129.512E-03    -40.7838E+06    -36.7264E+06     6.69541E+06    -42.9499E+06    -128.155E-03     184.088E-03    -55.9332E-03     302.066E-03    -129.877E-03     185.522E-03    -55.7874E-03     298.825E-03
            1273     11.0283E-03     129.853E-03    -36.3230E+06    -28.2050E+06     14.8916E+06    -44.3972E+06    -151.010E-03     211.072E-03    -60.0623E-03     337.905E-03    -154.005E-03     213.803E-03    -59.8943E-03     332.500E-03
            1274     11.8202E-03     130.249E-03    -32.6757E+06    -27.7579E+06     19.1830E+06    -46.2933E+06    -177.797E-03     242.597E-03    -64.7998E-03     379.773E-03    -183.091E-03     247.631E-03    -64.6163E-03     370.549E-03
            1275     12.5973E-03     130.716E-03    -27.9570E+06    -23.3642E+06     24.0614E+06    -46.5294E+06    -207.282E-03     277.428E-03    -70.1458E-03     426.239E-03    -216.573E-03     286.479E-03    -69.9511E-03     410.676E-03
            1276     13.3585E-03     131.260E-03    -21.4407E+06    -3.03785E+06     35.6090E+06    -39.0168E+06    -236.596E-03     312.681E-03    -76.0847E-03     469.686E-03    -252.176E-03     328.085E-03    -75.8711E-03     444.720E-03
            1277     14.0977E-03     131.874E-03    -16.7766E+06     59.0727E+06     66.4366E+06    -19.8878E+06    -259.772E-03     342.343E-03    -82.5710E-03     498.151E-03    -283.455E-03     365.999E-03    -82.3001E-03     462.118E-03
            1278     14.8263E-03     132.521E-03    -16.1188E+06     91.1220E+06     100.428E+06    -11.2050E+06    -279.620E-03     369.267E-03    -89.6467E-03     505.482E-03    -312.767E-03     402.413E-03    -89.2534E-03     456.595E-03
            1279     15.5253E-03     133.157E-03    -9.65524E+06     48.5406E+06     120.861E+06    -12.4472E+06    -290.256E-03     387.690E-03    -97.4342E-03     386.010E-03    -315.432E-03     412.680E-03    -96.8862E-03     342.732E-03
            1280     869.143E-06     129.049E-03    -126.011E+06    -74.7629E+06    -123.356E+06    -10.5909E+06    -36.1623E-03     72.0060E-03    -35.8436E-03     13.9651E-03    -36.5055E-03     71.9937E-03    -36.1693E-03     13.8268E-03
            1281     1.73730E-03     129.072E-03    -123.826E+06    -69.5402E+06    -117.530E+06    -18.0215E+06    -37.4756E-03     73.7440E-03    -36.2683E-03     27.0783E-03    -37.8241E-03     73.7459E-03    -36.5756E-03     26.8437E-03
            1282     2.60461E-03     129.112E-03    -120.568E+06    -64.9511E+06    -111.861E+06    -25.7309E+06    -39.6223E-03     76.5537E-03    -36.9314E-03     42.5827E-03    -39.9691E-03     76.5655E-03    -37.2217E-03     42.2496E-03
            1283     3.46973E-03     129.170E-03    -116.166E+06    -60.7953E+06    -105.705E+06    -34.8269E+06    -42.6166E-03     80.4370E-03    -37.8204E-03     60.5030E-03    -42.9557E-03     80.4540E-03    -38.0923E-03     60.0541E-03
            1284     4.33269E-03     129.248E-03    -111.601E+06    -58.2113E+06    -99.1573E+06    -44.3628E+06    -46.7031E-03     85.6466E-03    -38.9435E-03     81.0674E-03    -47.0327E-03     85.6607E-03    -39.1930E-03     80.4949E-03
            1285     5.19216E-03     129.349E-03    -104.610E+06    -55.4250E+06    -89.6877E+06    -50.5506E+06    -52.1873E-03     92.5263E-03    -40.3390E-03     104.386E-03    -52.5026E-03     92.5340E-03    -40.5554E-03     103.725E-03
            1286     6.04728E-03     129.476E-03    -94.4671E+06    -58.2178E+06    -74.1089E+06    -53.8384E+06    -59.3659E-03     101.435E-03    -42.0693E-03     130.405E-03    -59.6619E-03     101.405E-03    -42.2185E-03     129.672E-03
            1287     6.89644E-03     129.631E-03    -84.2950E+06    -63.3664E+06    -60.1264E+06    -57.4483E+06    -68.4358E-03     112.568E-03    -44.1323E-03     158.700E-03    -68.7297E-03     112.514E-03    -44.2188E-03     157.846E-03
            1288     7.73951E-03     129.819E-03    -73.3620E+06    -58.8103E+06    -43.9450E+06    -58.7567E+06    -79.6747E-03     126.240E-03    -46.5651E-03     188.968E-03    -80.0266E-03     126.252E-03    -46.5931E-03     187.936E-03
            1289     8.57499E-03     130.043E-03    -60.7529E+06    -57.1483E+06    -22.8763E+06    -54.7681E+06    -93.5173E-03     142.962E-03    -49.4446E-03     221.024E-03    -94.0083E-03     143.104E-03    -49.3881E-03     219.724E-03
            1290     9.40185E-03     130.309E-03    -49.4258E+06    -47.8317E+06    -3.78554E+06    -46.7764E+06    -110.238E-03     163.018E-03    -52.7801E-03     254.317E-03    -111.030E-03     163.480E-03    -52.6580E-03     252.533E-03
            1291     10.2177E-03     130.621E-03    -42.7779E+06    -29.9517E+06     11.1913E+06    -43.5782E+06    -130.073E-03     186.695E-03    -56.6229E-03     287.981E-03    -131.437E-03     187.774E-03    -56.4615E-03     285.194E-03
            1292     11.0204E-03     130.984E-03    -40.2574E+06    -22.4579E+06     20.8112E+06    -44.5401E+06    -153.584E-03     214.640E-03    -61.0553E-03     323.391E-03    -155.952E-03     216.732E-03    -60.8604E-03     318.737E-03
            1293     11.8090E-03     131.406E-03    -37.4482E+06    -17.8770E+06     28.9918E+06    -47.9544E+06    -181.061E-03     247.190E-03    -66.1296E-03     362.981E-03    -185.248E-03     251.107E-03    -65.9045E-03     354.940E-03
            1294     12.5805E-03     131.899E-03    -35.7411E+06    -22.2389E+06     33.3108E+06    -51.0986E+06    -210.679E-03     282.510E-03    -71.8316E-03     406.215E-03    -217.987E-03     289.527E-03    -71.5810E-03     392.565E-03
            1295     13.3338E-03     132.471E-03    -37.6658E+06    -24.2415E+06     37.4880E+06    -47.6139E+06    -237.587E-03     315.605E-03    -78.0178E-03     449.765E-03    -249.867E-03     327.566E-03    -77.7406E-03     428.009E-03
            1296     14.0784E-03     133.116E-03    -29.1942E+06     15.2309E+06     61.4405E+06    -41.8839E+06    -255.016E-03     339.444E-03    -84.4279E-03     483.285E-03    -274.108E-03     358.317E-03    -84.1005E-03     452.025E-03
            1297     14.8115E-03     133.794E-03    -2.18968E+06     59.9293E+06     95.6435E+06    -17.8602E+06    -271.608E-03     362.588E-03    -90.9799E-03     512.129E-03    -301.427E-03     392.354E-03    -90.5854E-03     467.249E-03
            1298     15.5289E-03     134.519E-03     9.90416E+06     50.8322E+06     139.039E+06     7.69373E+06    -280.795E-03     378.922E-03    -98.1272E-03     413.951E-03    -306.033E-03     404.005E-03    -97.5201E-03     371.657E-03
            1299     864.654E-06     130.070E-03    -84.5426E+06    -54.3416E+06    -81.9951E+06    -8.75198E+06    -41.2829E-03     82.2192E-03    -40.9363E-03     10.2224E-03    -41.5107E-03     82.1877E-03    -41.1449E-03     10.0959E-03
            1300     1.72906E-03     130.095E-03    -82.4736E+06    -50.1405E+06    -76.4300E+06    -16.4374E+06    -42.3940E-03     83.7936E-03    -41.3996E-03     19.7098E-03    -42.6275E-03     83.7730E-03    -41.5895E-03     19.4714E-03
            1301     2.59176E-03     130.137E-03    -78.7400E+06    -45.6047E+06    -67.8809E+06    -24.5359E+06    -44.0342E-03     86.0670E-03    -42.0328E-03     30.9549E-03    -44.2705E-03     86.0539E-03    -42.1919E-03     30.5988E-03
            1302     3.45349E-03     130.197E-03    -75.4975E+06    -40.4753E+06    -58.6234E+06    -32.2009E+06    -46.2908E-03     89.1320E-03    -42.8412E-03     44.1511E-03    -46.5355E-03     89.1301E-03    -42.9662E-03     43.6822E-03
            1303     4.31301E-03     130.279E-03    -73.2642E+06    -37.7946E+06    -49.9325E+06    -39.8178E+06    -49.3169E-03     93.1571E-03    -43.8402E-03     59.7983E-03    -49.5721E-03     93.1581E-03    -43.9288E-03     59.2160E-03
            1304     5.16999E-03     130.384E-03    -72.7988E+06     -38.797E+06    -46.3061E+06    -47.1258E+06    -53.4093E-03     98.4452E-03    -45.0359E-03     78.6650E-03    -53.6726E-03     98.4426E-03    -45.1056E-03     77.9730E-03
            1305     6.02343E-03     130.517E-03    -73.3639E+06    -44.0764E+06    -46.8291E+06    -52.5177E+06    -59.0699E-03     105.549E-03    -46.4791E-03     101.247E-03    -59.3371E-03     105.532E-03    -46.5430E-03     100.466E-03
            1306     6.87248E-03     130.681E-03    -72.6504E+06    -48.0047E+06    -44.6427E+06    -57.5679E+06    -66.9781E-03     115.246E-03    -48.2680E-03     127.497E-03    -67.2586E-03     115.226E-03    -48.3163E-03     126.611E-03
            1307     7.71438E-03     130.879E-03    -70.0293E+06    -48.8956E+06    -37.4805E+06    -63.1345E+06    -77.7276E-03     128.231E-03    -50.5038E-03     157.097E-03    -78.0476E-03     128.238E-03    -50.5187E-03     156.047E-03
            1308     8.54770E-03     131.116E-03    -65.3012E+06    -58.3147E+06    -28.9386E+06    -63.7694E+06    -91.7188E-03     144.993E-03    -53.2742E-03     189.243E-03    -92.1090E-03     145.030E-03    -53.2397E-03     187.983E-03
            1309     9.37016E-03     131.396E-03    -55.8672E+06    -57.2426E+06    -12.6669E+06    -59.0914E+06    -108.901E-03     165.549E-03    -56.6477E-03     222.566E-03    -109.457E-03     165.742E-03    -56.5470E-03     220.968E-03
            1310     10.1810E-03     131.725E-03    -45.1673E+06    -36.9222E+06     11.7428E+06    -48.0268E+06    -129.251E-03     189.920E-03    -60.6696E-03     255.573E-03    -130.169E-03     190.516E-03    -60.4918E-03     253.358E-03
            1311     10.9786E-03     132.107E-03    -37.6620E+06    -15.6901E+06     32.6867E+06    -41.7138E+06    -153.155E-03     218.528E-03    -65.3730E-03     288.444E-03    -154.749E-03     219.842E-03    -65.1322E-03     284.882E-03
            1312     11.7597E-03     132.551E-03    -34.9315E+06    -7.35617E+06     45.7746E+06    -41.0075E+06    -179.926E-03     250.707E-03    -70.7810E-03     323.581E-03    -182.718E-03     253.221E-03    -70.4908E-03     317.481E-03
            1313     12.5230E-03     133.068E-03    -34.4797E+06    -10.0031E+06     54.1766E+06    -41.6378E+06    -206.719E-03     283.513E-03    -76.7936E-03     362.282E-03    -211.561E-03     288.044E-03    -76.4583E-03     351.995E-03
            1314     13.2735E-03     133.659E-03    -24.0750E+06    -21.9003E+06     63.4719E+06    -40.1936E+06    -228.101E-03     311.216E-03    -83.1153E-03     402.340E-03    -236.143E-03     318.914E-03    -82.7313E-03     386.164E-03
            1315     14.0122E-03     134.316E-03    -9.39205E+06     13.9374E+06     85.7311E+06    -39.6695E+06    -239.983E-03     329.333E-03    -89.3505E-03     435.822E-03    -252.977E-03     342.098E-03    -88.9284E-03     412.155E-03
            1316     14.7520E-03     135.010E-03    -17.9271E+06     2.82134E+06     65.0249E+06    -36.1531E+06    -247.267E-03     342.340E-03    -95.0726E-03     484.085E-03    -269.538E-03     364.379E-03    -94.7256E-03     449.544E-03
            1317     15.4798E-03     135.788E-03    -21.9799E+06    -4.12657E+06     83.3141E+06    -14.8514E+06    -240.879E-03     341.294E-03    -100.416E-03     450.065E-03    -263.572E-03     363.682E-03    -99.9615E-03     415.575E-03
            1318     856.896E-06     131.107E-03    -44.2018E+06    -35.8989E+06    -43.7833E+06    -7.93475E+06    -51.2229E-03     102.171E-03    -50.9485E-03     5.40804E-03    -51.3359E-03     102.114E-03    -51.0513E-03     5.27159E-03
            1319     1.71203E-03     131.133E-03    -43.2891E+06    -31.3702E+06    -38.2786E+06    -14.6462E+06    -52.4076E-03     103.885E-03    -51.4777E-03     10.1199E-03    -52.5331E-03     103.842E-03    -51.5608E-03     9.86499E-03
            1320     2.56677E-03     131.176E-03    -42.5638E+06    -28.1556E+06    -29.6759E+06    -20.7805E+06    -54.0091E-03     106.263E-03    -52.2538E-03     15.6203E-03    -54.1524E-03     106.226E-03    -52.2997E-03     15.2487E-03
            1321     3.41916E-03     131.238E-03    -41.5237E+06    -23.6085E+06    -21.8011E+06    -26.2251E+06    -55.8081E-03     109.007E-03    -53.1988E-03     22.2529E-03    -55.9702E-03     108.985E-03    -53.2134E-03     21.7689E-03
            1322     4.26961E-03     131.322E-03    -41.2842E+06    -20.4832E+06    -16.5734E+06    -31.4162E+06    -57.8193E-03     112.092E-03    -54.2727E-03     31.0100E-03    -58.0008E-03     112.086E-03    -54.2660E-03     30.4154E-03
            1323     5.11776E-03     131.429E-03    -41.9068E+06    -21.8308E+06    -12.6560E+06    -36.0751E+06    -60.3074E-03     115.799E-03    -55.4918E-03     42.5361E-03    -60.5071E-03     115.792E-03    -55.4626E-03     41.8386E-03
            1324     5.96330E-03     131.565E-03    -42.8057E+06    -27.4934E+06    -10.0902E+06    -41.1185E+06    -63.6696E-03     120.566E-03    -56.8959E-03     57.4857E-03    -63.8831E-03     120.542E-03    -56.8445E-03     56.6829E-03
            1325     6.80495E-03     131.732E-03    -43.5838E+06    -30.7265E+06    -8.06118E+06    -46.6288E+06    -68.6070E-03     127.160E-03    -58.5531E-03     76.5542E-03    -68.8395E-03     127.136E-03    -58.4857E-03     75.6418E-03
            1326     7.64178E-03     131.937E-03    -46.8592E+06    -32.6543E+06    -7.93501E+06    -50.3688E+06    -76.0443E-03     136.617E-03    -60.5727E-03     99.9788E-03    -76.3140E-03     136.613E-03    -60.4970E-03     98.9672E-03
            1327     8.47090E-03     132.183E-03    -51.3408E+06    -44.0915E+06    -11.3959E+06    -55.2699E+06    -86.8306E-03     149.919E-03    -63.0886E-03     127.743E-03    -87.1400E-03     149.912E-03    -63.0072E-03     126.581E-03
            1328     9.28975E-03     132.476E-03    -54.0185E+06    -52.5434E+06    -8.48075E+06    -60.1181E+06    -101.447E-03     167.696E-03    -66.2496E-03     158.450E-03    -101.833E-03     167.721E-03    -66.1375E-03     157.052E-03
            1329     10.0952E-03     132.820E-03    -49.9926E+06    -52.3507E+06     3.41000E+06    -57.1337E+06    -120.334E-03     190.503E-03    -70.1696E-03     189.796E-03    -120.863E-03     190.655E-03    -70.0042E-03     188.062E-03
            1330     10.8839E-03     133.221E-03    -41.3737E+06    -27.1199E+06     30.0858E+06    -46.5141E+06    -143.076E-03     218.023E-03    -74.9466E-03     220.920E-03    -143.935E-03     218.549E-03    -74.6969E-03     218.537E-03
            1331     11.6538E-03     133.683E-03    -34.3969E+06    -9.11810E+06     62.4758E+06    -36.3595E+06    -167.566E-03     248.140E-03    -80.5738E-03     252.445E-03    -169.027E-03     249.263E-03    -80.1983E-03     248.707E-03
            1332     12.4085E-03     134.212E-03    -22.6383E+06     3.12964E+06     84.4417E+06    -36.5402E+06    -189.803E-03     276.563E-03    -86.7605E-03     284.977E-03    -192.261E-03     278.700E-03    -86.3100E-03     278.747E-03
            1333     13.1490E-03     134.812E-03    -10.8751E+06    -13.6668E+06     80.7295E+06    -39.7489E+06    -204.200E-03     297.281E-03    -93.0807E-03     315.697E-03    -208.226E-03     300.970E-03    -92.6415E-03     305.854E-03
            1334     13.8900E-03     135.467E-03    -17.2629E+06     343.458E+03     80.5888E+06    -32.7547E+06    -208.788E-03     307.934E-03    -99.1454E-03     345.311E-03    -215.586E-03     314.423E-03    -98.7180E-03     330.961E-03
            1335     14.6218E-03     136.172E-03    -20.9645E+06     7.67562E+06     86.4358E+06    -19.1725E+06    -198.628E-03     302.974E-03    -104.346E-03     388.122E-03    -210.365E-03     314.385E-03    -103.895E-03     369.117E-03
            1336     15.4023E-03     136.917E-03    -9.97197E+06    -19.2836E+06     64.6624E+06    -20.5408E+06    -149.081E-03     256.109E-03    -107.028E-03     415.296E-03    -162.300E-03     269.075E-03    -106.662E-03     398.375E-03
            1337     843.031E-06     132.170E-03    -9.37728E+06    -19.0068E+06    -8.02907E+06    -5.95698E+06    -67.1867E-03     134.214E-03    -67.0269E-03    -447.244E-06    -67.2105E-03     134.128E-03    -67.0259E-03    -583.379E-06
            1338     1.68612E-03     132.198E-03    -10.9815E+06    -16.5348E+06    -3.73341E+06    -10.6185E+06    -68.9392E-03     136.711E-03    -67.7720E-03    -2.88927E-03    -68.9829E-03     136.632E-03    -67.7508E-03    -3.14940E-03
            1339     2.52576E-03     132.243E-03    -10.1432E+06    -14.0942E+06     3.20286E+06    -15.0338E+06    -70.3780E-03     139.250E-03    -68.8720E-03    -5.14800E-03    -70.4316E-03     139.172E-03    -68.8209E-03    -5.54066E-03
            1340     3.36350E-03     132.307E-03    -8.96329E+06    -10.5693E+06     8.49326E+06    -18.6366E+06    -71.7508E-03     141.823E-03    -70.0723E-03    -6.18064E-03    -71.8133E-03     141.754E-03    -70.0015E-03    -6.69886E-03
            1341     4.19893E-03     132.391E-03    -9.08842E+06    -8.38049E+06     13.8675E+06    -21.0343E+06    -73.2158E-03     144.631E-03    -71.4156E-03    -5.86105E-03    -73.2939E-03     144.567E-03    -71.3209E-03    -6.49265E-03
            1342     5.03157E-03     132.499E-03    -10.6693E+06    -8.81019E+06     20.0050E+06    -23.4307E+06    -74.7209E-03     147.665E-03    -72.9444E-03    -4.00984E-03    -74.8214E-03     147.595E-03    -72.8161E-03    -4.75927E-03
            1343     5.86070E-03     132.634E-03    -13.3787E+06    -12.4198E+06     23.8912E+06    -26.5721E+06    -76.2773E-03     150.948E-03    -74.6708E-03    -47.2404E-06    -76.4009E-03     150.863E-03    -74.5139E-03    -925.195E-06
            1344     6.68614E-03     132.801E-03    -18.2140E+06    -15.4278E+06     24.7736E+06    -30.1083E+06    -78.0779E-03     154.702E-03    -76.6240E-03     6.96463E-03    -78.2349E-03     154.616E-03    -76.4513E-03     5.95962E-03
            1345     7.50645E-03     133.005E-03    -22.7173E+06    -19.5384E+06     25.5079E+06    -31.9987E+06    -80.6876E-03     159.572E-03    -78.8847E-03     17.6879E-03    -80.8785E-03     159.484E-03    -78.6959E-03     16.5871E-03
            1346     8.32056E-03     133.252E-03    -25.1920E+06    -22.7585E+06     27.7461E+06    -35.9073E+06    -84.8976E-03     166.459E-03    -81.5614E-03     32.4483E-03    -85.1196E-03     166.373E-03    -81.3531E-03     31.2277E-03
            1347     9.12644E-03     133.548E-03    -26.9849E+06    -33.0422E+06     27.3688E+06    -40.5499E+06    -91.6165E-03     176.402E-03    -84.7851E-03     50.8328E-03    -91.8578E-03     176.292E-03    -84.5612E-03     49.4717E-03
            1348     9.92071E-03     133.900E-03    -29.9282E+06    -43.1586E+06     27.0342E+06    -44.1136E+06    -101.513E-03     190.217E-03    -88.7033E-03     72.5147E-03    -101.793E-03     190.104E-03    -88.4622E-03     70.9911E-03
            1349     10.6994E-03     134.311E-03    -29.5159E+06    -40.4887E+06     41.6504E+06    -41.6375E+06    -114.419E-03     207.873E-03    -93.4543E-03     97.1215E-03    -114.793E-03     207.828E-03    -93.1445E-03     95.4235E-03
            1350     11.4620E-03     134.785E-03    -17.1220E+06    -18.9830E+06     80.5731E+06    -34.4863E+06    -129.404E-03     228.472E-03    -99.0687E-03     122.910E-03    -129.955E-03     228.617E-03    -98.6135E-03     120.846E-03
            1351     12.2039E-03     135.323E-03     408.902E+03     8.68853E+06     111.178E+06    -29.8199E+06    -142.162E-03     247.406E-03    -105.244E-03     147.685E-03    -143.006E-03     247.913E-03    -104.701E-03     144.805E-03
            1352     12.9345E-03     135.917E-03    -2.86635E+06     6.59125E+06     103.187E+06    -19.7481E+06    -147.945E-03     259.448E-03    -111.504E-03     170.972E-03    -149.313E-03     260.485E-03    -110.993E-03     166.836E-03
            1353     13.6512E-03     136.555E-03    -8.56867E+06    -1.76388E+06     109.455E+06    -9.07941E+06    -144.428E-03     261.957E-03    -117.529E-03     193.688E-03    -146.624E-03     263.739E-03    -116.966E-03     188.103E-03
            1354     14.3868E-03     137.230E-03     19.2738E+06     10.5449E+06     133.089E+06    -5.81124E+06    -119.655E-03     241.887E-03    -122.232E-03     227.657E-03    -122.924E-03     244.839E-03    -121.610E-03     221.327E-03
            1355     15.1201E-03     137.901E-03     19.7346E+06     9.25553E+06     105.906E+06     2.44231E+06    -36.4954E-03     159.494E-03    -122.999E-03     244.791E-03    -39.6994E-03     162.426E-03    -122.511E-03     241.620E-03
            1356     825.394E-06     133.275E-03     22.4354E+06    -7.39605E+06     25.0537E+06    -3.69846E+06    -91.6508E-03     183.887E-03    -92.2360E-03    -12.0063E-03    -91.6027E-03     183.739E-03    -92.1326E-03    -12.1457E-03
            1357     1.64551E-03     133.307E-03     22.9778E+06    -6.02475E+06     29.3898E+06    -6.21010E+06    -92.4308E-03     185.069E-03    -92.6386E-03    -21.5954E-03    -92.3790E-03     184.924E-03    -92.5163E-03    -21.8398E-03
            1358     2.46509E-03     133.353E-03     23.3935E+06    -4.55503E+06     32.7598E+06    -8.37777E+06    -93.6601E-03     187.260E-03    -93.6004E-03    -31.2274E-03    -93.6090E-03     187.111E-03    -93.4639E-03    -31.5835E-03
            1359     3.28250E-03     133.419E-03     21.6801E+06    -2.64848E+06     37.9606E+06    -9.51223E+06    -95.2339E-03     190.224E-03    -94.9906E-03    -41.1557E-03    -95.1972E-03     190.069E-03    -94.8284E-03    -41.6181E-03
            1360     4.09628E-03     133.505E-03     19.8027E+06    -1.47958E+06     45.1692E+06    -9.65819E+06    -96.8557E-03     193.648E-03    -96.7921E-03    -51.7683E-03    -96.8341E-03     193.477E-03    -96.5928E-03    -52.3338E-03
            1361     4.90562E-03     133.613E-03     17.7449E+06    -1.27082E+06     51.3198E+06    -9.33735E+06    -98.1480E-03     197.116E-03    -98.9680E-03    -62.8475E-03    -98.1377E-03     196.921E-03    -98.7353E-03    -63.5194E-03
            1362     5.71002E-03     133.748E-03     15.2181E+06    -2.02279E+06     56.1689E+06    -9.72783E+06    -98.8105E-03     200.317E-03    -101.507E-03    -74.1661E-03    -98.8086E-03     200.092E-03    -101.245E-03    -74.9629E-03
            1363     6.50834E-03     133.913E-03     12.8906E+06    -5.07227E+06     60.5955E+06    -9.65495E+06    -98.4230E-03     202.843E-03    -104.420E-03    -85.3135E-03    -98.4229E-03     202.570E-03    -104.129E-03    -86.2332E-03
            1364     7.30028E-03     134.112E-03     11.4212E+06    -6.78894E+06     65.4258E+06    -11.6853E+06    -96.6163E-03     204.343E-03    -107.727E-03    -95.3533E-03    -96.6151E-03     204.022E-03    -107.407E-03    -96.4159E-03
            1365     8.08432E-03     134.351E-03     9.16910E+06    -8.61728E+06     70.0736E+06    -12.4056E+06    -93.2682E-03     204.741E-03    -111.473E-03    -103.412E-03    -93.2709E-03     204.374E-03    -111.124E-03    -104.583E-03
            1366     8.85826E-03     134.638E-03     6.35750E+06    -13.0384E+06     74.7429E+06    -14.6187E+06    -88.2885E-03     203.997E-03    -115.708E-03    -107.529E-03    -88.2958E-03     203.577E-03    -115.325E-03    -108.811E-03
            1367     9.62019E-03     134.977E-03     2.62172E+06    -23.9260E+06     78.8681E+06    -14.5389E+06    -81.9606E-03     202.416E-03    -120.455E-03    -105.069E-03    -81.9730E-03     201.926E-03    -120.030E-03    -106.406E-03
            1368     10.3707E-03     135.374E-03     6.00742E+06    -24.0006E+06     87.3510E+06    -20.4881E+06    -75.3569E-03     201.080E-03    -125.723E-03    -94.7727E-03    -75.3763E-03     200.579E-03    -125.260E-03    -96.1946E-03
            1369     11.1055E-03     135.833E-03     5.17707E+06    -23.4117E+06     96.1613E+06    -19.8795E+06    -68.9914E-03     200.503E-03    -131.512E-03    -76.4856E-03    -69.0626E-03     200.033E-03    -131.005E-03    -77.8498E-03
            1370     11.8267E-03     136.357E-03     4.19138E+06     2.77951E+06     104.673E+06    -22.8620E+06    -61.2916E-03     198.843E-03    -137.551E-03    -50.4507E-03    -61.4777E-03     198.582E-03    -137.038E-03    -51.7878E-03
            1371     12.5352E-03     136.929E-03    -5.16570E+06     1.06228E+06     108.148E+06    -4.44070E+06    -52.4004E-03     195.912E-03    -143.512E-03    -19.7396E-03    -52.7217E-03     195.761E-03    -142.965E-03    -20.8387E-03
            1372     13.2491E-03     137.547E-03     8.07068E+06     2.38872E+06     136.464E+06     4.93593E+06    -40.6376E-03     189.509E-03    -148.872E-03     18.9905E-03    -41.0575E-03     189.492E-03    -148.205E-03     17.8278E-03
            1373     13.9442E-03     138.185E-03     7.86594E+06     14.2976E+06     113.549E+06    -18.3122E+06    -8.88032E-03     160.651E-03    -151.771E-03     72.9646E-03    -9.34514E-03     160.841E-03    -151.235E-03     71.7610E-03
            1374     14.7608E-03     138.801E-03    -6.17673E+06    -3.01960E+06     64.5657E+06     1.41840E+06     48.2205E-03     102.510E-03    -150.730E-03     75.8704E-03     47.9418E-03     102.540E-03    -150.394E-03     75.6152E-03
            1375     15.2934E-03     69.0954E-03    -4.25327E+06     122.174E+06     96.4760E+06    -338.547E+03    -113.641E-03     225.538E-03    -111.898E-03     192.063E-03    -125.538E-03     237.575E-03    -111.586E-03     186.426E-03
            1376     14.4939E-03     68.7853E-03    -10.7591E+06     118.114E+06     97.0159E+06    -900.252E+03    -117.373E-03     229.298E-03    -111.926E-03     285.649E-03    -135.343E-03     247.369E-03    -111.596E-03     275.667E-03
            1377     13.6821E-03     68.4597E-03    -17.1703E+06     103.209E+06     90.1889E+06     1.01437E+06    -119.282E-03     231.271E-03    -111.989E-03     289.366E-03    -134.846E-03     246.879E-03    -111.662E-03     277.107E-03
            1378     12.8765E-03     68.1396E-03    -22.1894E+06     90.6401E+06     72.5490E+06     891.188E+03    -120.201E-03     232.194E-03    -111.993E-03     270.025E-03    -132.473E-03     244.499E-03    -111.729E-03     257.577E-03
            1379     12.0733E-03     67.8614E-03    -27.4721E+06     72.3731E+06     40.6234E+06     55.6356E+03    -118.635E-03     230.538E-03    -111.903E-03     230.720E-03    -126.987E-03     238.931E-03    -111.765E-03     219.960E-03
            1380     11.2671E-03     67.6288E-03    -32.0136E+06     47.0607E+06     17.9333E+06     724.470E+03    -117.011E-03     228.866E-03    -111.855E-03     193.802E-03    -122.547E-03     234.403E-03    -111.787E-03     184.894E-03
            1381     10.4622E-03     67.4330E-03    -35.8478E+06     225.946E+03     8.65278E+06     756.334E+03    -116.213E-03     228.109E-03    -111.896E-03     170.150E-03    -120.087E-03     231.832E-03    -111.801E-03     162.662E-03
            1382     9.65757E-03     67.2531E-03    -39.2974E+06    -51.4496E+06     1.95221E+06     516.417E+03    -115.923E-03     227.878E-03    -111.955E-03     155.771E-03    -118.766E-03     230.393E-03    -111.814E-03     149.378E-03
            1383     8.85233E-03     67.0876E-03    -42.5869E+06    -86.9407E+06    -1.52780E+06     742.043E+03    -115.636E-03     227.642E-03    -112.007E-03     143.328E-03    -117.756E-03     229.308E-03    -111.827E-03     137.870E-03
            1384     8.04796E-03     66.9353E-03    -45.8786E+06    -111.252E+06    -5.71049E+06     495.623E+03    -115.135E-03     227.177E-03    -112.042E-03     130.755E-03    -116.705E-03     228.206E-03    -111.843E-03     126.133E-03
            1385     7.24268E-03     66.7970E-03    -49.8730E+06    -132.627E+06    -11.3379E+06     203.277E+03    -114.643E-03     226.717E-03    -112.074E-03     118.265E-03    -115.793E-03     227.252E-03    -111.866E-03     114.373E-03
            1386     6.43788E-03     66.6724E-03    -54.2527E+06    -153.747E+06    -17.4560E+06     210.435E+03    -114.224E-03     226.330E-03    -112.106E-03     105.892E-03    -115.053E-03     226.471E-03    -111.891E-03     102.638E-03
            1387     5.63289E-03     66.5613E-03    -58.6683E+06    -170.582E+06    -24.5746E+06     85.0357E+03    -113.772E-03     225.898E-03    -112.126E-03     93.3649E-03    -114.354E-03     225.737E-03    -111.916E-03     90.6769E-03
            1388     4.82810E-03     66.4642E-03    -63.7559E+06    -190.891E+06    -31.9533E+06     202.389E+03    -113.373E-03     225.523E-03    -112.150E-03     80.6437E-03    -113.763E-03     225.102E-03    -111.941E-03     78.4569E-03
            1389     4.02340E-03     66.3812E-03    -69.4827E+06    -208.545E+06    -41.8442E+06     683.432E+03    -113.008E-03     225.165E-03    -112.157E-03     67.7380E-03    -113.251E-03     224.543E-03    -111.963E-03     66.0053E-03
            1390     3.21855E-03     66.3128E-03    -75.1316E+06    -218.021E+06    -54.0582E+06     182.836E+03    -112.664E-03     224.805E-03    -112.141E-03     54.6255E-03    -112.804E-03     224.061E-03    -111.986E-03     53.2905E-03
            1391     2.41382E-03     66.2588E-03    -79.9066E+06    -226.700E+06    -66.3376E+06    -290.541E+03    -112.427E-03     224.545E-03    -112.118E-03     41.3659E-03    -112.489E-03     223.711E-03    -112.005E-03     40.3893E-03
            1392     1.60929E-03     66.2199E-03    -83.6943E+06    -234.253E+06    -77.5605E+06    -115.300E+03    -112.257E-03     224.343E-03    -112.087E-03     28.0341E-03    -112.263E-03     223.446E-03    -112.013E-03     27.3927E-03
            1393     804.667E-06     66.1958E-03    -86.1539E+06    -238.923E+06    -84.6630E+06     420.823E+03    -112.199E-03     224.184E-03    -111.985E-03     15.3794E-03    -112.173E-03     223.250E-03    -111.937E-03     15.0422E-03
            1394     15.2970E-03     67.9138E-03    -4.79517E+06     120.800E+06     95.4231E+06    -45.8222E+03    -112.001E-03     223.909E-03    -111.908E-03     194.545E-03    -123.803E-03     235.846E-03    -111.599E-03     189.126E-03
            1395     14.4832E-03     67.5972E-03    -10.5435E+06     118.319E+06     97.0394E+06     1.61216E+06    -117.114E-03     229.111E-03    -111.997E-03     285.039E-03    -135.034E-03     247.132E-03    -111.668E-03     275.135E-03
            1396     13.6833E-03     67.2747E-03    -16.7638E+06     104.008E+06     90.5159E+06     41.2990E+03    -120.281E-03     232.311E-03    -112.030E-03     287.591E-03    -135.863E-03     247.940E-03    -111.704E-03     275.158E-03
            1397     12.8784E-03     66.9547E-03    -23.0353E+06     89.3703E+06     71.2454E+06    -414.762E+03    -120.335E-03     232.321E-03    -111.986E-03     269.370E-03    -132.591E-03     244.606E-03    -111.726E-03     256.882E-03
            1398     12.0718E-03     66.6747E-03    -28.1082E+06     72.3264E+06     40.5104E+06     769.497E+03    -118.813E-03     230.698E-03    -111.885E-03     230.568E-03    -127.189E-03     239.113E-03    -111.747E-03     219.784E-03
            1399     11.2677E-03     66.4442E-03    -32.3771E+06     47.3029E+06     17.9130E+06     1.06043E+06    -117.031E-03     228.857E-03    -111.826E-03     193.521E-03    -122.561E-03     234.388E-03    -111.758E-03     184.627E-03
            1400     10.4628E-03     66.2466E-03    -35.7110E+06      906.27E+03     8.73368E+06     703.522E+03    -116.106E-03     227.971E-03    -111.866E-03     169.913E-03    -119.981E-03     231.698E-03    -111.771E-03     162.427E-03
            1401     9.65771E-03     66.0684E-03    -39.2013E+06    -51.0610E+06     1.99336E+06     571.470E+03    -115.788E-03     227.720E-03    -111.932E-03     155.790E-03    -118.633E-03     230.238E-03    -111.791E-03     149.404E-03
            1402     8.85298E-03     65.9018E-03    -42.6496E+06    -86.8564E+06    -2.07058E+06    -35.3151E+03    -115.471E-03     227.465E-03    -111.994E-03     143.653E-03    -117.590E-03     229.130E-03    -111.816E-03     138.200E-03
            1403     8.04758E-03     65.7502E-03    -46.1394E+06    -111.252E+06    -6.17374E+06    -109.776E+03    -115.087E-03     227.128E-03    -112.041E-03     130.935E-03    -116.658E-03     228.158E-03    -111.844E-03     126.308E-03
            1404     7.24269E-03     65.6118E-03    -49.8952E+06    -132.582E+06    -11.5724E+06     87.4785E+03    -114.650E-03     226.728E-03    -112.078E-03     118.388E-03    -115.800E-03     227.263E-03    -111.871E-03     114.497E-03
            1405     6.43768E-03     65.4870E-03    -54.0374E+06    -153.680E+06    -17.2718E+06    -208.598E+03    -114.233E-03     226.344E-03    -112.111E-03     105.888E-03    -115.062E-03     226.485E-03    -111.896E-03     102.627E-03
            1406     5.63301E-03     65.3760E-03    -58.8556E+06    -170.609E+06    -24.4040E+06     130.244E+03    -113.794E-03     225.924E-03    -112.130E-03     93.3559E-03    -114.378E-03     225.764E-03    -111.919E-03     90.6675E-03
            1407     4.82810E-03     65.2789E-03    -64.3070E+06    -191.548E+06    -32.2772E+06     511.512E+03    -113.388E-03     225.539E-03    -112.151E-03     80.6539E-03    -113.779E-03     225.115E-03    -111.942E-03     78.4714E-03
            1408     4.02328E-03     65.1958E-03    -69.5102E+06    -208.311E+06    -41.3565E+06     335.928E+03    -113.025E-03     225.181E-03    -112.157E-03     67.7071E-03    -113.269E-03     224.559E-03    -111.961E-03     65.9702E-03
            1409     3.21869E-03     65.1274E-03    -74.2661E+06    -217.197E+06    -53.3292E+06     255.120E+03    -112.706E-03     224.836E-03    -112.130E-03     54.6429E-03    -112.844E-03     224.094E-03    -111.974E-03     53.3091E-03
            1410     2.41405E-03     65.0735E-03    -79.4659E+06    -226.726E+06    -66.7078E+06     186.987E+03    -112.449E-03     224.539E-03    -112.091E-03     41.3907E-03    -112.508E-03     223.705E-03    -111.980E-03     40.4206E-03
            1411     1.60929E-03     65.0345E-03    -83.9488E+06    -234.374E+06    -77.6459E+06     109.350E+03    -112.230E-03     224.283E-03    -112.053E-03     28.0160E-03    -112.237E-03     223.385E-03    -111.979E-03     27.3775E-03
            1412     804.607E-06     65.0106E-03    -86.4172E+06    -238.972E+06    -84.5811E+06     409.813E+03    -112.127E-03     224.111E-03    -111.983E-03     15.3153E-03    -112.103E-03     223.177E-03    -111.934E-03     14.9772E-03
            1413     15.2906E-03     66.7329E-03    -5.71528E+06     120.575E+06     94.9544E+06    -236.926E+03    -112.943E-03     224.895E-03    -111.952E-03     193.873E-03    -124.765E-03     236.850E-03    -111.644E-03     188.294E-03
            1414     14.4911E-03     66.4113E-03    -10.9761E+06     118.341E+06     98.0154E+06     218.512E+03    -117.742E-03     229.736E-03    -111.994E-03     283.169E-03    -135.652E-03     247.743E-03    -111.659E-03     273.131E-03
            1415     13.6835E-03     66.0884E-03    -17.3207E+06     105.136E+06     90.7108E+06     175.200E+03    -119.910E-03     231.910E-03    -112.000E-03     286.594E-03    -135.485E-03     247.534E-03    -111.674E-03     274.192E-03
            1416     12.8774E-03     65.7704E-03    -23.4116E+06     89.2984E+06     70.7322E+06    -262.796E+03    -120.490E-03     232.443E-03    -111.953E-03     269.663E-03    -132.781E-03     244.763E-03    -111.695E-03     257.146E-03
            1417     12.0736E-03     65.4884E-03    -28.7357E+06     70.9497E+06     39.9779E+06     395.101E+03    -118.788E-03     230.635E-03    -111.847E-03     230.285E-03    -127.163E-03     239.044E-03    -111.708E-03     219.494E-03
            1418     11.2683E-03     65.2588E-03    -32.4209E+06     48.0930E+06     18.1914E+06     914.004E+03    -116.747E-03     228.542E-03    -111.795E-03     193.376E-03    -122.278E-03     234.075E-03    -111.726E-03     184.500E-03
            1419     10.4629E-03     65.0613E-03    -35.9184E+06     840.433E+03     8.15017E+06     496.970E+03    -115.847E-03     227.699E-03    -111.851E-03     170.561E-03    -119.724E-03     231.428E-03    -111.760E-03     163.095E-03
            1420     9.65795E-03     64.8831E-03    -39.0152E+06    -50.8173E+06     2.13540E+06     208.274E+03    -115.705E-03     227.643E-03    -111.938E-03     156.311E-03    -118.553E-03     230.165E-03    -111.797E-03     149.926E-03
            1421     8.85228E-03     64.7170E-03    -42.3443E+06    -86.0564E+06    -2.02115E+06    -82.0129E+03    -115.501E-03     227.505E-03    -112.004E-03     143.892E-03    -117.619E-03     229.173E-03    -111.828E-03     138.441E-03
            1422     8.04753E-03     64.5647E-03    -46.1371E+06    -111.919E+06    -6.49931E+06    -424.900E+03    -115.127E-03     227.178E-03    -112.051E-03     130.898E-03    -116.696E-03     228.204E-03    -111.854E-03     126.267E-03
            1423     7.24265E-03     64.4265E-03    -50.3195E+06    -132.679E+06    -11.5804E+06    -173.754E+03    -114.701E-03     226.786E-03    -112.084E-03     118.328E-03    -115.854E-03     227.322E-03    -111.877E-03     114.428E-03
            1424     6.43786E-03     64.3017E-03    -55.2001E+06    -153.367E+06    -17.5469E+06    -93.0758E+03    -114.222E-03     226.337E-03    -112.115E-03     105.917E-03    -115.056E-03     226.481E-03    -111.900E-03     102.661E-03
            1425     5.63281E-03     64.1907E-03    -60.4380E+06    -171.788E+06    -24.6881E+06     146.554E+03    -113.808E-03     225.944E-03    -112.136E-03     93.3852E-03    -114.398E-03     225.781E-03    -111.923E-03     90.6959E-03
            1426     4.82813E-03     64.0934E-03    -65.2556E+06    -190.718E+06    -33.8134E+06     209.062E+03    -113.418E-03     225.562E-03    -112.144E-03     80.6590E-03    -113.813E-03     225.146E-03    -111.941E-03     78.4726E-03
            1427     4.02345E-03     64.0105E-03    -70.1486E+06    -207.860E+06    -44.0431E+06    -412.546E+03    -113.041E-03     225.179E-03    -112.138E-03     67.7318E-03    -113.285E-03     224.565E-03    -111.955E-03     65.9865E-03
            1428     3.21860E-03     63.9420E-03    -75.5035E+06    -218.242E+06    -54.4574E+06    -43.5894E+03    -112.720E-03     224.838E-03    -112.117E-03     54.6573E-03    -112.861E-03     224.094E-03    -111.964E-03     53.3198E-03
            1429     2.41393E-03     63.8881E-03    -80.2808E+06    -226.225E+06    -65.6637E+06     544.915E+03    -112.443E-03     224.523E-03    -112.079E-03     41.3600E-03    -112.509E-03     223.690E-03    -111.963E-03     40.3950E-03
            1430     1.60938E-03     63.8493E-03    -84.0567E+06    -234.024E+06    -77.0858E+06     349.322E+03    -112.209E-03     224.244E-03    -112.034E-03     27.9755E-03    -112.218E-03     223.347E-03    -111.959E-03     27.3406E-03
            1431     804.755E-06     63.8253E-03    -86.0320E+06    -238.697E+06    -84.7754E+06    -72.4832E+03    -112.110E-03     224.068E-03    -111.957E-03     15.3634E-03    -112.084E-03     223.135E-03    -111.910E-03     15.0198E-03
            1432     15.2950E-03     65.5393E-03    -5.75022E+06     120.838E+06     95.0235E+06     170.893E+03    -113.532E-03     225.440E-03    -111.908E-03     191.471E-03    -125.298E-03     237.339E-03    -111.600E-03     185.887E-03
            1433     14.4888E-03     65.2275E-03    -12.1572E+06     115.532E+06     95.4243E+06    -1.80634E+06    -117.209E-03     229.147E-03    -111.937E-03     283.677E-03    -135.123E-03     247.150E-03    -111.610E-03     273.710E-03
            1434     13.6832E-03     64.9043E-03    -16.1346E+06     103.687E+06     90.8020E+06    -365.326E+03    -119.866E-03     231.839E-03    -111.973E-03     287.858E-03    -135.508E-03     247.528E-03    -111.645E-03     275.466E-03
            1435     12.8791E-03     64.5834E-03    -21.8536E+06     90.3256E+06     72.0827E+06     1.45645E+06    -120.529E-03     232.460E-03    -111.931E-03     269.830E-03    -132.853E-03     244.818E-03    -111.670E-03     257.317E-03
            1436     12.0736E-03     64.3036E-03    -27.8816E+06     71.4016E+06     40.4180E+06     1.01569E+06    -118.486E-03     230.319E-03    -111.833E-03     230.966E-03    -126.855E-03     238.725E-03    -111.694E-03     220.228E-03
            1437     11.2682E-03     64.0735E-03    -32.3521E+06     47.9111E+06     18.3920E+06     535.503E+03    -116.463E-03     228.271E-03    -111.808E-03     194.330E-03    -122.001E-03     233.811E-03    -111.739E-03     185.470E-03
            1438     10.4626E-03     63.8769E-03    -35.7290E+06     1.29464E+06     8.40853E+06     136.427E+03    -115.868E-03     227.749E-03    -111.881E-03     171.118E-03    -119.747E-03     231.481E-03    -111.789E-03     163.651E-03
            1439     9.65681E-03     63.6974E-03    -38.8802E+06    -51.4418E+06     1.93233E+06    -282.963E+03    -115.886E-03     227.850E-03    -111.963E-03     156.366E-03    -118.730E-03     230.367E-03    -111.823E-03     149.967E-03
            1440     8.85268E-03     63.5316E-03    -42.1510E+06    -85.4799E+06    -1.37441E+06     71.3509E+03    -115.629E-03     227.649E-03    -112.020E-03     143.586E-03    -117.749E-03     229.320E-03    -111.841E-03     138.125E-03
            1441     8.04754E-03     63.3794E-03    -46.2571E+06    -111.511E+06    -6.50913E+06    -91.3706E+03    -115.135E-03     227.192E-03    -112.057E-03     130.945E-03    -116.704E-03     228.220E-03    -111.861E-03     126.320E-03
            1442     7.24263E-03     63.2411E-03    -50.6956E+06    -133.168E+06    -11.8748E+06    -110.695E+03    -114.705E-03     226.796E-03    -112.091E-03     118.374E-03    -115.859E-03     227.332E-03    -111.884E-03     114.475E-03
            1443     6.43763E-03     63.1164E-03    -55.2405E+06    -153.481E+06    -17.7310E+06     333.356E+03    -114.278E-03     226.396E-03    -112.118E-03     105.905E-03    -115.112E-03     226.540E-03    -111.904E-03     102.653E-03
            1444     5.63294E-03     63.0053E-03    -60.0249E+06    -171.649E+06    -25.1316E+06     132.916E+03    -113.833E-03     225.966E-03    -112.133E-03     93.3500E-03    -114.420E-03     225.803E-03    -111.922E-03     90.6602E-03
            1445     4.82811E-03     62.9080E-03    -65.0958E+06    -190.130E+06    -33.8157E+06    -216.635E+03    -113.422E-03     225.561E-03    -112.139E-03     80.6073E-03    -113.816E-03     225.147E-03    -111.938E-03     78.4159E-03
            1446     4.02331E-03     62.8252E-03    -70.5723E+06    -207.876E+06    -44.2212E+06    -133.488E+03    -113.070E-03     225.200E-03    -112.130E-03     67.7009E-03    -113.317E-03     224.586E-03    -111.947E-03     65.9585E-03
            1447     3.21877E-03     62.7565E-03    -75.8105E+06    -218.636E+06    -54.7419E+06    -278.041E+03    -112.728E-03     224.829E-03    -112.101E-03     54.5965E-03    -112.869E-03     224.084E-03    -111.948E-03     53.2563E-03
            1448     2.41411E-03     62.7028E-03    -80.3743E+06    -226.515E+06    -66.0816E+06    -379.920E+03    -112.407E-03     224.470E-03    -112.062E-03     41.2979E-03    -112.472E-03     223.637E-03    -111.948E-03     40.3216E-03
            1449     1.60935E-03     62.6639E-03    -83.8356E+06    -233.839E+06    -77.1044E+06    -175.602E+03    -112.173E-03     224.202E-03    -112.029E-03     27.9485E-03    -112.181E-03     223.306E-03    -111.954E-03     27.3061E-03
            1450     804.582E-06     62.6403E-03    -86.2712E+06    -238.637E+06    -84.5473E+06    -153.257E+03    -112.085E-03     224.075E-03    -111.990E-03     15.4391E-03    -112.060E-03     223.142E-03    -111.942E-03     15.0949E-03
            1451     15.2974E-03     64.3626E-03    -3.53901E+06     122.190E+06     96.8720E+06     1.05163E+06    -113.042E-03     224.916E-03    -111.874E-03     192.063E-03    -124.821E-03     236.835E-03    -111.562E-03     186.593E-03
            1452     14.4885E-03     64.0409E-03    -8.71061E+06     118.793E+06     98.2720E+06     416.191E+03    -116.913E-03     228.843E-03    -111.929E-03     284.600E-03    -134.952E-03     246.987E-03    -111.598E-03     274.676E-03
            1453     13.6845E-03     63.7190E-03    -17.3026E+06     100.892E+06     88.5126E+06    -588.287E+03    -119.928E-03     231.887E-03    -111.959E-03     287.745E-03    -135.609E-03     247.608E-03    -111.638E-03     275.297E-03
            1454     12.8784E-03     63.3976E-03    -24.4356E+06     88.4627E+06     69.9922E+06     864.784E+03    -119.952E-03     231.892E-03    -111.940E-03     270.876E-03    -132.251E-03     244.215E-03    -111.683E-03     258.457E-03
            1455     12.0728E-03     63.1189E-03    -28.9748E+06     73.0451E+06     41.2706E+06     888.278E+03    -118.228E-03     230.116E-03    -111.888E-03     231.873E-03    -126.590E-03     238.515E-03    -111.746E-03     221.179E-03
            1456     11.2669E-03     62.8883E-03    -32.4472E+06     47.6344E+06     18.9250E+06    -527.083E+03    -116.845E-03     228.713E-03    -111.867E-03     194.615E-03    -122.396E-03     234.262E-03    -111.795E-03     185.705E-03
            1457     10.4618E-03     62.6915E-03    -35.1788E+06     1.79738E+06     9.11372E+06    -286.362E+03    -116.310E-03     228.221E-03    -111.911E-03     170.692E-03    -120.188E-03     231.954E-03    -111.817E-03     163.188E-03
            1458     9.65771E-03     62.5117E-03    -38.2773E+06    -50.9027E+06     2.26069E+06     52.0573E+03    -115.966E-03     227.935E-03    -111.969E-03     155.966E-03    -118.803E-03     230.449E-03    -111.829E-03     149.571E-03
            1459     8.85225E-03     62.3461E-03    -42.1760E+06    -86.1739E+06    -1.49946E+06     57.0435E+03    -115.543E-03     227.568E-03    -112.026E-03     143.509E-03    -117.661E-03     229.235E-03    -111.847E-03     138.051E-03
            1460     8.04744E-03     62.1942E-03    -46.0674E+06    -111.024E+06    -6.19423E+06     292.760E+03    -115.169E-03     227.236E-03    -112.066E-03     130.976E-03    -116.740E-03     228.267E-03    -111.869E-03     126.353E-03
            1461     7.24242E-03     62.0556E-03    -50.0901E+06    -133.271E+06    -11.7710E+06     19.6278E+03    -114.770E-03     226.865E-03    -112.095E-03     118.302E-03    -115.920E-03     227.398E-03    -111.888E-03     114.404E-03
            1462     6.43780E-03     61.9310E-03    -54.2073E+06    -153.869E+06    -17.2582E+06     6.66811E+03    -114.335E-03     226.451E-03    -112.116E-03     105.763E-03    -115.163E-03     226.591E-03    -111.900E-03     102.502E-03
            1463     5.63294E-03     61.8198E-03    -58.4262E+06    -170.854E+06    -24.4765E+06     22.1113E+03    -113.854E-03     225.977E-03    -112.122E-03     93.2599E-03    -114.435E-03     225.815E-03    -111.912E-03     90.5685E-03
            1464     4.82817E-03     61.7228E-03    -63.4226E+06    -190.663E+06    -31.8757E+06     123.739E+03    -113.433E-03     225.566E-03    -112.133E-03     80.5457E-03    -113.821E-03     225.144E-03    -111.924E-03     78.3585E-03
            1465     4.02353E-03     61.6396E-03    -68.9504E+06    -207.750E+06    -41.4434E+06     326.255E+03    -113.058E-03     225.183E-03    -112.125E-03     67.6348E-03    -113.300E-03     224.563E-03    -111.931E-03     65.8978E-03
            1466     3.21876E-03     61.5712E-03    -74.4639E+06    -217.957E+06    -54.2910E+06    -7.27935E+03    -112.690E-03     224.778E-03    -112.088E-03     54.5890E-03    -112.826E-03     224.033E-03    -111.935E-03     53.2525E-03
            1467     2.41404E-03     61.5174E-03    -79.5664E+06    -226.943E+06    -67.1056E+06    -317.320E+03    -112.373E-03     224.426E-03    -112.054E-03     41.3158E-03    -112.431E-03     223.592E-03    -111.945E-03     40.3394E-03
            1468     1.60935E-03     61.4789E-03    -83.6717E+06    -234.238E+06    -77.9090E+06    -291.753E+03    -112.167E-03     224.200E-03    -112.034E-03     27.9991E-03    -112.172E-03     223.303E-03    -111.962E-03     27.3541E-03
            1469     804.720E-06     61.4548E-03    -86.2113E+06    -238.737E+06    -84.6603E+06    -125.064E+03    -112.098E-03     224.100E-03    -112.002E-03     15.4030E-03    -112.072E-03     223.167E-03    -111.955E-03     15.0596E-03
            1470     15.2919E-03     63.1745E-03    -4.68059E+06     121.326E+06     95.7250E+06    -659.011E+03    -113.010E-03     224.937E-03    -111.927E-03     192.237E-03    -124.964E-03     237.027E-03    -111.617E-03     186.668E-03
            1471     14.4903E-03     62.8564E-03    -9.99126E+06     118.850E+06     98.0857E+06     736.803E+03    -117.536E-03     229.505E-03    -111.969E-03     285.702E-03    -135.695E-03     247.766E-03    -111.637E-03     275.681E-03
            1472     13.6838E-03     62.5330E-03    -16.7097E+06     101.666E+06     89.4754E+06     2.26609E+06    -119.613E-03     231.621E-03    -112.008E-03     289.596E-03    -135.259E-03     247.309E-03    -111.684E-03     277.255E-03
            1473     12.8777E-03     62.2145E-03    -23.6390E+06     88.6270E+06     70.4247E+06     918.351E+03    -120.172E-03     232.179E-03    -112.007E-03     271.339E-03    -132.457E-03     244.490E-03    -111.749E-03     258.908E-03
            1474     12.0710E-03     61.9328E-03    -28.5344E+06     74.0201E+06     41.1074E+06    -747.101E+03    -118.740E-03     230.672E-03    -111.932E-03     231.280E-03    -127.106E-03     239.080E-03    -111.792E-03     220.498E-03
            1475     11.2667E-03     61.7026E-03    -31.5508E+06     47.7193E+06     18.6740E+06    -1.10221E+06    -117.240E-03     229.114E-03    -111.874E-03     193.355E-03    -122.777E-03     234.654E-03    -111.804E-03     184.398E-03
            1476     10.4627E-03     61.5048E-03    -35.0020E+06     963.107E+03     9.07955E+06    -250.801E+03    -116.268E-03     228.169E-03    -111.902E-03     169.946E-03    -120.130E-03     231.884E-03    -111.807E-03     162.452E-03
            1477     9.65728E-03     61.3267E-03    -38.8658E+06    -50.6175E+06     2.28581E+06     261.448E+03    -115.790E-03     227.755E-03    -111.966E-03     155.898E-03    -118.628E-03     230.269E-03    -111.824E-03     149.518E-03
            1478     8.85236E-03     61.1608E-03    -42.3323E+06    -86.2032E+06    -1.76077E+06    -2.83891E+03    -115.545E-03     227.572E-03    -112.027E-03     143.529E-03    -117.663E-03     229.239E-03    -111.850E-03     138.071E-03
            1479     8.04733E-03     61.0086E-03    -45.9949E+06    -111.215E+06    -6.08276E+06     98.6277E+03    -115.246E-03     227.311E-03    -112.065E-03     130.792E-03    -116.816E-03     228.340E-03    -111.868E-03     126.161E-03
            1480     7.24273E-03     60.8702E-03    -50.1991E+06    -133.019E+06    -11.8497E+06     131.068E+03    -114.812E-03     226.896E-03    -112.084E-03     118.177E-03    -115.963E-03     227.431E-03    -111.878E-03     114.278E-03
            1481     6.43781E-03     60.7454E-03    -54.8110E+06    -153.910E+06    -17.5751E+06    -306.501E+03    -114.325E-03     226.426E-03    -112.101E-03     105.702E-03    -115.156E-03     226.567E-03    -111.886E-03     102.437E-03
            1482     5.63308E-03     60.6346E-03    -60.1072E+06    -171.393E+06    -24.6489E+06    -56.2310E+03    -113.865E-03     225.972E-03    -112.107E-03     93.1912E-03    -114.453E-03     225.810E-03    -111.895E-03     90.4973E-03
            1483     4.82832E-03     60.5372E-03    -65.4819E+06    -190.525E+06    -34.3126E+06     19.2009E+03    -113.413E-03     225.516E-03    -112.102E-03     80.5112E-03    -113.808E-03     225.101E-03    -111.903E-03     78.3226E-03
            1484     4.02353E-03     60.4544E-03    -70.2636E+06    -207.558E+06    -44.2760E+06    -314.288E+03    -112.993E-03     225.088E-03    -112.095E-03     67.6443E-03    -113.238E-03     224.475E-03    -111.913E-03     65.9016E-03
            1485     3.21878E-03     60.3859E-03    -75.0880E+06    -218.234E+06    -54.9030E+06     106.168E+03    -112.625E-03     224.705E-03    -112.080E-03     54.5385E-03    -112.763E-03     223.961E-03    -111.929E-03     53.2042E-03
            1486     2.41404E-03     60.3323E-03    -79.8189E+06    -226.684E+06    -66.7491E+06     407.298E+03    -112.352E-03     224.412E-03    -112.060E-03     41.2616E-03    -112.413E-03     223.579E-03    -111.949E-03     40.2946E-03
            1487     1.60928E-03     60.2936E-03    -83.6291E+06    -234.070E+06    -77.5640E+06     213.116E+03    -112.205E-03     224.237E-03    -112.032E-03     27.9739E-03    -112.211E-03     223.341E-03    -111.959E-03     27.3362E-03
            1488     804.596E-06     60.2695E-03    -85.9889E+06    -238.788E+06    -84.9064E+06     63.6692E+03    -112.141E-03     224.073E-03    -111.932E-03     15.2775E-03    -112.114E-03     223.140E-03    -111.886E-03     14.9360E-03
            1489     15.2937E-03     61.9826E-03    -4.81149E+06     121.201E+06     95.6250E+06    -340.017E+03    -111.893E-03     223.881E-03    -111.989E-03     194.310E-03    -123.797E-03     235.922E-03    -111.679E-03     188.821E-03
            1490     14.4875E-03     61.6730E-03    -11.9101E+06     115.333E+06     95.1572E+06     1.08790E+06    -117.697E-03     229.754E-03    -112.057E-03     284.848E-03    -135.649E-03     247.798E-03    -111.731E-03     274.828E-03
            1491     13.6805E-03     61.3472E-03    -16.9974E+06     101.801E+06     89.9065E+06     1.21753E+06    -120.344E-03     232.427E-03    -112.083E-03     288.680E-03    -135.931E-03     248.055E-03    -111.757E-03     276.272E-03
            1492     12.8758E-03     61.0275E-03    -20.6420E+06     90.6808E+06     73.4683E+06     344.438E+03    -120.890E-03     232.923E-03    -112.033E-03     269.213E-03    -133.148E-03     245.217E-03    -111.767E-03     256.669E-03
            1493     12.0729E-03     60.7476E-03    -25.4858E+06     74.4137E+06     41.3128E+06    -175.518E+03    -119.113E-03     231.008E-03    -111.896E-03     230.104E-03    -127.469E-03     239.419E-03    -111.760E-03     219.275E-03
            1494     11.2683E-03     60.5158E-03    -30.8970E+06     48.1948E+06     17.8246E+06     521.336E+03    -116.939E-03     228.765E-03    -111.827E-03     193.119E-03    -122.452E-03     234.288E-03    -111.762E-03     184.225E-03
            1495     10.4625E-03     60.3204E-03    -35.3609E+06     156.716E+03     8.40597E+06     318.562E+03    -115.909E-03     227.790E-03    -111.881E-03     169.973E-03    -119.764E-03     231.495E-03    -111.788E-03     162.518E-03
            1496     9.65727E-03     60.1412E-03    -38.5552E+06    -50.6748E+06     2.39880E+06     46.0349E+03    -115.785E-03     227.744E-03    -111.960E-03     155.862E-03    -118.621E-03     230.256E-03    -111.818E-03     149.481E-03
            1497     8.85237E-03     59.9754E-03    -42.1051E+06    -85.3648E+06    -1.36625E+06     200.074E+03    -115.648E-03     227.663E-03    -112.015E-03     143.342E-03    -117.767E-03     229.334E-03    -111.837E-03     137.879E-03
            1498     8.04767E-03     59.8232E-03    -46.3432E+06    -111.434E+06    -6.61990E+06     100.398E+03    -115.236E-03     227.280E-03    -112.044E-03     130.689E-03    -116.806E-03     228.309E-03    -111.848E-03     126.059E-03
            1499     7.24270E-03     59.6846E-03    -50.4636E+06    -132.986E+06    -12.0962E+06     124.107E+03    -114.759E-03     226.824E-03    -112.065E-03     118.119E-03    -115.910E-03     227.359E-03    -111.859E-03     114.221E-03
            1500     6.43797E-03     59.5602E-03    -55.2175E+06    -153.582E+06    -18.0347E+06     339.105E+03    -114.308E-03     226.390E-03    -112.082E-03     105.676E-03    -115.140E-03     226.533E-03    -111.869E-03     102.421E-03
            1501     5.63317E-03     59.4489E-03    -60.2322E+06    -171.465E+06    -25.0036E+06     85.2839E+03    -113.848E-03     225.937E-03    -112.088E-03     93.1894E-03    -114.437E-03     225.775E-03    -111.877E-03     90.4988E-03
            1502     4.82844E-03     59.3521E-03    -64.9955E+06    -189.995E+06    -34.1266E+06    -218.274E+03    -113.385E-03     225.471E-03    -112.085E-03     80.4961E-03    -113.779E-03     225.058E-03    -111.886E-03     78.3052E-03
            1503     4.02359E-03     59.2691E-03    -70.2968E+06    -207.777E+06     -45.027E+06    -148.262E+03    -112.962E-03     225.040E-03    -112.078E-03     67.6218E-03    -113.205E-03     224.427E-03    -111.900E-03     65.8825E-03
            1504     3.21885E-03     59.2007E-03    -75.7514E+06    -218.750E+06    -55.4997E+06    -70.0220E+03    -112.610E-03     224.678E-03    -112.067E-03     54.5067E-03    -112.750E-03     223.933E-03    -111.918E-03     53.1711E-03
            1505     2.41401E-03     59.1471E-03    -80.3613E+06    -226.542E+06    -66.4743E+06     17.4964E+03    -112.365E-03     224.410E-03    -112.045E-03     41.2372E-03    -112.429E-03     223.577E-03    -111.933E-03     40.2666E-03
            1506     1.60940E-03     59.1081E-03    -83.8603E+06    -233.797E+06    -76.9190E+06     160.102E+03    -112.183E-03     224.195E-03    -112.012E-03     27.9357E-03    -112.191E-03     223.299E-03    -111.936E-03     27.2986E-03
            1507     804.849E-06     59.0843E-03    -86.3938E+06    -238.706E+06    -84.1600E+06     49.6737E+03    -112.052E-03     224.026E-03    -111.973E-03     15.3086E-03    -112.029E-03     223.092E-03    -111.923E-03     14.9647E-03
            1508     15.2907E-03     60.8005E-03    -5.57134E+06     119.895E+06     94.4154E+06    -15.7148E+03    -111.837E-03     223.806E-03    -111.968E-03     194.646E-03    -123.525E-03     235.625E-03    -111.662E-03     189.182E-03
            1509     14.4849E-03     60.4836E-03    -10.8945E+06     115.876E+06     96.3146E+06     962.633E+03    -117.552E-03     229.591E-03    -112.039E-03     281.012E-03    -135.205E-03     247.338E-03    -111.710E-03     271.034E-03
            1510     13.6835E-03     60.1622E-03    -15.5774E+06     102.689E+06     90.5221E+06    -782.833E+03    -120.525E-03     232.558E-03    -112.034E-03     285.669E-03    -136.058E-03     248.139E-03    -111.707E-03     273.187E-03
            1511     12.8792E-03     59.8416E-03    -21.3028E+06     89.7437E+06     71.7673E+06    -927.980E+03    -120.623E-03     232.585E-03    -111.961E-03     268.903E-03    -132.875E-03     244.871E-03    -111.702E-03     256.369E-03
            1512     12.0734E-03     59.5613E-03    -26.9354E+06     73.7606E+06     41.1832E+06     1.04708E+06    -118.712E-03     230.563E-03    -111.851E-03     230.613E-03    -127.062E-03     238.960E-03    -111.713E-03     219.862E-03
            1513     11.2676E-03     59.3313E-03    -31.4261E+06     48.8483E+06     18.7910E+06     1.38325E+06    -116.681E-03     228.489E-03    -111.808E-03     193.391E-03    -122.195E-03     234.010E-03    -111.739E-03     184.541E-03
            1514     10.4624E-03     59.1349E-03    -34.6566E+06     1.35762E+06     8.87643E+06     656.869E+03    -115.914E-03     227.780E-03    -111.866E-03     169.892E-03    -119.774E-03     231.495E-03    -111.773E-03     162.431E-03
            1515     9.65767E-03     58.9560E-03    -38.2482E+06    -50.8509E+06     2.13897E+06     283.160E+03    -115.869E-03     227.807E-03    -111.938E-03     155.837E-03    -118.706E-03     230.321E-03    -111.798E-03     149.449E-03
            1516     8.85276E-03     58.7898E-03    -42.0257E+06    -85.7160E+06    -1.53739E+06     348.381E+03    -115.630E-03     227.620E-03    -111.990E-03     143.317E-03    -117.748E-03     229.289E-03    -111.812E-03     137.858E-03
            1517     8.04782E-03     58.6378E-03    -45.7662E+06    -110.775E+06    -6.14845E+06     428.042E+03    -115.185E-03     227.205E-03    -112.020E-03     130.619E-03    -116.754E-03     228.236E-03    -111.824E-03     125.995E-03
            1518     7.24296E-03     58.4994E-03    -50.1668E+06    -132.958E+06    -12.1478E+06     353.940E+03    -114.712E-03     226.754E-03    -112.042E-03     118.097E-03    -115.861E-03     227.288E-03    -111.837E-03     114.208E-03
            1519     6.43805E-03     58.3746E-03    -54.3859E+06    -153.690E+06    -18.0347E+06     365.111E+03    -114.261E-03     226.323E-03    -112.062E-03     105.648E-03    -115.088E-03     226.464E-03    -111.851E-03     102.397E-03
            1520     5.63327E-03     58.2638E-03    -58.6854E+06    -170.485E+06    -24.9750E+06     70.1757E+03    -113.783E-03     225.855E-03    -112.073E-03     93.1787E-03    -114.364E-03     225.695E-03    -111.865E-03     90.4909E-03
            1521     4.82835E-03     58.1666E-03    -63.9116E+06    -190.434E+06    -32.3484E+06     40.6982E+03    -113.355E-03     225.443E-03    -112.088E-03     80.5176E-03    -113.745E-03     225.023E-03    -111.881E-03     78.3316E-03
            1522     4.02371E-03     58.0840E-03    -69.6518E+06    -208.151E+06    -42.3772E+06     578.896E+03    -112.983E-03     225.068E-03    -112.085E-03     67.6391E-03    -113.226E-03     224.448E-03    -111.894E-03     65.9085E-03
            1523     3.21879E-03     58.0156E-03    -75.1604E+06    -217.836E+06    -54.4866E+06     214.631E+03    -112.650E-03     224.706E-03    -112.055E-03     54.5207E-03    -112.789E-03     223.963E-03    -111.903E-03     53.1898E-03
            1524     2.41423E-03     57.9617E-03    -80.1489E+06    -226.628E+06    -66.4376E+06    -375.468E+03    -112.358E-03     224.379E-03    -112.021E-03     41.2395E-03    -112.421E-03     223.545E-03    -111.908E-03     40.2650E-03
            1525     1.60943E-03     57.9231E-03    -83.9576E+06    -234.183E+06    -77.5069E+06    -386.850E+03    -112.124E-03     224.118E-03    -111.994E-03     27.9687E-03    -112.131E-03     223.221E-03    -111.920E-03     27.3249E-03
            1526     804.493E-06     57.8991E-03    -85.9473E+06    -238.556E+06    -84.3260E+06    -579.305E+03    -112.025E-03     224.016E-03    -111.991E-03     15.2533E-03    -111.999E-03     223.083E-03    -111.942E-03     14.9029E-03
            1527     15.2970E-03     59.6178E-03    -5.79826E+06     119.954E+06     94.1940E+06     29.4153E+03    -113.763E-03     225.660E-03    -111.897E-03     194.547E-03    -125.579E-03     237.609E-03    -111.592E-03     188.911E-03
            1528     14.4925E-03     59.3005E-03    -10.2894E+06     117.799E+06     97.4483E+06    -2.09094E+06    -117.471E-03     229.389E-03    -111.918E-03     282.368E-03    -135.250E-03     247.268E-03    -111.587E-03     272.364E-03
            1529     13.6844E-03     58.9761E-03    -16.3240E+06     101.717E+06     89.7407E+06    -1.23889E+06    -119.768E-03     231.705E-03    -111.937E-03     287.083E-03    -135.317E-03     247.297E-03    -111.612E-03     274.697E-03
            1530     12.8783E-03     58.6567E-03    -23.4032E+06     88.0882E+06     70.0062E+06     340.602E+03    -120.087E-03     231.996E-03    -111.909E-03     270.104E-03    -132.361E-03     244.296E-03    -111.653E-03     257.650E-03
            1531     12.0727E-03     58.3761E-03    -28.9400E+06     73.2225E+06     40.4803E+06     351.325E+03    -118.405E-03     230.239E-03    -111.834E-03     230.818E-03    -126.751E-03     238.625E-03    -111.696E-03     220.093E-03
            1532     11.2682E-03     58.1458E-03    -31.8304E+06     48.8003E+06     19.2229E+06     5.69821E+03    -116.698E-03     228.501E-03    -111.803E-03     193.220E-03    -122.217E-03     234.024E-03    -111.731E-03     184.344E-03
            1533     10.4631E-03     57.9499E-03    -34.8857E+06     2.05404E+06     9.32471E+06     509.057E+03    -116.035E-03     227.887E-03    -111.852E-03     170.096E-03    -119.905E-03     231.614E-03    -111.758E-03     162.618E-03
            1534     9.65781E-03     57.7704E-03    -38.4724E+06    -50.5385E+06     2.16930E+06     740.982E+03    -115.872E-03     227.789E-03    -111.917E-03     156.035E-03    -118.714E-03     230.309E-03    -111.777E-03     149.649E-03
            1535     8.85289E-03     57.6045E-03    -42.1266E+06    -86.0238E+06    -1.85872E+06     403.974E+03    -115.588E-03     227.557E-03    -111.970E-03     143.491E-03    -117.703E-03     229.223E-03    -111.793E-03     138.040E-03
            1536     8.04800E-03     57.4524E-03    -46.0126E+06    -111.196E+06    -6.22281E+06     364.236E+03    -115.174E-03     227.178E-03    -112.004E-03     130.706E-03    -116.743E-03     228.207E-03    -111.807E-03     126.083E-03
            1537     7.24309E-03     57.3142E-03    -49.9039E+06    -132.237E+06    -11.6389E+06     516.679E+03    -114.706E-03     226.732E-03    -112.026E-03     118.190E-03    -115.855E-03     227.268E-03    -111.820E-03     114.304E-03
            1538     6.43824E-03     57.1894E-03    -54.2961E+06    -153.469E+06    -18.0504E+06     14.3673E+03    -114.215E-03     226.262E-03    -112.047E-03     105.694E-03    -115.041E-03     226.403E-03    -111.836E-03     102.443E-03
            1539     5.63327E-03     57.0786E-03    -59.0752E+06    -170.540E+06    -25.3567E+06     102.959E+03    -113.743E-03     225.803E-03    -112.060E-03     93.1507E-03    -114.325E-03     225.643E-03    -111.854E-03     90.4652E-03
            1540     4.82846E-03     56.9815E-03    -64.4021E+06    -190.864E+06    -32.9313E+06     585.735E+03    -113.335E-03     225.412E-03    -112.078E-03     80.4318E-03    -113.725E-03     224.992E-03    -111.872E-03     78.2557E-03
            1541     4.02348E-03     56.8987E-03    -69.7464E+06    -207.917E+06    -41.5200E+06     337.135E+03    -112.986E-03     225.065E-03    -112.079E-03     67.5445E-03    -113.231E-03     224.445E-03    -111.884E-03     65.8116E-03
            1542     3.21901E-03     56.8302E-03    -74.7585E+06    -216.798E+06    -53.0971E+06     64.2770E+03    -112.632E-03     224.681E-03    -112.049E-03     54.4932E-03    -112.772E-03     223.940E-03    -111.892E-03     53.1602E-03
            1543     2.41413E-03     56.7768E-03    -79.7851E+06    -226.556E+06    -66.3621E+06    -136.214E+03    -112.329E-03     224.343E-03    -112.014E-03     41.2677E-03    -112.390E-03     223.509E-03    -111.902E-03     40.2966E-03
            1544     1.60938E-03     56.7379E-03    -83.7959E+06    -234.424E+06    -77.9743E+06    -303.734E+03    -112.148E-03     224.129E-03    -111.981E-03     27.9671E-03    -112.154E-03     223.232E-03    -111.910E-03     27.3226E-03
            1545     804.875E-06     56.7140E-03    -85.9407E+06    -239.040E+06    -85.4920E+06    -269.111E+03    -112.115E-03     223.976E-03    -111.861E-03     15.2304E-03    -112.087E-03     223.042E-03    -111.817E-03     14.8868E-03
            1546     15.2936E-03     58.4281E-03    -4.66680E+06     121.395E+06     95.9881E+06     294.074E+03    -113.726E-03     225.606E-03    -111.880E-03     194.571E-03    -125.610E-03     237.626E-03    -111.569E-03     188.998E-03
            1547     14.4885E-03     58.1149E-03    -11.0532E+06     117.739E+06     96.2550E+06    -1.25046E+06    -117.426E-03     229.326E-03    -111.901E-03     284.761E-03    -135.377E-03     247.377E-03    -111.574E-03     274.774E-03
            1548     13.6846E-03     57.7918E-03    -18.5526E+06     100.760E+06     88.1103E+06    -1.17510E+06    -119.950E-03     231.878E-03    -111.929E-03     288.616E-03    -135.571E-03     247.536E-03    -111.607E-03     276.189E-03
            1549     12.8791E-03     57.4723E-03    -23.6422E+06     87.3532E+06     71.2024E+06    -1.07426E+06    -120.223E-03     232.131E-03    -111.908E-03     270.179E-03    -132.489E-03     244.417E-03    -111.645E-03     257.701E-03
            1550     12.0740E-03     57.1908E-03    -26.9824E+06     72.9918E+06     41.8278E+06    -527.618E+03    -118.358E-03     230.186E-03    -111.828E-03     231.080E-03    -126.705E-03     238.575E-03    -111.686E-03     220.349E-03
            1551     11.2678E-03     56.9610E-03    -31.3546E+06     47.4193E+06     18.3133E+06     270.700E+03    -116.679E-03     228.474E-03    -111.795E-03     193.660E-03    -122.189E-03     233.988E-03    -111.726E-03     184.797E-03
            1552     10.4626E-03     56.7638E-03    -35.4200E+06     968.206E+03     8.76902E+06     593.065E+03    -116.124E-03     227.971E-03    -111.847E-03     170.286E-03    -119.998E-03     231.697E-03    -111.753E-03     162.800E-03
            1553     9.65801E-03     56.5855E-03    -38.8561E+06    -49.9096E+06     2.35684E+06     616.390E+03    -115.892E-03     227.800E-03    -111.908E-03     155.974E-03    -118.737E-03     230.323E-03    -111.768E-03     149.585E-03
            1554     8.85290E-03     56.4190E-03    -42.5172E+06    -85.6274E+06    -1.89070E+06     481.688E+03    -115.541E-03     227.501E-03    -111.960E-03     143.532E-03    -117.655E-03     229.166E-03    -111.784E-03     138.092E-03
            1555     8.04797E-03     56.2672E-03    -46.2332E+06    -111.387E+06    -6.53769E+06     126.142E+03    -115.147E-03     227.144E-03    -111.997E-03     130.786E-03    -116.716E-03     228.172E-03    -111.801E-03     126.164E-03
            1556     7.24311E-03     56.1287E-03    -50.2403E+06    -132.268E+06    -11.6039E+06     235.892E+03    -114.713E-03     226.734E-03    -112.022E-03     118.247E-03    -115.864E-03     227.271E-03    -111.815E-03     114.356E-03
            1557     6.43819E-03     56.0043E-03    -54.9735E+06    -152.623E+06    -17.6582E+06     442.121E+03    -114.248E-03     226.288E-03    -112.040E-03     105.694E-03    -115.079E-03     226.434E-03    -111.827E-03     102.448E-03
            1558     5.63340E-03     55.8932E-03    -60.3122E+06    -171.612E+06    -25.6958E+06     351.331E+03    -113.786E-03     225.831E-03    -112.046E-03     93.0665E-03    -114.371E-03     225.668E-03    -111.838E-03     90.3845E-03
            1559     4.82850E-03     55.7964E-03    -65.2629E+06    -190.375E+06    -34.0646E+06     334.227E+03    -113.350E-03     225.398E-03    -112.048E-03     80.3429E-03    -113.743E-03     224.982E-03    -111.847E-03     78.1643E-03
            1560     4.02394E-03     55.7133E-03    -70.0876E+06    -206.758E+06    -43.1441E+06    -371.150E+03    -112.916E-03     224.962E-03    -112.045E-03     67.4801E-03    -113.162E-03     224.350E-03    -111.860E-03     65.7404E-03
            1561     3.21885E-03     55.6452E-03    -75.1281E+06    -217.642E+06    -54.0995E+06    -444.047E+03    -112.545E-03     224.579E-03    -112.034E-03     54.4611E-03    -112.684E-03     223.836E-03    -111.880E-03     53.1222E-03
            1562     2.41413E-03     55.5915E-03    -79.8023E+06    -226.316E+06    -66.4230E+06     255.509E+03    -112.320E-03     224.333E-03    -112.013E-03     41.2475E-03    -112.381E-03     223.500E-03    -111.901E-03     40.2812E-03
            1563     1.60947E-03     55.5528E-03    -83.9482E+06    -234.242E+06    -77.7200E+06     337.967E+03    -112.157E-03     224.137E-03    -111.980E-03     27.9721E-03    -112.164E-03     223.240E-03    -111.907E-03     27.3385E-03
            1564     804.632E-06     55.5288E-03    -87.0464E+06    -239.376E+06    -85.2452E+06     729.159E+03    -112.114E-03     223.962E-03    -111.848E-03     15.2502E-03    -112.091E-03     223.028E-03    -111.801E-03     14.9183E-03
            1565     15.2959E-03     57.2450E-03    -4.31794E+06     121.314E+06     96.1265E+06     529.080E+03    -112.977E-03     224.860E-03    -111.883E-03     192.771E-03    -124.726E-03     236.745E-03    -111.572E-03     187.282E-03
            1566     14.4895E-03     56.9299E-03    -9.62136E+06     118.113E+06     97.2268E+06     1.85734E+06    -117.081E-03     229.012E-03    -111.931E-03     283.617E-03    -134.951E-03     246.985E-03    -111.602E-03     273.692E-03
            1567     13.6832E-03     56.6051E-03    -15.4985E+06     104.081E+06     90.4494E+06     172.796E+03    -120.146E-03     232.105E-03    -111.959E-03     288.102E-03    -135.767E-03     247.778E-03    -111.635E-03     275.659E-03
            1568     12.8789E-03     56.2866E-03    -22.3966E+06     88.2700E+06     71.1961E+06    -2.03247E+06    -120.469E-03     232.387E-03    -111.918E-03     270.302E-03    -132.752E-03     244.698E-03    -111.658E-03     257.784E-03
            1569     12.0729E-03     56.0064E-03    -28.4093E+06     69.9570E+06     39.9026E+06    -1.18618E+06    -118.478E-03     230.306E-03    -111.827E-03     231.096E-03    -126.831E-03     238.690E-03    -111.688E-03     220.349E-03
            1570     11.2680E-03     55.7754E-03    -32.5247E+06     46.5030E+06     17.2485E+06     767.533E+03    -116.679E-03     228.470E-03    -111.791E-03     193.834E-03    -122.182E-03     233.973E-03    -111.725E-03     184.992E-03
            1571     10.4632E-03     55.5787E-03    -36.2954E+06     611.136E+03     7.57046E+06     503.298E+03    -116.123E-03     227.966E-03    -111.843E-03     170.417E-03    -120.000E-03     231.694E-03    -111.753E-03     162.930E-03
            1572     9.65795E-03     55.3996E-03    -39.6605E+06    -50.0235E+06     1.67086E+06     229.594E+03    -115.922E-03     227.828E-03    -111.906E-03     155.930E-03    -118.769E-03     230.352E-03    -111.767E-03     149.535E-03
            1573     8.85308E-03     55.2343E-03    -42.8555E+06    -84.7058E+06    -1.80406E+06     313.767E+03    -115.562E-03     227.519E-03    -111.957E-03     143.566E-03    -117.680E-03     229.189E-03    -111.781E-03     138.124E-03
            1574     8.04800E-03     55.0816E-03    -46.8668E+06    -111.018E+06    -6.88660E+06     180.168E+03    -115.155E-03     227.146E-03    -111.990E-03     130.783E-03    -116.725E-03     228.174E-03    -111.796E-03     126.167E-03
            1575     7.24306E-03     54.9438E-03    -51.3849E+06    -132.810E+06    -12.4419E+06     200.537E+03    -114.739E-03     226.750E-03    -112.011E-03     118.068E-03    -115.892E-03     227.286E-03    -111.806E-03     114.178E-03
            1576     6.43828E-03     54.8186E-03    -55.9375E+06    -152.659E+06    -17.7744E+06     481.095E+03    -114.268E-03     226.294E-03    -112.026E-03     105.539E-03    -115.103E-03     226.441E-03    -111.813E-03     102.293E-03
            1577     5.63350E-03     54.7082E-03    -60.7929E+06    -171.273E+06    -25.1508E+06     708.712E+03    -113.810E-03     225.837E-03    -112.027E-03     92.9988E-03    -114.399E-03     225.675E-03    -111.816E-03     90.3222E-03
            1578     4.82883E-03     54.6109E-03    -65.9650E+06    -189.099E+06    -35.2611E+06    -196.524E+03    -113.324E-03     225.339E-03    -112.015E-03     80.3428E-03    -113.720E-03     224.932E-03    -111.822E-03     78.1581E-03
            1579     4.02376E-03     54.5285E-03    -70.8527E+06    -206.318E+06    -45.8092E+06    -914.602E+03    -112.878E-03     224.886E-03    -112.008E-03     67.4849E-03    -113.124E-03     224.281E-03    -111.835E-03     65.7398E-03
            1580     3.21905E-03     54.4601E-03    -75.7786E+06    -219.025E+06    -56.0378E+06    -452.565E+03    -112.544E-03     224.545E-03    -112.002E-03     54.4161E-03    -112.682E-03     223.799E-03    -111.854E-03     53.0781E-03
            1581     2.41419E-03     54.4064E-03    -80.5447E+06    -226.747E+06    -67.0603E+06     118.192E+03    -112.283E-03     224.266E-03    -111.983E-03     41.1743E-03    -112.347E-03     223.434E-03    -111.873E-03     40.2065E-03
            1582     1.60937E-03     54.3676E-03    -84.3085E+06    -233.947E+06    -77.3837E+06     391.705E+03    -112.098E-03     224.061E-03    -111.963E-03     27.8652E-03    -112.108E-03     223.166E-03    -111.888E-03     27.2330E-03
            1583     804.760E-06     54.3438E-03    -86.5775E+06    -238.695E+06    -84.4908E+06     547.856E+03    -112.081E-03     223.944E-03    -111.863E-03     15.1310E-03    -112.058E-03     223.011E-03    -111.814E-03     14.7947E-03
            1584     15.2947E-03     56.0616E-03    -5.30864E+06     120.426E+06     94.6925E+06    -662.645E+03    -113.154E-03     225.070E-03    -111.916E-03     193.963E-03    -125.004E-03     237.054E-03    -111.609E-03     188.369E-03
            1585     14.4890E-03     55.7439E-03    -9.89198E+06     118.183E+06     97.8945E+06     483.568E+03    -117.840E-03     229.797E-03    -111.957E-03     284.907E-03    -135.783E-03     247.841E-03    -111.624E-03     274.853E-03
            1586     13.6844E-03     55.4211E-03    -15.6994E+06     105.555E+06     91.5681E+06     573.402E+03    -120.035E-03     232.006E-03    -111.971E-03     287.863E-03    -135.648E-03     247.672E-03    -111.644E-03     275.461E-03
            1587     12.8778E-03     55.1002E-03    -22.2160E+06     89.6284E+06     70.6946E+06     257.834E+03    -120.313E-03     232.241E-03    -111.928E-03     269.996E-03    -132.601E-03     244.563E-03    -111.673E-03     257.514E-03
            1588     12.0740E-03     54.8210E-03    -29.1385E+06     68.8976E+06     38.2502E+06     255.642E+03    -118.609E-03     230.445E-03    -111.836E-03     230.853E-03    -126.954E-03     238.819E-03    -111.702E-03     220.117E-03
            1589     11.2681E-03     54.5909E-03    -33.9408E+06     46.5720E+06     16.6143E+06     67.3632E+03    -116.826E-03     228.621E-03    -111.795E-03     194.305E-03    -122.350E-03     234.142E-03    -111.731E-03     185.437E-03
            1590     10.4625E-03     54.3926E-03    -36.4093E+06     1.22547E+06     7.34206E+06    -272.108E+03    -116.126E-03     227.969E-03    -111.843E-03     170.597E-03    -119.999E-03     231.696E-03    -111.755E-03     163.111E-03
            1591     9.65784E-03     54.2146E-03    -39.1669E+06    -50.4335E+06     1.55866E+06    -107.427E+03    -115.935E-03     227.843E-03    -111.907E-03     155.792E-03    -118.776E-03     230.361E-03    -111.770E-03     149.394E-03
            1592     8.85289E-03     54.0484E-03    -42.8512E+06    -85.0619E+06    -1.99901E+06     436.189E+03    -115.681E-03     227.632E-03    -111.951E-03     143.377E-03    -117.799E-03     229.302E-03    -111.776E-03     137.926E-03
            1593     8.04810E-03     53.8968E-03    -47.0342E+06    -110.994E+06    -6.86773E+06     651.384E+03    -115.245E-03     227.219E-03    -111.973E-03     130.593E-03    -116.815E-03     228.248E-03    -111.779E-03     125.978E-03
            1594     7.24339E-03     53.7578E-03    -51.2397E+06    -132.559E+06    -12.4788E+06     301.227E+03    -114.740E-03     226.725E-03    -111.985E-03     117.899E-03    -115.892E-03     227.261E-03    -111.781E-03     114.011E-03
            1595     6.43853E-03     53.6340E-03    -55.6184E+06    -153.065E+06    -18.0149E+06     353.389E+03    -114.244E-03     226.241E-03    -111.997E-03     105.429E-03    -115.076E-03     226.384E-03    -111.785E-03     102.183E-03
            1596     5.63362E-03     53.5225E-03    -60.1018E+06    -170.525E+06    -24.6822E+06     332.024E+03    -113.740E-03     225.742E-03    -112.002E-03     92.9178E-03    -114.327E-03     225.581E-03    -111.791E-03     90.2393E-03
            1597     4.82872E-03     53.4263E-03    -64.7437E+06    -187.786E+06    -34.8687E+06    -58.0212E+03    -113.287E-03     225.280E-03    -111.992E-03     80.2281E-03    -113.680E-03     224.877E-03    -111.801E-03     78.0452E-03
            1598     4.02398E-03     53.3433E-03    -70.2790E+06    -206.610E+06    -46.3826E+06    -108.663E+03    -112.921E-03     224.899E-03    -111.978E-03     67.3852E-03    -113.163E-03     224.292E-03    -111.808E-03     65.6500E-03
            1599     3.21915E-03     53.2751E-03    -75.9437E+06    -219.511E+06    -56.4058E+06    -86.9344E+03    -112.576E-03     224.533E-03    -111.957E-03     54.3334E-03    -112.713E-03     223.785E-03    -111.811E-03     53.0001E-03
            1600     2.41438E-03     53.2214E-03    -80.7521E+06    -226.910E+06    -67.1444E+06    -233.389E+03    -112.254E-03     224.178E-03    -111.924E-03     41.1103E-03    -112.318E-03     223.345E-03    -111.814E-03     40.1389E-03
            1601     1.60961E-03     53.1826E-03    -84.3468E+06    -234.084E+06    -77.6203E+06    -277.340E+03    -112.018E-03     223.921E-03    -111.903E-03     27.8199E-03    -112.027E-03     223.024E-03    -111.829E-03     27.1776E-03
            1602     804.706E-06     53.1587E-03    -86.0108E+06    -238.392E+06    -84.4637E+06    -498.656E+03    -111.957E-03     223.838E-03    -111.882E-03     15.3086E-03    -111.931E-03     222.906E-03    -111.834E-03     14.9617E-03
            1603     15.2909E-03     54.8730E-03    -6.17885E+06     119.995E+06     93.9793E+06    -892.682E+03    -112.838E-03     224.766E-03    -111.929E-03     192.774E-03    -124.636E-03     236.696E-03    -111.624E-03     187.180E-03
            1604     14.4884E-03     54.5561E-03    -11.7185E+06     116.898E+06     96.1193E+06    -2.16648E+06    -117.781E-03     229.744E-03    -111.963E-03     282.507E-03    -135.612E-03     247.669E-03    -111.635E-03     272.467E-03
            1605     13.6833E-03     54.2359E-03    -16.9343E+06     104.810E+06     90.5877E+06    -557.786E+03    -119.810E-03     231.789E-03    -111.980E-03     287.788E-03    -135.421E-03     247.450E-03    -111.654E-03     275.403E-03
            1606     12.8791E-03     53.9151E-03    -23.0883E+06     88.7716E+06     71.1281E+06     1.43389E+06    -120.261E-03     232.218E-03    -111.956E-03     270.879E-03    -132.579E-03     244.562E-03    -111.696E-03     258.424E-03
            1607     12.0721E-03     53.6357E-03    -27.7750E+06     70.0863E+06     40.5836E+06     1.47123E+06    -118.780E-03     230.649E-03    -111.869E-03     231.095E-03    -127.131E-03     239.033E-03    -111.727E-03     220.355E-03
            1608     11.2676E-03     53.4048E-03    -31.5987E+06     47.8431E+06     18.5479E+06     143.629E+03    -117.135E-03     228.944E-03    -111.809E-03     193.994E-03    -122.670E-03     234.483E-03    -111.740E-03     185.078E-03
            1609     10.4632E-03     53.2078E-03    -35.4041E+06     1.24078E+06     7.95748E+06    -289.166E+03    -116.233E-03     228.069E-03    -111.836E-03     170.229E-03    -120.095E-03     231.787E-03    -111.747E-03     162.743E-03
            1610     9.65791E-03     53.0286E-03    -39.0916E+06    -51.3878E+06     1.25110E+06    -93.8946E+03    -115.950E-03     227.841E-03    -111.891E-03     155.464E-03    -118.786E-03     230.352E-03    -111.754E-03     149.066E-03
            1611     8.85318E-03     52.8634E-03    -42.7351E+06    -85.9844E+06    -1.99971E+06     535.274E+03    -115.708E-03     227.639E-03    -111.931E-03     143.101E-03    -117.825E-03     229.304E-03    -111.754E-03     137.647E-03
            1612     8.04854E-03     52.7108E-03    -46.2376E+06    -110.236E+06    -6.14793E+06     726.076E+03    -115.261E-03     227.208E-03    -111.947E-03     130.464E-03    -116.828E-03     228.238E-03    -111.751E-03     125.849E-03
            1613     7.24354E-03     52.5733E-03    -50.2851E+06    -131.977E+06    -11.9622E+06     491.031E+03    -114.737E-03     226.691E-03    -111.954E-03     117.850E-03    -115.885E-03     227.227E-03    -111.750E-03     113.966E-03
            1614     6.43868E-03     52.4481E-03    -54.6242E+06    -153.132E+06    -17.9256E+06     276.616E+03    -114.218E-03     226.181E-03    -111.963E-03     105.348E-03    -115.044E-03     226.321E-03    -111.751E-03     102.104E-03
            1615     5.63391E-03     52.3381E-03    -59.2871E+06    -169.898E+06    -24.7892E+06    -100.250E+03    -113.698E-03     225.664E-03    -111.966E-03     92.7891E-03    -114.280E-03     225.504E-03    -111.757E-03     90.1063E-03
            1616     4.82891E-03     52.2407E-03    -64.5724E+06    -188.266E+06    -33.3698E+06     272.111E+03    -113.278E-03     225.242E-03    -111.964E-03     80.1069E-03    -113.670E-03     224.833E-03    -111.764E-03     77.9309E-03
            1617     4.02413E-03     52.1585E-03    -70.0851E+06    -206.814E+06    -43.7533E+06     967.117E+03    -112.926E-03     224.872E-03    -111.947E-03     67.2453E-03    -113.170E-03     224.260E-03    -111.764E-03     65.5241E-03
            1618     3.21932E-03     52.0899E-03    -75.4485E+06    -218.323E+06    -54.8762E+06     334.570E+03    -112.538E-03     224.448E-03    -111.910E-03     54.2345E-03    -112.677E-03     223.703E-03    -111.758E-03     52.9085E-03
            1619     2.41456E-03     52.0365E-03    -80.2321E+06    -226.938E+06    -66.9461E+06    -453.519E+03    -112.209E-03     224.077E-03    -111.868E-03     41.1145E-03    -112.271E-03     223.242E-03    -111.757E-03     40.1418E-03
            1620     1.60964E-03     51.9978E-03    -83.9189E+06    -234.434E+06    -78.0975E+06    -448.304E+03    -112.000E-03     223.830E-03    -111.830E-03     27.8450E-03    -112.005E-03     222.932E-03    -111.759E-03     27.2029E-03
            1621     804.797E-06     51.9740E-03    -86.4136E+06    -239.052E+06    -85.2070E+06    -597.156E+03    -111.865E-03     223.672E-03    -111.807E-03     15.2150E-03    -111.839E-03     222.738E-03    -111.761E-03     14.8702E-03
            1622     15.2975E-03     53.6869E-03    -3.77892E+06     122.280E+06     96.4936E+06     406.183E+03    -112.887E-03     224.779E-03    -111.891E-03     193.490E-03    -124.713E-03     236.745E-03    -111.581E-03     187.979E-03
            1623     14.4903E-03     53.3733E-03    -10.7222E+06     116.863E+06     95.8244E+06    -759.928E+03    -116.647E-03     228.597E-03    -111.950E-03     283.576E-03    -134.539E-03     246.588E-03    -111.624E-03     273.686E-03
            1624     13.6836E-03     53.0505E-03    -18.8892E+06     101.792E+06     87.6287E+06    -981.969E+03    -119.779E-03     231.779E-03    -112.000E-03     288.381E-03    -135.414E-03     247.455E-03    -111.682E-03     275.975E-03
            1625     12.8764E-03     52.7300E-03    -24.1882E+06     87.4806E+06     70.5622E+06    -263.494E+03    -120.528E-03     232.507E-03    -111.979E-03     270.403E-03    -132.829E-03     244.828E-03    -111.718E-03     257.900E-03
            1626     12.0730E-03     52.4493E-03    -28.2469E+06     70.2452E+06     41.4121E+06    -142.921E+03    -119.007E-03     230.884E-03    -111.876E-03     230.576E-03    -127.359E-03     239.265E-03    -111.730E-03     219.783E-03
            1627     11.2682E-03     52.2191E-03    -31.8068E+06     48.1492E+06     18.8727E+06     33.1939E+03    -117.239E-03     229.035E-03    -111.797E-03     193.274E-03    -122.771E-03     234.571E-03    -111.726E-03     184.343E-03
            1628     10.4630E-03     52.0220E-03    -35.4364E+06     1.32434E+06     8.18657E+06     548.641E+03    -116.268E-03     228.081E-03    -111.813E-03     169.898E-03    -120.130E-03     231.798E-03    -111.722E-03     162.417E-03
            1629     9.65846E-03     51.8435E-03    -39.2148E+06    -51.5428E+06     1.37391E+06     355.235E+03    -115.966E-03     227.827E-03    -111.862E-03     155.511E-03    -118.803E-03     230.338E-03    -111.723E-03     149.117E-03
            1630     8.85358E-03     51.6776E-03    -42.6511E+06    -86.0586E+06    -1.96270E+06     135.050E+03    -115.674E-03     227.573E-03    -111.899E-03     143.068E-03    -117.788E-03     229.236E-03    -111.722E-03     137.612E-03
            1631     8.04846E-03     51.5259E-03    -46.2392E+06    -110.332E+06    -6.17674E+06     243.410E+03    -115.220E-03     227.135E-03    -111.915E-03     130.350E-03    -116.785E-03     228.162E-03    -111.719E-03     125.734E-03
            1632     7.24384E-03     51.3875E-03    -49.9883E+06    -131.499E+06    -11.4689E+06     411.666E+03    -114.724E-03     226.645E-03    -111.922E-03     117.698E-03    -115.870E-03     227.181E-03    -111.716E-03     113.816E-03
            1633     6.43901E-03     51.2636E-03    -54.3209E+06    -152.820E+06    -17.6587E+06     120.844E+03    -114.198E-03     226.125E-03    -111.927E-03     105.230E-03    -115.022E-03     226.265E-03    -111.715E-03     101.987E-03
            1634     5.63399E-03     51.1525E-03    -59.1346E+06    -169.818E+06    -24.8064E+06     35.9194E+03    -113.719E-03     225.641E-03    -111.922E-03     92.6992E-03    -114.300E-03     225.481E-03    -111.715E-03     90.0213E-03
            1635     4.82927E-03     51.0562E-03    -64.3270E+06    -189.369E+06    -31.8327E+06     533.031E+03    -113.286E-03     225.206E-03    -111.920E-03     80.0245E-03    -113.677E-03     224.789E-03    -111.712E-03     77.8547E-03
            1636     4.02434E-03     50.9731E-03    -69.5342E+06    -206.515E+06    -40.7883E+06     729.431E+03    -112.854E-03     224.757E-03    -111.903E-03     67.1535E-03    -113.099E-03     224.141E-03    -111.707E-03     65.4326E-03
            1637     3.21959E-03     50.9053E-03    -74.6819E+06    -216.955E+06    -53.5299E+06     416.787E+03    -112.468E-03     224.326E-03    -111.859E-03     54.1369E-03    -112.606E-03     223.584E-03    -111.703E-03     52.8146E-03
            1638     2.41453E-03     50.8517E-03    -79.7327E+06    -226.897E+06    -66.9151E+06     67.6295E+03    -112.177E-03     223.987E-03    -111.810E-03     41.0113E-03    -112.236E-03     223.151E-03    -111.700E-03     40.0475E-03
            1639     1.60975E-03     50.8130E-03    -83.9261E+06    -234.645E+06    -78.1997E+06     64.3073E+03    -111.987E-03     223.740E-03    -111.752E-03     27.7485E-03    -111.993E-03     222.841E-03    -111.681E-03     27.1149E-03
            1640     805.051E-06     50.7892E-03    -86.3266E+06    -239.254E+06    -85.4961E+06     110.798E+03    -111.832E-03     223.481E-03    -111.649E-03     15.1172E-03    -111.805E-03     222.547E-03    -111.605E-03     14.7797E-03
            1641     15.2938E-03     52.5047E-03    -4.29496E+06     121.607E+06     95.9967E+06     159.585E+03    -112.461E-03     224.400E-03    -111.939E-03     195.331E-03    -124.368E-03     236.445E-03    -111.629E-03     189.862E-03
            1642     14.4867E-03     52.1875E-03    -10.2634E+06     117.965E+06     96.8202E+06     1.98957E+06    -117.294E-03     229.299E-03    -112.005E-03     285.025E-03    -135.286E-03     247.393E-03    -111.677E-03     275.079E-03
            1643     13.6819E-03     51.8644E-03    -16.5054E+06     103.983E+06     90.0717E+06     804.318E+03    -120.530E-03     232.553E-03    -112.023E-03     287.976E-03    -136.170E-03     248.243E-03    -111.700E-03     275.471E-03
            1644     12.8793E-03     51.5446E-03    -23.4497E+06     87.4841E+06     70.1837E+06    -853.827E+03    -120.958E-03     232.909E-03    -111.951E-03     269.297E-03    -133.233E-03     245.208E-03    -111.693E-03     256.724E-03
            1645     12.0729E-03     51.2636E-03    -28.9369E+06     69.3270E+06     39.0069E+06    -1.07848E+06    -118.950E-03     230.771E-03    -111.821E-03     230.217E-03    -127.297E-03     239.148E-03    -111.685E-03     219.412E-03
            1646     11.2683E-03     51.0328E-03    -32.8847E+06     47.2448E+06     17.7652E+06    -159.707E+03    -116.988E-03     228.741E-03    -111.753E-03     192.839E-03    -122.505E-03     234.258E-03    -111.685E-03     183.936E-03
            1647     10.4638E-03     50.8370E-03    -36.6042E+06     1.35027E+06     7.90857E+06     339.656E+03    -116.135E-03     227.916E-03    -111.781E-03     169.720E-03    -119.999E-03     231.632E-03    -111.691E-03     162.245E-03
            1648     9.65849E-03     50.6578E-03    -39.4870E+06    -50.9745E+06     1.45055E+06     92.9741E+03    -115.962E-03     227.795E-03    -111.832E-03     155.559E-03    -118.797E-03     230.304E-03    -111.694E-03     149.171E-03
            1649     8.85367E-03     50.4925E-03    -42.6996E+06    -85.9134E+06    -1.99204E+06    -138.057E+03    -115.701E-03     227.567E-03    -111.866E-03     142.941E-03    -117.814E-03     229.229E-03    -111.689E-03     137.483E-03
            1650     8.04916E-03     50.3405E-03    -46.4700E+06    -110.565E+06    -6.45402E+06    -92.4170E+03    -115.216E-03     227.092E-03    -111.876E-03     130.201E-03    -116.779E-03     228.117E-03    -111.681E-03     125.583E-03
            1651     7.24407E-03     50.2026E-03    -50.5399E+06    -132.045E+06    -11.8911E+06    -54.1938E+03    -114.691E-03     226.570E-03    -111.879E-03     117.555E-03    -115.835E-03     227.101E-03    -111.674E-03     113.674E-03
            1652     6.43915E-03     50.0782E-03    -54.9449E+06    -152.431E+06    -17.5235E+06     91.4540E+03    -114.206E-03     226.086E-03    -111.881E-03     105.026E-03    -115.032E-03     226.227E-03    -111.667E-03     101.785E-03
            1653     5.63443E-03     49.9679E-03    -60.1177E+06    -170.237E+06    -24.8879E+06     381.658E+03    -113.708E-03     225.577E-03    -111.869E-03     92.5235E-03    -114.291E-03     225.414E-03    -111.659E-03     89.8543E-03
            1654     4.82947E-03     49.8709E-03    -65.4145E+06    -189.171E+06     -33.604E+06     183.281E+03    -113.225E-03     225.077E-03    -111.853E-03     79.9152E-03    -113.618E-03     224.664E-03    -111.651E-03     77.7440E-03
            1655     4.02471E-03     49.7887E-03    -70.3565E+06    -206.184E+06    -43.1235E+06    -361.991E+03    -112.785E-03     224.617E-03    -111.832E-03     67.1039E-03    -113.031E-03     224.006E-03    -111.646E-03     65.3731E-03
            1656     3.21956E-03     49.7204E-03    -75.1574E+06    -217.478E+06    -54.2397E+06     62.3736E+03    -112.437E-03     224.229E-03    -111.792E-03     54.0452E-03    -112.575E-03     223.486E-03    -111.639E-03     52.7208E-03
            1657     2.41493E-03     49.6671E-03    -79.9300E+06    -226.497E+06    -66.6542E+06     799.247E+03    -112.156E-03     223.888E-03    -111.732E-03     40.8798E-03    -112.216E-03     223.054E-03    -111.621E-03     39.9267E-03
            1658     1.60998E-03     49.6284E-03    -83.9259E+06    -234.114E+06    -77.5833E+06     565.841E+03    -111.894E-03     223.559E-03    -111.665E-03     27.6548E-03    -111.901E-03     222.662E-03    -111.592E-03     27.0281E-03
            1659     804.897E-06     49.6047E-03    -86.4665E+06    -238.834E+06    -84.6298E+06     432.683E+03    -111.668E-03     223.302E-03    -111.634E-03     14.9180E-03    -111.644E-03     222.369E-03    -111.585E-03     14.5817E-03
            1660     15.2902E-03     51.3134E-03    -5.62539E+06     120.178E+06     94.0442E+06    -357.495E+03    -112.288E-03     224.241E-03    -111.953E-03     192.615E-03    -124.053E-03     236.140E-03    -111.649E-03     187.101E-03
            1661     14.4886E-03     51.0043E-03    -10.1766E+06     118.680E+06     97.4976E+06     512.660E+03    -117.896E-03     229.894E-03    -111.998E-03     282.113E-03    -135.730E-03     247.830E-03    -111.668E-03     272.046E-03
            1662     13.6838E-03     50.6765E-03    -15.3488E+06     104.908E+06     91.4639E+06     1.08705E+06    -120.702E-03     232.682E-03    -111.980E-03     286.637E-03    -136.285E-03     248.317E-03    -111.652E-03     274.138E-03
            1663     12.8781E-03     50.3586E-03    -21.2928E+06     88.8954E+06     71.5801E+06     1.10279E+06    -120.685E-03     232.584E-03    -111.899E-03     268.865E-03    -132.942E-03     244.873E-03    -111.639E-03     256.346E-03
            1664     12.0747E-03     50.0781E-03    -27.8328E+06     70.2645E+06     39.1209E+06     677.079E+03    -118.831E-03     230.606E-03    -111.774E-03     230.664E-03    -127.182E-03     238.993E-03    -111.640E-03     219.896E-03
            1665     11.2693E-03     49.8480E-03    -33.1704E+06     46.3876E+06     17.0404E+06     69.5329E+03    -116.890E-03     228.605E-03    -111.715E-03     193.093E-03    -122.397E-03     234.109E-03    -111.649E-03     184.215E-03
            1666     10.4636E-03     49.6515E-03    -36.0621E+06     1.73198E+06     8.45511E+06    -255.649E+03    -116.119E-03     227.869E-03    -111.750E-03     169.721E-03    -119.979E-03     231.582E-03    -111.658E-03     162.243E-03
            1667     9.65896E-03     49.4727E-03    -39.1699E+06    -50.3705E+06     1.69824E+06    -87.0053E+03    -115.963E-03     227.760E-03    -111.797E-03     155.432E-03    -118.792E-03     230.267E-03    -111.659E-03     149.051E-03
            1668     8.85421E-03     49.3069E-03    -42.8336E+06    -85.8430E+06    -2.25472E+06    -240.940E+03    -115.696E-03     227.521E-03    -111.825E-03     142.811E-03    -117.805E-03     229.180E-03    -111.650E-03     137.359E-03
            1669     8.04916E-03     49.1554E-03    -46.8142E+06    -110.963E+06    -6.92609E+06    -215.886E+03    -115.247E-03     227.076E-03    -111.829E-03     129.978E-03    -116.808E-03     228.097E-03    -111.635E-03     125.361E-03
            1670     7.24449E-03     49.0175E-03    -51.0245E+06    -132.182E+06    -12.3219E+06    -43.2346E+03    -114.702E-03     226.525E-03    -111.823E-03     117.327E-03    -115.846E-03     227.055E-03    -111.619E-03     113.449E-03
            1671     6.43971E-03     48.8933E-03    -55.6423E+06    -152.573E+06    -18.0119E+06     146.392E+03    -114.174E-03     225.991E-03    -111.817E-03     104.855E-03    -115.000E-03     226.131E-03    -111.606E-03     101.622E-03
            1672     5.63478E-03     48.7828E-03    -60.4084E+06    -170.576E+06    -24.9434E+06     480.582E+03    -113.662E-03     225.464E-03    -111.803E-03     92.3951E-03    -114.245E-03     225.300E-03    -111.593E-03     89.7303E-03
            1673     4.82989E-03     48.6863E-03    -65.3340E+06    -188.070E+06    -35.3792E+06    -4.27061E+03    -113.174E-03     224.945E-03    -111.771E-03     79.7419E-03    -113.564E-03     224.539E-03    -111.581E-03     77.5716E-03
            1674     4.02474E-03     48.6039E-03    -70.5379E+06    -206.205E+06    -46.0209E+06    -480.604E+03    -112.756E-03     224.495E-03    -111.739E-03     66.8674E-03    -112.998E-03     223.888E-03    -111.568E-03     65.1371E-03
            1675     3.22010E-03     48.5359E-03    -75.9282E+06    -218.699E+06    -55.6056E+06    -67.2325E+03    -112.374E-03     224.075E-03    -111.701E-03     53.8823E-03    -112.512E-03     223.328E-03    -111.552E-03     52.5586E-03
            1676     2.41495E-03     48.4825E-03    -80.5965E+06    -226.381E+06    -66.6527E+06     251.060E+03    -112.040E-03     223.685E-03    -111.645E-03     40.7850E-03    -112.104E-03     222.853E-03    -111.533E-03     39.8265E-03
            1677     1.61006E-03     48.4441E-03    -83.8119E+06    -233.460E+06    -77.0626E+06     273.337E+03    -111.774E-03     223.368E-03    -111.594E-03     27.5963E-03    -111.782E-03     222.473E-03    -111.519E-03     26.9659E-03
            1678     805.167E-06     48.4205E-03    -86.0448E+06    -238.175E+06    -84.2113E+06     198.970E+03    -111.610E-03     223.181E-03    -111.571E-03     14.8573E-03    -111.585E-03     222.250E-03    -111.522E-03     14.5192E-03
            1679     15.2986E-03     50.1364E-03    -5.17459E+06     121.008E+06     94.8105E+06    -451.445E+03    -113.602E-03     225.486E-03    -111.884E-03     192.986E-03    -125.362E-03     237.382E-03    -111.577E-03     187.355E-03
            1680     14.4888E-03     49.8149E-03    -11.1026E+06     117.264E+06     96.1427E+06    -801.007E+03    -117.846E-03     229.742E-03    -111.897E-03     282.994E-03    -135.656E-03     247.651E-03    -111.570E-03     272.935E-03
            1681     13.6853E-03     49.4924E-03    -17.0733E+06     103.050E+06     89.8782E+06    -309.585E+03    -119.920E-03     231.824E-03    -111.905E-03     286.740E-03    -135.452E-03     247.402E-03    -111.580E-03     274.368E-03
            1682     12.8803E-03     49.1736E-03    -22.6478E+06     88.2264E+06     71.6372E+06     1.03473E+06    -120.256E-03     232.128E-03    -111.872E-03     270.228E-03    -132.521E-03     244.419E-03    -111.609E-03     257.785E-03
            1683     12.0734E-03     48.8923E-03    -27.6576E+06     71.1036E+06     40.9983E+06     1.64106E+06    -118.865E-03     230.637E-03    -111.771E-03     230.864E-03    -127.214E-03     239.021E-03    -111.629E-03     220.117E-03
            1684     11.2687E-03     48.6625E-03    -30.9071E+06     47.6658E+06     18.8626E+06     551.962E+03    -117.012E-03     228.716E-03    -111.704E-03     193.256E-03    -122.514E-03     234.222E-03    -111.634E-03     184.379E-03
            1685     10.4645E-03     48.4662E-03    -34.4000E+06     1.78706E+06     9.22055E+06      271.45E+03    -116.315E-03     228.039E-03    -111.724E-03     169.824E-03    -120.174E-03     231.755E-03    -111.630E-03     162.338E-03
            1686     9.65941E-03     48.2874E-03    -38.5989E+06    -49.9772E+06     2.01931E+06     440.457E+03    -116.081E-03     227.836E-03    -111.755E-03     155.345E-03    -118.910E-03     230.344E-03    -111.616E-03     148.962E-03
            1687     8.85439E-03     48.1217E-03    -42.5313E+06    -85.8757E+06    -2.32428E+06     116.156E+03    -115.719E-03     227.491E-03    -111.771E-03     142.549E-03    -117.822E-03     229.144E-03    -111.597E-03     137.106E-03
            1688     8.04990E-03     47.9701E-03    -46.4558E+06    -110.769E+06    -6.79194E+06     46.1444E+03    -115.245E-03     227.012E-03    -111.768E-03     129.643E-03    -116.801E-03     228.030E-03    -111.574E-03     125.033E-03
            1689     7.24506E-03     47.8324E-03    -50.7968E+06    -132.225E+06    -12.3111E+06     113.415E+03    -114.691E-03     226.444E-03    -111.754E-03     117.043E-03    -115.832E-03     226.972E-03    -111.550E-03     113.168E-03
            1690     6.44007E-03     47.7085E-03    -55.3091E+06    -152.741E+06    -18.2942E+06     346.004E+03    -114.107E-03     225.848E-03    -111.741E-03     104.656E-03    -114.929E-03     225.984E-03    -111.531E-03     101.431E-03
            1691     5.63514E-03     47.5980E-03    -59.9218E+06    -170.609E+06    -25.5597E+06    -15.6149E+03    -113.612E-03     225.333E-03    -111.721E-03     92.2050E-03    -114.191E-03     225.167E-03    -111.514E-03     89.5382E-03
            1692     4.83021E-03     47.5017E-03    -64.6912E+06    -187.849E+06    -35.1365E+06     167.825E+03    -113.171E-03     224.854E-03    -111.683E-03     79.5222E-03    -113.559E-03     224.447E-03    -111.492E-03     77.3551E-03
            1693     4.02554E-03     47.4193E-03    -70.1215E+06    -205.918E+06    -45.6801E+06     666.354E+03    -112.697E-03     224.336E-03    -111.638E-03     66.6770E-03    -112.937E-03     223.728E-03    -111.467E-03     64.9644E-03
            1694     3.22026E-03     47.3516E-03    -75.6132E+06    -218.554E+06    -55.2772E+06     140.110E+03    -112.256E-03     223.853E-03    -111.597E-03     53.7665E-03    -112.392E-03     223.105E-03    -111.447E-03     52.4494E-03
            1695     2.41535E-03     47.2983E-03    -80.2834E+06    -226.249E+06    -66.5378E+06    -466.367E+03    -111.901E-03     223.449E-03    -111.548E-03     40.6446E-03    -111.964E-03     222.616E-03    -111.436E-03     39.6800E-03
            1696     1.61016E-03     47.2599E-03    -83.9267E+06    -233.731E+06    -77.5282E+06    -487.717E+03    -111.630E-03     223.148E-03    -111.519E-03     27.4598E-03    -111.637E-03     222.253E-03    -111.446E-03     26.8219E-03
            1697     804.868E-06     47.2365E-03    -85.7936E+06    -238.047E+06    -84.4840E+06    -384.695E+03    -111.567E-03     223.068E-03    -111.501E-03     15.0023E-03    -111.540E-03     222.138E-03    -111.454E-03     14.6589E-03
            1698     15.2917E-03     48.9490E-03    -5.11183E+06     121.760E+06     95.6030E+06    -51.1975E+03    -114.328E-03     226.189E-03    -111.862E-03     193.429E-03    -126.202E-03     238.200E-03    -111.553E-03     187.716E-03
            1699     14.4924E-03     48.6278E-03    -10.2772E+06     118.020E+06         97.E+06     398.384E+03    -117.549E-03     229.414E-03    -111.865E-03     283.788E-03    -135.409E-03     247.375E-03    -111.536E-03     273.830E-03
            1700     13.6852E-03     48.3107E-03    -17.2361E+06     101.986E+06     89.0008E+06     71.5842E+03    -119.478E-03     231.377E-03    -111.899E-03     288.467E-03    -135.027E-03     246.969E-03    -111.577E-03     276.157E-03
            1701     12.8776E-03     47.9864E-03    -24.0067E+06     86.6016E+06     70.2899E+06     88.7511E+03    -120.806E-03     232.681E-03    -111.875E-03     271.301E-03    -133.131E-03     245.024E-03    -111.614E-03     258.754E-03
            1702     12.0748E-03     47.7074E-03    -27.8497E+06     70.9318E+06     41.0265E+06    -322.445E+03    -118.971E-03     230.727E-03    -111.756E-03     229.900E-03    -127.307E-03     239.097E-03    -111.614E-03     219.112E-03
            1703     11.2695E-03     47.4768E-03    -31.2281E+06     48.2926E+06     18.7462E+06     495.850E+03    -116.989E-03     228.666E-03    -111.677E-03     192.883E-03    -122.489E-03     234.173E-03    -111.608E-03     184.004E-03
            1704     10.4640E-03     47.2805E-03    -35.4483E+06     1.43185E+06     8.26031E+06     795.343E+03    -116.432E-03     228.119E-03    -111.687E-03     169.574E-03    -120.294E-03     231.836E-03    -111.596E-03     162.084E-03
            1705     9.65973E-03     47.1017E-03    -39.0140E+06    -50.0545E+06     1.78414E+06     543.802E+03    -116.248E-03     227.951E-03    -111.702E-03     154.887E-03    -119.078E-03     230.459E-03    -111.564E-03     148.491E-03
            1706     8.85544E-03     46.9366E-03    -42.4709E+06    -84.9997E+06    -1.90322E+06     474.301E+03    -115.752E-03     227.455E-03    -111.703E-03     142.203E-03    -117.853E-03     229.109E-03    -111.528E-03     136.766E-03
            1707     8.05035E-03     46.7849E-03    -46.3871E+06    -110.607E+06    -6.75738E+06     297.732E+03    -115.180E-03     226.872E-03    -111.692E-03     129.490E-03    -116.733E-03     227.887E-03    -111.498E-03     124.893E-03
            1708     7.24557E-03     46.6476E-03    -50.4681E+06    -132.268E+06    -12.2831E+06     207.137E+03    -114.661E-03     226.334E-03    -111.673E-03     116.833E-03    -115.797E-03     226.857E-03    -111.470E-03     112.966E-03
            1709     6.44077E-03     46.5238E-03    -54.6597E+06    -152.787E+06    -18.0299E+06     72.8237E+03    -114.114E-03     225.765E-03    -111.651E-03     104.360E-03    -114.932E-03     225.898E-03    -111.440E-03     101.134E-03
            1710     5.63577E-03     46.4136E-03    -59.3302E+06    -169.934E+06    -25.4007E+06     151.508E+03    -113.554E-03     225.172E-03    -111.618E-03     91.9645E-03    -114.128E-03     225.006E-03    -111.413E-03     89.3067E-03
            1711     4.83085E-03     46.3170E-03    -64.6281E+06    -188.910E+06    -33.7908E+06     400.702E+03    -113.047E-03     224.634E-03    -111.587E-03     79.3494E-03    -113.433E-03     224.218E-03    -111.388E-03     77.1929E-03
            1712     4.02564E-03     46.2352E-03    -69.6400E+06    -205.718E+06    -42.3809E+06     752.271E+03    -112.590E-03     224.141E-03    -111.551E-03     66.5632E-03    -112.832E-03     223.528E-03    -111.363E-03     64.8562E-03
            1713     3.22076E-03     46.1674E-03    -74.6281E+06    -216.858E+06    -53.4845E+06     288.424E+03    -112.172E-03     223.667E-03    -111.495E-03     53.6578E-03    -112.308E-03     222.924E-03    -111.340E-03     52.3458E-03
            1714     2.41552E-03     46.1142E-03    -79.5997E+06    -226.314E+06    -66.4904E+06    -310.071E+03    -111.798E-03     223.234E-03    -111.436E-03     40.5004E-03    -111.857E-03     222.400E-03    -111.325E-03     39.5403E-03
            1715     1.61035E-03     46.0762E-03    -83.6822E+06    -233.927E+06    -77.8191E+06    -309.455E+03    -111.546E-03     222.941E-03    -111.395E-03     27.3450E-03    -111.551E-03     222.045E-03    -111.324E-03     26.7123E-03
            1716     805.267E-06     46.0524E-03    -86.5460E+06    -238.895E+06    -85.2212E+06    -240.178E+03    -111.423E-03     222.802E-03    -111.378E-03     14.9422E-03    -111.398E-03     221.869E-03    -111.333E-03     14.6030E-03
            1717     15.2981E-03     47.7576E-03    -5.59651E+06     121.334E+06     94.6419E+06    -551.597E+03    -113.170E-03     225.058E-03    -111.888E-03     193.928E-03    -124.992E-03     237.017E-03    -111.583E-03     188.389E-03
            1718     14.4894E-03     47.4462E-03    -11.7347E+06     117.043E+06     95.7232E+06    -68.2686E+03    -117.339E-03     229.271E-03    -111.931E-03     284.355E-03    -135.230E-03     247.258E-03    -111.606E-03     274.430E-03
            1719     13.6824E-03     47.1244E-03    -17.2213E+06     102.152E+06     89.4929E+06     582.910E+03    -120.831E-03     232.771E-03    -111.941E-03     288.865E-03    -136.511E-03     248.494E-03    -111.616E-03     276.332E-03
            1720     12.8805E-03     46.8005E-03    -22.2555E+06     87.6867E+06     70.8097E+06    -372.708E+03    -121.238E-03     233.090E-03    -111.852E-03     269.850E-03    -133.538E-03     245.417E-03    -111.593E-03     257.233E-03
            1721     12.0745E-03     46.5211E-03    -27.9353E+06     70.4361E+06     39.6819E+06    -304.603E+03    -118.849E-03     230.559E-03    -111.710E-03     229.566E-03    -127.164E-03     238.909E-03    -111.573E-03     218.798E-03
            1722     11.2698E-03     46.2923E-03    -33.1163E+06     47.1375E+06     17.2671E+06     435.286E+03    -117.219E-03     228.843E-03    -111.624E-03     192.731E-03    -122.733E-03     234.357E-03    -111.558E-03     183.824E-03
            1723     10.4653E-03     46.0945E-03    -36.4038E+06     1.83501E+06     7.88871E+06     397.180E+03    -116.468E-03     228.087E-03    -111.619E-03     169.159E-03    -120.322E-03     231.795E-03    -111.530E-03     161.672E-03
            1724     9.66074E-03     45.9163E-03    -39.2292E+06    -49.8068E+06     1.88396E+06     279.809E+03    -116.137E-03     227.768E-03    -111.631E-03     154.475E-03    -118.958E-03     230.268E-03    -111.493E-03     148.092E-03
            1725     8.85574E-03     45.7512E-03    -42.5799E+06    -84.9390E+06    -1.87163E+06     262.160E+03    -115.744E-03     227.372E-03    -111.628E-03     141.974E-03    -117.841E-03     229.023E-03    -111.453E-03     136.539E-03
            1726     8.05118E-03     45.6004E-03    -46.2454E+06    -110.456E+06    -6.52561E+06     319.917E+03    -115.189E-03     226.797E-03    -111.608E-03     129.193E-03    -116.738E-03     227.809E-03    -111.413E-03     124.600E-03
            1727     7.24620E-03     45.4626E-03    -50.2506E+06    -131.920E+06    -12.0096E+06     256.303E+03    -114.623E-03     226.203E-03    -111.580E-03     116.571E-03    -115.755E-03     226.723E-03    -111.376E-03     112.715E-03
            1728     6.44136E-03     45.3393E-03    -54.9734E+06    -152.642E+06    -17.7558E+06     129.233E+03    -114.091E-03     225.640E-03    -111.548E-03     104.113E-03    -114.908E-03     225.771E-03    -111.336E-03     100.893E-03
            1729     5.63651E-03     45.2292E-03    -60.0796E+06    -170.264E+06    -24.9827E+06     340.344E+03    -113.484E-03     224.992E-03    -111.508E-03     91.7564E-03    -114.061E-03     224.823E-03    -111.299E-03     89.1078E-03
            1730     4.83129E-03     45.1331E-03    -64.9626E+06    -188.716E+06    -33.2864E+06     301.083E+03    -112.903E-03     224.376E-03    -111.473E-03     79.1467E-03    -113.290E-03     223.958E-03    -111.271E-03     76.9989E-03
            1731     4.02624E-03     45.0510E-03    -69.9804E+06    -205.600E+06    -42.3113E+06    -313.936E+03    -112.456E-03     223.893E-03    -111.437E-03     66.3548E-03    -112.698E-03     223.280E-03    -111.249E-03     64.6410E-03
            1732     3.22099E-03     44.9834E-03    -74.9074E+06    -216.614E+06    -53.6049E+06    -65.4299E+03    -112.045E-03     223.427E-03    -111.382E-03     53.4415E-03    -112.182E-03     222.684E-03    -111.227E-03     52.1280E-03
            1733     2.41587E-03     44.9307E-03    -79.7411E+06    -226.037E+06    -66.3971E+06     316.595E+03    -111.700E-03     223.021E-03    -111.321E-03     40.3902E-03    -111.759E-03     222.187E-03    -111.209E-03     39.4416E-03
            1734     1.61060E-03     44.8924E-03    -83.8956E+06    -233.954E+06    -77.4646E+06     235.056E+03    -111.463E-03     222.729E-03    -111.265E-03     27.3241E-03    -111.470E-03     221.831E-03    -111.192E-03     26.7007E-03
            1735     805.313E-06     44.8690E-03    -86.4611E+06    -238.851E+06    -84.9734E+06     292.857E+03    -111.351E-03     222.514E-03    -111.163E-03     15.0107E-03    -111.326E-03     221.581E-03    -111.116E-03     14.6822E-03
            1736     15.2911E-03     46.5721E-03    -5.57874E+06     120.587E+06     94.1374E+06     562.760E+03    -112.310E-03     224.236E-03    -111.925E-03     193.266E-03    -124.028E-03     236.089E-03    -111.621E-03     187.827E-03
            1737     14.4857E-03     46.2616E-03    -11.2961E+06     117.300E+06     95.9023E+06    -201.958E+03    -118.109E-03     230.075E-03    -111.966E-03     282.972E-03    -136.004E-03     248.069E-03    -111.641E-03     272.872E-03
            1738     13.6853E-03     45.9332E-03    -16.5319E+06     103.509E+06     90.2000E+06    -845.707E+03    -121.546E-03     233.461E-03    -111.915E-03     286.593E-03    -137.237E-03     249.199E-03    -111.590E-03     273.895E-03
            1739     12.8803E-03     45.6166E-03    -22.9725E+06     87.6747E+06     70.7062E+06     52.9525E+03    -120.815E-03     232.615E-03    -111.801E-03     268.905E-03    -133.051E-03     244.877E-03    -111.541E-03     256.388E-03
            1740     12.0751E-03     45.3358E-03    -29.0319E+06     69.7001E+06     39.4514E+06     679.770E+03    -118.976E-03     230.640E-03    -111.664E-03     230.033E-03    -127.287E-03     238.981E-03    -111.526E-03     219.284E-03
            1741     11.2707E-03     45.1058E-03    -32.8684E+06     47.7749E+06     17.9480E+06     37.9659E+03    -117.461E-03     229.025E-03    -111.564E-03     192.443E-03    -122.971E-03     234.536E-03    -111.496E-03     183.512E-03
            1742     10.4663E-03     44.9093E-03    -35.9835E+06     2.27396E+06     8.13708E+06    -46.7155E+03    -116.486E-03     228.028E-03    -111.542E-03     169.065E-03    -120.331E-03     231.729E-03    -111.452E-03     161.585E-03
            1743     9.66113E-03     44.7312E-03    -39.4699E+06    -50.2010E+06     1.24936E+06     141.365E+03    -116.062E-03     227.609E-03    -111.548E-03     154.356E-03    -118.874E-03     230.099E-03    -111.411E-03     147.990E-03
            1744     8.85663E-03     44.5661E-03    -42.9538E+06    -85.3984E+06    -2.20089E+06     37.9962E+03    -115.707E-03     227.249E-03    -111.543E-03     141.593E-03    -117.800E-03     228.893E-03    -111.367E-03     136.162E-03
            1745     8.05185E-03     44.4153E-03    -46.8463E+06    -110.431E+06    -6.53254E+06     166.799E+03    -115.213E-03     226.725E-03    -111.513E-03     128.878E-03    -116.760E-03     227.734E-03    -111.317E-03     124.290E-03
            1746     7.24715E-03     44.2783E-03    -51.3122E+06    -131.767E+06    -12.1439E+06     354.587E+03    -114.603E-03     226.074E-03    -111.471E-03     116.264E-03    -115.737E-03     226.593E-03    -111.266E-03     112.417E-03
            1747     6.44211E-03     44.1546E-03    -55.8964E+06    -152.748E+06    -18.0937E+06     193.381E+03    -113.982E-03     225.413E-03    -111.431E-03     103.832E-03    -114.799E-03     225.542E-03    -111.219E-03     100.624E-03
            1748     5.63707E-03     44.0451E-03    -60.5358E+06    -170.599E+06    -24.9206E+06     224.427E+03    -113.408E-03     224.793E-03    -111.385E-03     91.3779E-03    -113.984E-03     224.621E-03    -111.175E-03     88.7335E-03
            1749     4.83204E-03     43.9492E-03    -65.7035E+06    -187.344E+06    -33.9960E+06    -102.263E+03    -112.822E-03     224.156E-03    -111.333E-03     78.8651E-03    -113.211E-03     223.745E-03    -111.137E-03     76.7187E-03
            1750     4.02676E-03     43.8673E-03    -70.8994E+06    -205.204E+06    -44.7422E+06    -785.186E+03    -112.309E-03     223.594E-03    -111.285E-03     66.1448E-03    -112.551E-03     222.985E-03    -111.108E-03     64.4327E-03
            1751     3.22151E-03     43.8000E-03    -76.0146E+06    -218.183E+06    -55.1410E+06    -724.869E+03    -111.884E-03     223.123E-03    -111.239E-03     53.1970E-03    -112.021E-03     222.375E-03    -111.088E-03     51.8801E-03
            1752     2.41606E-03     43.7472E-03    -80.5724E+06    -226.045E+06    -66.2839E+06     3.03007E+03    -111.542E-03     222.729E-03    -111.187E-03     40.1948E-03    -111.605E-03     221.896E-03    -111.074E-03     39.2461E-03
            1753     1.61078E-03     43.7091E-03    -83.9816E+06    -233.742E+06    -77.3021E+06     135.506E+03    -111.288E-03     222.433E-03    -111.145E-03     27.2138E-03    -111.295E-03     221.537E-03    -111.071E-03     26.5918E-03
            1754     805.353E-06     43.6858E-03    -85.8790E+06    -238.339E+06    -84.4131E+06     102.027E+03    -111.205E-03     222.302E-03    -111.097E-03     15.0884E-03    -111.178E-03     221.370E-03    -111.049E-03     14.7597E-03
            1755     15.2959E-03     45.3957E-03    -4.75588E+06     121.272E+06     95.3963E+06     865.073E+03    -113.826E-03     225.734E-03    -111.909E-03     191.380E-03    -125.653E-03     237.699E-03    -111.601E-03     185.694E-03
            1756     14.4914E-03     45.0701E-03    -9.28094E+06     119.130E+06     98.0707E+06    -344.051E+03    -118.612E-03     230.499E-03    -111.888E-03     282.951E-03    -136.585E-03     248.578E-03    -111.556E-03     272.690E-03
            1757     13.6861E-03     44.7494E-03    -16.7942E+06     102.379E+06     89.0939E+06     10.1780E+03    -120.444E-03     232.285E-03    -111.841E-03     286.241E-03    -136.001E-03     247.887E-03    -111.519E-03     273.742E-03
            1758     12.8804E-03     44.4305E-03    -23.5721E+06     86.9559E+06     69.7038E+06     787.044E+03    -120.762E-03     232.523E-03    -111.761E-03     269.072E-03    -132.991E-03     244.774E-03    -111.504E-03     256.585E-03
            1759     12.0760E-03     44.1506E-03    -28.0662E+06     71.1301E+06     40.0830E+06     437.520E+03    -119.424E-03     231.036E-03    -111.612E-03     230.114E-03    -127.742E-03     239.391E-03    -111.474E-03     219.318E-03
            1760     11.2714E-03     43.9192E-03    -31.8672E+06     47.7546E+06     17.8920E+06    -221.364E+03    -117.463E-03     228.954E-03    -111.491E-03     192.149E-03    -122.956E-03     234.452E-03    -111.425E-03     183.226E-03
            1761     10.4665E-03     43.7246E-03    -35.4986E+06     1.98561E+06     8.24583E+06     193.059E+03    -116.490E-03     227.953E-03    -111.462E-03     168.428E-03    -120.322E-03     231.642E-03    -111.373E-03     160.959E-03
            1762     9.66236E-03     43.5454E-03    -38.8430E+06    -49.9415E+06     1.73525E+06     223.934E+03    -116.120E-03     227.577E-03    -111.457E-03     153.995E-03    -118.921E-03     230.058E-03    -111.319E-03     147.639E-03
            1763     8.85758E-03     43.3818E-03    -42.7231E+06    -85.5153E+06    -1.83918E+06     289.696E+03    -115.697E-03     227.136E-03    -111.440E-03     141.221E-03    -117.784E-03     228.773E-03    -111.263E-03     135.802E-03
            1764     8.05267E-03     43.2303E-03    -46.7871E+06    -110.482E+06    -6.12809E+06     450.057E+03    -115.152E-03     226.553E-03    -111.401E-03     128.475E-03    -116.694E-03     227.554E-03    -111.203E-03     123.903E-03
            1765     7.24794E-03     43.0938E-03    -50.8658E+06    -131.442E+06    -11.4968E+06     215.580E+03    -114.572E-03     225.921E-03    -111.349E-03     115.852E-03    -115.701E-03     226.436E-03    -111.142E-03     112.010E-03
            1766     6.44303E-03     42.9707E-03    -55.0600E+06    -152.582E+06    -17.4983E+06     44.6196E+03    -113.943E-03     225.237E-03    -111.294E-03     103.423E-03    -114.753E-03     225.361E-03    -111.080E-03     100.221E-03
            1767     5.63795E-03     42.8611E-03    -59.5501E+06    -170.742E+06    -24.8767E+06    -102.792E+03    -113.295E-03     224.530E-03    -111.235E-03     90.9590E-03    -113.863E-03     224.352E-03    -111.025E-03     88.3194E-03
            1768     4.83275E-03     42.7656E-03    -64.3048E+06    -186.798E+06    -33.8884E+06     2.72298E+03    -112.717E-03     223.889E-03    -111.172E-03     78.4765E-03    -113.098E-03     223.477E-03    -110.978E-03     76.3380E-03
            1769     4.02745E-03     42.6840E-03    -69.7914E+06    -204.709E+06    -44.2662E+06    -88.7234E+03    -112.196E-03     223.310E-03    -111.114E-03     65.8031E-03    -112.433E-03     222.701E-03    -110.937E-03     64.1061E-03
            1770     3.22201E-03     42.6168E-03    -75.5780E+06    -218.554E+06    -55.2446E+06    -515.717E+03    -111.744E-03     222.798E-03    -111.054E-03     52.8735E-03    -111.877E-03     222.047E-03    -110.904E-03     51.5656E-03
            1771     2.41668E-03     42.5641E-03    -80.5552E+06    -226.784E+06    -67.0102E+06    -760.904E+03    -111.333E-03     222.329E-03    -110.996E-03     39.8943E-03    -111.393E-03     221.493E-03    -110.886E-03     38.9399E-03
            1772     1.61098E-03     42.5263E-03    -84.1483E+06    -233.894E+06    -77.7040E+06    -409.814E+03    -111.080E-03     222.046E-03    -110.966E-03     27.0500E-03    -111.087E-03     221.149E-03    -110.893E-03     26.4247E-03
            1773     805.463E-06     42.5027E-03    -86.3691E+06    -238.541E+06    -84.9036E+06    -64.9416E+03    -110.987E-03     221.954E-03    -110.967E-03     14.9273E-03    -110.962E-03     221.022E-03    -110.920E-03     14.5975E-03
            1774     15.2932E-03     44.2008E-03    -4.41548E+06     121.459E+06     95.8136E+06    -25.4613E+03    -114.172E-03     226.025E-03    -111.853E-03     192.779E-03    -126.032E-03     238.022E-03    -111.543E-03     187.017E-03
            1775     14.4916E-03     43.8866E-03    -10.9259E+06     116.652E+06     95.7442E+06    -346.350E+03    -118.294E-03     230.123E-03    -111.829E-03     283.782E-03    -136.174E-03     248.100E-03    -111.503E-03     273.627E-03
            1776     13.6853E-03     43.5639E-03    -16.8246E+06     101.606E+06     88.9176E+06     1.04364E+06    -120.331E-03     232.143E-03    -111.812E-03     287.379E-03    -135.851E-03     247.706E-03    -111.490E-03     274.966E-03
            1777     12.8808E-03     43.2448E-03    -22.1953E+06     87.6905E+06     70.9653E+06     647.726E+03    -121.293E-03     233.018E-03    -111.725E-03     268.913E-03    -133.545E-03     245.297E-03    -111.465E-03     256.340E-03
            1778     12.0767E-03     42.9637E-03    -27.4680E+06     71.2068E+06     39.5919E+06     265.812E+03    -119.587E-03     231.129E-03    -111.541E-03     229.627E-03    -127.904E-03     239.485E-03    -111.407E-03     218.806E-03
            1779     11.2723E-03     42.7344E-03    -31.7308E+06     47.6575E+06     17.5442E+06     459.942E+03    -117.524E-03     228.929E-03    -111.405E-03     191.595E-03    -122.998E-03     234.409E-03    -111.341E-03     182.690E-03
            1780     10.4682E-03     42.5383E-03    -35.4321E+06     2.43941E+06     9.11945E+06     442.694E+03    -116.478E-03     227.848E-03    -111.370E-03     167.945E-03    -120.301E-03     231.528E-03    -111.277E-03     160.489E-03
            1781     9.66315E-03     42.3614E-03    -39.0329E+06    -49.7214E+06     2.11521E+06     284.918E+03    -116.127E-03     227.480E-03    -111.353E-03     153.729E-03    -118.922E-03     229.954E-03    -111.214E-03     147.385E-03
            1782     8.85850E-03     42.1960E-03    -42.3778E+06    -85.5063E+06    -1.26569E+06     347.796E+03    -115.752E-03     227.074E-03    -111.322E-03     140.878E-03    -117.830E-03     228.701E-03    -111.143E-03     135.470E-03
            1783     8.05410E-03     42.0465E-03    -45.8872E+06    -109.900E+06    -5.44280E+06     323.326E+03    -115.150E-03     226.415E-03    -111.265E-03     127.968E-03    -116.684E-03     227.411E-03    -111.066E-03     123.400E-03
            1784     7.24889E-03     41.9093E-03    -49.7438E+06    -131.368E+06    -10.8989E+06     31.1742E+03    -114.502E-03     225.700E-03    -111.198E-03     115.377E-03    -115.619E-03     226.206E-03    -110.990E-03     111.546E-03
            1785     6.44413E-03     41.7867E-03    -54.2109E+06    -152.255E+06    -16.5781E+06     37.5309E+03    -113.873E-03     225.005E-03    -111.132E-03     102.879E-03    -114.677E-03     225.124E-03    -110.915E-03     99.6858E-03
            1786     5.63898E-03     41.6777E-03    -59.4443E+06    -170.465E+06    -24.5339E+06    -91.0512E+03    -113.200E-03     224.256E-03    -111.055E-03     90.5151E-03    -113.765E-03     224.075E-03    -110.845E-03     87.8863E-03
            1787     4.83366E-03     41.5822E-03    -64.8406E+06    -187.388E+06    -34.0262E+06    -36.5189E+03    -112.587E-03     223.565E-03    -110.978E-03     78.0105E-03    -112.967E-03     223.149E-03    -110.782E-03     75.8808E-03
            1788     4.02830E-03     41.5011E-03    -69.8899E+06    -204.346E+06    -43.6449E+06     233.626E+03    -112.049E-03     222.955E-03    -110.906E-03     65.3934E-03    -112.285E-03     222.344E-03    -110.727E-03     63.7089E-03
            1789     3.22289E-03     41.4339E-03    -74.9323E+06    -217.868E+06    -54.3670E+06     40.4185E+03    -111.538E-03     222.373E-03    -110.835E-03     52.5800E-03    -111.668E-03     221.622E-03    -110.682E-03     51.2873E-03
            1790     2.41713E-03     41.3817E-03    -80.2128E+06    -226.919E+06    -67.2095E+06    -295.827E+03    -111.141E-03     221.905E-03    -110.765E-03     39.7000E-03    -111.198E-03     221.067E-03    -110.655E-03     38.7573E-03
            1791     1.61149E-03     41.3438E-03    -84.6163E+06    -234.607E+06    -78.3964E+06    -330.393E+03    -110.905E-03     221.610E-03    -110.705E-03     26.9547E-03    -110.912E-03     220.711E-03    -110.634E-03     26.3354E-03
            1792     805.774E-06     41.3202E-03    -87.3028E+06    -239.168E+06    -85.5821E+06    -58.1281E+03    -110.812E-03     221.389E-03    -110.577E-03     14.7256E-03    -110.789E-03     220.456E-03    -110.532E-03     14.3972E-03
            1793     15.2971E-03     43.0116E-03     -4.0464E+06     121.051E+06     95.4904E+06     481.103E+03    -113.457E-03     225.275E-03    -111.818E-03     193.990E-03    -125.201E-03     237.158E-03    -111.510E-03     188.329E-03
            1794     14.4902E-03     42.7031E-03    -10.1958E+06     116.660E+06     96.0408E+06     1.47938E+06    -118.018E-03     229.836E-03    -111.819E-03     282.064E-03    -135.758E-03     247.676E-03    -111.493E-03     272.003E-03
            1795     13.6857E-03     42.3767E-03    -16.3812E+06     102.244E+06     89.5762E+06     490.386E+03    -121.002E-03     232.784E-03    -111.782E-03     286.734E-03    -136.526E-03     248.354E-03    -111.459E-03     274.221E-03
            1796     12.8823E-03     42.0584E-03    -22.5631E+06     87.6416E+06     70.9894E+06     230.576E+03    -121.489E-03     233.151E-03    -111.662E-03     268.661E-03    -133.732E-03     245.419E-03    -111.401E-03     256.054E-03
            1797     12.0777E-03     41.7781E-03    -27.9764E+06     70.5546E+06     40.4121E+06     460.432E+03    -119.625E-03     231.093E-03    -111.467E-03     229.159E-03    -127.940E-03     239.442E-03    -111.327E-03     218.333E-03
            1798     11.2737E-03     41.5481E-03    -32.0690E+06     47.9472E+06     18.3747E+06     706.258E+03    -117.482E-03     228.805E-03    -111.322E-03     191.484E-03    -122.939E-03     234.265E-03    -111.254E-03     182.610E-03
            1799     10.4686E-03     41.3538E-03    -35.3043E+06     2.73186E+06     9.31387E+06     358.156E+03    -116.610E-03     227.883E-03    -111.273E-03     167.751E-03    -120.431E-03     231.561E-03    -111.179E-03     160.286E-03
            1800     9.66439E-03     41.1758E-03    -38.6289E+06    -49.0902E+06     2.85308E+06     462.852E+03    -116.245E-03     227.481E-03    -111.236E-03     153.232E-03    -119.035E-03     229.951E-03    -111.095E-03     146.888E-03
            1801     8.85990E-03     41.0118E-03    -42.2110E+06    -85.0592E+06    -1.34152E+06     55.8729E+03    -115.747E-03     226.929E-03    -111.183E-03     140.437E-03    -117.815E-03     228.550E-03    -111.005E-03     135.039E-03
            1802     8.05494E-03     40.8616E-03    -45.9974E+06    -109.988E+06    -5.52698E+06    -308.102E+03    -115.174E-03     226.282E-03    -111.109E-03     127.507E-03    -116.702E-03     227.273E-03    -110.910E-03     122.938E-03
            1803     7.25059E-03     40.7257E-03    -50.1695E+06    -131.157E+06    -11.0050E+06     38.4457E+03    -114.482E-03     225.503E-03    -111.021E-03     114.909E-03    -115.596E-03     226.006E-03    -110.814E-03     111.088E-03
            1804     6.44521E-03     40.6030E-03    -54.9309E+06    -152.675E+06    -17.0371E+06     69.1584E+03    -113.769E-03     224.706E-03    -110.937E-03     102.377E-03    -114.569E-03     224.819E-03    -110.721E-03     99.2004E-03
            1805     5.64017E-03     40.4944E-03    -59.8325E+06    -170.176E+06    -24.0751E+06     328.032E+03    -113.116E-03     223.961E-03    -110.845E-03     89.9227E-03    -113.679E-03     223.777E-03    -110.631E-03     87.3097E-03
            1806     4.83487E-03     40.3995E-03    -65.1046E+06    -186.876E+06    -33.5394E+06     72.9224E+03    -112.439E-03     223.185E-03    -110.746E-03     77.5243E-03    -112.818E-03     222.767E-03    -110.548E-03     75.4072E-03
            1807     4.02934E-03     40.3184E-03    -70.3949E+06    -204.482E+06    -43.7442E+06    -284.390E+03    -111.814E-03     222.475E-03    -110.661E-03     64.9916E-03    -112.050E-03     221.862E-03    -110.481E-03     63.3120E-03
            1808     3.22352E-03     40.2519E-03    -75.5219E+06    -217.996E+06    -54.3567E+06     20.6183E+03    -111.291E-03     221.877E-03    -110.586E-03     52.2360E-03    -111.423E-03     221.125E-03    -110.432E-03     50.9515E-03
            1809     2.41776E-03     40.1996E-03    -80.4646E+06    -226.552E+06    -66.4965E+06     319.192E+03    -110.926E-03     221.432E-03    -110.506E-03     39.4743E-03    -110.985E-03     220.594E-03    -110.393E-03     38.5468E-03
            1810     1.61194E-03     40.1619E-03    -84.7857E+06    -234.705E+06    -78.4351E+06     291.920E+03    -110.661E-03     221.086E-03    -110.424E-03     26.8237E-03    -110.668E-03     220.186E-03    -110.353E-03     26.2171E-03
            1811     806.076E-06     40.1385E-03    -86.9540E+06    -239.304E+06    -85.8314E+06    -25.3712E+03    -110.527E-03     220.809E-03    -110.282E-03     14.7859E-03    -110.502E-03     219.875E-03    -110.238E-03     14.4605E-03
            1812     15.2955E-03     41.8337E-03    -4.94646E+06     120.220E+06     94.7549E+06    -329.962E+03    -114.451E-03     226.271E-03    -111.820E-03     193.849E-03    -126.223E-03     238.177E-03    -111.513E-03     188.086E-03
            1813     14.4909E-03     41.5112E-03    -9.31243E+06     118.290E+06     98.0059E+06     1.51147E+06    -118.616E-03     230.406E-03    -111.789E-03     282.442E-03    -136.401E-03     248.294E-03    -111.457E-03     272.291E-03
            1814     13.6884E-03     41.1943E-03    -15.8332E+06     102.918E+06     90.4394E+06     1.29090E+06    -121.137E-03     232.861E-03    -111.724E-03     286.132E-03    -136.634E-03     248.406E-03    -111.398E-03     273.615E-03
            1815     12.8820E-03     40.8703E-03    -22.1975E+06     87.4857E+06     70.8127E+06     831.271E+03    -121.538E-03     233.131E-03    -111.593E-03     269.530E-03    -133.774E-03     245.393E-03    -111.334E-03     256.937E-03
            1816     12.0792E-03     40.5924E-03    -27.3657E+06     71.1126E+06     41.1279E+06     750.590E+03    -119.775E-03     231.170E-03    -111.395E-03     228.731E-03    -128.074E-03     239.505E-03    -111.253E-03     217.904E-03
            1817     11.2738E-03     40.3632E-03    -31.4336E+06     48.5716E+06     19.1601E+06     556.305E+03    -117.636E-03     228.866E-03    -111.230E-03     190.812E-03    -123.082E-03     234.317E-03    -111.159E-03     181.932E-03
            1818     10.4700E-03     40.1676E-03    -34.9975E+06     2.61683E+06     9.07479E+06     342.448E+03    -116.684E-03     227.840E-03    -111.157E-03     167.079E-03    -120.487E-03     231.502E-03    -111.064E-03     159.622E-03
            1819     9.66586E-03     39.9911E-03    -38.3087E+06    -48.7365E+06     3.13167E+06     352.811E+03    -116.304E-03     227.406E-03    -111.103E-03     152.675E-03    -119.087E-03     229.872E-03    -110.961E-03     146.329E-03
            1820     8.86111E-03     39.8272E-03    -41.9846E+06    -83.9196E+06    -1.05903E+06     194.979E+03    -115.799E-03     226.827E-03    -111.028E-03     140.055E-03    -117.860E-03     228.444E-03    -110.851E-03     134.670E-03
            1821     8.05673E-03     39.6774E-03    -46.1759E+06    -110.410E+06    -6.00988E+06    -198.871E+03    -115.181E-03     226.113E-03    -110.932E-03     126.957E-03    -116.700E-03     227.093E-03    -110.735E-03     122.405E-03
            1822     7.25152E-03     39.5418E-03    -50.5702E+06    -131.537E+06    -11.2468E+06    -36.2413E+03    -114.470E-03     225.292E-03    -110.822E-03     114.224E-03    -115.579E-03     225.788E-03    -110.615E-03     110.413E-03
            1823     6.44691E-03     39.4199E-03    -55.0364E+06    -152.253E+06    -17.0512E+06     298.758E+03    -113.712E-03     224.424E-03    -110.712E-03     101.786E-03    -114.507E-03     224.532E-03    -110.497E-03     98.6262E-03
            1824     5.64157E-03     39.3115E-03    -59.8873E+06    -170.477E+06    -24.4529E+06     78.7027E+03    -112.960E-03     223.559E-03    -110.599E-03     89.4004E-03    -113.518E-03     223.370E-03    -110.387E-03     86.7992E-03
            1825     4.83616E-03     39.2171E-03    -64.7389E+06    -186.230E+06    -33.1053E+06     50.2283E+03    -112.252E-03     222.738E-03    -110.486E-03     77.0263E-03    -112.628E-03     222.319E-03    -110.288E-03     74.9214E-03
            1826     4.03039E-03     39.1366E-03    -70.1244E+06    -204.302E+06    -43.6505E+06     16.0878E+03    -111.592E-03     221.977E-03    -110.386E-03     64.5297E-03    -111.825E-03     221.363E-03    -110.206E-03     62.8650E-03
            1827     3.22459E-03     39.0702E-03    -75.7886E+06    -218.426E+06    -54.9452E+06    -9.29859E+03    -111.061E-03     221.354E-03    -110.293E-03     51.8719E-03    -111.191E-03     220.599E-03    -110.141E-03     50.5974E-03
            1828     2.41855E-03     39.0183E-03    -80.7710E+06    -226.647E+06    -66.6218E+06     213.376E+03    -110.660E-03     220.858E-03    -110.198E-03     39.1979E-03    -110.719E-03     220.019E-03    -110.086E-03     38.2770E-03
            1829     1.61241E-03     38.9806E-03    -84.5165E+06    -234.178E+06    -77.8126E+06     246.668E+03    -110.338E-03     220.449E-03    -110.111E-03     26.4969E-03    -110.344E-03     219.550E-03    -110.038E-03     25.8930E-03
            1830     806.094E-06     38.9577E-03    -86.8170E+06    -238.969E+06    -85.3386E+06     106.052E+03    -110.162E-03     220.179E-03    -110.016E-03     14.5280E-03    -110.138E-03     219.245E-03    -109.970E-03     14.2057E-03
            1831     15.2952E-03     40.6435E-03    -6.05159E+06     119.576E+06     93.8939E+06    -701.732E+03    -114.999E-03     226.833E-03    -111.834E-03     192.966E-03    -126.777E-03     238.742E-03    -111.529E-03     187.107E-03
            1832     14.4928E-03     40.3262E-03    -11.9663E+06     115.974E+06     95.4010E+06    -711.333E+03    -119.223E-03     230.990E-03    -111.768E-03     282.654E-03    -136.991E-03     248.851E-03    -111.441E-03     272.406E-03
            1833     13.6867E-03     40.0061E-03    -16.5330E+06     102.124E+06     90.0117E+06     73.5320E+03    -121.475E-03     233.156E-03    -111.682E-03     286.288E-03    -137.002E-03     248.726E-03    -111.356E-03     273.700E-03
            1834     12.8842E-03     39.6861E-03    -21.7311E+06     87.4863E+06     71.7304E+06     1.00716E+06    -121.944E-03     233.470E-03    -111.525E-03     268.863E-03    -134.165E-03     245.715E-03    -111.262E-03     256.236E-03
            1835     12.0785E-03     39.4043E-03    -26.8578E+06     71.3736E+06     41.1514E+06     1.09654E+06    -119.771E-03     231.071E-03    -111.299E-03     227.814E-03    -128.016E-03     239.354E-03    -111.158E-03     217.018E-03
            1836     11.2766E-03     39.1780E-03    -31.2776E+06     49.5250E+06     19.1749E+06     959.964E+03    -117.765E-03     228.882E-03    -111.118E-03     190.136E-03    -123.201E-03     234.328E-03    -111.048E-03     181.253E-03
            1837     10.4716E-03     38.9825E-03    -35.1812E+06     3.30992E+06     9.00486E+06     476.820E+03    -116.735E-03     227.762E-03    -111.026E-03     166.966E-03    -120.527E-03     231.414E-03    -110.935E-03     159.529E-03
            1838     9.66689E-03     38.8063E-03    -38.6877E+06    -49.2608E+06     2.35128E+06     112.775E+03    -116.386E-03     227.339E-03    -110.953E-03     152.180E-03    -119.158E-03     229.792E-03    -110.814E-03     145.840E-03
            1839     8.86273E-03     38.6426E-03    -42.1707E+06    -83.6642E+06    -1.05214E+06     379.759E+03    -115.938E-03     226.791E-03    -110.853E-03     139.343E-03    -117.990E-03     228.400E-03    -110.676E-03     133.967E-03
            1840     8.05802E-03     38.4935E-03    -46.1792E+06    -109.896E+06    -6.06002E+06     167.328E+03    -115.214E-03     225.939E-03    -110.725E-03     126.188E-03    -116.723E-03     226.912E-03    -110.529E-03     121.654E-03
            1841     7.25366E-03     38.3583E-03    -50.4372E+06    -131.902E+06    -11.3122E+06     4.94421E+03    -114.408E-03     224.999E-03    -110.591E-03     113.435E-03    -115.507E-03     225.483E-03    -110.383E-03     109.641E-03
            1842     6.44834E-03     38.2369E-03    -54.8938E+06    -152.005E+06    -16.8566E+06     159.059E+03    -113.578E-03     224.037E-03    -110.459E-03     101.080E-03    -114.366E-03     224.140E-03    -110.243E-03     97.9337E-03
            1843     5.64311E-03     38.1292E-03    -59.7548E+06    -169.921E+06    -24.3964E+06     35.5441E+03    -112.779E-03     223.105E-03    -110.326E-03     88.7838E-03    -113.332E-03     222.913E-03    -110.115E-03     86.1996E-03
            1844     4.83743E-03     38.0352E-03    -65.2255E+06    -186.559E+06    -33.6809E+06    -134.106E+03    -112.043E-03     222.238E-03    -110.195E-03     76.4026E-03    -112.416E-03     221.815E-03    -109.999E-03     74.3101E-03
            1845     4.03171E-03     37.9552E-03    -70.3925E+06    -204.294E+06    -43.6847E+06     150.245E+03    -111.378E-03     221.453E-03    -110.076E-03     63.9512E-03    -111.610E-03     220.837E-03    -109.896E-03     62.2989E-03
            1846     3.22554E-03     37.8894E-03    -75.5055E+06    -218.221E+06    -54.8368E+06     310.241E+03    -110.798E-03     220.759E-03    -109.961E-03     51.4717E-03    -110.926E-03     220.003E-03    -109.809E-03     50.2124E-03
            1847     2.41938E-03     37.8375E-03    -80.5072E+06    -226.682E+06    -66.9246E+06     69.2982E+03    -110.352E-03     220.198E-03    -109.847E-03     38.8940E-03    -110.408E-03     219.359E-03    -109.736E-03     37.9791E-03
            1848     1.61307E-03     37.8004E-03    -84.3717E+06    -234.028E+06    -77.8309E+06     20.9247E+03    -110.018E-03     219.758E-03    -109.740E-03     26.2415E-03    -110.024E-03     218.859E-03    -109.667E-03     25.6396E-03
            1849     806.747E-06     37.7773E-03    -86.8059E+06    -238.649E+06    -84.9844E+06    -38.2165E+03    -109.803E-03     219.408E-03    -109.605E-03     14.3543E-03    -109.779E-03     218.475E-03    -109.558E-03     14.0329E-03
            1850     15.2949E-03     39.4509E-03    -4.71987E+06     120.681E+06     95.0170E+06     633.321E+03    -114.741E-03     226.562E-03    -111.821E-03     192.661E-03    -126.427E-03     238.383E-03    -111.514E-03     186.860E-03
            1851     14.4908E-03     39.1413E-03    -10.9278E+06     116.455E+06     95.5407E+06    -105.265E+03    -119.291E-03     231.038E-03    -111.746E-03     281.157E-03    -136.974E-03     248.818E-03    -111.422E-03     270.878E-03
            1852     13.6884E-03     38.8176E-03    -17.3187E+06     101.211E+06     88.7885E+06    -1.49775E+06    -122.081E-03     233.708E-03    -111.627E-03     285.648E-03    -137.633E-03     249.301E-03    -111.305E-03     272.916E-03
            1853     12.8848E-03     38.4989E-03    -22.9267E+06     85.9292E+06     71.0971E+06    -660.235E+03    -122.205E-03     233.641E-03    -111.436E-03     267.747E-03    -134.401E-03     245.854E-03    -111.172E-03     255.077E-03
            1854     12.0826E-03     38.2200E-03    -27.4199E+06     70.2465E+06     41.4912E+06     921.607E+03    -119.763E-03     230.958E-03    -111.195E-03     227.942E-03    -127.985E-03     239.212E-03    -111.050E-03     217.176E-03
            1855     11.2760E-03     37.9913E-03    -31.1274E+06     49.6783E+06     19.2455E+06     1.25001E+06    -117.796E-03     228.797E-03    -111.002E-03     189.902E-03    -123.208E-03     234.220E-03    -110.933E-03     181.041E-03
            1856     10.4726E-03     37.7978E-03    -34.6615E+06     4.24520E+06     9.44367E+06     703.086E+03    -117.026E-03     227.912E-03    -110.886E-03     166.121E-03    -120.806E-03     231.557E-03    -110.795E-03     158.675E-03
            1857     9.66879E-03     37.6209E-03    -38.3372E+06    -48.7470E+06     2.60817E+06     342.043E+03    -116.571E-03     227.347E-03    -110.776E-03     151.334E-03    -119.327E-03     229.787E-03    -110.637E-03     145.005E-03
            1858     8.86455E-03     37.4585E-03    -42.0821E+06    -83.9873E+06    -1.07400E+06     380.224E+03    -115.993E-03     226.637E-03    -110.644E-03     138.424E-03    -118.034E-03     228.233E-03    -110.467E-03     133.057E-03
            1859     8.06030E-03     37.3094E-03    -45.9225E+06    -109.029E+06    -5.44225E+06     469.225E+03    -115.184E-03     225.673E-03    -110.489E-03     125.360E-03    -116.682E-03     226.638E-03    -110.292E-03     120.850E-03
            1860     7.25526E-03     37.1753E-03    -50.2799E+06    -131.538E+06    -11.3252E+06     135.023E+03    -114.318E-03     224.645E-03    -110.327E-03     112.648E-03    -115.407E-03     225.121E-03    -110.120E-03     108.876E-03
            1861     6.45033E-03     37.0545E-03    -54.9097E+06    -152.415E+06    -17.0322E+06    -50.2115E+03    -113.454E-03     223.625E-03    -110.171E-03     100.247E-03    -114.234E-03     223.719E-03    -109.956E-03     97.1164E-03
            1862     5.64480E-03     36.9474E-03    -59.8406E+06    -169.685E+06    -24.1744E+06     194.692E+03    -112.604E-03     222.617E-03    -110.013E-03     87.9142E-03    -113.151E-03     222.420E-03    -109.802E-03     85.3495E-03
            1863     4.83917E-03     36.8540E-03    -64.9906E+06    -186.286E+06    -33.5043E+06     159.160E+03    -111.796E-03     221.655E-03    -109.859E-03     75.6134E-03    -112.164E-03     221.228E-03    -109.662E-03     73.5412E-03
            1864     4.03304E-03     36.7746E-03    -70.4420E+06    -204.482E+06    -44.1994E+06    -16.7247E+03    -111.093E-03     220.810E-03    -109.717E-03     63.2998E-03    -111.321E-03     220.190E-03    -109.540E-03     61.6599E-03
            1865     3.22690E-03     36.7091E-03    -75.6384E+06    -218.234E+06    -54.8595E+06     153.950E+03    -110.485E-03     220.071E-03    -109.586E-03     50.9450E-03    -110.612E-03     219.313E-03    -109.434E-03     49.6937E-03
            1866     2.42031E-03     36.6578E-03    -80.2133E+06    -226.265E+06    -66.6029E+06     272.559E+03    -109.970E-03     219.430E-03    -109.460E-03     38.5148E-03    -110.025E-03     218.590E-03    -109.348E-03     37.6116E-03
            1867     1.61365E-03     36.6206E-03    -84.1652E+06    -234.019E+06    -78.1388E+06     36.4920E+03    -109.597E-03     218.955E-03    -109.358E-03     26.0073E-03    -109.601E-03     218.056E-03    -109.287E-03     25.4116E-03
            1868     806.769E-06     36.5983E-03    -86.2943E+06    -238.412E+06    -85.2553E+06    -159.637E+03    -109.399E-03     218.665E-03    -109.266E-03     14.2981E-03    -109.373E-03     217.734E-03    -109.222E-03     13.9792E-03
            1869     15.2971E-03     38.2679E-03    -4.63888E+06     120.413E+06     94.9440E+06     241.072E+03    -115.430E-03     227.202E-03    -111.772E-03     191.545E-03    -127.040E-03     238.948E-03    -111.465E-03     185.680E-03
            1870     14.4929E-03     37.9520E-03    -9.81039E+06     117.372E+06     96.6878E+06     221.361E+03    -119.468E-03     231.138E-03    -111.669E-03     279.947E-03    -137.059E-03     248.829E-03    -111.342E-03     269.627E-03
            1871     13.6896E-03     37.6309E-03    -16.3580E+06     102.221E+06     89.2039E+06     101.976E+03    -121.863E-03     233.402E-03    -111.539E-03     285.023E-03    -137.329E-03     248.914E-03    -111.218E-03     272.359E-03
            1872     12.8864E-03     37.3116E-03    -23.5612E+06     85.5152E+06     69.7888E+06    -572.167E+03    -122.022E-03     233.373E-03    -111.351E-03     267.701E-03    -134.175E-03     245.544E-03    -111.092E-03     255.075E-03
            1873     12.0809E-03     37.0339E-03    -29.2571E+06     68.8167E+06     40.6240E+06    -629.851E+03    -120.239E-03     231.338E-03    -111.099E-03     227.468E-03    -128.456E-03     239.577E-03    -110.953E-03     216.647E-03
            1874     11.2790E-03     36.8060E-03    -32.7284E+06     49.0195E+06     19.1600E+06    -115.520E+03    -118.200E-03     229.066E-03    -110.865E-03     189.025E-03    -123.594E-03     234.462E-03    -110.793E-03     180.138E-03
            1875     10.4749E-03     36.6117E-03    -35.5023E+06     4.55611E+06     9.16929E+06     458.603E+03    -117.169E-03     227.878E-03    -110.709E-03     165.159E-03    -120.932E-03     231.504E-03    -110.618E-03     157.719E-03
            1876     9.67090E-03     36.4367E-03    -38.8581E+06    -48.1180E+06     2.59055E+06     511.238E+03    -116.696E-03     227.263E-03    -110.567E-03     150.616E-03    -119.444E-03     229.695E-03    -110.428E-03     144.298E-03
            1877     8.86676E-03     36.2737E-03    -42.5130E+06    -83.7166E+06    -1.25863E+06     322.699E+03    -116.030E-03     226.434E-03    -110.404E-03     137.618E-03    -118.059E-03     228.018E-03    -110.227E-03     132.270E-03
            1878     8.06218E-03     36.1264E-03    -46.3655E+06    -109.059E+06    -5.79530E+06     343.047E+03    -115.158E-03     225.376E-03    -110.218E-03     124.371E-03    -116.644E-03     226.327E-03    -110.022E-03     119.882E-03
            1879     7.25754E-03     35.9923E-03    -50.3280E+06    -131.061E+06    -11.2757E+06     207.354E+03    -114.234E-03     224.260E-03    -110.026E-03     111.585E-03    -115.313E-03     224.727E-03    -109.819E-03     107.835E-03
            1880     6.45237E-03     35.8726E-03    -54.9197E+06    -152.286E+06    -17.3301E+06     69.9515E+03    -113.320E-03     223.157E-03    -109.837E-03     99.2360E-03    -114.091E-03     223.243E-03    -109.623E-03     96.1262E-03
            1881     5.64698E-03     35.7661E-03    -59.8927E+06    -169.976E+06    -24.4506E+06     103.977E+03    -112.397E-03     222.047E-03    -109.650E-03     87.0209E-03    -112.937E-03     221.843E-03    -109.439E-03     84.4744E-03
            1882     4.84100E-03     35.6737E-03    -64.9186E+06    -186.164E+06    -33.0680E+06     278.498E+03    -111.524E-03     220.996E-03    -109.472E-03     74.7853E-03    -111.887E-03     220.564E-03    -109.273E-03     72.7328E-03
            1883     4.03478E-03     35.5947E-03    -70.2007E+06    -204.138E+06    -43.9839E+06     269.350E+03    -110.757E-03     220.063E-03    -109.306E-03     62.5537E-03    -110.981E-03     219.440E-03    -109.128E-03     60.9333E-03
            1884     3.22813E-03     35.5298E-03    -75.5866E+06    -218.415E+06    -55.3776E+06     3.43604E+03    -110.095E-03     219.250E-03    -109.154E-03     50.3185E-03    -110.218E-03     218.489E-03    -109.005E-03     49.0773E-03
            1885     2.42143E-03     35.4789E-03    -80.3715E+06    -226.267E+06    -66.6718E+06     101.783E+03    -109.543E-03     218.563E-03    -109.020E-03     38.0266E-03    -109.598E-03     217.723E-03    -108.908E-03     37.1300E-03
            1886     1.61431E-03     35.4423E-03    -83.9568E+06    -233.458E+06    -77.4814E+06     153.337E+03    -109.143E-03     218.059E-03    -108.917E-03     25.5730E-03    -109.147E-03     217.161E-03    -108.844E-03     24.9849E-03
            1887     807.176E-06     35.4198E-03    -86.6620E+06    -238.605E+06    -85.4434E+06     535.049E+03    -108.969E-03     217.777E-03    -108.807E-03     13.9430E-03    -108.944E-03     216.845E-03    -108.763E-03     13.6361E-03
            1888     15.2967E-03     37.0775E-03     -5.0707E+06     119.926E+06     94.5725E+06    -517.256E+03    -116.197E-03     227.926E-03    -111.729E-03     191.194E-03    -127.813E-03     239.676E-03    -111.423E-03     185.194E-03
            1889     14.4952E-03     36.7655E-03    -10.2402E+06     116.957E+06     96.3959E+06    -225.261E+03    -119.792E-03     231.390E-03    -111.598E-03     280.499E-03    -137.346E-03     249.044E-03    -111.271E-03     270.157E-03
            1890     13.6912E-03     36.4443E-03    -15.9604E+06     102.394E+06     89.7269E+06     1.21692E+06    -121.683E-03     233.154E-03    -111.471E-03     285.595E-03    -137.087E-03     248.605E-03    -111.148E-03     273.018E-03
            1891     12.8859E-03     36.1259E-03    -22.4080E+06     87.3736E+06     70.6755E+06     1.26207E+06    -122.474E-03     233.748E-03    -111.274E-03     267.614E-03    -134.610E-03     245.910E-03    -111.015E-03     254.970E-03
            1892     12.0845E-03     35.8465E-03    -28.2939E+06     70.3597E+06     39.5869E+06    -173.178E+03    -120.810E-03     231.779E-03    -110.970E-03     226.219E-03    -128.998E-03     240.002E-03    -110.833E-03     215.354E-03
            1893     11.2803E-03     35.6198E-03    -32.7121E+06     48.3333E+06     17.4282E+06    -675.716E+03    -118.436E-03     229.128E-03    -110.692E-03     188.176E-03    -123.808E-03     234.505E-03    -110.628E-03     179.281E-03
            1894     10.4767E-03     35.4270E-03    -36.3770E+06     3.85016E+06     8.30494E+06    -19.2958E+03    -117.353E-03     227.862E-03    -110.509E-03     164.821E-03    -121.101E-03     231.470E-03    -110.421E-03     157.389E-03
            1895     9.67293E-03     35.2512E-03    -39.5119E+06    -48.1509E+06     2.01046E+06     173.348E+03    -116.912E-03     227.242E-03    -110.331E-03     149.605E-03    -119.646E-03     229.660E-03    -110.194E-03     143.287E-03
            1896     8.86904E-03     35.0903E-03    -42.7527E+06    -83.5373E+06    -1.66498E+06     138.745E+03    -116.108E-03     226.232E-03    -110.124E-03     136.285E-03    -118.119E-03     227.800E-03    -109.950E-03     130.952E-03
            1897     8.06488E-03     34.9427E-03    -46.3608E+06    -109.068E+06    -6.03459E+06     98.1946E+03    -115.133E-03     225.034E-03    -109.901E-03     123.126E-03    -116.604E-03     225.971E-03    -109.706E-03     118.656E-03
            1898     7.26013E-03     34.8105E-03    -50.5189E+06    -130.887E+06    -11.4772E+06     145.147E+03    -114.144E-03     223.816E-03    -109.672E-03     110.382E-03    -115.212E-03     224.273E-03    -109.466E-03     106.652E-03
            1899     6.45490E-03     34.6910E-03    -54.9792E+06    -152.092E+06    -17.5087E+06     162.478E+03    -113.120E-03     222.569E-03    -109.449E-03     98.0552E-03    -113.882E-03     222.647E-03    -109.236E-03     94.9711E-03
            1900     5.64918E-03     34.5859E-03    -59.7450E+06    -170.090E+06    -24.7427E+06     144.647E+03    -112.125E-03     221.357E-03    -109.232E-03     85.8745E-03    -112.656E-03     221.144E-03    -109.022E-03     83.3510E-03
            1901     4.84314E-03     34.4938E-03    -64.9426E+06    -186.138E+06    -33.3718E+06     189.428E+03    -111.197E-03     220.223E-03    -109.026E-03     73.8005E-03    -111.555E-03     219.786E-03    -108.828E-03     71.7670E-03
            1902     4.03668E-03     34.4159E-03    -70.2287E+06    -204.029E+06    -43.7693E+06     232.115E+03    -110.381E-03     219.217E-03    -108.836E-03     61.7215E-03    -110.602E-03     218.592E-03    -108.658E-03     60.1175E-03
            1903     3.22986E-03     34.3515E-03    -75.3362E+06    -218.087E+06    -55.2357E+06     232.869E+03    -109.672E-03     218.332E-03    -108.660E-03     49.5909E-03    -109.792E-03     217.571E-03    -108.511E-03     48.3666E-03
            1904     2.42257E-03     34.3012E-03    -80.2726E+06    -226.335E+06    -67.0179E+06     48.2881E+03    -109.084E-03     217.584E-03    -108.500E-03     37.3941E-03    -109.136E-03     216.742E-03    -108.391E-03     36.5066E-03
            1905     1.61528E-03     34.2648E-03    -84.2526E+06    -233.415E+06    -77.4184E+06     214.588E+03    -108.643E-03     217.019E-03    -108.375E-03     25.1836E-03    -108.648E-03     216.120E-03    -108.302E-03     24.6036E-03
            1906     807.755E-06     34.2427E-03    -86.7261E+06    -238.062E+06    -84.5150E+06     682.408E+03    -108.390E-03     216.668E-03    -108.278E-03     13.8829E-03    -108.367E-03     215.738E-03    -108.230E-03     13.5818E-03
            1907     15.2974E-03     35.8876E-03    -5.17810E+06     119.675E+06     94.1081E+06    -461.850E+03    -115.765E-03     227.498E-03    -111.733E-03     191.859E-03    -127.389E-03     239.255E-03    -111.428E-03     185.869E-03
            1908     14.4940E-03     35.5765E-03    -10.5853E+06     116.265E+06     95.6352E+06    -208.885E+03    -119.918E-03     231.531E-03    -111.613E-03     280.975E-03    -137.495E-03     249.205E-03    -111.288E-03     270.582E-03
            1909     13.6901E-03     35.2587E-03    -16.8433E+06     101.482E+06     89.1177E+06     344.492E+03    -123.049E-03     234.494E-03    -111.446E-03     285.809E-03    -138.499E-03     249.986E-03    -111.123E-03     273.018E-03
            1910     12.8885E-03     34.9373E-03    -21.9061E+06     87.8332E+06     71.8873E+06     672.199E+03    -123.452E-03     234.627E-03    -111.175E-03     266.713E-03    -135.592E-03     246.792E-03    -110.911E-03     253.933E-03
            1911     12.0850E-03     34.6591E-03    -26.2745E+06     71.8458E+06     41.2973E+06     1.27733E+06    -120.852E-03     231.674E-03    -110.822E-03     225.275E-03    -128.995E-03     239.859E-03    -110.681E-03     214.453E-03
            1912     11.2824E-03     34.4345E-03    -31.3286E+06     48.9681E+06     17.5277E+06     1.04924E+06    -118.747E-03     229.257E-03    -110.510E-03     187.274E-03    -124.090E-03     234.611E-03    -110.448E-03     178.395E-03
            1913     10.4789E-03     34.2411E-03    -35.6590E+06     3.81065E+06     8.11916E+06     197.307E+03    -117.829E-03     228.104E-03    -110.276E-03     163.388E-03    -121.554E-03     231.693E-03    -110.189E-03     155.940E-03
            1914     9.67582E-03     34.0665E-03    -38.9640E+06    -48.2302E+06     1.87963E+06    -209.899E+03    -117.051E-03     227.094E-03    -110.044E-03     148.053E-03    -119.755E-03     229.484E-03    -109.908E-03     141.750E-03
            1915     8.87226E-03     33.9063E-03    -42.2953E+06    -83.4733E+06    -1.52446E+06    -56.1466E+03    -116.129E-03     225.925E-03    -109.796E-03     134.858E-03    -118.120E-03     227.474E-03    -109.621E-03     129.542E-03
            1916     8.06777E-03     33.7605E-03    -46.2507E+06    -108.844E+06    -6.21032E+06     139.245E+03    -115.088E-03     224.618E-03    -109.531E-03     121.835E-03    -116.542E-03     225.540E-03    -109.337E-03     117.391E-03
            1917     7.26300E-03     33.6283E-03    -50.3530E+06    -130.914E+06    -11.7326E+06     60.1388E+03    -114.016E-03     223.277E-03    -109.261E-03     109.027E-03    -115.070E-03     223.721E-03    -109.057E-03     105.322E-03
            1918     6.45785E-03     33.5107E-03    -54.8681E+06    -152.002E+06    -17.4251E+06     234.206E+03    -112.920E-03     221.920E-03    -109.000E-03     96.7045E-03    -113.671E-03     221.987E-03    -108.787E-03     93.6472E-03
            1919     5.65206E-03     33.4060E-03    -59.7139E+06    -169.872E+06    -24.9153E+06     261.859E+03    -111.811E-03     220.556E-03    -108.745E-03     84.6025E-03    -112.334E-03     220.336E-03    -108.537E-03     82.1068E-03
            1920     4.84568E-03     33.3154E-03    -64.7637E+06    -186.100E+06    -33.4090E+06     214.276E+03    -110.787E-03     219.298E-03    -108.511E-03     72.6523E-03    -111.138E-03     218.855E-03    -108.314E-03     70.6426E-03
            1921     4.03876E-03     33.2379E-03    -70.0942E+06    -203.958E+06    -43.8639E+06     216.453E+03    -109.936E-03     218.232E-03    -108.296E-03     60.7505E-03    -110.151E-03     217.602E-03    -108.118E-03     59.1660E-03
            1922     3.23159E-03     33.1745E-03    -75.3812E+06    -217.975E+06    -55.1187E+06     297.880E+03    -109.207E-03     217.299E-03    -108.092E-03     48.7574E-03    -109.325E-03     216.535E-03    -107.943E-03     47.5488E-03
            1923     2.42418E-03     33.1246E-03    -80.1431E+06    -226.014E+06    -66.8735E+06     394.671E+03    -108.534E-03     216.441E-03    -107.907E-03     36.7458E-03    -108.584E-03     215.598E-03    -107.797E-03     35.8741E-03
            1924     1.61622E-03     33.0889E-03    -83.8302E+06    -233.371E+06    -78.0095E+06     124.472E+03    -108.035E-03     215.804E-03    -107.769E-03     24.7898E-03    -108.036E-03     214.906E-03    -107.699E-03     24.2172E-03
            1925     808.031E-06     33.0669E-03    -85.6444E+06    -237.333E+06    -84.5264E+06    -337.835E+03    -107.710E-03     215.464E-03    -107.754E-03     13.6433E-03    -107.682E-03     214.535E-03    -107.708E-03     13.3326E-03
            1926     15.2964E-03     34.6993E-03    -4.78108E+06     120.061E+06     94.2570E+06     101.069E+03    -115.767E-03     227.551E-03    -111.784E-03     192.858E-03    -127.359E-03     239.278E-03    -111.480E-03     186.804E-03
            1927     14.4919E-03     34.3893E-03    -11.2959E+06     115.663E+06     94.9567E+06     64.4386E+03    -121.167E-03     232.790E-03    -111.624E-03     279.091E-03    -138.643E-03     250.362E-03    -111.300E-03     268.495E-03
            1928     13.6911E-03     34.0669E-03    -17.1824E+06     101.338E+06     88.7909E+06    -521.465E+03    -124.142E-03     235.516E-03    -111.373E-03     283.596E-03    -139.528E-03     250.942E-03    -111.051E-03     270.631E-03
            1929     12.8903E-03     33.7488E-03    -22.9271E+06     86.8621E+06     71.0797E+06    -497.198E+03    -123.662E-03     234.703E-03    -111.041E-03     264.885E-03    -135.737E-03     246.799E-03    -110.778E-03     252.086E-03
            1930     12.0879E-03     33.4741E-03    -28.4984E+06     69.8184E+06     41.1811E+06     659.880E+03    -121.201E-03     231.857E-03    -110.656E-03     224.345E-03    -129.319E-03     240.002E-03    -110.510E-03     213.503E-03
            1931     11.2843E-03     33.2467E-03    -32.1294E+06     50.3048E+06     19.2425E+06     1.27003E+06    -119.418E-03     229.706E-03    -110.289E-03     185.907E-03    -124.744E-03     235.041E-03    -110.219E-03     176.990E-03
            1932     10.4826E-03     33.0556E-03    -35.1010E+06     6.06193E+06     8.90331E+06     409.228E+03    -118.077E-03     228.061E-03    -109.984E-03     161.600E-03    -121.774E-03     231.628E-03    -109.897E-03     154.161E-03
            1933     9.67922E-03     32.8821E-03    -38.5898E+06    -48.1690E+06     1.79187E+06    -187.193E+03    -117.045E-03     226.752E-03    -109.707E-03     146.770E-03    -119.720E-03     229.114E-03    -109.572E-03     140.504E-03
            1934     8.87518E-03     32.7230E-03    -42.3250E+06    -83.9950E+06    -1.98626E+06    -23.7320E+03    -116.153E-03     225.573E-03    -109.420E-03     133.495E-03    -118.121E-03     227.098E-03    -109.247E-03     128.208E-03
            1935     8.07128E-03     32.5781E-03    -46.0427E+06    -108.610E+06    -6.13808E+06     166.245E+03    -115.067E-03     224.175E-03    -109.108E-03     120.276E-03    -116.504E-03     225.081E-03    -108.915E-03     115.855E-03
            1936     7.26654E-03     32.4476E-03    -50.3380E+06    -130.635E+06    -11.8433E+06     199.950E+03    -113.848E-03     222.640E-03    -108.792E-03     107.548E-03    -114.886E-03     223.070E-03    -108.589E-03     103.878E-03
            1937     6.46110E-03     32.3306E-03    -54.9002E+06    -152.060E+06    -17.6728E+06     273.615E+03    -112.650E-03     221.140E-03    -108.490E-03     95.2639E-03    -113.389E-03     221.195E-03    -108.278E-03     92.2368E-03
            1938     5.65513E-03     32.2276E-03    -59.7815E+06    -169.619E+06    -24.9981E+06     432.504E+03    -111.475E-03     219.672E-03    -108.197E-03     83.2899E-03    -111.989E-03     219.444E-03    -107.989E-03     80.8234E-03
            1939     4.84848E-03     32.1377E-03    -65.0258E+06    -186.032E+06    -34.0213E+06     283.804E+03    -110.390E-03     218.311E-03    -107.921E-03     71.4282E-03    -110.734E-03     217.863E-03    -107.727E-03     69.4442E-03
            1940     4.04140E-03     32.0614E-03    -70.2718E+06    -204.010E+06    -44.2738E+06     302.185E+03    -109.414E-03     217.087E-03    -107.674E-03     59.6554E-03    -109.625E-03     216.453E-03    -107.497E-03     58.0939E-03
            1941     3.23377E-03     31.9984E-03    -75.4415E+06    -217.978E+06    -55.3914E+06     445.429E+03    -108.570E-03     216.024E-03    -107.454E-03     47.9021E-03    -108.684E-03     215.257E-03    -107.305E-03     46.7154E-03
            1942     2.42565E-03     31.9496E-03    -80.0497E+06    -225.750E+06    -66.8131E+06     272.367E+03    -107.899E-03     215.162E-03    -107.263E-03     36.1128E-03    -107.948E-03     214.319E-03    -107.153E-03     35.2531E-03
            1943     1.61728E-03     31.9143E-03    -83.4847E+06    -232.743E+06    -77.5240E+06     148.600E+03    -107.428E-03     214.535E-03    -107.106E-03     24.3763E-03    -107.429E-03     213.638E-03    -107.035E-03     23.8128E-03
            1944     808.832E-06     31.8925E-03    -85.7653E+06    -237.404E+06    -85.0100E+06    -133.563E+03    -107.062E-03     214.100E-03    -107.038E-03     13.2815E-03    -107.033E-03     213.172E-03    -106.995E-03     12.9764E-03
            1945     15.2929E-03     33.5058E-03    -4.96111E+06     119.827E+06     94.3394E+06     371.703E+03    -117.261E-03     229.008E-03    -111.748E-03     190.080E-03    -128.717E-03     240.598E-03    -111.442E-03     183.806E-03
            1946     14.4958E-03     33.1992E-03    -10.4699E+06     116.685E+06     95.9516E+06     121.568E+03    -121.909E-03     233.415E-03    -111.506E-03     275.588E-03    -139.182E-03     250.786E-03    -111.180E-03     264.863E-03
            1947     13.6949E-03     32.8774E-03    -16.5948E+06     101.617E+06     89.1144E+06    -50.8911E+03    -123.657E-03     234.882E-03    -111.225E-03     282.254E-03    -138.907E-03     250.176E-03    -110.903E-03     269.391E-03
            1948     12.8916E-03     32.5618E-03    -23.7783E+06     85.6186E+06     69.9638E+06     110.125E+03    -123.713E-03     234.601E-03    -110.889E-03     264.274E-03    -135.739E-03     246.645E-03    -110.629E-03     251.499E-03
            1949     12.0892E-03     32.2857E-03    -29.1855E+06     69.5322E+06     40.9182E+06     117.496E+03    -122.280E-03     232.732E-03    -110.452E-03     223.285E-03    -130.392E-03     240.869E-03    -110.306E-03     212.331E-03
            1950     11.2890E-03     32.0600E-03    -32.6312E+06     50.9023E+06     19.3288E+06    -216.055E+03    -119.822E-03     229.831E-03    -110.009E-03     184.458E-03    -125.112E-03     235.130E-03    -109.939E-03     175.525E-03
            1951     10.4856E-03     31.8699E-03    -35.5560E+06     6.70960E+06     8.80346E+06    -92.3382E+03    -118.109E-03     227.766E-03    -109.657E-03     160.173E-03    -121.770E-03     231.299E-03    -109.571E-03     152.768E-03
            1952     9.68253E-03     31.6984E-03    -38.8216E+06    -47.7763E+06     1.50626E+06     245.836E+03    -117.232E-03     226.566E-03    -109.334E-03     145.256E-03    -119.883E-03     228.905E-03    -109.201E-03     139.017E-03
            1953     8.87928E-03     31.5397E-03    -42.4088E+06    -83.7868E+06    -2.45401E+06     47.8545E+03    -116.208E-03     225.200E-03    -108.991E-03     131.862E-03    -118.153E-03     226.703E-03    -108.820E-03     126.605E-03
            1954     8.07509E-03     31.3965E-03    -46.3548E+06    -109.082E+06    -6.69163E+06     185.079E+03    -114.980E-03     223.609E-03    -108.629E-03     118.560E-03    -116.399E-03     224.496E-03    -108.437E-03     114.168E-03
            1955     7.27028E-03     31.2672E-03    -50.5920E+06    -130.331E+06    -12.1015E+06     466.143E+03    -113.655E-03     221.919E-03    -108.264E-03     105.877E-03    -114.678E-03     222.335E-03    -108.063E-03     102.244E-03
            1956     6.46483E-03     31.1519E-03    -55.1868E+06    -152.167E+06    -18.1824E+06     300.529E+03    -112.319E-03     220.237E-03    -107.918E-03     93.6403E-03    -113.045E-03     220.279E-03    -107.708E-03     90.6467E-03
            1957     5.65853E-03     31.0499E-03    -60.0342E+06    -169.669E+06    -25.3594E+06     473.759E+03    -111.067E-03     218.652E-03    -107.585E-03     81.7975E-03    -111.571E-03     218.415E-03    -107.379E-03     79.3614E-03
            1958     4.85174E-03     30.9613E-03    -65.2622E+06    -185.592E+06    -34.3889E+06     534.944E+03    -109.912E-03     217.183E-03    -107.272E-03     70.1789E-03    -110.250E-03     216.731E-03    -107.080E-03     68.2260E-03
            1959     4.04422E-03     30.8862E-03    -70.5060E+06    -204.132E+06    -44.7519E+06     312.838E+03    -108.848E-03     215.840E-03    -106.991E-03     58.5931E-03    -109.055E-03     215.201E-03    -106.817E-03     57.0566E-03
            1960     3.23596E-03     30.8244E-03    -75.3087E+06    -217.752E+06    -55.4826E+06     277.241E+03    -107.905E-03     214.655E-03    -106.750E-03     46.9734E-03    -108.016E-03     213.886E-03    -106.602E-03     45.8057E-03
            1961     2.42731E-03     30.7759E-03    -79.8081E+06    -225.421E+06    -66.7499E+06     158.430E+03    -107.191E-03     213.738E-03    -106.548E-03     35.3424E-03    -107.237E-03     212.895E-03    -106.439E-03     34.4977E-03
            1962     1.61848E-03     30.7413E-03    -83.9096E+06    -232.669E+06    -77.4228E+06     178.054E+03    -106.724E-03     213.105E-03    -106.382E-03     23.8952E-03    -106.726E-03     212.208E-03    -106.310E-03     23.3417E-03
            1963     809.283E-06     30.7199E-03    -85.9327E+06    -236.974E+06    -84.4262E+06     201.040E+03    -106.338E-03     212.631E-03    -106.293E-03     12.9296E-03    -106.311E-03     211.704E-03    -106.247E-03     12.6332E-03
            1964     15.3029E-03     32.3199E-03    -4.72161E+06     120.146E+06     95.0545E+06     65.3467E+03    -118.849E-03     230.486E-03    -111.637E-03     189.462E-03    -130.277E-03     242.048E-03    -111.329E-03     183.074E-03
            1965     14.4984E-03     32.0067E-03    -9.82396E+06     117.209E+06     96.6125E+06     493.188E+03    -121.306E-03     232.680E-03    -111.374E-03     277.363E-03    -138.563E-03     250.039E-03    -111.047E-03     266.734E-03
            1966     13.6956E-03     31.6918E-03    -16.6931E+06     101.403E+06     89.0360E+06     1.13184E+06    -123.936E-03     235.043E-03    -111.108E-03     283.078E-03    -139.147E-03     250.297E-03    -110.785E-03     270.215E-03
            1967     12.8930E-03     31.3727E-03    -22.9477E+06     86.3563E+06     70.9889E+06     935.301E+03    -124.998E-03     235.721E-03    -110.724E-03     264.162E-03    -137.013E-03     247.756E-03    -110.461E-03     251.251E-03
            1968     12.0937E-03     31.0962E-03    -27.8672E+06     70.8283E+06     41.9375E+06    -57.7036E+03    -123.004E-03     233.206E-03    -110.202E-03     221.358E-03    -131.059E-03     241.292E-03    -110.055E-03     210.352E-03
            1969     11.2913E-03     30.8734E-03    -31.8353E+06     50.4371E+06     18.8991E+06    -666.040E+03    -120.023E-03     229.715E-03    -109.692E-03     182.294E-03    -125.254E-03     234.957E-03    -109.625E-03     173.378E-03
            1970     10.4893E-03     30.6849E-03    -35.4580E+06     5.99321E+06     8.31066E+06     9.49962E+03    -118.354E-03     227.640E-03    -109.287E-03     158.233E-03    -121.972E-03     231.129E-03    -109.202E-03     150.854E-03
            1971     9.68688E-03     30.5138E-03    -38.8693E+06    -46.9081E+06     1.44833E+06     435.408E+03    -117.369E-03     226.274E-03    -108.905E-03     143.216E-03    -119.993E-03     228.590E-03    -108.774E-03     136.999E-03
            1972     8.88344E-03     30.3575E-03    -42.6942E+06    -83.7074E+06    -3.04484E+06     288.172E+03    -116.174E-03     224.679E-03    -108.506E-03     130.040E-03    -118.095E-03     226.160E-03    -108.337E-03     124.817E-03
            1973     8.07938E-03     30.2153E-03    -46.6689E+06    -109.221E+06    -7.47256E+06     263.715E+03    -114.831E-03     222.923E-03    -108.092E-03     116.755E-03    -116.227E-03     223.788E-03    -107.904E-03     112.405E-03
            1974     7.27469E-03     30.0879E-03    -50.5727E+06    -130.487E+06    -12.4861E+06     413.853E+03    -113.395E-03     221.077E-03    -107.682E-03     104.061E-03    -114.399E-03     221.474E-03    -107.481E-03     100.464E-03
            1975     6.46891E-03     29.9740E-03    -54.9999E+06    -151.966E+06    -18.2328E+06     615.694E+03    -111.963E-03     219.253E-03    -107.291E-03     92.0197E-03    -112.674E-03     219.282E-03    -107.082E-03     89.0677E-03
            1976     5.66249E-03     29.8737E-03    -60.0153E+06    -169.599E+06    -25.7455E+06     620.829E+03    -110.607E-03     217.523E-03    -106.916E-03     80.3012E-03    -111.100E-03     217.276E-03    -106.712E-03     77.9030E-03
            1977     4.85503E-03     29.7864E-03    -65.1266E+06    -185.209E+06    -34.1085E+06     656.502E+03    -109.334E-03     215.905E-03    -106.571E-03     68.7690E-03    -109.664E-03     215.445E-03    -106.378E-03     66.8506E-03
            1978     4.04699E-03     29.7124E-03    -70.3027E+06    -203.453E+06    -44.6395E+06     403.781E+03    -108.225E-03     214.485E-03    -106.259E-03     57.3199E-03    -108.426E-03     213.843E-03    -106.086E-03     55.8115E-03
            1979     3.23858E-03     29.6517E-03    -75.3193E+06    -217.660E+06    -55.7793E+06     91.2546E+03    -107.252E-03     213.237E-03    -105.985E-03     45.9477E-03    -107.359E-03     212.465E-03    -105.839E-03     44.7974E-03
            1980     2.42945E-03     29.6043E-03    -79.9649E+06    -225.385E+06    -67.0496E+06     249.564E+03    -106.433E-03     212.191E-03    -105.758E-03     34.6513E-03    -106.478E-03     211.347E-03    -105.651E-03     33.8254E-03
            1981     1.61971E-03     29.5700E-03    -83.5640E+06    -232.487E+06    -77.8397E+06     116.343E+03    -105.892E-03     211.486E-03    -105.594E-03     23.4342E-03    -105.891E-03     210.589E-03    -105.525E-03     22.8910E-03
            1982     810.001E-06     29.5490E-03    -85.4476E+06    -236.508E+06    -84.3822E+06    -217.337E+03    -105.575E-03     211.080E-03    -105.505E-03     12.5368E-03    -105.547E-03     210.154E-03    -105.460E-03     12.2407E-03
            1983     15.2971E-03     31.1257E-03    -5.40166E+06     119.322E+06     93.8058E+06    -138.025E+03    -118.782E-03     230.452E-03    -111.670E-03     192.048E-03    -130.254E-03     242.056E-03    -111.366E-03     185.574E-03
            1984     14.4971E-03     30.8193E-03    -10.9573E+06     115.898E+06     95.3562E+06     578.079E+03    -122.927E-03     234.303E-03    -111.377E-03     278.112E-03    -140.186E-03     251.658E-03    -111.052E-03     267.254E-03
            1985     13.6951E-03     30.5007E-03    -16.5498E+06     101.641E+06     89.3349E+06     1.20609E+06    -125.952E-03     236.958E-03    -111.006E-03     281.802E-03    -141.135E-03     252.184E-03    -110.683E-03     268.661E-03
            1986     12.8973E-03     30.1820E-03    -21.9525E+06     87.5261E+06     72.2327E+06     764.207E+03    -126.357E-03     236.856E-03    -110.500E-03     262.020E-03    -138.301E-03     248.824E-03    -110.234E-03     248.954E-03
            1987     12.0962E-03     29.9072E-03    -26.9560E+06     71.4169E+06     41.8277E+06    -58.8658E+03    -123.263E-03     233.151E-03    -109.888E-03     218.894E-03    -131.239E-03     241.163E-03    -109.743E-03     207.893E-03
            1988     11.2962E-03     29.6869E-03    -31.4993E+06     50.6718E+06     18.0227E+06     211.536E+03    -120.311E-03     229.628E-03    -109.317E-03     179.713E-03    -125.483E-03     234.816E-03    -109.255E-03     170.820E-03
            1989     10.4943E-03     29.4994E-03    -35.3921E+06     6.33721E+06     8.07087E+06     411.491E+03    -118.498E-03     227.353E-03    -108.855E-03     156.136E-03    -122.076E-03     230.805E-03    -108.773E-03     148.786E-03
            1990     9.69157E-03     29.3306E-03    -39.2084E+06    -47.0624E+06     901.404E+03     440.325E+03    -117.302E-03     225.726E-03    -108.423E-03     141.520E-03    -119.894E-03     228.008E-03    -108.294E-03     135.345E-03
            1991     8.88828E-03     29.1755E-03    -42.6846E+06    -83.2565E+06    -3.25243E+06     585.766E+03    -116.118E-03     224.094E-03    -107.976E-03     128.258E-03    -118.012E-03     225.550E-03    -107.809E-03     123.080E-03
            1992     8.08426E-03     29.0351E-03    -46.3524E+06    -108.790E+06    -7.60561E+06     425.256E+03    -114.629E-03     222.141E-03    -107.512E-03     114.914E-03    -115.998E-03     222.982E-03    -107.325E-03     110.613E-03
            1993     7.27911E-03     28.9094E-03    -50.4530E+06    -130.679E+06    -12.9928E+06     376.994E+03    -113.079E-03     220.133E-03    -107.054E-03     102.281E-03    -114.061E-03     220.511E-03    -106.857E-03     98.7294E-03
            1994     6.47326E-03     28.7974E-03    -54.8577E+06    -152.226E+06    -18.4423E+06     686.397E+03    -111.591E-03     218.210E-03    -106.619E-03     90.2768E-03    -112.285E-03     218.223E-03    -106.411E-03     87.3673E-03
            1995     5.66637E-03     28.6986E-03    -59.6452E+06    -169.301E+06    -25.5807E+06     984.655E+03    -110.133E-03     216.332E-03    -106.199E-03     78.6201E-03    -110.613E-03     216.074E-03    -105.995E-03     76.2642E-03
            1996     4.85888E-03     28.6130E-03    -64.7899E+06    -184.588E+06    -34.0882E+06     786.317E+03    -108.753E-03     214.564E-03    -105.811E-03     67.2228E-03    -109.074E-03     214.098E-03    -105.620E-03     65.3394E-03
            1997     4.05043E-03     28.5404E-03    -70.0174E+06    -202.801E+06    -44.2561E+06     561.465E+03    -107.506E-03     212.978E-03    -105.471E-03     56.0146E-03    -107.702E-03     212.333E-03    -105.297E-03     54.5368E-03
            1998     3.24108E-03     28.4808E-03    -75.1886E+06    -217.236E+06    -55.8111E+06     465.204E+03    -106.473E-03     211.650E-03    -105.177E-03     44.9366E-03    -106.576E-03     210.877E-03    -105.032E-03     43.8144E-03
            1999     2.43127E-03     28.4344E-03    -79.9862E+06    -225.317E+06    -67.5585E+06     238.450E+03    -105.677E-03     210.605E-03    -104.929E-03     33.9113E-03    -105.719E-03     209.760E-03    -104.824E-03     33.1017E-03
            2000     1.62117E-03     28.4008E-03    -83.4547E+06    -232.158E+06    -77.9233E+06     163.303E+03    -105.069E-03     209.813E-03    -104.744E-03     22.8882E-03    -105.067E-03     208.916E-03    -104.676E-03     22.3574E-03
            2001     810.515E-06     28.3801E-03    -85.5924E+06    -236.365E+06    -84.5457E+06    -24.5608E+03    -104.704E-03     209.361E-03    -104.657E-03     12.3188E-03    -104.676E-03     208.436E-03    -104.613E-03     12.0333E-03
            2002     15.2941E-03     29.9281E-03    -4.86569E+06     119.148E+06     93.5467E+06     716.575E+03    -119.433E-03     231.128E-03    -111.695E-03     188.211E-03    -130.634E-03     242.464E-03    -111.393E-03     181.586E-03
            2003     14.4963E-03     29.6263E-03    -11.3959E+06     115.186E+06     94.4893E+06     53.3749E+03    -124.785E-03     236.085E-03    -111.300E-03     272.071E-03    -141.762E-03     253.157E-03    -110.978E-03     260.871E-03
            2004     13.7002E-03     29.3079E-03    -16.9270E+06     101.391E+06     89.2790E+06    -230.033E+03    -127.410E-03     238.208E-03    -110.797E-03     278.664E-03    -142.504E-03     253.342E-03    -110.473E-03     265.290E-03
            2005     12.9006E-03     28.9910E-03    -22.1795E+06     87.4099E+06     71.6730E+06    -295.683E+03    -126.716E-03     236.912E-03    -110.197E-03     259.603E-03    -138.564E-03     248.784E-03    -109.933E-03     246.501E-03
            2006     12.1019E-03     28.7192E-03    -27.5251E+06     71.0546E+06     41.2014E+06     360.434E+03    -123.449E-03     232.981E-03    -109.532E-03     216.828E-03    -131.341E-03     240.908E-03    -109.389E-03     205.869E-03
            2007     11.3006E-03     28.4993E-03    -31.9996E+06     51.4759E+06     18.1499E+06     1.13827E+06    -120.394E-03     229.312E-03    -108.918E-03     178.226E-03    -125.498E-03     234.432E-03    -108.856E-03     169.411E-03
            2008     10.4991E-03     28.3151E-03    -35.8244E+06     6.90709E+06     7.42907E+06     770.828E+03    -118.586E-03     226.995E-03    -108.409E-03     154.834E-03    -122.133E-03     230.418E-03    -108.330E-03     147.524E-03
            2009     9.69633E-03     28.1476E-03    -39.1956E+06    -46.9862E+06     527.319E+03     573.209E+03    -117.446E-03     225.372E-03    -107.925E-03     140.127E-03    -120.006E-03     227.624E-03    -107.798E-03     133.990E-03
            2010     8.89322E-03     27.9938E-03    -42.5129E+06    -82.7276E+06    -3.36317E+06     621.021E+03    -116.091E-03     223.510E-03    -107.419E-03     126.452E-03    -117.955E-03     224.939E-03    -107.254E-03     121.320E-03
            2011     8.08908E-03     27.8560E-03    -46.3215E+06    -108.714E+06    -7.90410E+06     569.610E+03    -114.452E-03     221.352E-03    -106.899E-03     112.911E-03    -115.796E-03     222.168E-03    -106.714E-03     108.659E-03
            2012     7.28401E-03     27.7319E-03    -50.4033E+06    -130.631E+06    -13.2519E+06     520.005E+03    -112.799E-03     219.187E-03    -106.387E-03     100.268E-03    -113.760E-03     219.544E-03    -106.191E-03     96.7651E-03
            2013     6.47790E-03     27.6220E-03    -54.7937E+06    -152.590E+06    -18.7280E+06     714.184E+03    -111.176E-03     217.077E-03    -105.901E-03     88.2803E-03    -111.852E-03     217.071E-03    -105.694E-03     85.4136E-03
            2014     5.67093E-03     27.5249E-03    -59.4498E+06    -169.054E+06    -25.5454E+06     1.00089E+06    -109.565E-03     215.003E-03    -105.438E-03     76.8375E-03    -110.032E-03     214.733E-03    -105.234E-03     74.5213E-03
            2015     4.86270E-03     27.4411E-03    -64.4823E+06    -183.727E+06    -33.8493E+06     1.08917E+06    -108.078E-03     213.095E-03    -105.016E-03     65.7373E-03    -108.390E-03     212.624E-03    -104.826E-03     63.8928E-03
            2016     4.05368E-03     27.3701E-03    -69.8142E+06    -202.413E+06    -44.2031E+06     914.581E+03    -106.788E-03     211.436E-03    -104.648E-03     54.7200E-03    -106.977E-03     210.786E-03    -104.474E-03     53.2752E-03
            2017     3.24388E-03     27.3121E-03    -74.9927E+06    -216.609E+06    -55.3902E+06     815.957E+03    -105.711E-03     210.037E-03    -104.326E-03     43.8111E-03    -105.811E-03     209.263E-03    -104.180E-03     42.7164E-03
            2018     2.43349E-03     27.2661E-03    -79.8586E+06    -224.631E+06    -67.1742E+06     620.924E+03    -104.861E-03     208.909E-03    -104.048E-03     32.9536E-03    -104.902E-03     208.064E-03    -103.943E-03     32.1654E-03
            2019     1.62264E-03     27.2336E-03    -83.9329E+06    -231.948E+06    -78.0441E+06     304.584E+03    -104.202E-03     208.037E-03    -103.835E-03     22.2307E-03    -104.202E-03     207.141E-03    -103.767E-03     21.7141E-03
            2020     811.497E-06     27.2133E-03    -85.9652E+06    -236.029E+06    -84.5544E+06     2.18860E+03    -103.734E-03     207.513E-03    -103.780E-03     12.1210E-03    -103.708E-03     206.590E-03    -103.735E-03     11.8431E-03
            2021     15.3024E-03     28.7404E-03    -4.55406E+06     119.629E+06     94.6120E+06     888.627E+03    -122.238E-03     233.805E-03    -111.567E-03     186.146E-03    -133.332E-03     245.033E-03    -111.261E-03     179.238E-03
            2022     14.5027E-03     28.4303E-03    -9.35702E+06     117.028E+06     96.7533E+06     1.06582E+06    -125.295E-03     236.368E-03    -111.073E-03     270.978E-03    -142.130E-03     253.305E-03    -110.745E-03     259.688E-03
            2023     13.7037E-03     28.1165E-03    -16.2995E+06     101.602E+06     89.2905E+06    -93.1998E+03    -127.568E-03     238.096E-03    -110.528E-03     277.861E-03    -142.549E-03     253.121E-03    -110.205E-03     264.480E-03
            2024     12.9054E-03     27.7998E-03    -22.8195E+06     86.6541E+06     70.9520E+06    -268.840E+03    -127.037E-03     236.931E-03    -109.894E-03     258.897E-03    -138.797E-03     248.712E-03    -109.632E-03     245.815E-03
            2025     12.1053E-03     27.5304E-03    -28.3697E+06     70.3110E+06     41.2286E+06     893.146E+03    -123.727E-03     232.918E-03    -109.191E-03     215.360E-03    -131.521E-03     240.742E-03    -109.045E-03     204.470E-03
            2026     11.3050E-03     27.3134E-03    -32.5793E+06     51.1077E+06     17.7918E+06     1.07199E+06    -120.526E-03     229.055E-03    -108.529E-03     176.539E-03    -125.564E-03     234.107E-03    -108.467E-03     167.779E-03
            2027     10.5029E-03     27.1303E-03    -35.8162E+06     7.83652E+06     7.40935E+06     840.025E+03    -118.862E-03     226.826E-03    -107.964E-03     152.986E-03    -122.363E-03     230.207E-03    -107.887E-03     145.709E-03
            2028     9.70140E-03     26.9645E-03    -38.9838E+06    -45.9192E+06     645.153E+03     735.914E+03    -117.693E-03     225.104E-03    -107.411E-03     137.969E-03    -120.221E-03     227.328E-03    -107.284E-03     131.860E-03
            2029     8.89834E-03     26.8134E-03    -42.6119E+06    -82.8859E+06    -3.86170E+06     630.643E+03    -116.079E-03     222.913E-03    -106.834E-03     124.207E-03    -117.910E-03     224.310E-03    -106.671E-03     119.119E-03
            2030     8.09436E-03     26.6772E-03    -46.2838E+06    -108.501E+06    -8.13774E+06     625.684E+03    -114.297E-03     220.549E-03    -106.252E-03     110.627E-03    -115.614E-03     221.340E-03    -106.068E-03     106.421E-03
            2031     7.28924E-03     26.5559E-03    -50.2602E+06    -130.452E+06    -13.3096E+06     635.371E+03    -112.455E-03     218.139E-03    -105.684E-03     98.1562E-03    -113.395E-03     218.476E-03    -105.489E-03     94.7014E-03
            2032     6.48294E-03     26.4476E-03    -54.4762E+06    -152.589E+06    -18.8157E+06     894.510E+03    -110.644E-03     215.797E-03    -105.153E-03     86.4279E-03    -111.303E-03     215.775E-03    -104.947E-03     83.6104E-03
            2033     5.67530E-03     26.3531E-03    -59.2722E+06    -168.942E+06    -25.9369E+06     1.15142E+06    -108.947E-03     213.601E-03    -104.654E-03     75.1479E-03    -109.402E-03     213.321E-03    -104.453E-03     72.8755E-03
            2034     4.86670E-03     26.2709E-03    -64.3778E+06    -183.362E+06    -33.8965E+06     1.18518E+06    -107.404E-03     211.605E-03    -104.201E-03     64.1535E-03    -107.708E-03     211.128E-03    -104.011E-03     62.3443E-03
            2035     4.05710E-03     26.2017E-03    -69.4996E+06    -201.715E+06    -43.8600E+06     1.26539E+06    -106.091E-03     209.889E-03    -103.798E-03     53.2855E-03    -106.274E-03     209.236E-03    -103.624E-03     51.8727E-03
            2036     3.24685E-03     26.1447E-03    -74.8543E+06    -216.055E+06    -55.2183E+06     1.24230E+06    -104.954E-03     208.390E-03    -103.436E-03     42.6670E-03    -105.051E-03     207.614E-03    -103.291E-03     41.6004E-03
            2037     2.43584E-03     26.1004E-03    -79.7226E+06    -223.844E+06    -66.7016E+06     1.05096E+06    -103.972E-03     207.104E-03    -103.132E-03     32.1245E-03    -104.012E-03     206.260E-03    -103.026E-03     31.3603E-03
            2038     1.62416E-03     26.0683E-03    -83.5137E+06    -230.932E+06    -77.4692E+06     618.552E+03    -103.285E-03     206.192E-03    -102.906E-03     21.6718E-03    -103.284E-03     205.299E-03    -102.838E-03     21.1712E-03
            2039     812.081E-06     26.0489E-03    -86.1404E+06    -235.684E+06    -84.7418E+06     99.0078E+03    -102.948E-03     205.640E-03    -102.693E-03     11.7709E-03    -102.922E-03     204.719E-03    -102.650E-03     11.5008E-03
            2040     15.2998E-03     27.5383E-03    -5.30862E+06     118.919E+06     94.0402E+06     47.6184E+03    -123.499E-03     234.987E-03    -111.488E-03     186.661E-03    -134.645E-03     246.263E-03    -111.182E-03     179.539E-03
            2041     14.5049E-03     27.2394E-03    -10.3456E+06     116.040E+06     95.9279E+06     456.506E+03    -126.706E-03     237.633E-03    -110.927E-03     272.848E-03    -143.545E-03     254.569E-03    -110.601E-03     261.356E-03
            2042     13.7062E-03     26.9221E-03    -15.6746E+06     101.951E+06     89.7659E+06     952.573E+03    -128.519E-03     238.840E-03    -110.321E-03     277.796E-03    -143.385E-03     253.752E-03    -109.997E-03     264.347E-03
            2043     12.9078E-03     26.6092E-03    -22.2733E+06     86.8866E+06     71.6738E+06     1.33644E+06    -127.571E-03     237.201E-03    -109.630E-03     257.093E-03    -139.183E-03     248.834E-03    -109.365E-03     244.053E-03
            2044     12.1094E-03     26.3405E-03    -28.1097E+06     70.3152E+06     41.7303E+06     1.14396E+06    -124.176E-03     233.042E-03    -108.866E-03     213.159E-03    -131.867E-03     240.762E-03    -108.719E-03     202.302E-03
            2045     11.3093E-03     26.1276E-03    -32.2598E+06     51.6687E+06     17.7297E+06     970.783E+03    -121.160E-03     229.286E-03    -108.125E-03     174.069E-03    -126.145E-03     234.288E-03    -108.065E-03     165.297E-03
            2046     10.5087E-03     25.9452E-03    -35.7837E+06     8.25001E+06     6.96607E+06     771.726E+03    -119.245E-03     226.721E-03    -107.476E-03     150.621E-03    -122.695E-03     230.053E-03    -107.401E-03     143.371E-03
            2047     9.70666E-03     25.7821E-03    -39.0968E+06    -45.8647E+06     253.545E+03     710.528E+03    -117.737E-03     224.588E-03    -106.851E-03     135.385E-03    -120.225E-03     226.774E-03    -106.727E-03     129.312E-03
            2048     8.90398E-03     25.6330E-03    -42.2954E+06    -82.2754E+06    -3.83976E+06     773.133E+03    -115.952E-03     222.166E-03    -106.214E-03     121.696E-03    -117.749E-03     223.532E-03    -106.053E-03     116.659E-03
            2049     8.09995E-03     25.4997E-03    -45.9773E+06    -107.978E+06    -8.30322E+06     744.057E+03    -113.949E-03     219.529E-03    -105.581E-03     108.464E-03    -115.237E-03     220.295E-03    -105.399E-03     104.318E-03
            2050     7.29454E-03     25.3805E-03    -49.8830E+06    -130.322E+06    -13.5663E+06     795.770E+03    -111.993E-03     216.965E-03    -104.972E-03     96.1669E-03    -112.910E-03     217.282E-03    -104.779E-03     92.7657E-03
            2051     6.48766E-03     25.2752E-03    -54.2093E+06    -152.922E+06    -19.2702E+06     1.11650E+06    -110.104E-03     214.508E-03    -104.404E-03     84.5360E-03    -110.744E-03     214.469E-03    -104.200E-03     81.7691E-03
            2052     5.67976E-03     25.1824E-03    -58.9312E+06    -168.798E+06    -26.3767E+06     1.46998E+06    -108.357E-03     212.225E-03    -103.868E-03     73.3788E-03    -108.797E-03     211.933E-03    -103.670E-03     71.1516E-03
            2053     4.87076E-03     25.1026E-03    -63.9838E+06    -182.834E+06    -34.1778E+06     1.54034E+06    -106.780E-03     210.156E-03    -103.376E-03     62.5759E-03    -107.073E-03     209.673E-03    -103.189E-03     60.8045E-03
            2054     4.06075E-03     25.0348E-03    -69.2688E+06    -201.261E+06    -43.9919E+06     1.60468E+06    -105.351E-03     208.289E-03    -102.938E-03     51.9627E-03    -105.528E-03     207.633E-03    -102.766E-03     50.5835E-03
            2055     3.24975E-03     24.9796E-03    -74.3463E+06    -215.263E+06    -55.1146E+06     1.60378E+06    -104.094E-03     206.650E-03    -102.556E-03     41.5822E-03    -104.186E-03     205.874E-03    -102.412E-03     40.5436E-03
            2056     2.43795E-03     24.9364E-03    -79.0320E+06    -222.884E+06    -66.3986E+06     1.27993E+06    -103.121E-03     205.359E-03    -102.238E-03     31.3550E-03    -103.158E-03     204.516E-03    -102.132E-03     30.6108E-03
            2057     1.62563E-03     24.9055E-03    -82.9307E+06    -229.774E+06    -76.7213E+06     995.076E+03    -102.450E-03     204.431E-03    -101.981E-03     21.0692E-03    -102.448E-03     203.541E-03    -101.911E-03     20.5850E-03
            2058     813.046E-06     24.8862E-03    -85.5707E+06    -234.493E+06    -83.8329E+06     697.104E+03    -102.101E-03     203.736E-03    -101.634E-03     11.3696E-03    -102.076E-03     202.818E-03    -101.590E-03     11.1144E-03
            2059     15.3010E-03     26.3423E-03    -4.86531E+06     118.727E+06     93.9076E+06     238.526E+03    -123.884E-03     235.350E-03    -111.466E-03     184.793E-03    -134.799E-03     246.397E-03    -111.161E-03     177.563E-03
            2060     14.5030E-03     26.0397E-03    -11.1462E+06     114.841E+06     94.2603E+06     38.8265E+03    -128.083E-03     238.924E-03    -110.841E-03     269.709E-03    -144.645E-03     255.581E-03    -110.520E-03     258.000E-03
            2061     13.7089E-03     25.7281E-03    -16.8002E+06     101.357E+06     89.1405E+06     163.243E+03    -129.824E-03     239.965E-03    -110.141E-03     275.011E-03    -144.531E-03     254.714E-03    -109.818E-03     261.411E-03
            2062     12.9123E-03     25.4170E-03    -22.2475E+06     86.9193E+06     72.6671E+06     1.21137E+06    -128.340E-03     237.702E-03    -109.362E-03     254.266E-03    -139.814E-03     249.195E-03    -109.093E-03     241.210E-03
            2063     12.1132E-03     25.1522E-03    -27.2919E+06     70.3877E+06     42.6812E+06     1.74812E+06    -124.828E-03     233.343E-03    -108.515E-03     210.475E-03    -132.422E-03     240.966E-03    -108.364E-03     199.624E-03
            2064     11.3144E-03     24.9391E-03    -31.6688E+06     52.6636E+06     17.7402E+06     1.44174E+06    -121.687E-03     229.372E-03    -107.685E-03     171.366E-03    -126.605E-03     234.314E-03    -107.627E-03     162.606E-03
            2065     10.5141E-03     24.7615E-03    -35.4742E+06     8.86766E+06     6.13036E+06     1.12827E+06    -119.495E-03     226.451E-03    -106.955E-03     148.274E-03    -122.898E-03     229.742E-03    -106.886E-03     141.058E-03
            2066     9.71268E-03     24.5996E-03    -38.7148E+06    -45.5897E+06    -314.508E+03     840.016E+03    -117.644E-03     223.916E-03    -106.273E-03     133.362E-03    -120.089E-03     226.063E-03    -106.152E-03     127.351E-03
            2067     8.90983E-03     24.4541E-03    -41.9560E+06    -81.8187E+06    -4.08657E+06     907.649E+03    -115.658E-03     221.250E-03    -105.592E-03     119.635E-03    -117.420E-03     222.585E-03    -105.433E-03     114.659E-03
            2068     8.10529E-03     24.3231E-03    -45.7108E+06    -107.468E+06    -8.76670E+06     1.11905E+06    -113.571E-03     218.490E-03    -104.918E-03     106.450E-03    -114.832E-03     219.232E-03    -104.740E-03     102.367E-03
            2069     7.29946E-03     24.2068E-03    -49.8847E+06    -130.296E+06    -14.2938E+06     1.14985E+06    -111.549E-03     215.821E-03    -104.271E-03     94.0820E-03    -112.444E-03     216.117E-03    -104.082E-03     90.7378E-03
            2070     6.49260E-03     24.1037E-03    -54.1966E+06    -153.364E+06    -19.9469E+06     1.44224E+06    -109.612E-03     213.277E-03    -103.665E-03     82.5061E-03    -110.234E-03     213.220E-03    -103.463E-03     79.7885E-03
            2071     5.68425E-03     24.0137E-03    -58.8033E+06    -168.644E+06    -27.3359E+06     1.80982E+06    -107.756E-03     210.845E-03    -103.088E-03     71.5896E-03    -108.182E-03     210.543E-03    -102.895E-03     69.4084E-03
            2072     4.87467E-03     23.9355E-03    -63.7859E+06    -182.247E+06    -34.8090E+06     1.96121E+06    -106.072E-03     208.641E-03    -102.569E-03     61.0335E-03    -106.356E-03     208.153E-03    -102.386E-03     59.3041E-03
            2073     4.06409E-03     23.8700E-03    -68.7813E+06    -200.629E+06    -44.1763E+06     1.88226E+06    -104.585E-03     206.696E-03    -102.111E-03     50.6307E-03    -104.754E-03     206.037E-03    -101.941E-03     49.2844E-03
            2074     3.25246E-03     23.8163E-03    -73.7019E+06    -214.430E+06    -54.8919E+06     1.70323E+06    -103.311E-03     205.022E-03    -101.711E-03     40.4524E-03    -103.397E-03     204.245E-03    -101.568E-03     39.4368E-03
            2075     2.44001E-03     23.7747E-03    -78.3490E+06    -221.714E+06    -65.7360E+06     1.61576E+06    -102.311E-03     203.684E-03    -101.373E-03     30.4641E-03    -102.345E-03     202.843E-03    -101.267E-03     29.7407E-03
            2076     1.62718E-03     23.7441E-03    -82.0689E+06    -228.421E+06    -75.8365E+06     1.16745E+06    -101.568E-03     202.672E-03    -101.104E-03     20.5009E-03    -101.564E-03     201.786E-03    -101.033E-03     20.0308E-03
            2077     813.786E-06     23.7263E-03    -84.3577E+06    -232.760E+06    -82.5053E+06     552.975E+03    -101.055E-03     201.982E-03    -100.927E-03     11.1024E-03    -101.028E-03     201.069E-03    -100.879E-03     10.8488E-03
            2078     15.3013E-03     25.1418E-03    -4.39999E+06     118.785E+06     94.0471E+06     452.439E+03    -126.090E-03     237.504E-03    -111.414E-03     183.583E-03    -136.845E-03     248.393E-03    -111.110E-03     176.035E-03
            2079     14.5085E-03     24.8438E-03    -9.44995E+06     116.088E+06     95.6149E+06     1.07867E+06    -129.180E-03     239.871E-03    -110.691E-03     266.598E-03    -145.453E-03     256.246E-03    -110.368E-03     254.726E-03
            2080     13.7115E-03     24.5310E-03    -16.2695E+06     101.352E+06     89.0797E+06     509.603E+03    -130.291E-03     240.208E-03    -109.918E-03     271.937E-03    -144.791E-03     254.752E-03    -109.596E-03     258.322E-03
            2081     12.9150E-03     24.2248E-03    -22.8156E+06     85.6247E+06     72.0226E+06     281.199E+03    -129.166E-03     238.232E-03    -109.066E-03     251.385E-03    -140.527E-03     249.608E-03    -108.797E-03     238.265E-03
            2082     12.1188E-03     23.9614E-03    -27.6031E+06     69.2425E+06     42.7123E+06     1.51136E+06    -125.535E-03     233.667E-03    -108.132E-03     207.694E-03    -133.037E-03     241.194E-03    -107.979E-03     196.831E-03
            2083     11.3198E-03     23.7528E-03    -31.4515E+06     52.9523E+06     17.5931E+06     2.09399E+06    -121.801E-03     229.029E-03    -107.228E-03     168.869E-03    -126.642E-03     233.896E-03    -107.171E-03     160.173E-03
            2084     10.5195E-03     23.5764E-03    -34.9654E+06     10.6913E+06     5.70505E+06     1.77625E+06    -119.362E-03     225.810E-03    -106.449E-03     146.149E-03    -122.713E-03     229.059E-03    -106.385E-03     139.005E-03
            2085     9.71793E-03     23.4188E-03    -38.5018E+06    -44.2893E+06    -860.916E+03     1.24358E+06    -117.488E-03     223.215E-03    -105.727E-03     131.497E-03    -119.891E-03     225.327E-03    -105.611E-03     125.558E-03
            2086     8.91461E-03     23.2753E-03    -42.1129E+06    -82.0792E+06    -4.87109E+06     1.06858E+06    -115.475E-03     220.480E-03    -105.005E-03     117.591E-03    -117.204E-03     221.783E-03    -104.850E-03     112.671E-03
            2087     8.11043E-03     23.1478E-03    -45.8406E+06    -107.473E+06    -9.46036E+06     1.48709E+06    -113.344E-03     217.627E-03    -104.283E-03     104.194E-03    -114.578E-03     218.344E-03    -104.108E-03     100.163E-03
            2088     7.30465E-03     23.0339E-03    -49.9563E+06    -129.707E+06    -14.8793E+06     1.80118E+06    -111.172E-03     214.759E-03    -103.587E-03     91.8479E-03    -112.044E-03     215.037E-03    -103.401E-03     88.5641E-03
            2089     6.49718E-03     22.9338E-03    -54.5942E+06    -153.501E+06    -20.7429E+06     1.97664E+06    -109.085E-03     212.026E-03    -102.941E-03     80.3934E-03    -109.689E-03     211.952E-03    -102.743E-03     77.7332E-03
            2090     5.68851E-03     22.8460E-03    -59.3085E+06    -168.525E+06    -28.5078E+06     2.15792E+06    -107.144E-03     209.475E-03    -102.331E-03     69.6885E-03    -107.558E-03     209.163E-03    -102.143E-03     67.5556E-03
            2091     4.87850E-03     22.7706E-03    -63.6646E+06    -181.413E+06    -35.8139E+06     2.01018E+06    -105.362E-03     207.148E-03    -101.785E-03     59.2943E-03    -105.636E-03     206.655E-03    -101.609E-03     57.6039E-03
            2092     4.06720E-03     22.7067E-03    -68.4354E+06    -200.084E+06    -44.4459E+06     1.89789E+06    -103.835E-03     205.148E-03    -101.313E-03     49.0654E-03    -103.996E-03     204.485E-03    -101.146E-03     47.7498E-03
            2093     3.25509E-03     22.6551E-03    -73.3675E+06    -213.661E+06    -54.5437E+06     1.89264E+06    -102.573E-03     203.467E-03    -100.894E-03     39.1939E-03    -102.656E-03     202.689E-03    -100.750E-03     38.2036E-03
            2094     2.44227E-03     22.6143E-03    -77.6751E+06    -220.307E+06    -64.4429E+06     1.49612E+06    -101.473E-03     202.017E-03    -100.544E-03     29.5169E-03    -101.505E-03     201.179E-03    -100.434E-03     28.8090E-03
            2095     1.62838E-03     22.5856E-03    -81.2583E+06    -226.770E+06    -74.4151E+06     919.445E+03    -100.630E-03     200.936E-03    -100.306E-03     19.8992E-03    -100.625E-03     200.054E-03    -100.231E-03     19.4375E-03
            2096     814.133E-06     22.5675E-03    -83.7624E+06    -231.483E+06    -81.8566E+06     89.5187E+03    -100.286E-03     200.441E-03    -100.155E-03     10.6850E-03    -100.258E-03     199.532E-03    -100.107E-03     10.4311E-03
            2097     15.3029E-03     23.9383E-03    -4.80040E+06     118.299E+06     93.2670E+06    -192.330E+03    -127.947E-03     239.292E-03    -111.345E-03     181.549E-03    -138.556E-03     250.033E-03    -111.043E-03     173.732E-03
            2098     14.5093E-03     23.6435E-03    -10.0825E+06     115.494E+06     95.1762E+06     176.511E+03    -130.429E-03     240.957E-03    -110.527E-03     264.090E-03    -146.479E-03     257.105E-03    -110.204E-03     252.043E-03
            2099     13.7155E-03     23.3371E-03    -15.6927E+06     101.428E+06     89.5381E+06     1.25522E+06    -131.116E-03     240.793E-03    -109.676E-03     269.738E-03    -145.421E-03     255.143E-03    -109.353E-03     256.093E-03
            2100     12.9200E-03     23.0298E-03    -21.3978E+06     86.0613E+06     72.9696E+06     1.56214E+06    -129.696E-03     238.454E-03    -108.758E-03     249.047E-03    -140.906E-03     249.682E-03    -108.487E-03     235.949E-03
            2101     12.1230E-03     22.7712E-03    -27.5905E+06     68.0426E+06     42.7901E+06     1.68082E+06    -125.799E-03     233.564E-03    -107.765E-03     205.217E-03    -133.190E-03     240.976E-03    -107.610E-03     194.404E-03
            2102     11.3249E-03     22.5655E-03    -32.0291E+06     52.9081E+06     17.7135E+06     2.19970E+06    -121.857E-03     228.669E-03    -106.812E-03     166.939E-03    -126.631E-03     233.467E-03    -106.754E-03     158.307E-03
            2103     10.5244E-03     22.3935E-03    -35.2718E+06     12.9040E+06     5.57501E+06     2.17412E+06    -119.338E-03     225.324E-03    -105.986E-03     144.214E-03    -122.639E-03     228.530E-03    -105.926E-03     137.139E-03
            2104     9.72243E-03     22.2376E-03    -38.6295E+06    -43.2038E+06    -1.57098E+06     1.58170E+06    -117.467E-03     222.684E-03    -105.217E-03     129.131E-03    -119.829E-03     224.760E-03    -105.106E-03     123.246E-03
            2105     8.91993E-03     22.0977E-03    -42.3448E+06    -82.4460E+06    -5.55105E+06     1.56087E+06    -115.386E-03     219.830E-03    -104.444E-03     115.012E-03    -117.078E-03     221.095E-03    -104.291E-03     110.150E-03
            2106     8.11535E-03     21.9728E-03    -46.2140E+06    -107.615E+06    -9.95697E+06     1.78098E+06    -113.092E-03     216.763E-03    -103.671E-03     101.677E-03    -114.296E-03     217.450E-03    -103.497E-03     97.7021E-03
            2107     7.30935E-03     21.8624E-03    -50.1798E+06    -129.661E+06    -15.2785E+06     2.30123E+06    -110.802E-03     213.731E-03    -102.930E-03     89.4689E-03    -111.650E-03     213.985E-03    -102.745E-03     86.2465E-03
            2108     6.50186E-03     21.7651E-03    -54.7127E+06    -153.197E+06    -20.7735E+06     2.78481E+06    -108.629E-03     210.872E-03    -102.243E-03     78.1154E-03    -109.215E-03     210.780E-03    -102.045E-03     75.5165E-03
            2109     5.69265E-03     21.6802E-03    -59.1304E+06    -167.257E+06    -28.1310E+06     2.22635E+06    -106.575E-03     208.170E-03    -101.595E-03     67.4824E-03    -106.975E-03     207.848E-03    -101.407E-03     65.3951E-03
            2110     4.88219E-03     21.6068E-03    -63.3610E+06    -180.971E+06    -36.4334E+06     1.76736E+06    -104.708E-03     205.721E-03    -101.013E-03     57.2891E-03    -104.969E-03     205.221E-03    -100.841E-03     55.6357E-03
            2111     4.07054E-03     21.5455E-03    -67.8203E+06    -199.875E+06    -45.1543E+06     2.10991E+06    -103.117E-03     203.632E-03    -100.515E-03     47.3734E-03    -103.268E-03     202.963E-03    -100.352E-03     46.0946E-03
            2112     3.25776E-03     21.4952E-03    -72.4660E+06    -212.206E+06    -53.6344E+06     1.91364E+06    -101.759E-03     201.847E-03    -100.088E-03     37.7829E-03    -101.836E-03     201.069E-03    -99.9431E-03     36.8199E-03
            2113     2.44398E-03     21.4564E-03    -76.8613E+06    -218.840E+06    -63.3854E+06     1.17870E+06    -100.660E-03     200.393E-03    -99.7331E-03     28.3500E-03    -100.689E-03     199.556E-03    -99.6212E-03     27.6563E-03
            2114     1.62973E-03     21.4284E-03    -80.6755E+06    -225.396E+06    -73.7172E+06      647.23E+03    -99.8558E-03     199.329E-03    -99.4733E-03     18.9912E-03    -99.8498E-03     198.450E-03    -99.3980E-03     18.5384E-03
            2115     814.921E-06     21.4113E-03    -83.8601E+06    -230.593E+06    -81.8012E+06     426.857E+03    -99.5334E-03     198.735E-03    -99.2016E-03     10.4511E-03    -99.5071E-03     197.830E-03    -99.1547E-03     10.2130E-03
            2116     15.3038E-03     22.7344E-03    -5.35658E+06     117.728E+06     92.4184E+06     135.649E+03    -129.325E-03     240.587E-03    -111.262E-03     178.441E-03    -139.691E-03     251.084E-03    -110.963E-03     170.480E-03
            2117     14.5120E-03     22.4426E-03    -11.3024E+06     113.998E+06     93.2998E+06    -902.712E+03    -130.900E-03     241.278E-03    -110.377E-03     261.120E-03    -146.695E-03     257.166E-03    -110.060E-03     248.978E-03
            2118     13.7184E-03     22.1393E-03    -16.6831E+06     100.543E+06     88.4002E+06     321.021E+03    -132.058E-03     241.527E-03    -109.469E-03     268.053E-03    -146.197E-03     255.708E-03    -109.149E-03     254.330E-03
            2119     12.9235E-03     21.8361E-03    -22.8280E+06     85.2281E+06     72.3024E+06     1.71936E+06    -130.274E-03     238.764E-03    -108.490E-03     247.432E-03    -141.337E-03     249.838E-03    -108.219E-03     234.360E-03
            2120     12.1271E-03     21.5802E-03    -27.9443E+06     67.8888E+06     44.0216E+06     1.99207E+06    -125.925E-03     233.381E-03    -107.455E-03     202.780E-03    -133.201E-03     240.671E-03    -107.293E-03     192.035E-03
            2121     11.3284E-03     21.3790E-03    -32.0362E+06     53.0816E+06     18.1692E+06     1.94569E+06    -122.114E-03     228.563E-03    -106.449E-03     164.211E-03    -126.803E-03     233.274E-03    -106.389E-03     155.629E-03
            2122     10.5285E-03     21.2094E-03    -35.3993E+06     13.9150E+06     5.50896E+06     2.26753E+06    -119.589E-03     225.148E-03    -105.559E-03     141.562E-03    -122.834E-03     228.300E-03    -105.500E-03     134.529E-03
            2123     9.72775E-03     21.0573E-03    -39.1090E+06    -42.4194E+06    -2.11124E+06     2.42359E+06    -117.560E-03     222.285E-03    -104.726E-03     126.576E-03    -119.876E-03     224.318E-03    -104.618E-03     120.753E-03
            2124     8.92454E-03     20.9202E-03    -42.9252E+06    -82.3433E+06    -6.30841E+06     2.27082E+06    -115.313E-03     219.208E-03    -103.895E-03     112.303E-03    -116.963E-03     220.432E-03    -103.745E-03     107.512E-03
            2125     8.12027E-03     20.7991E-03    -46.8805E+06    -107.160E+06    -10.3216E+06     2.32488E+06    -112.858E-03     215.929E-03    -103.071E-03     98.7871E-03    -114.028E-03     216.583E-03    -102.899E-03     94.8837E-03
            2126     7.31398E-03     20.6918E-03    -51.3884E+06    -130.388E+06    -15.8370E+06     2.77998E+06    -110.461E-03     212.743E-03    -102.283E-03     86.5988E-03    -111.283E-03     212.967E-03    -102.098E-03     83.4422E-03
            2127     6.50612E-03     20.5975E-03    -55.6327E+06    -152.116E+06    -21.0467E+06     2.89509E+06    -108.231E-03     209.776E-03    -101.545E-03     75.3899E-03    -108.801E-03     209.669E-03    -101.349E-03     72.8445E-03
            2128     5.69696E-03     20.5155E-03    -59.8723E+06    -165.070E+06    -28.3865E+06     1.94539E+06    -106.092E-03     206.936E-03    -100.845E-03     64.8567E-03    -106.481E-03     206.610E-03    -100.660E-03     62.8146E-03
            2129     4.88599E-03     20.4451E-03    -64.6016E+06    -181.824E+06    -37.1942E+06     1.97154E+06    -104.095E-03     204.314E-03    -100.219E-03     54.8311E-03    -104.346E-03     203.799E-03    -100.048E-03     53.2244E-03
            2130     4.07373E-03     20.3856E-03    -69.4415E+06    -198.735E+06    -47.7779E+06     2.30496E+06    -102.385E-03     202.058E-03    -99.6722E-03     45.2430E-03    -102.533E-03     201.391E-03    -99.5222E-03     44.0052E-03
            2131     3.26039E-03     20.3376E-03    -73.5424E+06    -210.116E+06    -56.1347E+06     1.17900E+06    -100.975E-03     200.188E-03    -99.2133E-03     35.9010E-03    -101.051E-03     199.420E-03    -99.0826E-03     34.9597E-03
            2132     2.44617E-03     20.3000E-03    -77.1898E+06    -218.141E+06    -64.1936E+06     620.202E+03    -99.8329E-03     198.671E-03    -98.8385E-03     26.8034E-03    -99.8605E-03     197.837E-03    -98.7313E-03     26.1255E-03
            2133     1.63126E-03     20.2732E-03    -80.7329E+06    -224.571E+06    -74.0424E+06     727.603E+03    -99.0375E-03     197.571E-03    -98.5331E-03     17.9920E-03    -99.0310E-03     196.695E-03    -98.4606E-03     17.5549E-03
            2134     815.889E-06     20.2569E-03    -83.5774E+06    -229.412E+06    -81.6321E+06     805.494E+03    -98.5106E-03     196.790E-03    -98.2791E-03     9.92143E-03    -98.4843E-03     195.890E-03    -98.2334E-03     9.69880E-03
            2135     15.3070E-03     21.5299E-03    -3.89012E+06     118.825E+06     93.9008E+06     743.333E+03    -131.179E-03     242.438E-03    -111.259E-03     176.998E-03    -141.408E-03     252.803E-03    -110.956E-03     168.804E-03
            2136     14.5137E-03     21.2429E-03    -9.52201E+06     114.921E+06     94.2379E+06     1.59550E+06    -132.111E-03     242.397E-03    -110.285E-03     259.275E-03    -147.654E-03     258.041E-03    -109.967E-03     247.024E-03
            2137     13.7197E-03     20.9401E-03    -16.9355E+06     99.0304E+06     86.9555E+06     1.34114E+06    -132.594E-03     241.908E-03    -109.314E-03     266.290E-03    -146.497E-03     255.851E-03    -108.999E-03     252.582E-03
            2138     12.9261E-03     20.6406E-03    -23.5643E+06     84.3245E+06     69.5888E+06     1.09392E+06    -130.975E-03     239.248E-03    -108.273E-03     244.795E-03    -141.863E-03     250.150E-03    -108.013E-03     231.714E-03
            2139     12.1300E-03     20.3897E-03    -28.5973E+06     68.0768E+06     41.6182E+06     1.16342E+06    -126.552E-03     233.718E-03    -107.166E-03     199.368E-03    -133.692E-03     240.878E-03    -107.015E-03     188.635E-03
            2140     11.3327E-03     20.1913E-03    -32.1888E+06     52.8890E+06     17.0517E+06     1.90357E+06    -122.465E-03     228.560E-03    -106.095E-03     161.024E-03    -127.048E-03     233.168E-03    -106.040E-03     152.496E-03
            2141     10.5334E-03     20.0261E-03    -35.9815E+06     13.1658E+06     4.35489E+06     2.80912E+06    -119.888E-03     225.029E-03    -105.141E-03     138.723E-03    -123.062E-03     228.110E-03    -105.086E-03     131.746E-03
            2142     9.73171E-03     19.8768E-03    -39.7008E+06    -41.4333E+06    -2.39124E+06     3.30493E+06    -117.769E-03     222.010E-03    -104.241E-03     123.444E-03    -120.027E-03     223.987E-03    -104.135E-03     117.690E-03
            2143     8.92955E-03     19.7435E-03    -43.3445E+06    -81.4244E+06    -6.71403E+06     3.17656E+06    -115.365E-03     218.704E-03    -103.339E-03     108.794E-03    -116.962E-03     219.878E-03    -103.192E-03     104.083E-03
            2144     8.12503E-03     19.6259E-03    -47.5897E+06    -106.861E+06    -10.9594E+06     3.25821E+06    -112.822E-03     215.263E-03    -102.442E-03     95.0151E-03    -113.948E-03     215.873E-03    -102.273E-03     91.1934E-03
            2145     7.31895E-03     19.5222E-03    -51.8441E+06    -130.072E+06    -16.2928E+06     3.43803E+06    -110.282E-03     211.860E-03    -101.578E-03     82.7059E-03    -111.068E-03     212.048E-03    -101.396E-03     79.6243E-03
            2146     6.51105E-03     19.4312E-03    -56.1404E+06    -150.282E+06    -21.8605E+06     2.79583E+06    -107.838E-03     208.603E-03    -100.766E-03     71.5614E-03    -108.380E-03     208.477E-03    -100.576E-03     69.0821E-03
            2147     5.70127E-03     19.3521E-03    -60.8527E+06    -163.594E+06    -29.4357E+06     2.17686E+06    -105.584E-03     205.584E-03    -99.9999E-03     61.1987E-03    -105.956E-03     205.244E-03    -99.8216E-03     59.2215E-03
            2148     4.89031E-03     19.2846E-03    -65.8782E+06    -182.627E+06    -38.2149E+06     2.59530E+06    -103.522E-03     202.832E-03    -99.3099E-03     51.4150E-03    -103.761E-03     202.299E-03    -99.1407E-03     49.8688E-03
            2149     4.07758E-03     19.2280E-03    -70.3073E+06    -196.273E+06    -49.5233E+06     2.23002E+06    -101.665E-03     200.350E-03    -98.6843E-03     42.2037E-03    -101.806E-03     199.687E-03    -98.5454E-03     41.0120E-03
            2150     3.26369E-03     19.1815E-03    -74.0593E+06    -207.848E+06    -59.0468E+06     640.485E+03    -100.107E-03     198.265E-03    -98.1583E-03     33.3198E-03    -100.176E-03     197.505E-03    -98.0448E-03     32.4107E-03
            2151     2.44881E-03     19.1460E-03    -77.8588E+06    -218.580E+06    -66.7036E+06     138.120E+03    -98.8421E-03     196.584E-03    -97.7415E-03     24.8000E-03    -98.8642E-03     195.747E-03    -97.6452E-03     24.1459E-03
            2152     1.63286E-03     19.1202E-03    -81.1384E+06    -224.148E+06    -74.9420E+06     545.959E+03    -97.9409E-03     195.354E-03    -97.4134E-03     16.6773E-03    -97.9338E-03     194.481E-03    -97.3455E-03     16.2581E-03
            2153     816.647E-06     19.1044E-03    -83.0718E+06    -228.112E+06    -81.3917E+06     463.854E+03    -97.3721E-03     194.536E-03    -97.1638E-03     8.85557E-03    -97.3450E-03     193.641E-03    -97.1195E-03     8.63551E-03
            2154     15.2998E-03     20.3154E-03    -4.76638E+06     117.067E+06     92.2091E+06    -325.643E+03    -131.821E-03     243.142E-03    -111.321E-03     174.546E-03    -141.808E-03     253.260E-03    -111.023E-03     166.173E-03
            2155     14.5141E-03     20.0393E-03    -9.34675E+06     114.394E+06     94.1097E+06     2.16401E+06    -133.956E-03     244.232E-03    -110.276E-03     255.315E-03    -149.128E-03     259.504E-03    -109.958E-03     242.880E-03
            2156     13.7223E-03     19.7423E-03    -15.0408E+06     99.9267E+06     88.2388E+06     3.36811E+06    -133.881E-03     243.086E-03    -109.205E-03     263.408E-03    -147.530E-03     256.781E-03    -108.887E-03     249.662E-03
            2157     12.9276E-03     19.4436E-03    -21.1761E+06     85.4346E+06     69.9720E+06     2.58389E+06    -131.544E-03     239.625E-03    -108.082E-03     241.507E-03    -142.200E-03     250.307E-03    -107.825E-03     228.484E-03
            2158     12.1339E-03     19.1971E-03    -27.1972E+06     68.8404E+06     39.6125E+06     2.22940E+06    -127.175E-03     234.072E-03    -106.897E-03     195.785E-03    -134.139E-03     241.069E-03    -106.760E-03     185.108E-03
            2159     11.3364E-03     19.0048E-03    -32.6394E+06     51.8459E+06     14.7916E+06     2.76280E+06    -123.241E-03     228.988E-03    -105.747E-03     157.619E-03    -127.715E-03     233.488E-03    -105.701E-03     149.125E-03
            2160     10.5368E-03     18.8416E-03    -36.4227E+06     12.8143E+06     3.58127E+06     3.45927E+06    -120.599E-03     225.300E-03    -104.701E-03     134.814E-03    -123.679E-03     228.286E-03    -104.649E-03     127.889E-03
            2161     9.73735E-03     18.6967E-03    -39.4293E+06    -40.6296E+06    -2.81676E+06     3.80078E+06    -118.291E-03     221.984E-03    -103.693E-03     118.720E-03    -120.465E-03     223.883E-03    -103.591E-03     113.027E-03
            2162     8.93473E-03     18.5670E-03    -43.0960E+06    -80.5076E+06    -7.07064E+06     4.14114E+06    -115.704E-03     218.384E-03    -102.680E-03     103.608E-03    -117.224E-03     219.486E-03    -102.536E-03     98.9861E-03
            2163     8.13095E-03     18.4532E-03    -46.8218E+06    -106.111E+06    -11.3751E+06     4.15347E+06    -112.991E-03     214.658E-03    -101.667E-03     89.4515E-03    -114.047E-03     215.204E-03    -101.502E-03     85.7265E-03
            2164     7.32508E-03     18.3533E-03    -50.6560E+06    -129.138E+06    -16.5895E+06     3.85673E+06    -110.243E-03     210.928E-03    -100.685E-03     76.9983E-03    -110.971E-03     211.066E-03    -100.507E-03     74.0066E-03
            2165     6.51719E-03     18.2662E-03    -54.9420E+06    -148.211E+06    -21.5944E+06     3.48621E+06    -107.523E-03     207.282E-03    -99.7588E-03     65.9377E-03    -108.020E-03     207.120E-03    -99.5722E-03     63.5542E-03
            2166     5.70745E-03     18.1904E-03    -59.6444E+06    -162.754E+06    -28.9238E+06     3.09511E+06    -104.985E-03     203.878E-03    -98.8925E-03     55.8357E-03    -105.319E-03     203.506E-03    -98.7147E-03     53.9541E-03
            2167     4.89566E-03     18.1260E-03    -64.2944E+06    -181.990E+06    -37.7571E+06     2.83682E+06    -102.762E-03     200.869E-03    -98.1066E-03     46.4839E-03    -102.970E-03     200.312E-03    -97.9383E-03     45.0155E-03
            2168     4.08273E-03     18.0720E-03    -68.5409E+06    -193.843E+06    -48.4221E+06     2.27045E+06    -100.728E-03     198.116E-03    -97.3889E-03     37.9291E-03    -100.848E-03     197.446E-03    -97.2505E-03     36.8017E-03
            2169     3.26807E-03     18.0283E-03    -72.9573E+06    -205.921E+06    -58.5700E+06     1.55876E+06    -98.9301E-03     195.714E-03    -96.7843E-03     29.8443E-03    -98.9876E-03     194.952E-03    -96.6727E-03     28.9999E-03
            2170     2.45206E-03     17.9944E-03    -77.4451E+06    -218.134E+06    -68.2177E+06     924.742E+03    -97.5620E-03     193.859E-03    -96.2968E-03     22.0964E-03    -97.5748E-03     193.020E-03    -96.2093E-03     21.4926E-03
            2171     1.63546E-03     17.9702E-03    -80.7898E+06    -223.811E+06    -76.5187E+06     653.501E+03    -96.5327E-03     192.445E-03    -95.9122E-03     14.7253E-03    -96.5192E-03     191.572E-03    -95.8531E-03     14.3358E-03
            2172     817.829E-06     17.9552E-03    -82.7954E+06    -227.146E+06    -81.7747E+06     241.241E+03    -95.7732E-03     191.492E-03    -95.7183E-03     7.68681E-03    -95.7447E-03     190.600E-03    -95.6778E-03     7.47612E-03
            2173     15.3048E-03     19.1082E-03    -5.31966E+06     115.525E+06     90.6789E+06     15.8964E+03    -132.775E-03     244.124E-03    -111.349E-03     171.745E-03    -142.409E-03     253.887E-03    -111.056E-03     163.285E-03
            2174     14.5120E-03     18.8313E-03    -11.6909E+06     111.568E+06     91.0904E+06     178.586E+03    -134.592E-03     244.841E-03    -110.248E-03     250.066E-03    -149.302E-03     259.641E-03    -109.938E-03     237.556E-03
            2175     13.7228E-03     18.5400E-03    -16.5743E+06     99.1901E+06     87.2670E+06     1.56444E+06    -134.976E-03     244.086E-03    -109.110E-03     259.211E-03    -148.351E-03     257.501E-03    -108.793E-03     245.376E-03
            2176     12.9317E-03     18.2479E-03    -21.7752E+06     85.4677E+06     70.9957E+06     3.19613E+06    -132.546E-03     240.451E-03    -107.905E-03     238.198E-03    -142.969E-03     250.895E-03    -107.642E-03     225.183E-03
            2177     12.1353E-03     18.0041E-03    -26.8085E+06     68.5288E+06     41.0169E+06     3.98008E+06    -128.338E-03     234.958E-03    -106.620E-03     190.967E-03    -135.091E-03     241.740E-03    -106.476E-03     180.317E-03
            2178     11.3400E-03     17.8156E-03    -31.0896E+06     51.9732E+06     15.5518E+06     4.05601E+06    -124.609E-03     229.938E-03    -105.330E-03     151.355E-03    -128.911E-03     234.270E-03    -105.282E-03     142.873E-03
            2179     10.5435E-03     17.6572E-03    -34.8106E+06     13.3232E+06     3.95443E+06     4.42577E+06    -121.753E-03     225.876E-03    -104.124E-03     128.465E-03    -124.688E-03     228.724E-03    -104.073E-03     121.592E-03
            2180     9.74338E-03     17.5160E-03    -38.6591E+06    -39.8817E+06    -3.63254E+06     4.77798E+06    -119.297E-03     222.241E-03    -102.944E-03     111.816E-03    -121.345E-03     224.021E-03    -102.849E-03     106.207E-03
            2181     8.94281E-03     17.3908E-03    -42.1807E+06    -79.4373E+06    -7.66481E+06     4.89398E+06    -116.485E-03     218.236E-03    -101.751E-03     95.7952E-03    -117.891E-03     219.233E-03    -101.613E-03     91.2788E-03
            2182     8.13947E-03     17.2812E-03    -45.5568E+06    -104.679E+06    -11.3794E+06     4.64608E+06    -113.299E-03     213.858E-03    -100.559E-03     81.3051E-03    -114.257E-03     214.316E-03    -100.398E-03     77.7059E-03
            2183     7.33400E-03     17.1858E-03    -49.3374E+06    -127.912E+06    -16.4988E+06     4.38547E+06    -110.156E-03     209.563E-03    -99.4064E-03     68.8763E-03    -110.803E-03     209.628E-03    -99.2319E-03     66.0188E-03
            2184     6.52633E-03     17.1027E-03    -53.5886E+06    -146.577E+06    -21.1422E+06     4.28744E+06    -107.092E-03     205.411E-03    -98.3198E-03     58.1416E-03    -107.526E-03     205.197E-03    -98.1352E-03     55.8911E-03
            2185     5.71619E-03     17.0312E-03    -58.0082E+06    -161.221E+06    -28.3019E+06     3.81312E+06    -104.184E-03     201.488E-03    -97.3039E-03     48.6690E-03    -104.470E-03     201.078E-03    -97.1276E-03     46.9112E-03
            2186     4.90419E-03     16.9700E-03    -62.7279E+06    -180.714E+06    -36.8662E+06     3.47863E+06    -101.554E-03     197.948E-03    -96.3932E-03     40.0870E-03    -101.727E-03     197.363E-03    -96.2246E-03     38.7306E-03
            2187     4.08990E-03     16.9193E-03    -67.9223E+06    -192.002E+06    -47.9946E+06     3.28045E+06    -99.2324E-03     194.807E-03    -95.5744E-03     32.3557E-03    -99.3323E-03     194.123E-03    -95.4375E-03     31.3290E-03
            2188     3.27407E-03     16.8782E-03    -72.7898E+06    -204.142E+06    -58.0252E+06     2.90061E+06    -97.2749E-03     192.162E-03    -94.8868E-03     25.2960E-03    -97.3223E-03     191.394E-03    -94.7753E-03     24.5393E-03
            2189     2.45697E-03     16.8466E-03    -77.0422E+06    -216.308E+06    -68.0280E+06     2.44413E+06    -95.7263E-03     190.053E-03    -94.3271E-03     18.7144E-03    -95.7330E-03     189.216E-03    -94.2419E-03     18.1831E-03
            2190     1.63859E-03     16.8237E-03    -80.4513E+06    -222.523E+06    -77.2001E+06     1.73959E+06    -94.5829E-03     188.470E-03    -93.8869E-03     12.3933E-03    -94.5656E-03     187.600E-03    -93.8336E-03     12.0524E-03
            2191     819.657E-06     16.8104E-03    -82.2728E+06    -225.497E+06    -81.9704E+06     589.627E+03    -93.7357E-03     187.397E-03    -93.6610E-03     6.33668E-03    -93.7058E-03     186.512E-03    -93.6246E-03     6.14889E-03
            2192     15.3010E-03     17.8965E-03    -4.59794E+06     115.983E+06     91.4547E+06     1.53475E+06    -135.172E-03     246.562E-03    -111.390E-03     169.917E-03    -144.597E-03     256.118E-03    -111.094E-03     161.181E-03
            2193     14.5160E-03     17.6257E-03    -10.7072E+06     112.195E+06     91.6733E+06     1.56407E+06    -135.562E-03     245.752E-03    -110.190E-03     245.684E-03    -149.841E-03     260.126E-03    -109.878E-03     233.080E-03
            2194     13.7245E-03     17.3377E-03    -17.7820E+06     97.3552E+06     85.1103E+06     747.109E+03    -135.762E-03     244.736E-03    -108.974E-03     254.816E-03    -148.750E-03     257.760E-03    -108.664E-03     240.932E-03
            2195     12.9315E-03     17.0487E-03    -23.1366E+06     83.6888E+06     70.1474E+06     1.57677E+06    -134.641E-03     242.294E-03    -107.653E-03     232.218E-03    -144.761E-03     252.425E-03    -107.390E-03     219.030E-03
            2196     12.1418E-03     16.8096E-03    -27.3122E+06     67.6979E+06     42.7277E+06     3.10161E+06    -130.538E-03     236.722E-03    -106.184E-03     183.391E-03    -137.012E-03     243.217E-03    -106.029E-03     172.665E-03
            2197     11.3481E-03     16.6253E-03    -30.8172E+06     51.1767E+06     15.9712E+06     4.63657E+06    -126.472E-03     231.146E-03    -104.674E-03     143.048E-03    -130.532E-03     235.233E-03    -104.624E-03     134.599E-03
            2198     10.5512E-03     16.4723E-03    -34.5043E+06     13.4332E+06     3.02032E+06     5.73808E+06    -123.627E-03     226.856E-03    -103.229E-03     119.279E-03    -126.366E-03     229.513E-03    -103.184E-03     112.470E-03
            2199     9.75441E-03     16.3347E-03    -37.7176E+06    -37.7517E+06    -3.73906E+06     5.83297E+06    -120.839E-03     222.632E-03    -101.793E-03     101.513E-03    -122.706E-03     224.243E-03    -101.702E-03     96.0301E-03
            2200     8.95473E-03     16.2145E-03    -40.7970E+06    -77.9591E+06    -8.09266E+06     5.52396E+06    -117.426E-03     217.763E-03    -100.337E-03     84.7605E-03    -118.675E-03     218.615E-03    -100.206E-03     80.4017E-03
            2201     8.15271E-03     16.1106E-03    -44.2699E+06    -103.069E+06    -11.1791E+06     5.26221E+06    -113.589E-03     212.489E-03    -98.9003E-03     70.2823E-03    -114.422E-03     212.832E-03    -98.7426E-03     66.8627E-03
            2202     7.34760E-03     16.0200E-03    -48.0186E+06    -126.637E+06    -16.6309E+06     5.14953E+06    -109.769E-03     207.294E-03    -97.5245E-03     58.3564E-03    -110.316E-03     207.269E-03    -97.3544E-03     55.6890E-03
            2203     6.53960E-03     15.9422E-03    -52.1294E+06    -145.178E+06    -21.8950E+06     5.10323E+06    -106.178E-03     202.418E-03    -96.2393E-03     48.3866E-03    -106.537E-03     202.140E-03    -96.0627E-03     46.3134E-03
            2204     5.72905E-03     15.8749E-03    -56.9569E+06    -159.253E+06    -28.3512E+06     4.97820E+06    -102.805E-03     197.861E-03    -95.0562E-03     39.9075E-03    -103.039E-03     197.410E-03    -94.8845E-03     38.3126E-03
            2205     4.91566E-03     15.8183E-03    -62.4786E+06    -179.551E+06    -36.7073E+06     4.98743E+06    -99.7374E-03     193.745E-03    -94.0072E-03     32.4686E-03    -99.8772E-03     193.132E-03    -93.8398E-03     31.2585E-03
            2206     4.10014E-03     15.7710E-03    -67.4798E+06    -189.969E+06    -47.7748E+06     4.73394E+06    -97.0781E-03     190.156E-03    -93.0775E-03     25.9440E-03    -97.1572E-03     189.459E-03    -92.9431E-03     25.0421E-03
            2207     3.28263E-03     15.7331E-03    -72.0923E+06    -201.953E+06    -57.7868E+06     4.19208E+06    -94.9049E-03     187.211E-03    -92.3058E-03     20.1230E-03    -94.9391E-03     186.439E-03    -92.1974E-03     19.4665E-03
            2208     2.46336E-03     15.7037E-03    -76.4821E+06    -214.105E+06    -67.1945E+06     3.71056E+06    -93.1710E-03     184.862E-03    -91.6911E-03     14.8011E-03    -93.1723E-03     184.026E-03    -91.6057E-03     14.3477E-03
            2209     1.64297E-03     15.6829E-03    -79.6256E+06    -219.319E+06    -75.2851E+06     2.66292E+06    -91.8823E-03     183.121E-03    -91.2382E-03     9.73810E-03    -91.8653E-03     182.260E-03    -91.1812E-03     9.44893E-03
            2210     821.648E-06     15.6703E-03    -81.7109E+06    -222.527E+06    -80.4082E+06     1.19389E+06    -91.1927E-03     182.095E-03    -90.9022E-03     4.95530E-03    -91.1657E-03     181.221E-03    -90.8631E-03     4.79741E-03
            2211     15.3015E-03     16.6756E-03    -6.16983E+06     113.770E+06     89.5150E+06     1.75527E+06    -136.885E-03     248.323E-03    -111.438E-03     165.220E-03    -145.919E-03     257.479E-03    -111.146E-03     156.344E-03
            2212     14.5153E-03     16.4192E-03    -10.3463E+06     112.019E+06     91.6576E+06     1.82279E+06    -137.382E-03     247.517E-03    -110.135E-03     240.496E-03    -151.154E-03     261.385E-03    -109.824E-03     227.688E-03
            2213     13.7261E-03     16.1346E-03    -14.5727E+06     99.3320E+06     87.3312E+06     2.18415E+06    -138.984E-03     247.742E-03    -108.759E-03     250.519E-03    -151.605E-03     260.412E-03    -108.445E-03     236.290E-03
            2214     12.9399E-03     15.8467E-03    -21.4804E+06     83.1563E+06     70.1757E+06     2.03218E+06    -138.142E-03     245.326E-03    -107.184E-03     224.335E-03    -147.849E-03     255.049E-03    -106.922E-03     210.871E-03
            2215     12.1496E-03     15.6125E-03    -27.4743E+06     65.7108E+06     40.8000E+06     2.58827E+06    -133.569E-03     238.990E-03    -105.421E-03     172.885E-03    -139.648E-03     245.088E-03    -105.272E-03     162.076E-03
            2216     11.3580E-03     15.4344E-03    -32.0830E+06     48.6061E+06     13.9131E+06     4.83871E+06    -129.354E-03     232.955E-03    -103.601E-03     131.589E-03    -133.093E-03     236.713E-03    -103.555E-03     123.171E-03
            2217     10.5664E-03     15.2846E-03    -35.0782E+06     14.8928E+06     1.97964E+06     6.32453E+06    -126.205E-03     228.020E-03    -101.815E-03     106.597E-03    -128.686E-03     230.424E-03    -101.775E-03     99.8843E-03
            2218     9.77134E-03     15.1537E-03    -37.9419E+06    -35.1101E+06    -4.91533E+06     6.17725E+06    -122.569E-03     222.596E-03    -100.027E-03     88.1153E-03    -124.221E-03     224.004E-03    -99.9461E-03     82.7987E-03
            2219     8.97345E-03     15.0392E-03    -40.5978E+06    -76.3817E+06    -10.0211E+06     5.58252E+06    -118.178E-03     216.422E-03    -98.2442E-03     71.1962E-03    -119.248E-03     217.107E-03    -98.1247E-03     67.0525E-03
            2220     8.17213E-03     14.9418E-03    -43.0992E+06    -101.728E+06    -12.8102E+06     5.49046E+06    -113.485E-03     210.001E-03    -96.5163E-03     57.0769E-03    -114.176E-03     210.216E-03    -96.3704E-03     53.8832E-03
            2221     7.36699E-03     14.8580E-03    -46.4491E+06    -125.943E+06    -17.1632E+06     6.18052E+06    -108.879E-03     203.770E-03    -94.8904E-03     46.1054E-03    -109.320E-03     203.649E-03    -94.7262E-03     43.6660E-03
            2222     6.55838E-03     14.7855E-03    -50.7751E+06    -143.375E+06    -22.8342E+06     6.59153E+06    -104.545E-03     197.932E-03    -93.3875E-03     37.2377E-03    -104.827E-03     197.592E-03    -93.2202E-03     35.3829E-03
            2223     5.74626E-03     14.7240E-03    -55.6223E+06    -158.018E+06    -28.5479E+06     6.74004E+06    -100.594E-03     192.632E-03    -92.0382E-03     30.0101E-03    -100.774E-03     192.137E-03    -91.8711E-03     28.6100E-03
            2224     4.93131E-03     14.6720E-03    -60.8886E+06    -177.423E+06    -35.2417E+06     6.99223E+06    -97.1120E-03     187.974E-03    -90.8619E-03     23.9948E-03    -97.2164E-03     187.334E-03    -90.6926E-03     22.9528E-03
            2225     4.11354E-03     14.6291E-03    -66.5786E+06    -187.041E+06    -46.2818E+06     6.27372E+06    -94.1272E-03     183.958E-03    -89.8308E-03     19.0094E-03    -94.1877E-03     183.252E-03    -89.6945E-03     18.2420E-03
            2226     3.29344E-03     14.5943E-03    -71.5319E+06    -199.273E+06    -56.5154E+06     5.34790E+06    -91.7228E-03     180.712E-03    -88.9888E-03     14.6565E-03    -91.7477E-03     179.938E-03    -88.8787E-03     14.1038E-03
            2227     2.47178E-03     14.5678E-03    -75.2514E+06    -210.699E+06    -65.3662E+06     4.26302E+06    -89.8660E-03     178.196E-03    -88.3296E-03     10.6710E-03    -89.8623E-03     177.365E-03    -88.2418E-03     10.2886E-03
            2228     1.64859E-03     14.5488E-03    -78.1540E+06    -215.477E+06    -72.9939E+06     2.74702E+06    -88.4846E-03     176.343E-03    -87.8581E-03     6.95217E-03    -88.4663E-03     175.493E-03    -87.7973E-03     6.70610E-03
            2229     824.399E-06     14.5376E-03    -80.4198E+06    -218.783E+06    -78.4692E+06     1.48869E+06    -87.7473E-03     175.317E-03    -87.5692E-03     3.63474E-03    -87.7214E-03     174.455E-03    -87.5277E-03     3.50673E-03
            2230     15.3019E-03     15.4636E-03    -4.14637E+06     113.931E+06     90.2303E+06     1.97740E+06    -139.140E-03     250.616E-03    -111.477E-03     161.042E-03    -147.781E-03     259.387E-03    -111.185E-03     151.889E-03
            2231     14.5147E-03     15.2072E-03    -8.63528E+06     112.268E+06     92.1675E+06     1.53173E+06    -140.880E-03     250.883E-03    -110.004E-03     234.176E-03    -154.148E-03     264.252E-03    -109.693E-03     220.834E-03
            2232     13.7318E-03     14.9255E-03    -15.1184E+06     98.2667E+06     86.1899E+06     2.10876E+06    -143.950E-03     252.291E-03    -108.341E-03     243.097E-03    -156.110E-03     264.496E-03    -108.030E-03     228.248E-03
            2233     12.9474E-03     14.6396E-03    -20.4096E+06     82.8709E+06     70.8999E+06     3.18294E+06    -143.027E-03     249.429E-03    -106.402E-03     214.331E-03    -152.204E-03     258.623E-03    -106.138E-03     200.517E-03
            2234     12.1644E-03     14.4139E-03    -26.1640E+06     63.8710E+06     40.7787E+06     4.57932E+06    -138.210E-03     242.430E-03    -104.220E-03     159.540E-03    -143.810E-03     248.048E-03    -104.071E-03     148.599E-03
            2235     11.3783E-03     14.2400E-03    -30.9157E+06     47.3630E+06     14.0934E+06     5.94857E+06    -133.210E-03     235.170E-03    -101.960E-03     117.287E-03    -136.573E-03     238.553E-03    -101.913E-03     108.911E-03
            2236     10.5880E-03     14.0971E-03    -34.4689E+06     16.6073E+06     1.20179E+06     6.77860E+06    -128.842E-03     228.581E-03    -99.7385E-03     91.9652E-03    -131.027E-03     230.700E-03    -99.7066E-03     85.4179E-03
            2237     9.79563E-03     13.9726E-03    -37.1885E+06    -31.7262E+06    -6.14617E+06     6.47530E+06    -124.127E-03     221.674E-03    -97.5473E-03     72.8705E-03    -125.551E-03     222.873E-03    -97.4781E-03     67.7664E-03
            2238     8.99931E-03     13.8664E-03    -39.8590E+06    -73.6467E+06    -11.4867E+06     5.64005E+06    -118.521E-03     213.922E-03    -95.4014E-03     56.1183E-03    -119.413E-03     214.447E-03    -95.2942E-03     52.2259E-03
            2239     8.19800E-03     13.7770E-03    -42.9319E+06    -101.224E+06    -15.1693E+06     5.66829E+06    -112.765E-03     206.125E-03    -93.3604E-03     42.9212E-03    -113.324E-03     206.218E-03    -93.2272E-03     39.9814E-03
            2240     7.39252E-03     13.7003E-03    -46.2042E+06    -125.806E+06    -17.8824E+06     7.04807E+06    -107.307E-03     198.784E-03    -91.4769E-03     33.0551E-03    -107.655E-03     198.574E-03    -91.3169E-03     30.8551E-03
            2241     6.58249E-03     13.6354E-03    -49.7419E+06    -141.282E+06    -22.3572E+06     7.62757E+06    -102.146E-03     191.905E-03    -89.7586E-03     25.5896E-03    -102.363E-03     191.509E-03    -89.5935E-03     23.9544E-03
            2242     5.76849E-03     13.5797E-03    -53.5764E+06    -157.165E+06    -28.1941E+06     8.00993E+06    -97.5320E-03     185.779E-03    -88.2471E-03     19.9072E-03    -97.6602E-03     185.240E-03    -88.0825E-03     18.7001E-03
            2243     4.95078E-03     13.5335E-03    -57.9954E+06    -174.960E+06    -33.8974E+06     8.67602E+06    -93.6058E-03     180.566E-03    -86.9599E-03     15.5346E-03    -93.6733E-03     179.904E-03    -86.7916E-03     14.6589E-03
            2244     4.13010E-03     13.4949E-03    -62.9360E+06    -183.178E+06    -41.6701E+06     8.09522E+06    -90.3538E-03     176.220E-03    -85.8664E-03     12.1361E-03    -90.3912E-03     175.504E-03    -85.7178E-03     11.5058E-03
            2245     3.30705E-03     13.4640E-03    -68.3488E+06    -195.338E+06    -51.6884E+06     6.77338E+06    -87.7568E-03     172.738E-03    -84.9807E-03     9.31450E-03    -87.7685E-03     171.962E-03    -84.8568E-03     8.86692E-03
            2246     2.48183E-03     13.4400E-03    -73.0992E+06    -205.948E+06    -63.2472E+06     4.86251E+06    -85.8010E-03     170.093E-03    -84.2920E-03     6.81144E-03    -85.7913E-03     169.275E-03    -84.2037E-03     6.49972E-03
            2247     1.65535E-03     13.4234E-03    -76.4898E+06    -211.633E+06    -72.0464E+06     2.85899E+06    -84.4601E-03     168.265E-03    -83.8053E-03     4.44753E-03    -84.4383E-03     167.428E-03    -83.7478E-03     4.24332E-03
            2248     827.979E-06     13.4130E-03    -78.4090E+06    -214.968E+06    -77.2444E+06     1.68195E+06    -83.6825E-03     167.193E-03    -83.5104E-03     2.44010E-03    -83.6533E-03     166.345E-03    -83.4712E-03     2.33703E-03
            2249     15.2982E-03     14.2416E-03    -3.59238E+06     113.391E+06     90.0052E+06     1.29844E+06    -143.895E-03     255.368E-03    -111.472E-03     155.525E-03    -152.235E-03     263.836E-03    -111.182E-03     145.626E-03
            2250     14.5214E-03     13.9915E-03    -9.74407E+06     109.687E+06     89.8835E+06     1.35178E+06    -146.813E-03     256.495E-03    -109.683E-03     227.066E-03    -159.540E-03     269.317E-03    -109.378E-03     212.792E-03
            2251     13.7412E-03     13.7111E-03    -15.1826E+06     96.8985E+06     84.7861E+06     2.48781E+06    -150.139E-03     257.764E-03    -107.625E-03     235.328E-03    -161.742E-03     269.412E-03    -107.320E-03     219.726E-03
            2252     12.9642E-03     13.4298E-03    -20.8938E+06     80.7115E+06     70.0423E+06     3.46031E+06    -149.626E-03     254.839E-03    -105.212E-03     202.301E-03    -158.215E-03     263.438E-03    -104.949E-03     187.979E-03
            2253     12.1851E-03     13.2076E-03    -25.8938E+06     62.4361E+06     43.2620E+06     5.27151E+06    -143.833E-03     246.344E-03    -102.511E-03     144.273E-03    -148.914E-03     251.431E-03    -102.348E-03     133.191E-03
            2254     11.4034E-03     13.0445E-03    -29.5820E+06     46.8017E+06     16.6914E+06     7.16803E+06    -137.354E-03     237.082E-03    -99.7280E-03     101.859E-03    -140.346E-03     240.090E-03    -99.6695E-03     93.5478E-03
            2255     10.6177E-03     12.9090E-03    -32.8441E+06     19.0122E+06     1.21065E+06     7.70361E+06    -131.508E-03     228.517E-03    -97.0098E-03     76.5709E-03    -133.415E-03     230.375E-03    -96.9837E-03     70.2016E-03
            2256     9.82739E-03     12.7931E-03    -35.9262E+06    -27.9093E+06    -6.72344E+06     7.36173E+06    -125.179E-03     219.568E-03    -94.3891E-03     57.0842E-03    -126.390E-03     220.574E-03    -94.3301E-03     52.2326E-03
            2257     9.03151E-03     12.6973E-03    -39.4939E+06    -70.4418E+06    -11.8818E+06     7.10100E+06    -118.211E-03     210.097E-03    -91.8852E-03     41.0196E-03    -118.952E-03     210.483E-03    -91.7852E-03     37.4068E-03
            2258     8.23030E-03     12.6170E-03    -43.9377E+06    -100.173E+06    -16.1676E+06     7.34490E+06    -111.324E-03     200.871E-03    -89.5470E-03     29.3337E-03    -111.782E-03     200.866E-03    -89.4188E-03     26.6654E-03
            2259     7.42332E-03     12.5496E-03    -48.1330E+06    -124.587E+06    -20.1402E+06     7.50874E+06    -104.914E-03     192.332E-03    -87.4178E-03     21.0776E-03    -105.197E-03     192.061E-03    -87.2681E-03     19.1071E-03
            2260     6.61139E-03     12.4925E-03    -51.5003E+06    -139.726E+06    -23.9330E+06     7.52310E+06    -99.0484E-03     184.562E-03    -85.5140E-03     15.2211E-03    -99.2257E-03     184.130E-03    -85.3564E-03     13.7739E-03
            2261     5.79449E-03     12.4445E-03    -54.9974E+06    -156.439E+06    -29.9532E+06     8.41172E+06    -93.8479E-03     177.709E-03    -83.8608E-03     11.1006E-03    -93.9499E-03     177.146E-03    -83.7040E-03     10.0576E-03
            2262     4.97357E-03     12.4039E-03    -58.6183E+06    -172.315E+06    -36.3541E+06     8.87899E+06    -89.4794E-03     171.950E-03    -82.4706E-03     8.24711E-03    -89.5299E-03     171.285E-03    -82.3175E-03     7.50392E-03
            2263     4.14931E-03     12.3704E-03    -62.1128E+06    -179.966E+06    -41.9522E+06     8.62910E+06    -85.9396E-03     167.270E-03    -81.3306E-03     6.26952E-03    -85.9647E-03     166.556E-03    -81.1893E-03     5.74737E-03
            2264     3.32229E-03     12.3432E-03    -65.9773E+06    -190.408E+06    -49.9539E+06     7.92283E+06    -83.1953E-03     163.625E-03    -80.4297E-03     4.78857E-03    -83.1979E-03     162.861E-03    -80.3077E-03     4.43197E-03
            2265     2.49335E-03     12.3224E-03    -70.1821E+06    -200.565E+06    -61.2063E+06     6.14364E+06    -81.2070E-03     160.950E-03    -79.7429E-03     3.54545E-03    -81.1898E-03     160.147E-03    -79.6564E-03     3.30518E-03
            2266     1.66290E-03     12.3072E-03    -73.7917E+06    -206.645E+06    -70.2796E+06     4.15011E+06    -79.9108E-03     159.171E-03    -79.2607E-03     2.32177E-03    -79.8837E-03     158.351E-03    -79.2054E-03     2.17083E-03
            2267     831.624E-06     12.2985E-03    -76.6947E+06    -210.380E+06    -75.4491E+06     2.49106E+06    -79.2804E-03     158.104E-03    -78.8238E-03     1.25143E-03    -79.2515E-03     157.274E-03    -78.7847E-03     1.17716E-03
            2268     15.3025E-03     13.0105E-03    -4.23897E+06     111.969E+06     89.6059E+06     941.887E+03    -149.939E-03     261.290E-03    -111.351E-03     150.092E-03    -157.829E-03     269.303E-03    -111.059E-03     139.477E-03
            2269     14.5272E-03     12.7694E-03    -8.63570E+06     108.872E+06     89.8751E+06     2.75487E+06    -153.994E-03     263.179E-03    -109.185E-03     220.899E-03    -166.125E-03     275.405E-03    -108.881E-03     205.600E-03
            2270     13.7543E-03     12.4902E-03    -14.1061E+06     96.5360E+06     84.9786E+06     3.03786E+06    -159.398E-03     266.007E-03    -106.609E-03     227.874E-03    -170.502E-03     277.158E-03    -106.304E-03     211.122E-03
            2271     12.9843E-03     12.2092E-03    -20.3738E+06     79.4886E+06     70.4637E+06     4.29145E+06    -157.670E-03     261.237E-03    -103.567E-03     187.347E-03    -165.602E-03     269.178E-03    -103.300E-03     172.458E-03
            2272     12.2138E-03     11.9998E-03    -25.3847E+06     60.9176E+06     43.9270E+06     5.43174E+06    -149.154E-03     249.419E-03    -100.265E-03     127.079E-03    -153.692E-03     253.960E-03    -100.097E-03     115.953E-03
            2273     11.4360E-03     11.8458E-03    -29.0086E+06     45.5154E+06     17.1020E+06     7.10510E+06    -141.075E-03     238.028E-03    -96.9529E-03     85.6567E-03    -143.718E-03     240.684E-03    -96.8914E-03     77.4388E-03
            2274     10.6533E-03     11.7209E-03    -32.2513E+06     21.0098E+06     673.574E+03     8.85271E+06    -133.504E-03     227.262E-03    -93.7580E-03     61.2366E-03    -135.175E-03     228.894E-03    -93.7383E-03     55.0649E-03
            2275     9.86419E-03     11.6170E-03    -36.1427E+06    -23.8888E+06    -7.91759E+06     9.48462E+06    -125.287E-03     216.035E-03    -90.7484E-03     42.7777E-03    -126.329E-03     216.890E-03    -90.7009E-03     38.2156E-03
            2276     9.06857E-03     11.5326E-03    -40.3408E+06    -67.6377E+06    -13.1465E+06     9.47375E+06    -116.949E-03     204.900E-03    -87.9509E-03     28.4075E-03    -117.580E-03     205.188E-03    -87.8600E-03     25.0823E-03
            2277     8.26576E-03     11.4639E-03    -44.1845E+06    -97.8692E+06    -16.8622E+06     9.38973E+06    -109.084E-03     194.471E-03    -85.3869E-03     18.6762E-03    -109.472E-03     194.404E-03    -85.2652E-03     16.2598E-03
            2278     7.45671E-03     11.4064E-03    -48.0407E+06    -121.184E+06     -21.535E+06     8.55606E+06    -101.917E-03     184.994E-03    -83.0766E-03     12.1430E-03    -102.156E-03     184.694E-03    -82.9390E-03     10.3782E-03
            2279     6.64174E-03     11.3586E-03    -52.0509E+06    -138.593E+06    -26.0221E+06     8.06076E+06    -95.5108E-03     176.550E-03    -81.0397E-03     7.71464E-03    -95.6595E-03     176.098E-03    -80.8933E-03     6.43009E-03
            2280     5.82192E-03     11.3184E-03    -55.9423E+06    -155.224E+06    -31.6601E+06     8.48433E+06    -89.9433E-03     169.227E-03    -79.2834E-03     4.97146E-03    -90.0309E-03     168.656E-03    -79.1356E-03     4.05280E-03
            2281     4.99760E-03     11.2846E-03    -59.3036E+06    -169.422E+06    -38.7849E+06     8.38358E+06    -85.2536E-03     163.058E-03    -77.8046E-03     3.38126E-03    -85.2971E-03     162.401E-03    -77.6669E-03     2.72949E-03
            2282     4.16952E-03     11.2562E-03    -62.2099E+06    -177.348E+06    -45.5930E+06     8.02217E+06    -81.4442E-03     158.047E-03    -76.6026E-03     2.38848E-03    -81.4617E-03     157.345E-03    -76.4832E-03     1.93365E-03
            2283     3.33858E-03     11.2332E-03    -64.9130E+06    -186.301E+06    -51.8757E+06     7.69512E+06    -78.5557E-03     154.229E-03    -75.6737E-03     1.77046E-03    -78.5523E-03     153.483E-03    -75.5689E-03     1.46657E-03
            2284     2.50555E-03     11.2150E-03    -67.7331E+06    -195.527E+06    -58.8235E+06     7.14636E+06    -76.4967E-03     151.481E-03    -74.9847E-03     1.31641E-03    -76.4761E-03     150.695E-03    -74.8971E-03     1.12857E-03
            2285     1.67111E-03     11.2021E-03    -70.7975E+06    -200.415E+06    -66.5945E+06     5.75959E+06    -75.1418E-03     149.640E-03    -74.4984E-03     926.444E-06    -75.1133E-03     148.840E-03    -74.4381E-03     823.553E-06
            2286     835.908E-06     11.1937E-03    -73.2426E+06    -203.619E+06    -71.7932E+06     3.06392E+06    -74.5065E-03     148.576E-03    -74.0690E-03     509.423E-06    -74.4752E-03     147.768E-03    -74.0265E-03     456.169E-06
            2287     15.3052E-03     11.7744E-03    -4.94853E+06     109.728E+06     87.5272E+06    -533.561E+03    -157.711E-03     268.856E-03    -111.144E-03     147.048E-03    -165.285E-03     276.548E-03    -110.859E-03     135.336E-03
            2288     14.5353E-03     11.5416E-03    -8.30045E+06     108.093E+06     89.8008E+06     2.59054E+06    -164.480E-03     272.951E-03    -108.471E-03     214.192E-03    -176.119E-03     284.685E-03    -108.167E-03     197.316E-03
            2289     13.7724E-03     11.2520E-03    -13.5052E+06     95.9517E+06     85.4557E+06     4.05713E+06    -170.067E-03     275.290E-03    -105.223E-03     216.586E-03    -180.565E-03     285.834E-03    -104.915E-03     198.610E-03
            2290     13.0150E-03     10.9840E-03    -18.7109E+06     79.5340E+06     72.8050E+06     4.50412E+06    -165.074E-03     266.576E-03    -101.503E-03     170.387E-03    -172.318E-03     273.831E-03    -101.227E-03     155.095E-03
            2291     12.2469E-03     10.7878E-03    -23.7818E+06     60.4511E+06     46.3168E+06     6.13381E+06    -153.871E-03     251.493E-03    -97.6218E-03     110.607E-03    -157.928E-03     255.551E-03    -97.4434E-03     99.5201E-03
            2292     11.4734E-03     10.6463E-03    -28.6094E+06     42.8243E+06     15.5321E+06     8.58479E+06    -143.522E-03     237.351E-03    -93.8288E-03     71.5038E-03    -145.864E-03     239.702E-03    -93.7717E-03     63.4947E-03
            2293     10.6920E-03     10.5350E-03    -32.9703E+06     21.3740E+06    -3.09688E+06     11.1026E+06    -133.835E-03     224.101E-03    -90.2658E-03     48.6810E-03    -135.314E-03     225.551E-03    -90.2644E-03     42.8014E-03
            2294     9.90293E-03     10.4450E-03    -37.0600E+06    -19.4003E+06    -10.2377E+06     12.0754E+06    -123.970E-03     210.980E-03    -87.0107E-03     32.2564E-03    -124.893E-03     211.736E-03    -86.9800E-03     28.0147E-03
            2295     9.10514E-03     10.3747E-03    -40.6570E+06    -63.8348E+06    -14.5874E+06     11.4723E+06    -114.556E-03     198.613E-03    -84.0577E-03     20.3776E-03    -115.119E-03     198.850E-03    -83.9791E-03     17.3262E-03
            2296     8.30018E-03     10.3178E-03    -43.9270E+06    -94.5135E+06    -17.5594E+06     10.4785E+06    -106.120E-03     187.513E-03    -81.3929E-03     12.7865E-03    -106.471E-03     187.425E-03    -81.2799E-03     10.5754E-03
            2297     7.48841E-03     10.2718E-03    -46.9749E+06    -117.445E+06    -21.0627E+06     9.54584E+06    -98.5802E-03     177.594E-03    -79.0138E-03     7.91861E-03    -98.7989E-03     177.291E-03    -78.8807E-03     6.31269E-03
            2298     6.67070E-03     10.2334E-03    -50.0727E+06    -136.455E+06    -25.1223E+06     8.75027E+06    -91.9218E-03     168.849E-03    -76.9276E-03     4.89583E-03    -92.0549E-03     168.393E-03    -76.7828E-03     3.72987E-03
            2299     5.84738E-03     10.2018E-03    -53.4711E+06    -153.578E+06    -29.9090E+06     8.66543E+06    -86.2519E-03     161.383E-03    -75.1310E-03     3.20474E-03    -86.3279E-03     160.810E-03    -74.9803E-03     2.36694E-03
            2300     5.01971E-03     10.1746E-03    -57.0269E+06    -166.264E+06    -36.6183E+06     8.38047E+06    -81.4891E-03     155.091E-03    -73.6024E-03     2.29226E-03    -81.5272E-03     154.443E-03    -73.4617E-03     1.69665E-03
            2301     4.18833E-03     10.1522E-03    -60.3149E+06    -174.560E+06    -44.9861E+06     7.49548E+06    -77.5814E-03     149.916E-03    -72.3344E-03     1.78759E-03    -77.5937E-03     149.224E-03    -72.2188E-03     1.36704E-03
            2302     3.35393E-03     10.1331E-03    -62.9577E+06    -183.469E+06    -51.8768E+06     7.42434E+06    -74.5355E-03     145.874E-03    -71.3389E-03     1.47308E-03    -74.5263E-03     145.140E-03    -71.2410E-03     1.19552E-03
            2303     2.51726E-03     10.1183E-03    -65.4675E+06    -190.996E+06    -56.5550E+06     7.04940E+06    -72.2952E-03     142.896E-03    -70.6009E-03     1.17734E-03    -72.2731E-03     142.126E-03    -70.5118E-03     1.00943E-03
            2304     1.67898E-03     10.1069E-03    -67.4776E+06    -193.734E+06    -61.8400E+06     5.33131E+06    -70.7819E-03     140.866E-03    -70.0837E-03     898.063E-06    -70.7533E-03     140.088E-03    -70.0142E-03     803.159E-06
            2305     839.548E-06     10.1002E-03    -68.3158E+06    -196.227E+06    -66.8843E+06     2.95143E+06    -70.0341E-03     139.719E-03    -69.6849E-03     441.885E-06    -69.9958E-03     138.935E-03    -69.6357E-03     393.748E-06
            2306     15.3059E-03     10.5298E-03    -5.23135E+06     108.452E+06     85.5360E+06    -134.482E+03    -169.092E-03     279.901E-03    -110.808E-03     142.705E-03    -176.432E-03     287.359E-03    -110.530E-03     129.335E-03
            2307     14.5513E-03     10.2921E-03    -10.8905E+06     104.979E+06     85.8688E+06    -171.567E+03    -177.290E-03     284.738E-03    -107.448E-03     205.734E-03    -188.470E-03     296.005E-03    -107.155E-03     186.850E-03
            2308     13.8009E-03     10.0090E-03    -14.7722E+06     93.8315E+06     83.4756E+06     1.89650E+06    -179.550E-03     283.042E-03    -103.492E-03     205.674E-03    -189.436E-03     292.970E-03    -103.189E-03     186.728E-03
            2309     13.0435E-03     9.75000E-03    -19.1985E+06     77.8925E+06     72.7345E+06     3.91655E+06    -170.779E-03     269.964E-03    -99.1852E-03     154.528E-03    -177.366E-03     276.555E-03    -98.9067E-03     139.147E-03
            2310     12.2835E-03     9.57319E-03    -24.6755E+06     57.7289E+06     47.7827E+06     6.88110E+06    -156.680E-03     251.542E-03    -94.8625E-03     96.0488E-03    -160.304E-03     255.151E-03    -94.6715E-03     85.2190E-03
            2311     11.5106E-03     9.44842E-03    -29.7884E+06     38.8723E+06     16.8234E+06     11.1689E+06    -143.767E-03     234.534E-03    -90.7678E-03     60.9915E-03    -145.880E-03     236.636E-03    -90.6968E-03     53.3459E-03
            2312     10.7286E-03     9.35285E-03    -34.3577E+06     21.6522E+06    -4.67106E+06     14.2351E+06    -132.002E-03     219.029E-03    -87.0269E-03     40.9753E-03    -133.347E-03     220.346E-03    -87.0319E-03     35.5023E-03
            2313     9.93682E-03     9.27970E-03    -38.5274E+06    -14.2691E+06    -12.0432E+06     14.3871E+06    -120.888E-03     204.612E-03    -83.7239E-03     27.4091E-03    -121.751E-03     205.325E-03    -83.7075E-03     23.5111E-03
            2314     9.13655E-03     9.22359E-03    -41.9091E+06    -58.4654E+06    -14.2480E+06     12.3985E+06    -110.972E-03     191.787E-03    -80.8153E-03     18.6178E-03    -111.521E-03     192.023E-03    -80.7410E-03     15.8099E-03
            2315     8.32816E-03     9.17979E-03    -44.4572E+06    -90.5836E+06    -16.2651E+06     10.4472E+06    -102.407E-03     180.636E-03    -78.2290E-03     13.4570E-03    -102.764E-03     180.562E-03    -78.1145E-03     11.4057E-03
            2316     7.51313E-03     9.14451E-03    -46.7527E+06    -113.896E+06    -19.1318E+06     9.11605E+06    -94.9652E-03     170.906E-03    -75.9410E-03     10.3124E-03    -95.1963E-03     170.623E-03    -75.8037E-03     8.80741E-03
            2317     6.69191E-03     9.11647E-03    -49.3888E+06    -134.260E+06    -22.5335E+06     8.51709E+06    -88.6163E-03     162.556E-03    -73.9398E-03     8.51814E-03    -88.7624E-03     162.116E-03    -73.7862E-03     7.41513E-03
            2318     5.86596E-03     9.09254E-03    -52.5876E+06    -151.991E+06    -26.3587E+06     8.71364E+06    -83.2485E-03     155.451E-03    -72.2023E-03     7.34211E-03    -83.3369E-03     154.890E-03    -72.0375E-03     6.54373E-03
            2319     5.03567E-03     9.07281E-03    -55.8750E+06    -162.497E+06    -32.3122E+06     7.93924E+06    -78.6988E-03     149.393E-03    -70.6946E-03     6.50995E-03    -78.7505E-03     148.764E-03    -70.5396E-03     5.93081E-03
            2320     4.20178E-03     9.05562E-03    -58.8870E+06    -172.063E+06    -39.8525E+06     6.97591E+06    -74.9354E-03     144.352E-03    -69.4164E-03     5.79336E-03    -74.9571E-03     143.669E-03    -69.2808E-03     5.37847E-03
            2321     3.36495E-03     9.04151E-03    -61.6413E+06    -180.812E+06    -47.1815E+06     6.56056E+06    -71.8819E-03     140.251E-03    -68.3688E-03     4.96205E-03    -71.8801E-03     139.525E-03    -68.2531E-03     4.68109E-03
            2322     2.52574E-03     9.02960E-03    -63.1957E+06    -185.993E+06    -52.4965E+06     5.04851E+06    -69.5066E-03     137.060E-03    -67.5536E-03     3.97033E-03    -69.4879E-03     136.309E-03    -67.4547E-03     3.78182E-03
            2323     1.68478E-03     9.02102E-03    -64.0796E+06    -188.478E+06    -57.5975E+06     3.12042E+06    -67.8281E-03     134.788E-03    -66.9603E-03     2.82063E-03    -67.7968E-03     134.027E-03    -66.8820E-03     2.70006E-03
            2324     842.826E-06     9.01505E-03    -64.7475E+06    -190.823E+06    -62.2790E+06     1.80608E+06    -66.9457E-03     133.400E-03    -66.4540E-03     1.53851E-03    -66.9039E-03     132.631E-03    -66.3948E-03     1.47791E-03
            2325     15.3169E-03     9.25829E-03    -4.02610E+06     108.814E+06     86.4245E+06     1.35041E+06    -182.202E-03     292.496E-03    -110.294E-03     141.091E-03    -189.360E-03     299.775E-03    -110.014E-03     126.079E-03
            2326     14.5715E-03     9.03523E-03    -9.27524E+06     104.818E+06     85.8138E+06     1.02380E+06    -188.973E-03     295.221E-03    -106.248E-03     199.571E-03    -199.692E-03     306.033E-03    -105.958E-03     179.089E-03
            2327     13.8235E-03     8.75178E-03    -15.3314E+06     91.8211E+06     80.5279E+06     1.12925E+06    -187.710E-03     289.364E-03    -101.654E-03     194.557E-03    -196.946E-03     298.644E-03    -101.362E-03     175.005E-03
            2328     13.0790E-03     8.51387E-03    -22.0260E+06     73.6547E+06     68.4848E+06     3.95140E+06    -173.439E-03     270.340E-03    -96.9010E-03     139.632E-03    -179.330E-03     276.223E-03    -96.6335E-03     124.686E-03
            2329     12.3153E-03     8.35867E-03    -28.2730E+06     52.7380E+06     46.4762E+06     8.23489E+06    -155.911E-03     248.297E-03    -92.3859E-03     85.8518E-03    -159.152E-03     251.496E-03    -92.1890E-03     75.6722E-03
            2330     11.5420E-03     8.25383E-03    -33.4064E+06     34.5587E+06     20.7324E+06     12.1369E+06    -140.883E-03     229.174E-03    -88.2913E-03     55.9841E-03    -142.836E-03     231.076E-03    -88.1893E-03     48.9028E-03
            2331     10.7565E-03     8.17763E-03    -36.9715E+06     20.2934E+06     592.908E+03     15.8332E+06    -127.512E-03     212.184E-03    -84.6723E-03     40.2763E-03    -128.792E-03     213.407E-03    -84.6452E-03     35.3093E-03
            2332     9.96078E-03     8.12119E-03    -40.2840E+06    -8.05080E+06    -8.03676E+06     16.4178E+06    -115.851E-03     197.431E-03    -81.5798E-03     30.6247E-03    -116.716E-03     198.150E-03    -81.5499E-03     27.1019E-03
            2333     9.15548E-03     8.08038E-03    -43.4923E+06    -50.5429E+06    -10.1646E+06     12.3035E+06    -106.144E-03     185.094E-03    -78.9503E-03     25.2690E-03    -106.732E-03     185.380E-03    -78.8648E-03     22.6849E-03
            2334     8.34307E-03     8.04829E-03    -45.1989E+06    -86.2818E+06    -12.0570E+06     8.18623E+06    -98.1025E-03     174.767E-03    -76.6647E-03     22.2566E-03    -98.5003E-03     174.735E-03    -76.5343E-03     20.3146E-03
            2335     7.52411E-03     8.02450E-03    -46.0563E+06    -111.497E+06    -14.4535E+06     6.72054E+06    -91.4419E-03     166.105E-03    -74.6630E-03     20.3597E-03    -91.7074E-03     165.854E-03    -74.5068E-03     18.8998E-03
            2336     6.70026E-03     8.00450E-03    -47.6412E+06    -134.069E+06    -16.9292E+06     7.43916E+06    -85.9580E-03     158.871E-03    -72.9134E-03     18.9923E-03    -86.1286E-03     158.447E-03    -72.7346E-03     17.9094E-03
            2337     5.87204E-03     7.98873E-03    -50.3697E+06    -149.545E+06    -19.5061E+06     7.64000E+06    -81.3239E-03     152.697E-03    -71.3736E-03     17.6964E-03    -81.4345E-03     152.156E-03    -71.1813E-03     16.8960E-03
            2338     5.04014E-03     7.97496E-03    -53.3313E+06    -159.001E+06    -23.9464E+06     6.16928E+06    -77.3965E-03     147.409E-03    -70.0130E-03     16.2441E-03    -77.4674E-03     146.796E-03    -69.8248E-03     15.6426E-03
            2339     4.20520E-03     7.96355E-03    -56.3020E+06    -170.113E+06    -30.1547E+06     5.24539E+06    -74.0698E-03     142.900E-03    -68.8305E-03     14.4789E-03    -74.1055E-03     142.220E-03    -68.6530E-03     14.0377E-03
            2340     3.36767E-03     7.95342E-03    -59.0657E+06    -176.964E+06    -38.1024E+06     3.77127E+06    -71.2906E-03     139.103E-03    -67.8127E-03     12.3448E-03    -71.3008E-03     138.386E-03    -67.6610E-03     12.0239E-03
            2341     2.52794E-03     7.94557E-03    -61.0852E+06    -181.789E+06    -46.4592E+06     1.41841E+06    -69.0315E-03     136.002E-03    -66.9707E-03     9.76286E-03    -69.0204E-03     135.263E-03    -66.8508E-03     9.52530E-03
            2342     1.68641E-03     7.93906E-03    -62.3595E+06    -186.073E+06    -54.2931E+06    -11.7819E+03    -67.2913E-03     133.618E-03    -66.3270E-03     6.85690E-03    -67.2610E-03     132.863E-03    -66.2382E-03     6.69512E-03
            2343     843.494E-06     7.93532E-03    -63.4385E+06    -189.382E+06    -60.3805E+06    -250.852E+03    -66.2096E-03     132.079E-03    -65.8699E-03     3.90978E-03    -66.1665E-03     131.314E-03    -65.8052E-03     3.82279E-03
            2344     15.3264E-03     7.98463E-03    -4.43661E+06     107.408E+06     84.5832E+06     573.157E+03    -195.082E-03     304.853E-03    -109.771E-03     142.378E-03    -202.047E-03     311.939E-03    -109.498E-03     125.934E-03
            2345     14.5851E-03     7.75758E-03    -8.05950E+06     104.370E+06     85.3704E+06     1.78597E+06    -199.411E-03     304.529E-03    -105.119E-03     195.718E-03    -209.587E-03     314.804E-03    -104.831E-03     174.211E-03
            2346     13.8543E-03     7.48614E-03    -14.0413E+06     90.3178E+06     78.9493E+06     4.76666E+06    -192.308E-03     292.367E-03    -100.059E-03     184.212E-03    -200.762E-03     300.871E-03    -99.7749E-03     164.921E-03
            2347     13.1023E-03     7.27949E-03    -22.2982E+06     69.7252E+06     65.2018E+06     8.05197E+06    -171.906E-03     267.038E-03    -95.1321E-03     129.501E-03    -177.113E-03     272.233E-03    -94.8749E-03     115.678E-03
            2348     12.3390E-03     7.14757E-03    -30.0492E+06     48.9897E+06     45.7318E+06     10.9785E+06    -150.797E-03     241.555E-03    -90.7578E-03     82.1578E-03    -153.699E-03     244.398E-03    -90.5566E-03     73.0618E-03
            2349     11.5593E-03     7.06713E-03    -35.9431E+06     31.7158E+06     24.4811E+06     13.2681E+06    -133.709E-03     220.741E-03    -87.0314E-03     59.1486E-03    -135.546E-03     222.496E-03    -86.9029E-03     52.9110E-03
            2350     10.7677E-03     7.00977E-03    -40.5189E+06     18.2298E+06     7.69872E+06     15.5974E+06    -120.043E-03     203.954E-03    -83.9118E-03     49.3148E-03    -121.323E-03     205.137E-03    -83.8410E-03     44.9327E-03
            2351     9.96498E-03     6.97163E-03    -42.6861E+06    -1.30337E+06     1.25810E+06     14.7107E+06    -109.118E-03     190.469E-03    -81.3509E-03     43.8931E-03    -110.041E-03     191.236E-03    -81.2808E-03     40.7271E-03
            2352     9.15463E-03     6.94282E-03    -42.9723E+06    -41.0370E+06    -1.18382E+06     9.65809E+06    -100.617E-03     179.863E-03    -79.2466E-03     41.0366E-03    -101.270E-03     180.224E-03    -79.1307E-03     38.6434E-03
            2353     8.33761E-03     6.92311E-03    -44.1756E+06    -82.1220E+06    -4.23800E+06     5.06645E+06    -93.9809E-03     171.447E-03    -77.4663E-03     39.1436E-03    -94.4337E-03     171.466E-03    -77.3044E-03     37.2869E-03
            2354     7.51579E-03     6.90703E-03    -46.4871E+06    -111.074E+06    -7.13923E+06     3.78033E+06    -88.7549E-03     164.678E-03    -75.9227E-03     37.4260E-03    -89.0719E-03     164.457E-03    -75.7299E-03     35.9886E-03
            2355     6.69000E-03     6.89523E-03    -48.4306E+06    -134.831E+06    -9.55847E+06     4.05677E+06    -84.5364E-03     159.107E-03    -74.5702E-03     35.4359E-03    -84.7513E-03     158.699E-03    -74.3522E-03     34.3332E-03
            2356     5.86090E-03     6.88508E-03    -49.4275E+06    -146.852E+06    -10.2477E+06     3.54342E+06    -81.0392E-03     154.406E-03    -73.3671E-03     33.0054E-03    -81.1856E-03     153.886E-03    -73.1338E-03     32.1565E-03
            2357     5.02924E-03     6.87694E-03    -51.0485E+06    -157.089E+06    -13.7941E+06     2.57063E+06    -78.0784E-03     150.362E-03    -72.2834E-03     29.9597E-03    -78.1718E-03     149.756E-03    -72.0505E-03     29.3071E-03
            2358     4.19520E-03     6.86985E-03    -53.7114E+06    -167.970E+06    -21.1908E+06     1.36494E+06    -75.4966E-03     146.806E-03    -71.3099E-03     26.3666E-03    -75.5464E-03     146.130E-03    -71.0944E-03     25.8697E-03
            2359     3.35898E-03     6.86400E-03    -56.3435E+06    -173.316E+06    -30.0394E+06    -670.502E+03    -73.2372E-03     143.694E-03    -70.4570E-03     22.2666E-03    -73.2575E-03     142.985E-03    -70.2742E-03     21.8855E-03
            2360     2.52110E-03     6.85889E-03    -59.2471E+06    -180.078E+06    -41.1376E+06    -2.46620E+06    -71.3816E-03     141.126E-03    -69.7447E-03     17.5969E-03    -71.3754E-03     140.388E-03    -69.6034E-03     17.3091E-03
            2361     1.68175E-03     6.85564E-03    -62.0437E+06    -187.141E+06    -52.8095E+06    -2.87907E+06    -69.9628E-03     139.156E-03    -69.1932E-03     12.3662E-03    -69.9339E-03     138.394E-03    -69.0960E-03     12.1684E-03
            2362     841.206E-06     6.85310E-03    -64.1212E+06    -192.181E+06    -61.2603E+06    -1.71344E+06    -68.9785E-03     137.878E-03    -68.8991E-03     6.96914E-03    -68.9349E-03     137.100E-03    -68.8338E-03     6.86464E-03
            2363     15.3289E-03     6.69012E-03    -3.57223E+06     106.631E+06     81.9079E+06     1.49037E+06    -206.651E-03     316.157E-03    -109.506E-03     145.159E-03    -213.478E-03     323.115E-03    -109.246E-03     127.607E-03
            2364     14.6049E-03     6.46507E-03    -9.93618E+06     99.5998E+06     79.0222E+06     2.31090E+06    -205.932E-03     310.346E-03    -104.415E-03     197.616E-03    -215.638E-03     320.147E-03    -104.150E-03     175.812E-03
            2365     13.8639E-03     6.22061E-03    -16.6889E+06     84.1072E+06     72.5617E+06     6.25022E+06    -191.681E-03     290.888E-03    -99.2066E-03     176.890E-03    -199.225E-03     298.472E-03    -98.9415E-03     158.909E-03
            2366     13.1157E-03     6.04439E-03    -21.8709E+06     65.3185E+06     62.9399E+06     11.1998E+06    -164.554E-03     259.066E-03    -94.5126E-03     123.860E-03    -169.038E-03     263.534E-03    -94.2609E-03     111.877E-03
            2367     12.3430E-03     5.94854E-03    -27.3653E+06     47.0964E+06     47.8751E+06     14.6930E+06    -139.855E-03     230.579E-03    -90.7243E-03     87.6531E-03    -142.440E-03     233.104E-03    -90.5136E-03     80.0676E-03
            2368     11.5538E-03     5.88981E-03    -34.2728E+06     31.8223E+06     31.1115E+06     16.1076E+06    -122.606E-03     210.400E-03    -87.7947E-03     74.2489E-03    -124.363E-03     212.064E-03    -87.6355E-03     69.0609E-03
            2369     10.7521E-03     5.85302E-03    -39.0545E+06     21.7430E+06     19.9543E+06     13.6197E+06    -110.802E-03     196.317E-03    -85.5148E-03     68.9245E-03    -112.096E-03     197.496E-03    -85.3900E-03     65.1506E-03
            2370     9.94276E-03     5.82690E-03    -39.5254E+06     5.56251E+06     16.3045E+06     8.34568E+06    -102.153E-03     185.882E-03    -83.7291E-03     65.6696E-03    -103.119E-03     186.684E-03    -83.5983E-03     62.8054E-03
            2371     9.12703E-03     5.81063E-03    -39.3817E+06    -36.0640E+06     12.3990E+06     4.43397E+06    -95.8975E-03     178.214E-03    -82.3163E-03     63.3015E-03    -96.5939E-03     178.608E-03    -82.1449E-03     61.0675E-03
            2372     8.30704E-03     5.79779E-03    -41.2536E+06    -80.0547E+06     8.16766E+06     2.69814E+06    -91.3735E-03     172.526E-03    -81.1525E-03     60.8266E-03    -91.8638E-03     172.563E-03    -80.9358E-03     59.0688E-03
            2373     7.48395E-03     5.78921E-03    -44.4389E+06    -110.614E+06     5.43096E+06     1.08666E+06    -87.9597E-03     168.112E-03    -80.1524E-03     57.7429E-03    -88.3111E-03     167.897E-03    -79.9004E-03     56.3412E-03
            2374     6.65821E-03     5.78202E-03    -46.9468E+06    -133.279E+06     2.77889E+06    -1.63079E+06    -85.2800E-03     164.548E-03    -79.2680E-03     53.9958E-03    -85.5271E-03     164.146E-03    -78.9928E-03     52.8572E-03
            2375     5.83073E-03     5.77666E-03    -48.2133E+06    -146.085E+06     714.962E+03    -3.60616E+06    -83.0581E-03     161.530E-03    -78.4715E-03     49.5897E-03    -83.2295E-03     161.007E-03    -78.1862E-03     48.6691E-03
            2376     5.00131E-03     5.77205E-03    -49.3905E+06    -157.588E+06    -5.94871E+06    -3.75482E+06    -81.1825E-03     158.920E-03    -77.7375E-03     44.4500E-03    -81.2881E-03     158.305E-03    -77.4671E-03     43.7272E-03
            2377     4.17049E-03     5.76861E-03    -50.9801E+06    -166.303E+06    -15.4376E+06     -4.4028E+06    -79.5530E-03     156.622E-03    -77.0687E-03     38.6392E-03    -79.6067E-03     155.945E-03    -76.8308E-03     38.0739E-03
            2378     3.33833E-03     5.76561E-03    -53.5838E+06    -172.885E+06    -25.8484E+06    -5.54009E+06    -78.0983E-03     154.585E-03    -76.4864E-03     32.1629E-03    -78.1162E-03     153.869E-03    -76.2873E-03     31.7223E-03
            2379     2.50463E-03     5.76346E-03    -57.2662E+06    -182.074E+06    -39.7852E+06    -5.27894E+06    -76.8989E-03     152.902E-03    -76.0032E-03     24.9575E-03    -76.8852E-03     152.149E-03    -75.8551E-03     24.6348E-03
            2380     1.67009E-03     5.76145E-03    -61.4574E+06    -191.236E+06    -53.5547E+06    -3.77908E+06    -76.0467E-03     151.687E-03    -75.6402E-03     17.2186E-03    -76.0101E-03     150.903E-03    -75.5415E-03     17.0097E-03
            2381     835.203E-06     5.76072E-03    -64.6204E+06    -197.094E+06    -62.4555E+06    -2.05841E+06    -75.4730E-03     150.930E-03    -75.4567E-03     9.58981E-03    -75.4248E-03     150.129E-03    -75.3894E-03     9.48083E-03
            2382     15.3331E-03     5.39114E-03    -4.74109E+06     104.599E+06     77.7443E+06     3.16363E+06    -214.432E-03     324.406E-03    -109.974E-03     158.308E-03    -221.347E-03     331.452E-03    -109.730E-03     140.279E-03
            2383     14.5955E-03     5.16304E-03    -10.7309E+06     96.2435E+06     74.4737E+06     6.30795E+06    -208.144E-03     312.873E-03    -104.729E-03     205.252E-03    -217.380E-03     322.205E-03    -104.481E-03     184.235E-03
            2384     13.8661E-03     4.95077E-03    -16.2233E+06     78.5297E+06     67.7576E+06     8.25992E+06    -183.038E-03     282.807E-03    -99.7684E-03     170.615E-03    -189.385E-03     289.197E-03    -99.5200E-03     155.205E-03
            2385     13.1024E-03     4.82554E-03    -21.7649E+06     59.4165E+06     59.7795E+06     12.0473E+06    -148.490E-03     244.347E-03    -95.8573E-03     128.463E-03    -152.177E-03     248.010E-03    -95.6130E-03     119.096E-03
            2386     12.3155E-03     4.76250E-03    -26.7173E+06     44.6852E+06     51.2778E+06     15.6623E+06    -124.740E-03     217.909E-03    -93.1687E-03     107.231E-03    -127.051E-03     220.143E-03    -92.9384E-03     101.319E-03
            2387     11.5132E-03     4.72569E-03    -29.4921E+06     36.2489E+06     43.6977E+06     14.7375E+06    -111.620E-03     202.930E-03    -91.3103E-03     99.2534E-03    -113.273E-03     204.486E-03    -91.1016E-03     95.0322E-03
            2388     10.7041E-03     4.70027E-03    -30.0466E+06     32.3352E+06     38.5483E+06     8.33705E+06    -103.244E-03     193.198E-03    -89.9539E-03     93.7135E-03    -104.476E-03     194.329E-03    -89.7644E-03     90.4845E-03
            2389     9.88959E-03     4.68596E-03    -31.6906E+06     9.39549E+06     34.0203E+06     2.42360E+06    -97.5925E-03     186.561E-03    -88.9684E-03     89.4020E-03    -98.5149E-03     187.307E-03    -88.7660E-03     86.8571E-03
            2390     9.07171E-03     4.67513E-03    -35.0275E+06    -37.3138E+06     28.0737E+06     661.705E+03    -94.1135E-03     182.353E-03    -88.2394E-03     85.3176E-03    -94.7849E-03     182.686E-03    -87.9942E-03     83.2949E-03
            2391     8.25182E-03     4.66850E-03    -38.4088E+06    -79.2306E+06     23.4789E+06    -990.064E+03    -91.8677E-03     179.516E-03    -87.6482E-03     80.4523E-03    -92.3498E-03     179.510E-03    -87.3603E-03     78.8193E-03
            2392     7.43009E-03     4.66290E-03    -40.1718E+06    -108.228E+06     21.6885E+06    -4.67768E+06    -90.2265E-03     177.366E-03    -87.1394E-03     74.8531E-03    -90.5706E-03     177.117E-03    -86.8157E-03     73.4948E-03
            2393     6.60760E-03     4.65936E-03    -41.3578E+06    -130.425E+06     18.3936E+06    -8.89171E+06    -88.9537E-03     175.632E-03    -86.6787E-03     68.6492E-03    -89.1905E-03     175.202E-03    -86.3376E-03     67.4976E-03
            2394     5.78367E-03     4.65639E-03    -43.2868E+06    -147.686E+06     9.69066E+06    -11.2067E+06    -87.9012E-03     174.142E-03    -86.2409E-03     61.8746E-03    -88.0525E-03     173.582E-03    -85.9155E-03     60.9104E-03
            2395     4.95908E-03     4.65439E-03    -45.1083E+06    -160.150E+06    -3.69205E+06    -11.3871E+06    -87.0247E-03     172.849E-03    -85.8247E-03     54.4654E-03    -87.1049E-03     172.206E-03    -85.5456E-03     53.6780E-03
            2396     4.13365E-03     4.65271E-03    -46.8637E+06    -168.749E+06    -16.2389E+06    -10.5359E+06    -86.2842E-03     171.742E-03    -85.4582E-03     46.5248E-03    -86.3111E-03     171.045E-03    -85.2267E-03     45.8989E-03
            2397     3.30757E-03     4.65172E-03    -49.9532E+06    -177.507E+06    -28.5142E+06    -8.24519E+06    -85.6873E-03     170.832E-03    -85.1449E-03     38.1067E-03    -85.6765E-03     170.090E-03    -84.9576E-03     37.6371E-03
            2398     2.48142E-03     4.65073E-03    -54.7903E+06    -187.633E+06    -42.4172E+06    -5.13548E+06    -85.2146E-03     170.089E-03    -84.8749E-03     29.1912E-03    -85.1775E-03     169.307E-03    -84.7354E-03     28.8687E-03
            2399     1.65464E-03     4.65033E-03    -59.7492E+06    -196.046E+06    -54.0536E+06    -2.62065E+06    -84.8492E-03     169.507E-03    -84.6574E-03     19.8932E-03    -84.7978E-03     168.696E-03    -84.5568E-03     19.6950E-03
            2400     827.378E-06     4.64953E-03    -62.8633E+06    -201.250E+06    -61.6909E+06    -1.22810E+06    -84.4787E-03     169.066E-03    -84.5876E-03     10.8278E-03    -84.4181E-03     168.240E-03    -84.5131E-03     10.7254E-03
            2401     15.2955E-03     4.07316E-03    -5.73933E+06     101.948E+06     72.3135E+06     4.92950E+06    -217.720E-03     329.421E-03    -111.701E-03     177.431E-03    -224.578E-03     336.414E-03    -111.479E-03     159.724E-03
            2402     14.5804E-03     3.84649E-03    -8.42255E+06     92.6118E+06     72.1283E+06     7.23953E+06    -199.137E-03     305.890E-03    -106.753E-03     210.641E-03    -207.270E-03     314.136E-03    -106.514E-03     192.417E-03
            2403     13.8298E-03     3.69960E-03    -12.8635E+06     72.1061E+06     65.5530E+06     11.5256E+06    -161.859E-03     264.596E-03    -102.737E-03     176.948E-03    -166.770E-03     269.552E-03    -102.495E-03     165.582E-03
            2404     13.0478E-03     3.62858E-03    -18.9935E+06     56.6893E+06     61.0634E+06     14.5404E+06    -131.057E-03     231.162E-03    -100.105E-03     147.707E-03    -133.959E-03     234.031E-03    -99.8540E-03     140.964E-03
            2405     12.2445E-03     3.58906E-03    -22.7596E+06     48.0271E+06     60.2508E+06     11.4387E+06    -114.432E-03     212.971E-03    -98.5393E-03     130.852E-03    -116.369E-03     214.826E-03    -98.2747E-03     126.268E-03
            2406     11.4379E-03     3.56203E-03    -22.4173E+06     43.9267E+06     56.8499E+06     5.98806E+06    -106.104E-03     203.651E-03    -97.5477E-03     120.418E-03    -107.487E-03     204.948E-03    -97.2946E-03     116.977E-03
            2407     10.6264E-03     3.54785E-03    -23.2139E+06     39.1968E+06     50.2970E+06     2.73824E+06    -101.209E-03     198.085E-03    -96.8756E-03     111.179E-03    -102.236E-03     199.021E-03    -96.6473E-03     108.506E-03
            2408     9.81172E-03     3.53793E-03    -27.6715E+06     9.50446E+06     43.7709E+06     477.757E+03    -98.4480E-03     194.900E-03    -96.4516E-03     103.657E-03    -99.2174E-03     195.475E-03    -96.2064E-03     101.543E-03
            2409     8.99579E-03     3.53124E-03    -32.1506E+06    -38.5836E+06     36.3816E+06    -3.07615E+06    -97.1940E-03     193.361E-03    -96.1666E-03     95.8867E-03    -97.7489E-03     193.555E-03    -95.8821E-03     94.1547E-03
            2410     8.17925E-03     3.52589E-03    -33.6400E+06    -76.1706E+06     30.3057E+06    -8.27415E+06    -96.4072E-03     192.337E-03    -95.9297E-03     88.0074E-03    -96.7963E-03     192.244E-03    -95.6190E-03     86.5345E-03
            2411     7.36279E-03     3.52278E-03    -33.7278E+06    -105.725E+06     25.3880E+06    -13.6511E+06    -95.9111E-03     191.638E-03    -95.7264E-03     80.1992E-03    -96.1716E-03     191.324E-03    -95.3973E-03     78.9141E-03
            2412     6.54536E-03     3.52028E-03    -34.4557E+06    -130.653E+06     17.8234E+06    -16.4687E+06    -95.5716E-03     191.105E-03    -95.5332E-03     72.1074E-03    -95.7303E-03     190.620E-03    -95.2047E-03     70.9949E-03
            2413     5.72810E-03     3.51894E-03    -36.3100E+06    -151.169E+06     4.73891E+06    -17.2152E+06    -95.3172E-03     190.649E-03    -95.3317E-03     63.8465E-03    -95.3928E-03     190.039E-03    -95.0361E-03     62.8991E-03
            2414     4.91032E-03     3.51780E-03    -38.9467E+06    -166.137E+06    -11.0624E+06    -16.0127E+06    -95.1158E-03     190.248E-03    -95.1320E-03     55.2869E-03    -95.1276E-03     189.557E-03    -94.8899E-03     54.4999E-03
            2415     4.09233E-03     3.51736E-03    -42.8887E+06    -176.986E+06    -24.7563E+06    -12.1051E+06    -94.9375E-03     189.899E-03    -94.9613E-03     46.4552E-03    -94.9093E-03     189.155E-03    -94.7663E-03     45.8430E-03
            2416     3.27417E-03     3.51678E-03    -48.1042E+06    -186.255E+06    -35.8319E+06    -7.01794E+06    -94.7832E-03     189.611E-03    -94.8283E-03     37.4867E-03    -94.7338E-03     188.826E-03    -94.6676E-03     37.0485E-03
            2417     2.45551E-03     3.51666E-03    -52.9094E+06    -193.837E+06    -45.4533E+06    -2.94272E+06    -94.6833E-03     189.407E-03    -94.7238E-03     28.4858E-03    -94.6203E-03     188.592E-03    -94.5932E-03     28.1971E-03
            2418     1.63712E-03     3.51630E-03    -56.5867E+06    -199.452E+06    -53.0046E+06    -800.184E+03    -94.6240E-03     189.269E-03    -94.6450E-03     19.4804E-03    -94.5519E-03     188.434E-03    -94.5388E-03     19.3073E-03
            2419     818.792E-06     3.51657E-03    -58.7700E+06    -203.078E+06    -58.2031E+06    -57.8135E+03    -94.5072E-03     189.173E-03    -94.6656E-03     10.6263E-03    -94.4283E-03     188.325E-03    -94.5769E-03     10.5385E-03
            2420     15.2610E-03     2.71746E-03    -4.33743E+06     99.0271E+06     71.8568E+06     6.03961E+06    -209.736E-03     325.416E-03    -115.680E-03     222.913E-03    -216.688E-03     332.513E-03    -115.458E-03     206.678E-03
            2421     14.5177E-03     2.56323E-03    -7.47056E+06     81.7327E+06     67.8061E+06     9.32750E+06    -182.355E-03     293.885E-03    -111.530E-03     222.004E-03    -188.618E-03     300.237E-03    -111.299E-03     208.177E-03
            2422     13.7379E-03     2.47952E-03    -12.0639E+06     66.3831E+06     65.6605E+06     12.0495E+06    -145.003E-03     253.622E-03    -108.618E-03     181.613E-03    -148.265E-03     256.895E-03    -108.369E-03     174.060E-03
            2423     12.9432E-03     2.43210E-03    -12.2556E+06     61.7803E+06     70.7562E+06     9.78821E+06    -125.040E-03     231.992E-03    -106.952E-03     153.289E-03    -126.989E-03     233.913E-03    -106.670E-03     148.528E-03
            2424     12.1489E-03     2.41124E-03    -12.6352E+06     56.7307E+06     69.5180E+06     4.56180E+06    -115.891E-03     221.799E-03    -105.908E-03     133.748E-03    -117.192E-03     223.051E-03    -105.624E-03     130.319E-03
            2425     11.3425E-03     2.39203E-03    -16.0583E+06     48.1277E+06     53.6246E+06     1.02958E+06    -109.915E-03     215.085E-03    -105.170E-03     118.377E-03    -110.828E-03     215.952E-03    -104.949E-03     115.818E-03
            2426     10.5348E-03     2.38307E-03    -21.0071E+06     38.3475E+06     36.0172E+06     911.711E+03    -106.774E-03     211.456E-03    -104.681E-03     104.890E-03    -107.448E-03     212.081E-03    -104.526E-03     102.935E-03
            2427     9.72601E-03     2.37557E-03    -24.3517E+06     10.3753E+06     23.1443E+06    -843.999E+03    -105.428E-03     209.802E-03    -104.374E-03     94.3418E-03    -105.920E-03     210.172E-03    -104.238E-03     92.7781E-03
            2428     8.91722E-03     2.36968E-03    -26.0992E+06    -33.9398E+06     14.5724E+06    -8.03400E+06    -104.552E-03     208.739E-03    -104.187E-03     84.6102E-03    -104.883E-03     208.809E-03    -104.027E-03     83.2570E-03
            2429     8.10769E-03     2.36658E-03    -26.5304E+06    -71.9914E+06     5.36829E+06    -15.5386E+06    -103.998E-03     208.040E-03    -104.043E-03     75.9407E-03    -104.199E-03     207.871E-03    -103.873E-03     74.7235E-03
            2430     7.29696E-03     2.36353E-03    -27.0616E+06    -106.418E+06    -3.68176E+06    -19.3968E+06    -103.709E-03     207.645E-03    -103.936E-03     67.7815E-03    -103.804E-03     207.273E-03    -103.761E-03     66.6946E-03
            2431     6.48685E-03     2.36213E-03    -28.8472E+06    -135.386E+06    -9.78151E+06    -19.8166E+06    -103.559E-03     207.427E-03    -103.868E-03     59.9195E-03    -103.580E-03     206.889E-03    -103.679E-03     58.9711E-03
            2432     5.67600E-03     2.36102E-03    -32.2864E+06    -157.829E+06    -18.2627E+06    -17.9215E+06    -103.490E-03     207.291E-03    -103.801E-03     52.4191E-03    -103.459E-03     206.634E-03    -103.617E-03     51.6174E-03
            2433     4.86534E-03     2.36053E-03    -37.4915E+06    -176.438E+06    -26.8865E+06    -13.7163E+06    -103.492E-03     207.237E-03    -103.744E-03     44.9881E-03    -103.430E-03     206.488E-03    -103.569E-03     44.3447E-03
            2434     4.05462E-03     2.36023E-03    -43.2135E+06    -187.869E+06    -35.0777E+06    -8.06382E+06    -103.511E-03     207.198E-03    -103.687E-03     37.5412E-03    -103.435E-03     206.398E-03    -103.527E-03     37.0625E-03
            2435     3.24373E-03     2.36028E-03    -47.8483E+06    -194.026E+06    -41.8377E+06    -3.72352E+06    -103.495E-03     207.131E-03    -103.636E-03     30.0946E-03    -103.412E-03     206.306E-03    -103.495E-03     29.7556E-03
            2436     2.43301E-03     2.36021E-03    -50.9159E+06    -198.337E+06    -47.1555E+06    -1.28427E+06    -103.452E-03     207.061E-03    -103.609E-03     22.6848E-03    -103.363E-03     206.219E-03    -103.484E-03     22.4548E-03
            2437     1.62179E-03     2.36016E-03    -52.6348E+06    -201.059E+06    -50.8154E+06     76.7882E+03    -103.454E-03     207.079E-03    -103.625E-03     15.3541E-03    -103.359E-03     206.225E-03    -103.511E-03     15.2138E-03
            2438     810.489E-06     2.36003E-03    -53.8446E+06    -203.019E+06    -53.4437E+06     369.074E+03    -103.601E-03     207.260E-03    -103.658E-03     8.36140E-03    -103.502E-03     206.400E-03    -103.553E-03     8.29099E-03
            2439     15.1275E-03     1.36565E-03    -574.127E+03     96.1421E+06     82.2628E+06     6.77333E+06    -221.705E-03     344.236E-03    -122.531E-03     238.182E-03    -227.062E-03     349.676E-03    -122.258E-03     224.714E-03
            2440     14.3887E-03     1.28635E-03    -3.72553E+06     81.0548E+06     77.6833E+06     9.78322E+06    -182.220E-03     300.556E-03    -118.337E-03     176.103E-03    -185.329E-03     303.724E-03    -118.060E-03     168.007E-03
            2441     13.6290E-03     1.25629E-03    -5.67413E+06     72.7168E+06     78.5892E+06     5.62960E+06    -151.450E-03     266.988E-03    -115.538E-03     135.490E-03    -152.919E-03     268.463E-03    -115.242E-03     131.217E-03
            2442     12.8451E-03     1.22832E-03    -5.65065E+06     66.3891E+06     78.1432E+06     799.930E+03    -134.498E-03     248.269E-03    -113.770E-03     108.338E-03    -135.380E-03     249.136E-03    -113.468E-03     105.639E-03
            2443     12.0506E-03     1.21108E-03    -7.84597E+06     58.1159E+06     64.9020E+06     1.36327E+06    -125.451E-03     237.997E-03    -112.546E-03     87.6271E-03    -126.046E-03     238.579E-03    -112.295E-03     85.7630E-03
            2444     11.2594E-03     1.20569E-03    -11.5008E+06     48.4666E+06     38.0794E+06     1.82771E+06    -119.831E-03     231.441E-03    -111.610E-03     74.8522E-03    -120.258E-03     231.884E-03    -111.473E-03     73.4639E-03
            2445     10.4608E-03     1.19859E-03    -14.0988E+06     36.9879E+06     10.4712E+06     884.261E+03    -116.273E-03     227.183E-03    -110.909E-03     65.0116E-03    -116.571E-03     227.528E-03    -110.890E-03     63.9552E-03
            2446     9.66111E-03     1.19390E-03    -15.0210E+06     14.2261E+06    -14.8817E+06    -1.98610E+06    -114.002E-03     224.399E-03    -110.397E-03     56.7055E-03    -114.185E-03     224.620E-03    -110.470E-03     55.8388E-03
            2447     8.85828E-03     1.19114E-03    -15.8267E+06    -26.0556E+06    -31.6862E+06    -8.05284E+06    -112.334E-03     222.407E-03    -110.073E-03     49.9221E-03    -112.407E-03     222.421E-03    -110.170E-03     49.1405E-03
            2448     8.05428E-03     1.18860E-03    -18.9782E+06    -70.1382E+06    -40.4954E+06    -13.0816E+06    -111.266E-03     221.157E-03    -109.891E-03     44.0779E-03    -111.257E-03     220.946E-03    -109.964E-03     43.3524E-03
            2449     7.25045E-03     1.18727E-03    -23.8799E+06    -109.301E+06    -45.2278E+06    -14.8028E+06    -110.543E-03     220.336E-03    -109.793E-03     38.8422E-03    -110.479E-03     219.929E-03    -109.827E-03     38.1892E-03
            2450     6.44496E-03     1.18616E-03    -29.4551E+06    -142.006E+06    -44.1328E+06    -14.1000E+06    -110.079E-03     219.849E-03    -109.770E-03     33.9827E-03    -109.987E-03     219.274E-03    -109.742E-03     33.4140E-03
            2451     5.63978E-03     1.18573E-03    -35.3191E+06    -167.016E+06    -42.8571E+06    -10.8562E+06    -109.833E-03     219.607E-03    -109.773E-03     29.4198E-03    -109.728E-03     218.905E-03    -109.694E-03     28.9573E-03
            2452     4.83405E-03     1.18534E-03    -40.8829E+06    -186.264E+06    -41.7999E+06    -6.75040E+06    -109.714E-03     219.505E-03    -109.792E-03     25.0691E-03    -109.603E-03     218.708E-03    -109.671E-03     24.7156E-03
            2453     4.02834E-03     1.18521E-03    -44.9037E+06    -195.624E+06    -42.4075E+06    -3.58575E+06    -109.687E-03     219.486E-03    -109.799E-03     20.8239E-03    -109.577E-03     218.644E-03    -109.663E-03     20.5600E-03
            2454     3.22275E-03     1.18527E-03    -47.3053E+06    -198.294E+06    -44.7435E+06    -1.44643E+06    -109.714E-03     219.505E-03    -109.791E-03     16.6904E-03    -109.606E-03     218.653E-03    -109.658E-03     16.5003E-03
            2455     2.41693E-03     1.18538E-03    -48.8127E+06    -200.375E+06    -47.0461E+06    -357.948E+03    -109.750E-03     219.528E-03    -109.778E-03     12.5599E-03    -109.640E-03     218.667E-03    -109.651E-03     12.4276E-03
            2456     1.61139E-03     1.18548E-03    -49.6409E+06    -201.633E+06    -48.5797E+06     31.8805E+03    -109.761E-03     219.522E-03    -109.761E-03     8.49528E-03    -109.649E-03     218.657E-03    -109.640E-03     8.41052E-03
            2457     805.975E-06     1.18497E-03    -50.0501E+06    -202.358E+06    -49.5473E+06     304.679E+03    -109.807E-03     219.494E-03    -109.687E-03     4.60317E-03    -109.693E-03     218.627E-03    -109.569E-03     4.56252E-03


