********************************************************************************
Field Output Report, written Tue May 28 21:58:10 2024

Source 1
---------

   ODB: G:/Abaqus_calc_2019/1740/Vel_10/odb/zeides_2a_32_red_2000_cal_100_vel_10_fric_0100.odb
   Step: Step-1
   Frame: Increment  17522010: Step Time =    1.614

Loc 1 : Nodal values from source 1

Output sorted by column "Nodal Label".

Field Output reported at nodes for region: DIE_2A_32_D0_36-1.Region_1
   Computation algorithm: EXTRAPOLATE_COMPUTE_AVERAGE
   Averaged at nodes
   Averaging regions: ODB_REGIONS

      Node Label     COORD.COOR1     COORD.COOR2
                          @Loc 1          @Loc 1
-------------------------------------------------
               1     18.3692E-03     171.512E-03


Field Output reported at nodes for region: DIE_2A_32_D0_36-1.Region_2
   Computation algorithm: EXTRAPOLATE_COMPUTE_AVERAGE
   Averaged at nodes
   Averaging regions: ODB_REGIONS

      Node Label     COORD.COOR1     COORD.COOR2
                          @Loc 1          @Loc 1
-------------------------------------------------
               1     18.3692E-03     171.512E-03


Field Output reported at nodes for part: WIRE-1
   Computation algorithm: EXTRAPOLATE_COMPUTE_AVERAGE
   Averaged at nodes
   Averaging regions: ODB_REGIONS

      Node Label     COORD.COOR1     COORD.COOR2           S.S11           S.S22           S.S33           S.S12         PE.PE11         PE.PE22         PE.PE33         PE.PE12         LE.LE11         LE.LE22         LE.LE33         LE.LE12
                          @Loc 1          @Loc 1          @Loc 1          @Loc 1          @Loc 1          @Loc 1          @Loc 1          @Loc 1          @Loc 1          @Loc 1          @Loc 1          @Loc 1          @Loc 1          @Loc 1
-------------------------------------------------------------------------------------------------------------------------------------------------------------------------------------------------------------------------------------------------
               1     113.778E-09     84.5688E-03    -134.529E+06    -281.524E+06    -134.707E+06     700.462E+03    -228.974E-03     457.890E-03    -228.916E-03     13.4931E-03    -229.068E-03     456.898E-03    -228.986E-03     11.9062E-03
               2     14.3220E-03     88.7163E-03    -1.59092E+06     61.5396E+06     83.5016E+06     528.716E+03    -230.535E-03     459.451E-03    -228.916E-03     125.256E-03    -233.702E-03     462.588E-03    -228.585E-03     106.902E-03
               3     14.2151E-03     176.210E-03    -37.9651E+06     73.7560E+06     124.888E+06    -50.4934E+06     109.841E-03     128.012E-03    -237.853E-03     8.39476E-03     109.751E-03     128.636E-03    -237.280E-03     7.75478E-03
               4    -9.14680E-06     169.245E-03    -25.5168E+06    -31.2247E+06    -43.0289E+06    -10.0118E+06    -228.670E-03     466.726E-03    -238.056E-03    -59.9066E-03    -229.299E-03     465.974E-03    -238.189E-03    -61.1064E-03
               5     934.510E-09     3.44169E-15    -73.6005E+06    -261.162E+06    -73.9286E+06    -2.58353E+06    -201.535E-03     402.717E-03    -201.182E-03     1.50214E-03    -201.415E-03     401.626E-03    -201.067E-03     1.35543E-03
               6     14.0797E-03     3.44169E-15    -8.34811E+06     95.7219E+06     83.7106E+06     3.12435E+06    -590.757E-03     824.348E-03    -233.591E-03     248.763E-03    -597.159E-03     830.960E-03    -233.299E-03     199.444E-03
               7     715.941E-06     84.5866E-03    -133.201E+06    -275.815E+06    -130.667E+06     350.555E+03    -229.034E-03     457.961E-03    -228.927E-03     22.9275E-03    -229.191E-03     457.045E-03    -228.987E-03     20.2485E-03
               8     1.43192E-03     84.6305E-03    -129.778E+06    -261.623E+06    -120.503E+06     117.918E+03    -229.257E-03     458.210E-03    -228.953E-03     42.3865E-03    -229.601E-03     457.514E-03    -228.988E-03     37.4240E-03
               9     2.14745E-03     84.7015E-03    -124.510E+06    -242.195E+06    -105.500E+06     91.1373E+03    -229.619E-03     458.608E-03    -228.989E-03     62.4547E-03    -230.273E-03     458.266E-03    -228.985E-03     55.0518E-03
              10     2.86333E-03     84.7997E-03    -117.654E+06    -223.869E+06    -86.8161E+06    -111.693E+03    -230.134E-03     459.178E-03    -229.044E-03     82.5849E-03    -231.219E-03     459.303E-03    -228.983E-03     72.6222E-03
              11     3.57911E-03     84.9256E-03    -109.682E+06    -196.587E+06    -67.6920E+06    -225.902E+03    -230.747E-03     459.836E-03    -229.089E-03     102.597E-03    -232.409E-03     460.607E-03    -228.983E-03     89.9640E-03
              12     4.29491E-03     85.0779E-03    -100.992E+06    -160.115E+06    -48.1454E+06     47.4028E+03    -231.319E-03     460.434E-03    -229.115E-03     122.223E-03    -233.708E-03     462.035E-03    -228.977E-03     106.844E-03
              13     5.01068E-03     85.2559E-03    -91.7381E+06    -129.299E+06    -28.2336E+06     256.989E+03    -231.882E-03     461.015E-03    -229.133E-03     141.543E-03    -235.138E-03     463.568E-03    -228.954E-03     123.344E-03
              14     5.72674E-03     85.4596E-03    -82.1647E+06    -94.0850E+06    -8.61376E+06     446.758E+03    -232.537E-03     461.668E-03    -229.131E-03     160.484E-03    -236.813E-03     465.344E-03    -228.918E-03     139.422E-03
              15     6.44299E-03     85.6877E-03    -73.1380E+06    -52.4385E+06     10.4047E+06     603.147E+03    -233.271E-03     462.389E-03    -229.118E-03     178.674E-03    -238.717E-03     467.359E-03    -228.884E-03     154.749E-03
              16     7.15896E-03     85.9396E-03    -64.1406E+06    -12.9106E+06     27.7247E+06     303.085E+03    -233.953E-03     463.058E-03    -229.105E-03     195.879E-03    -240.662E-03     469.413E-03    -228.855E-03     169.198E-03
              17     7.87513E-03     86.2138E-03    -55.0783E+06     10.9707E+06     39.9902E+06    -80.9818E+03    -234.556E-03     463.645E-03    -229.088E-03     211.284E-03    -242.507E-03     471.323E-03    -228.824E-03     182.141E-03
              18     8.59114E-03     86.5062E-03    -46.9689E+06     20.0423E+06     47.6053E+06    -221.943E+03    -235.006E-03     464.076E-03    -229.070E-03     223.368E-03    -244.052E-03     472.888E-03    -228.793E-03     192.218E-03
              19     9.30754E-03     86.8115E-03    -40.2988E+06     27.4765E+06     54.7317E+06     216.430E+03    -235.223E-03     464.279E-03    -229.055E-03     231.086E-03    -245.093E-03     473.944E-03    -228.763E-03     198.552E-03
              20     10.0236E-03     87.1242E-03    -34.0408E+06     33.9781E+06     63.2063E+06     591.619E+03    -235.105E-03     464.158E-03    -229.052E-03     233.663E-03    -245.394E-03     474.263E-03    -228.736E-03     200.459E-03
              21     10.7399E-03     87.4356E-03    -26.6980E+06     41.7748E+06     73.0974E+06     802.298E+03    -234.493E-03     463.546E-03    -229.052E-03     230.305E-03    -244.720E-03     473.614E-03    -228.708E-03     197.176E-03
              22     11.4570E-03     87.7372E-03    -18.6834E+06     50.8144E+06     78.8843E+06     589.815E+03    -233.606E-03     462.628E-03    -229.022E-03     223.014E-03    -243.388E-03     472.294E-03    -228.674E-03     190.539E-03
              23     12.1750E-03     88.0277E-03    -12.6715E+06     56.3734E+06     79.0440E+06     567.226E+03    -232.663E-03     461.628E-03    -228.965E-03     209.289E-03    -241.407E-03     470.298E-03    -228.633E-03     178.490E-03
              24     12.8881E-03     88.2894E-03    -7.92127E+06     62.2588E+06     80.9519E+06     379.703E+03    -232.398E-03     461.323E-03    -228.925E-03     198.939E-03    -240.240E-03     469.124E-03    -228.599E-03     169.648E-03
              25     13.6044E-03     88.5514E-03    -3.38854E+06     64.2381E+06     83.5155E+06     176.355E+03    -231.580E-03     460.495E-03    -228.915E-03     161.753E-03    -237.009E-03     465.897E-03    -228.585E-03     138.063E-03
              26     14.3217E-03     90.2158E-03    -3.26194E+06     64.0856E+06     80.8603E+06     934.972E+03    -230.929E-03     459.833E-03    -228.904E-03     124.762E-03    -234.110E-03     462.996E-03    -228.588E-03     106.350E-03
              27     14.3207E-03     91.7148E-03    -1.29566E+06     64.7786E+06     81.6590E+06    -482.271E+03    -230.034E-03     458.976E-03    -228.942E-03     124.546E-03    -233.205E-03     462.136E-03    -228.626E-03     106.163E-03
              28     14.3222E-03     93.2123E-03    -2.19312E+06     62.5862E+06     82.5845E+06    -563.021E+03    -229.242E-03     458.198E-03    -228.956E-03     125.973E-03    -232.426E-03     461.357E-03    -228.631E-03     107.664E-03
              29     14.3212E-03     94.7085E-03    -3.30437E+06     60.9764E+06     82.5047E+06    -177.189E+03    -230.002E-03     458.941E-03    -228.939E-03     125.037E-03    -233.184E-03     462.089E-03    -228.610E-03     106.686E-03
              30     14.3217E-03     96.2079E-03    -1.31903E+06     61.8221E+06     83.6614E+06     233.382E+03    -230.201E-03     459.157E-03    -228.955E-03     124.180E-03    -233.395E-03     462.322E-03    -228.625E-03     105.679E-03
              31     14.3205E-03     97.7051E-03    -3.12550E+06     62.4236E+06     80.9564E+06     467.886E+03    -230.253E-03     459.211E-03    -228.958E-03     124.513E-03    -233.439E-03     462.372E-03    -228.639E-03     106.074E-03
              32     14.3216E-03     99.2048E-03    -2.21473E+06     63.8387E+06     82.5918E+06    -745.210E+03    -230.307E-03     459.260E-03    -228.953E-03     124.455E-03    -233.480E-03     462.412E-03    -228.630E-03     106.025E-03
              33     14.3210E-03     100.702E-03    -2.35249E+06     63.9114E+06     84.3183E+06     430.388E+03    -229.689E-03     458.663E-03    -228.974E-03     125.025E-03    -232.864E-03     461.812E-03    -228.642E-03     106.729E-03
              34     14.3213E-03     102.205E-03    -2.30391E+06     65.1865E+06     83.8290E+06     364.984E+03    -229.776E-03     458.784E-03    -229.008E-03     125.970E-03    -232.957E-03     461.945E-03    -228.680E-03     107.702E-03
              35     14.3192E-03     103.696E-03    -1.40933E+06     66.8675E+06     84.0985E+06     784.171E+03    -229.474E-03     458.483E-03    -229.009E-03     125.062E-03    -232.616E-03     461.614E-03    -228.684E-03     106.895E-03
              36     14.3234E-03     105.195E-03    -2.09907E+06     70.3976E+06     83.9479E+06     1.33441E+06    -229.561E-03     458.514E-03    -228.953E-03     125.070E-03    -232.715E-03     461.667E-03    -228.633E-03     106.888E-03
              37     14.3198E-03     106.695E-03    -2.30113E+06     74.0212E+06     84.4951E+06     521.845E+03    -230.250E-03     459.205E-03    -228.956E-03     124.163E-03    -233.447E-03     462.412E-03    -228.637E-03     105.734E-03
              38     14.3213E-03     108.193E-03    -2.29280E+06     76.9890E+06     85.1920E+06     732.046E+03    -229.368E-03     458.335E-03    -228.966E-03     126.330E-03    -232.613E-03     461.598E-03    -228.649E-03     107.897E-03
              39     14.3227E-03     109.687E-03    -1.24148E+06     78.3286E+06     87.8510E+06    -872.432E+03    -229.945E-03     458.868E-03    -228.923E-03     126.119E-03    -233.161E-03     462.103E-03    -228.595E-03     107.726E-03
              40     14.3205E-03     111.192E-03    -2.83314E+06     73.4492E+06     85.4713E+06    -605.980E+03    -230.867E-03     459.803E-03    -228.936E-03     125.300E-03    -234.014E-03     462.953E-03    -228.611E-03     107.127E-03
              41     14.3213E-03     112.688E-03    -1.94653E+06     70.4380E+06     86.4117E+06    -810.718E+03    -229.812E-03     458.799E-03    -228.987E-03     126.069E-03    -232.997E-03     461.976E-03    -228.654E-03     107.791E-03
              42     14.3211E-03     114.182E-03    -1.93750E+06     70.5472E+06     86.4998E+06     660.044E+03    -229.303E-03     458.276E-03    -228.973E-03     125.044E-03    -232.507E-03     461.473E-03    -228.640E-03     106.693E-03
              43     14.3220E-03     115.683E-03    -2.91657E+06     73.6200E+06     85.0106E+06     550.859E+03    -229.829E-03     458.757E-03    -228.928E-03     125.858E-03    -233.048E-03     461.980E-03    -228.605E-03     107.475E-03
              44     14.3217E-03     117.180E-03    -2.98989E+06     73.4658E+06     86.3914E+06    -53.3224E+03    -230.066E-03     458.999E-03    -228.933E-03     124.554E-03    -233.243E-03     462.176E-03    -228.603E-03     106.274E-03
              45     14.3212E-03     118.678E-03    -435.035E+03     75.2666E+06     87.3004E+06     92.1187E+03    -228.987E-03     457.906E-03    -228.919E-03     124.495E-03    -232.141E-03     461.073E-03    -228.591E-03     106.302E-03
              46     14.3248E-03     120.169E-03    -1.34238E+06     78.1132E+06     87.8775E+06     532.984E+03    -229.549E-03     458.422E-03    -228.872E-03     123.971E-03    -232.731E-03     461.621E-03    -228.544E-03     105.655E-03
              47     14.3198E-03     121.677E-03    -3.37214E+06     78.9143E+06     87.5113E+06     843.970E+03    -231.463E-03     460.379E-03    -228.915E-03     123.648E-03    -234.617E-03     463.547E-03    -228.587E-03     105.432E-03
              48     14.3210E-03     123.174E-03    -1.71255E+06     80.1660E+06     87.3648E+06    -213.317E+03    -230.010E-03     458.986E-03    -228.976E-03     126.088E-03    -233.202E-03     462.203E-03    -228.653E-03     107.847E-03
              49     14.3222E-03     124.669E-03    -2.97850E+06     78.7370E+06     86.2845E+06     219.930E+03    -228.686E-03     457.668E-03    -228.981E-03     125.059E-03    -231.893E-03     460.894E-03    -228.660E-03     106.798E-03
              50     14.3200E-03     126.167E-03    -2.60251E+06     78.8792E+06     86.2634E+06    -996.735E+03    -228.873E-03     457.855E-03    -228.983E-03     123.895E-03    -232.048E-03     461.051E-03    -228.662E-03     105.655E-03
              51     14.3227E-03     127.659E-03    -2.76243E+06     78.5458E+06     87.0910E+06     401.683E+03    -229.037E-03     458.009E-03    -228.972E-03     123.765E-03    -232.201E-03     461.189E-03    -228.647E-03     105.604E-03
              52     14.3200E-03     129.163E-03    -2.03576E+06     79.0262E+06     88.5427E+06    -329.945E+03    -229.622E-03     458.588E-03    -228.966E-03     124.071E-03    -232.771E-03     461.754E-03    -228.635E-03     105.928E-03
              53     14.3226E-03     130.656E-03    -1.74627E+06     75.1845E+06     88.4618E+06    -1.50408E+06    -229.343E-03     458.325E-03    -228.982E-03     124.978E-03    -232.498E-03     461.485E-03    -228.646E-03     106.819E-03
              54     14.3201E-03     132.159E-03    -3.14754E+06     72.9842E+06     86.8616E+06     1.58290E+06    -228.942E-03     457.943E-03    -229.001E-03     126.040E-03    -232.104E-03     461.101E-03    -228.668E-03     108.049E-03
              55     14.3220E-03     133.651E-03    -1.40224E+06     76.5748E+06     87.9916E+06    -295.022E+03    -227.719E-03     456.702E-03    -228.983E-03     126.802E-03    -230.927E-03     459.921E-03    -228.652E-03     108.635E-03
              56     14.3234E-03     135.142E-03    -2.41516E+06     78.9048E+06     88.7620E+06     741.916E+03    -227.389E-03     456.349E-03    -228.960E-03     124.229E-03    -230.579E-03     459.553E-03    -228.627E-03     106.114E-03
              57     14.3203E-03     136.643E-03    -2.99635E+06     83.3904E+06     88.9288E+06     792.111E+03    -227.571E-03     456.562E-03    -228.991E-03     123.327E-03    -230.722E-03     459.741E-03    -228.663E-03     105.372E-03
              58     14.3227E-03     138.129E-03    -2.94545E+06     82.1414E+06     89.7756E+06    -670.256E+03    -226.095E-03     455.106E-03    -229.011E-03     124.396E-03    -229.233E-03     458.264E-03    -228.677E-03     106.622E-03
              59     14.3224E-03     139.629E-03    -174.268E+03     84.5486E+06     93.4908E+06     1.98557E+06    -224.761E-03     453.715E-03    -228.954E-03     126.075E-03    -227.914E-03     456.897E-03    -228.609E-03     108.429E-03
              60     14.3265E-03     141.110E-03    -2.59353E+06     86.7626E+06     94.4782E+06    -217.099E+03    -223.855E-03     452.674E-03    -228.818E-03     126.172E-03    -227.053E-03     455.896E-03    -228.468E-03     108.409E-03
              61     14.3277E-03     142.602E-03    -3.30060E+06     86.1496E+06     95.1243E+06     1.38713E+06    -222.619E-03     451.265E-03    -228.646E-03     126.765E-03    -225.803E-03     454.467E-03    -228.290E-03     109.240E-03
              62     14.3330E-03     144.091E-03    -2.86581E+06     89.3256E+06     98.3293E+06    -596.485E+03    -219.797E-03     448.189E-03    -228.393E-03     129.632E-03    -223.056E-03     451.471E-03    -228.026E-03     112.058E-03
              63     14.3402E-03     145.560E-03    -1.54786E+06     89.0203E+06     100.148E+06     297.296E+03    -219.323E-03     447.259E-03    -227.936E-03     129.107E-03    -222.565E-03     450.521E-03    -227.562E-03     111.595E-03
              64     14.3471E-03     147.050E-03    -2.04346E+06     95.2573E+06     104.136E+06     2.89091E+06    -221.874E-03     449.209E-03    -227.335E-03     130.845E-03    -225.113E-03     452.477E-03    -226.949E-03     113.353E-03
              65     14.3570E-03     148.538E-03    -2.07961E+06     101.601E+06     105.908E+06     1.62901E+06    -223.860E-03     450.499E-03    -226.639E-03     137.152E-03    -227.257E-03     453.942E-03    -226.253E-03     119.181E-03
              66     14.3670E-03     150.029E-03    -3.61869E+06     104.229E+06     106.523E+06     393.387E+03    -227.578E-03     453.384E-03    -225.807E-03     143.143E-03    -231.148E-03     457.004E-03    -225.420E-03     124.514E-03
              67     14.3789E-03     151.524E-03    -1.53676E+06     109.618E+06     112.651E+06     2.08499E+06    -234.802E-03     459.679E-03    -224.876E-03     147.253E-03    -238.469E-03     463.403E-03    -224.470E-03     127.963E-03
              68     14.3884E-03     153.036E-03    -5.32156E+06     111.283E+06     115.846E+06     2.56019E+06    -246.360E-03     470.329E-03    -223.969E-03     152.188E-03    -250.095E-03     474.107E-03    -223.544E-03     132.169E-03
              69     14.3939E-03     154.572E-03    -3.13789E+06     113.379E+06     119.755E+06    -736.293E+03    -259.723E-03     482.886E-03    -223.163E-03     159.966E-03    -263.561E-03     486.769E-03    -222.724E-03     138.894E-03
              70     14.4020E-03     156.118E-03    -3.33979E+06     115.505E+06     122.592E+06     1.86597E+06    -273.829E-03     496.316E-03    -222.487E-03     164.594E-03    -277.752E-03     500.285E-03    -222.036E-03     142.523E-03
              71     14.4002E-03     157.690E-03    -5.83395E+06     109.429E+06     119.296E+06    -1.99424E+06    -289.643E-03     511.611E-03    -221.968E-03     167.587E-03    -293.574E-03     515.567E-03    -221.522E-03     144.462E-03
              72     14.4037E-03     159.282E-03    -2.19037E+06     105.190E+06     113.707E+06    -4.22615E+06    -303.250E-03     524.840E-03    -221.589E-03     171.266E-03    -307.187E-03     528.816E-03    -221.170E-03     147.153E-03
              73     14.4007E-03     160.891E-03     11.3165E+03     108.942E+06     111.565E+06     3.73306E+06    -314.606E-03     535.915E-03    -221.309E-03     174.794E-03    -318.543E-03     539.918E-03    -220.909E-03     150.203E-03
              74     14.4037E-03     162.512E-03    -7.00455E+06     99.3807E+06     106.675E+06    -6.38649E+06    -324.468E-03     545.547E-03    -221.079E-03     176.813E-03    -328.432E-03     549.532E-03    -220.680E-03     151.370E-03
              75     14.4011E-03     164.147E-03     3.60294E+06     90.0823E+06     110.112E+06     2.79051E+06    -331.488E-03     552.402E-03    -220.914E-03     177.487E-03    -335.407E-03     556.336E-03    -220.499E-03     151.592E-03
              76     14.4046E-03     165.791E-03    -9.87172E+06     61.3239E+06     104.261E+06    -7.41908E+06    -335.456E-03     556.270E-03    -220.815E-03     176.924E-03    -339.381E-03     560.075E-03    -220.368E-03     150.562E-03
              77     14.4023E-03     167.427E-03     4.96762E+06     49.3347E+06     120.937E+06    -3.75228E+06    -335.980E-03     556.780E-03    -220.800E-03     172.483E-03    -339.788E-03     560.428E-03    -220.274E-03     146.025E-03
              78     14.4073E-03     169.070E-03    -7.72182E+06     43.6444E+06     132.553E+06      729.14E+03    -332.008E-03     552.904E-03    -220.896E-03     169.988E-03    -335.716E-03     556.358E-03    -220.286E-03     144.658E-03
              79     14.4039E-03     170.711E-03    -777.924E+03     28.3063E+06     151.965E+06    -5.02971E+06    -319.219E-03     540.389E-03    -221.170E-03     171.689E-03    -322.726E-03     543.553E-03    -220.450E-03     148.416E-03
              80     14.4139E-03     172.300E-03     1.93746E+06     31.0877E+06     173.095E+06     5.44997E+06    -284.568E-03     506.458E-03    -221.890E-03     170.068E-03    -288.085E-03     509.594E-03    -221.072E-03     149.398E-03
              81     14.4080E-03     173.844E-03    -2.85345E+06     27.9307E+06     158.855E+06    -807.451E+03    -217.645E-03     441.049E-03    -223.403E-03     202.086E-03    -221.690E-03     444.734E-03    -222.646E-03     185.030E-03
              82     14.4211E-03     175.281E-03     15.7429E+06     53.0660E+06     145.279E+06    -19.2840E+06    -33.0690E-03     264.193E-03    -231.124E-03     122.728E-03    -35.2032E-03     266.541E-03    -230.497E-03     115.212E-03
              83     13.1272E-03     175.961E-03    -17.1234E+06    -35.7355E+06     95.8308E+06    -11.0559E+06     68.9891E-03     175.419E-03    -244.409E-03    -37.9146E-03     68.9733E-03     175.343E-03    -243.853E-03    -38.3135E-03
              84     12.3242E-03     175.478E-03    -4.96233E+06    -32.2792E+06     117.622E+06    -3.44601E+06     36.8482E-03     218.922E-03    -255.770E-03    -61.5071E-03     36.6350E-03     218.766E-03    -255.128E-03    -62.1720E-03
              85     11.4765E-03     174.951E-03    -13.2504E+06     6.48389E+06     151.674E+06     -9.2611E+06     45.0307E-03     220.279E-03    -265.310E-03    -60.1890E-03     44.7175E-03     220.354E-03    -264.541E-03    -61.1294E-03
              86     10.6618E-03     174.415E-03    -4.25624E+06     -9.8798E+06     150.166E+06    -5.82629E+06     41.6158E-03     232.149E-03    -273.765E-03    -110.215E-03     41.4920E-03     231.970E-03    -272.994E-03    -111.450E-03
              87     9.89429E-03     173.862E-03     -6.8291E+06     5.54246E+06     146.832E+06    -13.1405E+06     34.0814E-03     245.955E-03    -280.036E-03    -166.840E-03     34.1524E-03     245.587E-03    -279.300E-03    -168.654E-03
              88     9.15767E-03     173.314E-03    -11.0886E+06    -9.97940E+06     132.389E+06    -13.4136E+06     23.7872E-03     260.037E-03    -283.824E-03    -225.443E-03     24.1956E-03     259.239E-03    -283.132E-03    -227.773E-03
              89     8.45945E-03     172.774E-03    -11.4835E+06    -6.63371E+06     121.494E+06    -18.4063E+06     10.2916E-03     274.730E-03    -285.021E-03    -283.394E-03     11.0395E-03     273.510E-03    -284.388E-03    -286.304E-03
              90     7.78802E-03     172.258E-03    -18.0669E+06    -14.4652E+06     103.781E+06    -16.7709E+06    -7.25466E-03     291.054E-03    -283.800E-03    -336.023E-03    -6.17854E-03     289.375E-03    -283.234E-03    -339.442E-03
              91     7.13708E-03     171.772E-03    -21.5737E+06    -11.1464E+06     89.6690E+06    -22.1230E+06    -28.6824E-03     309.214E-03    -280.531E-03    -381.637E-03    -27.3472E-03     307.162E-03    -280.035E-03    -385.645E-03
              92     6.49981E-03     171.327E-03    -25.7050E+06    -16.3279E+06     74.7962E+06    -24.4633E+06    -54.3396E-03     330.020E-03    -275.680E-03    -413.620E-03    -52.8684E-03     327.672E-03    -275.245E-03    -418.126E-03
              93     5.87156E-03     170.922E-03    -27.2389E+06    -18.6595E+06     62.8022E+06    -28.2996E+06    -82.4609E-03     352.238E-03    -269.778E-03    -428.669E-03    -80.9922E-03     349.773E-03    -269.397E-03    -433.586E-03
              94     5.24248E-03     170.565E-03    -27.6419E+06    -23.0793E+06     51.0457E+06    -28.8918E+06    -111.310E-03     374.673E-03    -263.363E-03    -426.151E-03    -109.979E-03     372.234E-03    -263.034E-03    -431.286E-03
              95     4.61233E-03     170.251E-03    -27.0887E+06    -23.7642E+06     41.1891E+06    -28.9082E+06    -139.406E-03     396.270E-03    -256.864E-03    -405.499E-03    -138.339E-03     394.016E-03    -256.584E-03    -410.640E-03
              96     3.97597E-03     169.983E-03    -25.8024E+06    -24.6679E+06     30.2312E+06    -28.1061E+06    -164.342E-03     415.007E-03    -250.665E-03    -368.750E-03    -163.580E-03     413.035E-03    -250.441E-03    -373.710E-03
              97     3.33102E-03     169.757E-03    -22.6794E+06    -21.3102E+06     20.9210E+06    -27.3594E+06    -184.951E-03     430.079E-03    -245.127E-03    -320.533E-03    -184.494E-03     428.445E-03    -244.959E-03    -325.144E-03
              98     2.67620E-03     169.574E-03    -20.4670E+06    -17.9380E+06     10.6742E+06    -23.6225E+06    -200.907E-03     441.407E-03    -240.500E-03    -265.407E-03    -200.758E-03     440.125E-03    -240.391E-03    -269.379E-03
              99     2.01304E-03     169.431E-03    -18.0551E+06    -15.2732E+06    -53.2368E+03    -20.3545E+06    -212.324E-03     449.399E-03    -237.076E-03    -206.453E-03    -212.430E-03     448.425E-03    -237.028E-03    -209.654E-03
             100     1.34124E-03     169.329E-03    -16.8292E+06    -14.5159E+06    -9.78358E+06    -15.9611E+06    -220.813E-03     456.008E-03    -235.195E-03    -146.290E-03    -221.135E-03     455.248E-03    -235.198E-03    -148.600E-03
             101     666.547E-06     169.268E-03    -21.2382E+06    -21.3705E+06    -28.5084E+06    -11.8459E+06    -226.698E-03     463.065E-03    -236.367E-03    -88.0333E-03    -227.231E-03     462.356E-03    -236.447E-03    -89.5440E-03
             102     4.32061E-06     167.727E-03    -70.1656E+06    -39.9342E+06    -65.8342E+06    -6.36229E+06    -188.793E-03     380.821E-03    -192.027E-03    -31.3806E-03    -189.345E-03     380.421E-03    -192.197E-03    -32.1112E-03
             103    -1.51722E-06     166.455E-03    -145.654E+06    -82.2038E+06    -141.228E+06    -10.4439E+06    -129.607E-03     258.153E-03    -128.546E-03     3.39510E-03    -130.073E-03     258.098E-03    -128.922E-03     3.06941E-03
             104     889.006E-09     165.274E-03    -222.914E+06    -140.986E+06    -225.887E+06    -12.9256E+06    -104.110E-03     207.013E-03    -102.902E-03     14.0250E-03    -104.705E-03     206.950E-03    -103.504E-03     13.7635E-03
             105     1.71537E-06     164.130E-03    -298.269E+06    -189.957E+06    -296.494E+06    -10.2396E+06    -99.3345E-03     194.752E-03    -95.4178E-03     21.3127E-03    -100.122E-03     194.666E-03    -96.1924E-03     21.1570E-03
             106     1.88090E-06     162.975E-03    -292.221E+06    -221.241E+06    -288.705E+06    -4.11667E+06    -107.227E-03     210.259E-03    -103.031E-03     25.3664E-03    -107.956E-03     209.989E-03    -103.730E-03     25.3010E-03
             107     1.10744E-06     161.793E-03    -207.809E+06    -221.654E+06    -206.235E+06     3.68424E+06    -123.265E-03     243.836E-03    -120.571E-03     27.0290E-03    -123.701E-03     243.314E-03    -120.979E-03     27.0362E-03
             108     17.8407E-09     160.559E-03    -153.164E+06    -208.710E+06    -152.599E+06     1.77802E+06    -144.288E-03     287.281E-03    -142.993E-03     26.2182E-03    -144.555E-03     286.663E-03    -143.231E-03     26.1092E-03
             109     733.518E-09     159.269E-03    -134.545E+06    -207.085E+06    -134.953E+06    -888.212E+03    -167.054E-03     332.676E-03    -165.623E-03     23.8504E-03    -167.259E-03     332.021E-03    -165.802E-03     23.5084E-03
             110     573.977E-09     157.915E-03    -117.030E+06    -214.670E+06    -126.846E+06    -1.91688E+06    -187.311E-03     373.070E-03    -185.759E-03     21.5517E-03    -187.427E-03     372.350E-03    -185.913E-03     20.9664E-03
             111     240.441E-09     156.514E-03    -117.048E+06    -227.258E+06    -117.315E+06    -2.71073E+06    -203.145E-03     405.656E-03    -202.511E-03     19.4496E-03    -203.254E-03     404.867E-03    -202.599E-03     18.6315E-03
             112    -223.468E-09     155.072E-03    -125.837E+06    -243.049E+06    -126.706E+06    -2.27285E+06    -215.348E-03     430.724E-03    -215.376E-03     17.6169E-03    -215.464E-03     429.889E-03    -215.475E-03     16.5424E-03
             113     66.6806E-09     153.597E-03    -132.849E+06    -250.930E+06    -133.722E+06    -94.2979E+03    -224.514E-03     448.593E-03    -224.079E-03     16.1219E-03    -224.643E-03     447.744E-03    -224.191E-03     14.8592E-03
             114     619.320E-09     152.102E-03    -137.647E+06    -256.045E+06    -137.501E+06    -1.45399E+06    -230.426E-03     459.896E-03    -229.470E-03     15.1667E-03    -230.566E-03     459.037E-03    -229.587E-03     13.7097E-03
             115    -11.7971E-09     150.596E-03    -140.685E+06    -264.606E+06    -141.875E+06    -1.49274E+06    -233.425E-03     466.091E-03    -232.666E-03     14.3101E-03    -233.562E-03     465.202E-03    -232.788E-03     12.7303E-03
             116     412.696E-09     149.081E-03    -144.860E+06    -273.497E+06     -144.15E+06    -1.55372E+06    -234.661E-03     468.771E-03    -234.110E-03     14.0524E-03    -234.803E-03     467.847E-03    -234.224E-03     12.4252E-03
             117    -81.6818E-09     147.567E-03    -146.249E+06    -281.064E+06    -147.161E+06    -997.175E+03    -235.056E-03     469.642E-03    -234.586E-03     13.8693E-03    -235.191E-03     468.688E-03    -234.703E-03     12.1978E-03
             118     355.948E-09     146.051E-03    -141.241E+06    -285.900E+06    -140.983E+06    -152.811E+03    -234.776E-03     469.196E-03    -234.420E-03     13.1182E-03    -234.887E-03     468.200E-03    -234.506E-03     11.4550E-03
             119    -166.438E-09     144.538E-03    -136.777E+06    -292.198E+06    -136.708E+06    -1.57570E+06    -233.879E-03     467.680E-03    -233.800E-03     12.9833E-03    -233.966E-03     466.640E-03    -233.862E-03     11.2863E-03
             120     48.2067E-09     143.028E-03    -138.702E+06    -304.577E+06    -138.351E+06    -2.79628E+06    -233.009E-03     466.078E-03    -233.068E-03     13.1649E-03    -233.085E-03     464.982E-03    -233.117E-03     11.4422E-03
             121    -54.3074E-09     141.518E-03    -140.216E+06    -318.547E+06    -140.941E+06    -1.69390E+06    -232.519E-03     464.535E-03    -232.016E-03     13.2539E-03    -232.578E-03     463.375E-03    -232.056E-03     11.5838E-03
             122     725.361E-09     140.013E-03    -137.631E+06    -323.274E+06    -137.494E+06     245.713E+03    -232.096E-03     463.092E-03    -230.996E-03     13.3169E-03    -232.140E-03     461.899E-03    -231.015E-03     11.7053E-03
             123     127.493E-09     138.509E-03    -133.573E+06    -319.973E+06    -134.447E+06     659.253E+03    -231.417E-03     462.085E-03    -230.668E-03     13.4048E-03    -231.449E-03     460.898E-03    -230.683E-03     11.8057E-03
             124     31.5450E-09     137.007E-03    -135.969E+06    -312.695E+06    -136.086E+06     1.68836E+06    -230.868E-03     461.372E-03    -230.505E-03     13.3186E-03    -230.921E-03     460.228E-03    -230.535E-03     11.7100E-03
             125     279.145E-09     135.504E-03    -137.050E+06    -305.656E+06    -136.392E+06     877.217E+03    -230.247E-03     460.512E-03    -230.265E-03     13.3994E-03    -230.315E-03     459.405E-03    -230.305E-03     11.8167E-03
             126    -659.108E-09     134.005E-03    -136.629E+06    -303.318E+06    -136.507E+06    -287.862E+03    -229.831E-03     459.837E-03    -230.006E-03     13.1396E-03    -229.899E-03     458.741E-03    -230.051E-03     11.5586E-03
             127     741.837E-09     132.504E-03    -132.969E+06    -305.368E+06    -132.708E+06    -597.815E+03    -230.061E-03     459.702E-03    -229.642E-03     13.2565E-03    -230.114E-03     458.586E-03    -229.670E-03     11.6312E-03
             128    -270.136E-09     131.004E-03    -133.923E+06    -307.003E+06    -134.804E+06     347.647E+03    -229.766E-03     459.308E-03    -229.542E-03     13.5710E-03    -229.818E-03     458.187E-03    -229.576E-03     11.9977E-03
             129     58.6578E-09     129.505E-03    -133.553E+06    -304.559E+06    -132.665E+06     332.118E+03    -229.398E-03     458.547E-03    -229.149E-03     13.3560E-03    -229.455E-03     457.434E-03    -229.177E-03     11.7872E-03
             130     466.992E-09     128.008E-03    -133.455E+06    -304.083E+06    -134.439E+06     170.153E+03    -229.477E-03     458.221E-03    -228.744E-03     13.6535E-03    -229.532E-03     457.114E-03    -228.782E-03     12.0550E-03
             131    -5.37633E-09     126.510E-03    -138.580E+06    -298.517E+06    -138.691E+06     1.40308E+06    -229.327E-03     458.454E-03    -229.128E-03     13.8029E-03    -229.410E-03     457.389E-03    -229.187E-03     12.2048E-03
             132    -226.118E-09     125.012E-03    -134.922E+06    -291.536E+06    -134.038E+06     22.8445E+03    -229.306E-03     458.506E-03    -229.200E-03     13.4694E-03    -229.387E-03     457.463E-03    -229.252E-03     11.8923E-03
             133     567.226E-09     123.513E-03    -135.181E+06    -296.689E+06    -135.361E+06    -1.28993E+06    -229.293E-03     458.506E-03    -229.213E-03     13.9127E-03    -229.367E-03     457.441E-03    -229.264E-03     12.3031E-03
             134    -850.397E-09     122.016E-03    -137.013E+06    -298.565E+06    -137.250E+06     941.970E+03    -229.027E-03     458.592E-03    -229.565E-03     13.6165E-03    -229.105E-03     457.523E-03    -229.619E-03     12.0033E-03
             135     312.105E-09     120.516E-03    -136.691E+06    -290.901E+06    -136.020E+06     1.19538E+06    -229.290E-03     458.231E-03    -228.941E-03     13.1918E-03    -229.378E-03     457.196E-03    -229.001E-03     11.6178E-03
             136     685.281E-09     119.020E-03    -135.756E+06    -289.244E+06    -135.939E+06    -359.935E+03    -229.735E-03     458.175E-03    -228.441E-03     13.8373E-03    -229.821E-03     457.148E-03    -228.504E-03     12.2550E-03
             137     112.301E-09     117.521E-03    -137.984E+06    -292.183E+06    -138.256E+06    -361.026E+03    -229.580E-03     458.311E-03    -228.731E-03     13.5923E-03    -229.669E-03     457.275E-03    -228.799E-03     12.0252E-03
             138     248.944E-09     116.024E-03    -137.759E+06    -291.597E+06    -138.446E+06     366.367E+03    -229.415E-03     458.175E-03    -228.761E-03     13.4940E-03    -229.504E-03     457.143E-03    -228.830E-03     11.8950E-03
             139     269.283E-09     114.526E-03    -138.500E+06    -288.608E+06    -138.251E+06     338.208E+03    -229.244E-03     458.110E-03    -228.866E-03     13.7679E-03    -229.342E-03     457.093E-03    -228.938E-03     12.1719E-03
             140    -297.401E-09     113.028E-03    -137.068E+06    -287.489E+06    -136.891E+06    -12.0292E+03    -229.085E-03     458.145E-03    -229.060E-03     13.7589E-03    -229.179E-03     457.130E-03    -229.129E-03     12.1648E-03
             141     308.801E-09     111.530E-03    -137.826E+06    -288.425E+06    -137.882E+06     13.0408E+03    -229.376E-03     458.389E-03    -229.013E-03     13.7679E-03    -229.470E-03     457.371E-03    -229.085E-03     12.1823E-03
             142     143.502E-09     110.031E-03    -136.600E+06    -286.872E+06    -136.663E+06     572.204E+03    -229.662E-03     458.541E-03    -228.879E-03     13.6561E-03    -229.755E-03     457.528E-03    -228.948E-03     12.0768E-03
             143     472.316E-09     108.534E-03    -137.391E+06    -286.109E+06    -137.518E+06    -25.1642E+03    -229.489E-03     458.350E-03    -228.861E-03     13.5200E-03    -229.585E-03     457.342E-03    -228.935E-03     11.9341E-03
             144    -242.654E-09     107.036E-03    -136.468E+06    -286.473E+06    -136.370E+06    -126.529E+03    -229.410E-03     458.498E-03    -229.088E-03     13.5296E-03    -229.502E-03     457.485E-03    -229.157E-03     11.9794E-03
             145     421.723E-09     105.537E-03    -135.225E+06    -287.327E+06    -135.480E+06    -544.202E+03    -229.416E-03     458.643E-03    -229.227E-03     13.5176E-03    -229.503E-03     457.624E-03    -229.292E-03     11.9275E-03
             146    -384.332E-09     104.039E-03    -136.888E+06    -286.403E+06    -137.358E+06     489.513E+03    -229.215E-03     458.382E-03    -229.167E-03     13.7729E-03    -229.310E-03     457.374E-03    -229.240E-03     12.1405E-03
             147     358.342E-09     102.540E-03    -135.142E+06    -282.721E+06    -134.277E+06     416.284E+03    -229.227E-03     458.128E-03    -228.901E-03     13.7770E-03    -229.323E-03     457.131E-03    -228.966E-03     12.1734E-03
             148     89.5935E-09     101.043E-03    -134.746E+06    -282.780E+06    -135.272E+06    -310.651E+03    -229.427E-03     458.081E-03    -228.655E-03     13.7132E-03    -229.518E-03     457.084E-03    -228.726E-03     12.1295E-03
             149     508.846E-09     99.5460E-03    -135.752E+06    -282.827E+06    -135.560E+06     521.014E+03    -229.572E-03     458.111E-03    -228.539E-03     13.2768E-03    -229.668E-03     457.115E-03    -228.610E-03     11.7050E-03
             150     325.125E-09     98.0481E-03    -136.274E+06    -283.601E+06    -136.322E+06    -687.622E+03    -229.489E-03     458.174E-03    -228.685E-03     13.7385E-03    -229.586E-03     457.177E-03    -228.758E-03     12.1308E-03
             151    -62.2364E-09     96.5494E-03    -135.980E+06    -283.860E+06    -136.520E+06     601.966E+03    -229.222E-03     458.199E-03    -228.977E-03     13.6890E-03    -229.316E-03     457.200E-03    -229.051E-03     12.1051E-03
             152     91.6128E-09     95.0526E-03    -135.616E+06    -282.251E+06    -134.738E+06    -44.8172E+03    -229.016E-03     458.031E-03    -229.015E-03     13.5463E-03    -229.114E-03     457.037E-03    -229.083E-03     11.9412E-03
             153    -162.243E-09     93.5546E-03    -134.907E+06    -283.142E+06    -135.493E+06    -587.934E+03    -228.968E-03     457.979E-03    -229.011E-03     13.8680E-03    -229.060E-03     456.981E-03    -229.082E-03     12.2539E-03
             154     111.561E-09     92.0561E-03    -135.771E+06    -283.003E+06    -135.438E+06     659.010E+03    -229.031E-03     457.884E-03    -228.854E-03     13.8302E-03    -229.127E-03     456.888E-03    -228.924E-03     12.2533E-03
             155     140.671E-09     90.5608E-03    -135.653E+06    -281.799E+06    -135.724E+06     131.205E+03    -229.243E-03     458.199E-03    -228.956E-03     13.9042E-03    -229.340E-03     457.209E-03    -229.030E-03     12.2917E-03
             156    -38.6815E-09     89.0609E-03    -134.098E+06    -279.942E+06    -134.380E+06     368.466E+03    -229.648E-03     458.512E-03    -228.864E-03     13.4182E-03    -229.741E-03     457.527E-03    -228.936E-03     11.8348E-03
             157     1.00591E-06     87.5632E-03    -134.191E+06    -279.688E+06    -134.077E+06    -544.497E+03    -229.704E-03     458.251E-03    -228.547E-03     13.7564E-03    -229.799E-03     457.267E-03    -228.617E-03     12.1685E-03
             158    -370.235E-09     86.0654E-03    -134.977E+06    -282.220E+06    -135.411E+06     -122.66E+03    -229.111E-03     457.918E-03    -228.807E-03     13.6334E-03    -229.204E-03     456.924E-03    -228.879E-03     12.0422E-03
             159     174.648E-09     83.0703E-03    -134.098E+06    -280.161E+06    -134.022E+06    -259.061E+03    -229.332E-03     458.222E-03    -228.889E-03     13.7617E-03    -229.426E-03     457.235E-03    -228.959E-03     12.1622E-03
             160     117.418E-09     81.5728E-03    -134.435E+06    -280.687E+06    -134.401E+06    -276.097E+03    -229.357E-03     458.257E-03    -228.900E-03     13.4739E-03    -229.450E-03     457.268E-03    -228.970E-03     11.9076E-03
             161     193.353E-09     80.0750E-03    -135.341E+06    -282.396E+06    -135.141E+06    -213.507E+03    -229.177E-03     458.125E-03    -228.948E-03     13.4392E-03    -229.272E-03     457.130E-03    -229.018E-03     11.8451E-03
             162    -224.187E-09     78.5776E-03    -135.623E+06    -282.399E+06    -135.516E+06     145.414E+03    -229.014E-03     458.029E-03    -229.015E-03     13.3976E-03    -229.110E-03     457.036E-03    -229.087E-03     11.7842E-03
             163     205.568E-09     77.0792E-03    -135.410E+06    -280.867E+06    -135.174E+06    -7.33296E+03    -228.947E-03     457.830E-03    -228.883E-03     13.5397E-03    -229.045E-03     456.843E-03    -228.955E-03     11.9605E-03
             164    -144.168E-09     75.5828E-03    -135.091E+06    -281.592E+06    -135.502E+06    -126.466E+03    -228.972E-03     457.720E-03    -228.747E-03     13.2664E-03    -229.066E-03     456.728E-03    -228.821E-03     11.6900E-03
             165     352.527E-09     74.0864E-03    -135.254E+06    -281.975E+06    -135.221E+06    -132.351E+03    -229.194E-03     457.907E-03    -228.713E-03     13.0921E-03    -229.289E-03     456.914E-03    -228.784E-03     11.4929E-03
             166     83.2510E-09     72.5876E-03    -135.610E+06    -282.235E+06    -135.921E+06    -322.658E+03    -229.138E-03     458.091E-03    -228.952E-03     13.6141E-03    -229.234E-03     457.098E-03    -229.026E-03     12.0072E-03
             167    -307.603E-09     71.0894E-03    -136.531E+06    -282.499E+06    -135.883E+06     239.173E+03    -228.999E-03     457.913E-03    -228.914E-03     13.5970E-03    -229.098E-03     456.920E-03    -228.986E-03     12.0283E-03
             168     605.947E-09     69.5930E-03    -136.196E+06    -281.808E+06    -136.636E+06     317.506E+03    -229.364E-03     457.863E-03    -228.499E-03     13.6488E-03    -229.462E-03     456.874E-03    -228.576E-03     12.0724E-03
             169     276.741E-09     68.0950E-03    -136.759E+06    -281.895E+06    -137.237E+06    -157.054E+03    -229.525E-03     457.959E-03    -228.434E-03     13.7973E-03    -229.625E-03     456.972E-03    -228.513E-03     12.2128E-03
             170     343.583E-09     66.5975E-03    -136.046E+06    -283.068E+06    -136.138E+06    -20.8556E+03    -229.191E-03     457.819E-03    -228.628E-03     13.8517E-03    -229.288E-03     456.823E-03    -228.701E-03     12.2543E-03
             171    -213.366E-09     65.1006E-03    -137.007E+06    -283.739E+06    -136.538E+06     247.462E+03    -228.945E-03     457.749E-03    -228.804E-03     13.8586E-03    -229.045E-03     456.753E-03    -228.877E-03     12.2581E-03
             172     234.523E-09     63.6031E-03    -136.586E+06    -282.562E+06    -136.460E+06     71.3176E+03    -229.013E-03     457.689E-03    -228.677E-03     13.6626E-03    -229.112E-03     456.697E-03    -228.751E-03     12.0801E-03
             173     173.265E-09     62.1063E-03    -135.617E+06    -282.993E+06    -135.885E+06    -441.355E+03    -228.935E-03     457.479E-03    -228.544E-03     13.7707E-03    -229.030E-03     456.483E-03    -228.617E-03     12.1728E-03
             174    -77.9067E-09     60.6099E-03    -136.710E+06    -283.783E+06    -136.011E+06     267.892E+03    -228.941E-03     457.462E-03    -228.521E-03     13.5253E-03    -229.040E-03     456.463E-03    -228.591E-03     11.9358E-03
             175     539.408E-09     59.1133E-03    -136.813E+06    -282.908E+06    -136.710E+06     140.592E+03    -229.051E-03     457.423E-03    -228.373E-03     13.3207E-03    -229.150E-03     456.430E-03    -228.448E-03     11.7308E-03
             176    -77.6239E-09     57.6167E-03    -136.119E+06    -282.591E+06    -136.689E+06     65.9365E+03    -228.728E-03     457.311E-03    -228.582E-03     13.6686E-03    -228.825E-03     456.318E-03    -228.658E-03     12.0995E-03
             177    -233.589E-09     56.1194E-03    -134.328E+06    -282.147E+06    -134.537E+06    -176.308E+03    -228.404E-03     456.995E-03    -228.591E-03     13.4661E-03    -228.495E-03     455.998E-03    -228.659E-03     11.8914E-03
             178     224.684E-09     54.6247E-03    -135.430E+06    -283.544E+06    -135.479E+06    -280.697E+03    -228.453E-03     456.683E-03    -228.230E-03     13.4261E-03    -228.545E-03     455.682E-03    -228.300E-03     11.8574E-03
             179     52.2831E-09     53.1292E-03    -135.468E+06    -282.638E+06    -135.747E+06     508.804E+03    -228.520E-03     456.764E-03    -228.245E-03     13.4696E-03    -228.614E-03     455.769E-03    -228.317E-03     11.8978E-03
             180     10.9394E-09     51.6327E-03    -135.493E+06    -280.448E+06    -135.117E+06    -35.7921E+03    -228.401E-03     456.560E-03    -228.158E-03     13.2489E-03    -228.500E-03     455.575E-03    -228.231E-03     11.6587E-03
             181     230.194E-09     50.1387E-03    -136.323E+06    -280.275E+06    -135.240E+06     138.074E+03    -228.297E-03     456.567E-03    -228.270E-03     13.4992E-03    -228.400E-03     455.585E-03    -228.342E-03     11.9076E-03
             182    -472.753E-09     48.6424E-03    -134.984E+06    -279.679E+06    -135.017E+06     117.259E+03    -228.135E-03     456.558E-03    -228.424E-03     13.2055E-03    -228.232E-03     455.576E-03    -228.498E-03     11.6206E-03
             183     254.301E-09     47.1467E-03    -135.165E+06    -279.764E+06    -135.374E+06     210.621E+03    -228.262E-03     455.871E-03    -227.609E-03     12.9597E-03    -228.358E-03     454.889E-03    -227.684E-03     11.3872E-03
             184     853.471E-09     45.6544E-03    -135.536E+06    -280.135E+06    -135.459E+06    -106.765E+03    -228.517E-03     455.512E-03    -226.995E-03     13.0879E-03    -228.615E-03     454.528E-03    -227.070E-03     11.5263E-03
             185     173.620E-09     44.1598E-03    -133.592E+06    -279.835E+06    -135.179E+06    -458.299E+03    -228.166E-03     455.297E-03    -227.130E-03     12.9865E-03    -228.255E-03     454.311E-03    -227.207E-03     11.4473E-03
             186     223.254E-09     42.6666E-03    -133.630E+06    -280.184E+06    -133.972E+06     67.4299E+03    -227.574E-03     454.937E-03    -227.363E-03     13.4663E-03    -227.665E-03     453.949E-03    -227.433E-03     11.9161E-03
             187    -372.805E-09     41.1729E-03    -135.638E+06    -279.541E+06    -133.476E+06     390.603E+03    -227.150E-03     454.643E-03    -227.493E-03     13.5431E-03    -227.253E-03     453.660E-03    -227.558E-03     11.9893E-03
             188    -1.64203E-09     39.6817E-03    -133.975E+06    -277.098E+06    -133.906E+06     385.425E+03    -227.081E-03     454.141E-03    -227.060E-03     13.0917E-03    -227.178E-03     453.168E-03    -227.133E-03     11.5485E-03
             189     360.987E-09     38.1898E-03    -133.192E+06    -276.148E+06    -133.762E+06    -162.125E+03    -226.815E-03     453.525E-03    -226.709E-03     13.4592E-03    -226.910E-03     452.556E-03    -226.784E-03     11.9050E-03
             190    -624.727E-09     36.6992E-03    -133.481E+06    -276.864E+06    -133.980E+06    -132.329E+03    -226.161E-03     452.743E-03    -226.582E-03     13.0718E-03    -226.255E-03     451.771E-03    -226.657E-03     11.5222E-03
             191     232.808E-09     35.2117E-03    -134.323E+06    -277.513E+06    -134.812E+06     144.937E+03    -226.048E-03     451.928E-03    -225.881E-03     12.4163E-03    -226.144E-03     450.954E-03    -225.957E-03     10.8819E-03
             192     356.284E-09     33.7228E-03    -135.632E+06    -277.722E+06    -135.362E+06     4.89694E+03    -225.498E-03     451.072E-03    -225.574E-03     12.7178E-03    -225.600E-03     450.100E-03    -225.651E-03     11.1965E-03
             193    -1.09476E-06     32.2367E-03    -134.356E+06    -276.782E+06    -134.747E+06     101.063E+03    -224.979E-03     450.299E-03    -225.320E-03     12.4699E-03    -225.075E-03     449.328E-03    -225.397E-03     10.9623E-03
             194     1.29973E-06     30.7508E-03    -134.598E+06    -277.274E+06    -134.832E+06     -75.227E+03    -224.992E-03     449.558E-03    -224.566E-03     12.5551E-03    -225.089E-03     448.586E-03    -224.643E-03     11.0431E-03
             195    -935.312E-09     29.2662E-03    -134.615E+06    -277.558E+06    -134.698E+06     187.379E+03    -224.065E-03     447.933E-03    -223.868E-03     12.2115E-03    -224.160E-03     446.958E-03    -223.944E-03     10.7588E-03
             196     814.120E-09     27.7864E-03    -132.400E+06    -275.615E+06    -133.249E+06     19.1849E+03    -222.628E-03     445.795E-03    -223.167E-03     11.8268E-03    -222.716E-03     444.824E-03    -223.242E-03     10.4007E-03
             197    -1.51406E-06     26.3085E-03    -132.647E+06    -275.384E+06    -132.942E+06     150.209E+03    -221.670E-03     443.738E-03    -222.068E-03     11.2700E-03    -221.760E-03     442.767E-03    -222.141E-03     9.83402E-03
             198     1.60927E-06     24.8336E-03    -133.104E+06    -274.217E+06    -131.650E+06     160.006E+03    -221.377E-03     441.099E-03    -219.722E-03     10.5526E-03    -221.471E-03     440.131E-03    -219.790E-03     9.17179E-03
             199     675.892E-09     23.3638E-03    -131.487E+06    -273.127E+06    -131.013E+06    -15.0246E+03    -219.068E-03     436.821E-03    -217.754E-03     10.6227E-03    -219.156E-03     435.854E-03    -217.822E-03     9.31750E-03
             200    -1.08511E-06     21.9018E-03    -127.912E+06    -270.572E+06    -127.919E+06     626.700E+03    -215.286E-03     431.272E-03    -215.986E-03     9.61073E-03    -215.362E-03     430.306E-03    -216.048E-03     8.39840E-03
             201     459.901E-09     20.4484E-03    -125.982E+06    -268.501E+06    -125.954E+06     185.816E+03    -211.951E-03     424.327E-03    -212.375E-03     8.32374E-03    -212.022E-03     423.362E-03    -212.433E-03     7.19965E-03
             202    -457.412E-09     19.0065E-03    -125.570E+06    -269.162E+06    -125.104E+06     139.011E+03    -207.171E-03     414.958E-03    -207.787E-03     7.31227E-03    -207.238E-03     413.986E-03    -207.840E-03     6.28985E-03
             203    -443.663E-09     17.5809E-03    -123.414E+06    -269.457E+06    -123.861E+06    -200.733E+03    -201.651E-03     403.794E-03    -202.142E-03     5.96996E-03    -201.707E-03     402.813E-03    -202.192E-03     5.04555E-03
             204     631.824E-09     16.1700E-03    -121.018E+06    -268.339E+06    -122.088E+06     167.093E+03    -195.584E-03     390.865E-03    -195.281E-03     4.74133E-03    -195.631E-03     389.882E-03    -195.326E-03     3.91325E-03
             205    -362.243E-09     14.7822E-03    -117.614E+06    -266.606E+06    -117.070E+06     847.618E+03    -188.198E-03     376.537E-03    -188.339E-03     3.61425E-03    -188.237E-03     375.549E-03    -188.367E-03     2.89300E-03
             206    -94.5683E-09     13.4113E-03    -120.585E+06    -263.131E+06    -120.947E+06     291.896E+03    -180.681E-03     361.502E-03    -180.820E-03     2.25587E-03    -180.733E-03     360.539E-03    -180.869E-03     1.63018E-03
             207     368.062E-09     12.0631E-03    -125.632E+06    -258.928E+06    -126.141E+06     879.304E+03    -173.003E-03     345.840E-03    -172.837E-03     1.54774E-03    -173.078E-03     344.912E-03    -172.910E-03     1.02198E-03
             208    -370.817E-09     10.7356E-03    -121.550E+06    -252.349E+06    -121.523E+06     1.75218E+06    -165.274E-03     330.500E-03    -165.225E-03     940.230E-06    -165.344E-03     329.592E-03    -165.291E-03     463.208E-06
             209     472.220E-09     9.42712E-03    -114.672E+06    -243.208E+06    -114.120E+06     1.67300E+06    -158.913E-03     317.432E-03    -158.519E-03     1.13303E-03    -158.973E-03     316.551E-03    -158.571E-03     653.698E-06
             210     56.3244E-09     8.13481E-03    -110.289E+06    -236.468E+06    -108.855E+06     1.21746E+06    -156.012E-03     311.720E-03    -155.707E-03     3.24077E-03    -156.068E-03     310.860E-03    -155.749E-03     2.75140E-03
             211    -94.4976E-09     6.84220E-03    -113.460E+06    -237.922E+06    -112.147E+06    -1.66427E+06    -158.811E-03     317.865E-03    -159.054E-03     5.42112E-03    -158.878E-03     317.008E-03    -159.105E-03     4.88861E-03
             212    -214.293E-09     5.53331E-03    -107.567E+06    -251.914E+06    -107.642E+06    -3.52478E+06    -167.034E-03     335.487E-03    -168.453E-03     7.59163E-03    -167.061E-03     334.542E-03    -168.470E-03     7.03899E-03
             213    -1.59595E-06     4.19332E-03    -97.3316E+06    -263.306E+06    -98.7482E+06    -356.478E+03    -179.028E-03     359.569E-03    -180.541E-03     7.52677E-03    -179.000E-03     358.537E-03    -180.512E-03     7.05084E-03
             214     1.14254E-06     2.81796E-03    -92.0796E+06    -260.544E+06    -91.6659E+06     1.59465E+06    -190.949E-03     381.899E-03    -190.951E-03     5.92535E-03    -190.903E-03     380.864E-03    -190.898E-03     5.57897E-03
             215    -677.694E-09     1.41704E-03    -80.1734E+06    -258.524E+06    -79.3901E+06    -949.159E+03    -198.805E-03     397.129E-03    -198.324E-03     3.60358E-03    -198.716E-03     396.068E-03    -198.230E-03     3.38727E-03
             216     734.680E-06     3.44169E-15    -73.5410E+06    -255.940E+06    -74.2963E+06    -1.24589E+06    -201.459E-03     402.727E-03    -201.267E-03     3.32246E-03    -201.348E-03     401.662E-03    -201.161E-03     3.11434E-03
             217     1.46932E-03     3.44169E-15    -73.8893E+06    -245.989E+06    -73.8674E+06     150.610E+03    -201.158E-03     402.471E-03    -201.313E-03     5.99486E-03    -201.066E-03     401.457E-03    -201.219E-03     5.64546E-03
             218     2.20494E-03     3.44169E-15    -73.2142E+06    -231.928E+06    -70.2056E+06    -715.174E+03    -200.623E-03     401.809E-03    -201.186E-03     8.01335E-03    -200.556E-03     400.862E-03    -201.095E-03     7.48343E-03
             219     2.94071E-03     3.44169E-15    -70.4944E+06    -209.213E+06    -63.8429E+06    -1.59908E+06    -199.920E-03     400.891E-03    -200.971E-03     10.2696E-03    -199.885E-03     400.047E-03    -200.885E-03     9.54150E-03
             220     3.67675E-03     3.44169E-15    -67.0894E+06    -180.309E+06    -56.3521E+06    -1.28232E+06    -199.098E-03     399.789E-03    -200.691E-03     12.8260E-03    -199.103E-03     399.079E-03    -200.614E-03     11.9400E-03
             221     4.41366E-03     3.44169E-15    -63.2460E+06    -146.073E+06     -47.916E+06    -1.57380E+06    -198.409E-03     398.788E-03    -200.379E-03     15.5656E-03    -198.462E-03     398.236E-03    -200.315E-03     14.5257E-03
             222     5.15072E-03     3.44169E-15    -56.8850E+06    -107.178E+06    -38.3976E+06    -5.59399E+06    -197.917E-03     397.987E-03    -200.070E-03     17.6952E-03    -198.015E-03     397.614E-03    -200.024E-03     16.4265E-03
             223     5.88909E-03     3.44169E-15    -46.6874E+06    -59.0854E+06    -26.5072E+06    -8.86370E+06    -197.707E-03     397.496E-03    -199.788E-03     19.3051E-03    -197.848E-03     397.338E-03    -199.768E-03     17.8268E-03
             224     6.62683E-03     3.44169E-15    -35.1787E+06    -15.6817E+06    -9.40937E+06    -8.04373E+06    -198.101E-03     397.709E-03    -199.609E-03     21.4036E-03    -198.279E-03     397.734E-03    -199.582E-03     19.7670E-03
             225     7.36340E-03     3.44169E-15    -26.1131E+06     4.95093E+06     7.63610E+06    -3.43945E+06    -199.271E-03     398.854E-03    -199.583E-03     24.1381E-03    -199.470E-03     398.955E-03    -199.514E-03     22.3731E-03
             226     8.09954E-03     3.44169E-15    -21.4405E+06     12.1028E+06     17.0586E+06     629.224E+03    -201.289E-03     400.992E-03    -199.703E-03     26.5265E-03    -201.500E-03     401.120E-03    -199.604E-03     24.5949E-03
             227     8.83367E-03     3.44169E-15    -19.1800E+06     16.0677E+06     24.2962E+06     959.943E+03    -204.574E-03     404.600E-03    -200.025E-03     28.6219E-03    -204.804E-03     404.748E-03    -199.899E-03     26.4296E-03
             228     9.56586E-03     3.44169E-15    -16.4470E+06     18.6918E+06     41.6586E+06     582.166E+03    -210.145E-03     410.836E-03    -200.691E-03     30.7029E-03    -210.410E-03     410.989E-03    -200.486E-03     28.1069E-03
             229     10.2924E-03     3.44169E-15    -12.4628E+06     26.3408E+06     64.0533E+06     19.2357E+03    -218.844E-03     420.635E-03    -201.791E-03     33.3581E-03    -219.161E-03     420.817E-03    -201.490E-03     30.2108E-03
             230     11.0113E-03     3.44169E-15    -8.44666E+06     38.3688E+06     76.7293E+06     359.969E+03    -233.359E-03     436.813E-03    -203.454E-03     36.8313E-03    -233.734E-03     437.076E-03    -203.114E-03     32.8756E-03
             231     11.7207E-03     3.44169E-15    -7.46910E+06     44.1624E+06     78.7119E+06    -115.611E+03    -260.115E-03     466.221E-03    -206.106E-03     39.0161E-03    -260.573E-03     466.593E-03    -205.766E-03     33.3673E-03
             232     12.4083E-03     3.44169E-15    -5.00854E+06     52.2795E+06     80.6292E+06     130.510E+03    -304.030E-03     514.408E-03    -210.379E-03     47.5751E-03    -304.586E-03     514.924E-03    -210.044E-03     40.1499E-03
             233     13.0445E-03     3.44169E-15    -8.61297E+06     58.1135E+06     77.3390E+06     1.13319E+06    -378.123E-03     595.190E-03    -217.067E-03     82.8452E-03    -379.295E-03     596.386E-03    -216.752E-03     68.8457E-03
             234     13.6341E-03     3.44169E-15    -11.8785E+06     76.1482E+06     77.3793E+06     2.12098E+06    -508.246E-03     735.607E-03    -227.361E-03     179.351E-03    -512.319E-03     739.812E-03    -227.067E-03     144.707E-03
             235     14.2219E-03     2.40832E-03    -9.96686E+06     89.4122E+06     74.3497E+06    -1.54823E+06    -490.172E-03     722.137E-03    -231.965E-03     246.311E-03    -496.856E-03     728.916E-03    -231.709E-03     203.219E-03
             236     14.2827E-03     4.06066E-03     1.97241E+06     89.2742E+06     77.8574E+06    -5.18152E+06    -354.906E-03     584.650E-03    -229.744E-03     231.072E-03    -361.419E-03     591.215E-03    -229.487E-03     196.906E-03
             237     14.2974E-03     5.65995E-03     7.10743E+06     84.1357E+06     86.1558E+06    -2.18202E+06    -320.013E-03     548.693E-03    -228.680E-03     188.953E-03    -325.170E-03     553.922E-03    -228.381E-03     159.343E-03
             238     14.3056E-03     7.30520E-03    -1.62262E+06     74.6747E+06     82.7264E+06     490.381E+03    -312.676E-03     540.892E-03    -228.215E-03     164.777E-03    -317.071E-03     545.306E-03    -227.907E-03     137.266E-03
             239     14.3074E-03     8.90435E-03    -1.73447E+06     73.5056E+06     83.5515E+06     94.3074E+03    -299.381E-03     527.606E-03    -228.225E-03     161.690E-03    -303.622E-03     531.856E-03    -227.911E-03     135.588E-03
             240     14.3127E-03     10.4887E-03    -1.43246E+06     68.6479E+06     83.1498E+06    -1.96279E+06    -286.527E-03     514.777E-03    -228.250E-03     153.012E-03    -290.457E-03     518.703E-03    -227.932E-03     128.480E-03
             241     14.3154E-03     12.0521E-03    -3.29188E+06     64.7068E+06     82.4849E+06     240.133E+03    -276.655E-03     504.962E-03    -228.307E-03     147.728E-03    -280.433E-03     508.718E-03    -227.983E-03     124.308E-03
             242     14.3148E-03     13.6160E-03    -2.17149E+06     64.9755E+06     81.4491E+06     725.044E+03    -267.279E-03     495.783E-03    -228.504E-03     139.628E-03    -270.796E-03     499.286E-03    -228.188E-03     117.607E-03
             243     14.3140E-03     15.1476E-03    -1.37898E+06     63.4227E+06     80.9469E+06    -2.59775E+06    -255.110E-03     483.896E-03    -228.786E-03     135.044E-03    -258.472E-03     487.243E-03    -228.472E-03     114.212E-03
             244     14.3167E-03     16.6671E-03    -1.38474E+06     61.3181E+06     83.0771E+06     82.0268E+03    -247.233E-03     476.186E-03    -228.953E-03     129.641E-03    -250.437E-03     479.361E-03    -228.624E-03     109.929E-03
             245     14.3141E-03     18.1857E-03    -1.80147E+06     61.8269E+06      80.932E+06     1.02112E+06    -243.158E-03     472.224E-03    -229.066E-03     122.868E-03    -246.169E-03     475.213E-03    -228.748E-03     104.039E-03
             246     14.3149E-03     19.6950E-03    -3.60440E+06     59.0606E+06     77.2934E+06    -711.223E+03    -239.407E-03     468.563E-03    -229.157E-03     120.761E-03    -242.372E-03     471.501E-03    -228.851E-03     102.258E-03
             247     14.3154E-03     21.2040E-03    -1.28431E+06     59.6762E+06     79.9164E+06     80.4124E+03    -236.503E-03     465.671E-03    -229.168E-03     120.197E-03    -239.470E-03     468.613E-03    -228.853E-03     101.843E-03
             248     14.3176E-03     22.7128E-03    -410.959E+03     61.7845E+06     81.9221E+06     608.556E+03    -234.706E-03     463.872E-03    -229.167E-03     120.151E-03    -237.675E-03     466.822E-03    -228.846E-03     101.934E-03
             249     14.3156E-03     24.2170E-03    -3.31226E+06     59.3399E+06     79.5127E+06     491.345E+03    -234.682E-03     463.853E-03    -229.172E-03     120.009E-03    -237.612E-03     466.752E-03    -228.855E-03     102.021E-03
             250     14.3169E-03     25.7219E-03    -2.75614E+06     56.8734E+06     79.4883E+06    -1.05156E+06    -234.225E-03     463.375E-03    -229.151E-03     119.382E-03    -237.142E-03     466.255E-03    -228.832E-03     101.365E-03
             251     14.3182E-03     27.2248E-03    -2.28839E+06     57.8976E+06     80.3820E+06     656.226E+03    -233.966E-03     463.042E-03    -229.076E-03     121.117E-03    -236.961E-03     466.001E-03    -228.755E-03     102.908E-03
             252     14.3191E-03     28.7354E-03    -1.12583E+06     63.4459E+06     81.4656E+06     1.67449E+06    -233.947E-03     462.941E-03    -228.994E-03     121.956E-03    -236.976E-03     465.955E-03    -228.677E-03     103.680E-03
             253     14.3204E-03     30.2352E-03    -1.72108E+06     64.9251E+06     82.0352E+06    -533.348E+03    -233.532E-03     462.508E-03    -228.977E-03     121.737E-03    -236.581E-03     465.544E-03    -228.658E-03     103.371E-03
             254     14.3184E-03     31.7433E-03    -3.70925E+06     63.3168E+06     81.7440E+06         37.4375    -233.855E-03     462.825E-03    -228.970E-03     123.008E-03    -236.941E-03     465.886E-03    -228.648E-03     104.611E-03
             255     14.3213E-03     33.2447E-03    -1.06173E+06     64.6638E+06     83.2487E+06    -285.945E+03    -233.310E-03     462.253E-03    -228.943E-03     122.963E-03    -236.414E-03     465.341E-03    -228.619E-03     104.469E-03
             256     14.3199E-03     34.7482E-03    -950.904E+03     62.9146E+06     82.4519E+06    -176.352E+03    -232.744E-03     461.664E-03    -228.920E-03     123.364E-03    -235.848E-03     464.749E-03    -228.598E-03     104.918E-03
             257     14.3218E-03     36.2530E-03    -2.39901E+06     60.8408E+06     81.4267E+06    -221.939E+03    -233.016E-03     461.926E-03    -228.909E-03     125.057E-03    -236.162E-03     465.042E-03    -228.587E-03     106.523E-03
             258     14.3198E-03     37.7552E-03    -3.42592E+06     61.8507E+06     79.7099E+06     578.964E+03    -232.919E-03     461.823E-03    -228.904E-03     125.089E-03    -236.082E-03     464.962E-03    -228.590E-03     106.535E-03
             259     14.3219E-03     39.2570E-03    -2.32286E+06     63.3547E+06     81.7406E+06    -43.8387E+03    -232.135E-03     461.065E-03    -228.930E-03     123.851E-03    -235.266E-03     464.175E-03    -228.610E-03     105.406E-03
             260     14.3196E-03     40.7554E-03    -1.74379E+06     62.6850E+06     82.4435E+06    -318.912E+03    -231.579E-03     460.521E-03    -228.942E-03     123.741E-03    -234.703E-03     463.622E-03    -228.618E-03     105.349E-03
             261     14.3225E-03     42.2584E-03    -2.27157E+06     62.4287E+06     81.0172E+06     171.442E+03    -231.556E-03     460.477E-03    -228.921E-03     124.573E-03    -234.717E-03     463.616E-03    -228.603E-03     106.092E-03
             262     14.3200E-03     43.7578E-03    -1.83581E+06     62.3593E+06     82.2763E+06    -579.432E+03    -231.545E-03     460.473E-03    -228.929E-03     124.456E-03    -234.709E-03     463.614E-03    -228.605E-03     105.943E-03
             263     14.3219E-03     45.2599E-03    -1.80566E+06     64.1009E+06     82.2837E+06     753.587E+03    -230.981E-03     459.891E-03    -228.909E-03     126.187E-03    -234.159E-03     463.051E-03    -228.588E-03     107.776E-03
             264     14.3224E-03     46.7572E-03    -1.91498E+06     65.3453E+06     82.9421E+06    -593.309E+03    -231.117E-03     460.005E-03    -228.888E-03     125.018E-03    -234.269E-03     463.142E-03    -228.565E-03     106.641E-03
             265     14.3204E-03     48.2594E-03    -2.73535E+06     62.6238E+06     82.5571E+06     65.8729E+03    -231.513E-03     460.434E-03    -228.921E-03     125.154E-03    -234.634E-03     463.528E-03    -228.595E-03     106.932E-03
             266     14.3218E-03     49.7599E-03    -1.57232E+06     63.9272E+06     82.6859E+06     1.00771E+06    -230.621E-03     459.556E-03    -228.935E-03     125.798E-03    -233.772E-03     462.689E-03    -228.612E-03     107.523E-03
             267     14.3214E-03     51.2530E-03    -1.52101E+06     65.6699E+06     82.8170E+06    -333.889E+03    -229.941E-03     458.865E-03    -228.924E-03     123.964E-03    -233.084E-03     461.996E-03    -228.603E-03     105.664E-03
             268     14.3220E-03     52.7549E-03    -2.67184E+06     63.5512E+06     83.0521E+06    -212.842E+03    -230.267E-03     459.201E-03    -228.934E-03     124.341E-03    -233.412E-03     462.322E-03    -228.607E-03     106.068E-03
             269     14.3206E-03     54.2536E-03    -1.70229E+06     64.2335E+06     82.7377E+06     247.093E+03    -230.461E-03     459.393E-03    -228.932E-03     125.380E-03    -233.643E-03     462.557E-03    -228.609E-03     106.972E-03
             270     14.3225E-03     55.7506E-03    -2.56850E+06     64.8597E+06     81.7525E+06    -132.709E+03    -230.714E-03     459.633E-03    -228.919E-03     124.719E-03    -233.903E-03     462.806E-03    -228.600E-03     106.227E-03
             271     14.3201E-03     57.2520E-03    -2.55827E+06     66.4974E+06     82.8644E+06     892.645E+03    -231.071E-03     459.999E-03    -228.928E-03     124.070E-03    -234.231E-03     463.146E-03    -228.607E-03     105.698E-03
             272     14.3222E-03     58.7504E-03    -2.69628E+06     66.4900E+06     83.0659E+06    -616.547E+03    -230.526E-03     459.470E-03    -228.944E-03     124.207E-03    -233.702E-03     462.631E-03    -228.621E-03     105.785E-03
             273     14.3204E-03     60.2491E-03    -1.47691E+06     62.8416E+06     84.0718E+06    -1.18965E+06    -230.277E-03     459.242E-03    -228.964E-03     124.309E-03    -233.455E-03     462.393E-03    -228.633E-03     105.848E-03
             274     14.3215E-03     61.7492E-03    -1.68301E+06     63.7054E+06      83.274E+06     490.193E+03    -230.294E-03     459.248E-03    -228.954E-03     125.681E-03    -233.485E-03     462.418E-03    -228.628E-03     107.248E-03
             275     14.3215E-03     63.2466E-03    -3.50181E+06     65.5975E+06     82.0665E+06     394.753E+03    -230.209E-03     459.137E-03    -228.929E-03     125.741E-03    -233.380E-03     462.291E-03    -228.609E-03     107.469E-03
             276     14.3216E-03     64.7471E-03    -737.253E+03     66.4252E+06     84.3511E+06     250.104E+03    -230.315E-03     459.244E-03    -228.929E-03     125.819E-03    -233.455E-03     462.372E-03    -228.602E-03     107.649E-03
             277     14.3216E-03     66.2433E-03    -1.72927E+06     65.4371E+06     83.4363E+06    -326.649E+03    -230.310E-03     459.247E-03    -228.937E-03     124.805E-03    -233.467E-03     462.388E-03    -228.612E-03     106.484E-03
             278     14.3208E-03     67.7421E-03    -3.47444E+06     63.8253E+06     82.5111E+06    -16.5043E+03    -230.229E-03     459.189E-03    -228.960E-03     124.062E-03    -233.394E-03     462.329E-03    -228.635E-03     105.728E-03
             279     14.3213E-03     69.2399E-03    -1.05958E+06     64.8917E+06     84.2567E+06     259.131E+03    -229.680E-03     458.643E-03    -228.962E-03     124.505E-03    -232.862E-03     461.807E-03    -228.634E-03     106.119E-03
             280     14.3220E-03     70.7367E-03    -2.23274E+06     65.3400E+06     83.3432E+06     490.505E+03    -229.828E-03     458.762E-03    -228.934E-03     124.891E-03    -233.023E-03     461.939E-03    -228.609E-03     106.477E-03
             281     14.3212E-03     72.2382E-03    -2.39300E+06     65.1920E+06     82.6341E+06    -547.643E+03    -230.339E-03     459.273E-03    -228.934E-03     124.772E-03    -233.525E-03     462.442E-03    -228.612E-03     106.333E-03
             282     14.3212E-03     73.7343E-03    -2.17209E+06     63.4229E+06     82.1392E+06    -716.426E+03    -229.918E-03     458.882E-03    -228.964E-03     124.514E-03    -233.096E-03     462.039E-03    -228.642E-03     106.095E-03
             283     14.3210E-03     75.2328E-03    -3.04167E+06     61.8747E+06     81.4179E+06     233.993E+03    -229.960E-03     458.920E-03    -228.960E-03     125.252E-03    -233.133E-03     462.065E-03    -228.638E-03     106.935E-03
             284     14.3217E-03     76.7314E-03    -1.37294E+06     63.6344E+06     82.8466E+06    -116.624E+03    -230.158E-03     459.072E-03    -228.914E-03     125.760E-03    -233.351E-03     462.246E-03    -228.590E-03     107.323E-03
             285     14.3229E-03     78.2289E-03    -1.27789E+06     65.2838E+06     82.5711E+06     349.141E+03    -230.461E-03     459.349E-03    -228.889E-03     124.999E-03    -233.657E-03     462.533E-03    -228.569E-03     106.517E-03
             286     14.3204E-03     79.7316E-03    -2.73346E+06     63.4190E+06     82.1482E+06    -1.10322E+06    -231.015E-03     459.969E-03    -228.954E-03     124.276E-03    -234.172E-03     463.103E-03    -228.631E-03     105.894E-03
             287     14.3199E-03     81.2280E-03    -2.98501E+06     60.9991E+06     81.9836E+06     628.987E+03    -229.866E-03     458.874E-03    -229.008E-03     125.409E-03    -233.009E-03     461.985E-03    -228.682E-03     107.242E-03
             288     14.3224E-03     82.7248E-03    -2.61948E+06     63.1516E+06     81.9929E+06     803.858E+03    -229.237E-03     458.220E-03    -228.983E-03     124.846E-03    -232.399E-03     461.359E-03    -228.661E-03     106.611E-03
             289     14.3198E-03     84.2211E-03    -1.59965E+06     64.6390E+06     81.1801E+06    -359.025E+03    -229.635E-03     458.588E-03    -228.952E-03     124.432E-03    -232.804E-03     461.745E-03    -228.638E-03     106.073E-03
             290     14.3231E-03     85.7213E-03    -1.37605E+06     64.7575E+06     80.6912E+06     531.565E+03    -229.420E-03     458.341E-03    -228.921E-03     125.627E-03    -232.599E-03     461.511E-03    -228.610E-03     107.308E-03
             291     14.3211E-03     87.2164E-03    -1.36901E+06     62.9775E+06     83.8052E+06    -1.47191E+06    -229.860E-03     458.781E-03    -228.921E-03     124.578E-03    -233.029E-03     461.926E-03    -228.592E-03     106.177E-03
             292     715.767E-06     86.0841E-03    -133.384E+06    -276.026E+06    -131.326E+06     24.4680E+03    -229.151E-03     458.044E-03    -228.893E-03     22.8941E-03    -229.307E-03     457.128E-03    -228.956E-03     20.2169E-03
             293     1.43134E-03     86.1279E-03    -130.019E+06    -261.756E+06    -120.852E+06     92.0708E+03    -229.340E-03     458.344E-03    -229.004E-03     42.1723E-03    -229.684E-03     457.648E-03    -229.040E-03     37.2071E-03
             294     2.14736E-03     86.1992E-03    -124.625E+06    -242.286E+06    -105.456E+06     115.648E+03    -229.711E-03     458.768E-03    -229.057E-03     62.2664E-03    -230.364E-03     458.425E-03    -229.052E-03     54.8611E-03
             295     2.86297E-03     86.2977E-03    -117.205E+06    -223.460E+06    -86.4265E+06     82.6929E+03    -230.201E-03     459.318E-03    -229.117E-03     82.5331E-03    -231.285E-03     459.443E-03    -229.055E-03     72.5724E-03
             296     3.57869E-03     86.4235E-03    -109.272E+06    -195.896E+06    -67.0660E+06    -35.9865E+03    -230.713E-03     459.865E-03    -229.152E-03     102.642E-03    -232.373E-03     460.636E-03    -229.045E-03     90.0225E-03
             297     4.29458E-03     86.5758E-03    -100.650E+06    -159.996E+06    -47.8347E+06    -139.331E+03    -231.266E-03     460.425E-03    -229.158E-03     122.299E-03    -233.654E-03     462.025E-03    -229.020E-03     106.929E-03
             298     5.01066E-03     86.7539E-03    -91.6715E+06    -129.860E+06    -28.2491E+06    -38.2730E+03    -231.915E-03     461.082E-03    -229.167E-03     141.565E-03    -235.170E-03     463.633E-03    -228.987E-03     123.355E-03
             299     5.72676E-03     86.9571E-03    -82.5771E+06    -95.2754E+06    -9.25864E+06     57.8752E+03    -232.578E-03     461.742E-03    -229.164E-03     160.454E-03    -236.852E-03     465.412E-03    -228.952E-03     139.383E-03
             300     6.44267E-03     87.1859E-03    -72.9065E+06    -53.1825E+06     9.93518E+06     286.857E+03    -233.232E-03     462.378E-03    -229.147E-03     178.765E-03    -238.672E-03     467.343E-03    -228.914E-03     154.852E-03
             301     7.15873E-03     87.4377E-03    -63.2672E+06    -12.3188E+06     28.2010E+06     493.539E+03    -233.833E-03     462.954E-03    -229.122E-03     196.113E-03    -240.541E-03     469.312E-03    -228.871E-03     169.457E-03
             302     7.87498E-03     87.7116E-03    -54.8343E+06     11.1623E+06     40.0795E+06     689.898E+03    -234.389E-03     463.475E-03    -229.086E-03     211.589E-03    -242.344E-03     471.159E-03    -228.823E-03     182.475E-03
             303     8.59163E-03     88.0041E-03    -47.7430E+06     19.5717E+06     46.8205E+06     1.37616E+06    -234.915E-03     463.967E-03    -229.052E-03     223.646E-03    -243.968E-03     472.784E-03    -228.777E-03     192.532E-03
             304     9.30769E-03     88.3098E-03    -40.6794E+06     27.3076E+06     54.2373E+06     1.40865E+06    -235.243E-03     464.275E-03    -229.033E-03     231.340E-03    -245.118E-03     473.946E-03    -228.742E-03     198.818E-03
             305     10.0241E-03     88.6222E-03    -33.1713E+06     34.7202E+06     64.4494E+06     531.333E+03    -235.144E-03     464.181E-03    -229.037E-03     233.709E-03    -245.433E-03     474.288E-03    -228.717E-03     200.505E-03
             306     10.7405E-03     88.9335E-03    -25.8412E+06     43.2026E+06     74.6908E+06    -624.858E+03    -234.442E-03     463.482E-03    -229.040E-03     229.906E-03    -244.661E-03     473.546E-03    -228.692E-03     196.771E-03
             307     11.4562E-03     89.2347E-03    -19.9576E+06     49.9090E+06     77.7087E+06    -1.01792E+06    -233.470E-03     462.472E-03    -229.002E-03     222.472E-03    -243.255E-03     472.139E-03    -228.657E-03     189.951E-03
             308     12.1713E-03     89.5232E-03    -14.0036E+06     54.0976E+06     77.5130E+06    -307.246E+03    -232.499E-03     461.441E-03    -228.942E-03     209.208E-03    -241.250E-03     470.109E-03    -228.613E-03     178.373E-03
             309     12.8913E-03     89.7884E-03    -8.65646E+06     61.7095E+06     80.1329E+06     782.913E+03    -232.542E-03     461.444E-03    -228.902E-03     199.281E-03    -240.365E-03     469.223E-03    -228.578E-03     170.065E-03
             310     13.6077E-03     90.0503E-03    -5.14714E+06     65.5194E+06     81.3072E+06     1.14633E+06    -232.015E-03     460.912E-03    -228.896E-03     161.702E-03    -237.434E-03     466.309E-03    -228.578E-03     138.053E-03
             311     715.676E-06     87.5817E-03    -133.424E+06    -275.508E+06    -131.391E+06    -500.442E+03    -229.496E-03     458.328E-03    -228.832E-03     22.9662E-03    -229.652E-03     457.414E-03    -228.896E-03     20.2834E-03
             312     1.43152E-03     87.6258E-03    -130.016E+06    -262.160E+06    -121.490E+06    -219.228E+03    -229.397E-03     458.523E-03    -229.126E-03     42.2639E-03    -229.740E-03     457.827E-03    -229.165E-03     37.2846E-03
             313     2.14692E-03     87.6971E-03    -124.536E+06    -242.171E+06    -105.691E+06     117.269E+03    -229.715E-03     458.861E-03    -229.146E-03     62.4834E-03    -230.368E-03     458.519E-03    -229.143E-03     55.0720E-03
             314     2.86279E-03     87.7957E-03    -117.764E+06    -223.855E+06    -87.0670E+06     16.1880E+03    -230.181E-03     459.358E-03    -229.178E-03     82.7299E-03    -231.266E-03     459.483E-03    -229.118E-03     72.7804E-03
             315     3.57869E-03     87.9214E-03    -109.792E+06    -195.918E+06    -67.5494E+06     43.6534E+03    -230.663E-03     459.854E-03    -229.191E-03     102.736E-03    -232.324E-03     460.626E-03    -229.086E-03     90.1322E-03
             316     4.29464E-03     88.0737E-03    -101.301E+06    -159.764E+06    -47.8932E+06    -42.5176E+03    -231.218E-03     460.401E-03    -229.183E-03     122.413E-03    -233.609E-03     462.004E-03    -229.044E-03     107.050E-03
             317     5.01051E-03     88.2518E-03    -92.3362E+06    -129.872E+06    -28.4441E+06    -288.451E+03    -231.928E-03     461.112E-03    -229.184E-03     141.754E-03    -235.187E-03     463.665E-03    -229.004E-03     123.547E-03
             318     5.72623E-03     88.4554E-03    -83.1360E+06    -94.8515E+06    -9.49091E+06    -193.083E+03    -232.581E-03     461.756E-03    -229.176E-03     160.729E-03    -236.861E-03     465.433E-03    -228.965E-03     139.660E-03
             319     6.44249E-03     88.6834E-03    -74.2036E+06    -52.9870E+06     9.28012E+06    -169.614E+03    -233.097E-03     462.242E-03    -229.146E-03     179.184E-03    -238.550E-03     467.217E-03    -228.915E-03     155.277E-03
             320     7.15900E-03     88.9358E-03    -65.6226E+06    -13.8240E+06     26.2189E+06     112.367E+03    -233.691E-03     462.791E-03    -229.100E-03     196.480E-03    -240.410E-03     469.152E-03    -228.854E-03     169.834E-03
             321     7.87548E-03     89.2091E-03    -57.0324E+06     9.31687E+06     37.9779E+06     955.325E+03    -234.366E-03     463.422E-03    -229.056E-03     211.707E-03    -242.331E-03     471.107E-03    -228.797E-03     182.595E-03
             322     8.59158E-03     89.5020E-03    -48.1449E+06     19.6251E+06     46.4456E+06     1.31302E+06    -234.935E-03     463.961E-03    -229.026E-03     223.732E-03    -243.996E-03     472.786E-03    -228.753E-03     192.600E-03
             323     9.30813E-03     89.8077E-03    -39.8424E+06     27.6703E+06     54.6280E+06     979.141E+03    -235.304E-03     464.318E-03    -229.014E-03     231.250E-03    -245.181E-03     473.994E-03    -228.724E-03     198.694E-03
             324     10.0241E-03     90.1206E-03    -32.6642E+06     37.0513E+06     65.1020E+06     831.583E+03    -235.071E-03     464.092E-03    -229.021E-03     233.401E-03    -245.357E-03     474.205E-03    -228.702E-03     200.206E-03
             325     10.7399E-03     90.4316E-03    -26.4642E+06     44.6777E+06     74.9171E+06    -400.253E+03    -234.191E-03     463.207E-03    -229.016E-03     230.110E-03    -244.415E-03     473.278E-03    -228.668E-03     197.026E-03
             326     11.4570E-03     90.7320E-03    -20.0755E+06     48.7799E+06     78.0934E+06    -446.819E+03    -233.480E-03     462.451E-03    -228.971E-03     223.247E-03    -243.274E-03     472.121E-03    -228.623E-03     190.775E-03
             327     12.1753E-03     91.0219E-03    -15.4937E+06     52.9174E+06     76.8821E+06     601.528E+03    -233.183E-03     462.110E-03    -228.926E-03     209.413E-03    -241.959E-03     470.795E-03    -228.596E-03     178.482E-03
             328     12.8890E-03     91.2838E-03    -10.8303E+06     60.9550E+06     78.6621E+06     557.881E+03    -233.236E-03     462.161E-03    -228.925E-03     198.229E-03    -241.072E-03     469.947E-03    -228.605E-03     168.850E-03
             329     13.6042E-03     91.5506E-03    -4.17410E+06     66.3744E+06     81.7624E+06     77.8484E+03    -231.715E-03     460.655E-03    -228.940E-03     160.773E-03    -237.121E-03     466.045E-03    -228.621E-03     137.096E-03
             330     715.557E-06     89.0802E-03    -133.632E+06    -275.368E+06    -131.032E+06     293.397E+03    -229.454E-03     458.488E-03    -229.033E-03     22.8274E-03    -229.613E-03     457.575E-03    -229.095E-03     20.1457E-03
             331     1.43099E-03     89.1237E-03    -130.713E+06    -262.263E+06    -121.282E+06     11.5305E+03    -229.378E-03     458.567E-03    -229.189E-03     42.3755E-03    -229.725E-03     457.871E-03    -229.226E-03     37.4017E-03
             332     2.14711E-03     89.1951E-03    -125.058E+06    -242.591E+06    -106.307E+06    -51.4085E+03    -229.704E-03     458.881E-03    -229.177E-03     62.6621E-03    -230.361E-03     458.541E-03    -229.175E-03     55.2466E-03
             333     2.86280E-03     89.2937E-03    -118.270E+06    -223.831E+06    -87.4922E+06     315.393E+03    -230.146E-03     459.339E-03    -229.194E-03     82.8147E-03    -231.232E-03     459.465E-03    -229.135E-03     72.8765E-03
             334     3.57852E-03     89.4194E-03    -110.447E+06    -195.963E+06    -67.7399E+06     200.675E+03    -230.609E-03     459.804E-03    -229.196E-03     102.825E-03    -232.274E-03     460.578E-03    -229.090E-03     90.2263E-03
             335     4.29447E-03     89.5713E-03    -101.789E+06    -159.462E+06    -48.0985E+06     107.482E+03    -231.171E-03     460.347E-03    -229.176E-03     122.675E-03    -233.567E-03     461.955E-03    -229.037E-03     107.316E-03
             336     5.01055E-03     89.7500E-03    -92.9458E+06    -129.194E+06    -28.6950E+06    -20.1742E+03    -231.822E-03     460.985E-03    -229.162E-03     142.105E-03    -235.088E-03     463.545E-03    -228.984E-03     123.915E-03
             337     5.72691E-03     89.9532E-03    -84.1234E+06    -94.5252E+06    -9.99734E+06     52.8997E+03    -232.435E-03     461.573E-03    -229.138E-03     161.020E-03    -236.724E-03     465.257E-03    -228.929E-03     139.967E-03
             338     6.44303E-03     90.1814E-03    -75.3334E+06    -53.5862E+06     8.40203E+06     524.208E+03    -233.059E-03     462.158E-03    -229.098E-03     179.371E-03    -238.522E-03     467.138E-03    -228.869E-03     155.467E-03
             339     7.15933E-03     90.4328E-03    -66.4369E+06    -14.6573E+06     25.5306E+06     634.862E+03    -233.783E-03     462.842E-03    -229.059E-03     196.607E-03    -240.508E-03     469.205E-03    -228.814E-03     169.953E-03
             340     7.87551E-03     90.7075E-03    -57.2100E+06     9.28379E+06     37.8372E+06     297.100E+03    -234.471E-03     463.500E-03    -229.029E-03     211.622E-03    -242.439E-03     471.187E-03    -228.770E-03     182.482E-03
             341     8.59201E-03     90.9993E-03    -48.5303E+06     19.3740E+06     46.1104E+06    -210.380E+03    -235.046E-03     464.058E-03    -229.011E-03     223.690E-03    -244.116E-03     472.890E-03    -228.739E-03     192.499E-03
             342     9.30789E-03     91.3064E-03    -40.9635E+06     25.9146E+06     53.7276E+06     373.909E+03    -235.248E-03     464.251E-03    -229.003E-03     231.373E-03    -245.122E-03     473.916E-03    -228.713E-03     198.843E-03
             343     10.0239E-03     91.6186E-03    -34.0644E+06     38.0739E+06     64.2351E+06     410.051E+03    -234.799E-03     463.794E-03    -228.995E-03     233.564E-03    -245.092E-03     473.915E-03    -228.679E-03     200.407E-03
             344     10.7414E-03     91.9284E-03    -27.1516E+06     47.0881E+06     74.7946E+06     217.119E+03    -234.154E-03     463.137E-03    -228.983E-03     229.719E-03    -244.377E-03     473.213E-03    -228.637E-03     196.647E-03
             345     11.4581E-03     92.2294E-03    -21.5190E+06     46.9159E+06     77.0753E+06     789.300E+03    -233.828E-03     462.788E-03    -228.960E-03     221.980E-03    -243.614E-03     472.441E-03    -228.611E-03     189.425E-03
             346     12.1725E-03     92.5193E-03    -15.9736E+06     53.1203E+06     76.7804E+06     660.420E+03    -233.740E-03     462.690E-03    -228.950E-03     208.851E-03    -242.508E-03     471.368E-03    -228.620E-03     177.849E-03
             347     12.8885E-03     92.7870E-03    -9.72680E+06     63.0670E+06     80.0436E+06    -669.454E+03    -233.351E-03     462.321E-03    -228.969E-03     198.957E-03    -241.208E-03     470.134E-03    -228.646E-03     169.543E-03
             348     13.6046E-03     93.0464E-03    -4.60412E+06     65.3086E+06     82.4599E+06    -1.15084E+06    -231.122E-03     460.091E-03    -228.969E-03     162.023E-03    -236.568E-03     465.513E-03    -228.644E-03     138.314E-03
             349     715.507E-06     90.5780E-03    -134.188E+06    -276.329E+06    -131.748E+06     366.341E+03    -229.287E-03     458.325E-03    -229.037E-03     23.1981E-03    -229.447E-03     457.410E-03    -229.101E-03     20.5113E-03
             350     1.43156E-03     90.6219E-03    -130.622E+06    -262.123E+06    -121.201E+06     568.255E+03    -229.448E-03     458.584E-03    -229.136E-03     42.5111E-03    -229.795E-03     457.888E-03    -229.172E-03     37.5511E-03
             351     2.14691E-03     90.6929E-03    -125.638E+06    -242.596E+06    -106.203E+06     418.280E+03    -229.703E-03     458.861E-03    -229.158E-03     62.7309E-03    -230.363E-03     458.522E-03    -229.155E-03     55.3207E-03
             352     2.86274E-03     90.7918E-03    -118.526E+06    -223.932E+06    -87.4009E+06     443.504E+03    -230.049E-03     459.218E-03    -229.168E-03     82.9432E-03    -231.140E-03     459.346E-03    -229.109E-03     72.9973E-03
             353     3.57882E-03     90.9169E-03    -110.117E+06    -195.904E+06    -67.5084E+06     465.070E+03    -230.536E-03     459.693E-03    -229.156E-03     103.017E-03    -232.201E-03     460.467E-03    -229.050E-03     90.4261E-03
             354     4.29486E-03     91.0694E-03    -101.728E+06    -159.550E+06    -48.1546E+06     591.822E+03    -231.100E-03     460.227E-03    -229.127E-03     122.856E-03    -233.497E-03     461.836E-03    -228.989E-03     107.511E-03
             355     5.01095E-03     91.2474E-03    -93.1224E+06    -129.096E+06    -28.6980E+06     1.06838E+06    -231.711E-03     460.818E-03    -229.106E-03     142.199E-03    -234.977E-03     463.378E-03    -228.928E-03     124.045E-03
             356     5.72696E-03     91.4510E-03    -84.4456E+06    -94.7149E+06    -10.0420E+06     1.00958E+06    -232.408E-03     461.488E-03    -229.080E-03     160.981E-03    -236.701E-03     465.174E-03    -228.870E-03     139.935E-03
             357     6.44344E-03     91.6786E-03    -75.3794E+06    -54.3252E+06     8.20583E+06     518.518E+03    -233.198E-03     462.253E-03    -229.055E-03     179.148E-03    -238.662E-03     467.232E-03    -228.826E-03     155.205E-03
             358     7.15958E-03     91.9312E-03    -65.6315E+06    -14.4140E+06     26.0820E+06     432.049E+03    -233.915E-03     462.953E-03    -229.038E-03     196.282E-03    -240.635E-03     469.313E-03    -228.792E-03     169.609E-03
             359     7.87580E-03     92.2050E-03    -56.5004E+06     10.2902E+06     38.7164E+06     432.424E+03    -234.555E-03     463.579E-03    -229.024E-03     211.417E-03    -242.522E-03     471.270E-03    -228.763E-03     182.257E-03
             360     8.59167E-03     92.4977E-03    -49.0643E+06     19.3079E+06     46.1849E+06     471.707E+03    -235.021E-03     464.032E-03    -229.011E-03     223.575E-03    -244.088E-03     472.859E-03    -228.737E-03     192.405E-03
             361     9.30802E-03     92.8041E-03    -42.1846E+06     25.4120E+06     53.0986E+06     176.975E+03    -234.975E-03     463.967E-03    -228.992E-03     231.121E-03    -244.840E-03     473.619E-03    -228.702E-03     198.640E-03
             362     10.0253E-03     93.1157E-03    -34.9350E+06     37.7681E+06     64.0190E+06     54.2171E+03    -234.794E-03     463.773E-03    -228.979E-03     233.060E-03    -245.078E-03     473.881E-03    -228.663E-03     199.909E-03
             363     10.7407E-03     93.4265E-03    -28.5743E+06     47.0692E+06     74.3056E+06     1.13012E+06    -234.607E-03     463.594E-03    -228.987E-03     229.185E-03    -244.839E-03     473.676E-03    -228.642E-03     196.037E-03
             364     11.4559E-03     93.7273E-03    -22.2245E+06     47.8018E+06     76.3665E+06     431.511E+03    -234.327E-03     463.319E-03    -228.992E-03     222.511E-03    -244.143E-03     473.005E-03    -228.647E-03     189.841E-03
             365     12.1727E-03     94.0191E-03    -14.8457E+06     54.6294E+06     77.2276E+06    -1.54033E+06    -233.476E-03     462.460E-03    -228.984E-03     210.003E-03    -242.250E-03     471.151E-03    -228.655E-03     179.033E-03
             366     12.8889E-03     94.2843E-03    -8.82385E+06     63.3413E+06     81.1082E+06    -1.64572E+06    -232.529E-03     461.499E-03    -228.970E-03     199.125E-03    -240.358E-03     469.286E-03    -228.644E-03     169.858E-03
             367     13.6057E-03     94.5450E-03    -4.92841E+06     63.9234E+06     82.9550E+06    -701.851E+03    -231.165E-03     460.114E-03    -228.950E-03     161.294E-03    -236.594E-03     465.512E-03    -228.620E-03     137.628E-03
             368     716.173E-06     92.0762E-03    -134.261E+06    -277.210E+06    -131.834E+06     391.823E+03    -229.152E-03     458.074E-03    -228.922E-03     23.1489E-03    -229.310E-03     457.155E-03    -228.985E-03     20.4768E-03
             369     1.43121E-03     92.1199E-03    -130.374E+06    -262.730E+06    -121.550E+06     305.162E+03    -229.392E-03     458.414E-03    -229.021E-03     42.5995E-03    -229.737E-03     457.715E-03    -229.059E-03     37.6419E-03
             370     2.14719E-03     92.1911E-03    -125.069E+06    -242.930E+06    -106.147E+06     556.826E+03    -229.637E-03     458.698E-03    -229.061E-03     62.9081E-03    -230.294E-03     458.356E-03    -229.058E-03     55.5130E-03
             371     2.86313E-03     92.2892E-03    -118.228E+06    -224.166E+06    -87.3723E+06     599.225E+03    -230.016E-03     459.097E-03    -229.080E-03     83.1182E-03    -231.108E-03     459.226E-03    -229.021E-03     73.1661E-03
             372     3.57902E-03     92.4148E-03    -110.117E+06    -196.448E+06    -67.7118E+06     788.557E+03    -230.541E-03     459.622E-03    -229.081E-03     103.080E-03    -232.206E-03     460.395E-03    -228.975E-03     90.4905E-03
             373     4.29503E-03     92.5668E-03    -101.593E+06    -160.537E+06    -48.1715E+06     1.19253E+06    -231.097E-03     460.164E-03    -229.067E-03     122.727E-03    -233.490E-03     461.766E-03    -228.928E-03     107.394E-03
             374     5.01125E-03     92.7449E-03    -92.5698E+06    -130.061E+06    -28.5721E+06     1.53744E+06    -231.760E-03     460.819E-03    -229.060E-03     141.954E-03    -235.020E-03     463.372E-03    -228.880E-03     123.795E-03
             375     5.72766E-03     92.9484E-03    -83.0021E+06    -95.1276E+06    -9.32118E+06     1.61221E+06    -232.569E-03     461.625E-03    -229.056E-03     160.717E-03    -236.853E-03     465.304E-03    -228.844E-03     139.657E-03
             376     6.44332E-03     93.1769E-03    -73.9189E+06    -52.9694E+06     9.68073E+06     1.49787E+06    -233.368E-03     462.423E-03    -229.056E-03     178.875E-03    -238.825E-03     467.402E-03    -228.823E-03     154.929E-03
             377     7.15925E-03     93.4289E-03    -65.8097E+06    -13.1971E+06     26.9083E+06     1.05932E+06    -233.975E-03     463.029E-03    -229.054E-03     195.946E-03    -240.696E-03     469.392E-03    -228.805E-03     169.267E-03
             378     7.87544E-03     93.7029E-03    -57.8915E+06     9.61929E+06     38.2533E+06     822.669E+03    -234.500E-03     463.541E-03    -229.041E-03     211.279E-03    -242.469E-03     471.228E-03    -228.779E-03     182.127E-03
             379     8.59176E-03     93.9960E-03    -49.3274E+06     19.3785E+06     45.9578E+06     856.713E+03    -234.815E-03     463.832E-03    -229.017E-03     223.340E-03    -243.878E-03     472.655E-03    -228.743E-03     192.200E-03
             380     9.30831E-03     94.3009E-03    -41.1860E+06     27.0862E+06      54.081E+06     732.420E+03    -234.958E-03     463.951E-03    -228.993E-03     230.809E-03    -244.824E-03     473.610E-03    -228.703E-03     198.314E-03
             381     10.0239E-03     94.6133E-03    -34.4138E+06     36.2207E+06     64.3198E+06     1.20627E+06    -235.003E-03     463.992E-03    -228.989E-03     233.216E-03    -245.278E-03     474.087E-03    -228.670E-03     200.083E-03
             382     10.7405E-03     94.9250E-03    -26.7871E+06     46.3150E+06     75.3694E+06     906.635E+03    -234.686E-03     463.687E-03    -229.001E-03     230.026E-03    -244.919E-03     473.771E-03    -228.653E-03     196.887E-03
             383     11.4573E-03     95.2263E-03    -18.6439E+06     52.2428E+06     79.6666E+06    -505.900E+03    -234.233E-03     463.230E-03    -228.997E-03     223.525E-03    -244.049E-03     472.934E-03    -228.647E-03     190.897E-03
             384     12.1725E-03     95.5178E-03    -13.2979E+06     55.7586E+06     78.6986E+06    -1.36282E+06    -233.282E-03     462.256E-03    -228.974E-03     210.132E-03    -242.066E-03     470.963E-03    -228.642E-03     179.160E-03
             385     12.8891E-03     95.7810E-03    -8.42973E+06     61.1111E+06     81.1058E+06    -667.319E+03    -232.708E-03     461.668E-03    -228.960E-03     198.820E-03    -240.538E-03     469.449E-03    -228.631E-03     169.535E-03
             386     13.6054E-03     96.0432E-03    -3.26733E+06     63.4447E+06     83.8376E+06     232.988E+03    -231.541E-03     460.498E-03    -228.957E-03     160.801E-03    -236.954E-03     465.882E-03    -228.625E-03     137.114E-03
             387     715.348E-06     93.5732E-03    -133.878E+06    -277.348E+06    -132.136E+06    -322.315E+03    -228.998E-03     457.971E-03    -228.973E-03     23.2520E-03    -229.154E-03     457.051E-03    -229.038E-03     20.5620E-03
             388     1.43196E-03     93.6176E-03    -130.723E+06    -263.236E+06    -122.179E+06     14.1123E+03    -229.198E-03     458.138E-03    -228.939E-03     42.5607E-03    -229.543E-03     457.438E-03    -228.979E-03     37.6058E-03
             389     2.14764E-03     93.6885E-03    -125.209E+06    -243.766E+06    -106.775E+06     124.277E+03    -229.566E-03     458.524E-03    -228.958E-03     62.6014E-03    -230.219E-03     458.177E-03    -228.957E-03     55.2076E-03
             390     2.86348E-03     93.7869E-03    -118.115E+06    -224.986E+06    -87.9332E+06     475.102E+03    -230.045E-03     459.044E-03    -228.999E-03     82.8391E-03    -231.132E-03     459.168E-03    -228.941E-03     72.8867E-03
             391     3.57936E-03     93.9123E-03    -110.226E+06    -197.262E+06    -68.0098E+06     1.00626E+06    -230.582E-03     459.609E-03    -229.028E-03     102.818E-03    -232.244E-03     460.377E-03    -228.922E-03     90.2257E-03
             392     4.29537E-03     94.0644E-03    -101.370E+06    -161.176E+06    -47.9686E+06     1.03204E+06    -231.204E-03     460.243E-03    -229.039E-03     122.459E-03    -233.593E-03     461.839E-03    -228.898E-03     107.121E-03
             393     5.01127E-03     94.2425E-03    -91.9518E+06    -131.300E+06    -28.5931E+06     872.725E+03    -231.973E-03     461.034E-03    -229.061E-03     141.697E-03    -235.230E-03     463.582E-03    -228.881E-03     123.489E-03
             394     5.72688E-03     94.4462E-03      -82.62E+06    -96.6819E+06    -9.64458E+06     1.33526E+06    -232.709E-03     461.790E-03    -229.082E-03     160.499E-03    -236.986E-03     465.460E-03    -228.870E-03     139.417E-03
             395     6.44312E-03     94.6750E-03    -73.3678E+06    -54.2056E+06     9.78525E+06     2.45195E+06    -233.326E-03     462.413E-03    -229.088E-03     178.747E-03    -238.773E-03     467.380E-03    -228.854E-03     154.836E-03
             396     7.15920E-03     94.9271E-03    -64.1530E+06    -12.5480E+06     27.9445E+06     3.49851E+06    -233.878E-03     462.954E-03    -229.076E-03     196.023E-03    -240.597E-03     469.320E-03    -228.825E-03     169.380E-03
             397     7.87522E-03     95.2008E-03    -55.5999E+06     11.9962E+06     40.1456E+06     2.77519E+06    -234.361E-03     463.409E-03    -229.048E-03     211.530E-03    -242.329E-03     471.106E-03    -228.784E-03     182.425E-03
             398     8.59166E-03     95.4932E-03    -47.7011E+06     20.8063E+06     47.8421E+06     1.14921E+06    -234.797E-03     463.813E-03    -229.016E-03     223.599E-03    -243.861E-03     472.642E-03    -228.737E-03     192.476E-03
             399     9.30792E-03     95.7986E-03    -39.9449E+06     26.8107E+06     55.3827E+06     778.560E+03    -235.156E-03     464.152E-03    -228.996E-03     231.163E-03    -245.025E-03     473.813E-03    -228.700E-03     198.655E-03
             400     10.0248E-03     96.1117E-03    -31.6339E+06     36.0275E+06     66.1075E+06     995.845E+03    -235.122E-03     464.122E-03    -228.999E-03     233.445E-03    -245.392E-03     474.216E-03    -228.675E-03     200.286E-03
             401     10.7410E-03     96.4224E-03    -23.9617E+06     47.6154E+06     77.5007E+06     237.653E+03    -234.610E-03     463.622E-03    -229.012E-03     229.830E-03    -244.826E-03     473.697E-03    -228.658E-03     196.682E-03
             402     11.4566E-03     96.7252E-03    -18.3629E+06     53.3964E+06     80.7307E+06    -243.839E+03    -233.948E-03     462.945E-03    -228.998E-03     222.851E-03    -243.746E-03     472.633E-03    -228.645E-03     190.270E-03
             403     12.1736E-03     97.0157E-03    -13.1354E+06     56.5382E+06     80.0833E+06     192.301E+03    -233.191E-03     462.162E-03    -228.971E-03     209.357E-03    -241.957E-03     470.850E-03    -228.633E-03     178.445E-03
             404     12.8894E-03     97.2799E-03    -8.61381E+06     60.7527E+06     81.5744E+06     319.512E+03    -232.977E-03     461.940E-03    -228.963E-03     198.786E-03    -240.812E-03     469.723E-03    -228.631E-03     169.487E-03
             405     13.6045E-03     97.5424E-03    -5.03440E+06     62.9179E+06     81.8219E+06     399.123E+03    -231.727E-03     460.688E-03    -228.961E-03     161.257E-03    -237.152E-03     466.081E-03    -228.636E-03     137.565E-03
             406     716.200E-06     95.0704E-03    -134.417E+06    -277.268E+06    -131.816E+06        -254.344    -229.062E-03     458.063E-03    -229.000E-03     22.9459E-03    -229.222E-03     457.144E-03    -229.063E-03     20.2543E-03
             407     1.43140E-03     95.1148E-03    -131.070E+06    -263.481E+06    -122.150E+06     84.7007E+03    -229.195E-03     458.176E-03    -228.981E-03     42.2279E-03    -229.540E-03     457.475E-03    -229.020E-03     37.2593E-03
             408     2.14743E-03     95.1859E-03    -125.638E+06    -243.748E+06    -106.583E+06     57.6772E+03    -229.515E-03     458.497E-03    -228.983E-03     62.2869E-03    -230.169E-03     458.149E-03    -228.980E-03     54.8919E-03
             409     2.86331E-03     95.2842E-03    -118.606E+06    -225.825E+06    -88.0655E+06        -737.766    -230.044E-03     459.058E-03    -229.014E-03     82.5624E-03    -231.128E-03     459.174E-03    -228.955E-03     72.6192E-03
             410     3.57922E-03     95.4100E-03    -110.450E+06    -198.446E+06    -68.7464E+06     309.526E+03    -230.631E-03     459.676E-03    -229.044E-03     102.489E-03    -232.289E-03     460.436E-03    -228.940E-03     89.8844E-03
             411     4.29511E-03     95.5618E-03    -101.522E+06    -161.705E+06    -48.6746E+06     617.376E+03    -231.298E-03     460.365E-03    -229.067E-03     122.241E-03    -233.686E-03     461.959E-03    -228.929E-03     106.878E-03
             412     5.01094E-03     95.7408E-03    -92.6831E+06    -132.058E+06    -29.0152E+06     448.202E+03    -232.031E-03     461.132E-03    -229.100E-03     141.714E-03    -235.291E-03     463.678E-03    -228.919E-03     123.495E-03
             413     5.72695E-03     95.9443E-03    -83.6836E+06    -98.0927E+06    -10.3878E+06     642.871E+03    -232.669E-03     461.785E-03    -229.116E-03     160.702E-03    -236.951E-03     465.451E-03    -228.904E-03     139.621E-03
             414     6.44275E-03     96.1729E-03    -73.8575E+06     -57.572E+06     8.36342E+06     1.54690E+06    -233.190E-03     462.294E-03    -229.104E-03     179.056E-03    -238.636E-03     467.249E-03    -228.872E-03     155.151E-03
             415     7.15906E-03     96.4247E-03    -63.5786E+06    -15.2387E+06     26.8915E+06     2.38501E+06    -233.682E-03     462.751E-03    -229.069E-03     196.282E-03    -240.392E-03     469.104E-03    -228.821E-03     169.655E-03
             416     7.87579E-03     96.6986E-03    -53.2360E+06     13.4703E+06     41.1068E+06     2.86101E+06    -234.267E-03     463.293E-03    -229.027E-03     211.568E-03    -242.224E-03     470.990E-03    -228.763E-03     182.485E-03
             417     8.59224E-03     96.9907E-03    -44.2847E+06     22.7853E+06     50.2068E+06     2.94968E+06    -234.951E-03     463.952E-03    -229.001E-03     223.626E-03    -243.997E-03     472.776E-03    -228.719E-03     192.529E-03
             418     9.30853E-03     97.2972E-03    -37.3814E+06     28.3989E+06     58.1189E+06     2.02585E+06    -235.394E-03     464.394E-03    -229.000E-03     230.987E-03    -245.253E-03     474.053E-03    -228.697E-03     198.466E-03
             419     10.0241E-03     97.6088E-03    -31.1703E+06     36.7846E+06     67.6030E+06     562.444E+03    -235.307E-03     464.328E-03    -229.021E-03     233.078E-03    -245.590E-03     474.434E-03    -228.691E-03     199.830E-03
             420     10.7399E-03     97.9214E-03    -25.0762E+06     46.9901E+06     77.4412E+06     635.965E+03    -234.753E-03     463.797E-03    -229.044E-03     229.570E-03    -244.976E-03     473.873E-03    -228.689E-03     196.390E-03
             421     11.4566E-03     98.2221E-03    -19.0762E+06     53.8890E+06     81.2316E+06     1.65753E+06    -233.982E-03     463.021E-03    -229.039E-03     222.265E-03    -243.780E-03     472.707E-03    -228.683E-03     189.691E-03
             422     12.1724E-03     98.5138E-03    -14.2356E+06     56.9928E+06     79.9267E+06     1.75077E+06    -232.939E-03     461.945E-03    -229.006E-03     208.656E-03    -241.673E-03     470.599E-03    -228.668E-03     177.848E-03
             423     12.8887E-03     98.7782E-03    -9.49825E+06     61.0762E+06     80.9605E+06     1.40283E+06    -232.561E-03     461.537E-03    -228.975E-03     198.786E-03    -240.360E-03     469.283E-03    -228.645E-03     169.661E-03
             424     13.6058E-03     99.0409E-03    -4.43051E+06     64.2278E+06     82.7463E+06     271.037E+03    -231.570E-03     460.529E-03    -228.959E-03     161.498E-03    -236.987E-03     465.918E-03    -228.632E-03     137.862E-03
             425     715.238E-06     96.5686E-03    -134.756E+06    -277.930E+06    -132.530E+06     510.231E+03    -229.189E-03     458.208E-03    -229.019E-03     22.9975E-03    -229.348E-03     457.287E-03    -229.083E-03     20.3189E-03
             426     1.43144E-03     96.6123E-03    -131.383E+06    -263.424E+06    -122.156E+06     277.887E+03    -229.250E-03     458.300E-03    -229.050E-03     42.3395E-03    -229.597E-03     457.600E-03    -229.088E-03     37.3764E-03
             427     2.14727E-03     96.6832E-03    -126.116E+06    -243.896E+06    -106.792E+06     244.542E+03    -229.574E-03     458.620E-03    -229.045E-03     62.4854E-03    -230.231E-03     458.272E-03    -229.043E-03     55.0925E-03
             428     2.86317E-03     96.7820E-03    -119.200E+06    -225.844E+06    -88.0225E+06     69.1786E+03    -230.100E-03     459.176E-03    -229.075E-03     82.6256E-03    -231.187E-03     459.293E-03    -229.015E-03     72.6845E-03
             429     3.57896E-03     96.9075E-03    -111.161E+06    -198.792E+06    -69.0502E+06    -279.453E+03    -230.696E-03     459.800E-03    -229.105E-03     102.574E-03    -232.358E-03     460.562E-03    -229.000E-03     89.9518E-03
             430     4.29476E-03     97.0599E-03    -102.453E+06    -162.811E+06    -49.7979E+06    -121.259E+03    -231.293E-03     460.412E-03    -229.119E-03     122.405E-03    -233.685E-03     462.007E-03    -228.984E-03     107.020E-03
             431     5.01073E-03     97.2384E-03    -93.3124E+06    -132.255E+06    -29.7126E+06     482.330E+03    -231.884E-03     461.017E-03    -229.133E-03     141.869E-03    -235.142E-03     463.560E-03    -228.954E-03     123.685E-03
             432     5.72672E-03     97.4423E-03    -84.1501E+06    -98.2311E+06    -10.6691E+06     596.490E+03    -232.463E-03     461.584E-03    -229.121E-03     160.811E-03    -236.743E-03     465.248E-03    -228.910E-03     139.767E-03
             433     6.44318E-03     97.6705E-03    -75.0146E+06    -58.6476E+06     7.40477E+06     73.2942E+03    -233.046E-03     462.133E-03    -229.086E-03     179.161E-03    -238.493E-03     467.083E-03    -228.856E-03     155.259E-03
             434     7.15953E-03     97.9223E-03    -65.5537E+06    -16.7645E+06     25.4433E+06    -390.499E+03    -233.706E-03     462.752E-03    -229.046E-03     196.308E-03    -240.417E-03     469.097E-03    -228.799E-03     169.657E-03
             435     7.87573E-03     98.1958E-03    -56.2861E+06     10.7075E+06     38.6318E+06    -208.850E+03    -234.512E-03     463.530E-03    -229.017E-03     211.301E-03    -242.473E-03     471.216E-03    -228.758E-03     182.144E-03
             436     8.59195E-03     98.4887E-03    -47.8740E+06     20.0782E+06     46.5514E+06     949.066E+03    -235.175E-03     464.188E-03    -229.013E-03     223.004E-03    -244.223E-03     473.003E-03    -228.740E-03     191.826E-03
             437     9.30785E-03     98.7951E-03    -40.1550E+06     28.4780E+06     55.1896E+06     2.22874E+06    -235.421E-03     464.448E-03    -229.027E-03     230.499E-03    -245.289E-03     474.115E-03    -228.734E-03     197.932E-03
             438     10.0240E-03     99.1083E-03    -33.5916E+06     39.5664E+06     66.6089E+06     1.91469E+06    -235.275E-03     464.331E-03    -229.056E-03     232.922E-03    -245.577E-03     474.461E-03    -228.731E-03     199.661E-03
             439     10.7403E-03     99.4188E-03    -27.6364E+06     47.0011E+06     76.6631E+06     1.10683E+06    -234.720E-03     463.801E-03    -229.081E-03     229.605E-03    -244.956E-03     473.883E-03    -228.726E-03     196.441E-03
             440     11.4555E-03     99.7218E-03    -21.5162E+06     51.5915E+06     79.3716E+06     1.66829E+06    -233.919E-03     462.985E-03    -229.066E-03     222.775E-03    -243.727E-03     472.670E-03    -228.713E-03     190.238E-03
             441     12.1716E-03     100.011E-03    -14.7110E+06     58.0389E+06     79.3264E+06     1.97123E+06    -233.223E-03     462.255E-03    -229.032E-03     209.368E-03    -241.989E-03     470.945E-03    -228.698E-03     178.493E-03
             442     12.8891E-03     100.275E-03    -8.83161E+06     63.2611E+06     81.5209E+06     636.039E+03    -232.574E-03     461.586E-03    -229.012E-03     198.175E-03    -240.393E-03     469.361E-03    -228.683E-03     168.916E-03
             443     13.6047E-03     100.540E-03    -4.57080E+06     64.7423E+06     83.6183E+06    -12.8232E+03    -230.947E-03     459.936E-03    -228.989E-03     160.861E-03    -236.361E-03     465.321E-03    -228.658E-03     137.246E-03
             444     716.068E-06     98.0663E-03    -135.122E+06    -278.644E+06    -133.181E+06    -226.312E+03    -229.320E-03     458.185E-03    -228.865E-03     22.9807E-03    -229.478E-03     457.261E-03    -228.931E-03     20.2925E-03
             445     1.43153E-03     98.1098E-03    -131.735E+06    -264.137E+06    -122.982E+06     452.070E+03    -229.322E-03     458.376E-03    -229.054E-03     42.2914E-03    -229.669E-03     457.674E-03    -229.095E-03     37.3292E-03
             446     2.14726E-03     98.1811E-03    -126.387E+06    -243.818E+06    -107.148E+06     344.582E+03    -229.690E-03     458.770E-03    -229.080E-03     62.5090E-03    -230.349E-03     458.425E-03    -229.079E-03     55.1037E-03
             447     2.86293E-03     98.2796E-03    -119.475E+06    -225.587E+06    -88.3378E+06     276.268E+03    -230.118E-03     459.238E-03    -229.120E-03     82.7513E-03    -231.208E-03     459.359E-03    -229.061E-03     72.8016E-03
             448     3.57876E-03     98.4056E-03    -111.432E+06    -198.094E+06    -68.7738E+06     154.508E+03    -230.639E-03     459.775E-03    -229.136E-03     102.908E-03    -232.307E-03     460.544E-03    -229.031E-03     90.2914E-03
             449     4.29467E-03     98.5578E-03    -102.954E+06    -162.855E+06    -49.7301E+06    -342.533E+03    -231.240E-03     460.373E-03    -229.133E-03     122.742E-03    -233.636E-03     461.969E-03    -228.996E-03     107.367E-03
             450     5.01070E-03     98.7362E-03    -94.1710E+06    -133.259E+06    -30.8357E+06     38.1192E+03    -231.809E-03     460.937E-03    -229.128E-03     142.037E-03    -235.069E-03     463.480E-03    -228.953E-03     123.858E-03
             451     5.72702E-03     98.9398E-03    -84.8720E+06    -98.3961E+06    -11.4972E+06     490.297E+03    -232.398E-03     461.506E-03    -229.107E-03     160.831E-03    -236.680E-03     465.170E-03    -228.899E-03     139.794E-03
             452     6.44318E-03     99.1679E-03    -75.7081E+06    -57.1561E+06     7.55609E+06    -129.817E+03    -233.131E-03     462.209E-03    -229.079E-03     178.858E-03    -238.578E-03     467.164E-03    -228.849E-03     154.945E-03
             453     7.15953E-03     99.4198E-03    -66.8660E+06    -16.0199E+06     25.2525E+06    -791.995E+03    -233.962E-03     463.024E-03    -229.062E-03     195.772E-03    -240.673E-03     469.367E-03    -228.815E-03     169.082E-03
             454     7.87562E-03     99.6943E-03    -58.7471E+06     8.98930E+06     37.1798E+06    -532.197E+03    -234.764E-03     463.824E-03    -229.060E-03     210.918E-03    -242.726E-03     471.502E-03    -228.802E-03     181.725E-03
             455     8.59105E-03     99.9872E-03    -51.1910E+06     18.1182E+06     44.7314E+06    -204.481E+03    -235.272E-03     464.342E-03    -229.070E-03     223.026E-03    -244.341E-03     473.164E-03    -228.799E-03     191.793E-03
             456     9.30703E-03     100.293E-03    -43.5127E+06     25.7578E+06     53.0570E+06     279.288E+03    -235.404E-03     464.488E-03    -229.083E-03     230.737E-03    -245.296E-03     474.162E-03    -228.792E-03     198.118E-03
             457     10.0233E-03     100.606E-03    -35.2801E+06     39.9052E+06     64.9451E+06     1.51569E+06    -235.129E-03     464.226E-03    -229.097E-03     232.947E-03    -245.431E-03     474.356E-03    -228.779E-03     199.717E-03
             458     10.7390E-03     100.918E-03    -27.6414E+06     47.9901E+06     75.1933E+06     1.73708E+06    -234.429E-03     463.530E-03    -229.102E-03     229.630E-03    -244.659E-03     473.615E-03    -228.755E-03     196.514E-03
             459     11.4562E-03     101.219E-03    -20.5228E+06     49.7247E+06     78.2030E+06     1.01624E+06    -233.837E-03     462.915E-03    -229.078E-03     222.583E-03    -243.633E-03     472.588E-03    -228.729E-03     190.022E-03
             460     12.1735E-03     101.510E-03    -14.8011E+06     57.3439E+06     78.3450E+06     1.16113E+06    -233.324E-03     462.368E-03    -229.044E-03     209.310E-03    -242.086E-03     471.054E-03    -228.714E-03     178.416E-03
             461     12.8863E-03     101.777E-03    -9.91097E+06     64.0025E+06     81.0541E+06     600.283E+03    -232.776E-03     461.810E-03    -229.034E-03     198.657E-03    -240.645E-03     469.636E-03    -228.707E-03     169.283E-03
             462     13.6040E-03     102.031E-03    -4.57287E+06     66.4375E+06     84.0002E+06     24.1384E+03    -231.178E-03     460.200E-03    -229.022E-03     161.566E-03    -236.639E-03     465.637E-03    -228.692E-03     137.842E-03
             463     715.404E-06     99.5638E-03    -135.278E+06    -278.325E+06    -132.839E+06     118.598E+03    -229.408E-03     458.207E-03    -228.799E-03     22.7352E-03    -229.568E-03     457.285E-03    -228.863E-03     20.0640E-03
             464     1.43137E-03     99.6077E-03    -132.074E+06    -265.067E+06    -123.564E+06    -242.317E+03    -229.375E-03     458.448E-03    -229.073E-03     42.3516E-03    -229.722E-03     457.743E-03    -229.115E-03     37.3735E-03
             465     2.14706E-03     99.6789E-03    -126.257E+06    -244.493E+06    -107.921E+06     358.047E+03    -229.667E-03     458.763E-03    -229.096E-03     62.6360E-03    -230.323E-03     458.416E-03    -229.098E-03     55.2328E-03
             466     2.86293E-03     99.7776E-03    -119.280E+06    -225.452E+06    -88.3968E+06     643.398E+03    -230.090E-03     459.214E-03    -229.124E-03     82.8967E-03    -231.180E-03     459.337E-03    -229.066E-03     72.9522E-03
             467     3.57895E-03     99.9030E-03    -111.253E+06    -197.944E+06    -68.6822E+06     417.899E+03    -230.619E-03     459.753E-03    -229.134E-03     102.934E-03    -232.286E-03     460.522E-03    -229.029E-03     90.3216E-03
             468     4.29502E-03     100.056E-03    -102.770E+06    -162.090E+06    -49.3362E+06     364.736E+03    -231.192E-03     460.319E-03    -229.127E-03     122.554E-03    -233.585E-03     461.915E-03    -228.990E-03     107.206E-03
             469     5.01096E-03     100.234E-03    -93.7948E+06    -133.007E+06    -30.0398E+06    -90.9211E+03    -231.845E-03     460.973E-03    -229.128E-03     141.714E-03    -235.105E-03     463.514E-03    -228.949E-03     123.515E-03
             470     5.72698E-03     100.437E-03    -84.4829E+06    -98.8457E+06    -11.4707E+06    -137.006E+03    -232.570E-03     461.692E-03    -229.122E-03     160.430E-03    -236.847E-03     465.352E-03    -228.914E-03     139.347E-03
             471     6.44312E-03     100.666E-03    -75.1073E+06    -57.0057E+06     7.57272E+06     293.490E+03    -233.396E-03     462.515E-03    -229.119E-03     178.566E-03    -238.839E-03     467.467E-03    -228.890E-03     154.622E-03
             472     7.15868E-03     100.918E-03    -66.3908E+06    -15.8193E+06     25.6995E+06     856.885E+03    -234.156E-03     463.281E-03    -229.126E-03     195.726E-03    -240.871E-03     469.631E-03    -228.878E-03     169.013E-03
             473     7.87436E-03     101.192E-03    -57.9755E+06     9.23956E+06     38.0179E+06     1.06398E+06    -234.688E-03     463.813E-03    -229.125E-03     211.135E-03    -242.659E-03     471.501E-03    -228.864E-03     181.947E-03
             474     8.59098E-03     101.485E-03    -49.3461E+06     18.9546E+06     46.1707E+06      674.46E+03    -235.123E-03     464.241E-03    -229.118E-03     223.381E-03    -244.198E-03     473.074E-03    -228.843E-03     192.162E-03
             475     9.30714E-03     101.792E-03    -41.2378E+06     25.2368E+06     54.5682E+06     714.956E+03    -235.405E-03     464.524E-03    -229.119E-03     231.167E-03    -245.293E-03     474.196E-03    -228.823E-03     198.570E-03
             476     10.0227E-03     102.104E-03    -34.1958E+06     37.2651E+06     64.9474E+06     693.901E+03    -235.143E-03     464.265E-03    -229.122E-03     233.398E-03    -245.448E-03     474.393E-03    -228.802E-03     200.159E-03
             477     10.7398E-03     102.415E-03    -26.3752E+06     47.5443E+06     75.3722E+06     710.449E+03    -234.510E-03     463.634E-03    -229.124E-03     229.581E-03    -244.740E-03     473.720E-03    -228.778E-03     196.426E-03
             478     11.4556E-03     102.717E-03    -19.4010E+06     49.8675E+06     78.6109E+06     906.034E+03    -234.020E-03     463.127E-03    -229.107E-03     222.693E-03    -243.812E-03     472.799E-03    -228.758E-03     190.123E-03
             479     12.1695E-03     103.009E-03    -13.3530E+06     56.6738E+06     79.3632E+06     991.443E+03    -233.075E-03     462.147E-03    -229.073E-03     209.359E-03    -241.827E-03     470.824E-03    -228.739E-03     178.502E-03
             480     12.8906E-03     103.271E-03    -8.09274E+06     65.1238E+06     82.0987E+06     1.52874E+06    -232.558E-03     461.603E-03    -229.045E-03     198.388E-03    -240.420E-03     469.429E-03    -228.717E-03     169.044E-03
             481     13.6044E-03     103.537E-03    -3.98234E+06     68.0366E+06     83.6172E+06     1.36348E+06    -231.137E-03     460.158E-03    -229.021E-03     161.159E-03    -236.586E-03     465.592E-03    -228.696E-03     137.480E-03
             482     715.990E-06     101.062E-03    -133.751E+06    -278.117E+06    -131.913E+06    -93.4222E+03    -229.344E-03     458.197E-03    -228.854E-03     23.0010E-03    -229.498E-03     457.273E-03    -228.916E-03     20.3237E-03
             483     1.43141E-03     101.105E-03    -131.095E+06    -265.029E+06    -122.449E+06     106.470E+03    -229.354E-03     458.417E-03    -229.063E-03     42.4659E-03    -229.698E-03     457.709E-03    -229.101E-03     37.4963E-03
             484     2.14726E-03     101.177E-03    -126.029E+06    -245.470E+06    -107.664E+06     136.531E+03    -229.660E-03     458.743E-03    -229.082E-03     62.6763E-03    -230.314E-03     458.390E-03    -229.082E-03     55.2763E-03
             485     2.86316E-03     101.275E-03    -118.828E+06    -226.528E+06    -88.7705E+06     516.244E+03    -230.175E-03     459.294E-03    -229.119E-03     82.8131E-03    -231.261E-03     459.412E-03    -229.062E-03     72.8558E-03
             486     3.57878E-03     101.401E-03    -111.082E+06    -198.339E+06    -68.7311E+06     1.09044E+06    -230.728E-03     459.880E-03    -229.152E-03     102.713E-03    -232.393E-03     460.646E-03    -229.047E-03     90.0983E-03
             487     4.29453E-03     101.553E-03    -102.636E+06    -161.796E+06    -48.6738E+06     894.917E+03    -231.256E-03     460.419E-03    -229.163E-03     122.229E-03    -233.648E-03     462.013E-03    -229.023E-03     106.879E-03
             488     5.01069E-03     101.732E-03    -93.8763E+06    -131.809E+06    -29.3279E+06     117.546E+03    -231.944E-03     461.118E-03    -229.174E-03     141.458E-03    -235.204E-03     463.662E-03    -228.993E-03     123.251E-03
             489     5.72647E-03     101.935E-03    -85.2303E+06    -98.8408E+06    -11.1527E+06    -106.096E+03    -232.754E-03     461.938E-03    -229.184E-03     160.326E-03    -237.039E-03     465.601E-03    -228.973E-03     139.210E-03
             490     6.44221E-03     102.164E-03    -76.6327E+06    -58.2123E+06     7.15549E+06     455.063E+03    -233.454E-03     462.642E-03    -229.188E-03     178.736E-03    -238.910E-03     467.598E-03    -228.957E-03     154.770E-03
             491     7.15838E-03     102.417E-03    -67.2354E+06    -16.2677E+06     25.2837E+06     597.435E+03    -233.996E-03     463.174E-03    -229.179E-03     196.081E-03    -240.721E-03     469.530E-03    -228.931E-03     169.378E-03
             492     7.87480E-03     102.691E-03    -57.2449E+06     8.90044E+06     38.2685E+06     512.211E+03    -234.593E-03     463.752E-03    -229.159E-03     211.502E-03    -242.573E-03     471.449E-03    -228.897E-03     182.299E-03
             493     8.59061E-03     102.983E-03    -48.6654E+06     18.7452E+06     46.2785E+06     794.425E+03    -235.126E-03     464.267E-03    -229.141E-03     223.565E-03    -244.202E-03     473.102E-03    -228.866E-03     192.348E-03
             494     9.30669E-03     103.290E-03    -41.4579E+06     24.7883E+06     53.2278E+06     847.148E+03    -235.260E-03     464.388E-03    -229.128E-03     231.047E-03    -245.138E-03     474.052E-03    -228.838E-03     198.480E-03
             495     10.0237E-03     103.603E-03    -34.0429E+06     37.4626E+06     64.6449E+06     497.008E+03    -235.122E-03     464.252E-03    -229.129E-03     233.223E-03    -245.420E-03     474.374E-03    -228.811E-03     199.986E-03
             496     10.7387E-03     103.914E-03    -27.5144E+06     47.5632E+06     75.6831E+06    -135.387E+03    -234.721E-03     463.863E-03    -229.142E-03     229.744E-03    -244.968E-03     473.962E-03    -228.793E-03     196.539E-03
             497     11.4547E-03     104.215E-03    -20.8937E+06     50.0087E+06     78.8997E+06    -322.368E+03    -233.918E-03     463.045E-03    -229.127E-03     223.021E-03    -243.737E-03     472.738E-03    -228.775E-03     190.426E-03
             498     12.1740E-03     104.506E-03    -14.5850E+06     54.8660E+06     78.4037E+06     211.407E+03    -232.947E-03     462.027E-03    -229.080E-03     209.542E-03    -241.697E-03     470.693E-03    -228.747E-03     178.722E-03
             499     12.8849E-03     104.771E-03    -9.66943E+06     62.7102E+06     80.1905E+06     1.09397E+06    -232.211E-03     461.241E-03    -229.030E-03     199.538E-03    -240.069E-03     469.055E-03    -228.706E-03     170.315E-03
             500     13.6037E-03     105.031E-03    -4.54430E+06     70.1019E+06     83.4861E+06     1.44234E+06    -230.755E-03     459.735E-03    -228.980E-03     162.234E-03    -236.216E-03     465.187E-03    -228.658E-03     138.643E-03
             501     715.537E-06     102.560E-03    -134.203E+06    -279.237E+06    -131.202E+06     562.246E+03    -229.236E-03     458.222E-03    -228.986E-03     22.9281E-03    -229.392E-03     457.291E-03    -229.042E-03     20.2361E-03
             502     1.43151E-03     102.603E-03    -130.573E+06    -265.452E+06    -121.279E+06     727.783E+03    -229.381E-03     458.465E-03    -229.084E-03     42.1840E-03    -229.722E-03     457.752E-03    -229.116E-03     37.2212E-03
             503     2.14727E-03     102.674E-03    -125.248E+06    -245.331E+06    -106.268E+06     375.966E+03    -229.747E-03     458.866E-03    -229.119E-03     62.4359E-03    -230.400E-03     458.511E-03    -229.113E-03     55.0224E-03
             504     2.86280E-03     102.773E-03    -118.789E+06    -227.875E+06    -88.3368E+06     416.990E+03    -230.247E-03     459.416E-03    -229.169E-03     82.6594E-03    -231.331E-03     459.525E-03    -229.108E-03     72.6972E-03
             505     3.57865E-03     102.899E-03    -110.299E+06    -199.481E+06    -68.5193E+06     1.02165E+06    -230.764E-03     459.966E-03    -229.202E-03     102.641E-03    -232.422E-03     460.724E-03    -229.096E-03     90.0279E-03
             506     4.29455E-03     103.052E-03    -101.484E+06    -162.279E+06    -48.1989E+06     1.60970E+06    -231.342E-03     460.556E-03    -229.214E-03     122.310E-03    -233.731E-03     462.148E-03    -229.072E-03     106.950E-03
             507     5.01017E-03     103.229E-03    -92.7807E+06    -130.513E+06    -27.9916E+06     1.47478E+06    -232.057E-03     461.288E-03    -229.231E-03     141.746E-03    -235.320E-03     463.839E-03    -229.047E-03     123.544E-03
             508     5.72621E-03     103.434E-03    -83.7946E+06    -99.5056E+06    -9.10475E+06     1.33441E+06    -232.797E-03     462.042E-03    -229.245E-03     160.699E-03    -237.083E-03     465.704E-03    -229.025E-03     139.589E-03
             509     6.44211E-03     103.662E-03    -74.5138E+06    -58.7659E+06     9.12027E+06     1.75602E+06    -233.391E-03     462.628E-03    -229.237E-03     178.989E-03    -238.845E-03     467.582E-03    -228.998E-03     155.037E-03
             510     7.15822E-03     103.914E-03    -65.5329E+06    -14.3021E+06     26.4701E+06     1.18852E+06    -233.912E-03     463.119E-03    -229.207E-03     196.148E-03    -240.636E-03     469.483E-03    -228.959E-03     169.457E-03
             511     7.87435E-03     104.189E-03    -57.5349E+06     9.08985E+06     37.9044E+06     199.446E+03    -234.576E-03     463.753E-03    -229.177E-03     211.450E-03    -242.551E-03     471.446E-03    -228.917E-03     182.262E-03
             512     8.59062E-03     104.482E-03    -49.2254E+06     17.4854E+06     45.4593E+06     116.182E+03    -235.147E-03     464.304E-03    -229.158E-03     223.528E-03    -244.213E-03     473.126E-03    -228.884E-03     192.327E-03
             513     9.30679E-03     104.788E-03    -40.7421E+06     24.4000E+06     53.6861E+06     314.468E+03    -235.329E-03     464.480E-03    -229.151E-03     230.903E-03    -245.206E-03     474.143E-03    -228.859E-03     198.308E-03
             514     10.0223E-03     105.100E-03    -33.4016E+06     37.9734E+06     65.3579E+06     848.498E+03    -235.013E-03     464.163E-03    -229.150E-03     233.259E-03    -245.310E-03     474.287E-03    -228.830E-03     200.038E-03
             515     10.7394E-03     105.413E-03    -26.2378E+06     48.9063E+06     76.6694E+06     1.24433E+06    -234.367E-03     463.510E-03    -229.143E-03     230.112E-03    -244.600E-03     473.601E-03    -228.793E-03     197.019E-03
             516     11.4560E-03     105.713E-03    -20.4056E+06     50.3817E+06     78.9918E+06     844.821E+03    -233.731E-03     462.834E-03    -229.103E-03     223.514E-03    -243.543E-03     472.523E-03    -228.752E-03     191.003E-03
             517     12.1690E-03     106.004E-03    -15.0873E+06     54.3434E+06     78.2300E+06     515.819E+03    -232.844E-03     461.888E-03    -229.044E-03     210.392E-03    -241.603E-03     470.560E-03    -228.710E-03     179.614E-03
             518     12.8917E-03     106.268E-03    -9.42868E+06     61.3398E+06     80.8158E+06     527.914E+03    -232.293E-03     461.290E-03    -228.997E-03     198.859E-03    -240.100E-03     469.048E-03    -228.668E-03     169.730E-03
             519     13.6076E-03     106.529E-03    -4.70809E+06     70.0047E+06     83.6541E+06     619.162E+03    -231.291E-03     460.257E-03    -228.967E-03     160.534E-03    -236.714E-03     465.670E-03    -228.643E-03     136.894E-03
             520     715.794E-06     104.057E-03    -134.910E+06    -280.558E+06    -132.593E+06     268.994E+03    -229.267E-03     458.442E-03    -229.174E-03     22.9471E-03    -229.423E-03     457.508E-03    -229.235E-03     20.2418E-03
             521     1.43123E-03     104.101E-03    -130.836E+06    -266.473E+06    -121.782E+06     396.266E+03    -229.476E-03     458.668E-03    -229.192E-03     42.1691E-03    -229.816E-03     457.951E-03    -229.225E-03     37.2001E-03
             522     2.14680E-03     104.172E-03    -125.415E+06    -246.382E+06    -106.441E+06     950.397E+03    -229.803E-03     459.020E-03    -229.218E-03     62.4179E-03    -230.454E-03     458.660E-03    -229.211E-03     55.0130E-03
             523     2.86270E-03     104.271E-03    -118.307E+06    -227.359E+06    -86.9898E+06     858.728E+03    -230.208E-03     459.459E-03    -229.251E-03     82.6596E-03    -231.292E-03     459.567E-03    -229.184E-03     72.7110E-03
             524     3.57837E-03     104.397E-03    -110.523E+06    -200.603E+06    -68.1651E+06     436.702E+03    -230.713E-03     459.971E-03    -229.257E-03     102.694E-03    -232.374E-03     460.724E-03    -229.147E-03     90.0667E-03
             525     4.29421E-03     104.549E-03    -101.484E+06    -163.794E+06    -48.6278E+06     902.906E+03    -231.357E-03     460.608E-03    -229.252E-03     122.425E-03    -233.744E-03     462.195E-03    -229.110E-03     107.050E-03
             526     5.01034E-03     104.728E-03    -91.8053E+06    -131.453E+06    -27.7961E+06     1.95104E+06    -232.104E-03     461.370E-03    -229.266E-03     141.840E-03    -235.360E-03     463.915E-03    -229.082E-03     123.648E-03
             527     5.72598E-03     104.932E-03    -82.7553E+06    -99.8231E+06    -8.76656E+06     2.38469E+06    -232.743E-03     462.018E-03    -229.275E-03     160.708E-03    -237.024E-03     465.676E-03    -229.054E-03     139.624E-03
             528     6.44208E-03     105.160E-03    -73.8104E+06    -58.9096E+06     9.58391E+06     1.96744E+06    -233.329E-03     462.587E-03    -229.257E-03     178.929E-03    -238.780E-03     467.539E-03    -229.017E-03     154.983E-03
             529     7.15815E-03     105.413E-03    -64.5262E+06    -14.5144E+06     27.2481E+06     2.15387E+06    -233.976E-03     463.202E-03    -229.226E-03     196.212E-03    -240.701E-03     469.568E-03    -228.975E-03     169.516E-03
             530     7.87422E-03     105.687E-03    -55.6961E+06     11.1807E+06     39.6613E+06     2.50128E+06    -234.589E-03     463.786E-03    -229.197E-03     211.598E-03    -242.563E-03     471.487E-03    -228.934E-03     182.442E-03
             531     8.59036E-03     105.980E-03    -48.3924E+06     19.4741E+06     46.9599E+06     1.10749E+06    -235.110E-03     464.283E-03    -229.173E-03     223.771E-03    -244.179E-03     473.113E-03    -228.896E-03     192.594E-03
             532     9.30637E-03     106.287E-03    -41.7145E+06     25.2232E+06     54.3985E+06    -376.021E+03    -235.281E-03     464.439E-03    -229.158E-03     231.293E-03    -245.170E-03     474.112E-03    -228.863E-03     198.707E-03
             533     10.0229E-03     106.599E-03    -34.0159E+06     36.3593E+06     65.3780E+06    -382.045E+03    -234.844E-03     463.990E-03    -229.146E-03     233.656E-03    -245.152E-03     474.117E-03    -228.822E-03     200.440E-03
             534     10.7391E-03     106.909E-03    -26.9680E+06     46.6447E+06     75.6188E+06     1.02860E+06    -234.145E-03     463.263E-03    -229.118E-03     230.439E-03    -244.372E-03     473.340E-03    -228.769E-03     197.400E-03
             535     11.4557E-03     107.212E-03    -20.5146E+06     51.4085E+06     79.0869E+06     1.49456E+06    -233.592E-03     462.659E-03    -229.067E-03     223.195E-03    -243.379E-03     472.326E-03    -228.717E-03     190.759E-03
             536     12.1761E-03     107.502E-03    -14.5717E+06     55.3621E+06     78.7813E+06     536.591E+03    -233.028E-03     462.046E-03    -229.018E-03     209.147E-03    -241.783E-03     470.718E-03    -228.684E-03     178.285E-03
             537     12.8864E-03     107.766E-03    -9.19180E+06     60.1860E+06     80.8716E+06     554.902E+03    -232.822E-03     461.824E-03    -229.003E-03     197.980E-03    -240.636E-03     469.586E-03    -228.672E-03     168.712E-03
             538     13.6014E-03     108.027E-03    -4.20050E+06     70.2512E+06     84.2464E+06     817.120E+03    -231.160E-03     460.145E-03    -228.985E-03     161.521E-03    -236.603E-03     465.579E-03    -228.660E-03     137.838E-03
             539     715.360E-06     105.556E-03    -134.263E+06    -281.439E+06    -132.369E+06    -91.2168E+03    -229.391E-03     458.641E-03    -229.250E-03     22.8830E-03    -229.543E-03     457.702E-03    -229.309E-03     20.1968E-03
             540     1.43111E-03     105.600E-03    -131.298E+06    -267.308E+06    -122.326E+06     378.052E+03    -229.498E-03     458.770E-03    -229.272E-03     42.3763E-03    -229.840E-03     458.052E-03    -229.306E-03     37.3962E-03
             541     2.14681E-03     105.671E-03    -126.092E+06    -247.501E+06    -106.881E+06     783.030E+03    -229.797E-03     459.069E-03    -229.272E-03     62.6357E-03    -230.450E-03     458.705E-03    -229.264E-03     55.2379E-03
             542     2.86236E-03     105.770E-03    -118.830E+06    -227.778E+06    -87.7844E+06     934.186E+03    -230.195E-03     459.478E-03    -229.283E-03     82.8602E-03    -231.282E-03     459.589E-03    -229.220E-03     72.9062E-03
             543     3.57837E-03     105.895E-03    -110.555E+06    -200.111E+06    -67.5911E+06     644.790E+03    -230.770E-03     460.059E-03    -229.289E-03     102.877E-03    -232.433E-03     460.815E-03    -229.177E-03     90.2492E-03
             544     4.29427E-03     106.048E-03    -102.254E+06    -164.722E+06    -48.6673E+06     664.858E+03    -231.446E-03     460.736E-03    -229.290E-03     122.503E-03    -233.838E-03     462.321E-03    -229.146E-03     107.113E-03
             545     5.00980E-03     106.226E-03    -93.8569E+06    -134.498E+06    -30.2356E+06     1.41645E+06    -232.039E-03     461.334E-03    -229.295E-03     141.805E-03    -235.298E-03     463.870E-03    -229.115E-03     123.606E-03
             546     5.72594E-03     106.430E-03    -84.7149E+06    -100.475E+06    -11.3732E+06     1.85056E+06    -232.617E-03     461.900E-03    -229.283E-03     160.775E-03    -236.900E-03     465.558E-03    -229.071E-03     139.714E-03
             547     6.44188E-03     106.658E-03    -75.3430E+06    -58.7318E+06     8.24286E+06     1.68699E+06    -233.310E-03     462.567E-03    -229.258E-03     179.182E-03    -238.770E-03     467.528E-03    -229.022E-03     155.234E-03
             548     7.15802E-03     106.911E-03    -66.3088E+06    -16.2250E+06     26.7212E+06     1.60917E+06    -233.987E-03     463.218E-03    -229.230E-03     196.438E-03    -240.721E-03     469.581E-03    -228.977E-03     169.736E-03
             549     7.87427E-03     107.185E-03    -56.9345E+06     10.8860E+06     39.7634E+06     1.49937E+06    -234.609E-03     463.810E-03    -229.202E-03     211.692E-03    -242.595E-03     471.518E-03    -228.936E-03     182.499E-03
             550     8.59051E-03     107.478E-03    -47.6424E+06     21.0412E+06     48.1656E+06     2.03048E+06    -234.961E-03     464.133E-03    -229.172E-03     223.824E-03    -244.033E-03     472.972E-03    -228.893E-03     192.667E-03
             551     9.30689E-03     107.785E-03    -39.5952E+06     28.6101E+06     56.5175E+06     1.76100E+06    -234.911E-03     464.048E-03    -229.137E-03     231.428E-03    -244.785E-03     473.719E-03    -228.838E-03     198.958E-03
             552     10.0233E-03     108.096E-03    -33.6309E+06     35.9242E+06     65.6356E+06     521.772E+03    -234.831E-03     463.939E-03    -229.108E-03     233.716E-03    -245.128E-03     474.053E-03    -228.783E-03     200.547E-03
             553     10.7400E-03     108.407E-03    -27.4648E+06     43.8678E+06     75.2053E+06     729.466E+03    -234.488E-03     463.584E-03    -229.096E-03     230.037E-03    -244.727E-03     473.663E-03    -228.744E-03     196.896E-03
             554     11.4568E-03     108.709E-03    -20.9047E+06     52.0985E+06     79.4806E+06     1.26048E+06    -233.808E-03     462.878E-03    -229.070E-03     222.629E-03    -243.617E-03     472.567E-03    -228.718E-03     190.080E-03
             555     12.1687E-03     108.999E-03    -15.9808E+06     56.1447E+06     78.2722E+06     846.645E+03    -232.976E-03     462.002E-03    -229.025E-03     209.500E-03    -241.743E-03     470.684E-03    -228.692E-03     178.670E-03
             556     12.8899E-03     109.265E-03    -11.0393E+06     60.0384E+06     79.8184E+06     686.350E+03    -232.223E-03     461.208E-03    -228.984E-03     199.620E-03    -240.068E-03     468.995E-03    -228.656E-03     170.459E-03
             557     13.6078E-03     109.526E-03    -4.77223E+06     70.8671E+06     84.9316E+06    -48.9350E+03    -230.958E-03     459.901E-03    -228.943E-03     162.520E-03    -236.416E-03     465.348E-03    -228.614E-03     138.897E-03
             558     715.617E-06     107.054E-03    -135.517E+06    -281.817E+06    -133.285E+06     27.0392E+03    -229.400E-03     458.561E-03    -229.161E-03     23.0099E-03    -229.556E-03     457.623E-03    -229.222E-03     20.3343E-03
             559     1.43116E-03     107.098E-03    -132.022E+06    -267.972E+06    -122.925E+06     305.880E+03    -229.513E-03     458.756E-03    -229.243E-03     42.5565E-03    -229.858E-03     458.037E-03    -229.278E-03     37.5697E-03
             560     2.14680E-03     107.169E-03    -126.516E+06    -247.763E+06    -107.342E+06     329.661E+03    -229.808E-03     459.065E-03    -229.257E-03     62.6812E-03    -230.463E-03     458.703E-03    -229.251E-03     55.2620E-03
             561     2.86275E-03     107.267E-03    -119.362E+06    -229.013E+06    -88.9459E+06     494.835E+03    -230.285E-03     459.567E-03    -229.282E-03     82.8207E-03    -231.370E-03     459.673E-03    -229.222E-03     72.8556E-03
             562     3.57833E-03     107.393E-03    -111.235E+06    -201.171E+06    -69.0359E+06     1.17268E+06    -230.851E-03     460.154E-03    -229.304E-03     102.865E-03    -232.512E-03     460.907E-03    -229.196E-03     90.2521E-03
             563     4.29385E-03     107.546E-03    -102.892E+06    -165.400E+06    -49.4233E+06     1.38402E+06    -231.383E-03     460.688E-03    -229.305E-03     122.704E-03    -233.778E-03     462.273E-03    -229.163E-03     107.336E-03
             564     5.00987E-03     107.725E-03    -93.6683E+06    -135.584E+06    -30.1037E+06     1.35824E+06    -231.969E-03     461.268E-03    -229.298E-03     142.109E-03    -235.231E-03     463.802E-03    -229.117E-03     123.912E-03
             565     5.72593E-03     107.928E-03    -84.1139E+06    -100.773E+06    -10.9343E+06     1.45824E+06    -232.612E-03     461.890E-03    -229.278E-03     161.002E-03    -236.897E-03     465.550E-03    -229.064E-03     139.923E-03
             566     6.44224E-03     108.157E-03    -74.6358E+06    -59.7101E+06     7.98240E+06     1.54011E+06    -233.292E-03     462.540E-03    -229.248E-03     179.280E-03    -238.747E-03     467.495E-03    -229.013E-03     155.337E-03
             567     7.15827E-03     108.409E-03    -64.9603E+06    -16.7265E+06     26.7845E+06     2.00546E+06    -233.988E-03     463.206E-03    -229.218E-03     196.544E-03    -240.714E-03     469.565E-03    -228.966E-03     169.853E-03
             568     7.87430E-03     108.684E-03    -56.4615E+06     11.3487E+06     40.1282E+06     2.04614E+06    -234.568E-03     463.756E-03    -229.188E-03     211.875E-03    -242.556E-03     471.467E-03    -228.922E-03     182.703E-03
             569     8.59026E-03     108.976E-03    -49.3546E+06     19.8565E+06     46.9751E+06     1.57784E+06    -234.828E-03     463.977E-03    -229.149E-03     223.785E-03    -243.905E-03     472.813E-03    -228.872E-03     192.645E-03
             570     9.30715E-03     109.281E-03    -42.5864E+06     29.3884E+06     54.7325E+06     1.50139E+06    -234.912E-03     464.022E-03    -229.109E-03     231.083E-03    -244.801E-03     473.705E-03    -228.817E-03     198.577E-03
             571     10.0240E-03     109.594E-03    -35.3143E+06     37.8443E+06     65.1618E+06     1.40301E+06    -234.917E-03     464.011E-03    -229.094E-03     233.105E-03    -245.212E-03     474.127E-03    -228.772E-03     199.924E-03
             572     10.7396E-03     109.906E-03    -28.3250E+06     42.8894E+06     74.9185E+06     844.903E+03    -234.466E-03     463.561E-03    -229.095E-03     229.791E-03    -244.699E-03     473.628E-03    -228.741E-03     196.665E-03
             573     11.4546E-03     110.207E-03    -22.0026E+06     51.0229E+06     79.2586E+06     917.523E+03    -233.651E-03     462.712E-03    -229.061E-03     223.501E-03    -243.479E-03     472.413E-03    -228.707E-03     190.979E-03
             574     12.1756E-03     110.498E-03    -15.0077E+06     58.7546E+06     80.5090E+06     1.09916E+06    -232.724E-03     461.726E-03    -229.002E-03     210.335E-03    -241.485E-03     470.409E-03    -228.663E-03     179.612E-03
             575     12.8884E-03     110.761E-03    -9.34216E+06     63.8879E+06     82.7602E+06     94.4442E+03    -232.256E-03     461.213E-03    -228.957E-03     198.360E-03    -240.089E-03     468.999E-03    -228.622E-03     169.139E-03
             576     13.6050E-03     111.020E-03    -5.06221E+06     69.8783E+06     84.7575E+06    -644.334E+03    -231.582E-03     460.520E-03    -228.938E-03     160.763E-03    -237.009E-03     465.932E-03    -228.608E-03     137.123E-03
             577     715.731E-06     108.552E-03    -135.811E+06    -281.376E+06    -133.410E+06    -173.676E+03    -229.453E-03     458.485E-03    -229.031E-03     22.8896E-03    -229.611E-03     457.549E-03    -229.094E-03     20.2081E-03
             578     1.43132E-03     108.596E-03    -132.175E+06    -268.242E+06    -123.481E+06    -368.562E+03    -229.524E-03     458.739E-03    -229.215E-03     42.3402E-03    -229.865E-03     458.017E-03    -229.252E-03     37.3690E-03
             579     2.14693E-03     108.667E-03    -126.543E+06    -248.330E+06    -108.388E+06    -24.1780E+03    -229.853E-03     459.099E-03    -229.246E-03     62.5912E-03    -230.506E-03     458.735E-03    -229.244E-03     55.1642E-03
             580     2.86237E-03     108.766E-03    -119.836E+06    -229.909E+06    -89.3720E+06     673.324E+03    -230.331E-03     459.619E-03    -229.288E-03     82.8759E-03    -231.417E-03     459.723E-03    -229.228E-03     72.9067E-03
             581     3.57801E-03     108.892E-03    -111.983E+06    -202.704E+06    -70.1505E+06     727.909E+03    -230.765E-03     460.068E-03    -229.303E-03     103.016E-03    -232.429E-03     460.818E-03    -229.198E-03     90.3993E-03
             582     4.29425E-03     109.044E-03    -102.748E+06    -166.054E+06    -50.0156E+06     915.521E+03    -231.234E-03     460.516E-03    -229.283E-03     122.826E-03    -233.625E-03     462.099E-03    -229.143E-03     107.465E-03
             583     5.01033E-03     109.223E-03    -93.6092E+06    -135.802E+06    -29.7198E+06     1.07383E+06    -231.929E-03     461.197E-03    -229.268E-03     142.176E-03    -235.192E-03     463.732E-03    -229.084E-03     123.972E-03
             584     5.72616E-03     109.426E-03    -84.4697E+06    -101.747E+06    -11.0724E+06     918.746E+03    -232.696E-03     461.948E-03    -229.253E-03     161.093E-03    -236.987E-03     465.610E-03    -229.038E-03     139.978E-03
             585     6.44194E-03     109.655E-03    -75.2967E+06    -60.5329E+06     7.42110E+06     1.15671E+06    -233.359E-03     462.590E-03    -229.232E-03     179.332E-03    -238.817E-03     467.545E-03    -228.998E-03     155.375E-03
             586     7.15826E-03     109.907E-03    -66.4278E+06    -18.0646E+06     25.3997E+06     1.29750E+06    -233.919E-03     463.121E-03    -229.202E-03     196.556E-03    -240.649E-03     469.477E-03    -228.952E-03     169.867E-03
             587     7.87455E-03     110.182E-03    -57.3216E+06     9.74219E+06     38.3746E+06     2.45947E+06    -234.351E-03     463.509E-03    -229.158E-03     211.721E-03    -242.331E-03     471.209E-03    -228.897E-03     182.590E-03
             588     8.59137E-03     110.474E-03    -48.7245E+06     20.4782E+06     47.0526E+06     3.53490E+06    -234.824E-03     463.941E-03    -229.118E-03     223.637E-03    -243.897E-03     472.777E-03    -228.841E-03     192.519E-03
             589     9.30716E-03     110.780E-03    -41.1657E+06     30.6350E+06     57.0364E+06     2.63147E+06    -235.209E-03     464.308E-03    -229.099E-03     231.348E-03    -245.108E-03     474.004E-03    -228.799E-03     198.815E-03
             590     10.0225E-03     111.092E-03    -34.0743E+06     38.3232E+06     67.3237E+06     1.97311E+06    -234.992E-03     464.086E-03    -229.094E-03     233.826E-03    -245.301E-03     474.216E-03    -228.764E-03     200.654E-03
             591     10.7395E-03     111.403E-03    -27.1749E+06     44.7393E+06     76.3278E+06     1.64578E+06    -234.280E-03     463.360E-03    -229.079E-03     230.405E-03    -244.524E-03     473.445E-03    -228.723E-03     197.315E-03
             592     11.4582E-03     111.705E-03    -19.6305E+06     51.8164E+06     80.8930E+06     646.160E+03    -233.629E-03     462.670E-03    -229.041E-03     222.741E-03    -243.426E-03     472.346E-03    -228.683E-03     190.229E-03
             593     12.1707E-03     111.994E-03    -13.5122E+06     57.1357E+06     80.8684E+06     857.170E+03    -232.936E-03     461.932E-03    -228.996E-03     208.727E-03    -241.673E-03     470.590E-03    -228.655E-03     177.903E-03
             594     12.8903E-03     112.260E-03    -8.77346E+06     66.5717E+06     83.6484E+06     1.38894E+06    -232.963E-03     461.946E-03    -228.982E-03     198.046E-03    -240.807E-03     469.751E-03    -228.648E-03     168.722E-03
             595     13.6046E-03     112.521E-03    -4.11036E+06     71.8311E+06     86.4624E+06     207.212E+03    -231.626E-03     460.613E-03    -228.987E-03     161.527E-03    -237.074E-03     466.050E-03    -228.653E-03     137.833E-03
             596     715.445E-06     110.051E-03    -135.633E+06    -281.523E+06    -133.058E+06     451.306E+03    -229.512E-03     458.573E-03    -229.061E-03     22.9441E-03    -229.669E-03     457.635E-03    -229.122E-03     20.2698E-03
             597     1.43106E-03     110.094E-03    -132.622E+06    -267.728E+06    -123.310E+06     174.551E+03    -229.470E-03     458.710E-03    -229.240E-03     42.3370E-03    -229.816E-03     457.992E-03    -229.276E-03     37.3700E-03
             598     2.14680E-03     110.165E-03    -127.820E+06    -249.094E+06    -108.594E+06    -159.792E+03    -229.777E-03     459.018E-03    -229.241E-03     62.7686E-03    -230.435E-03     458.653E-03    -229.237E-03     55.3436E-03
             599     2.86258E-03     110.264E-03    -120.428E+06    -230.685E+06    -89.9404E+06    -129.118E+03    -230.209E-03     459.465E-03    -229.256E-03     83.1552E-03    -231.299E-03     459.570E-03    -229.197E-03     73.1720E-03
             600     3.57856E-03     110.390E-03    -111.899E+06    -202.716E+06    -70.2715E+06     341.435E+03    -230.707E-03     459.963E-03    -229.256E-03     103.127E-03    -232.370E-03     460.713E-03    -229.151E-03     90.5097E-03
             601     4.29424E-03     110.542E-03    -103.690E+06    -166.944E+06    -50.6739E+06     582.493E+03    -231.288E-03     460.531E-03    -229.242E-03     122.813E-03    -233.684E-03     462.113E-03    -229.103E-03     107.435E-03
             602     5.01014E-03     110.720E-03    -94.8048E+06    -136.592E+06    -31.0782E+06     647.762E+03    -231.960E-03     461.198E-03    -229.237E-03     142.173E-03    -235.227E-03     463.733E-03    -229.057E-03     123.951E-03
             603     5.72634E-03     110.925E-03    -85.5913E+06    -102.515E+06    -12.2245E+06     531.637E+03    -232.681E-03     461.909E-03    -229.228E-03     161.047E-03    -236.971E-03     465.567E-03    -229.016E-03     139.946E-03
             604     6.44251E-03     111.153E-03    -76.4961E+06    -61.8700E+06     6.21065E+06     1.11484E+06    -233.349E-03     462.558E-03    -229.209E-03     179.322E-03    -238.811E-03     467.511E-03    -228.977E-03     155.364E-03
             605     7.15829E-03     111.406E-03    -67.8846E+06    -18.6006E+06     24.4387E+06     2.23470E+06    -233.807E-03     462.983E-03    -229.176E-03     196.585E-03    -240.541E-03     469.339E-03    -228.929E-03     169.926E-03
             606     7.87472E-03     111.679E-03    -59.7268E+06     8.55036E+06     37.0341E+06     1.53942E+06    -234.298E-03     463.425E-03    -229.127E-03     211.796E-03    -242.286E-03     471.124E-03    -228.868E-03     182.665E-03
             607     8.59081E-03     111.972E-03    -50.6294E+06     18.4948E+06     44.9670E+06     811.307E+03    -234.899E-03     463.985E-03    -229.086E-03     223.812E-03    -243.978E-03     472.819E-03    -228.814E-03     192.647E-03
             608     9.30751E-03     112.278E-03    -41.4405E+06     29.8737E+06     54.1249E+06     1.88212E+06    -235.092E-03     464.151E-03    -229.059E-03     231.409E-03    -244.984E-03     473.845E-03    -228.771E-03     198.883E-03
             609     10.0248E-03     112.591E-03    -33.7279E+06     38.9507E+06     65.6285E+06     2.27090E+06    -234.918E-03     463.971E-03    -229.053E-03     233.557E-03    -245.226E-03     474.107E-03    -228.733E-03     200.369E-03
             610     10.7410E-03     112.901E-03    -26.2699E+06     46.2706E+06     77.3456E+06     837.822E+03    -234.532E-03     463.595E-03    -229.062E-03     229.785E-03    -244.775E-03     473.684E-03    -228.705E-03     196.616E-03
             611     11.4547E-03     113.203E-03    -20.0361E+06     52.0000E+06     80.9584E+06     614.480E+03    -233.989E-03     463.038E-03    -229.048E-03     222.532E-03    -243.796E-03     472.723E-03    -228.690E-03     189.954E-03
             612     12.1740E-03     113.494E-03    -14.8680E+06     56.0947E+06     80.2808E+06     1.29457E+06    -233.364E-03     462.390E-03    -229.026E-03     209.321E-03    -242.145E-03     471.085E-03    -228.684E-03     178.383E-03
             613     12.8870E-03     113.757E-03    -9.33880E+06     67.6568E+06     83.5801E+06     1.02370E+06    -232.795E-03     461.808E-03    -229.013E-03     198.948E-03    -240.657E-03     469.635E-03    -228.680E-03     169.636E-03
             614     13.6043E-03     114.022E-03    -4.25915E+06     73.4733E+06     86.3484E+06     781.293E+03    -230.948E-03     459.937E-03    -228.989E-03     161.489E-03    -236.394E-03     465.378E-03    -228.658E-03     137.855E-03
             615     715.644E-06     111.549E-03    -136.425E+06    -282.687E+06    -134.332E+06     217.132E+03    -229.350E-03     458.445E-03    -229.095E-03     23.0913E-03    -229.509E-03     457.505E-03    -229.158E-03     20.4056E-03
             616     1.43131E-03     111.592E-03    -133.057E+06    -268.144E+06    -123.958E+06     551.152E+03    -229.437E-03     458.618E-03    -229.181E-03     42.5328E-03    -229.786E-03     457.902E-03    -229.219E-03     37.5481E-03
             617     2.14696E-03     111.663E-03    -127.720E+06    -248.532E+06    -108.061E+06     418.291E+03    -229.711E-03     458.900E-03    -229.189E-03     62.8362E-03    -230.371E-03     458.537E-03    -229.183E-03     55.4175E-03
             618     2.86289E-03     111.762E-03    -121.102E+06    -230.628E+06    -89.8197E+06     172.200E+03    -230.127E-03     459.327E-03    -229.200E-03     83.0223E-03    -231.220E-03     459.432E-03    -229.139E-03     73.0511E-03
             619     3.57857E-03     111.888E-03    -113.588E+06    -203.481E+06    -71.0869E+06     373.553E+03    -230.689E-03     459.890E-03    -229.201E-03     103.026E-03    -232.357E-03     460.639E-03    -229.097E-03     90.4073E-03
             620     4.29457E-03     112.040E-03    -104.768E+06    -167.456E+06    -51.6697E+06     254.115E+03    -231.357E-03     460.556E-03    -229.199E-03     122.856E-03    -233.756E-03     462.138E-03    -229.063E-03     107.478E-03
             621     5.01050E-03     112.219E-03    -95.7207E+06    -137.152E+06    -32.3391E+06     303.141E+03    -232.052E-03     461.262E-03    -229.210E-03     142.213E-03    -235.322E-03     463.799E-03    -229.034E-03     123.983E-03
             622     5.72626E-03     112.423E-03    -86.8821E+06    -102.566E+06    -13.1802E+06     888.729E+03    -232.647E-03     461.856E-03    -229.209E-03     161.068E-03    -236.940E-03     465.515E-03    -229.000E-03     139.987E-03
             623     6.44218E-03     112.651E-03    -77.9567E+06    -63.1742E+06     5.22327E+06     817.347E+03    -233.177E-03     462.360E-03    -229.182E-03     179.356E-03    -238.640E-03     467.306E-03    -228.951E-03     155.428E-03
             624     7.15879E-03     112.903E-03    -67.6421E+06    -21.3405E+06     23.5245E+06     1.08143E+06    -233.730E-03     462.869E-03    -229.139E-03     196.492E-03    -240.455E-03     469.210E-03    -228.892E-03     169.828E-03
             625     7.87527E-03     113.177E-03    -56.9693E+06     9.39058E+06     38.3664E+06     2.09260E+06    -234.399E-03     463.496E-03    -229.097E-03     211.769E-03    -242.374E-03     471.191E-03    -228.836E-03     182.639E-03
             626     8.59169E-03     113.470E-03    -49.3981E+06     19.9865E+06     46.7181E+06     1.76419E+06    -234.991E-03     464.059E-03    -229.069E-03     223.770E-03    -244.066E-03     472.895E-03    -228.792E-03     192.617E-03
             627     9.30762E-03     113.776E-03    -43.3508E+06     28.3514E+06     54.3473E+06     521.710E+03    -235.238E-03     464.295E-03    -229.057E-03     230.913E-03    -245.135E-03     473.982E-03    -228.764E-03     198.334E-03
             628     10.0233E-03     114.088E-03    -35.4753E+06     38.9815E+06     65.4457E+06    -93.4345E+03    -235.072E-03     464.139E-03    -229.067E-03     232.780E-03    -245.382E-03     474.271E-03    -228.745E-03     199.507E-03
             629     10.7391E-03     114.400E-03    -28.3522E+06     46.5513E+06     76.0849E+06     788.570E+03    -234.462E-03     463.541E-03    -229.079E-03     229.423E-03    -244.695E-03     473.618E-03    -228.725E-03     196.284E-03
             630     11.4576E-03     114.701E-03    -22.9733E+06     51.6487E+06     79.6669E+06     1.39438E+06    -233.903E-03     462.965E-03    -229.062E-03     222.725E-03    -243.729E-03     472.662E-03    -228.705E-03     190.149E-03
             631     12.1710E-03     114.991E-03    -17.1609E+06     57.2816E+06     79.3774E+06     6.69514E+03    -233.167E-03     462.196E-03    -229.029E-03     209.690E-03    -241.968E-03     470.909E-03    -228.690E-03     178.744E-03
             632     12.8891E-03     115.258E-03    -10.6668E+06     66.1402E+06     82.4109E+06    -555.417E+03    -232.314E-03     461.308E-03    -228.995E-03     199.424E-03    -240.163E-03     469.115E-03    -228.663E-03     170.214E-03
             633     13.6056E-03     115.516E-03    -5.09244E+06     72.6729E+06     85.1228E+06     200.252E+03    -230.936E-03     459.887E-03    -228.952E-03     162.166E-03    -236.385E-03     465.330E-03    -228.624E-03     138.565E-03
             634     715.745E-06     113.047E-03    -136.703E+06    -283.217E+06    -134.495E+06     39.4911E+03    -229.176E-03     458.242E-03    -229.067E-03     23.0609E-03    -229.334E-03     457.301E-03    -229.130E-03     20.3658E-03
             635     1.43139E-03     113.090E-03    -133.562E+06    -269.498E+06    -124.960E+06     404.476E+03    -229.404E-03     458.496E-03    -229.092E-03     42.4319E-03    -229.751E-03     457.774E-03    -229.132E-03     37.4455E-03
             636     2.14718E-03     113.161E-03    -128.040E+06    -249.109E+06    -108.966E+06     964.407E+03    -229.727E-03     458.852E-03    -229.126E-03     62.6830E-03    -230.384E-03     458.487E-03    -229.124E-03     55.2860E-03
             637     2.86277E-03     113.260E-03    -121.298E+06    -230.717E+06    -89.7683E+06     986.818E+03    -230.166E-03     459.330E-03    -229.164E-03     82.9165E-03    -231.257E-03     459.432E-03    -229.102E-03     72.9754E-03
             638     3.57882E-03     113.386E-03    -113.014E+06    -203.204E+06    -70.3763E+06     540.050E+03    -230.705E-03     459.886E-03    -229.181E-03     102.928E-03    -232.374E-03     460.637E-03    -229.075E-03     90.2974E-03
             639     4.29466E-03     113.538E-03    -104.441E+06    -167.545E+06    -51.4404E+06     608.040E+03    -231.325E-03     460.507E-03    -229.182E-03     122.702E-03    -233.720E-03     462.086E-03    -229.045E-03     107.330E-03
             640     5.01041E-03     113.717E-03    -95.7853E+06    -137.582E+06    -32.1329E+06     883.663E+03    -231.976E-03     461.166E-03    -229.190E-03     142.140E-03    -235.242E-03     463.697E-03    -229.012E-03     123.941E-03
             641     5.72646E-03     113.921E-03    -86.9160E+06    -103.398E+06    -13.3032E+06     1.31479E+06    -232.554E-03     461.734E-03    -229.179E-03     161.105E-03    -236.848E-03     465.390E-03    -228.970E-03     140.035E-03
             642     6.44291E-03     114.149E-03    -77.7897E+06    -62.1870E+06     5.82971E+06     1.18595E+06    -233.151E-03     462.301E-03    -229.150E-03     179.327E-03    -238.612E-03     467.248E-03    -228.918E-03     155.413E-03
             643     7.15900E-03     114.401E-03    -69.2809E+06    -20.9229E+06     23.7103E+06    -468.231E+03    -233.860E-03     462.978E-03    -229.118E-03     196.321E-03    -240.594E-03     469.323E-03    -228.869E-03     169.609E-03
             644     7.87503E-03     114.675E-03    -60.8022E+06     6.10696E+06     35.8178E+06    -1.05176E+06    -234.510E-03     463.600E-03    -229.089E-03     211.395E-03    -242.498E-03     471.289E-03    -228.831E-03     182.178E-03
             645     8.59122E-03     114.968E-03    -50.8645E+06     18.5395E+06     44.6076E+06     728.428E+03    -235.046E-03     464.117E-03    -229.071E-03     223.339E-03    -244.120E-03     472.948E-03    -228.801E-03     192.139E-03
             646     9.30756E-03     115.274E-03    -41.4204E+06     30.2923E+06     55.6142E+06     1.66715E+06    -235.363E-03     464.439E-03    -229.076E-03     230.892E-03    -245.257E-03     474.132E-03    -228.782E-03     198.306E-03
             647     10.0233E-03     115.587E-03    -35.2561E+06     39.9313E+06     67.1176E+06     1.12150E+06    -235.112E-03     464.205E-03    -229.093E-03     233.252E-03    -245.431E-03     474.346E-03    -228.765E-03     200.014E-03
             648     10.7402E-03     115.897E-03    -28.5870E+06     45.0444E+06     76.3227E+06     1.15492E+06    -234.424E-03     463.521E-03    -229.097E-03     229.843E-03    -244.669E-03     473.603E-03    -228.740E-03     196.714E-03
             649     11.4548E-03     116.199E-03    -19.9872E+06     51.8795E+06     80.5579E+06     1.01103E+06    -233.750E-03     462.815E-03    -229.064E-03     223.286E-03    -243.566E-03     472.510E-03    -228.708E-03     190.739E-03
             650     12.1731E-03     116.491E-03    -12.9525E+06     59.1581E+06     81.5928E+06     1.08994E+06    -232.754E-03     461.765E-03    -229.011E-03     209.916E-03    -241.513E-03     470.452E-03    -228.670E-03     179.122E-03
             651     12.8890E-03     116.752E-03    -8.39226E+06     66.8457E+06     83.9876E+06     812.587E+03    -232.309E-03     461.276E-03    -228.967E-03     198.824E-03    -240.143E-03     469.073E-03    -228.632E-03     169.616E-03
             652     13.6059E-03     117.016E-03    -4.93386E+06     72.7997E+06     86.0519E+06     12.9397E+03    -231.317E-03     460.258E-03    -228.941E-03     161.148E-03    -236.759E-03     465.691E-03    -228.609E-03     137.499E-03
             653     715.696E-06     114.544E-03    -137.158E+06    -283.599E+06    -134.549E+06     348.578E+03    -229.210E-03     458.162E-03    -228.952E-03     23.0845E-03    -229.370E-03     457.219E-03    -229.014E-03     20.3969E-03
             654     1.43149E-03     114.588E-03    -133.722E+06    -270.164E+06    -124.620E+06     266.012E+03    -229.367E-03     458.421E-03    -229.054E-03     42.4918E-03    -229.714E-03     457.696E-03    -229.092E-03     37.5181E-03
             655     2.14711E-03     114.659E-03    -128.152E+06    -250.472E+06    -109.638E+06     361.120E+03    -229.749E-03     458.843E-03    -229.093E-03     62.6508E-03    -230.404E-03     458.471E-03    -229.092E-03     55.2507E-03
             656     2.86311E-03     114.758E-03    -120.696E+06    -231.230E+06    -90.3493E+06     738.812E+03    -230.214E-03     459.360E-03    -229.146E-03     82.8434E-03    -231.300E-03     459.459E-03    -229.087E-03     72.8990E-03
             657     3.57861E-03     114.884E-03    -112.444E+06    -203.768E+06    -70.3488E+06     860.735E+03    -230.770E-03     459.950E-03    -229.181E-03     102.927E-03    -232.436E-03     460.698E-03    -229.074E-03     90.2942E-03
             658     4.29442E-03     115.036E-03    -103.900E+06    -168.284E+06    -50.7515E+06     1.27592E+06    -231.303E-03     460.492E-03    -229.189E-03     122.664E-03    -233.696E-03     462.067E-03    -229.048E-03     107.291E-03
             659     5.01065E-03     115.215E-03    -95.0189E+06    -137.535E+06    -31.0984E+06     1.52809E+06    -231.830E-03     461.016E-03    -229.186E-03     141.956E-03    -235.090E-03     463.541E-03    -229.004E-03     123.784E-03
             660     5.72683E-03     115.418E-03    -85.5224E+06    -103.525E+06    -12.1046E+06     1.05001E+06    -232.479E-03     461.645E-03    -229.165E-03     160.788E-03    -236.764E-03     465.293E-03    -228.952E-03     139.714E-03
             661     6.44274E-03     115.647E-03    -75.9169E+06    -62.7695E+06     6.92653E+06     1.54131E+06    -233.246E-03     462.387E-03    -229.141E-03     179.020E-03    -238.698E-03     467.327E-03    -228.906E-03     155.083E-03
             662     7.15891E-03     115.899E-03    -66.8147E+06    -18.6606E+06     25.7025E+06     2.47592E+06    -233.975E-03     463.098E-03    -229.123E-03     196.214E-03    -240.700E-03     469.445E-03    -228.870E-03     169.537E-03
             663     7.87497E-03     116.173E-03    -58.9147E+06     9.22173E+06     38.8900E+06     1.20987E+06    -234.694E-03     463.805E-03    -229.111E-03     211.454E-03    -242.682E-03     471.504E-03    -228.845E-03     182.253E-03
             664     8.59101E-03     116.466E-03    -51.8868E+06     17.5908E+06     45.3934E+06    -1.45620E+06    -235.193E-03     464.297E-03    -229.103E-03     223.532E-03    -244.279E-03     473.128E-03    -228.827E-03     192.288E-03
             665     9.30683E-03     116.773E-03    -44.1442E+06     26.8770E+06     52.7196E+06    -1.50209E+06    -235.123E-03     464.212E-03    -229.089E-03     231.010E-03    -245.014E-03     473.889E-03    -228.801E-03     198.428E-03
             666     10.0238E-03     117.084E-03    -34.1627E+06     38.3616E+06     65.3797E+06     961.839E+03    -234.814E-03     463.897E-03    -229.083E-03     233.161E-03    -245.104E-03     474.012E-03    -228.762E-03     199.994E-03
             667     10.7394E-03     117.396E-03    -25.4428E+06     46.0237E+06     77.1464E+06     803.038E+03    -234.380E-03     463.459E-03    -229.079E-03     230.103E-03    -244.615E-03     473.543E-03    -228.723E-03     196.977E-03
             668     11.4570E-03     117.697E-03    -19.2755E+06     51.4849E+06     80.8010E+06     138.386E+03    -233.688E-03     462.732E-03    -229.044E-03     223.429E-03    -243.502E-03     472.426E-03    -228.687E-03     190.885E-03
             669     12.1727E-03     117.987E-03    -14.2556E+06     56.3057E+06     80.0266E+06     1.51365E+06    -232.824E-03     461.815E-03    -228.991E-03     209.201E-03    -241.561E-03     470.469E-03    -228.652E-03     178.431E-03
             670     12.8896E-03     118.252E-03    -9.27220E+06     67.3568E+06     83.4155E+06     2.08353E+06    -232.662E-03     461.623E-03    -228.962E-03     198.794E-03    -240.517E-03     469.443E-03    -228.629E-03     169.525E-03
             671     13.6045E-03     118.514E-03    -3.27250E+06     75.9757E+06     87.3172E+06     1.08509E+06    -230.984E-03     459.922E-03    -228.938E-03     161.642E-03    -236.448E-03     465.391E-03    -228.607E-03     137.988E-03
             672     715.734E-06     116.042E-03    -136.474E+06    -285.041E+06    -134.312E+06     407.914E+03    -229.319E-03     458.237E-03    -228.918E-03     22.8776E-03    -229.474E-03     457.285E-03    -228.978E-03     20.1887E-03
             673     1.43152E-03     116.086E-03    -132.858E+06    -270.102E+06    -123.679E+06     414.165E+03    -229.377E-03     458.465E-03    -229.088E-03     42.3573E-03    -229.720E-03     457.736E-03    -229.122E-03     37.3905E-03
             674     2.14731E-03     116.157E-03    -127.513E+06    -250.650E+06    -108.987E+06     278.281E+03    -229.748E-03     458.866E-03    -229.118E-03     62.4979E-03    -230.400E-03     458.491E-03    -229.114E-03     55.0953E-03
             675     2.86273E-03     116.256E-03    -120.579E+06    -232.061E+06    -90.6649E+06     275.511E+03    -230.204E-03     459.366E-03    -229.162E-03     82.7625E-03    -231.290E-03     459.463E-03    -229.104E-03     72.7863E-03
             676     3.57879E-03     116.382E-03    -112.710E+06    -204.965E+06    -70.6220E+06     679.923E+03    -230.704E-03     459.892E-03    -229.188E-03     102.942E-03    -232.368E-03     460.633E-03    -229.080E-03     90.3124E-03
             677     4.29464E-03     116.534E-03    -103.891E+06    -169.424E+06    -50.6736E+06     715.165E+03    -231.272E-03     460.460E-03    -229.188E-03     122.680E-03    -233.665E-03     462.030E-03    -229.045E-03     107.303E-03
             678     5.01038E-03     116.712E-03    -94.0157E+06    -137.984E+06    -30.7345E+06     555.214E+03    -231.909E-03     461.097E-03    -229.187E-03     141.913E-03    -235.167E-03     463.620E-03    -229.005E-03     123.704E-03
             679     5.72649E-03     116.916E-03    -84.4627E+06    -103.765E+06    -11.5750E+06     710.230E+03    -232.628E-03     461.810E-03    -229.182E-03     160.688E-03    -236.907E-03     465.454E-03    -228.967E-03     139.593E-03
             680     6.44272E-03     117.145E-03    -75.0247E+06    -64.6748E+06     7.06931E+06     985.643E+03    -233.323E-03     462.495E-03    -229.171E-03     178.816E-03    -238.766E-03     467.421E-03    -228.933E-03     154.858E-03
             681     7.15874E-03     117.397E-03    -64.6892E+06    -21.2592E+06     26.3829E+06     1.90778E+06    -233.959E-03     463.115E-03    -229.156E-03     195.956E-03    -240.659E-03     469.433E-03    -228.900E-03     169.292E-03
             682     7.87506E-03     117.671E-03    -53.8623E+06     11.3569E+06     41.4969E+06     3.14407E+06    -234.613E-03     463.749E-03    -229.136E-03     211.324E-03    -242.567E-03     471.432E-03    -228.867E-03     182.195E-03
             683     8.59080E-03     117.965E-03    -44.6406E+06     23.5754E+06     51.3758E+06     3.05809E+06    -234.984E-03     464.104E-03    -229.120E-03     223.502E-03    -244.040E-03     472.937E-03    -228.832E-03     192.371E-03
             684     9.30733E-03     118.270E-03    -37.5316E+06     28.0398E+06     60.4169E+06     1.27344E+06    -235.037E-03     464.143E-03    -229.106E-03     231.322E-03    -244.905E-03     473.802E-03    -228.790E-03     198.834E-03
             685     10.0232E-03     118.582E-03    -31.8891E+06     35.5372E+06     68.7298E+06     76.0049E+03    -234.828E-03     463.909E-03    -229.081E-03     233.663E-03    -245.116E-03     474.011E-03    -228.743E-03     200.498E-03
             686     10.7407E-03     118.893E-03    -26.1181E+06     46.4609E+06     77.4897E+06     1.37822E+06    -234.337E-03     463.396E-03    -229.059E-03     230.041E-03    -244.564E-03     473.471E-03    -228.701E-03     196.957E-03
             687     11.4562E-03     119.195E-03    -20.8327E+06     51.3092E+06     80.7041E+06     2.36305E+06    -233.736E-03     462.763E-03    -229.028E-03     222.875E-03    -243.539E-03     472.441E-03    -228.668E-03     190.379E-03
             688     12.1726E-03     119.486E-03    -15.8276E+06     54.6790E+06     79.5945E+06     1.84228E+06    -232.938E-03     461.921E-03    -228.983E-03     209.626E-03    -241.715E-03     470.605E-03    -228.641E-03     178.772E-03
             689     12.8886E-03     119.748E-03    -10.1277E+06     67.7191E+06     82.5374E+06     1.08621E+06    -232.240E-03     461.176E-03    -228.936E-03     199.929E-03    -240.120E-03     469.021E-03    -228.607E-03     170.687E-03
             690     13.6061E-03     120.014E-03    -4.44396E+06     77.5649E+06     86.4405E+06     510.887E+03    -230.780E-03     459.671E-03    -228.891E-03     161.784E-03    -236.247E-03     465.147E-03    -228.565E-03     138.158E-03
             691     715.626E-06     117.540E-03    -136.500E+06    -285.979E+06    -134.792E+06    -85.8767E+03    -229.461E-03     458.403E-03    -228.942E-03     22.9775E-03    -229.613E-03     457.447E-03    -229.003E-03     20.2927E-03
             692     1.43114E-03     117.584E-03    -132.745E+06    -270.733E+06    -124.097E+06     277.927E+03    -229.437E-03     458.601E-03    -229.163E-03     42.4327E-03    -229.780E-03     457.871E-03    -229.199E-03     37.4366E-03
             693     2.14684E-03     117.655E-03    -127.667E+06    -250.607E+06    -108.595E+06     325.479E+03    -229.696E-03     458.871E-03    -229.175E-03     62.5872E-03    -230.352E-03     458.499E-03    -229.169E-03     55.1604E-03
             694     2.86291E-03     117.754E-03    -120.943E+06    -232.381E+06    -90.3759E+06    -5.42788E+03    -230.155E-03     459.347E-03    -229.192E-03     82.8292E-03    -231.243E-03     459.443E-03    -229.131E-03     72.8499E-03
             695     3.57852E-03     117.880E-03    -112.203E+06    -205.184E+06    -70.4762E+06    -158.372E+03    -230.692E-03     459.895E-03    -229.203E-03     102.840E-03    -232.351E-03     460.632E-03    -229.096E-03     90.2089E-03
             696     4.29459E-03     118.032E-03    -102.946E+06    -169.228E+06    -50.3593E+06    -50.9254E+03    -231.253E-03     460.452E-03    -229.199E-03     122.451E-03    -233.636E-03     462.015E-03    -229.056E-03     107.082E-03
             697     5.01074E-03     118.211E-03    -94.3720E+06    -138.900E+06    -30.9509E+06     113.813E+03    -231.996E-03     461.199E-03    -229.204E-03     141.788E-03    -235.252E-03     463.718E-03    -229.020E-03     123.566E-03
             698     5.72647E-03     118.414E-03    -85.6018E+06    -104.866E+06    -12.2095E+06     288.082E+03    -232.755E-03     461.964E-03    -229.209E-03     160.730E-03    -237.038E-03     465.607E-03    -228.994E-03     139.615E-03
             699     6.44211E-03     118.643E-03    -76.3621E+06    -64.7416E+06     6.62097E+06    -30.5736E+03    -233.383E-03     462.589E-03    -229.206E-03     178.939E-03    -238.835E-03     467.521E-03    -228.968E-03     154.958E-03
             700     7.15827E-03     118.895E-03    -67.1266E+06    -22.3498E+06     24.9512E+06    -761.119E+03    -233.956E-03     463.143E-03    -229.187E-03     196.234E-03    -240.671E-03     469.468E-03    -228.933E-03     169.525E-03
             701     7.87415E-03     119.170E-03    -58.0827E+06     7.83405E+06     38.1744E+06    -959.340E+03    -234.370E-03     463.518E-03    -229.148E-03     211.679E-03    -242.336E-03     471.195E-03    -228.884E-03     182.533E-03
             702     8.59114E-03     119.462E-03    -49.1928E+06     20.1017E+06     46.3109E+06     636.038E+03    -234.672E-03     463.770E-03    -229.097E-03     223.588E-03    -243.736E-03     472.595E-03    -228.824E-03     192.464E-03
             703     9.30768E-03     119.768E-03    -41.9787E+06     29.6198E+06     53.9584E+06     2.71762E+06    -234.900E-03     463.953E-03    -229.054E-03     231.070E-03    -244.778E-03     473.631E-03    -228.766E-03     198.600E-03
             704     10.0247E-03     120.080E-03    -36.3672E+06     39.3598E+06     64.8161E+06     1.89290E+06    -234.901E-03     463.943E-03    -229.043E-03     233.296E-03    -245.213E-03     474.079E-03    -228.723E-03     200.111E-03
             705     10.7400E-03     120.391E-03    -29.9459E+06      43.873E+06     75.5320E+06     144.788E+03    -234.500E-03     463.554E-03    -229.053E-03     229.759E-03    -244.744E-03     473.627E-03    -228.696E-03     196.611E-03
             706     11.4566E-03     120.693E-03    -21.8202E+06     48.8699E+06     79.8217E+06     812.309E+03    -233.631E-03     462.660E-03    -229.029E-03     222.541E-03    -243.421E-03     472.315E-03    -228.669E-03     190.038E-03
             707     12.1736E-03     120.982E-03    -14.4010E+06     55.0648E+06     80.6826E+06     2.08398E+06    -232.572E-03     461.546E-03    -228.974E-03     209.309E-03    -241.324E-03     470.209E-03    -228.630E-03     178.528E-03
             708     12.8903E-03     121.248E-03    -9.56682E+06     68.6201E+06     83.7609E+06     1.07689E+06    -232.102E-03     461.022E-03    -228.920E-03     198.622E-03    -239.956E-03     468.843E-03    -228.587E-03     169.378E-03
             709     13.6078E-03     121.505E-03    -5.47502E+06     79.7780E+06     87.0934E+06     256.632E+03    -231.814E-03     460.718E-03    -228.905E-03     160.398E-03    -237.252E-03     466.168E-03    -228.577E-03     136.770E-03
             710     715.615E-06     119.038E-03    -135.343E+06    -285.171E+06    -133.427E+06    -405.259E+03    -229.537E-03     458.309E-03    -228.772E-03     23.3065E-03    -229.687E-03     457.354E-03    -228.830E-03     20.6234E-03
             711     1.43136E-03     119.082E-03    -132.774E+06    -271.712E+06    -124.356E+06    -187.036E+03    -229.472E-03     458.598E-03    -229.126E-03     42.7740E-03    -229.814E-03     457.864E-03    -229.161E-03     37.7851E-03
             712     2.14705E-03     119.153E-03    -127.234E+06    -250.552E+06    -108.352E+06     70.6409E+03    -229.780E-03     458.947E-03    -229.167E-03     62.8002E-03    -230.435E-03     458.575E-03    -229.161E-03     55.3609E-03
             713     2.86271E-03     119.252E-03    -120.136E+06    -231.459E+06    -89.2858E+06    -112.774E+03    -230.219E-03     459.425E-03    -229.206E-03     82.8930E-03    -231.306E-03     459.522E-03    -229.142E-03     72.9153E-03
             714     3.57864E-03     119.378E-03    -112.415E+06    -205.038E+06    -70.4774E+06    -416.015E+03    -230.752E-03     459.976E-03    -229.225E-03     102.822E-03    -232.412E-03     460.714E-03    -229.117E-03     90.1898E-03
             715     4.29429E-03     119.530E-03    -104.146E+06    -169.781E+06    -51.1017E+06    -55.2640E+03    -231.341E-03     460.569E-03    -229.228E-03     122.466E-03    -233.729E-03     462.133E-03    -229.086E-03     107.084E-03
             716     5.01010E-03     119.708E-03    -95.2342E+06    -139.091E+06    -31.2531E+06     240.802E+03    -231.998E-03     461.234E-03    -229.236E-03     141.851E-03    -235.257E-03     463.752E-03    -229.053E-03     123.639E-03
             717     5.72611E-03     119.913E-03    -85.6293E+06    -104.574E+06    -12.0300E+06     46.3229E+03    -232.651E-03     461.882E-03    -229.231E-03     160.839E-03    -236.931E-03     465.522E-03    -229.016E-03     139.750E-03
             718     6.44245E-03     120.141E-03    -76.3702E+06    -64.4680E+06     6.49491E+06     400.397E+03    -233.326E-03     462.537E-03    -229.211E-03     179.258E-03    -238.777E-03     467.469E-03    -228.974E-03     155.309E-03
             719     7.15834E-03     120.393E-03    -68.3358E+06    -20.4358E+06     24.5630E+06     309.015E+03    -233.864E-03     463.043E-03    -229.179E-03     196.532E-03    -240.596E-03     469.388E-03    -228.928E-03     169.836E-03
             720     7.87510E-03     120.667E-03    -60.9404E+06     8.13929E+06     37.1398E+06    -328.405E+03    -234.275E-03     463.408E-03    -229.132E-03     211.711E-03    -242.262E-03     471.099E-03    -228.870E-03     182.567E-03
             721     8.59121E-03     120.960E-03    -53.9217E+06     16.6242E+06     43.9549E+06    -603.273E+03    -234.781E-03     463.868E-03    -229.086E-03     223.550E-03    -243.858E-03     472.685E-03    -228.813E-03     192.403E-03
             722     9.30748E-03     121.265E-03    -45.6810E+06     25.4381E+06     51.5353E+06     93.4787E+03    -235.121E-03     464.179E-03    -229.059E-03     230.717E-03    -245.004E-03     473.842E-03    -228.772E-03     198.174E-03
             723     10.0234E-03     121.577E-03    -36.0891E+06     40.0493E+06     64.1334E+06     1.56800E+06    -234.949E-03     464.007E-03    -229.058E-03     232.861E-03    -245.249E-03     474.135E-03    -228.743E-03     199.659E-03
             724     10.7402E-03     121.890E-03    -27.9940E+06     47.0453E+06     75.7001E+06     715.473E+03    -234.308E-03     463.372E-03    -229.064E-03     229.474E-03    -244.543E-03     473.455E-03    -228.714E-03     196.330E-03
             725     11.4564E-03     122.189E-03    -22.1991E+06     46.9142E+06     78.2059E+06    -337.524E+03    -233.617E-03     462.654E-03    -229.038E-03     222.236E-03    -243.415E-03     472.314E-03    -228.682E-03     189.666E-03
             726     12.1722E-03     122.480E-03    -16.6060E+06     53.2141E+06     78.2757E+06    -121.914E+03    -232.819E-03     461.813E-03    -228.994E-03     208.413E-03    -241.586E-03     470.483E-03    -228.656E-03     177.477E-03
             727     12.8895E-03     122.742E-03    -10.1059E+06     69.3648E+06     83.3386E+06     998.908E+03    -232.827E-03     461.804E-03    -228.977E-03     197.552E-03    -240.663E-03     469.609E-03    -228.646E-03     168.247E-03
             728     13.6031E-03     123.009E-03    -4.25313E+06     80.9350E+06     87.4984E+06     1.09055E+06    -231.678E-03     460.655E-03    -228.977E-03     161.314E-03    -237.108E-03     466.104E-03    -228.651E-03     137.727E-03
             729     715.951E-06     120.536E-03    -135.921E+06    -285.961E+06    -132.714E+06     1.02936E+06    -229.269E-03     458.291E-03    -229.022E-03     22.7928E-03    -229.421E-03     457.331E-03    -229.074E-03     20.1331E-03
             730     1.43156E-03     120.580E-03    -132.735E+06    -271.557E+06    -123.008E+06     502.279E+03    -229.399E-03     458.512E-03    -229.113E-03     42.4285E-03    -229.739E-03     457.774E-03    -229.142E-03     37.4755E-03
             731     2.14718E-03     120.651E-03    -126.606E+06    -250.375E+06    -107.776E+06     36.5057E+03    -229.803E-03     458.949E-03    -229.146E-03     62.6927E-03    -230.455E-03     458.575E-03    -229.138E-03     55.2716E-03
             732     2.86275E-03     120.750E-03    -119.811E+06    -231.621E+06     -89.218E+06     414.432E+03    -230.293E-03     459.494E-03    -229.200E-03     82.9443E-03    -231.379E-03     459.590E-03    -229.137E-03     72.9700E-03
             733     3.57840E-03     120.876E-03    -113.262E+06    -204.757E+06    -69.9396E+06     1.08869E+06    -230.769E-03     460.001E-03    -229.233E-03     102.905E-03    -232.434E-03     460.740E-03    -229.121E-03     90.3032E-03
             734     4.29441E-03     121.028E-03    -105.143E+06    -168.958E+06    -50.6548E+06     267.084E+03    -231.355E-03     460.590E-03    -229.235E-03     122.762E-03    -233.754E-03     462.163E-03    -229.091E-03     107.383E-03
             735     5.01023E-03     121.207E-03    -95.5288E+06    -138.674E+06    -31.4367E+06    -629.796E+03    -232.001E-03     461.239E-03    -229.237E-03     142.221E-03    -235.268E-03     463.765E-03    -229.055E-03     123.986E-03
             736     5.72633E-03     121.410E-03    -86.3230E+06    -105.944E+06    -12.9493E+06    -34.8196E+03    -232.609E-03     461.836E-03    -229.226E-03     161.045E-03    -236.894E-03     465.475E-03    -229.012E-03     139.954E-03
             737     6.44229E-03     121.639E-03    -77.8590E+06    -66.2096E+06     5.35265E+06     1.00339E+06    -233.216E-03     462.414E-03    -229.198E-03     179.250E-03    -238.668E-03     467.339E-03    -228.962E-03     155.328E-03
             738     7.15875E-03     121.891E-03    -68.8768E+06    -20.2543E+06     24.5914E+06     1.97785E+06    -233.806E-03     462.968E-03    -229.162E-03     196.244E-03    -240.534E-03     469.309E-03    -228.910E-03     169.585E-03
             739     7.87469E-03     122.165E-03    -59.8972E+06     10.3466E+06     37.9154E+06     1.98456E+06    -234.430E-03     463.554E-03    -229.124E-03     211.212E-03    -242.416E-03     471.254E-03    -228.863E-03     182.053E-03
             740     8.59125E-03     122.457E-03    -50.6963E+06     19.9941E+06     46.3744E+06     471.388E+03    -234.966E-03     464.067E-03    -229.102E-03     223.169E-03    -244.034E-03     472.892E-03    -228.825E-03     191.990E-03
             741     9.30736E-03     122.764E-03    -41.9279E+06     23.5608E+06     55.6898E+06    -600.994E+03    -235.219E-03     464.320E-03    -229.101E-03     230.829E-03    -245.094E-03     473.968E-03    -228.796E-03     198.254E-03
             742     10.0234E-03     123.076E-03    -34.6166E+06     36.0003E+06     67.0798E+06    -91.2534E+03    -234.996E-03     464.097E-03    -229.102E-03     233.178E-03    -245.302E-03     474.214E-03    -228.768E-03     199.929E-03
             743     10.7396E-03     123.386E-03    -28.1330E+06     47.9091E+06     76.9107E+06     1.52438E+06    -234.387E-03     463.483E-03    -229.096E-03     229.417E-03    -244.621E-03     473.564E-03    -228.740E-03     196.297E-03
             744     11.4562E-03     123.689E-03    -21.9098E+06     49.6611E+06     79.3420E+06     1.41874E+06    -233.783E-03     462.856E-03    -229.073E-03     221.862E-03    -243.586E-03     472.527E-03    -228.716E-03     189.286E-03
             745     12.1730E-03     123.977E-03    -15.6246E+06     55.2041E+06     79.5023E+06    -342.788E+03    -233.372E-03     462.422E-03    -229.050E-03     208.541E-03    -242.150E-03     471.110E-03    -228.710E-03     177.537E-03
             746     12.8868E-03     124.243E-03    -10.4803E+06     69.0507E+06     82.0869E+06    -765.065E+03    -232.960E-03     461.998E-03    -229.038E-03     198.812E-03    -240.810E-03     469.818E-03    -228.712E-03     169.498E-03
             747     13.6049E-03     124.505E-03    -5.66628E+06     79.2458E+06     85.2722E+06    -225.009E+03    -230.687E-03     459.692E-03    -229.005E-03     161.711E-03    -236.141E-03     465.160E-03    -228.686E-03     138.115E-03
             748     715.204E-06     122.033E-03    -135.281E+06    -289.049E+06    -133.550E+06     904.223E+03    -229.158E-03     458.552E-03    -229.394E-03     23.0045E-03    -229.302E-03     457.578E-03    -229.447E-03     20.3072E-03
             749     1.43109E-03     122.078E-03    -131.314E+06    -271.056E+06    -122.978E+06     737.421E+03    -229.390E-03     458.600E-03    -229.209E-03     42.3884E-03    -229.725E-03     457.863E-03    -229.241E-03     37.4231E-03
             750     2.14700E-03     122.149E-03    -126.632E+06    -251.530E+06    -107.725E+06     1.12625E+06    -229.684E-03     458.875E-03    -229.191E-03     62.5835E-03    -230.332E-03     458.493E-03    -229.182E-03     55.1944E-03
             751     2.86289E-03     122.248E-03    -120.212E+06    -233.071E+06    -88.6052E+06     1.75503E+06    -230.164E-03     459.371E-03    -229.206E-03     82.8614E-03    -231.248E-03     459.457E-03    -229.137E-03     72.9296E-03
             752     3.57864E-03     122.374E-03    -111.338E+06    -204.763E+06    -68.1952E+06     1.49084E+06    -230.749E-03     459.970E-03    -229.221E-03     102.967E-03    -232.408E-03     460.705E-03    -229.104E-03     90.3651E-03
             753     4.29443E-03     122.526E-03    -102.447E+06    -167.662E+06    -48.8022E+06     1.45150E+06    -231.330E-03     460.548E-03    -229.219E-03     122.751E-03    -233.717E-03     462.119E-03    -229.071E-03     107.397E-03
             754     5.01051E-03     122.705E-03    -94.7012E+06    -136.781E+06    -29.7467E+06     1.06612E+06    -231.977E-03     461.198E-03    -229.221E-03     142.084E-03    -235.244E-03     463.729E-03    -229.034E-03     123.874E-03
             755     5.72634E-03     122.908E-03    -86.5959E+06    -107.916E+06    -11.8502E+06     851.769E+03    -232.688E-03     461.910E-03    -229.222E-03     160.901E-03    -236.974E-03     465.539E-03    -228.999E-03     139.802E-03
             756     6.44252E-03     123.137E-03    -77.5658E+06    -68.5508E+06     5.92164E+06     1.92692E+06    -233.277E-03     462.479E-03    -229.203E-03     178.979E-03    -238.724E-03     467.391E-03    -228.961E-03     155.049E-03
             757     7.15857E-03     123.389E-03    -68.0729E+06    -20.4308E+06     24.1103E+06     1.82191E+06    -233.878E-03     463.044E-03    -229.167E-03     196.072E-03    -240.601E-03     469.383E-03    -228.918E-03     169.390E-03
             758     7.87493E-03     123.663E-03    -57.7291E+06     11.3742E+06     39.1355E+06     813.732E+03    -234.583E-03     463.727E-03    -229.144E-03     211.190E-03    -242.562E-03     471.428E-03    -228.881E-03     181.993E-03
             759     8.59050E-03     123.955E-03    -48.8593E+06     22.0107E+06     48.1953E+06     629.808E+03    -235.045E-03     464.177E-03    -229.132E-03     223.192E-03    -244.118E-03     473.015E-03    -228.852E-03     191.982E-03
             760     9.30682E-03     124.262E-03    -42.1191E+06     24.4085E+06     54.5539E+06     450.740E+03    -235.166E-03     464.287E-03    -229.121E-03     230.776E-03    -245.044E-03     473.944E-03    -228.822E-03     198.201E-03
             761     10.0237E-03     124.574E-03    -35.6504E+06     33.9711E+06     64.8289E+06     348.319E+03    -235.063E-03     464.185E-03    -229.123E-03     232.751E-03    -245.363E-03     474.291E-03    -228.796E-03     199.486E-03
             762     10.7395E-03     124.885E-03    -28.5380E+06     45.5332E+06     76.4088E+06     1.59611E+06    -234.540E-03     463.675E-03    -229.135E-03     228.956E-03    -244.771E-03     473.745E-03    -228.778E-03     195.803E-03
             763     11.4553E-03     125.185E-03    -20.9883E+06     52.7577E+06     80.9762E+06     1.61575E+06    -233.915E-03     463.037E-03    -229.122E-03     222.050E-03    -243.730E-03     472.729E-03    -228.763E-03     189.456E-03
             764     12.1705E-03     125.477E-03    -15.5511E+06     57.3916E+06     79.7473E+06    -214.702E+03    -233.167E-03     462.253E-03    -229.086E-03     209.274E-03    -241.941E-03     470.945E-03    -228.748E-03     178.356E-03
             765     12.8884E-03     125.741E-03    -10.4505E+06     68.0439E+06     82.2603E+06    -814.007E+03    -232.518E-03     461.571E-03    -229.054E-03     198.972E-03    -240.363E-03     469.383E-03    -228.726E-03     169.733E-03
             766     13.6039E-03     126.002E-03    -4.94358E+06     78.7712E+06     86.0910E+06    -790.117E+03    -230.642E-03     459.652E-03    -229.010E-03     160.883E-03    -236.087E-03     465.109E-03    -228.687E-03     137.287E-03
             767     715.873E-06     123.532E-03    -133.929E+06    -288.753E+06    -133.209E+06    -1.10872E+06    -229.340E-03     458.555E-03    -229.215E-03     23.1878E-03    -229.479E-03     457.580E-03    -229.268E-03     20.4788E-03
             768     1.43123E-03     123.576E-03    -131.450E+06    -273.213E+06    -124.221E+06     87.0318E+03    -229.462E-03     458.680E-03    -229.217E-03     42.5741E-03    -229.794E-03     457.935E-03    -229.252E-03     37.5902E-03
             769     2.14681E-03     123.647E-03    -126.729E+06    -253.584E+06    -107.769E+06     1.20974E+06    -229.683E-03     458.896E-03    -229.213E-03     62.7737E-03    -230.329E-03     458.504E-03    -229.200E-03     55.3850E-03
             770     2.86265E-03     123.746E-03    -118.627E+06    -233.939E+06    -87.9012E+06     1.25747E+06    -230.099E-03     459.311E-03    -229.212E-03     82.9391E-03    -231.174E-03     459.389E-03    -229.141E-03     73.0117E-03
             771     3.57871E-03     123.872E-03    -110.222E+06    -206.440E+06    -68.2864E+06     1.61374E+06    -230.715E-03     459.927E-03    -229.212E-03     102.975E-03    -232.367E-03     460.653E-03    -229.094E-03     90.3651E-03
             772     4.29453E-03     124.024E-03    -102.076E+06    -169.759E+06    -48.6797E+06     2.35331E+06    -231.378E-03     460.593E-03    -229.215E-03     122.593E-03    -233.761E-03     462.152E-03    -229.064E-03     107.241E-03
             773     5.01035E-03     124.203E-03    -92.9019E+06    -135.977E+06    -28.1162E+06     2.78154E+06    -232.020E-03     461.248E-03    -229.227E-03     141.906E-03    -235.279E-03     463.775E-03    -229.036E-03     123.722E-03
             774     5.72644E-03     124.407E-03    -83.7277E+06    -107.840E+06    -9.32100E+06     3.22655E+06    -232.718E-03     461.955E-03    -229.237E-03     160.716E-03    -236.990E-03     465.574E-03    -229.006E-03     139.651E-03
             775     6.44219E-03     124.635E-03    -74.6456E+06    -69.1943E+06     8.12412E+06     2.74969E+06    -233.413E-03     462.639E-03    -229.226E-03     178.821E-03    -238.851E-03     467.543E-03    -228.977E-03     154.874E-03
             776     7.15833E-03     124.887E-03    -64.8564E+06    -18.3202E+06     26.7033E+06     1.53051E+06    -234.008E-03     463.208E-03    -229.200E-03     195.996E-03    -240.724E-03     469.551E-03    -228.946E-03     169.280E-03
             777     7.87430E-03     125.161E-03    -56.3239E+06     11.6010E+06     40.3897E+06     1.17172E+06    -234.568E-03     463.747E-03    -229.179E-03     211.131E-03    -242.533E-03     471.436E-03    -228.912E-03     181.959E-03
             778     8.59090E-03     125.454E-03    -48.6253E+06     21.1656E+06     48.5274E+06     1.67486E+06    -235.116E-03     464.283E-03    -229.166E-03     222.918E-03    -244.181E-03     473.109E-03    -228.884E-03     191.718E-03
             779     9.30701E-03     125.759E-03    -40.8755E+06     25.7684E+06     56.2638E+06     2.02985E+06    -235.439E-03     464.611E-03    -229.172E-03     230.299E-03    -245.317E-03     474.272E-03    -228.869E-03     197.683E-03
             780     10.0222E-03     126.072E-03    -33.8034E+06     34.3691E+06     66.1718E+06     2.14560E+06    -235.131E-03     464.318E-03    -229.186E-03     232.324E-03    -245.413E-03     474.410E-03    -228.856E-03     199.087E-03
             781     10.7385E-03     126.383E-03    -26.5710E+06     44.9605E+06     76.5740E+06     1.67783E+06    -234.330E-03     463.517E-03    -229.187E-03     228.833E-03    -244.546E-03     473.577E-03    -228.831E-03     195.706E-03
             782     11.4551E-03     126.684E-03    -20.1692E+06     52.0653E+06     80.3076E+06     1.44265E+06    -233.599E-03     462.749E-03    -229.150E-03     222.562E-03    -243.411E-03     472.441E-03    -228.794E-03     190.001E-03
             783     12.1722E-03     126.975E-03    -14.6152E+06     61.3669E+06     81.0961E+06     1.23530E+06    -232.918E-03     462.013E-03    -229.095E-03     209.591E-03    -241.692E-03     470.718E-03    -228.757E-03     178.739E-03
             784     12.8876E-03     127.238E-03    -8.58267E+06     70.6767E+06     84.8119E+06    -801.621E+03    -232.280E-03     461.334E-03    -229.054E-03     198.822E-03    -240.139E-03     469.167E-03    -228.720E-03     169.561E-03
             785     13.6043E-03     127.502E-03    -4.07629E+06     76.3847E+06     87.1972E+06    -888.454E+03    -230.531E-03     459.536E-03    -229.005E-03     160.766E-03    -235.976E-03     464.985E-03    -228.674E-03     137.179E-03
             786     715.421E-06     125.030E-03    -134.998E+06    -287.727E+06    -131.669E+06     411.113E+03    -229.290E-03     458.493E-03    -229.202E-03     22.7819E-03    -229.437E-03     457.521E-03    -229.248E-03     20.1130E-03
             787     1.43130E-03     125.074E-03    -132.800E+06    -275.048E+06    -122.971E+06     344.994E+03    -229.377E-03     458.567E-03    -229.191E-03     42.3622E-03    -229.714E-03     457.813E-03    -229.214E-03     37.3917E-03
             788     2.14715E-03     125.145E-03    -126.710E+06    -254.349E+06    -107.914E+06     80.6324E+03    -229.702E-03     458.877E-03    -229.176E-03     62.7875E-03    -230.347E-03     458.483E-03    -229.163E-03     55.3769E-03
             789     2.86293E-03     125.244E-03    -119.628E+06    -236.148E+06    -89.5075E+06     661.577E+03    -230.229E-03     459.427E-03    -229.198E-03     83.0008E-03    -231.305E-03     459.500E-03    -229.130E-03     73.0465E-03
             790     3.57856E-03     125.369E-03    -111.885E+06    -208.902E+06    -69.7675E+06     1.38373E+06    -230.790E-03     460.014E-03    -229.224E-03     102.941E-03    -232.443E-03     460.731E-03    -229.108E-03     90.3313E-03
             791     4.29447E-03     125.523E-03    -102.569E+06    -171.095E+06    -49.3986E+06     1.76720E+06    -231.397E-03     460.631E-03    -229.234E-03     122.527E-03    -233.781E-03     462.186E-03    -229.084E-03     107.158E-03
             792     5.01029E-03     125.701E-03    -93.4535E+06    -139.102E+06    -29.8745E+06     2.76463E+06    -232.092E-03     461.341E-03    -229.249E-03     141.788E-03    -235.346E-03     463.855E-03    -229.061E-03     123.593E-03
             793     5.72611E-03     125.905E-03    -84.3635E+06    -108.442E+06    -11.1760E+06     3.12402E+06    -232.775E-03     462.036E-03    -229.261E-03     160.566E-03    -237.046E-03     465.655E-03    -229.037E-03     139.489E-03
             794     6.44231E-03     126.133E-03    -74.6518E+06    -67.3148E+06     8.49630E+06     1.84608E+06    -233.489E-03     462.751E-03    -229.262E-03     178.696E-03    -238.929E-03     467.663E-03    -229.014E-03     154.717E-03
             795     7.15804E-03     126.386E-03    -65.6818E+06    -18.4022E+06     27.8212E+06     1.74702E+06    -234.131E-03     463.385E-03    -229.254E-03     195.704E-03    -240.848E-03     469.722E-03    -228.993E-03     168.977E-03
             796     7.87425E-03     126.659E-03    -57.0585E+06     11.7294E+06      40.938E+06     2.37570E+06    -234.730E-03     463.974E-03    -229.243E-03     210.659E-03    -242.697E-03     471.660E-03    -228.973E-03     181.462E-03
             797     8.59003E-03     126.952E-03    -48.5246E+06     20.8445E+06     48.6447E+06     1.86498E+06    -235.283E-03     464.526E-03    -229.243E-03     222.319E-03    -244.338E-03     473.342E-03    -228.960E-03     191.082E-03
             798     9.30550E-03     127.258E-03    -40.9998E+06     24.1263E+06     56.1504E+06     2.28660E+06    -235.357E-03     464.610E-03    -229.253E-03     229.804E-03    -245.216E-03     474.246E-03    -228.948E-03     197.220E-03
             799     10.0220E-03     127.571E-03    -33.8046E+06     36.2241E+06     67.2133E+06     2.91539E+06    -234.860E-03     464.111E-03    -229.252E-03     232.322E-03    -245.130E-03     474.196E-03    -228.919E-03     199.171E-03
             800     10.7383E-03     127.881E-03    -27.4982E+06     46.8281E+06     77.0091E+06     1.44680E+06    -234.168E-03     463.398E-03    -229.230E-03     229.114E-03    -244.395E-03     473.470E-03    -228.873E-03     196.003E-03
             801     11.4548E-03     128.181E-03    -21.4863E+06     49.7487E+06     79.5547E+06     907.683E+03    -233.553E-03     462.738E-03    -229.185E-03     222.060E-03    -243.352E-03     472.406E-03    -228.828E-03     189.496E-03
             802     12.1712E-03     128.472E-03    -14.6755E+06     63.3527E+06     81.9832E+06     1.10833E+06    -232.547E-03     461.668E-03    -229.121E-03     208.734E-03    -241.297E-03     470.354E-03    -228.782E-03     177.947E-03
             803     12.8877E-03     128.739E-03    -9.24880E+06     72.8398E+06     85.1325E+06     122.366E+03    -231.650E-03     460.705E-03    -229.055E-03     198.278E-03    -239.508E-03     468.541E-03    -228.721E-03     169.087E-03
             804     13.6056E-03     128.994E-03    -4.65574E+06     75.6260E+06     87.2137E+06    -401.944E+03    -230.554E-03     459.548E-03    -228.994E-03     160.603E-03    -235.994E-03     464.987E-03    -228.661E-03     137.044E-03
             805     715.638E-06     126.528E-03    -136.493E+06    -290.956E+06    -133.724E+06     1.31245E+06    -229.296E-03     458.454E-03    -229.158E-03     22.9512E-03    -229.443E-03     457.472E-03    -229.206E-03     20.2724E-03
             806     1.43128E-03     126.571E-03    -131.938E+06    -274.556E+06    -122.410E+06     980.786E+03    -229.394E-03     458.573E-03    -229.180E-03     42.2440E-03    -229.726E-03     457.818E-03    -229.203E-03     37.2985E-03
             807     2.14707E-03     126.643E-03    -126.952E+06    -254.809E+06    -107.655E+06     817.247E+03    -229.767E-03     458.952E-03    -229.185E-03     62.5766E-03    -230.413E-03     458.554E-03    -229.169E-03     55.1764E-03
             808     2.86277E-03     126.742E-03    -120.231E+06    -237.260E+06    -89.1132E+06     782.569E+03    -230.329E-03     459.561E-03    -229.231E-03     82.8224E-03    -231.408E-03     459.629E-03    -229.159E-03     72.8446E-03
             809     3.57847E-03     126.868E-03    -111.799E+06    -209.665E+06    -69.9200E+06     908.729E+03    -230.890E-03     460.160E-03    -229.270E-03     102.734E-03    -232.541E-03     460.873E-03    -229.154E-03     90.1049E-03
             810     4.29420E-03     127.020E-03    -103.538E+06    -172.977E+06    -51.0838E+06     1.56287E+06    -231.464E-03     460.749E-03    -229.285E-03     122.363E-03    -233.845E-03     462.297E-03    -229.139E-03     106.985E-03
             811     5.01009E-03     127.199E-03    -94.6893E+06    -142.682E+06    -31.7023E+06     2.14390E+06    -232.189E-03     461.497E-03    -229.308E-03     141.525E-03    -235.437E-03     463.994E-03    -229.122E-03     123.311E-03
             812     5.72592E-03     127.403E-03    -85.1318E+06    -107.993E+06    -12.4224E+06     1.98795E+06    -232.929E-03     462.257E-03    -229.329E-03     160.173E-03    -237.199E-03     465.878E-03    -229.111E-03     139.051E-03
             813     6.44149E-03     127.632E-03    -76.4588E+06    -66.1507E+06     7.07282E+06     1.79514E+06    -233.591E-03     462.933E-03    -229.342E-03     178.216E-03    -239.032E-03     467.848E-03    -229.100E-03     154.218E-03
             814     7.15756E-03     127.884E-03    -67.6495E+06    -20.1502E+06     26.5779E+06     1.94291E+06    -234.264E-03     463.613E-03    -229.350E-03     195.098E-03    -240.978E-03     469.938E-03    -229.089E-03     168.344E-03
             815     7.87314E-03     128.158E-03    -58.1524E+06     11.2114E+06     40.7098E+06     1.81875E+06    -234.882E-03     464.235E-03    -229.352E-03     210.171E-03    -242.852E-03     471.920E-03    -229.081E-03     180.918E-03
             816     8.58872E-03     128.451E-03    -49.8979E+06     20.7017E+06     48.3880E+06     2.15525E+06    -235.139E-03     464.486E-03    -229.347E-03     222.346E-03    -244.199E-03     473.302E-03    -229.063E-03     191.131E-03
             817     9.30501E-03     128.757E-03    -42.6716E+06     22.5896E+06     54.7774E+06     2.69911E+06    -235.012E-03     464.338E-03    -229.326E-03     229.972E-03    -244.861E-03     473.957E-03    -229.023E-03     197.479E-03
             818     10.0214E-03     129.068E-03    -35.9160E+06     35.3452E+06     65.2419E+06     2.38118E+06    -234.672E-03     463.968E-03    -229.295E-03     232.258E-03    -244.945E-03     474.050E-03    -228.968E-03     199.111E-03
             819     10.7381E-03     129.379E-03    -28.8017E+06     48.5512E+06     76.8227E+06     1.88616E+06    -234.253E-03     463.527E-03    -229.274E-03     228.801E-03    -244.488E-03     473.609E-03    -228.918E-03     195.652E-03
             820     11.4543E-03     129.679E-03    -21.5619E+06     52.9021E+06     81.2982E+06     444.123E+03    -233.595E-03     462.834E-03    -229.238E-03     221.854E-03    -243.393E-03     472.506E-03    -228.877E-03     189.306E-03
             821     12.1697E-03     129.971E-03    -15.5343E+06     62.0546E+06     82.1695E+06    -96.4343E+03    -232.279E-03     461.446E-03    -229.167E-03     208.483E-03    -241.039E-03     470.133E-03    -228.824E-03     177.690E-03
             822     12.8885E-03     130.230E-03    -10.1340E+06     73.9191E+06     85.3758E+06     931.467E+03    -231.374E-03     460.458E-03    -229.084E-03     197.457E-03    -239.217E-03     468.280E-03    -228.750E-03     168.317E-03
             823     13.6041E-03     130.496E-03    -4.60865E+06     78.1221E+06     88.1866E+06    -166.442E+03    -230.334E-03     459.347E-03    -229.012E-03     160.575E-03    -235.758E-03     464.775E-03    -228.678E-03     137.076E-03
             824     715.719E-06     128.026E-03    -133.341E+06    -293.316E+06    -132.752E+06     237.388E+03    -229.454E-03     458.391E-03    -228.938E-03     22.8982E-03    -229.583E-03     457.392E-03    -228.983E-03     20.2052E-03
             825     1.43134E-03     128.070E-03    -131.279E+06    -274.909E+06    -123.982E+06     392.544E+03    -229.616E-03     458.798E-03    -229.182E-03     42.2226E-03    -229.943E-03     458.043E-03    -229.213E-03     37.2508E-03
             826     2.14686E-03     128.141E-03    -126.149E+06    -256.253E+06    -108.144E+06     733.869E+03    -229.979E-03     459.246E-03    -229.267E-03     62.4818E-03    -230.619E-03     458.842E-03    -229.253E-03     55.0568E-03
             827     2.86247E-03     128.240E-03    -119.167E+06    -237.739E+06    -89.2458E+06     1.22296E+06    -230.405E-03     459.737E-03    -229.332E-03     82.6477E-03    -231.476E-03     459.799E-03    -229.261E-03     72.6757E-03
             828     3.57812E-03     128.366E-03    -111.533E+06    -210.310E+06    -69.9434E+06     1.59733E+06    -230.961E-03     460.330E-03    -229.368E-03     102.501E-03    -232.607E-03     461.036E-03    -229.251E-03     89.8820E-03
             829     4.29382E-03     128.519E-03    -103.099E+06    -174.367E+06    -50.7176E+06     1.71951E+06    -231.643E-03     461.034E-03    -229.392E-03     122.116E-03    -234.018E-03     462.571E-03    -229.243E-03     106.722E-03
             830     5.00942E-03     128.698E-03    -94.1277E+06    -143.959E+06    -31.2649E+06     1.87665E+06    -232.375E-03     461.804E-03    -229.429E-03     141.255E-03    -235.619E-03     464.293E-03    -229.240E-03     123.004E-03
             831     5.72496E-03     128.902E-03    -85.5270E+06    -108.554E+06    -12.3575E+06     2.31374E+06    -233.083E-03     462.542E-03    -229.459E-03     159.865E-03    -237.352E-03     466.158E-03    -229.239E-03     138.723E-03
             832     6.44072E-03     129.130E-03    -76.4235E+06    -66.2954E+06     6.79008E+06     2.72382E+06    -233.773E-03     463.250E-03    -229.477E-03     177.947E-03    -239.212E-03     468.163E-03    -229.236E-03     153.933E-03
             833     7.15618E-03     129.383E-03    -67.4394E+06    -20.6818E+06     26.0371E+06     2.66940E+06    -234.342E-03     463.827E-03    -229.485E-03     195.061E-03    -241.056E-03     470.152E-03    -229.227E-03     168.291E-03
             834     7.87188E-03     129.658E-03    -59.4967E+06     10.7919E+06     39.8800E+06     2.67139E+06    -234.662E-03     464.131E-03    -229.469E-03     210.282E-03    -242.632E-03     471.813E-03    -229.199E-03     181.077E-03
             835     8.58825E-03     129.949E-03    -51.7966E+06     19.7529E+06     47.2294E+06     2.77552E+06    -234.845E-03     464.277E-03    -229.432E-03     222.277E-03    -243.898E-03     473.080E-03    -229.150E-03     191.131E-03
             836     9.30481E-03     130.255E-03    -43.9675E+06     22.6708E+06     53.6758E+06     2.13735E+06    -234.936E-03     464.326E-03    -229.390E-03     229.539E-03    -244.782E-03     473.941E-03    -229.091E-03     197.025E-03
             837     10.0211E-03     130.566E-03    -35.6689E+06     34.2452E+06     65.1458E+06     1.55920E+06    -234.833E-03     464.201E-03    -229.368E-03     231.663E-03    -245.100E-03     474.274E-03    -229.040E-03     198.442E-03
             838     10.7370E-03     130.876E-03    -27.6627E+06     49.4027E+06     78.1417E+06     1.67474E+06    -234.251E-03     463.607E-03    -229.355E-03     228.346E-03    -244.469E-03     473.675E-03    -228.996E-03     195.205E-03
             839     11.4530E-03     131.178E-03    -20.9545E+06     57.1644E+06     82.5823E+06     1.08780E+06    -233.160E-03     462.462E-03    -229.303E-03     221.032E-03    -242.944E-03     472.135E-03    -228.942E-03     188.534E-03
             840     12.1716E-03     131.466E-03    -14.6201E+06     62.5708E+06     83.0586E+06    -176.301E+03    -232.112E-03     461.331E-03    -229.219E-03     207.613E-03    -240.839E-03     469.987E-03    -228.873E-03     176.877E-03
             841     12.8855E-03     131.731E-03    -8.65181E+06     74.2250E+06     86.6120E+06    -612.026E+03    -231.340E-03     460.472E-03    -229.133E-03     197.216E-03    -239.175E-03     468.290E-03    -228.795E-03     168.034E-03
             842     13.6047E-03     131.987E-03    -4.56390E+06     78.2834E+06     88.0735E+06     528.922E+03    -229.973E-03     459.017E-03    -229.044E-03     161.085E-03    -235.418E-03     464.468E-03    -228.710E-03     137.590E-03
             843     715.743E-06     129.524E-03    -132.990E+06    -294.184E+06    -131.087E+06     425.130E+03    -229.480E-03     458.700E-03    -229.220E-03     22.7129E-03    -229.608E-03     457.692E-03    -229.256E-03     20.0339E-03
             844     1.43120E-03     129.568E-03    -130.536E+06    -275.539E+06    -122.898E+06     601.347E+03    -229.751E-03     459.086E-03    -229.335E-03     42.0999E-03    -230.075E-03     458.325E-03    -229.361E-03     37.1166E-03
             845     2.14651E-03     129.640E-03    -125.778E+06    -257.450E+06    -108.085E+06     650.277E+03    -230.115E-03     459.527E-03    -229.412E-03     62.3341E-03    -230.750E-03     459.115E-03    -229.397E-03     54.9041E-03
             846     2.86198E-03     129.739E-03    -119.269E+06    -239.875E+06    -89.9820E+06     1.16889E+06    -230.560E-03     460.035E-03    -229.476E-03     82.5283E-03    -231.625E-03     460.087E-03    -229.405E-03     72.5563E-03
             847     3.57761E-03     129.865E-03    -111.571E+06    -211.813E+06    -70.1882E+06     1.74900E+06    -231.138E-03     460.657E-03    -229.519E-03     102.366E-03    -232.783E-03     461.357E-03    -229.401E-03     89.7254E-03
             848     4.29312E-03     130.018E-03    -103.074E+06    -175.247E+06    -50.4226E+06     1.78863E+06    -231.812E-03     461.361E-03    -229.550E-03     121.962E-03    -234.186E-03     462.894E-03    -229.398E-03     106.546E-03
             849     5.00856E-03     130.197E-03    -94.1880E+06    -145.134E+06    -31.0161E+06     2.14091E+06    -232.536E-03     462.126E-03    -229.590E-03     141.166E-03    -235.777E-03     464.607E-03    -229.398E-03     122.909E-03
             850     5.72413E-03     130.401E-03    -85.0114E+06     -110.17E+06    -11.9893E+06     2.91551E+06    -233.219E-03     462.838E-03    -229.619E-03     159.810E-03    -237.482E-03     466.443E-03    -229.396E-03     138.662E-03
             851     6.43960E-03     130.630E-03    -76.1477E+06    -68.0832E+06     6.73205E+06     3.71577E+06    -233.810E-03     463.438E-03    -229.628E-03     177.977E-03    -239.247E-03     468.343E-03    -229.385E-03     153.962E-03
             852     7.15526E-03     130.882E-03    -67.8098E+06    -21.6352E+06     25.6646E+06     4.50913E+06    -234.176E-03     463.788E-03    -229.612E-03     195.095E-03    -240.884E-03     470.104E-03    -229.354E-03     168.380E-03
             853     7.87156E-03     131.156E-03    -59.4269E+06     11.3340E+06     39.9691E+06     4.67887E+06    -234.496E-03     464.065E-03    -229.569E-03     210.064E-03    -242.455E-03     471.737E-03    -229.299E-03     180.920E-03
             854     8.58772E-03     131.448E-03    -51.1938E+06     21.2994E+06     48.4048E+06     3.71915E+06    -234.940E-03     464.466E-03    -229.527E-03     221.761E-03    -243.983E-03     473.264E-03    -229.241E-03     190.603E-03
             855     9.30343E-03     131.753E-03    -43.3885E+06     25.6003E+06     55.9259E+06     1.60570E+06    -235.187E-03     464.688E-03    -229.501E-03     228.956E-03    -245.041E-03     474.317E-03    -229.196E-03     196.347E-03
             856     10.0195E-03     132.064E-03    -35.6106E+06     35.3096E+06     66.1701E+06     297.014E+03    -234.909E-03     464.397E-03    -229.488E-03     231.076E-03    -245.170E-03     474.465E-03    -229.157E-03     197.807E-03
             857     10.7356E-03     132.375E-03    -27.8508E+06     48.1839E+06     77.8014E+06     378.621E+03    -233.902E-03     463.364E-03    -229.462E-03     227.677E-03    -244.096E-03     473.405E-03    -229.103E-03     194.572E-03
             858     11.4530E-03     132.674E-03    -20.4909E+06     56.8959E+06     82.7398E+06     950.334E+03    -232.826E-03     462.212E-03    -229.386E-03     220.676E-03    -242.600E-03     471.875E-03    -229.025E-03     188.219E-03
             859     12.1674E-03     132.964E-03    -14.3907E+06     64.4565E+06     82.9285E+06     524.470E+03    -231.606E-03     460.876E-03    -229.270E-03     207.655E-03    -240.342E-03     469.549E-03    -228.928E-03     176.948E-03
             860     12.8880E-03     133.225E-03    -9.78318E+06     73.2850E+06     85.2966E+06     747.942E+03    -230.987E-03     460.143E-03    -229.155E-03     197.576E-03    -238.820E-03     467.954E-03    -228.821E-03     168.504E-03
             861     13.6030E-03     133.486E-03    -4.52630E+06     77.4216E+06     87.6666E+06     847.758E+03    -229.468E-03     458.510E-03    -229.042E-03     161.754E-03    -234.918E-03     463.965E-03    -228.709E-03     138.284E-03
             862     715.155E-06     131.023E-03    -133.117E+06    -295.757E+06    -131.972E+06     317.720E+03    -229.724E-03     459.287E-03    -229.563E-03     22.9154E-03    -229.850E-03     458.274E-03    -229.601E-03     20.2252E-03
             863     1.43059E-03     131.067E-03    -130.405E+06    -276.852E+06    -122.624E+06      676.56E+03    -229.819E-03     459.403E-03    -229.584E-03     42.2036E-03    -230.141E-03     458.635E-03    -229.607E-03     37.2142E-03
             864     2.14617E-03     131.139E-03    -125.655E+06    -258.648E+06    -107.519E+06     1.30879E+06    -230.224E-03     459.828E-03    -229.604E-03     62.2941E-03    -230.857E-03     459.408E-03    -229.584E-03     54.8773E-03
             865     2.86165E-03     131.238E-03    -119.264E+06    -241.506E+06    -88.9161E+06     1.58912E+06    -230.782E-03     460.446E-03    -229.663E-03     82.3835E-03    -231.846E-03     460.486E-03    -229.585E-03     72.4072E-03
             866     3.57684E-03     131.364E-03    -111.440E+06    -213.690E+06    -69.5998E+06     2.01331E+06    -231.348E-03     461.061E-03    -229.713E-03     102.278E-03    -232.989E-03     461.749E-03    -229.589E-03     89.6247E-03
             867     4.29221E-03     131.517E-03    -103.196E+06    -176.211E+06    -50.3917E+06     2.45953E+06    -231.960E-03     461.699E-03    -229.739E-03     121.917E-03    -234.333E-03     463.226E-03    -229.586E-03     106.495E-03
             868     5.00777E-03     131.696E-03    -94.8543E+06    -146.134E+06    -31.1865E+06     2.51858E+06    -232.619E-03     462.389E-03    -229.770E-03     141.050E-03    -235.860E-03     464.865E-03    -229.577E-03     122.784E-03
             869     5.72312E-03     131.901E-03    -86.3579E+06    -113.042E+06    -12.9320E+06     2.96064E+06    -233.247E-03     463.032E-03    -229.785E-03     159.765E-03    -237.512E-03     466.626E-03    -229.561E-03     138.604E-03
             870     6.43866E-03     132.129E-03    -77.5861E+06    -71.4151E+06     5.65496E+06     4.32200E+06    -233.714E-03     463.488E-03    -229.774E-03     177.826E-03    -239.148E-03     468.376E-03    -229.529E-03     153.817E-03
             871     7.15469E-03     132.381E-03    -68.1638E+06    -23.5538E+06     25.2831E+06     5.30617E+06    -234.106E-03     463.844E-03    -229.738E-03     194.628E-03    -240.800E-03     470.139E-03    -229.478E-03     167.928E-03
             872     7.87056E-03     132.654E-03    -58.6857E+06     11.2809E+06     40.5345E+06     5.19292E+06    -234.680E-03     464.375E-03    -229.694E-03     209.463E-03    -242.626E-03     472.035E-03    -229.423E-03     180.287E-03
             873     8.58632E-03     132.946E-03    -49.7956E+06     24.1783E+06     50.1056E+06     4.25927E+06    -235.178E-03     464.846E-03    -229.668E-03     221.065E-03    -244.219E-03     473.650E-03    -229.380E-03     189.833E-03
             874     9.30252E-03     133.252E-03    -41.8615E+06     29.5769E+06     58.4368E+06     3.07045E+06    -235.229E-03     464.882E-03    -229.652E-03     228.409E-03    -245.071E-03     474.510E-03    -229.342E-03     195.810E-03
             875     10.0179E-03     133.563E-03    -35.2566E+06     39.3733E+06     68.2374E+06     834.466E+03    -234.649E-03     464.274E-03    -229.625E-03     230.769E-03    -244.904E-03     474.346E-03    -229.290E-03     197.548E-03
             876     10.7347E-03     133.871E-03    -27.9437E+06     47.8313E+06     78.0715E+06    -972.071E+03    -233.535E-03     463.105E-03    -229.570E-03     227.429E-03    -243.720E-03     473.134E-03    -229.208E-03     194.364E-03
             877     11.4508E-03     134.172E-03    -20.4853E+06     53.2521E+06     81.9806E+06    -511.394E+03    -232.200E-03     461.655E-03    -229.456E-03     220.735E-03    -241.954E-03     471.289E-03    -229.093E-03     188.373E-03
             878     12.1707E-03     134.460E-03    -14.4948E+06     64.2859E+06     83.0295E+06     1.62251E+06    -231.195E-03     460.498E-03    -229.303E-03     207.765E-03    -239.929E-03     469.168E-03    -228.960E-03     177.144E-03
             879     12.8853E-03     134.721E-03    -8.78612E+06     73.9725E+06     85.8016E+06     2.05522E+06    -230.655E-03     459.819E-03    -229.164E-03     197.508E-03    -238.475E-03     467.622E-03    -228.830E-03     168.492E-03
             880     13.6049E-03     134.983E-03    -4.24181E+06     78.2304E+06     88.0744E+06     780.148E+03    -228.903E-03     457.933E-03    -229.030E-03     160.445E-03    -234.333E-03     463.370E-03    -228.696E-03     137.019E-03
             881     715.218E-06     132.522E-03    -132.516E+06    -296.469E+06    -131.091E+06    -124.438E+03    -229.969E-03     459.679E-03    -229.711E-03     22.8582E-03    -230.092E-03     458.661E-03    -229.744E-03     20.1341E-03
             882     1.43052E-03     132.567E-03    -130.298E+06    -279.612E+06    -122.499E+06     866.515E+03    -230.035E-03     459.819E-03    -229.784E-03     42.3130E-03    -230.353E-03     459.037E-03    -229.802E-03     37.3171E-03
             883     2.14575E-03     132.638E-03    -125.467E+06    -260.958E+06    -106.803E+06     1.50290E+06    -230.444E-03     460.255E-03    -229.811E-03     62.3815E-03    -231.073E-03     459.822E-03    -229.785E-03     54.9625E-03
             884     2.86077E-03     132.738E-03    -118.459E+06    -243.455E+06    -87.8802E+06     2.19890E+06    -230.985E-03     460.857E-03    -229.872E-03     82.4623E-03    -232.044E-03     460.886E-03    -229.786E-03     72.4808E-03
             885     3.57613E-03     132.864E-03    -110.278E+06    -215.142E+06    -68.4409E+06     2.78211E+06    -231.553E-03     461.472E-03    -229.919E-03     102.294E-03    -233.189E-03     462.151E-03    -229.789E-03     89.6309E-03
             886     4.29149E-03     133.017E-03    -101.831E+06    -177.719E+06    -49.3971E+06     3.22217E+06    -232.133E-03     462.075E-03    -229.942E-03     121.892E-03    -234.499E-03     463.592E-03    -229.783E-03     106.461E-03
             887     5.00658E-03     133.196E-03    -93.2306E+06    -147.115E+06    -29.8568E+06     3.75017E+06    -232.726E-03     462.691E-03    -229.965E-03     140.962E-03    -235.961E-03     465.159E-03    -229.766E-03     122.688E-03
             888     5.72219E-03     133.400E-03    -84.3175E+06    -116.014E+06    -11.0252E+06     4.55317E+06    -233.271E-03     463.242E-03    -229.971E-03     159.538E-03    -237.522E-03     466.814E-03    -229.735E-03     138.378E-03
             889     6.43784E-03     133.629E-03    -75.3851E+06    -74.5700E+06     7.03388E+06     5.43356E+06    -233.804E-03     463.751E-03    -229.947E-03     177.269E-03    -239.218E-03     468.612E-03    -229.694E-03     153.246E-03
             890     7.15342E-03     133.880E-03    -66.5257E+06    -24.6025E+06     25.8225E+06     5.70382E+06    -234.386E-03     464.299E-03    -229.913E-03     193.862E-03    -241.065E-03     470.580E-03    -229.652E-03     167.101E-03
             891     7.86917E-03     134.154E-03    -57.6574E+06     11.0382E+06     40.9817E+06     5.53989E+06    -234.917E-03     464.803E-03    -229.887E-03     208.642E-03    -242.848E-03     472.450E-03    -229.614E-03     179.406E-03
             892     8.58482E-03     134.446E-03    -49.1814E+06     25.1495E+06     50.6359E+06     5.17648E+06    -235.156E-03     465.017E-03    -229.861E-03     220.356E-03    -244.178E-03     473.807E-03    -229.573E-03     189.133E-03
             893     9.29999E-03     134.751E-03    -41.6993E+06     31.6817E+06     58.9567E+06     4.30524E+06    -234.895E-03     464.717E-03    -229.823E-03     227.831E-03    -244.712E-03     474.328E-03    -229.513E-03     195.314E-03
             894     10.0172E-03     135.061E-03    -34.3297E+06     45.3908E+06     70.4275E+06     2.33668E+06    -234.137E-03     463.896E-03    -229.759E-03     230.130E-03    -244.365E-03     473.960E-03    -229.423E-03     197.036E-03
             895     10.7335E-03     135.370E-03    -28.0333E+06     53.0558E+06     80.1615E+06    -529.649E+03    -232.917E-03     462.582E-03    -229.665E-03     226.834E-03    -243.090E-03     472.611E-03    -229.300E-03     193.864E-03
             896     11.4516E-03     135.667E-03    -22.0049E+06     48.9768E+06     81.4034E+06    -955.525E+03    -231.851E-03     461.374E-03    -229.523E-03     219.949E-03    -241.586E-03     470.968E-03    -229.155E-03     187.623E-03
             897     12.1676E-03     135.954E-03    -15.9753E+06     59.0306E+06     82.1418E+06     1.02374E+06    -230.946E-03     460.300E-03    -229.354E-03     206.988E-03    -239.654E-03     468.923E-03    -229.006E-03     176.394E-03
             898     12.8871E-03     136.220E-03    -11.0134E+06     73.9674E+06     85.6744E+06     1.16816E+06    -230.306E-03     459.507E-03    -229.201E-03     196.410E-03    -238.144E-03     467.320E-03    -228.864E-03     167.319E-03
             899     13.6040E-03     136.473E-03    -5.70085E+06     80.5408E+06     88.1899E+06     683.988E+03    -228.906E-03     457.967E-03    -229.061E-03     159.145E-03    -234.339E-03     463.411E-03    -228.729E-03     135.710E-03
             900     715.119E-06     134.022E-03    -135.261E+06    -297.291E+06    -132.413E+06     93.2743E+03    -230.017E-03     460.000E-03    -229.983E-03     22.7175E-03    -230.150E-03     458.982E-03    -230.018E-03     20.0234E-03
             901     1.43017E-03     134.067E-03    -131.286E+06    -282.671E+06    -121.646E+06     969.397E+03    -230.359E-03     460.353E-03    -229.994E-03     42.2026E-03    -230.679E-03     459.556E-03    -230.002E-03     37.2000E-03
             902     2.14518E-03     134.138E-03    -125.236E+06    -262.899E+06    -105.924E+06     1.61149E+06    -230.688E-03     460.740E-03    -230.052E-03     62.2416E-03    -231.314E-03     460.296E-03    -230.019E-03     54.8061E-03
             903     2.86056E-03     134.238E-03    -118.250E+06    -245.823E+06    -87.8982E+06     2.02728E+06    -231.143E-03     461.246E-03    -230.103E-03     82.3123E-03    -232.198E-03     461.263E-03    -230.015E-03     72.3064E-03
             904     3.57546E-03     134.364E-03    -110.531E+06    -218.403E+06    -69.2919E+06     2.78697E+06    -231.718E-03     461.854E-03    -230.136E-03     102.177E-03    -233.350E-03     462.519E-03    -230.005E-03     89.4837E-03
             905     4.29042E-03     134.517E-03    -102.045E+06    -179.967E+06    -49.4565E+06     3.39757E+06    -232.299E-03     462.452E-03    -230.153E-03     121.733E-03    -234.661E-03     463.957E-03    -229.992E-03     106.285E-03
             906     5.00592E-03     134.696E-03    -93.1038E+06    -148.949E+06    -29.6316E+06     3.98813E+06    -232.893E-03     463.067E-03    -230.173E-03     140.687E-03    -236.124E-03     465.524E-03    -229.971E-03     122.383E-03
             907     5.72101E-03     134.900E-03    -83.8798E+06    -119.513E+06    -11.4304E+06     4.76959E+06    -233.510E-03     463.692E-03    -230.182E-03     159.006E-03    -237.752E-03     467.245E-03    -229.945E-03     137.789E-03
             908     6.43639E-03     135.129E-03    -74.7150E+06    -77.5929E+06     7.10125E+06     5.85296E+06    -234.145E-03     464.320E-03    -230.176E-03     176.602E-03    -239.543E-03     469.157E-03    -229.919E-03     152.527E-03
             909     7.15166E-03     135.381E-03    -65.7258E+06    -26.2981E+06     26.3180E+06     6.73985E+06    -234.704E-03     464.864E-03    -230.160E-03     193.195E-03    -241.372E-03     471.130E-03    -229.895E-03     166.378E-03
             910     7.86677E-03     135.654E-03    -57.2874E+06     10.8100E+06     41.1894E+06     6.91651E+06    -234.959E-03     465.091E-03    -230.133E-03     208.033E-03    -242.878E-03     472.727E-03    -229.860E-03     178.784E-03
             911     8.58236E-03     135.945E-03    -49.4445E+06     26.2253E+06     50.7130E+06     6.14789E+06    -234.858E-03     464.939E-03    -230.081E-03     219.804E-03    -243.859E-03     473.711E-03    -229.794E-03     188.643E-03
             912     9.29939E-03     136.249E-03    -41.6376E+06     33.0936E+06     59.6368E+06     5.29773E+06    -234.521E-03     464.528E-03    -230.007E-03     227.188E-03    -244.317E-03     474.121E-03    -229.697E-03     194.732E-03
             913     10.0150E-03     136.559E-03    -35.1549E+06     49.4013E+06     71.6540E+06     4.25384E+06    -233.650E-03     463.558E-03    -229.908E-03     229.195E-03    -243.859E-03     473.610E-03    -229.570E-03     196.195E-03
             914     10.7328E-03     136.866E-03    -28.6519E+06     61.5200E+06     83.1953E+06     1.13112E+06    -232.490E-03     462.276E-03    -229.786E-03     225.497E-03    -242.648E-03     472.309E-03    -229.418E-03     192.592E-03
             915     11.4499E-03     137.163E-03    -21.6738E+06     46.7792E+06     82.8458E+06    -463.276E+03    -231.810E-03     461.449E-03    -229.639E-03     218.705E-03    -241.513E-03     471.001E-03    -229.261E-03     186.376E-03
             916     12.1679E-03     137.452E-03    -15.9323E+06     51.8799E+06     82.3224E+06     1.14768E+06    -230.927E-03     460.402E-03    -229.474E-03     205.500E-03    -239.600E-03     468.964E-03    -229.115E-03     174.883E-03
             917     12.8848E-03     137.709E-03    -10.2941E+06     78.3178E+06     88.9415E+06     1.89995E+06    -229.698E-03     459.004E-03    -229.307E-03     194.807E-03    -237.516E-03     466.807E-03    -228.961E-03     165.795E-03
             918     13.6022E-03     137.974E-03    -5.18601E+06     83.6933E+06     90.4904E+06     437.186E+03    -227.634E-03     456.750E-03    -229.116E-03     159.085E-03    -233.049E-03     462.181E-03    -228.777E-03     135.843E-03
             919     715.016E-06     135.523E-03    -135.726E+06    -299.442E+06    -132.833E+06     1.05033E+06    -230.353E-03     460.620E-03    -230.266E-03     22.7738E-03    -230.485E-03     459.592E-03    -230.299E-03     20.0848E-03
             920     1.42975E-03     135.568E-03    -131.988E+06    -284.137E+06    -122.675E+06     877.872E+03    -230.609E-03     460.898E-03    -230.289E-03     42.1330E-03    -230.929E-03     460.097E-03    -230.299E-03     37.1159E-03
             921     2.14462E-03     135.639E-03    -126.098E+06    -264.952E+06    -107.481E+06     1.09039E+06    -230.930E-03     461.259E-03    -230.329E-03     62.1348E-03    -231.556E-03     460.808E-03    -230.299E-03     54.6665E-03
             922     2.85923E-03     135.739E-03    -118.982E+06    -248.143E+06    -88.9706E+06     1.74235E+06    -231.358E-03     461.729E-03    -230.371E-03     82.2040E-03    -232.412E-03     461.738E-03    -230.284E-03     72.1756E-03
             923     3.57447E-03     135.865E-03    -111.009E+06    -220.634E+06    -69.8491E+06     1.95574E+06    -231.933E-03     462.329E-03    -230.396E-03     102.009E-03    -233.562E-03     462.983E-03    -230.265E-03     89.2828E-03
             924     4.28968E-03     136.018E-03    -101.886E+06    -182.635E+06    -50.4367E+06     2.96025E+06    -232.546E-03     462.956E-03    -230.410E-03     121.258E-03    -234.900E-03     464.447E-03    -230.250E-03     105.764E-03
             925     5.00437E-03     136.197E-03    -92.6988E+06    -151.829E+06    -30.8836E+06     3.97919E+06    -233.167E-03     463.603E-03    -230.436E-03     140.079E-03    -236.388E-03     466.045E-03    -230.236E-03     121.714E-03
             926     5.71959E-03     136.401E-03    -83.9573E+06    -122.778E+06    -12.7197E+06     4.52911E+06    -233.866E-03     464.325E-03    -230.459E-03     158.370E-03    -238.094E-03     467.856E-03    -230.223E-03     137.099E-03
             927     6.43437E-03     136.630E-03    -74.8642E+06    -81.3338E+06     5.57300E+06     5.45797E+06    -234.457E-03     464.922E-03    -230.465E-03     176.057E-03    -239.841E-03     469.735E-03    -230.211E-03     151.924E-03
             928     7.14939E-03     136.882E-03    -65.4941E+06    -30.9268E+06     24.8668E+06     7.10837E+06    -234.800E-03     465.248E-03    -230.447E-03     192.780E-03    -241.451E-03     471.484E-03    -230.183E-03     165.936E-03
             929     7.86491E-03     137.155E-03    -56.8119E+06     9.52525E+06     41.1715E+06     8.69043E+06    -234.895E-03     465.299E-03    -230.403E-03     207.320E-03    -242.797E-03     472.913E-03    -230.129E-03     178.080E-03
             930     8.58103E-03     137.444E-03    -49.2159E+06     28.9100E+06     51.5084E+06     8.32229E+06    -234.722E-03     465.053E-03    -230.330E-03     218.601E-03    -243.706E-03     473.815E-03    -230.043E-03     187.442E-03
             931     9.29643E-03     137.748E-03    -42.4669E+06     33.8997E+06     59.3631E+06     6.69424E+06    -234.162E-03     464.395E-03    -230.232E-03     225.646E-03    -243.920E-03     473.950E-03    -229.923E-03     193.248E-03
             932     10.0140E-03     138.056E-03    -34.5292E+06     52.4242E+06     73.6961E+06     5.36337E+06    -233.331E-03     463.446E-03    -230.115E-03     227.413E-03    -243.494E-03     473.459E-03    -229.772E-03     194.471E-03
             933     10.7307E-03     138.362E-03    -27.0977E+06     69.1173E+06     87.8905E+06     3.57205E+06    -232.459E-03     462.449E-03    -229.989E-03     223.768E-03    -242.587E-03     472.471E-03    -229.611E-03     190.883E-03
             934     11.4477E-03     138.660E-03    -21.6834E+06     48.2544E+06     84.7626E+06     1.45239E+06    -231.449E-03     461.280E-03    -229.831E-03     217.105E-03    -241.140E-03     470.820E-03    -229.446E-03     184.761E-03
             935     12.1650E-03     138.944E-03    -15.5430E+06     48.2932E+06     82.6258E+06     1.11237E+06    -229.994E-03     459.619E-03    -229.625E-03     205.030E-03    -238.633E-03     468.135E-03    -229.259E-03     174.569E-03
             936     12.8818E-03     139.210E-03    -8.84056E+06     78.5545E+06     90.6656E+06     1.17756E+06    -228.228E-03     457.608E-03    -229.380E-03     195.768E-03    -236.037E-03     465.401E-03    -229.028E-03     166.989E-03
             937     13.6036E-03     139.457E-03    -2.87432E+06     86.3246E+06     93.6696E+06     1.36226E+06    -226.064E-03     455.164E-03    -229.100E-03     160.553E-03    -231.509E-03     460.634E-03    -228.753E-03     137.423E-03
             938     714.366E-06     137.025E-03    -134.983E+06    -302.131E+06    -133.684E+06     1.08926E+06    -230.788E-03     461.348E-03    -230.560E-03     22.7551E-03    -230.912E-03     460.308E-03    -230.595E-03     20.0416E-03
             939     1.42926E-03     137.069E-03    -132.037E+06    -283.612E+06    -125.076E+06     272.931E+03    -230.832E-03     461.440E-03    -230.609E-03     42.1591E-03    -231.149E-03     460.645E-03    -230.631E-03     37.1314E-03
             940     2.14391E-03     137.141E-03    -127.536E+06    -266.395E+06    -110.331E+06     218.663E+03    -231.179E-03     461.795E-03    -230.616E-03     62.1162E-03    -231.806E-03     461.343E-03    -230.596E-03     54.6182E-03
             941     2.85899E-03     137.240E-03    -120.248E+06    -249.719E+06    -91.1851E+06     382.414E+03    -231.749E-03     462.415E-03    -230.666E-03     82.0865E-03    -232.804E-03     462.421E-03    -230.585E-03     72.0005E-03
             942     3.57347E-03     137.367E-03    -111.497E+06    -222.057E+06     -71.827E+06     639.181E+03    -232.365E-03     463.081E-03    -230.716E-03     101.656E-03    -233.990E-03     463.730E-03    -230.592E-03     88.8748E-03
             943     4.28782E-03     137.520E-03    -102.995E+06    -186.090E+06    -53.2589E+06     1.40833E+06    -232.918E-03     463.667E-03    -230.749E-03     120.702E-03    -235.266E-03     465.143E-03    -230.596E-03     105.133E-03
             944     5.00285E-03     137.699E-03    -93.8600E+06    -156.596E+06    -33.8909E+06     2.77138E+06    -233.543E-03     464.330E-03    -230.787E-03     139.441E-03    -236.750E-03     466.745E-03    -230.593E-03     121.014E-03
             945     5.71733E-03     137.903E-03    -84.6010E+06    -125.698E+06    -14.9505E+06     4.10516E+06    -234.173E-03     464.989E-03    -230.816E-03     157.699E-03    -238.385E-03     468.498E-03    -230.586E-03     136.384E-03
             946     6.43220E-03     138.132E-03    -75.6498E+06    -84.5273E+06     3.45660E+06     4.58524E+06    -234.633E-03     465.451E-03    -230.819E-03     175.226E-03    -240.002E-03     470.242E-03    -230.569E-03     151.032E-03
             947     7.14730E-03     138.383E-03    -66.6847E+06    -38.3717E+06     21.6900E+06     6.36238E+06    -234.858E-03     465.648E-03    -230.790E-03     191.544E-03    -241.474E-03     471.829E-03    -230.530E-03     164.664E-03
             948     7.86258E-03     138.655E-03    -57.7376E+06     5.00233E+06     38.7265E+06     9.13225E+06    -234.833E-03     465.562E-03    -230.729E-03     205.758E-03    -242.692E-03     473.122E-03    -230.459E-03     176.515E-03
             949     8.57761E-03     138.944E-03    -49.2757E+06     30.3378E+06     50.9829E+06     9.64460E+06    -234.594E-03     465.231E-03    -230.637E-03     217.070E-03    -243.543E-03     473.965E-03    -230.354E-03     185.925E-03
             950     9.29428E-03     139.246E-03    -40.7811E+06     37.9956E+06     61.1023E+06     7.91385E+06    -234.083E-03     464.612E-03    -230.528E-03     223.997E-03    -243.806E-03     474.148E-03    -230.219E-03     191.595E-03
             951     10.0104E-03     139.552E-03    -33.3020E+06     55.0738E+06     74.7923E+06     6.12832E+06    -233.191E-03     463.589E-03    -230.398E-03     225.887E-03    -243.322E-03     473.581E-03    -230.056E-03     192.937E-03
             952     10.7272E-03     139.860E-03    -26.2044E+06     69.2319E+06     88.3744E+06     5.82889E+06    -231.853E-03     462.094E-03    -230.241E-03     222.888E-03    -241.942E-03     472.079E-03    -229.861E-03     190.127E-03
             953     11.4449E-03     140.154E-03    -19.3689E+06     53.6807E+06     88.4695E+06     5.16830E+06    -230.364E-03     460.384E-03    -230.021E-03     217.379E-03    -240.026E-03     469.912E-03    -229.628E-03     185.314E-03
             954     12.1628E-03     140.441E-03    -14.3715E+06     53.6155E+06     85.8000E+06     3.08377E+06    -228.076E-03     457.785E-03    -229.709E-03     205.544E-03    -236.696E-03     466.295E-03    -229.337E-03     175.429E-03
             955     12.8863E-03     140.695E-03    -11.1761E+06     77.6992E+06     90.9586E+06     1.82882E+06    -226.391E-03     455.740E-03    -229.348E-03     196.258E-03    -234.176E-03     463.497E-03    -228.990E-03     167.806E-03
             956     13.6043E-03     140.955E-03    -6.34960E+06     86.1949E+06     93.8913E+06     774.406E+03    -225.078E-03     454.069E-03    -228.991E-03     161.149E-03    -230.536E-03     459.538E-03    -228.637E-03     138.108E-03
             957     714.574E-06     138.528E-03    -133.916E+06    -304.710E+06    -133.807E+06     813.318E+03    -231.275E-03     462.095E-03    -230.820E-03     22.6820E-03    -231.388E-03     461.040E-03    -230.853E-03     19.9733E-03
             958     1.42876E-03     138.572E-03    -133.230E+06    -282.351E+06    -126.762E+06     441.124E+03    -231.257E-03     462.240E-03    -230.983E-03     41.8241E-03    -231.579E-03     461.454E-03    -231.014E-03     36.7775E-03
             959     2.14344E-03     138.644E-03    -129.125E+06    -265.053E+06    -112.198E+06    -696.646E+03    -231.665E-03     462.687E-03    -231.022E-03     61.5621E-03    -232.298E-03     462.246E-03    -231.011E-03     54.0118E-03
             960     2.85747E-03     138.743E-03    -122.489E+06    -249.495E+06    -94.3336E+06    -1.50511E+06    -232.238E-03     463.336E-03    -231.098E-03     81.3239E-03    -233.295E-03     463.346E-03    -231.030E-03     71.1765E-03
             961     3.57172E-03     138.870E-03    -114.961E+06    -224.747E+06    -75.8148E+06    -803.824E+03    -232.740E-03     463.900E-03    -231.160E-03     100.861E-03    -234.365E-03     464.539E-03    -231.047E-03     88.0313E-03
             962     4.28632E-03     139.023E-03    -107.073E+06    -189.340E+06    -57.2548E+06     408.690E+03    -233.283E-03     464.474E-03    -231.191E-03     120.067E-03    -235.637E-03     465.941E-03    -231.047E-03     104.429E-03
             963     5.00031E-03     139.202E-03    -98.8803E+06    -159.750E+06    -38.5599E+06     886.604E+03    -233.941E-03     465.167E-03    -231.226E-03     138.819E-03    -237.155E-03     467.575E-03    -231.044E-03     120.308E-03
             964     5.71487E-03     139.406E-03    -89.6778E+06    -127.406E+06    -20.3645E+06     838.650E+03    -234.509E-03     465.759E-03    -231.251E-03     156.906E-03    -238.726E-03     469.265E-03    -231.038E-03     135.488E-03
             965     6.42932E-03     139.634E-03    -79.8114E+06    -88.6910E+06    -1.61629E+06     1.87919E+06    -234.869E-03     466.121E-03    -231.252E-03     174.129E-03    -240.231E-03     470.890E-03    -231.016E-03     149.835E-03
             966     7.14379E-03     139.885E-03    -70.2326E+06    -47.0383E+06     16.9160E+06     4.33799E+06    -234.964E-03     466.183E-03    -231.219E-03     190.249E-03    -241.555E-03     472.309E-03    -230.964E-03     163.298E-03
             967     7.85870E-03     140.156E-03    -60.5258E+06    -1.69315E+06     34.5527E+06     6.37217E+06    -234.761E-03     465.895E-03    -231.133E-03     204.525E-03    -242.586E-03     473.398E-03    -230.870E-03     175.239E-03
             968     8.57506E-03     140.445E-03    -50.0270E+06     28.6609E+06     48.9994E+06     7.15370E+06    -234.411E-03     465.421E-03    -231.011E-03     215.654E-03    -243.313E-03     474.106E-03    -230.735E-03     184.503E-03
             969     9.29071E-03     140.745E-03    -41.1516E+06     38.2723E+06     59.4913E+06     7.58252E+06    -233.841E-03     464.709E-03    -230.868E-03     222.718E-03    -243.516E-03     474.201E-03    -230.566E-03     190.367E-03
             970     10.0070E-03     141.052E-03    -34.2079E+06     57.0059E+06     73.3097E+06     7.77724E+06    -232.536E-03     463.223E-03    -230.687E-03     225.307E-03    -242.633E-03     473.189E-03    -230.354E-03     192.500E-03
             971     10.7250E-03     141.354E-03    -27.5058E+06     69.8357E+06     87.2300E+06     6.63339E+06    -230.568E-03     461.018E-03    -230.450E-03     222.904E-03    -240.620E-03     470.967E-03    -230.075E-03     190.398E-03
             972     11.4441E-03     141.650E-03    -21.3691E+06     54.6925E+06     88.6820E+06     5.96078E+06    -228.533E-03     458.656E-03    -230.123E-03     217.154E-03    -238.129E-03     468.113E-03    -229.728E-03     185.516E-03
             973     12.1655E-03     141.930E-03    -15.5646E+06     59.5928E+06     88.1859E+06     5.16984E+06    -226.696E-03     456.409E-03    -229.714E-03     204.435E-03    -235.276E-03     464.890E-03    -229.336E-03     174.591E-03
             974     12.8834E-03     142.186E-03    -9.49589E+06     82.4751E+06     94.6461E+06     3.26218E+06    -225.086E-03     454.374E-03    -229.288E-03     194.926E-03    -232.824E-03     462.097E-03    -228.921E-03     166.666E-03
             975     13.6082E-03     142.440E-03    -4.79767E+06     87.2363E+06     96.7137E+06     1.86187E+06    -223.479E-03     452.342E-03    -228.863E-03     160.862E-03    -228.882E-03     457.757E-03    -228.499E-03     138.122E-03
             976     713.843E-06     140.032E-03    -136.672E+06    -307.081E+06    -135.878E+06     416.836E+03    -231.908E-03     463.162E-03    -231.254E-03     22.4101E-03    -232.028E-03     462.102E-03    -231.290E-03     19.6819E-03
             977     1.42805E-03     140.076E-03    -133.669E+06    -282.069E+06    -127.092E+06     757.108E+03    -231.895E-03     463.440E-03    -231.545E-03     41.4279E-03    -232.218E-03     462.656E-03    -231.578E-03     36.3663E-03
             978     2.14160E-03     140.148E-03    -129.454E+06    -262.936E+06    -111.977E+06     297.559E+03    -232.296E-03     463.909E-03    -231.614E-03     61.3238E-03    -232.932E-03     463.477E-03    -231.605E-03     53.7651E-03
             979     2.85559E-03     140.248E-03    -123.959E+06    -246.203E+06    -94.3899E+06    -1.36274E+06    -232.733E-03     464.420E-03    -231.687E-03     81.0669E-03    -233.800E-03     464.447E-03    -231.623E-03     70.8843E-03
             980     3.56964E-03     140.374E-03    -116.699E+06    -226.918E+06    -76.1566E+06    -1.59144E+06    -233.210E-03     464.951E-03    -231.741E-03     100.394E-03    -234.840E-03     465.582E-03    -231.624E-03     87.4832E-03
             981     4.28353E-03     140.527E-03    -107.912E+06    -192.949E+06    -58.6623E+06    -155.730E+03    -233.787E-03     465.547E-03    -231.760E-03     119.348E-03    -236.130E-03     466.992E-03    -231.617E-03     103.644E-03
             982     4.99787E-03     140.707E-03    -98.1964E+06    -157.210E+06    -40.0465E+06    -390.317E+03    -234.384E-03     466.164E-03    -231.781E-03     137.836E-03    -237.585E-03     468.575E-03    -231.611E-03     119.248E-03
             983     5.71168E-03     140.910E-03    -88.9209E+06    -128.663E+06    -21.7672E+06    -645.727E+03    -234.819E-03     466.619E-03    -231.800E-03     155.775E-03    -239.013E-03     470.104E-03    -231.594E-03     134.276E-03
             984     6.42571E-03     141.138E-03    -80.2014E+06    -94.2458E+06    -4.82231E+06     353.901E+03    -234.990E-03     466.765E-03    -231.775E-03     173.116E-03    -240.319E-03     471.488E-03    -231.546E-03     148.775E-03
             985     7.14038E-03     141.388E-03    -70.8244E+06    -53.4112E+06     12.7022E+06     1.78612E+06    -234.977E-03     466.678E-03    -231.701E-03     189.271E-03    -241.523E-03     472.747E-03    -231.458E-03     162.298E-03
             986     7.85572E-03     141.658E-03    -61.0785E+06    -7.31931E+06     31.4140E+06     3.58151E+06    -234.710E-03     466.292E-03    -231.582E-03     203.362E-03    -242.482E-03     473.731E-03    -231.326E-03     174.074E-03
             987     8.57059E-03     141.945E-03    -53.2271E+06     25.3053E+06     46.1060E+06     5.27763E+06    -234.085E-03     465.502E-03    -231.417E-03     214.675E-03    -242.940E-03     474.125E-03    -231.146E-03     183.598E-03
             988     9.28696E-03     142.245E-03    -46.3737E+06     34.5540E+06     55.1723E+06     6.48383E+06    -232.929E-03     464.126E-03    -231.197E-03     222.181E-03    -242.557E-03     473.551E-03    -230.904E-03     190.029E-03
             989     10.0050E-03     142.547E-03    -39.0266E+06     54.9856E+06     69.7529E+06     7.63305E+06    -231.106E-03     462.016E-03    -230.909E-03     224.960E-03    -241.149E-03     471.913E-03    -230.584E-03     192.461E-03
             990     10.7234E-03     142.850E-03    -32.8622E+06     71.5113E+06     86.1069E+06     7.97903E+06    -228.957E-03     459.517E-03    -230.561E-03     222.766E-03    -238.972E-03     469.420E-03    -230.186E-03     190.626E-03
             991     11.4437E-03     143.139E-03    -26.7276E+06     58.0727E+06     89.2561E+06     5.71653E+06    -227.056E-03     457.189E-03    -230.133E-03     217.179E-03    -236.638E-03     466.624E-03    -229.732E-03     185.840E-03
             992     12.1636E-03     143.420E-03    -19.9640E+06     60.7842E+06     87.5858E+06     2.64758E+06    -225.250E-03     454.877E-03    -229.628E-03     205.788E-03    -233.856E-03     463.375E-03    -229.249E-03     176.123E-03
             993     12.8873E-03     143.675E-03    -13.2075E+06     83.2994E+06     93.8223E+06     2.25061E+06    -224.174E-03     453.303E-03    -229.129E-03     196.980E-03    -231.963E-03     461.069E-03    -228.761E-03     168.834E-03
             994     13.6077E-03     143.922E-03    -6.22043E+06     90.2541E+06     98.7468E+06     1.30298E+06    -221.946E-03     450.591E-03    -228.645E-03     162.981E-03    -227.402E-03     456.060E-03    -228.273E-03     140.277E-03
             995     713.635E-06     141.538E-03    -139.419E+06    -304.488E+06    -139.283E+06    -2.01948E+06    -232.453E-03     464.571E-03    -232.117E-03     22.3600E-03    -232.586E-03     463.532E-03    -232.170E-03     19.5757E-03
             996     1.42679E-03     141.582E-03    -136.832E+06    -284.028E+06    -131.254E+06    -1.32081E+06    -232.538E-03     464.776E-03    -232.238E-03     41.3997E-03    -232.868E-03     463.992E-03    -232.284E-03     36.2858E-03
             997     2.14058E-03     141.654E-03    -131.523E+06    -263.797E+06    -115.075E+06     150.882E+03    -232.875E-03     465.156E-03    -232.280E-03     61.1809E-03    -233.515E-03     464.726E-03    -232.283E-03     53.5919E-03
             998     2.85402E-03     141.754E-03    -124.443E+06    -241.327E+06    -95.3097E+06    -424.094E+03    -233.343E-03     465.681E-03    -232.337E-03     80.6508E-03    -234.418E-03     465.733E-03    -232.284E-03     70.4364E-03
             999     3.56739E-03     141.881E-03    -116.144E+06    -225.372E+06    -76.0561E+06    -2.30655E+06    -233.927E-03     466.334E-03    -232.407E-03     99.8238E-03    -235.557E-03     466.972E-03    -232.292E-03     86.8167E-03
            1000     4.28083E-03     142.034E-03    -106.755E+06    -194.226E+06    -58.9907E+06    -3.07184E+06    -234.424E-03     466.861E-03    -232.437E-03     118.703E-03    -236.754E-03     468.294E-03    -232.295E-03     102.883E-03
            1001     4.99394E-03     142.213E-03    -97.8578E+06    -156.337E+06    -42.1191E+06    -2.67592E+06    -234.768E-03     467.199E-03    -232.431E-03     137.228E-03    -237.955E-03     469.606E-03    -232.273E-03     118.567E-03
            1002     5.70768E-03     142.416E-03    -88.9585E+06    -131.766E+06    -24.5244E+06    -2.28291E+06    -234.987E-03     467.398E-03    -232.411E-03     155.169E-03    -239.157E-03     470.856E-03    -232.214E-03     133.624E-03
            1003     6.42205E-03     142.642E-03    -79.5141E+06    -97.6936E+06    -6.70519E+06    -1.23734E+06    -235.029E-03     467.367E-03    -232.338E-03     172.307E-03    -240.312E-03     472.040E-03    -232.114E-03     147.984E-03
            1004     7.13664E-03     142.892E-03    -70.8487E+06    -57.4031E+06     10.5465E+06     328.917E+03    -234.852E-03     467.061E-03    -232.209E-03     188.342E-03    -241.342E-03     473.065E-03    -231.970E-03     161.431E-03
            1005     7.85122E-03     143.160E-03    -63.4249E+06    -15.7177E+06     27.2517E+06     3.41278E+06    -234.268E-03     466.288E-03    -232.021E-03     202.749E-03    -241.977E-03     473.638E-03    -231.770E-03     173.608E-03
            1006     8.56763E-03     143.446E-03    -56.5433E+06     21.2429E+06     42.5392E+06     7.02750E+06    -233.140E-03     464.897E-03    -231.757E-03     214.521E-03    -241.933E-03     473.442E-03    -231.493E-03     183.731E-03
            1007     9.28500E-03     143.742E-03    -49.8923E+06     35.1356E+06     53.4681E+06     7.24315E+06    -231.531E-03     462.946E-03    -231.415E-03     222.353E-03    -241.099E-03     472.307E-03    -231.126E-03     190.576E-03
            1008     10.0031E-03     144.043E-03    -42.5660E+06     51.0610E+06     67.0982E+06     6.33306E+06    -229.482E-03     460.477E-03    -230.995E-03     225.449E-03    -239.455E-03     470.285E-03    -230.672E-03     193.366E-03
            1009     10.7240E-03     144.340E-03    -33.2070E+06     67.5021E+06     84.6358E+06     8.47751E+06    -227.281E-03     457.798E-03    -230.516E-03     223.495E-03    -237.197E-03     467.590E-03    -230.143E-03     191.873E-03
            1010     11.4453E-03     144.631E-03    -24.4391E+06     68.0784E+06     94.0363E+06     7.55210E+06    -225.186E-03     455.155E-03    -229.969E-03     218.919E-03    -234.715E-03     464.566E-03    -229.562E-03     188.109E-03
            1011     12.1687E-03     144.907E-03    -17.7231E+06     66.3997E+06     92.5287E+06     2.90353E+06    -223.473E-03     452.822E-03    -229.349E-03     208.548E-03    -232.054E-03     461.307E-03    -228.957E-03     179.352E-03
            1012     12.8917E-03     145.159E-03    -10.9080E+06     81.7587E+06     96.6404E+06     1.01786E+06    -222.826E-03     451.578E-03    -228.752E-03     200.947E-03    -230.646E-03     459.369E-03    -228.371E-03     173.040E-03
            1013     13.6152E-03     145.414E-03    -4.46962E+06     92.9939E+06     101.740E+06     512.914E+03    -221.096E-03     449.302E-03    -228.206E-03     165.237E-03    -226.608E-03     454.833E-03    -227.826E-03     142.553E-03
            1014     712.670E-06     143.046E-03    -138.262E+06    -295.916E+06    -136.853E+06    -3.07508E+06    -233.075E-03     466.109E-03    -233.034E-03     22.3504E-03    -233.219E-03     465.109E-03    -233.089E-03     19.5259E-03
            1015     1.42597E-03     143.090E-03    -135.860E+06    -285.473E+06    -128.783E+06    -2.56757E+06    -233.327E-03     466.357E-03    -233.030E-03     41.2355E-03    -233.653E-03     465.561E-03    -233.063E-03     36.0663E-03
            1016     2.13863E-03     143.162E-03    -131.081E+06    -264.902E+06    -116.740E+06    -1.72942E+06    -233.642E-03     466.698E-03    -233.056E-03     60.6585E-03    -234.274E-03     466.263E-03    -233.066E-03     52.9918E-03
            1017     2.85162E-03     143.262E-03    -124.447E+06    -237.224E+06    -101.567E+06    -2.39018E+06    -234.011E-03     467.085E-03    -233.074E-03     80.1071E-03    -235.078E-03     467.162E-03    -233.057E-03     69.8331E-03
            1018     3.56446E-03     143.389E-03    -116.575E+06    -220.940E+06    -81.6738E+06    -4.20923E+06    -234.497E-03     467.617E-03    -233.120E-03     99.4582E-03    -236.118E-03     468.277E-03    -233.039E-03     86.4093E-03
            1019     4.27724E-03     143.542E-03    -108.899E+06    -191.899E+06    -62.4463E+06    -5.49581E+06    -234.848E-03     467.976E-03    -233.128E-03     118.500E-03    -237.180E-03     469.421E-03    -233.004E-03     102.624E-03
            1020     4.99084E-03     143.720E-03    -100.373E+06    -157.676E+06    -44.7947E+06    -5.58204E+06    -235.000E-03     468.080E-03    -233.080E-03     137.040E-03    -238.182E-03     470.476E-03    -232.930E-03     118.333E-03
            1021     5.70463E-03     143.923E-03    -91.2221E+06    -132.673E+06    -27.9211E+06    -5.14409E+06    -235.053E-03     468.047E-03    -232.994E-03     154.878E-03    -239.203E-03     471.483E-03    -232.808E-03     133.343E-03
            1022     6.41834E-03     144.148E-03    -82.5531E+06    -100.936E+06    -10.7642E+06    -4.20233E+06    -234.873E-03     467.722E-03    -232.849E-03     172.155E-03    -240.124E-03     472.354E-03    -232.637E-03     147.896E-03
            1023     7.13279E-03     144.396E-03    -73.9920E+06    -64.4973E+06     6.91362E+06    -1.31214E+06    -234.265E-03     466.898E-03    -232.632E-03     188.665E-03    -240.708E-03     472.829E-03    -232.397E-03     161.931E-03
            1024     7.84893E-03     144.663E-03    -65.3095E+06    -27.1259E+06     23.9293E+06     3.49247E+06    -233.240E-03     465.563E-03    -232.324E-03     203.433E-03    -240.873E-03     472.799E-03    -232.070E-03     174.616E-03
            1025     8.56576E-03     144.945E-03    -56.3508E+06     13.4506E+06     39.9745E+06     8.20468E+06    -231.726E-03     463.634E-03    -231.909E-03     215.278E-03    -240.421E-03     472.062E-03    -231.647E-03     184.932E-03
            1026     9.28420E-03     145.239E-03    -47.7962E+06     38.7359E+06     53.4300E+06     9.08947E+06    -229.787E-03     461.193E-03    -231.405E-03     223.322E-03    -239.245E-03     470.463E-03    -231.125E-03     192.117E-03
            1027     10.0053E-03     145.536E-03    -39.6064E+06     50.9978E+06     67.2254E+06     6.66591E+06    -227.653E-03     458.488E-03    -230.835E-03     226.943E-03    -237.491E-03     468.171E-03    -230.515E-03     195.514E-03
            1028     10.7263E-03     145.832E-03    -31.4088E+06     63.9209E+06     82.7794E+06     6.10197E+06    -225.294E-03     455.499E-03    -230.205E-03     225.741E-03    -235.091E-03     465.171E-03    -229.838E-03     194.758E-03
            1029     11.4500E-03     146.116E-03    -22.2057E+06     73.7714E+06     96.1593E+06     5.34644E+06    -223.229E-03     452.756E-03    -229.527E-03     221.438E-03    -232.681E-03     462.112E-03    -229.121E-03     191.200E-03
            1030     12.1751E-03     146.391E-03    -13.4581E+06     69.5343E+06     96.4375E+06     4.07330E+06    -222.052E-03     450.866E-03    -228.814E-03     211.182E-03    -230.556E-03     459.289E-03    -228.413E-03     182.508E-03
            1031     12.8993E-03     146.645E-03    -7.71773E+06     80.0734E+06     99.5388E+06     3.42476E+06    -221.372E-03     449.517E-03    -228.145E-03     203.562E-03    -229.153E-03     457.266E-03    -227.752E-03     176.066E-03
            1032     13.6261E-03     146.892E-03    -3.85762E+06     97.1720E+06     106.236E+06     2.82021E+06    -221.465E-03     449.054E-03    -227.588E-03     167.272E-03    -226.984E-03     454.596E-03    -227.193E-03     144.752E-03
            1033     712.568E-06     144.556E-03    -135.967E+06    -288.352E+06    -133.657E+06    -1.72663E+06    -233.968E-03     467.800E-03    -233.831E-03     22.2105E-03    -234.116E-03     466.829E-03    -233.884E-03     19.3943E-03
            1034     1.42448E-03     144.601E-03    -133.377E+06    -283.480E+06    -125.565E+06    -2.26469E+06    -234.198E-03     468.089E-03    -233.891E-03     41.1255E-03    -234.518E-03     467.293E-03    -233.914E-03     35.9466E-03
            1035     2.13678E-03     144.674E-03    -129.231E+06    -261.903E+06    -116.959E+06    -3.26758E+06    -234.369E-03     468.253E-03    -233.884E-03     60.5740E-03    -234.994E-03     467.829E-03    -233.902E-03     52.8685E-03
            1036     2.84911E-03     144.773E-03    -124.364E+06    -232.933E+06    -104.908E+06    -4.47108E+06    -234.513E-03     468.345E-03    -233.831E-03     80.2669E-03    -235.579E-03     468.446E-03    -233.838E-03     69.9469E-03
            1037     3.56185E-03     144.899E-03    -118.558E+06    -215.618E+06    -86.5698E+06    -5.95371E+06    -234.785E-03     468.576E-03    -233.791E-03     99.7440E-03    -236.406E-03     469.262E-03    -233.739E-03     86.7225E-03
            1038     4.27489E-03     145.052E-03    -110.553E+06    -188.597E+06    -66.5247E+06    -7.48156E+06    -235.023E-03     468.744E-03    -233.721E-03     118.748E-03    -237.347E-03     470.200E-03    -233.620E-03     102.907E-03
            1039     4.98774E-03     145.229E-03    -102.142E+06    -157.868E+06    -47.1409E+06    -7.44482E+06    -235.041E-03     468.650E-03    -233.608E-03     137.282E-03    -238.208E-03     471.030E-03    -233.467E-03     118.626E-03
            1040     5.70112E-03     145.430E-03    -94.1867E+06    -131.635E+06    -29.4491E+06    -6.80176E+06    -234.748E-03     468.181E-03    -233.433E-03     155.454E-03    -238.878E-03     471.595E-03    -233.253E-03     134.073E-03
            1041     6.41577E-03     145.655E-03    -85.8407E+06    -103.070E+06    -13.0174E+06    -6.56422E+06    -234.106E-03     467.271E-03    -233.165E-03     173.195E-03    -239.321E-03     471.853E-03    -232.956E-03     149.182E-03
            1042     7.13166E-03     145.899E-03    -76.4912E+06    -72.2983E+06     3.73950E+06    -4.57525E+06    -233.144E-03     465.946E-03    -232.801E-03     189.906E-03    -239.517E-03     471.780E-03    -232.567E-03     163.513E-03
            1043     7.84838E-03     146.164E-03    -66.0855E+06    -40.2604E+06     20.3468E+06    -459.144E+03    -231.735E-03     464.068E-03    -232.332E-03     204.823E-03    -239.255E-03     471.151E-03    -232.076E-03     176.476E-03
            1044     8.56698E-03     146.443E-03    -55.5262E+06     946.853E+03     36.6905E+06     4.57261E+06    -229.808E-03     461.547E-03    -231.738E-03     217.062E-03    -238.358E-03     469.796E-03    -231.476E-03     187.337E-03
            1045     9.28770E-03     146.732E-03    -45.4467E+06     38.9305E+06     51.9589E+06     7.59826E+06    -227.625E-03     458.663E-03    -231.038E-03     225.787E-03    -236.941E-03     467.806E-03    -230.769E-03     195.315E-03
            1046     10.0091E-03     147.027E-03    -37.4707E+06     52.2738E+06     64.1653E+06     8.15323E+06    -225.335E-03     455.612E-03    -230.278E-03     230.211E-03    -235.029E-03     465.173E-03    -229.978E-03     199.645E-03
            1047     10.7341E-03     147.317E-03    -30.6025E+06     67.1117E+06     79.7198E+06     6.12213E+06    -223.224E-03     452.710E-03    -229.486E-03     229.698E-03    -232.925E-03     462.310E-03    -229.141E-03     199.471E-03
            1048     11.4597E-03     147.600E-03    -24.1865E+06     76.4553E+06     94.1223E+06     3.20199E+06    -221.934E-03     450.642E-03    -228.708E-03     226.153E-03    -231.347E-03     459.967E-03    -228.313E-03     196.477E-03
            1049     12.1841E-03     147.874E-03    -19.3026E+06     67.0978E+06     95.1883E+06     3.22168E+06    -221.468E-03     449.427E-03    -227.959E-03     216.366E-03    -229.982E-03     457.835E-03    -227.553E-03     188.121E-03
            1050     12.9113E-03     148.124E-03    -13.9989E+06     80.8281E+06     99.3077E+06     4.22677E+06    -222.075E-03     449.382E-03    -227.308E-03     207.455E-03    -229.897E-03     457.155E-03    -226.908E-03     180.112E-03
            1051     13.6346E-03     148.376E-03    -6.40632E+06     100.194E+06     106.308E+06     3.06097E+06    -223.325E-03     450.158E-03    -226.833E-03     171.769E-03    -228.933E-03     455.790E-03    -226.437E-03     149.016E-03
            1052     711.419E-06     146.070E-03    -140.217E+06    -283.815E+06    -138.232E+06    -784.807E+03    -234.746E-03     469.248E-03    -234.502E-03     22.4302E-03    -234.914E-03     468.312E-03    -234.578E-03     19.6415E-03
            1053     1.42335E-03     146.115E-03    -137.131E+06    -277.433E+06    -129.997E+06    -2.81128E+06    -234.708E-03     469.271E-03    -234.563E-03     41.5399E-03    -235.048E-03     468.517E-03    -234.612E-03     36.3770E-03
            1054     2.13517E-03     146.186E-03    -132.608E+06    -255.954E+06    -118.305E+06    -4.87736E+06    -234.729E-03     469.212E-03    -234.483E-03     61.2087E-03    -235.376E-03     468.823E-03    -234.511E-03     53.5148E-03
            1055     2.84748E-03     146.285E-03    -126.615E+06    -228.935E+06    -103.013E+06    -5.77320E+06    -234.834E-03     469.206E-03    -234.372E-03     80.9963E-03    -235.913E-03     469.322E-03    -234.372E-03     70.7191E-03
            1056     3.55996E-03     146.411E-03    -119.424E+06    -208.569E+06    -85.0069E+06    -6.85054E+06    -234.915E-03     469.168E-03    -234.253E-03     100.518E-03    -236.543E-03     469.878E-03    -234.203E-03     87.5733E-03
            1057     4.27265E-03     146.562E-03    -112.669E+06    -184.571E+06    -67.6831E+06    -8.64693E+06    -234.815E-03     468.895E-03    -234.080E-03     119.717E-03    -237.136E-03     470.358E-03    -233.987E-03     104.012E-03
            1058     4.98621E-03     146.739E-03    -104.862E+06    -157.498E+06    -48.9630E+06    -9.02567E+06    -234.448E-03     468.288E-03    -233.840E-03     138.684E-03    -237.595E-03     470.646E-03    -233.705E-03     120.263E-03
            1059     5.70072E-03     146.938E-03    -95.5797E+06    -130.398E+06    -29.7163E+06    -8.67695E+06    -233.782E-03     467.296E-03    -233.514E-03     157.327E-03    -237.878E-03     470.676E-03    -233.335E-03     136.270E-03
            1060     6.41615E-03     147.160E-03    -86.1533E+06    -102.811E+06    -12.5451E+06    -8.39688E+06    -232.827E-03     465.907E-03    -233.080E-03     175.333E-03    -237.978E-03     470.423E-03    -232.869E-03     151.773E-03
            1061     7.13278E-03     147.402E-03    -77.0573E+06    -76.4548E+06     2.74543E+06    -7.38751E+06    -231.422E-03     463.953E-03    -232.532E-03     192.455E-03    -237.700E-03     469.679E-03    -232.296E-03     166.648E-03
            1062     7.85128E-03     147.663E-03    -68.2869E+06    -48.7196E+06     17.2510E+06    -5.56091E+06    -229.525E-03     461.381E-03    -231.856E-03     208.170E-03    -236.925E-03     468.315E-03    -231.600E-03     180.541E-03
            1063     8.57207E-03     147.937E-03    -58.7556E+06    -12.5670E+06     32.1528E+06    -2.07704E+06    -227.352E-03     458.400E-03    -231.047E-03     221.260E-03    -235.758E-03     466.459E-03    -230.783E-03     192.366E-03
            1064     9.29468E-03     148.223E-03    -49.8716E+06     29.9928E+06     46.7569E+06     3.40986E+06    -225.015E-03     455.145E-03    -230.129E-03     230.666E-03    -234.188E-03     464.111E-03    -229.867E-03     201.155E-03
            1065     10.0207E-03     148.512E-03     -41.932E+06     52.6272E+06     58.6954E+06     6.40415E+06    -223.043E-03     452.216E-03    -229.172E-03     235.579E-03    -232.609E-03     461.649E-03    -228.894E-03     205.990E-03
            1066     10.7468E-03     148.801E-03    -35.0992E+06     69.5652E+06     73.4819E+06     5.97661E+06    -221.716E-03     449.967E-03    -228.251E-03     235.479E-03    -231.315E-03     459.475E-03    -227.934E-03     206.111E-03
            1067     11.4732E-03     149.082E-03    -28.9945E+06     81.4666E+06     90.7983E+06     4.38420E+06    -221.272E-03     448.700E-03    -227.429E-03     232.057E-03    -230.643E-03     457.995E-03    -227.051E-03     203.039E-03
            1068     12.2022E-03     149.354E-03    -20.9969E+06     65.0017E+06     95.3998E+06     2.81662E+06    -222.278E-03     449.007E-03    -226.729E-03     222.078E-03    -230.783E-03     457.391E-03    -226.315E-03     194.158E-03
            1069     12.9250E-03     149.609E-03    -13.1808E+06     78.8611E+06     101.039E+06     2.76504E+06    -224.680E-03     450.878E-03    -226.198E-03     213.679E-03    -232.545E-03     458.683E-03    -225.788E-03     186.276E-03
            1070     13.6480E-03     149.861E-03    -6.82747E+06     104.567E+06     107.954E+06     1.59383E+06    -226.886E-03     452.785E-03    -225.899E-03     178.174E-03    -232.633E-03     458.566E-03    -225.501E-03     154.951E-03
            1071     711.593E-06     147.585E-03    -145.109E+06    -277.692E+06    -143.661E+06    -2.05628E+06    -234.941E-03     469.615E-03    -234.674E-03     23.0999E-03    -235.135E-03     468.724E-03    -234.779E-03     20.3241E-03
            1072     1.42296E-03     147.630E-03    -141.530E+06    -268.535E+06    -133.438E+06    -4.39986E+06    -234.789E-03     469.509E-03    -234.720E-03     42.2365E-03    -235.158E-03     468.809E-03    -234.793E-03     37.1189E-03
            1073     2.13508E-03     147.700E-03    -135.565E+06    -248.833E+06    -118.171E+06    -6.39442E+06    -234.779E-03     469.393E-03    -234.615E-03     62.1315E-03    -235.446E-03     469.039E-03    -234.648E-03     54.5169E-03
            1074     2.84713E-03     147.798E-03    -128.691E+06    -225.484E+06    -100.878E+06    -6.94573E+06    -234.737E-03     469.205E-03    -234.468E-03     82.1080E-03    -235.824E-03     469.326E-03    -234.459E-03     71.9679E-03
            1075     3.55957E-03     147.923E-03    -121.648E+06    -203.846E+06    -83.0819E+06    -7.42123E+06    -234.436E-03     468.690E-03    -234.254E-03     102.160E-03    -236.071E-03     469.410E-03    -234.197E-03     89.4081E-03
            1076     4.27298E-03     148.073E-03    -113.419E+06    -177.973E+06    -64.6242E+06    -8.62867E+06    -233.884E-03     467.820E-03    -233.936E-03     121.991E-03    -236.193E-03     469.282E-03    -233.837E-03     106.631E-03
            1077     4.98737E-03     148.247E-03    -104.767E+06    -153.210E+06    -46.8773E+06    -10.2559E+06    -233.111E-03     466.624E-03    -233.513E-03     141.377E-03    -236.219E-03     468.952E-03    -233.373E-03     123.418E-03
            1078     5.70297E-03     148.444E-03    -95.8485E+06    -128.764E+06    -29.7793E+06    -11.0686E+06    -232.055E-03     465.036E-03    -232.981E-03     160.520E-03    -236.089E-03     468.359E-03    -232.805E-03     140.021E-03
            1079     6.42006E-03     148.663E-03    -86.8676E+06    -102.680E+06    -13.0093E+06    -10.3803E+06    -230.581E-03     462.908E-03    -232.327E-03     179.456E-03    -235.649E-03     467.340E-03    -232.117E-03     156.635E-03
            1080     7.13902E-03     148.901E-03    -78.1088E+06    -78.4036E+06     2.52154E+06    -9.28613E+06    -228.645E-03     460.179E-03    -231.535E-03     197.667E-03    -234.814E-03     465.785E-03    -231.295E-03     172.789E-03
            1081     7.86074E-03     149.156E-03    -69.4020E+06    -51.2922E+06     17.1763E+06    -7.74209E+06    -226.559E-03     457.163E-03    -230.604E-03     214.437E-03    -233.829E-03     463.954E-03    -230.343E-03     187.876E-03
            1082     8.58438E-03     149.428E-03    -61.6651E+06    -20.9771E+06     30.4703E+06    -5.05442E+06    -224.496E-03     454.060E-03    -229.564E-03     228.352E-03    -232.752E-03     461.934E-03    -229.292E-03     200.605E-03
            1083     9.31070E-03     149.708E-03    -53.4179E+06     17.3308E+06     44.4277E+06     98.3974E+03    -222.701E-03     451.168E-03    -228.467E-03     238.079E-03    -231.704E-03     459.913E-03    -228.192E-03     209.716E-03
            1084     10.0377E-03     149.994E-03    -44.9565E+06     50.2854E+06     57.5686E+06     3.90354E+06    -221.581E-03     448.970E-03    -227.389E-03     243.259E-03    -231.018E-03     458.259E-03    -227.109E-03     214.659E-03
            1085     10.7661E-03     150.281E-03    -36.1008E+06     68.8814E+06     72.4696E+06     4.05221E+06    -221.257E-03     447.687E-03    -226.430E-03     243.145E-03    -230.740E-03     457.076E-03    -226.115E-03     214.624E-03
            1086     11.4952E-03     150.560E-03    -26.2611E+06     84.0308E+06     90.2771E+06     4.01704E+06    -222.200E-03     447.847E-03    -225.647E-03     239.842E-03    -231.487E-03     457.077E-03    -225.279E-03     211.434E-03
            1087     12.2189E-03     150.837E-03    -18.2833E+06     67.8021E+06     95.9117E+06     1.48307E+06    -224.731E-03     449.812E-03    -225.081E-03     230.529E-03    -233.255E-03     458.234E-03    -224.673E-03     202.763E-03
            1088     12.9446E-03     151.092E-03    -11.0516E+06     75.3317E+06     103.634E+06     1.71643E+06    -228.951E-03     453.734E-03    -224.783E-03     222.080E-03    -236.905E-03     461.616E-03    -224.358E-03     194.413E-03
            1089     13.6642E-03     151.355E-03    -4.26547E+06     107.327E+06     113.312E+06     3.41409E+06    -233.170E-03     457.962E-03    -224.791E-03     184.205E-03    -239.020E-03     463.850E-03    -224.374E-03     160.439E-03
            1090     711.692E-06     149.101E-03    -143.848E+06    -269.256E+06    -141.309E+06    -2.32379E+06    -234.488E-03     468.690E-03    -234.202E-03     23.3640E-03    -234.689E-03     467.834E-03    -234.309E-03     20.6593E-03
            1091     1.42382E-03     149.144E-03    -140.900E+06    -258.538E+06    -132.271E+06    -4.52824E+06    -234.281E-03     468.517E-03    -234.237E-03     42.9036E-03    -234.657E-03     467.859E-03    -234.319E-03     37.9103E-03
            1092     2.13568E-03     149.214E-03    -135.691E+06    -241.426E+06    -117.249E+06    -6.46330E+06    -234.082E-03     468.164E-03    -234.082E-03     63.5227E-03    -234.753E-03     467.836E-03    -234.121E-03     56.1088E-03
            1093     2.84828E-03     149.311E-03    -128.949E+06    -221.129E+06    -99.1333E+06    -7.40119E+06    -233.596E-03     467.420E-03    -233.824E-03     84.2973E-03    -234.677E-03     467.546E-03    -233.812E-03     74.4452E-03
            1094     3.56199E-03     149.434E-03    -120.503E+06    -197.938E+06    -80.5239E+06    -8.55565E+06    -232.878E-03     466.309E-03    -233.431E-03     105.154E-03    -234.492E-03     467.026E-03    -233.372E-03     92.8197E-03
            1095     4.27687E-03     149.581E-03    -111.320E+06    -172.140E+06    -61.9763E+06    -9.33257E+06    -231.943E-03     464.850E-03    -232.906E-03     125.774E-03    -234.211E-03     466.291E-03    -232.805E-03     110.979E-03
            1096     4.99299E-03     149.753E-03    -102.944E+06    -148.579E+06    -44.1806E+06    -10.0068E+06    -230.698E-03     462.954E-03    -232.255E-03     146.208E-03    -233.746E-03     465.236E-03    -232.112E-03     128.994E-03
            1097     5.71072E-03     149.946E-03    -94.9993E+06    -124.870E+06    -27.3490E+06    -10.7922E+06    -229.081E-03     460.545E-03    -231.463E-03     166.709E-03    -233.035E-03     463.796E-03    -231.281E-03     147.167E-03
            1098     6.43073E-03     150.161E-03    -86.9228E+06    -100.848E+06    -10.9955E+06    -10.6427E+06    -227.072E-03     457.595E-03    -230.522E-03     186.763E-03    -232.038E-03     461.925E-03    -230.305E-03     165.074E-03
            1099     7.15372E-03     150.394E-03    -78.6938E+06    -78.1708E+06     4.30887E+06    -10.1613E+06    -225.052E-03     454.499E-03    -229.447E-03     205.873E-03    -231.088E-03     459.965E-03    -229.198E-03     182.271E-03
            1100     7.87850E-03     150.645E-03    -70.2846E+06    -53.5100E+06     17.6878E+06    -9.23397E+06    -223.250E-03     451.522E-03    -228.272E-03     223.231E-03    -230.352E-03     458.132E-03    -228.004E-03     198.031E-03
            1101     8.60603E-03     150.911E-03    -60.9701E+06    -26.1861E+06     31.5274E+06    -6.58303E+06    -221.830E-03     448.892E-03    -227.062E-03     237.392E-03    -229.885E-03     456.545E-03    -226.778E-03     211.010E-03
            1102     9.33475E-03     151.189E-03    -51.1925E+06     7.28365E+06     46.2804E+06    -2.86719E+06    -221.145E-03     447.028E-03    -225.883E-03     247.463E-03    -229.944E-03     455.536E-03    -225.588E-03     220.308E-03
            1103     10.0644E-03     151.473E-03    -40.3106E+06     45.0893E+06     60.2691E+06     244.330E+03    -221.173E-03     445.972E-03    -224.798E-03     252.854E-03    -230.422E-03     455.063E-03    -224.504E-03     225.286E-03
            1104     10.7940E-03     151.758E-03    -30.5789E+06     66.8002E+06     74.2879E+06     3.54814E+06    -222.282E-03     446.193E-03    -223.912E-03     253.076E-03    -231.611E-03     455.436E-03    -223.593E-03     225.414E-03
            1105     11.5202E-03     152.041E-03    -24.7247E+06     84.6580E+06     88.1234E+06     4.52679E+06    -224.977E-03     448.259E-03    -223.282E-03     250.144E-03    -234.206E-03     457.445E-03    -222.928E-03     222.227E-03
            1106     12.2486E-03     152.319E-03    -19.7371E+06     75.5579E+06     96.7009E+06     2.29780E+06    -229.838E-03     452.839E-03    -223.001E-03     240.267E-03    -238.412E-03     461.332E-03    -222.599E-03     212.503E-03
            1107     12.9671E-03     152.585E-03    -14.0866E+06     75.1942E+06     105.928E+06     351.971E+03    -236.343E-03     459.455E-03    -223.112E-03     230.124E-03    -244.457E-03     467.480E-03    -222.671E-03     201.734E-03
            1108     13.6815E-03     152.855E-03    -8.34197E+06     104.717E+06     114.576E+06     1.07522E+06    -243.054E-03     466.665E-03    -223.611E-03     190.142E-03    -249.052E-03     472.675E-03    -223.178E-03     165.413E-03
            1109     712.555E-06     150.613E-03    -139.529E+06    -261.033E+06    -137.979E+06    -2.23378E+06    -233.088E-03     465.857E-03    -232.769E-03     24.1790E-03    -233.283E-03     465.030E-03    -232.878E-03     21.5751E-03
            1110     1.42520E-03     150.656E-03    -136.296E+06    -250.132E+06    -127.575E+06    -3.59769E+06    -232.531E-03     465.267E-03    -232.736E-03     44.7731E-03    -232.899E-03     464.632E-03    -232.813E-03     40.0162E-03
            1111     2.13880E-03     150.725E-03    -131.685E+06    -233.418E+06    -113.120E+06    -5.44411E+06    -231.947E-03     464.348E-03    -232.402E-03     66.4153E-03    -232.603E-03     464.036E-03    -232.438E-03     59.3752E-03
            1112     2.85339E-03     150.820E-03    -124.492E+06    -214.072E+06    -95.5656E+06    -7.65147E+06    -231.117E-03     463.054E-03    -231.936E-03     88.1106E-03    -232.169E-03     463.180E-03    -231.923E-03     78.7641E-03
            1113     3.56911E-03     150.940E-03    -116.345E+06    -192.031E+06    -77.6288E+06    -8.94645E+06    -229.983E-03     461.302E-03    -231.319E-03     109.879E-03    -231.544E-03     461.993E-03    -231.260E-03     98.2455E-03
            1114     4.28616E-03     151.084E-03    -108.661E+06    -168.251E+06    -59.5664E+06    -9.11232E+06    -228.421E-03     458.958E-03    -230.536E-03     131.822E-03    -230.623E-03     460.348E-03    -230.433E-03     117.920E-03
            1115     5.00544E-03     151.251E-03    -100.285E+06    -144.872E+06    -40.4636E+06    -8.95551E+06    -226.561E-03     456.148E-03    -229.587E-03     153.814E-03    -229.518E-03     458.351E-03    -229.434E-03     137.731E-03
            1116     5.72737E-03     151.440E-03    -91.7028E+06    -120.035E+06    -22.1239E+06    -8.92058E+06    -224.561E-03     453.039E-03    -228.478E-03     175.641E-03    -228.393E-03     456.182E-03    -228.281E-03     157.467E-03
            1117     6.45184E-03     151.649E-03    -83.1383E+06    -98.0186E+06    -5.68976E+06    -9.01900E+06    -222.703E-03     449.951E-03    -227.248E-03     196.793E-03    -227.513E-03     454.133E-03    -227.013E-03     176.599E-03
            1118     7.17830E-03     151.878E-03    -74.6988E+06    -76.1304E+06     9.01010E+06    -8.69207E+06    -221.195E-03     447.142E-03    -225.947E-03     216.752E-03    -227.043E-03     452.426E-03    -225.683E-03     194.734E-03
            1119     7.90746E-03     152.125E-03    -66.4977E+06    -51.3979E+06     22.7468E+06    -8.44061E+06    -220.185E-03     444.816E-03    -224.631E-03     234.615E-03    -227.077E-03     451.222E-03    -224.347E-03     211.000E-03
            1120     8.63766E-03     152.388E-03    -58.4256E+06    -28.6341E+06     35.1732E+06    -8.25286E+06    -220.031E-03     443.406E-03    -223.375E-03     249.379E-03    -227.878E-03     450.841E-03    -223.073E-03     224.426E-03
            1121     9.36865E-03     152.664E-03    -49.7120E+06     978.268E+03     47.9984E+06    -6.43689E+06    -220.650E-03     442.893E-03    -222.243E-03     259.655E-03    -229.255E-03     451.185E-03    -221.932E-03     233.722E-03
            1122     10.0996E-03     152.947E-03    -42.9965E+06     38.2041E+06     60.9963E+06    -2.00208E+06    -222.243E-03     443.544E-03    -221.301E-03     264.883E-03    -231.325E-03     452.432E-03    -220.989E-03     238.368E-03
            1123     10.8288E-03     153.235E-03    -38.4510E+06     61.7839E+06     70.6179E+06     1.59031E+06    -225.436E-03     446.076E-03    -220.640E-03     264.881E-03    -234.686E-03     455.205E-03    -220.321E-03     237.871E-03
            1124     11.5577E-03     153.521E-03    -31.3609E+06     84.4743E+06     82.5605E+06     3.38753E+06    -230.981E-03     451.345E-03    -220.364E-03     260.844E-03    -240.218E-03     460.533E-03    -220.028E-03     232.995E-03
            1125     12.2760E-03     153.809E-03    -23.0156E+06     82.0550E+06     94.0045E+06     1.13227E+06    -238.556E-03     459.141E-03    -220.585E-03     249.466E-03    -247.222E-03     467.746E-03    -220.200E-03     221.154E-03
            1126     12.9910E-03     154.087E-03    -15.3289E+06     75.6001E+06     103.995E+06    -939.517E+03    -247.237E-03     468.539E-03    -221.302E-03     237.612E-03    -255.515E-03     476.732E-03    -220.869E-03     208.044E-03
            1127     13.6982E-03     154.368E-03    -7.21500E+06     101.363E+06     115.358E+06    -141.821E+03    -255.784E-03     478.249E-03    -222.465E-03     197.255E-03    -261.922E-03     484.390E-03    -222.025E-03     171.272E-03
            1128     714.548E-06     152.120E-03    -136.385E+06    -253.278E+06    -133.639E+06    -2.14771E+06    -229.904E-03     459.475E-03    -229.571E-03     25.5574E-03    -230.099E-03     458.673E-03    -229.674E-03     23.1381E-03
            1129     1.42998E-03     152.161E-03    -132.460E+06    -242.693E+06    -123.512E+06    -3.86182E+06    -228.943E-03     458.383E-03    -229.440E-03     47.4362E-03    -229.299E-03     457.764E-03    -229.514E-03     43.0291E-03
            1130     2.14615E-03     152.228E-03    -125.693E+06    -225.380E+06    -108.763E+06    -5.70527E+06    -228.007E-03     456.910E-03    -228.903E-03     70.4194E-03    -228.630E-03     456.600E-03    -228.938E-03     63.9395E-03
            1131     2.86344E-03     152.320E-03    -119.244E+06    -207.186E+06    -91.9010E+06    -7.06513E+06    -226.784E-03     454.996E-03    -228.213E-03     93.5622E-03    -227.785E-03     455.103E-03    -228.199E-03     85.0030E-03
            1132     3.58227E-03     152.437E-03    -112.758E+06    -186.496E+06    -73.3618E+06    -7.81989E+06    -225.032E-03     452.370E-03    -227.338E-03     116.986E-03    -226.530E-03     453.016E-03    -227.271E-03     106.367E-03
            1133     4.30390E-03     152.576E-03    -104.051E+06    -164.407E+06    -53.7126E+06    -8.54355E+06    -222.929E-03     449.185E-03    -226.256E-03     140.640E-03    -225.034E-03     450.490E-03    -226.136E-03     127.986E-03
            1134     5.02817E-03     152.738E-03    -94.6687E+06    -141.154E+06    -34.4237E+06    -8.36509E+06    -220.870E-03     445.867E-03    -224.997E-03     164.159E-03    -223.693E-03     447.950E-03    -224.827E-03     149.550E-03
            1135     5.75490E-03     152.922E-03    -85.2182E+06    -116.998E+06    -16.2176E+06    -7.87712E+06    -219.095E-03     442.718E-03    -223.624E-03     187.059E-03    -222.747E-03     445.696E-03    -223.411E-03     170.540E-03
            1136     6.48422E-03     153.127E-03    -76.1327E+06    -96.0203E+06     94.1351E+03    -7.44642E+06    -217.823E-03     440.028E-03    -222.205E-03     209.248E-03    -222.410E-03     444.000E-03    -221.955E-03     190.843E-03
            1137     7.21561E-03     153.352E-03    -67.2367E+06    -73.0936E+06     15.3034E+06    -6.79345E+06    -217.274E-03     438.077E-03    -220.803E-03     230.182E-03    -222.878E-03     443.136E-03    -220.523E-03     209.966E-03
            1138     7.94808E-03     153.596E-03    -58.9467E+06    -49.2276E+06     29.6413E+06    -5.22433E+06    -217.747E-03     437.244E-03    -219.497E-03     248.951E-03    -224.393E-03     443.418E-03    -219.191E-03     227.052E-03
            1139     8.68150E-03     153.858E-03    -52.6906E+06    -25.7428E+06     42.5709E+06    -3.68341E+06    -219.284E-03     437.645E-03    -218.361E-03     264.132E-03    -226.906E-03     444.864E-03    -218.035E-03     240.731E-03
            1140     9.41439E-03     154.134E-03    -48.6752E+06     58.9168E+03     52.9914E+06    -2.70090E+06    -221.918E-03     439.378E-03    -217.460E-03     274.220E-03    -230.338E-03     447.472E-03    -217.125E-03     249.558E-03
            1141     10.1455E-03     154.420E-03    -43.3811E+06     30.5093E+06     64.6463E+06     1.18144E+06    -226.109E-03     442.991E-03    -216.882E-03     278.590E-03    -235.056E-03     451.707E-03    -216.541E-03     252.904E-03
            1142     10.8742E-03     154.713E-03    -35.4690E+06     62.6770E+06     76.8901E+06     3.98199E+06    -232.364E-03     449.083E-03    -216.720E-03     277.044E-03    -241.537E-03     458.133E-03    -216.375E-03     250.312E-03
            1143     11.5939E-03     155.009E-03    -27.9220E+06     84.9008E+06     86.5502E+06     2.22787E+06    -240.775E-03     457.834E-03    -217.059E-03     272.310E-03    -250.007E-03     467.021E-03    -216.709E-03     244.143E-03
            1144     12.3104E-03     155.313E-03    -20.1785E+06     88.8480E+06     98.5314E+06    -317.582E+03    -250.645E-03     468.627E-03    -217.982E-03     260.268E-03    -259.424E-03     477.368E-03    -217.589E-03     231.061E-03
            1145     13.0156E-03     155.602E-03    -11.6575E+06     78.4221E+06     104.034E+06    -3.01516E+06    -261.735E-03     481.182E-03    -219.447E-03     247.303E-03    -270.220E-03     489.607E-03    -219.024E-03     216.099E-03
            1146     13.7111E-03     155.905E-03    -5.44714E+06     93.4137E+06     112.347E+06    -1.47914E+06    -270.743E-03     492.135E-03    -221.392E-03     204.241E-03    -277.038E-03     498.420E-03    -220.958E-03     176.697E-03
            1147     718.565E-06     153.614E-03    -131.163E+06    -245.792E+06    -128.354E+06    -1.63038E+06    -224.054E-03     448.075E-03    -224.021E-03     27.2851E-03    -224.237E-03     447.288E-03    -224.116E-03     25.1559E-03
            1148     1.43766E-03     153.653E-03    -125.605E+06    -233.166E+06    -116.616E+06    -4.41798E+06    -223.053E-03     446.728E-03    -223.675E-03     50.9134E-03    -223.384E-03     446.120E-03    -223.738E-03     47.0100E-03
            1149     2.15823E-03     153.717E-03    -119.611E+06    -218.572E+06    -102.952E+06    -6.01590E+06    -221.663E-03     444.641E-03    -222.978E-03     75.8024E-03    -222.242E-03     444.313E-03    -223.002E-03     70.0887E-03
            1150     2.88054E-03     153.806E-03    -113.509E+06    -201.153E+06    -85.8008E+06    -6.81778E+06    -219.771E-03     441.806E-03    -222.035E-03     100.991E-03    -220.708E-03     441.869E-03    -222.008E-03     93.4709E-03
            1151     3.60552E-03     153.917E-03    -105.142E+06    -180.434E+06    -65.8545E+06    -7.52822E+06    -217.686E-03     438.554E-03    -220.868E-03     126.401E-03    -219.082E-03     439.122E-03    -220.784E-03     117.083E-03
            1152     4.33281E-03     154.052E-03    -96.3304E+06    -159.905E+06    -46.5345E+06    -7.96554E+06    -215.704E-03     435.236E-03    -219.531E-03     151.715E-03    -217.661E-03     436.413E-03    -219.393E-03     140.630E-03
            1153     5.06283E-03     154.208E-03    -87.5031E+06    -138.065E+06    -28.8745E+06    -8.17178E+06    -214.023E-03     432.106E-03    -218.084E-03     176.777E-03    -216.656E-03     434.018E-03    -217.901E-03     163.920E-03
            1154     5.79546E-03     154.388E-03    -78.8912E+06    -116.016E+06    -12.0712E+06    -7.22020E+06    -212.979E-03     429.581E-03    -216.602E-03     201.255E-03    -216.404E-03     432.344E-03    -216.380E-03     186.622E-03
            1155     6.52976E-03     154.589E-03    -70.5928E+06    -93.8421E+06     4.45839E+06    -5.74758E+06    -212.851E-03     428.020E-03    -215.169E-03     224.768E-03    -217.182E-03     431.750E-03    -214.908E-03     208.334E-03
            1156     7.26583E-03     154.812E-03    -63.8209E+06    -71.5879E+06     19.5415E+06    -3.96127E+06    -213.953E-03     427.819E-03    -213.866E-03     246.574E-03    -219.297E-03     432.623E-03    -213.572E-03     228.275E-03
            1157     8.00248E-03     155.056E-03    -58.5929E+06    -51.3080E+06     32.4947E+06    -1.61868E+06    -216.467E-03     429.248E-03    -212.781E-03     265.660E-03    -222.870E-03     435.164E-03    -212.459E-03     245.494E-03
            1158     8.73782E-03     155.320E-03    -52.9258E+06    -25.6094E+06     45.8727E+06     1.64866E+06    -220.371E-03     432.362E-03    -211.992E-03     280.488E-03    -227.776E-03     439.355E-03    -211.648E-03     258.565E-03
            1159     9.47118E-03     155.600E-03    -46.6213E+06     2.16323E+06     58.6372E+06     4.03839E+06    -226.071E-03     437.656E-03    -211.585E-03     289.652E-03    -234.310E-03     445.570E-03    -211.228E-03     266.057E-03
            1160     10.2005E-03     155.894E-03    -40.0751E+06     29.6447E+06     70.5668E+06     3.82266E+06    -233.811E-03     445.471E-03    -211.660E-03     292.662E-03    -242.640E-03     454.062E-03    -211.292E-03     267.398E-03
            1161     10.9219E-03     156.197E-03    -33.0313E+06     63.8681E+06     83.5738E+06     3.66989E+06    -243.162E-03     455.444E-03    -212.282E-03     290.098E-03    -252.306E-03     464.460E-03    -211.909E-03     263.168E-03
            1162     11.6388E-03     156.509E-03    -25.8882E+06      90.277E+06     92.9981E+06     2.25425E+06    -254.088E-03     467.563E-03    -213.474E-03     283.987E-03    -263.366E-03     476.805E-03    -213.103E-03     255.084E-03
            1163     12.3439E-03     156.826E-03    -18.8082E+06     94.3539E+06     100.844E+06    -1.03462E+06    -266.249E-03     481.532E-03    -215.283E-03     269.712E-03    -275.115E-03     490.381E-03    -214.888E-03     239.239E-03
            1164     13.0398E-03     157.141E-03    -13.9219E+06     80.0174E+06     101.898E+06    -3.45718E+06    -278.443E-03     496.096E-03    -217.653E-03     254.833E-03    -287.111E-03     504.708E-03    -217.239E-03     221.787E-03
            1165     13.7260E-03     157.460E-03    -9.24319E+06     89.3785E+06     108.669E+06    -3.11976E+06    -287.026E-03     507.487E-03    -220.461E-03     209.115E-03    -293.454E-03     513.889E-03    -220.034E-03     179.963E-03
            1166     724.792E-06     155.087E-03    -122.466E+06    -236.039E+06    -121.598E+06    -3.30487E+06    -215.061E-03     430.263E-03    -215.202E-03     30.0222E-03    -215.221E-03     429.493E-03    -215.290E-03     28.2333E-03
            1167     1.45054E-03     155.124E-03    -118.030E+06    -224.553E+06    -111.012E+06    -5.11574E+06    -214.083E-03     428.797E-03    -214.713E-03     55.8487E-03    -214.380E-03     428.189E-03    -214.771E-03     52.5824E-03
            1168     2.17745E-03     155.184E-03    -113.854E+06    -211.831E+06    -97.2022E+06    -6.22190E+06    -212.333E-03     426.246E-03    -213.913E-03     82.8118E-03    -212.861E-03     425.889E-03    -213.926E-03     78.0377E-03
            1169     2.90713E-03     155.268E-03    -107.121E+06    -194.277E+06    -80.1147E+06    -7.35459E+06    -210.219E-03     423.022E-03    -212.803E-03     110.000E-03    -211.066E-03     423.022E-03    -212.767E-03     103.724E-03
            1170     3.63927E-03     155.375E-03    -99.6122E+06    -176.432E+06    -62.4404E+06    -8.02211E+06    -208.281E-03     419.763E-03    -211.482E-03     137.281E-03    -209.537E-03     420.210E-03    -211.394E-03     129.512E-03
            1171     4.37405E-03     155.504E-03    -92.0722E+06    -156.433E+06    -44.7525E+06    -7.34662E+06    -206.829E-03     416.884E-03    -210.054E-03     164.636E-03    -208.600E-03     417.892E-03    -209.918E-03     155.369E-03
            1172     5.11099E-03     155.657E-03    -85.0413E+06    -135.095E+06    -27.5151E+06    -6.51025E+06    -206.149E-03     414.760E-03    -208.611E-03     191.776E-03    -208.558E-03     416.459E-03    -208.429E-03     180.915E-03
            1173     5.84994E-03     155.833E-03    -78.5940E+06    -115.080E+06    -10.8149E+06    -4.89603E+06    -206.555E-03     413.800E-03    -207.245E-03     217.960E-03    -209.731E-03     416.313E-03    -207.018E-03     205.396E-03
            1174     6.59059E-03     156.034E-03    -73.3955E+06    -93.7623E+06     4.79088E+06    -2.04230E+06    -208.434E-03     414.482E-03    -206.048E-03     242.541E-03    -212.506E-03     417.941E-03    -205.781E-03     228.156E-03
            1175     7.33070E-03     156.258E-03    -68.7049E+06    -72.8411E+06     19.2301E+06     772.555E+03    -212.032E-03     417.151E-03    -205.119E-03     265.059E-03    -217.124E-03     421.681E-03    -204.817E-03     248.667E-03
            1176     8.06918E-03     156.506E-03    -63.3355E+06    -52.2841E+06     32.5436E+06     2.74661E+06    -217.431E-03     421.979E-03    -204.548E-03     284.101E-03    -223.610E-03     427.653E-03    -204.218E-03     265.534E-03
            1177     8.80547E-03     156.776E-03    -57.3491E+06    -26.0210E+06     45.0576E+06     4.01100E+06    -224.775E-03     429.195E-03    -204.420E-03     297.863E-03    -232.001E-03     435.997E-03    -204.074E-03     277.060E-03
            1178     9.53678E-03     157.066E-03    -50.5735E+06     2.51775E+06     57.4681E+06     4.79777E+06    -234.182E-03     439.015E-03    -204.833E-03     305.560E-03    -242.298E-03     446.799E-03    -204.476E-03     282.523E-03
            1179     10.2604E-03     157.373E-03    -43.2097E+06     36.0675E+06     72.1723E+06     3.80713E+06    -245.312E-03     451.172E-03    -205.860E-03     306.997E-03    -254.101E-03     459.734E-03    -205.489E-03     281.669E-03
            1180     10.9771E-03     157.694E-03    -35.4589E+06     65.8220E+06     83.7285E+06     1.54975E+06    -257.740E-03     465.258E-03    -207.518E-03     302.091E-03    -266.918E-03     474.310E-03    -207.143E-03     274.374E-03
            1181     11.6816E-03     158.021E-03    -27.1853E+06     93.4463E+06     91.6656E+06     584.999E+03    -271.390E-03     481.186E-03    -209.796E-03     293.299E-03    -280.727E-03     490.502E-03    -209.434E-03     263.041E-03
            1182     12.3767E-03     158.365E-03    -19.2516E+06     100.692E+06     100.569E+06    -1.77986E+06    -284.785E-03     497.487E-03    -212.702E-03     277.050E-03    -293.768E-03     506.476E-03    -212.317E-03     244.762E-03
            1183     13.0596E-03     158.697E-03    -11.0051E+06     79.3151E+06     99.6254E+06    -1.85701E+06    -296.079E-03     512.153E-03    -216.075E-03     260.235E-03    -304.882E-03     520.917E-03    -215.676E-03     225.130E-03
            1184     13.7331E-03     159.041E-03    -4.29603E+06     87.1054E+06     104.213E+06    -1.85667E+06    -302.177E-03     521.890E-03    -219.713E-03     213.104E-03    -308.661E-03     528.370E-03    -219.312E-03     182.439E-03
            1185     734.204E-06     156.528E-03    -116.720E+06    -224.051E+06    -115.663E+06    -3.64373E+06    -202.653E-03     405.129E-03    -202.475E-03     33.0301E-03    -202.804E-03     404.388E-03    -202.560E-03     31.6621E-03
            1186     1.46877E-03     156.564E-03    -115.338E+06    -217.442E+06    -108.736E+06    -4.76033E+06    -201.438E-03     403.535E-03    -202.097E-03     61.1353E-03    -201.708E-03     402.922E-03    -202.159E-03     58.6387E-03
            1187     2.20548E-03     156.620E-03    -112.024E+06    -204.630E+06    -97.0084E+06    -5.95386E+06    -199.890E-03     401.151E-03    -201.261E-03     90.5698E-03    -200.360E-03     400.761E-03    -201.287E-03     86.8964E-03
            1188     2.94398E-03     156.700E-03    -107.204E+06    -188.055E+06    -82.3794E+06    -6.94366E+06    -198.291E-03     398.475E-03    -200.185E-03     120.344E-03    -199.039E-03     398.398E-03    -200.168E-03     115.493E-03
            1189     3.68490E-03     156.802E-03    -102.050E+06    -172.788E+06    -65.6492E+06    -6.75415E+06    -197.065E-03     396.037E-03    -198.972E-03     150.207E-03    -198.178E-03     396.349E-03    -198.902E-03     144.151E-03
            1190     4.42824E-03     156.928E-03    -96.4883E+06    -154.340E+06    -48.1952E+06    -5.71989E+06    -196.797E-03     394.522E-03    -197.725E-03     179.865E-03    -198.383E-03     395.345E-03    -197.602E-03     172.497E-03
            1191     5.17360E-03     157.079E-03    -91.0324E+06    -135.062E+06    -30.5357E+06    -3.01752E+06    -197.944E-03     394.521E-03    -196.576E-03     208.589E-03    -200.121E-03     395.972E-03    -196.401E-03     199.792E-03
            1192     5.91951E-03     157.256E-03    -86.4793E+06    -116.268E+06    -13.8655E+06     119.881E+03    -200.805E-03     396.446E-03    -195.642E-03     235.956E-03    -203.716E-03     398.671E-03    -195.417E-03     225.498E-03
            1193     6.66435E-03     157.459E-03    -81.6027E+06    -95.1582E+06     1.59375E+06     2.81542E+06    -205.575E-03     400.595E-03    -195.020E-03     261.307E-03    -209.378E-03     403.762E-03    -194.756E-03     248.888E-03
            1194     7.40783E-03     157.689E-03    -75.4816E+06    -73.2680E+06     16.0106E+06     4.83875E+06    -212.482E-03     407.289E-03    -194.807E-03     283.825E-03    -217.311E-03     411.544E-03    -194.512E-03     269.141E-03
            1195     8.14815E-03     157.946E-03    -68.5937E+06    -50.0658E+06     29.7108E+06     5.01403E+06    -221.709E-03     416.812E-03    -195.103E-03     302.078E-03    -227.653E-03     422.252E-03    -194.782E-03     284.813E-03
            1196     8.88179E-03     158.230E-03    -60.8583E+06    -24.0716E+06     43.0326E+06     4.24397E+06    -233.154E-03     429.153E-03    -195.999E-03     314.669E-03    -240.217E-03     435.797E-03    -195.661E-03     294.557E-03
            1197     9.60745E-03     158.535E-03    -52.0253E+06     5.27642E+06     56.3977E+06     3.76758E+06    -246.368E-03     443.927E-03    -197.559E-03     320.752E-03    -254.414E-03     451.653E-03    -197.209E-03     297.701E-03
            1198     10.3247E-03     158.862E-03    -42.8277E+06     43.1312E+06     71.6502E+06     2.23634E+06    -260.836E-03     460.646E-03    -199.810E-03     319.780E-03    -269.629E-03     469.245E-03    -199.452E-03     293.747E-03
            1199     11.0294E-03     159.203E-03    -33.4842E+06     69.9283E+06     80.7336E+06    -817.704E+03    -276.281E-03     479.016E-03    -202.736E-03     312.436E-03    -285.504E-03     488.148E-03    -202.385E-03     283.335E-03
            1200     11.7231E-03     159.558E-03    -24.4131E+06     91.9820E+06     88.3155E+06    -2.08533E+06    -291.579E-03     497.872E-03    -206.293E-03     301.499E-03    -300.980E-03     507.270E-03    -205.950E-03     269.384E-03
            1201     12.4043E-03     159.922E-03    -15.9615E+06     107.980E+06     103.125E+06    -2.21584E+06    -304.218E-03     514.606E-03    -210.388E-03     283.562E-03    -313.305E-03     523.730E-03    -210.005E-03     249.274E-03
            1202     13.0757E-03     160.282E-03    -8.85113E+06     77.3322E+06     96.5512E+06    -4.97109E+06    -312.972E-03     527.701E-03    -214.729E-03     265.715E-03    -321.883E-03     536.582E-03    -214.345E-03     228.605E-03
            1203     13.7412E-03     160.636E-03    -2.96472E+06     78.4141E+06     96.8046E+06    -1.72444E+06    -315.525E-03     534.633E-03    -219.108E-03     217.379E-03    -322.049E-03     541.148E-03    -218.733E-03     185.465E-03
            1204     745.830E-06     157.930E-03    -120.740E+06    -214.187E+06    -123.132E+06    -2.47908E+06    -186.531E-03     372.465E-03    -185.934E-03     36.2056E-03    -186.698E-03     371.773E-03    -186.064E-03     35.2696E-03
            1205     1.49316E-03     157.962E-03    -122.097E+06    -209.829E+06    -114.301E+06    -4.13590E+06    -185.288E-03     371.075E-03    -185.788E-03     66.9046E-03    -185.561E-03     370.475E-03    -185.878E-03     65.2050E-03
            1206     2.24145E-03     158.017E-03    -118.145E+06    -198.677E+06    -103.288E+06    -5.10975E+06    -184.489E-03     369.561E-03    -185.072E-03     99.3083E-03    -184.916E-03     369.137E-03    -185.129E-03     96.7721E-03
            1207     2.99157E-03     158.093E-03    -114.670E+06    -184.822E+06    -88.7397E+06    -4.11840E+06    -184.117E-03     368.385E-03    -184.268E-03     131.796E-03    -184.774E-03     368.213E-03    -184.277E-03     128.400E-03
            1208     3.74350E-03     158.193E-03    -110.659E+06    -169.915E+06    -70.9762E+06    -2.92082E+06    -184.691E-03     368.165E-03    -183.474E-03     164.030E-03    -185.663E-03     368.329E-03    -183.422E-03     159.665E-03
            1209     4.49641E-03     158.319E-03    -106.519E+06    -154.207E+06    -53.2869E+06    -1.21701E+06    -186.774E-03     369.568E-03    -182.794E-03     195.557E-03    -188.166E-03     370.175E-03    -182.683E-03     190.050E-03
            1210     5.24896E-03     158.472E-03    -102.124E+06    -138.021E+06    -36.4433E+06     1.91056E+06    -190.720E-03     373.067E-03    -182.348E-03     225.555E-03    -192.654E-03     374.245E-03    -182.182E-03     218.694E-03
            1211     6.00057E-03     158.654E-03    -96.0876E+06    -117.704E+06    -19.7398E+06     4.48386E+06    -196.800E-03     379.041E-03    -182.241E-03     253.708E-03    -199.428E-03     380.962E-03    -182.030E-03     245.164E-03
            1212     6.74993E-03     158.866E-03    -88.4114E+06    -95.6594E+06    -3.80901E+06     5.33962E+06    -205.316E-03     387.898E-03    -182.582E-03     279.317E-03    -208.821E-03     390.760E-03    -182.334E-03     268.616E-03
            1213     7.49438E-03     159.107E-03    -79.9963E+06    -72.1878E+06     11.1463E+06     5.52482E+06    -216.428E-03     399.901E-03    -183.473E-03     301.367E-03    -220.977E-03     403.882E-03    -183.196E-03     288.047E-03
            1214     8.23168E-03     159.380E-03    -71.1339E+06    -44.9425E+06     26.1211E+06     4.54910E+06    -229.880E-03     414.883E-03    -185.003E-03     318.558E-03    -235.603E-03     420.128E-03    -184.704E-03     302.149E-03
            1215     8.96123E-03     159.682E-03    -61.7903E+06    -19.6606E+06     39.5574E+06     2.29351E+06    -245.255E-03     432.486E-03    -187.232E-03     329.756E-03    -252.189E-03     439.030E-03    -186.916E-03     309.825E-03
            1216     9.68036E-03     160.013E-03    -52.7465E+06     9.28335E+06     52.2005E+06     390.131E+03    -262.159E-03     452.345E-03    -190.186E-03     334.117E-03    -270.179E-03     460.075E-03    -189.862E-03     310.495E-03
            1217     10.3862E-03     160.363E-03    -43.4400E+06     50.1560E+06     67.3327E+06    -2.55996E+06    -279.977E-03     473.847E-03    -193.871E-03     331.332E-03    -288.831E-03     482.548E-03    -193.544E-03     303.982E-03
            1218     11.0801E-03     160.735E-03    -33.6979E+06     74.0155E+06     75.8432E+06    -6.46837E+06    -297.339E-03     495.562E-03    -198.223E-03     321.763E-03    -306.627E-03     504.790E-03    -197.902E-03     290.874E-03
            1219     11.7599E-03     161.116E-03    -24.2120E+06     90.7682E+06     83.4370E+06    -7.39704E+06    -312.354E-03     515.462E-03    -203.108E-03     308.566E-03    -321.798E-03     524.914E-03    -202.788E-03     274.477E-03
            1220     12.4290E-03     161.509E-03    -16.0556E+06     105.942E+06     98.1120E+06    -6.07407E+06    -322.628E-03     530.957E-03    -208.329E-03     288.969E-03    -331.745E-03     540.118E-03    -207.969E-03     252.836E-03
            1221     13.0907E-03     161.882E-03    -11.6178E+06     76.4122E+06     91.3702E+06    -2.64108E+06    -327.891E-03     541.445E-03    -213.554E-03     269.536E-03    -336.820E-03     550.345E-03    -213.191E-03     230.977E-03
            1222     13.7468E-03     162.254E-03    -8.73329E+06     73.4426E+06     92.0626E+06    -3.05624E+06    -327.020E-03     545.617E-03    -218.597E-03     219.882E-03    -333.567E-03     552.130E-03    -218.231E-03     186.925E-03
            1223     761.388E-06     159.280E-03    -134.453E+06    -207.148E+06    -133.323E+06    -1.89208E+06    -166.720E-03     332.617E-03    -165.897E-03     39.8434E-03    -166.943E-03     331.976E-03    -166.068E-03     39.2962E-03
            1224     1.52305E-03     159.312E-03    -133.759E+06    -203.823E+06    -126.437E+06    -2.79382E+06    -166.492E-03     332.553E-03    -166.061E-03     73.3652E-03    -166.781E-03     331.975E-03    -166.204E-03     72.3657E-03
            1225     2.28590E-03     159.365E-03    -131.988E+06    -196.838E+06    -113.458E+06    -1.77620E+06    -167.153E-03     332.998E-03    -165.846E-03     108.373E-03    -167.557E-03     332.534E-03    -165.936E-03     106.868E-03
            1226     3.04916E-03     159.442E-03    -128.691E+06    -184.809E+06    -97.2923E+06     32.5850E+03    -169.012E-03     334.708E-03    -165.697E-03     143.082E-03    -169.593E-03     334.434E-03    -165.729E-03     140.978E-03
            1227     3.81191E-03     159.544E-03    -124.563E+06    -170.140E+06    -79.8748E+06     2.21448E+06    -172.514E-03     338.249E-03    -165.736E-03     177.135E-03    -173.350E-03     338.252E-03    -165.708E-03     174.268E-03
            1228     4.57361E-03     159.675E-03    -119.933E+06    -156.035E+06    -61.9405E+06     4.39706E+06    -177.890E-03     343.947E-03    -166.057E-03     209.982E-03    -179.083E-03     344.327E-03    -165.967E-03     206.119E-03
            1229     5.33359E-03     159.835E-03    -113.230E+06    -138.016E+06    -44.4178E+06     4.85133E+06    -185.492E-03     352.228E-03    -166.736E-03     240.945E-03    -187.180E-03     353.147E-03    -166.594E-03     235.721E-03
            1230     6.08968E-03     160.028E-03    -104.157E+06    -115.792E+06    -27.5204E+06     3.89771E+06    -195.624E-03     363.493E-03    -167.869E-03     269.267E-03    -197.970E-03     365.138E-03    -167.687E-03     262.241E-03
            1231     6.84025E-03     160.254E-03    -93.7240E+06    -93.8990E+06    -11.7521E+06     2.46098E+06    -208.456E-03     378.016E-03    -169.560E-03     294.424E-03    -211.654E-03     380.588E-03    -169.346E-03     285.047E-03
            1232     7.58342E-03     160.516E-03    -82.4291E+06    -70.1381E+06     3.78037E+06     1.00324E+06    -223.845E-03     395.740E-03    -171.894E-03     315.676E-03    -228.110E-03     399.462E-03    -171.654E-03     303.303E-03
            1233     8.31761E-03     160.811E-03    -70.6606E+06    -41.1414E+06     19.6477E+06     425.316E+03    -241.296E-03     416.223E-03    -174.927E-03     331.911E-03    -246.788E-03     421.277E-03    -174.667E-03     315.961E-03
            1234     9.03962E-03     161.141E-03    -60.2856E+06    -14.8087E+06     33.6063E+06    -746.661E+03    -260.502E-03     439.195E-03    -178.693E-03     342.033E-03    -267.284E-03     445.632E-03    -178.416E-03     321.950E-03
            1235     9.74876E-03     161.498E-03    -50.3682E+06     17.0496E+06     48.2397E+06    -3.86431E+06    -280.833E-03     464.041E-03    -183.208E-03     344.782E-03    -288.808E-03     471.779E-03    -182.918E-03     320.214E-03
            1236     10.4447E-03     161.884E-03    -40.1228E+06     59.1757E+06     64.2203E+06    -7.45921E+06    -300.808E-03     489.233E-03    -188.425E-03     339.901E-03    -309.654E-03     497.981E-03    -188.131E-03     311.041E-03
            1237     11.1242E-03     162.286E-03    -30.8381E+06     79.4687E+06     73.2028E+06    -9.89078E+06    -318.515E-03     512.729E-03    -194.214E-03     328.380E-03    -327.765E-03     521.958E-03    -193.919E-03     295.809E-03
            1238     11.7918E-03     162.699E-03    -24.1750E+06     90.3049E+06     80.5900E+06    -11.3178E+06    -331.802E-03     532.160E-03    -200.357E-03     313.274E-03    -341.212E-03     541.585E-03    -200.050E-03     277.394E-03
            1239     12.4505E-03     163.112E-03    -18.9257E+06     96.0235E+06     92.1475E+06    -8.30761E+06    -339.129E-03     545.729E-03    -206.600E-03     291.337E-03    -348.201E-03     554.818E-03    -206.251E-03     253.557E-03
            1240     13.1025E-03     163.505E-03    -11.5444E+06     69.9425E+06     89.9084E+06    -6.72539E+06    -340.563E-03     553.182E-03    -212.620E-03     269.340E-03    -349.378E-03     561.949E-03    -212.255E-03     229.523E-03
            1241     13.7531E-03     163.883E-03    -1.81726E+06     70.1578E+06     96.0832E+06    -2.98230E+06    -335.700E-03     553.919E-03    -218.218E-03     219.456E-03    -342.149E-03     560.333E-03    -217.837E-03     185.721E-03
            1242     779.485E-06     160.574E-03    -154.256E+06    -206.267E+06    -150.222E+06     2.30787E+06    -144.741E-03     288.212E-03    -143.471E-03     43.1916E-03    -145.029E-03     287.614E-03    -143.700E-03     43.0034E-03
            1243     1.55821E-03     160.607E-03    -155.403E+06    -204.014E+06    -142.296E+06     3.56923E+06    -146.434E-03     290.682E-03    -144.248E-03     78.7952E-03    -146.770E-03     290.118E-03    -144.439E-03     78.4053E-03
            1244     2.33582E-03     160.663E-03    -154.121E+06    -198.047E+06    -129.266E+06     4.54324E+06    -149.628E-03     294.564E-03    -144.937E-03     115.836E-03    -150.042E-03     294.073E-03    -145.072E-03     115.155E-03
            1245     3.11195E-03     160.744E-03    -150.817E+06    -184.856E+06    -113.324E+06     4.60862E+06    -154.592E-03     300.457E-03    -145.865E-03     152.418E-03    -155.137E-03     300.116E-03    -145.945E-03     151.304E-03
            1246     3.88576E-03     160.855E-03    -144.691E+06    -171.646E+06    -95.0889E+06     4.37688E+06    -161.722E-03     308.861E-03    -147.140E-03     187.811E-03    -162.459E-03     308.736E-03    -147.157E-03     186.062E-03
            1247     4.65580E-03     160.996E-03    -134.230E+06    -154.627E+06    -75.1903E+06     3.01438E+06    -171.123E-03     319.950E-03    -148.827E-03     221.330E-03    -172.147E-03     320.159E-03    -148.784E-03     218.640E-03
            1248     5.42058E-03     161.171E-03    -121.157E+06    -133.576E+06    -55.8666E+06     129.131E+03    -183.006E-03     333.986E-03    -150.980E-03     252.477E-03    -184.456E-03     334.694E-03    -150.890E-03     248.430E-03
            1249     6.17897E-03     161.381E-03    -107.748E+06    -111.980E+06    -38.1105E+06    -2.60895E+06    -197.608E-03     351.286E-03    -153.679E-03     280.559E-03    -199.669E-03     352.685E-03    -153.550E-03     274.630E-03
            1250     6.92874E-03     161.629E-03    -94.6071E+06    -89.9686E+06    -21.1856E+06    -4.71666E+06    -214.807E-03     371.809E-03    -157.002E-03     305.121E-03    -217.696E-03     374.117E-03    -156.840E-03     296.683E-03
            1251     7.66839E-03     161.916E-03    -82.3593E+06    -67.1153E+06    -5.20728E+06    -6.58346E+06    -234.078E-03     395.070E-03    -160.992E-03     325.246E-03    -238.027E-03     398.521E-03    -160.801E-03     313.549E-03
            1252     8.39568E-03     162.241E-03    -70.8945E+06    -39.1955E+06     10.7051E+06    -8.14992E+06    -255.130E-03     420.803E-03    -165.673E-03     340.014E-03    -260.323E-03     425.596E-03    -165.460E-03     324.330E-03
            1253     9.11069E-03     162.602E-03    -57.9899E+06    -13.0364E+06     26.7973E+06    -9.97133E+06    -277.692E-03     448.769E-03    -171.077E-03     348.600E-03    -284.194E-03     454.965E-03    -170.840E-03     328.256E-03
            1254     9.80982E-03     162.999E-03    -45.6900E+06     20.9695E+06      44.673E+06    -10.4285E+06    -300.263E-03     477.448E-03    -177.185E-03     349.995E-03    -308.010E-03     485.003E-03    -176.926E-03     324.596E-03
            1255     10.4915E-03     163.420E-03    -37.0331E+06     67.8437E+06     62.7814E+06    -10.1903E+06    -320.762E-03     504.637E-03    -183.875E-03     344.183E-03    -329.446E-03     513.272E-03    -183.606E-03     314.092E-03
            1256     11.1610E-03     163.859E-03    -31.2363E+06     85.3727E+06     71.8781E+06    -12.5112E+06    -337.216E-03     528.172E-03    -190.955E-03     331.758E-03    -346.357E-03     537.315E-03    -190.674E-03     297.724E-03
            1257     11.8180E-03     164.301E-03    -25.0601E+06     84.1690E+06     79.2011E+06    -11.3335E+06    -348.411E-03     546.593E-03    -198.183E-03     315.024E-03    -357.667E-03     555.844E-03    -197.872E-03     277.831E-03
            1258     12.4660E-03     164.736E-03    -17.8646E+06     88.0563E+06     93.0737E+06    -8.31798E+06    -352.893E-03     558.181E-03    -205.288E-03     291.968E-03    -361.842E-03     567.118E-03    -204.925E-03     252.909E-03
            1259     13.1099E-03     165.142E-03    -11.6812E+06     73.9634E+06     97.9167E+06    -8.82023E+06    -350.526E-03     562.486E-03    -211.960E-03     268.482E-03    -359.275E-03     571.176E-03    -211.561E-03     227.552E-03
            1260     13.7541E-03     165.521E-03    -9.32045E+06     60.9564E+06     99.6979E+06    -8.36899E+06    -341.691E-03     559.670E-03    -217.979E-03     218.037E-03    -348.088E-03     565.961E-03    -217.555E-03     183.705E-03
            1261     797.573E-06     161.808E-03    -204.374E+06    -215.107E+06    -198.616E+06     4.95586E+06    -123.925E-03     245.491E-03    -121.565E-03     44.2469E-03    -124.367E-03     244.988E-03    -121.950E-03     44.2492E-03
            1262     1.59320E-03     161.848E-03    -196.543E+06    -207.578E+06    -180.950E+06     5.49113E+06    -127.093E-03     250.321E-03    -123.228E-03     80.8031E-03    -127.543E-03     249.832E-03    -123.547E-03     80.7341E-03
            1263     2.38563E-03     161.911E-03    -186.378E+06    -198.763E+06    -159.859E+06     4.24476E+06    -133.359E-03     258.197E-03    -124.837E-03     119.404E-03    -133.831E-03     257.742E-03    -125.078E-03     119.159E-03
            1264     3.17399E-03     162.003E-03    -173.391E+06    -182.035E+06    -136.107E+06     1.78788E+06    -142.052E-03     269.044E-03    -126.992E-03     157.244E-03    -142.586E-03     268.697E-03    -127.158E-03     156.668E-03
            1265     3.95680E-03     162.128E-03    -157.859E+06    -167.286E+06    -112.857E+06    -2.89830E+06    -153.161E-03     282.838E-03    -129.676E-03     193.255E-03    -153.812E-03     282.654E-03    -129.769E-03     192.103E-03
            1266     4.73298E-03     162.286E-03    -141.754E+06    -148.414E+06    -91.2700E+06    -7.67452E+06    -166.825E-03     299.713E-03    -132.887E-03     226.994E-03    -167.695E-03     299.818E-03    -132.923E-03     224.966E-03
            1267     5.50124E-03     162.482E-03    -126.318E+06    -126.578E+06    -70.5919E+06    -12.0021E+06    -183.132E-03     319.799E-03    -136.667E-03     257.976E-03    -184.374E-03     320.355E-03    -136.653E-03     254.648E-03
            1268     6.25971E-03     162.717E-03    -111.443E+06    -107.702E+06    -51.3262E+06    -15.4509E+06    -202.044E-03     343.107E-03    -141.063E-03     285.461E-03    -203.840E-03     344.288E-03    -141.002E-03     280.268E-03
            1269     7.00704E-03     162.993E-03    -96.9676E+06    -87.1417E+06    -32.5968E+06    -17.4942E+06    -223.118E-03     369.222E-03    -146.104E-03     308.679E-03    -225.685E-03     371.248E-03    -146.000E-03     300.935E-03
            1270     7.74135E-03     163.312E-03    -81.9190E+06    -65.1521E+06    -14.3436E+06    -19.5989E+06    -245.976E-03     397.778E-03    -151.801E-03     327.027E-03    -249.525E-03     400.868E-03    -151.660E-03     315.932E-03
            1271     8.46228E-03     163.671E-03    -65.9499E+06    -38.7105E+06     4.70733E+06    -20.7447E+06    -270.345E-03     428.518E-03    -158.172E-03     339.789E-03    -275.067E-03     432.880E-03    -157.997E-03     324.453E-03
            1272     9.16589E-03     164.072E-03    -53.0837E+06    -13.2388E+06     21.8941E+06    -20.0139E+06    -294.844E-03     460.042E-03    -165.198E-03     346.339E-03    -300.833E-03     465.758E-03    -164.993E-03     326.056E-03
            1273     9.85347E-03     164.508E-03    -43.2936E+06     14.9648E+06     38.7199E+06    -17.1348E+06    -317.628E-03     490.411E-03    -172.783E-03     346.378E-03    -324.818E-03     497.413E-03    -172.548E-03     320.854E-03
            1274     10.5276E-03     164.971E-03    -34.6380E+06     64.3605E+06     59.7629E+06    -11.6123E+06    -336.810E-03     517.558E-03    -180.748E-03     339.460E-03    -344.984E-03     525.686E-03    -180.492E-03     308.962E-03
            1275     11.1861E-03     165.445E-03    -28.4401E+06     91.0238E+06     74.4678E+06    -8.09429E+06    -350.900E-03     539.778E-03    -188.877E-03     326.110E-03    -359.645E-03     548.547E-03    -188.596E-03     291.400E-03
            1276     11.8349E-03     165.916E-03    -22.9292E+06     83.8207E+06     83.4569E+06    -9.08310E+06    -359.142E-03     556.066E-03    -196.924E-03     308.925E-03    -368.033E-03     564.944E-03    -196.595E-03     271.105E-03
            1277     12.4771E-03     166.375E-03    -16.3610E+06     86.7303E+06     101.714E+06    -11.4361E+06    -360.090E-03     564.711E-03    -204.620E-03     285.966E-03    -368.713E-03     573.295E-03    -204.214E-03     246.520E-03
            1278     13.1171E-03     166.789E-03    -10.3590E+06     71.4228E+06     107.566E+06    -9.27933E+06    -354.859E-03     566.516E-03    -211.657E-03     262.882E-03    -363.319E-03     574.883E-03    -211.207E-03     221.882E-03
            1279     13.7584E-03     167.173E-03    -1.53983E+06     50.1924E+06     110.945E+06    -4.86397E+06    -343.608E-03     561.490E-03    -217.882E-03     213.087E-03    -349.791E-03     567.523E-03    -217.398E-03     178.780E-03
            1280     811.221E-06     162.996E-03    -283.985E+06    -214.822E+06    -280.609E+06    -5.78752E+06    -107.829E-03     212.307E-03    -104.478E-03     42.1328E-03    -108.539E-03     212.047E-03    -105.158E-03     42.0375E-03
            1281     1.62079E-03     163.040E-03    -266.213E+06    -201.839E+06    -255.593E+06    -10.5540E+06    -111.812E-03     218.648E-03    -106.836E-03     77.5888E-03    -112.493E-03     218.396E-03    -107.436E-03     77.3964E-03
            1282     2.42634E-03     163.116E-03    -242.964E+06    -189.487E+06    -218.922E+06    -18.0805E+06    -120.243E-03     229.340E-03    -109.097E-03     115.157E-03    -120.898E-03     229.085E-03    -109.565E-03     114.769E-03
            1283     3.22463E-03     163.225E-03    -214.006E+06    -172.657E+06    -182.028E+06    -25.7996E+06    -131.822E-03     243.985E-03    -112.163E-03     152.637E-03    -132.460E-03     243.773E-03    -112.512E-03     151.936E-03
            1284     4.01490E-03     163.368E-03    -184.760E+06    -158.737E+06    -149.950E+06    -31.4084E+06    -146.466E-03     262.432E-03    -115.966E-03     188.904E-03    -147.130E-03     262.312E-03    -116.217E-03     187.730E-03
            1285     4.79564E-03     163.550E-03    -157.852E+06    -143.184E+06    -119.021E+06    -34.2451E+06    -164.142E-03     284.645E-03    -120.503E-03     222.611E-03    -164.936E-03     284.723E-03    -120.662E-03     220.704E-03
            1286     5.56519E-03     163.772E-03    -133.663E+06    -122.602E+06    -89.4412E+06    -34.7994E+06    -184.581E-03     310.349E-03    -125.768E-03     252.669E-03    -185.657E-03     310.787E-03    -125.843E-03     249.625E-03
            1287     6.32216E-03     164.038E-03    -112.527E+06    -107.177E+06    -64.0160E+06    -34.1925E+06    -207.291E-03     339.034E-03    -131.743E-03     278.425E-03    -208.809E-03     339.976E-03    -131.745E-03     273.696E-03
            1288     7.06487E-03     164.348E-03    -94.2614E+06    -85.0853E+06    -40.7503E+06    -34.1574E+06    -231.742E-03     370.140E-03    -138.398E-03     299.037E-03    -233.909E-03     371.811E-03    -138.342E-03     291.897E-03
            1289     7.79300E-03     164.702E-03    -78.6714E+06    -62.3570E+06    -19.6852E+06    -35.5509E+06    -257.622E-03     403.349E-03    -145.726E-03     313.959E-03    -260.621E-03     405.930E-03    -145.620E-03     303.586E-03
            1290     8.50331E-03     165.103E-03    -68.3221E+06    -44.0762E+06    -2.55159E+06    -34.8928E+06    -283.750E-03     437.442E-03    -153.693E-03     323.354E-03    -287.756E-03     441.083E-03    -153.542E-03     308.886E-03
            1291     9.19748E-03     165.545E-03    -60.5200E+06    -19.4621E+06     14.4402E+06    -32.4711E+06    -308.246E-03     470.434E-03    -162.189E-03     326.734E-03    -313.349E-03     475.237E-03    -162.000E-03     307.508E-03
            1292     9.87602E-03     166.023E-03    -52.6783E+06     2.50404E+06     31.4739E+06    -30.3656E+06    -329.307E-03     500.350E-03    -171.043E-03     324.291E-03    -335.449E-03     506.245E-03    -170.813E-03     299.995E-03
            1293     10.5376E-03     166.524E-03    -44.1414E+06     37.5759E+06     50.5692E+06    -25.1770E+06    -345.256E-03     525.258E-03    -180.002E-03     316.628E-03    -352.299E-03     532.150E-03    -179.739E-03     287.434E-03
            1294     11.1901E-03     167.032E-03    -31.6073E+06     74.0302E+06     71.9880E+06    -17.4314E+06    -355.600E-03     544.417E-03    -188.816E-03     304.974E-03    -363.299E-03     552.072E-03    -188.518E-03     271.516E-03
            1295     11.8328E-03     167.534E-03    -19.1993E+06     82.4630E+06     88.8741E+06    -12.4759E+06    -359.661E-03     556.902E-03    -197.241E-03     291.065E-03    -367.770E-03     564.988E-03    -196.888E-03     254.105E-03
            1296     12.4724E-03     168.007E-03    -10.7651E+06     89.1288E+06     112.059E+06    -8.46658E+06    -357.523E-03     562.587E-03    -205.064E-03     272.009E-03    -365.587E-03     570.610E-03    -204.617E-03     233.396E-03
            1297     13.1123E-03     168.436E-03    -7.03828E+06     65.9593E+06     122.758E+06    -6.77540E+06    -349.827E-03     561.880E-03    -212.052E-03     250.916E-03    -357.644E-03     569.551E-03    -211.524E-03     211.848E-03
            1298     13.7554E-03     168.816E-03    -7.13453E+06     39.6698E+06     124.925E+06    -3.54555E+06    -338.254E-03     556.351E-03    -218.096E-03     205.712E-03    -343.995E-03     561.844E-03    -217.519E-03     173.342E-03
            1299     818.759E-06     164.150E-03    -294.616E+06    -185.550E+06    -291.060E+06    -17.6923E+06    -100.365E-03     197.308E-03    -96.9434E-03     35.7288E-03    -101.152E-03     197.232E-03    -97.7025E-03     35.4469E-03
            1300     1.63475E-03     164.203E-03    -280.999E+06    -173.771E+06    -269.992E+06    -32.2990E+06    -104.885E-03     204.424E-03    -99.5394E-03     66.1741E-03    -105.662E-03     204.368E-03    -100.230E-03     65.6304E-03
            1301     2.44517E-03     164.291E-03    -259.608E+06    -160.906E+06    -237.472E+06    -46.1251E+06    -113.549E-03     215.654E-03    -102.104E-03     98.7599E-03    -114.308E-03     215.608E-03    -102.682E-03     97.9189E-03
            1302     3.24965E-03     164.417E-03    -236.224E+06    -148.586E+06    -205.849E+06    -58.4459E+06    -125.760E-03     231.286E-03    -105.526E-03     131.841E-03    -126.513E-03     231.271E-03    -105.997E-03     130.636E-03
            1303     4.04492E-03     164.583E-03    -211.642E+06    -142.350E+06    -178.359E+06    -67.6868E+06    -141.746E-03     251.597E-03    -109.850E-03     164.445E-03    -142.513E-03     251.630E-03    -110.229E-03     162.766E-03
            1304     4.82809E-03     164.792E-03    -186.956E+06    -135.990E+06    -152.616E+06    -72.8391E+06    -161.368E-03     276.479E-03    -115.110E-03     195.332E-03    -162.213E-03     276.629E-03    -115.405E-03     192.990E-03
            1305     5.59714E-03     165.045E-03    -163.570E+06    -123.896E+06    -127.449E+06    -73.8696E+06    -184.114E-03     305.406E-03    -121.291E-03     223.000E-03    -185.138E-03     305.793E-03    -121.512E-03     219.707E-03
            1306     6.35032E-03     165.346E-03    -141.621E+06    -113.102E+06    -101.062E+06    -73.6187E+06    -209.287E-03     337.657E-03    -128.370E-03     245.938E-03    -210.610E-03     338.386E-03    -128.506E-03     241.231E-03
            1307     7.08737E-03     165.692E-03    -121.075E+06    -94.5731E+06    -71.2712E+06    -72.5581E+06    -236.292E-03     372.590E-03    -136.298E-03     262.950E-03    -238.061E-03     373.821E-03    -136.342E-03     256.220E-03
            1308     7.80514E-03     166.088E-03    -103.705E+06    -76.2436E+06    -42.8234E+06    -68.0053E+06    -263.713E-03     408.709E-03    -144.996E-03     273.484E-03    -266.066E-03     410.570E-03    -144.949E-03     264.028E-03
            1309     8.50539E-03     166.529E-03    -87.2188E+06    -64.8535E+06    -18.7109E+06    -60.6694E+06    -289.543E-03     443.845E-03    -154.302E-03     277.966E-03    -292.559E-03     446.396E-03    -154.175E-03     265.130E-03
            1310     9.18801E-03     167.013E-03    -70.5035E+06    -39.7416E+06     5.45667E+06    -52.1719E+06    -311.877E-03     475.846E-03    -163.969E-03     277.303E-03    -315.604E-03     479.186E-03    -163.782E-03     260.616E-03
            1311     9.85353E-03     167.529E-03    -55.6647E+06    -16.7778E+06     30.5808E+06    -42.3406E+06    -328.890E-03     502.611E-03    -173.721E-03     273.293E-03    -333.331E-03     506.723E-03    -173.463E-03     252.528E-03
            1312     10.5104E-03     168.064E-03    -41.6141E+06     17.3263E+06     56.4950E+06    -35.1406E+06    -339.851E-03     523.050E-03    -183.198E-03     267.862E-03    -344.966E-03     527.929E-03    -182.881E-03     243.159E-03
            1313     11.1574E-03     168.604E-03    -30.1629E+06     48.6468E+06     75.7466E+06    -29.0254E+06    -344.339E-03     536.400E-03    -192.062E-03     262.358E-03    -350.079E-03     542.000E-03    -191.710E-03     234.050E-03
            1314     11.8029E-03     169.129E-03    -24.1252E+06     63.1697E+06     92.8374E+06    -19.0781E+06    -343.746E-03     543.853E-03    -200.106E-03     258.425E-03    -350.159E-03     550.147E-03    -199.699E-03     226.699E-03
            1315     12.4488E-03     169.622E-03    -20.0027E+06     74.3561E+06     114.472E+06    -10.2293E+06    -339.167E-03     546.387E-03    -207.220E-03     252.704E-03    -346.194E-03     553.284E-03    -206.726E-03     218.060E-03
            1316     13.0956E-03     170.064E-03    -13.6537E+06     62.7829E+06     132.190E+06    -2.20415E+06    -332.126E-03     545.517E-03    -213.391E-03     241.793E-03    -339.480E-03     552.667E-03    -212.801E-03     205.550E-03
            1317     13.7515E-03     170.435E-03    -5.36443E+06     40.9239E+06     145.894E+06    -1.24083E+06    -323.886E-03     542.593E-03    -218.708E-03     203.448E-03    -329.363E-03     547.775E-03    -218.030E-03     173.500E-03
            1318     814.903E-06     165.302E-03    -220.179E+06    -135.169E+06    -217.496E+06    -21.7780E+06    -105.653E-03     209.495E-03    -103.842E-03     23.2140E-03    -106.260E-03     209.450E-03    -104.414E-03     22.7638E-03
            1319     1.62602E-03     165.361E-03    -213.812E+06    -126.723E+06    -200.329E+06    -38.3877E+06    -110.236E-03     216.139E-03    -105.904E-03     42.8116E-03    -110.865E-03     216.118E-03    -106.411E-03     41.9767E-03
            1320     2.43380E-03     165.460E-03    -205.152E+06    -119.136E+06    -182.631E+06    -52.9411E+06    -117.761E-03     226.345E-03    -108.584E-03     63.6068E-03    -118.415E-03     226.354E-03    -109.027E-03     62.3469E-03
            1321     3.23385E-03     165.600E-03    -194.259E+06    -110.495E+06    -163.919E+06    -65.3087E+06    -128.214E-03     240.385E-03    -112.171E-03     84.5874E-03    -128.904E-03     240.448E-03    -112.549E-03     82.8352E-03
            1322     4.02419E-03     165.785E-03    -183.421E+06    -108.088E+06    -147.926E+06    -77.0922E+06    -141.780E-03     258.485E-03    -116.705E-03     105.882E-03    -142.523E-03     258.605E-03    -117.022E-03     103.519E-03
            1323     4.80287E-03     166.018E-03    -172.668E+06    -111.287E+06    -136.297E+06    -86.6535E+06    -158.598E-03     280.810E-03    -122.212E-03     126.674E-03    -159.414E-03     280.999E-03    -122.482E-03     123.566E-03
            1324     5.56723E-03     166.302E-03    -160.601E+06    -109.428E+06    -123.633E+06    -92.5780E+06    -178.451E-03     307.173E-03    -128.723E-03     145.310E-03    -179.376E-03     307.488E-03    -128.949E-03     141.305E-03
            1325     6.31518E-03     166.635E-03    -146.504E+06    -102.445E+06    -105.875E+06    -97.0936E+06    -201.171E-03     337.435E-03    -136.265E-03     160.323E-03    -202.249E-03     337.933E-03    -136.433E-03     155.178E-03
            1326     7.04281E-03     167.021E-03    -131.149E+06    -95.1852E+06    -83.8246E+06    -98.8366E+06    -225.621E-03     370.424E-03    -144.803E-03     170.765E-03    -226.896E-03     371.140E-03    -144.894E-03     164.166E-03
            1327     7.75075E-03     167.457E-03    -114.146E+06    -90.8407E+06    -60.5247E+06    -95.1704E+06    -249.769E-03     403.935E-03    -154.166E-03     176.309E-03    -251.281E-03     404.901E-03    -154.171E-03     167.900E-03
            1328     8.43838E-03     167.938E-03    -96.4525E+06    -86.5090E+06    -38.3589E+06    -88.9233E+06    -271.710E-03     435.769E-03    -164.059E-03     178.208E-03    -273.481E-03     437.014E-03    -163.985E-03     167.700E-03
            1329     9.10816E-03     168.459E-03    -81.8042E+06    -75.9327E+06    -19.1105E+06    -80.4462E+06    -288.963E-03     463.033E-03    -174.071E-03     178.714E-03    -291.033E-03     464.614E-03    -173.938E-03     165.925E-03
            1330     9.76824E-03     169.006E-03    -68.4779E+06    -57.5423E+06     6.91233E+06    -70.4341E+06    -300.576E-03     484.368E-03    -183.791E-03     179.763E-03    -302.987E-03     486.331E-03    -183.574E-03     164.712E-03
            1331     10.4186E-03     169.568E-03    -55.1600E+06    -18.4428E+06     42.9073E+06    -62.9029E+06    -306.030E-03     498.812E-03    -192.782E-03     183.235E-03    -308.826E-03     501.247E-03    -192.461E-03     166.117E-03
            1332     11.0705E-03     170.129E-03    -45.1675E+06     5.62533E+06     76.2626E+06    -48.5431E+06    -305.846E-03     506.530E-03    -200.683E-03     189.361E-03    -309.099E-03     509.446E-03    -200.245E-03     170.183E-03
            1333     11.7285E-03     170.667E-03    -36.5461E+06     20.3056E+06     105.003E+06    -28.0621E+06    -301.951E-03     509.252E-03    -207.301E-03     197.996E-03    -305.863E-03     512.827E-03    -206.753E-03     176.185E-03
            1334     12.3925E-03     171.184E-03    -27.0068E+06     52.6463E+06     128.437E+06    -14.4188E+06    -295.068E-03     507.662E-03    -212.594E-03     205.170E-03    -299.938E-03     512.273E-03    -211.989E-03     179.822E-03
            1335     13.0685E-03     171.634E-03    -11.1822E+06     51.0500E+06     136.592E+06    -8.51971E+06    -289.767E-03     506.535E-03    -216.768E-03     212.160E-03    -295.871E-03     512.406E-03    -216.143E-03     182.329E-03
            1336     13.7355E-03     172.044E-03     1.03481E+06     33.0271E+06     154.307E+06    -737.470E+03    -286.570E-03     506.822E-03    -220.253E-03     193.574E-03    -291.726E-03     511.665E-03    -219.531E-03     167.075E-03
            1337     795.587E-06     166.485E-03    -146.126E+06     -81.349E+06    -139.537E+06    -17.4255E+06    -130.859E-03     260.540E-03    -129.681E-03     1.89417E-03    -131.337E-03     260.482E-03    -130.049E-03     1.30654E-03
            1338     1.58965E-03     166.550E-03    -144.218E+06    -78.2309E+06    -129.975E+06    -31.7458E+06    -134.172E-03     266.348E-03    -132.176E-03    -1.17078E-03    -134.664E-03     266.280E-03    -132.503E-03    -2.35941E-03
            1339     2.37659E-03     166.656E-03    -136.806E+06    -73.8470E+06    -114.505E+06    -45.3921E+06    -138.507E-03     273.784E-03    -135.278E-03    -3.71893E-03    -138.986E-03     273.703E-03    -135.545E-03    -5.61427E-03
            1340     3.15639E-03     166.806E-03    -127.628E+06    -70.6014E+06    -100.761E+06    -55.9317E+06    -143.721E-03     282.883E-03    -139.161E-03    -4.75971E-03    -144.180E-03     282.787E-03    -139.378E-03    -7.39668E-03
            1341     3.92720E-03     167.003E-03    -119.031E+06    -68.5902E+06    -86.6197E+06    -63.3323E+06    -150.272E-03     294.174E-03    -143.902E-03    -4.48905E-03    -150.718E-03     294.065E-03    -144.063E-03    -7.89719E-03
            1342     4.68619E-03     167.251E-03    -110.461E+06    -72.0974E+06    -72.8166E+06    -70.5033E+06    -158.244E-03     307.826E-03    -149.582E-03    -3.59673E-03    -158.677E-03     307.685E-03    -149.681E-03    -7.85634E-03
            1343     5.43127E-03     167.551E-03    -101.598E+06    -76.2449E+06    -60.6814E+06    -76.2246E+06    -167.712E-03     323.952E-03    -156.241E-03    -3.07759E-03    -168.127E-03     323.783E-03    -156.286E-03    -8.25821E-03
            1344     6.15961E-03     167.907E-03    -93.2864E+06    -71.7327E+06    -48.1386E+06    -80.1278E+06    -178.410E-03     342.290E-03    -163.880E-03    -3.11154E-03    -178.823E-03     342.138E-03    -163.882E-03    -9.22437E-03
            1345     6.87010E-03     168.318E-03    -86.4748E+06    -68.7164E+06    -37.0043E+06    -81.9313E+06    -189.195E-03     361.574E-03    -172.379E-03    -3.37102E-03    -189.612E-03     361.447E-03    -172.339E-03    -10.4406E-03
            1346     7.56234E-03     168.780E-03    -81.6077E+06    -70.3715E+06    -27.2502E+06    -83.1169E+06    -199.264E-03     380.727E-03    -181.463E-03    -2.69889E-03    -199.696E-03     380.624E-03    -181.379E-03    -10.6952E-03
            1347     8.23829E-03     169.289E-03    -79.7054E+06    -73.8477E+06    -17.9936E+06    -82.8128E+06    -207.307E-03     398.032E-03    -190.726E-03     502.231E-06    -207.790E-03     397.977E-03    -190.593E-03    -8.31153E-03
            1348     8.90380E-03     169.834E-03    -77.7852E+06    -75.3243E+06    -6.98185E+06    -82.1874E+06    -212.274E-03     411.919E-03    -199.645E-03     7.45178E-03    -212.851E-03     411.963E-03    -199.458E-03    -2.08208E-03
            1349     9.56186E-03     170.402E-03    -74.2772E+06    -70.7752E+06     10.0509E+06    -80.5693E+06    -214.217E-03     421.908E-03    -207.692E-03     20.4487E-03    -214.935E-03     422.108E-03    -207.431E-03     10.4734E-03
            1350     10.2231E-03     170.985E-03    -68.4647E+06    -44.1342E+06     39.4612E+06    -76.8660E+06    -212.903E-03     427.289E-03    -214.386E-03     39.3720E-03    -213.846E-03     427.774E-03    -214.026E-03     29.1553E-03
            1351     10.8937E-03     171.556E-03    -59.5201E+06    -36.7532E+06     70.9144E+06    -63.9345E+06    -210.520E-03     429.948E-03    -219.429E-03     63.9754E-03    -211.719E-03     430.687E-03    -218.934E-03     53.4558E-03
            1352     11.5708E-03     172.117E-03    -46.7308E+06    -31.8712E+06     96.9165E+06    -45.5339E+06    -208.806E-03     431.512E-03    -222.706E-03     93.3504E-03    -210.383E-03     432.633E-03    -222.107E-03     82.0403E-03
            1353     12.2646E-03     172.632E-03    -24.4181E+06     14.1001E+06     131.958E+06    -34.1974E+06    -207.779E-03     432.147E-03    -224.367E-03     123.559E-03    -209.900E-03     433.950E-03    -223.692E-03     110.901E-03
            1354     12.9651E-03     173.113E-03    -16.8035E+06     24.9721E+06     141.355E+06    -15.3378E+06    -205.029E-03     429.591E-03    -224.562E-03     161.565E-03    -208.197E-03     432.464E-03    -223.867E-03     146.235E-03
            1355     13.6906E-03     173.532E-03    -13.2826E+06     19.4955E+06     144.041E+06    -1.15646E+06    -210.085E-03     433.928E-03    -223.843E-03     193.419E-03    -214.073E-03     437.563E-03    -223.132E-03     176.252E-03
            1356     756.775E-06     167.759E-03    -68.8511E+06    -38.4118E+06    -63.3310E+06    -11.6238E+06    -188.238E-03     380.354E-03    -192.115E-03    -49.8399E-03    -188.738E-03     379.957E-03    -192.277E-03    -50.9059E-03
            1357     1.50578E-03     167.832E-03    -64.3797E+06    -35.1210E+06    -53.5797E+06    -21.6592E+06    -186.365E-03     379.624E-03    -193.259E-03    -88.2023E-03    -186.744E-03     379.181E-03    -193.383E-03    -90.0720E-03
            1358     2.25016E-03     167.941E-03    -59.6576E+06    -33.1423E+06    -40.4174E+06    -30.4107E+06    -183.054E-03     378.981E-03    -195.927E-03    -127.025E-03    -183.293E-03     378.404E-03    -195.994E-03    -129.791E-03
            1359     2.98834E-03     168.092E-03    -56.7212E+06    -34.7569E+06    -29.2809E+06    -36.8312E+06    -178.089E-03     377.755E-03    -199.666E-03    -163.813E-03    -178.161E-03     376.985E-03    -199.680E-03    -167.412E-03
            1360     3.71702E-03     168.290E-03    -53.7027E+06    -36.2539E+06    -17.5852E+06    -41.0082E+06    -171.010E-03     375.411E-03    -204.401E-03    -197.904E-03    -170.888E-03     374.421E-03    -204.359E-03    -202.253E-03
            1361     4.43485E-03     168.537E-03    -50.7854E+06    -38.0364E+06    -4.62449E+06    -43.6924E+06    -161.684E-03     371.740E-03    -210.055E-03    -227.789E-03    -161.365E-03     370.529E-03    -209.950E-03    -232.760E-03
            1362     5.13927E-03     168.837E-03    -48.7660E+06    -41.2531E+06     6.42171E+06    -46.8029E+06    -150.364E-03     366.882E-03    -216.518E-03    -251.300E-03    -149.844E-03     365.467E-03    -216.355E-03    -256.829E-03
            1363     5.82876E-03     169.190E-03    -47.6942E+06    -39.5913E+06     16.7582E+06    -48.6937E+06    -137.263E-03     360.854E-03    -223.590E-03    -266.014E-03    -136.576E-03     359.311E-03    -223.380E-03    -271.981E-03
            1364     6.50362E-03     169.595E-03    -46.3487E+06    -35.7012E+06     27.9490E+06    -48.8720E+06    -123.148E-03     354.127E-03    -230.979E-03    -270.414E-03    -122.360E-03     352.548E-03    -230.720E-03    -276.653E-03
            1365     7.16710E-03     170.050E-03    -45.8877E+06    -33.6827E+06     38.3590E+06    -46.8086E+06    -108.822E-03     347.117E-03    -238.294E-03    -263.647E-03    -108.019E-03     345.592E-03    -237.987E-03    -269.973E-03
            1366     7.82243E-03     170.550E-03    -43.3176E+06    -33.5162E+06     50.4257E+06    -44.9530E+06    -94.7484E-03     339.782E-03    -245.034E-03    -245.603E-03    -94.0116E-03     338.407E-03    -244.670E-03    -251.830E-03
            1367     8.47654E-03     171.085E-03    -40.3221E+06    -34.1279E+06     64.6527E+06    -41.2707E+06    -82.1068E-03     332.760E-03    -250.653E-03    -217.420E-03    -81.5265E-03     331.617E-03    -250.222E-03    -223.364E-03
            1368     9.13776E-03     171.648E-03    -34.5665E+06    -29.8721E+06     81.7461E+06    -40.7583E+06    -70.8395E-03     325.469E-03    -254.629E-03    -181.024E-03    -70.4793E-03     324.628E-03    -254.127E-03    -186.548E-03
            1369     9.81498E-03     172.220E-03    -32.0048E+06    -22.4024E+06     97.5135E+06    -36.5258E+06    -61.3133E-03     317.837E-03    -256.524E-03    -138.632E-03    -61.2167E-03     317.336E-03    -255.958E-03    -143.612E-03
            1370     10.5115E-03     172.800E-03    -29.2682E+06    -18.5003E+06     109.993E+06    -35.3227E+06    -54.4216E-03     310.535E-03    -256.113E-03    -91.5773E-03    -54.5815E-03     310.341E-03    -255.494E-03    -96.0209E-03
            1371     11.2430E-03     173.364E-03    -27.5933E+06    -32.0052E+06     115.073E+06    -30.9004E+06    -51.3716E-03     304.819E-03    -253.448E-03    -40.9953E-03    -51.7297E-03     304.809E-03    -252.786E-03    -44.8664E-03
            1372     11.9973E-03     173.920E-03    -23.1782E+06    -5.98301E+06     134.399E+06    -33.3285E+06    -52.4957E-03     301.325E-03    -248.830E-03     8.80057E-03    -53.0679E-03     301.603E-03    -248.115E-03     5.29424E-03
            1373     12.7865E-03     174.420E-03    -20.7785E+06    -16.7070E+06     127.056E+06    -13.4578E+06    -56.5599E-03     299.389E-03    -242.829E-03     37.8918E-03    -57.3510E-03     299.801E-03    -242.140E-03     34.5348E-03
            1374     13.6083E-03     174.853E-03    -5.72175E+06    -7.23107E+06     122.048E+06     417.217E+03    -46.1874E-03     281.536E-03    -235.349E-03     82.9407E-03    -47.7002E-03     282.866E-03    -234.720E-03     77.5831E-03
            1375     13.6070E-03     87.0542E-03    -4.95342E+06     63.3587E+06     82.3905E+06    -1.20173E+06    -231.072E-03     460.003E-03    -228.931E-03     161.237E-03    -236.504E-03     465.404E-03    -228.604E-03     137.536E-03
            1376     12.8907E-03     86.7927E-03    -9.52770E+06     60.8860E+06     80.1063E+06    -516.204E+03    -232.197E-03     461.161E-03    -228.964E-03     199.192E-03    -240.040E-03     468.954E-03    -228.638E-03     169.951E-03
            1377     12.1707E-03     86.5288E-03    -14.0670E+06     55.5903E+06     78.1278E+06     611.443E+03    -232.832E-03     461.841E-03    -229.009E-03     210.062E-03    -241.599E-03     470.529E-03    -228.679E-03     179.245E-03
            1378     11.4555E-03     86.2391E-03    -20.6780E+06     49.4307E+06     77.3258E+06     1.37189E+06    -233.954E-03     463.008E-03    -229.054E-03     223.382E-03    -243.765E-03     472.697E-03    -228.709E-03     190.828E-03
            1379     10.7399E-03     85.9374E-03    -26.3774E+06     42.2592E+06     73.9994E+06     913.915E+03    -234.725E-03     463.799E-03    -229.074E-03     230.145E-03    -244.959E-03     473.875E-03    -228.727E-03     196.960E-03
            1380     10.0239E-03     85.6261E-03    -31.9503E+06     35.6303E+06     65.2259E+06     298.534E+03    -235.180E-03     464.242E-03    -229.062E-03     233.299E-03    -245.459E-03     474.345E-03    -228.742E-03     200.075E-03
            1381     9.30746E-03     85.3137E-03    -38.7577E+06     28.7355E+06     56.0070E+06    -118.109E+03    -235.242E-03     464.299E-03    -229.057E-03     230.769E-03    -245.096E-03     473.954E-03    -228.762E-03     198.238E-03
            1382     8.59139E-03     85.0081E-03    -47.0352E+06     20.2379E+06     47.5176E+06    -234.894E+03    -235.119E-03     464.178E-03    -229.059E-03     223.070E-03    -244.163E-03     472.989E-03    -228.783E-03     191.898E-03
            1383     7.87527E-03     84.7154E-03    -55.7600E+06     10.2919E+06     39.2290E+06    -10.4124E+03    -234.643E-03     463.705E-03    -229.062E-03     211.032E-03    -242.599E-03     471.386E-03    -228.800E-03     181.855E-03
            1384     7.15929E-03     84.4417E-03    -64.5349E+06    -13.2524E+06     27.2248E+06    -63.1965E+03    -233.898E-03     462.970E-03    -229.072E-03     195.827E-03    -240.610E-03     469.328E-03    -228.823E-03     169.135E-03
            1385     6.44300E-03     84.1898E-03    -73.5124E+06    -52.7665E+06     9.85343E+06    -53.6867E+03    -233.208E-03     462.295E-03    -229.087E-03     178.678E-03    -238.658E-03     467.268E-03    -228.855E-03     154.735E-03
            1386     5.72710E-03     83.9618E-03    -82.7411E+06    -94.1237E+06    -8.83807E+06     406.674E+03    -232.556E-03     461.655E-03    -229.099E-03     160.429E-03    -236.837E-03     465.334E-03    -228.887E-03     139.357E-03
            1387     5.01107E-03     83.7582E-03    -91.9442E+06    -128.890E+06    -27.8217E+06     592.019E+03    -231.898E-03     460.993E-03    -229.096E-03     141.588E-03    -235.153E-03     463.546E-03    -228.915E-03     123.406E-03
            1388     4.29499E-03     83.5799E-03    -100.961E+06    -159.422E+06    -47.6368E+06     401.823E+03    -231.265E-03     460.341E-03    -229.076E-03     122.336E-03    -233.655E-03     461.944E-03    -228.936E-03     106.973E-03
            1389     3.57920E-03     83.4276E-03    -109.866E+06    -196.162E+06    -67.9293E+06     107.582E+03    -230.607E-03     459.669E-03    -229.061E-03     102.769E-03    -232.270E-03     460.442E-03    -228.957E-03     90.1577E-03
            1390     2.86334E-03     83.3024E-03    -118.047E+06    -224.361E+06    -87.7599E+06    -251.676E+03    -229.974E-03     459.025E-03    -229.051E-03     82.9557E-03    -231.060E-03     459.150E-03    -228.993E-03     73.0113E-03
            1391     2.14739E-03     83.2040E-03    -124.579E+06    -242.111E+06    -106.121E+06    -280.003E+03    -229.537E-03     458.585E-03    -229.048E-03     62.8967E-03    -230.192E-03     458.246E-03    -229.046E-03     55.4945E-03
            1392     1.43128E-03     83.1329E-03    -129.803E+06    -261.708E+06    -121.272E+06    -159.031E+03    -229.281E-03     458.344E-03    -229.062E-03     42.6685E-03    -229.626E-03     457.650E-03    -229.101E-03     37.6977E-03
            1393     715.541E-06     83.0894E-03    -133.195E+06    -275.581E+06    -130.950E+06    -172.588E+03    -229.257E-03     458.237E-03    -228.980E-03     23.1529E-03    -229.414E-03     457.323E-03    -229.043E-03     20.4677E-03
            1394     13.6039E-03     85.5547E-03    -3.57723E+06     64.9015E+06     80.8517E+06    -25.9470E+03    -230.761E-03     459.709E-03    -228.948E-03     161.657E-03    -236.179E-03     465.110E-03    -228.632E-03     138.056E-03
            1395     12.8866E-03     85.2957E-03    -9.33243E+06     59.8614E+06     78.4642E+06    -137.873E+03    -232.269E-03     461.263E-03    -228.994E-03     198.760E-03    -240.077E-03     469.023E-03    -228.675E-03     169.586E-03
            1396     12.1730E-03     85.0313E-03    -15.3620E+06     52.8572E+06     76.1710E+06    -49.8957E+03    -233.054E-03     462.086E-03    -229.032E-03     209.296E-03    -241.808E-03     470.753E-03    -228.706E-03     178.405E-03
            1397     11.4561E-03     84.7408E-03    -20.1187E+06     48.8577E+06     77.3086E+06    -390.831E+03    -234.113E-03     463.177E-03    -229.064E-03     222.667E-03    -243.915E-03     472.857E-03    -228.719E-03     190.020E-03
            1398     10.7398E-03     84.4386E-03    -25.4604E+06     43.0095E+06     74.6046E+06    -640.775E+03    -234.819E-03     463.890E-03    -229.071E-03     229.694E-03    -245.038E-03     473.955E-03    -228.723E-03     196.484E-03
            1399     10.0237E-03     84.1278E-03    -32.1489E+06     35.6527E+06     65.4127E+06    -587.061E+03    -235.207E-03     464.259E-03    -229.051E-03     232.967E-03    -245.484E-03     474.358E-03    -228.729E-03     199.721E-03
            1400     9.30775E-03     83.8158E-03    -39.5526E+06     28.2113E+06     55.5394E+06    -13.1541E+03    -235.344E-03     464.379E-03    -229.035E-03     230.615E-03    -245.200E-03     474.033E-03    -228.741E-03     198.071E-03
            1401     8.59164E-03     83.5097E-03    -46.9601E+06     20.1746E+06     47.5029E+06     293.298E+03    -235.156E-03     464.185E-03    -229.028E-03     223.033E-03    -244.203E-03     472.999E-03    -228.752E-03     191.847E-03
            1402     7.87574E-03     83.2174E-03    -55.0423E+06     10.7929E+06     39.7472E+06     258.130E+03    -234.552E-03     463.583E-03    -229.031E-03     210.948E-03    -242.508E-03     471.267E-03    -228.768E-03     181.775E-03
            1403     7.15941E-03     82.9439E-03    -64.1541E+06    -13.0123E+06     27.3698E+06     217.583E+03    -233.800E-03     462.846E-03    -229.046E-03     195.821E-03    -240.511E-03     469.204E-03    -228.797E-03     169.143E-03
            1404     6.44333E-03     82.6921E-03    -73.9594E+06    -52.9500E+06     9.29657E+06     287.364E+03    -233.152E-03     462.218E-03    -229.066E-03     178.839E-03    -238.602E-03     467.190E-03    -228.836E-03     154.922E-03
            1405     5.72709E-03     82.4638E-03    -83.5115E+06    -94.6042E+06    -9.49973E+06     266.224E+03    -232.559E-03     461.641E-03    -229.082E-03     160.655E-03    -236.841E-03     465.318E-03    -228.871E-03     139.597E-03
            1406     5.01111E-03     82.2605E-03    -92.5348E+06    -129.028E+06    -28.2907E+06     238.403E+03    -231.891E-03     460.972E-03    -229.080E-03     141.854E-03    -235.151E-03     463.527E-03    -228.901E-03     123.674E-03
            1407     4.29525E-03     82.0821E-03    -101.462E+06    -159.258E+06    -47.9516E+06     110.938E+03    -231.141E-03     460.215E-03    -229.074E-03     122.597E-03    -233.534E-03     461.822E-03    -228.936E-03     107.245E-03
            1408     3.57907E-03     81.9303E-03    -109.779E+06    -195.515E+06    -67.4633E+06     183.236E+03    -230.473E-03     459.564E-03    -229.091E-03     102.831E-03    -232.136E-03     460.338E-03    -228.985E-03     90.2401E-03
            1409     2.86284E-03     81.8050E-03    -117.751E+06    -223.517E+06    -87.3786E+06     98.9642E+03    -229.952E-03     459.057E-03    -229.105E-03     82.8496E-03    -231.037E-03     459.184E-03    -229.047E-03     72.9184E-03
            1410     2.14686E-03     81.7063E-03    -125.202E+06    -242.578E+06    -106.750E+06    -252.693E+03    -229.574E-03     458.686E-03    -229.112E-03     62.6490E-03    -230.230E-03     458.346E-03    -229.112E-03     55.2399E-03
            1411     1.43127E-03     81.6351E-03    -130.867E+06    -262.282E+06    -122.313E+06    -236.681E+03    -229.361E-03     458.482E-03    -229.121E-03     42.3435E-03    -229.708E-03     457.787E-03    -229.162E-03     37.3621E-03
            1412     715.696E-06     81.5910E-03    -133.742E+06    -275.792E+06    -131.647E+06    -222.370E+03    -229.325E-03     458.336E-03    -229.010E-03     22.8609E-03    -229.483E-03     457.422E-03    -229.075E-03     20.1802E-03
            1413     13.6057E-03     84.0602E-03    -4.42354E+06     64.5114E+06     80.2432E+06     629.424E+03    -230.962E-03     459.930E-03    -228.968E-03     160.803E-03    -236.364E-03     465.312E-03    -228.654E-03     137.226E-03
            1414     12.8898E-03     83.7971E-03    -9.58726E+06     60.7435E+06     77.8608E+06     1.15610E+06    -232.491E-03     461.490E-03    -228.999E-03     198.616E-03    -240.292E-03     469.248E-03    -228.684E-03     169.450E-03
            1415     12.1715E-03     83.5332E-03    -14.3727E+06     54.5868E+06     77.0558E+06     -456.82E+03    -233.396E-03     462.424E-03    -229.028E-03     209.737E-03    -242.145E-03     471.093E-03    -228.701E-03     178.835E-03
            1416     11.4560E-03     83.2418E-03    -20.0338E+06     48.8137E+06     77.7727E+06    -1.56221E+06    -234.322E-03     463.369E-03    -229.047E-03     222.787E-03    -244.124E-03     473.047E-03    -228.700E-03     190.118E-03
            1417     10.7403E-03     82.9405E-03    -26.9204E+06     42.6571E+06     73.4778E+06    -1.08141E+06    -234.758E-03     463.798E-03    -229.040E-03     229.271E-03    -244.983E-03     473.867E-03    -228.696E-03     196.029E-03
            1418     10.0242E-03     82.6296E-03    -34.2748E+06     34.9917E+06     63.1165E+06    -1.02656E+06    -235.152E-03     464.166E-03    -229.014E-03     232.649E-03    -245.430E-03     474.263E-03    -228.699E-03     199.397E-03
            1419     9.30802E-03     82.3175E-03    -41.3324E+06     26.6932E+06     53.4986E+06    -1.18587E+06    -235.306E-03     464.304E-03    -228.998E-03     230.548E-03    -245.165E-03     473.955E-03    -228.709E-03     197.986E-03
            1420     8.59206E-03     82.0116E-03    -48.5127E+06     18.8852E+06     46.2222E+06    -992.033E+03    -235.011E-03     464.011E-03    -228.999E-03     223.165E-03    -244.062E-03     472.823E-03    -228.725E-03     191.984E-03
            1421     7.87571E-03     81.7195E-03    -56.5316E+06     9.53251E+06     38.5883E+06    -363.642E+03    -234.397E-03     463.413E-03    -229.016E-03     211.154E-03    -242.355E-03     471.092E-03    -228.755E-03     182.004E-03
            1422     7.15958E-03     81.4463E-03    -65.5433E+06    -13.4826E+06     26.5022E+06     242.711E+03    -233.753E-03     462.796E-03    -229.043E-03     196.092E-03    -240.470E-03     469.155E-03    -228.795E-03     169.433E-03
            1423     6.44316E-03     81.1945E-03    -74.7302E+06    -52.3490E+06     9.23158E+06     233.372E+03    -233.159E-03     462.229E-03    -229.070E-03     179.082E-03    -238.615E-03     467.206E-03    -228.839E-03     155.174E-03
            1424     5.72704E-03     80.9661E-03    -83.7081E+06    -94.2921E+06    -9.65606E+06     17.1217E+03    -232.533E-03     461.623E-03    -229.089E-03     160.773E-03    -236.812E-03     465.298E-03    -228.879E-03     139.738E-03
            1425     5.01100E-03     80.7626E-03    -92.6049E+06    -129.092E+06    -28.6385E+06    -258.691E+03    -231.835E-03     460.931E-03    -229.096E-03     141.867E-03    -235.094E-03     463.486E-03    -228.918E-03     123.685E-03
            1426     4.29477E-03     80.5847E-03    -101.100E+06    -158.960E+06    -47.8976E+06    -290.101E+03    -231.130E-03     460.228E-03    -229.098E-03     122.503E-03    -233.522E-03     461.836E-03    -228.960E-03     107.140E-03
            1427     3.57877E-03     80.4327E-03    -109.888E+06    -195.546E+06    -67.4440E+06    -144.381E+03    -230.561E-03     459.671E-03    -229.109E-03     102.623E-03    -232.223E-03     460.444E-03    -229.004E-03     90.0233E-03
            1428     2.86314E-03     80.3073E-03    -118.226E+06    -223.707E+06    -86.9937E+06     113.919E+03    -230.079E-03     459.178E-03    -229.099E-03     82.5919E-03    -231.166E-03     459.303E-03    -229.038E-03     72.6439E-03
            1429     2.14740E-03     80.2086E-03    -125.169E+06    -242.439E+06    -106.084E+06     275.851E+03    -229.628E-03     458.696E-03    -229.068E-03     62.4763E-03    -230.285E-03     458.355E-03    -229.065E-03     55.0694E-03
            1430     1.43152E-03     80.1371E-03    -130.526E+06    -262.136E+06    -121.963E+06      87.945E+03    -229.314E-03     458.365E-03    -229.051E-03     42.3760E-03    -229.659E-03     457.669E-03    -229.091E-03     37.4093E-03
            1431     715.733E-06     80.0932E-03    -134.009E+06    -276.577E+06    -131.945E+06    -187.218E+03    -229.189E-03     458.185E-03    -228.996E-03     22.9276E-03    -229.347E-03     457.269E-03    -229.061E-03     20.2382E-03
            1432     13.6041E-03     82.5604E-03    -4.35225E+06     63.2494E+06     82.2552E+06     687.224E+03    -231.099E-03     460.102E-03    -229.003E-03     161.991E-03    -236.540E-03     465.513E-03    -228.677E-03     138.342E-03
            1433     12.8871E-03     82.3001E-03    -7.98222E+06     61.1725E+06     80.9161E+06     191.997E+03    -233.121E-03     462.140E-03    -229.019E-03     199.355E-03    -240.959E-03     469.932E-03    -228.691E-03     170.024E-03
            1434     12.1724E-03     82.0342E-03    -13.0524E+06     57.3049E+06     78.8881E+06     473.180E+03    -233.679E-03     462.690E-03    -229.011E-03     209.097E-03    -242.419E-03     471.359E-03    -228.681E-03     178.169E-03
            1435     11.4566E-03     81.7428E-03    -20.1909E+06     50.7680E+06     78.0345E+06     212.225E+03    -234.238E-03     463.251E-03    -229.013E-03     222.210E-03    -244.041E-03     472.937E-03    -228.667E-03     189.541E-03
            1436     10.7407E-03     81.4422E-03    -27.3192E+06     42.9606E+06     73.7548E+06    -939.159E+03    -234.678E-03     463.686E-03    -229.008E-03     229.120E-03    -244.910E-03     473.760E-03    -228.662E-03     195.876E-03
            1437     10.0245E-03     81.1317E-03    -33.8607E+06     34.5760E+06     63.4967E+06    -929.516E+03    -235.065E-03     464.051E-03    -228.986E-03     232.797E-03    -245.336E-03     474.140E-03    -228.669E-03     199.585E-03
            1438     9.30847E-03     80.8196E-03    -41.0384E+06     26.4968E+06     53.1543E+06    -815.473E+03    -235.117E-03     464.095E-03    -228.978E-03     230.890E-03    -244.971E-03     473.743E-03    -228.691E-03     198.377E-03
            1439     8.59198E-03     80.5140E-03    -49.2618E+06     18.5515E+06     45.1209E+06    -922.009E+03    -234.829E-03     463.826E-03    -228.997E-03     223.542E-03    -243.882E-03     472.639E-03    -228.727E-03     192.402E-03
            1440     7.87567E-03     80.2218E-03    -58.0400E+06     8.02868E+06     37.1765E+06    -1.02543E+06    -234.346E-03     463.376E-03    -229.030E-03     211.462E-03    -242.307E-03     471.052E-03    -228.771E-03     182.327E-03
            1441     7.15909E-03     79.9486E-03    -66.4627E+06    -14.2659E+06     25.8019E+06    -1.00901E+06    -233.856E-03     462.916E-03    -229.060E-03     196.175E-03    -240.576E-03     469.274E-03    -228.814E-03     169.494E-03
            1442     6.44308E-03     79.6965E-03    -74.8280E+06    -52.7080E+06     8.92119E+06    -956.025E+03    -233.254E-03     462.331E-03    -229.077E-03     178.899E-03    -238.708E-03     467.306E-03    -228.847E-03     154.957E-03
            1443     5.72700E-03     79.4684E-03    -83.4168E+06    -94.7225E+06    -9.81111E+06    -789.853E+03    -232.517E-03     461.608E-03    -229.090E-03     160.555E-03    -236.793E-03     465.279E-03    -228.881E-03     139.498E-03
            1444     5.01084E-03     79.2649E-03    -92.1700E+06    -129.449E+06    -28.5271E+06    -707.740E+03    -231.799E-03     460.898E-03    -229.099E-03     141.609E-03    -235.052E-03     463.447E-03    -228.920E-03     123.421E-03
            1445     4.29499E-03     79.0870E-03    -101.390E+06    -159.291E+06    -47.6945E+06    -368.106E+03    -231.157E-03     460.256E-03    -229.099E-03     122.261E-03    -233.548E-03     461.860E-03    -228.960E-03     106.898E-03
            1446     3.57914E-03     78.9349E-03    -110.270E+06    -195.661E+06    -67.4499E+06     123.185E+03    -230.618E-03     459.716E-03    -229.098E-03     102.617E-03    -232.281E-03     460.489E-03    -228.992E-03     90.0184E-03
            1447     2.86314E-03     78.8095E-03    -118.383E+06    -224.167E+06    -87.5011E+06     9.97117E+03    -230.133E-03     459.203E-03    -229.069E-03     82.7476E-03    -231.221E-03     459.328E-03    -229.010E-03     72.7955E-03
            1448     2.14732E-03     78.7109E-03    -125.323E+06    -242.551E+06    -106.256E+06    -17.2292E+03    -229.654E-03     458.673E-03    -229.019E-03     62.6151E-03    -230.311E-03     458.332E-03    -229.017E-03     55.2070E-03
            1449     1.43150E-03     78.6398E-03    -130.562E+06    -261.864E+06    -121.443E+06     204.868E+03    -229.261E-03     458.252E-03    -228.992E-03     42.4377E-03    -229.607E-03     457.558E-03    -229.030E-03     37.4775E-03
            1450     715.691E-06     78.5953E-03    -134.237E+06    -276.537E+06    -131.758E+06     252.678E+03    -229.058E-03     458.059E-03    -229.000E-03     22.9006E-03    -229.217E-03     457.142E-03    -229.064E-03     20.2166E-03
            1451     13.6036E-03     81.0646E-03    -3.94046E+06     63.6060E+06      83.407E+06    -161.269E+03    -231.680E-03     460.691E-03    -229.011E-03     161.382E-03    -237.108E-03     466.089E-03    -228.681E-03     137.677E-03
            1452     12.8889E-03     80.7981E-03    -7.91141E+06     61.2052E+06     81.8366E+06    -667.468E+03    -233.415E-03     462.410E-03    -228.995E-03     198.016E-03    -241.253E-03     470.200E-03    -228.663E-03     168.549E-03
            1453     12.1734E-03     80.5360E-03    -13.5246E+06     55.2637E+06     78.6458E+06     325.079E+03    -233.634E-03     462.602E-03    -228.968E-03     208.674E-03    -242.382E-03     471.270E-03    -228.635E-03     177.695E-03
            1454     11.4570E-03     80.2447E-03    -18.6042E+06     52.0815E+06     79.0412E+06     1.28684E+06    -233.969E-03     462.943E-03    -228.974E-03     222.220E-03    -243.756E-03     472.620E-03    -228.627E-03     189.635E-03
            1455     10.7408E-03     79.9439E-03    -24.8255E+06     45.6402E+06     75.4444E+06     1.00562E+06    -234.357E-03     463.346E-03    -228.989E-03     229.263E-03    -244.559E-03     473.404E-03    -228.642E-03     196.158E-03
            1456     10.0247E-03     79.6337E-03    -32.4760E+06     35.3277E+06     64.9372E+06     203.509E+03    -234.905E-03     463.896E-03    -228.991E-03     233.188E-03    -245.168E-03     473.980E-03    -228.670E-03     200.044E-03
            1457     9.30802E-03     79.3222E-03    -40.3062E+06     26.6719E+06     54.2962E+06     239.389E+03    -235.061E-03     464.058E-03    -228.997E-03     231.141E-03    -244.912E-03     473.703E-03    -228.705E-03     198.671E-03
            1458     8.59162E-03     79.0161E-03    -47.9750E+06     19.4540E+06     46.2979E+06     405.519E+03    -234.829E-03     463.849E-03    -229.020E-03     223.451E-03    -243.870E-03     472.654E-03    -228.747E-03     192.353E-03
            1459     7.87511E-03     78.7244E-03    -55.9970E+06     9.84796E+06     38.7189E+06    -482.968E+03    -234.460E-03     463.508E-03    -229.048E-03     211.295E-03    -242.411E-03     471.183E-03    -228.787E-03     182.160E-03
            1460     7.15925E-03     78.4501E-03    -64.9001E+06    -14.0685E+06     26.4349E+06    -1.38417E+06    -233.982E-03     463.046E-03    -229.064E-03     195.947E-03    -240.692E-03     469.399E-03    -228.817E-03     169.243E-03
            1461     6.44327E-03     78.1987E-03    -74.0723E+06    -54.0412E+06     8.68461E+06    -1.48947E+06    -233.275E-03     462.345E-03    -229.070E-03     178.663E-03    -238.720E-03     467.310E-03    -228.841E-03     154.709E-03
            1462     5.72717E-03     77.9707E-03    -83.2710E+06    -95.6919E+06    -9.93269E+06    -1.13711E+06    -232.516E-03     461.596E-03    -229.081E-03     160.512E-03    -236.790E-03     465.264E-03    -228.871E-03     139.441E-03
            1463     5.01118E-03     77.7674E-03    -92.7812E+06    -129.968E+06    -28.8114E+06    -377.876E+03    -231.818E-03     460.904E-03    -229.086E-03     141.655E-03    -235.072E-03     463.450E-03    -228.907E-03     123.485E-03
            1464     4.29500E-03     77.5892E-03    -102.208E+06    -160.367E+06    -48.8003E+06    -206.184E+03    -231.160E-03     460.241E-03    -229.081E-03     122.321E-03    -233.550E-03     461.840E-03    -228.944E-03     106.974E-03
            1465     3.57888E-03     77.4374E-03    -110.633E+06    -196.813E+06    -68.1609E+06    -482.953E+03    -230.592E-03     459.673E-03    -229.082E-03     102.662E-03    -232.254E-03     460.442E-03    -228.977E-03     90.0533E-03
            1466     2.86314E-03     77.3116E-03    -118.252E+06    -224.045E+06    -87.3315E+06    -139.700E+03    -230.087E-03     459.148E-03    -229.060E-03     82.7223E-03    -231.175E-03     459.273E-03    -229.001E-03     72.7669E-03
            1467     2.14738E-03     77.2133E-03    -125.314E+06    -242.520E+06    -106.316E+06     21.5414E+03    -229.663E-03     458.673E-03    -229.010E-03     62.5641E-03    -230.321E-03     458.333E-03    -229.008E-03     55.1501E-03
            1468     1.43169E-03     77.1421E-03    -130.812E+06    -262.167E+06    -121.618E+06    -47.7545E+03    -229.310E-03     458.268E-03    -228.958E-03     42.3877E-03    -229.657E-03     457.573E-03    -228.996E-03     37.4161E-03
            1469     715.869E-06     77.0983E-03    -134.213E+06    -275.892E+06    -131.639E+06     27.2185E+03    -229.040E-03     457.947E-03    -228.907E-03     22.9390E-03    -229.200E-03     457.033E-03    -228.970E-03     20.2635E-03
            1470     13.6058E-03     79.5619E-03    -5.71423E+06     64.0512E+06     81.3064E+06    -1.00658E+06    -232.005E-03     460.946E-03    -228.940E-03     160.616E-03    -237.415E-03     466.326E-03    -228.618E-03     136.912E-03
            1471     12.8899E-03     79.3021E-03    -10.5965E+06     59.8304E+06     78.9118E+06    -778.861E+03    -232.837E-03     461.766E-03    -228.929E-03     198.480E-03    -240.655E-03     469.530E-03    -228.606E-03     169.188E-03
            1472     12.1729E-03     79.0360E-03    -15.1558E+06     53.4917E+06     77.4920E+06    -1.12781E+06    -233.198E-03     462.141E-03    -228.942E-03     209.383E-03    -241.955E-03     470.808E-03    -228.611E-03     178.469E-03
            1473     11.4576E-03     78.7472E-03    -20.4749E+06     49.5040E+06     78.3127E+06    -453.139E+03    -233.802E-03     462.775E-03    -228.974E-03     222.600E-03    -243.593E-03     472.443E-03    -228.624E-03     190.045E-03
            1474     10.7409E-03     78.4467E-03    -26.6948E+06     46.4566E+06     75.1491E+06     1.11276E+06    -234.223E-03     463.224E-03    -229.001E-03     229.759E-03    -244.426E-03     473.280E-03    -228.654E-03     196.728E-03
            1475     10.0239E-03     78.1361E-03    -33.6991E+06     37.1107E+06     64.2843E+06     744.687E+03    -234.884E-03     463.893E-03    -229.009E-03     233.317E-03    -245.146E-03     473.981E-03    -228.692E-03     200.202E-03
            1476     9.30789E-03     77.8239E-03    -40.4619E+06     26.1599E+06     54.2141E+06    -94.0251E+03    -235.179E-03     464.195E-03    -229.016E-03     230.882E-03    -245.031E-03     473.840E-03    -228.724E-03     198.375E-03
            1477     8.59165E-03     77.5189E-03    -47.4917E+06     19.9283E+06     47.2851E+06    -339.056E+03    -235.024E-03     464.051E-03    -229.027E-03     223.165E-03    -244.065E-03     472.857E-03    -228.750E-03     192.020E-03
            1478     7.87566E-03     77.2261E-03    -55.4079E+06     11.1021E+06     39.5018E+06    -586.170E+03    -234.589E-03     463.624E-03    -229.035E-03     211.078E-03    -242.534E-03     471.297E-03    -228.773E-03     181.931E-03
            1479     7.15937E-03     76.9522E-03    -64.2839E+06    -13.5609E+06     26.9308E+06    -716.458E+03    -233.884E-03     462.930E-03    -229.046E-03     195.757E-03    -240.584E-03     469.276E-03    -228.799E-03     169.083E-03
            1480     6.44321E-03     76.7007E-03    -73.9806E+06    -54.5786E+06     8.81406E+06    -649.600E+03    -233.150E-03     462.212E-03    -229.062E-03     178.597E-03    -238.590E-03     467.170E-03    -228.832E-03     154.675E-03
            1481     5.72708E-03     76.4731E-03    -83.9107E+06    -96.3511E+06    -10.3290E+06    -533.350E+03    -232.497E-03     461.576E-03    -229.079E-03     160.553E-03    -236.775E-03     465.244E-03    -228.869E-03     139.492E-03
            1482     5.01092E-03     76.2695E-03    -93.2245E+06    -130.784E+06    -29.2611E+06    -370.534E+03    -231.858E-03     460.940E-03    -229.082E-03     141.719E-03    -235.113E-03     463.484E-03    -228.904E-03     123.547E-03
            1483     4.29505E-03     76.0918E-03    -101.775E+06    -160.353E+06    -48.6837E+06    -310.857E+03    -231.209E-03     460.279E-03    -229.070E-03     122.287E-03    -233.596E-03     461.877E-03    -228.933E-03     106.936E-03
            1484     3.57927E-03     75.9395E-03    -110.381E+06    -197.042E+06    -68.5756E+06    -616.509E+03    -230.600E-03     459.661E-03    -229.061E-03     102.606E-03    -232.259E-03     460.428E-03    -228.958E-03     89.9998E-03
            1485     2.86325E-03     75.8142E-03    -118.635E+06    -224.955E+06    -87.8937E+06    -636.014E+03    -230.058E-03     459.098E-03    -229.039E-03     82.7042E-03    -231.144E-03     459.219E-03    -228.981E-03     72.7507E-03
            1486     2.14733E-03     75.7154E-03    -125.353E+06    -242.657E+06    -106.137E+06    -217.331E+03    -229.616E-03     458.614E-03    -228.997E-03     62.5265E-03    -230.274E-03     458.273E-03    -228.995E-03     55.1120E-03
            1487     1.43151E-03     75.6446E-03    -130.600E+06    -262.062E+06    -121.542E+06    -65.3161E+03    -229.311E-03     458.256E-03    -228.945E-03     42.3158E-03    -229.658E-03     457.562E-03    -228.983E-03     37.3314E-03
            1488     715.839E-06     75.6008E-03    -134.006E+06    -276.193E+06    -131.904E+06    -147.401E+03    -229.081E-03     457.911E-03    -228.830E-03     22.7836E-03    -229.240E-03     456.997E-03    -228.895E-03     20.0905E-03
            1489     13.6065E-03     78.0661E-03    -3.98655E+06     64.7544E+06     81.8993E+06     97.4560E+03    -231.432E-03     460.325E-03    -228.893E-03     161.176E-03    -236.827E-03     465.698E-03    -228.572E-03     137.557E-03
            1490     12.8892E-03     77.8034E-03    -9.78912E+06     60.1576E+06     78.8211E+06    -394.445E+03    -232.385E-03     461.297E-03    -228.912E-03     199.073E-03    -240.184E-03     469.046E-03    -228.591E-03     169.920E-03
            1491     12.1736E-03     77.5388E-03    -15.4014E+06     54.2645E+06     76.8825E+06    -550.987E+03    -232.799E-03     461.752E-03    -228.953E-03     209.976E-03    -241.556E-03     470.424E-03    -228.625E-03     179.148E-03
            1492     11.4562E-03     77.2487E-03    -21.6196E+06     48.1715E+06     77.2476E+06    -917.065E+03    -233.661E-03     462.670E-03    -229.009E-03     222.888E-03    -243.440E-03     472.319E-03    -228.661E-03     190.398E-03
            1493     10.7400E-03     76.9491E-03    -27.6067E+06     43.6565E+06     74.5842E+06    -1.09907E+06    -234.563E-03     463.601E-03    -229.038E-03     229.840E-03    -244.779E-03     473.657E-03    -228.688E-03     196.709E-03
            1494     10.0243E-03     76.6382E-03    -33.0115E+06     36.6385E+06     65.3643E+06    -13.2172E+03    -235.181E-03     464.206E-03    -229.026E-03     233.076E-03    -245.452E-03     474.301E-03    -228.704E-03     199.875E-03
            1495     9.30781E-03     76.3260E-03    -39.6196E+06     27.4375E+06     55.0785E+06     72.9067E+03    -235.275E-03     464.286E-03    -229.011E-03     230.490E-03    -245.120E-03     473.929E-03    -228.718E-03     197.966E-03
            1496     8.59178E-03     76.0205E-03    -47.4412E+06     20.3168E+06     47.2710E+06    -675.693E+03    -235.105E-03     464.114E-03    -229.009E-03     223.075E-03    -244.144E-03     472.919E-03    -228.733E-03     191.909E-03
            1497     7.87573E-03     75.7279E-03    -56.1207E+06     10.9622E+06     39.1829E+06    -712.038E+03    -234.560E-03     463.573E-03    -229.013E-03     211.133E-03    -242.508E-03     471.247E-03    -228.752E-03     181.984E-03
            1498     7.15968E-03     75.4547E-03    -65.2667E+06    -13.7788E+06     26.6607E+06    -511.281E+03    -233.748E-03     462.780E-03    -229.032E-03     195.805E-03    -240.452E-03     469.126E-03    -228.784E-03     169.153E-03
            1499     6.44328E-03     75.2031E-03    -74.7503E+06    -54.8647E+06     8.55049E+06    -233.752E+03    -233.098E-03     462.155E-03    -229.057E-03     178.653E-03    -238.538E-03     467.110E-03    -228.826E-03     154.759E-03
            1500     5.72709E-03     74.9754E-03    -83.6868E+06    -96.2904E+06    -10.1931E+06    -303.873E+03    -232.541E-03     461.614E-03    -229.073E-03     160.412E-03    -236.815E-03     465.279E-03    -228.863E-03     139.351E-03
            1501     5.01113E-03     74.7719E-03    -92.6748E+06    -130.986E+06    -29.1365E+06    -592.557E+03    -231.884E-03     460.952E-03    -229.068E-03     141.515E-03    -235.134E-03     463.493E-03    -228.890E-03     123.333E-03
            1502     4.29513E-03     74.5937E-03    -101.728E+06    -160.869E+06    -48.4786E+06    -610.127E+03    -231.190E-03     460.243E-03    -229.053E-03     122.173E-03    -233.574E-03     461.835E-03    -228.914E-03     106.829E-03
            1503     3.57906E-03     74.4421E-03    -110.392E+06    -196.897E+06    -68.1027E+06    -236.667E+03    -230.596E-03     459.638E-03    -229.042E-03     102.564E-03    -232.256E-03     460.405E-03    -228.937E-03     89.9606E-03
            1504     2.86327E-03     74.3165E-03    -118.493E+06    -224.984E+06    -88.0613E+06    -281.370E+03    -230.050E-03     459.062E-03    -229.012E-03     82.6725E-03    -231.136E-03     459.184E-03    -228.954E-03     72.7187E-03
            1505     2.14751E-03     74.2180E-03    -125.705E+06    -243.371E+06    -106.942E+06    -494.484E+03    -229.560E-03     458.532E-03    -228.972E-03     62.4959E-03    -230.216E-03     458.188E-03    -228.972E-03     55.0848E-03
            1506     1.43167E-03     74.1470E-03    -131.197E+06    -262.528E+06    -122.354E+06    -302.329E+03    -229.221E-03     458.170E-03    -228.949E-03     42.3227E-03    -229.569E-03     457.475E-03    -228.990E-03     37.3408E-03
            1507     715.879E-06     74.1033E-03    -134.243E+06    -276.467E+06    -132.045E+06    -151.809E+03    -229.144E-03     457.971E-03    -228.827E-03     22.6998E-03    -229.303E-03     457.056E-03    -228.891E-03     19.9989E-03
            1508     13.6055E-03     76.5672E-03    -3.96709E+06     64.8062E+06     82.5702E+06     635.994E+03    -231.452E-03     460.371E-03    -228.919E-03     161.701E-03    -236.856E-03     465.751E-03    -228.594E-03     138.099E-03
            1509     12.8901E-03     76.3069E-03    -8.91991E+06     61.8388E+06     80.2012E+06     821.484E+03    -232.570E-03     461.505E-03    -228.935E-03     199.265E-03    -240.377E-03     469.268E-03    -228.611E-03     170.109E-03
            1510     12.1722E-03     76.0412E-03    -13.9095E+06     55.2800E+06     77.7512E+06     142.663E+03    -232.825E-03     461.794E-03    -228.969E-03     209.560E-03    -241.564E-03     470.454E-03    -228.640E-03     178.744E-03
            1511     11.4562E-03     75.7516E-03    -19.3274E+06     49.8876E+06     78.0059E+06    -501.466E+03    -233.706E-03     462.721E-03    -229.016E-03     221.995E-03    -243.448E-03     472.346E-03    -228.670E-03     189.517E-03
            1512     10.7399E-03     75.4500E-03    -25.9863E+06     42.1210E+06     74.3629E+06    -1.31795E+06    -234.639E-03     463.674E-03    -229.035E-03     229.052E-03    -244.827E-03     473.704E-03    -228.686E-03     195.894E-03
            1513     10.0240E-03     75.1395E-03    -33.1111E+06     34.5801E+06     65.2023E+06    -1.30699E+06    -235.224E-03     464.239E-03    -229.015E-03     232.610E-03    -245.491E-03     474.322E-03    -228.691E-03     199.359E-03
            1514     9.30838E-03     74.8281E-03    -40.2222E+06     27.9818E+06     55.5835E+06    -671.655E+03    -235.298E-03     464.292E-03    -228.994E-03     230.466E-03    -245.141E-03     473.931E-03    -228.698E-03     197.946E-03
            1515     8.59212E-03     74.5226E-03    -47.6827E+06     20.1932E+06     47.2624E+06    -225.681E+03    -235.030E-03     464.021E-03    -228.991E-03     223.148E-03    -244.064E-03     472.821E-03    -228.715E-03     192.016E-03
            1516     7.87587E-03     74.2300E-03    -55.7560E+06     11.0706E+06     39.5370E+06    -78.2219E+03    -234.395E-03     463.402E-03    -229.006E-03     211.118E-03    -242.342E-03     471.075E-03    -228.744E-03     182.000E-03
            1517     7.15938E-03     73.9570E-03    -64.9317E+06    -14.0584E+06     26.7904E+06    -95.9328E+03    -233.748E-03     462.780E-03    -229.032E-03     195.821E-03    -240.450E-03     469.124E-03    -228.783E-03     169.177E-03
            1518     6.44323E-03     73.7056E-03    -74.0813E+06    -54.6188E+06     8.89560E+06    -230.823E+03    -233.242E-03     462.291E-03    -229.049E-03     178.666E-03    -238.679E-03     467.246E-03    -228.818E-03     154.762E-03
            1519     5.72723E-03     73.4773E-03    -83.3945E+06    -96.3223E+06    -10.0411E+06    -478.190E+03    -232.615E-03     461.666E-03    -229.050E-03     160.275E-03    -236.883E-03     465.325E-03    -228.840E-03     139.220E-03
            1520     5.01132E-03     73.2742E-03    -92.6168E+06    -130.946E+06    -28.9888E+06    -428.458E+03    -231.839E-03     460.879E-03    -229.040E-03     141.410E-03    -235.088E-03     463.419E-03    -228.861E-03     123.231E-03
            1521     4.29524E-03     73.0964E-03    -101.726E+06    -161.072E+06    -48.7341E+06    -179.774E+03    -231.127E-03     460.153E-03    -229.026E-03     122.168E-03    -233.511E-03     461.745E-03    -228.889E-03     106.834E-03
            1522     3.57937E-03     72.9444E-03    -110.526E+06    -197.459E+06    -68.2207E+06    -250.539E+03    -230.555E-03     459.577E-03    -229.022E-03     102.559E-03    -232.216E-03     460.342E-03    -228.916E-03     89.9510E-03
            1523     2.86346E-03     72.8190E-03    -118.527E+06    -224.794E+06    -87.6166E+06    -88.9006E+03    -230.004E-03     459.003E-03    -228.999E-03     82.7012E-03    -231.092E-03     459.127E-03    -228.939E-03     72.7393E-03
            1524     2.14743E-03     72.7206E-03    -125.585E+06    -243.368E+06    -106.914E+06     45.6124E+03    -229.520E-03     458.487E-03    -228.967E-03     62.5701E-03    -230.175E-03     458.143E-03    -228.967E-03     55.1733E-03
            1525     1.43155E-03     72.6496E-03    -130.960E+06    -262.939E+06    -122.517E+06    -177.284E+03    -229.174E-03     458.142E-03    -228.968E-03     42.3276E-03    -229.519E-03     457.444E-03    -229.009E-03     37.3598E-03
            1526     715.560E-06     72.6061E-03    -134.421E+06    -276.854E+06    -132.560E+06    -298.995E+03    -229.081E-03     458.045E-03    -228.965E-03     22.8946E-03    -229.239E-03     457.129E-03    -229.031E-03     20.1950E-03
            1527     13.6051E-03     75.0684E-03    -4.52416E+06     64.1104E+06     82.2555E+06    -147.855E+03    -231.525E-03     460.491E-03    -228.966E-03     161.658E-03    -236.959E-03     465.898E-03    -228.641E-03     137.956E-03
            1528     12.8882E-03     74.8084E-03    -8.07002E+06     62.1579E+06     81.2234E+06    -147.941E+03    -233.143E-03     462.108E-03    -228.966E-03     198.926E-03    -240.984E-03     469.906E-03    -228.638E-03     169.562E-03
            1529     12.1736E-03     74.5435E-03    -12.7509E+06     56.4275E+06     79.2849E+06    -34.2264E+03    -233.355E-03     462.319E-03    -228.964E-03     208.856E-03    -242.084E-03     470.973E-03    -228.631E-03     177.981E-03
            1530     11.4572E-03     74.2539E-03    -18.7308E+06     50.8991E+06     79.3220E+06     38.1379E+03    -233.851E-03     462.837E-03    -228.987E-03     222.097E-03    -243.604E-03     472.475E-03    -228.637E-03     189.592E-03
            1531     10.7411E-03     73.9523E-03    -26.0380E+06     43.6872E+06     74.8492E+06     249.272E+03    -234.494E-03     463.496E-03    -229.002E-03     229.344E-03    -244.680E-03     473.527E-03    -228.653E-03     196.255E-03
            1532     10.0247E-03     73.6416E-03    -33.5860E+06     34.9275E+06     63.8659E+06    -893.681E+03    -235.009E-03     463.999E-03    -228.990E-03     232.791E-03    -245.262E-03     474.072E-03    -228.673E-03     199.615E-03
            1533     9.30808E-03     73.3300E-03    -40.7473E+06     26.4202E+06     54.0517E+06    -1.50646E+06    -235.232E-03     464.215E-03    -228.983E-03     230.746E-03    -245.085E-03     473.861E-03    -228.692E-03     198.198E-03
            1534     8.59208E-03     73.0245E-03    -48.2507E+06     19.1604E+06     46.7187E+06    -900.424E+03    -235.004E-03     463.994E-03    -228.989E-03     223.293E-03    -244.047E-03     472.798E-03    -228.714E-03     192.144E-03
            1535     7.87573E-03     72.7326E-03    -56.3718E+06     9.88520E+06     38.8714E+06    -383.262E+03    -234.450E-03     463.453E-03    -229.003E-03     211.031E-03    -242.392E-03     471.118E-03    -228.741E-03     181.913E-03
            1536     7.15949E-03     72.4593E-03    -64.9306E+06    -14.0224E+06     26.7703E+06    -152.849E+03    -233.884E-03     462.902E-03    -229.017E-03     195.544E-03    -240.576E-03     469.236E-03    -228.769E-03     168.904E-03
            1537     6.44344E-03     72.2075E-03    -74.1126E+06    -54.2506E+06     9.11818E+06    -228.797E+03    -233.263E-03     462.285E-03    -229.022E-03     178.402E-03    -238.696E-03     467.236E-03    -228.791E-03     154.494E-03
            1538     5.72755E-03     71.9795E-03    -83.5417E+06    -96.1445E+06    -10.0545E+06    -54.4839E+03    -232.500E-03     461.523E-03    -229.023E-03     160.202E-03    -236.768E-03     465.182E-03    -228.813E-03     139.164E-03
            1539     5.01137E-03     71.7768E-03    -92.9819E+06    -131.062E+06    -29.3982E+06    -92.4001E+03    -231.767E-03     460.788E-03    -229.021E-03     141.460E-03    -235.017E-03     463.328E-03    -228.843E-03     123.297E-03
            1540     4.29535E-03     71.5988E-03    -102.214E+06    -161.260E+06    -49.0924E+06    -81.4417E+03    -231.094E-03     460.108E-03    -229.014E-03     122.311E-03    -233.482E-03     461.703E-03    -228.877E-03     106.971E-03
            1541     3.57925E-03     71.4470E-03    -110.761E+06    -197.431E+06    -68.6494E+06    -28.2129E+03    -230.513E-03     459.529E-03    -229.016E-03     102.708E-03    -232.174E-03     460.295E-03    -228.912E-03     90.1138E-03
            1542     2.86326E-03     71.3216E-03    -119.009E+06    -225.361E+06    -88.2780E+06    -197.178E+03    -230.005E-03     459.003E-03    -228.999E-03     82.7057E-03    -231.093E-03     459.126E-03    -228.941E-03     72.7461E-03
            1543     2.14744E-03     71.2233E-03    -125.983E+06    -243.372E+06    -107.007E+06    -30.3748E+03    -229.539E-03     458.502E-03    -228.964E-03     62.4644E-03    -230.196E-03     458.159E-03    -228.963E-03     55.0565E-03
            1544     1.43158E-03     71.1521E-03    -131.228E+06    -262.844E+06    -122.453E+06     145.861E+03    -229.206E-03     458.150E-03    -228.945E-03     42.1737E-03    -229.552E-03     457.453E-03    -228.986E-03     37.2120E-03
            1545     715.898E-06     71.1087E-03    -135.076E+06    -277.214E+06    -132.587E+06     194.901E+03    -229.039E-03     457.965E-03    -228.926E-03     22.7993E-03    -229.199E-03     457.047E-03    -228.992E-03     20.1275E-03
            1546     13.6041E-03     73.5716E-03    -4.10497E+06     64.5182E+06     82.4054E+06    -941.642E+03    -231.544E-03     460.511E-03    -228.966E-03     160.850E-03    -236.968E-03     465.910E-03    -228.642E-03     137.106E-03
            1547     12.8893E-03     73.3070E-03    -8.88238E+06     61.3336E+06     80.4589E+06    -959.119E+03    -232.958E-03     461.923E-03    -228.965E-03     198.195E-03    -240.780E-03     469.698E-03    -228.638E-03     168.856E-03
            1548     12.1731E-03     73.0455E-03    -14.8781E+06     55.4239E+06     78.1380E+06    -149.560E+03    -233.316E-03     462.285E-03    -228.969E-03     209.293E-03    -242.060E-03     470.946E-03    -228.637E-03     178.426E-03
            1549     11.4570E-03     72.7557E-03    -20.7461E+06     50.4693E+06     78.5001E+06    -203.714E+03    -234.095E-03     463.086E-03    -228.992E-03     223.117E-03    -243.895E-03     472.764E-03    -228.642E-03     190.542E-03
            1550     10.7406E-03     72.4542E-03    -26.1208E+06     44.6293E+06     75.4163E+06    -445.419E+03    -234.567E-03     463.572E-03    -229.005E-03     229.925E-03    -244.781E-03     473.633E-03    -228.655E-03     196.789E-03
            1551     10.0242E-03     72.1440E-03    -32.3345E+06     35.7929E+06     64.9763E+06     91.1214E+03    -235.031E-03     464.026E-03    -228.995E-03     233.140E-03    -245.283E-03     474.102E-03    -228.675E-03     200.000E-03
            1552     9.30827E-03     71.8318E-03    -39.9752E+06     26.6598E+06     54.0138E+06    -54.2016E+03    -235.249E-03     464.235E-03    -228.986E-03     230.740E-03    -245.094E-03     473.876E-03    -228.696E-03     198.220E-03
            1553     8.59184E-03     71.5268E-03    -48.3341E+06     19.0603E+06     46.0131E+06    -507.330E+03    -235.096E-03     464.081E-03    -228.985E-03     222.969E-03    -244.127E-03     472.874E-03    -228.712E-03     191.826E-03
            1554     7.87581E-03     71.2345E-03    -56.9372E+06     9.25009E+06     38.2368E+06    -854.048E+03    -234.605E-03     463.591E-03    -228.985E-03     210.721E-03    -242.545E-03     471.249E-03    -228.725E-03     181.576E-03
            1555     7.15995E-03     70.9613E-03    -65.9205E+06    -14.7034E+06     25.9525E+06    -714.420E+03    -233.950E-03     462.934E-03    -228.984E-03     195.527E-03    -240.647E-03     469.270E-03    -228.737E-03     168.864E-03
            1556     6.44394E-03     70.7097E-03    -75.0395E+06    -54.9049E+06     8.17117E+06    -428.509E+03    -233.154E-03     462.141E-03    -228.987E-03     178.385E-03    -238.589E-03     467.090E-03    -228.757E-03     154.489E-03
            1557     5.72746E-03     70.4824E-03    -84.1629E+06    -96.4084E+06    -10.4869E+06    -9.10837E+03    -232.338E-03     461.340E-03    -229.002E-03     160.196E-03    -236.605E-03     464.997E-03    -228.793E-03     139.180E-03
            1558     5.01135E-03     70.2790E-03    -93.4537E+06    -130.984E+06    -29.6674E+06     277.563E+03    -231.682E-03     460.696E-03    -229.014E-03     141.492E-03    -234.932E-03     463.235E-03    -228.837E-03     123.354E-03
            1559     4.29526E-03     70.1016E-03    -102.352E+06    -161.203E+06    -49.3619E+06    -99.1917E+03    -231.073E-03     460.088E-03    -229.015E-03     122.289E-03    -233.461E-03     461.683E-03    -228.880E-03     106.948E-03
            1560     3.57922E-03     69.9495E-03    -111.120E+06    -197.453E+06    -68.9519E+06    -151.361E+03    -230.518E-03     459.536E-03    -229.019E-03     102.665E-03    -232.180E-03     460.303E-03    -228.916E-03     90.0638E-03
            1561     2.86340E-03     69.8241E-03    -119.341E+06    -225.365E+06    -88.4803E+06     46.9553E+03    -230.031E-03     459.028E-03    -228.997E-03     82.6474E-03    -231.119E-03     459.149E-03    -228.940E-03     72.7030E-03
            1562     2.14754E-03     69.7258E-03    -126.478E+06    -243.609E+06    -107.342E+06    -11.9409E+03    -229.565E-03     458.517E-03    -228.952E-03     62.4380E-03    -230.224E-03     458.173E-03    -228.952E-03     55.0358E-03
            1563     1.43172E-03     69.6549E-03    -132.026E+06    -262.999E+06    -122.769E+06     52.5518E+03    -229.198E-03     458.122E-03    -228.924E-03     42.3001E-03    -229.548E-03     457.425E-03    -228.965E-03     37.3464E-03
            1564     715.793E-06     69.6111E-03    -135.176E+06    -276.746E+06    -132.866E+06     257.405E+03    -229.210E-03     457.917E-03    -228.707E-03     22.9514E-03    -229.372E-03     457.003E-03    -228.774E-03     20.2896E-03
            1565     13.6064E-03     72.0708E-03    -5.25898E+06     65.5881E+06     81.9593E+06    -602.874E+03    -231.402E-03     460.340E-03    -228.938E-03     161.171E-03    -236.825E-03     465.740E-03    -228.616E-03     137.494E-03
            1566     12.8894E-03     71.8112E-03    -10.6614E+06     60.7676E+06     79.3314E+06    -649.399E+03    -232.413E-03     461.371E-03    -228.958E-03     198.581E-03    -240.217E-03     469.123E-03    -228.634E-03     169.405E-03
            1567     12.1720E-03     71.5471E-03    -15.5112E+06     54.1054E+06     77.3667E+06    -796.730E+03    -233.096E-03     462.085E-03    -228.988E-03     209.284E-03    -241.830E-03     470.731E-03    -228.657E-03     178.449E-03
            1568     11.4562E-03     71.2560E-03    -20.6418E+06     50.8161E+06     78.0663E+06    -1.08408E+06    -234.086E-03     463.101E-03    -229.015E-03     222.557E-03    -243.878E-03     472.773E-03    -228.668E-03     189.941E-03
            1569     10.7405E-03     70.9568E-03    -27.1236E+06     44.5422E+06     74.5692E+06    -1.40607E+06    -234.672E-03     463.693E-03    -229.021E-03     229.478E-03    -244.889E-03     473.756E-03    -228.673E-03     196.288E-03
            1570     10.0244E-03     70.6454E-03    -34.6215E+06     34.1822E+06     63.8621E+06    -1.09015E+06    -235.193E-03     464.194E-03    -229.001E-03     232.914E-03    -245.454E-03     474.268E-03    -228.681E-03     199.717E-03
            1571     9.30800E-03     70.3343E-03    -41.8225E+06     26.2840E+06     53.6705E+06    -312.582E+03    -235.415E-03     464.392E-03    -228.977E-03     230.421E-03    -245.250E-03     474.017E-03    -228.686E-03     197.913E-03
            1572     8.59225E-03     70.0280E-03    -48.9327E+06     19.8451E+06     46.0222E+06    -214.231E+03    -235.168E-03     464.128E-03    -228.961E-03     222.628E-03    -244.193E-03     472.917E-03    -228.688E-03     191.489E-03
            1573     7.87634E-03     69.7369E-03    -57.3027E+06     9.69544E+06     37.7838E+06    -691.331E+03    -234.533E-03     463.488E-03    -228.954E-03     210.645E-03    -242.471E-03     471.147E-03    -228.696E-03     181.513E-03
            1574     7.15997E-03     69.4632E-03    -66.4691E+06    -15.5820E+06     25.1337E+06    -804.463E+03    -233.789E-03     462.751E-03    -228.962E-03     195.642E-03    -240.487E-03     469.085E-03    -228.718E-03     168.996E-03
            1575     6.44371E-03     69.2123E-03    -75.7666E+06    -55.5811E+06     7.31343E+06    -332.464E+03    -233.028E-03     462.008E-03    -228.981E-03     178.531E-03    -238.464E-03     466.957E-03    -228.754E-03     154.658E-03
            1576     5.72777E-03     68.9850E-03    -85.0772E+06    -97.2169E+06    -11.6344E+06    -419.480E+03    -232.362E-03     461.365E-03    -229.003E-03     160.468E-03    -236.634E-03     465.023E-03    -228.797E-03     139.449E-03
            1577     5.01141E-03     68.7821E-03    -93.7544E+06    -131.194E+06    -29.8510E+06    -309.974E+03    -231.717E-03     460.734E-03    -229.018E-03     141.638E-03    -234.969E-03     463.275E-03    -228.841E-03     123.488E-03
            1578     4.29526E-03     68.6038E-03    -102.706E+06    -160.631E+06    -49.3032E+06     76.5916E+03    -231.080E-03     460.097E-03    -229.017E-03     122.302E-03    -233.469E-03     461.694E-03    -228.882E-03     106.975E-03
            1579     3.57935E-03     68.4522E-03    -111.703E+06    -197.695E+06    -69.4508E+06     1.55468E+03    -230.560E-03     459.575E-03    -229.015E-03     102.718E-03    -232.225E-03     460.343E-03    -228.913E-03     90.1149E-03
            1580     2.86330E-03     68.3265E-03    -119.743E+06    -225.340E+06    -88.8448E+06     135.548E+03    -230.027E-03     459.015E-03    -228.988E-03     82.6093E-03    -231.116E-03     459.137E-03    -228.932E-03     72.6755E-03
            1581     2.14744E-03     68.2283E-03    -126.815E+06    -243.522E+06    -107.697E+06     75.2550E+03    -229.511E-03     458.462E-03    -228.951E-03     62.3440E-03    -230.170E-03     458.118E-03    -228.952E-03     54.9571E-03
            1582     1.43154E-03     68.1576E-03    -132.194E+06    -263.043E+06    -123.082E+06    -131.558E+03    -229.171E-03     458.113E-03    -228.942E-03     42.3036E-03    -229.522E-03     457.418E-03    -228.984E-03     37.3332E-03
            1583     715.731E-06     68.1138E-03    -135.564E+06    -276.776E+06    -133.414E+06    -158.357E+03    -229.286E-03     457.975E-03    -228.689E-03     23.0603E-03    -229.450E-03     457.062E-03    -228.758E-03     20.3778E-03
            1584     13.6050E-03     70.5748E-03    -4.43717E+06     66.0045E+06     83.0725E+06     406.863E+03    -231.113E-03     460.061E-03    -228.948E-03     161.417E-03    -236.532E-03     465.457E-03    -228.622E-03     137.800E-03
            1585     12.8881E-03     70.3128E-03    -9.04332E+06     62.0534E+06     80.5839E+06     101.084E+03    -232.620E-03     461.590E-03    -228.970E-03     198.770E-03    -240.426E-03     469.350E-03    -228.644E-03     169.570E-03
            1586     12.1733E-03     70.0487E-03    -14.4612E+06     55.0034E+06     78.0446E+06    -939.484E+03    -233.245E-03     462.234E-03    -228.988E-03     209.139E-03    -241.984E-03     470.890E-03    -228.657E-03     178.240E-03
            1587     11.4567E-03     69.7589E-03    -20.9192E+06     50.0563E+06     78.0125E+06    -824.678E+03    -233.958E-03     462.972E-03    -229.014E-03     222.330E-03    -243.731E-03     472.622E-03    -228.666E-03     189.767E-03
            1588     10.7403E-03     69.4572E-03    -28.0693E+06     44.8957E+06     73.9545E+06    -551.173E+03    -234.746E-03     463.762E-03    -229.016E-03     229.180E-03    -244.957E-03     473.819E-03    -228.671E-03     195.995E-03
            1589     10.0243E-03     69.1481E-03    -35.0416E+06     33.9889E+06     63.2066E+06    -1.24489E+06    -235.442E-03     464.421E-03    -228.980E-03     232.474E-03    -245.701E-03     474.494E-03    -228.662E-03     199.218E-03
            1590     9.30868E-03     68.8351E-03    -41.9137E+06     25.1600E+06     53.4662E+06    -1.10251E+06    -235.426E-03     464.369E-03    -228.943E-03     229.991E-03    -245.251E-03     473.979E-03    -228.651E-03     197.473E-03
            1591     8.59266E-03     68.5306E-03    -49.5392E+06     19.6297E+06     45.7406E+06    -871.796E+03    -234.917E-03     463.847E-03    -228.930E-03     222.605E-03    -243.939E-03     472.630E-03    -228.658E-03     191.499E-03
            1592     7.87621E-03     68.2388E-03    -57.6980E+06     9.65581E+06     37.4252E+06    -566.281E+03    -234.342E-03     463.284E-03    -228.942E-03     210.919E-03    -242.277E-03     470.940E-03    -228.685E-03     181.834E-03
            1593     7.16011E-03     67.9660E-03    -66.6347E+06    -15.5468E+06     24.8367E+06    -405.921E+03    -233.655E-03     462.624E-03    -228.969E-03     195.744E-03    -240.348E-03     468.953E-03    -228.725E-03     169.143E-03
            1594     6.44367E-03     67.7150E-03    -75.8799E+06    -56.1370E+06     7.07366E+06    -497.180E+03    -232.970E-03     461.971E-03    -229.001E-03     178.590E-03    -238.403E-03     466.915E-03    -228.774E-03     154.729E-03
            1595     5.72705E-03     67.4875E-03    -84.8884E+06    -97.0926E+06    -11.5885E+06    -385.678E+03    -232.412E-03     461.440E-03    -229.027E-03     160.512E-03    -236.685E-03     465.100E-03    -228.821E-03     139.485E-03
            1596     5.01129E-03     67.2841E-03    -94.3963E+06    -131.899E+06    -30.8089E+06    -475.770E+03    -231.827E-03     460.859E-03    -229.032E-03     141.677E-03    -235.080E-03     463.397E-03    -228.857E-03     123.521E-03
            1597     4.29528E-03     67.1069E-03    -103.501E+06    -161.518E+06    -50.0206E+06    -285.323E+03    -231.196E-03     460.213E-03    -229.016E-03     122.290E-03    -233.586E-03     461.806E-03    -228.882E-03     106.958E-03
            1598     3.57913E-03     66.9543E-03    -111.790E+06    -197.455E+06    -69.2820E+06     11.4659E+03    -230.579E-03     459.581E-03    -229.002E-03     102.564E-03    -232.245E-03     460.350E-03    -228.900E-03     89.9567E-03
            1599     2.86353E-03     66.8291E-03    -119.746E+06    -225.322E+06    -88.9980E+06     42.0523E+03    -229.976E-03     458.949E-03    -228.973E-03     82.4907E-03    -231.064E-03     459.070E-03    -228.918E-03     72.5573E-03
            1600     2.14755E-03     66.7311E-03    -126.602E+06    -243.486E+06    -107.762E+06     22.9149E+03    -229.502E-03     458.441E-03    -228.939E-03     62.2830E-03    -230.158E-03     458.096E-03    -228.941E-03     54.9023E-03
            1601     1.43164E-03     66.6602E-03    -132.103E+06    -263.071E+06    -123.531E+06    -147.489E+03    -229.199E-03     458.114E-03    -228.914E-03     42.2030E-03    -229.549E-03     457.419E-03    -228.959E-03     37.2223E-03
            1602     715.819E-06     66.6163E-03    -135.308E+06    -277.428E+06    -133.339E+06    -96.6518E+03    -229.135E-03     457.899E-03    -228.764E-03     23.0301E-03    -229.296E-03     456.983E-03    -228.832E-03     20.3344E-03
            1603     13.6050E-03     69.0771E-03    -3.75618E+06     65.9674E+06     83.6922E+06     573.611E+03    -231.357E-03     460.326E-03    -228.969E-03     161.270E-03    -236.775E-03     465.722E-03    -228.640E-03     137.628E-03
            1604     12.8896E-03     68.8143E-03    -9.16696E+06     63.1472E+06     80.8854E+06     246.394E+03    -232.935E-03     461.910E-03    -228.974E-03     198.819E-03    -240.752E-03     469.683E-03    -228.648E-03     169.557E-03
            1605     12.1723E-03     68.5504E-03    -14.6907E+06     56.1563E+06     78.4365E+06    -49.2215E+03    -233.349E-03     462.329E-03    -228.980E-03     209.086E-03    -242.096E-03     470.996E-03    -228.648E-03     178.165E-03
            1606     11.4566E-03     68.2602E-03    -20.7497E+06     49.5656E+06     78.2069E+06    -292.833E+03    -234.172E-03     463.166E-03    -228.994E-03     222.087E-03    -243.950E-03     472.819E-03    -228.644E-03     189.474E-03
            1607     10.7406E-03     67.9597E-03    -26.9725E+06     45.0033E+06     74.6460E+06    -452.228E+03    -234.846E-03     463.828E-03    -228.981E-03     228.661E-03    -245.031E-03     473.860E-03    -228.634E-03     195.489E-03
            1608     10.0251E-03     67.6482E-03    -33.4896E+06     35.0161E+06     64.0659E+06    -237.708E+03    -235.277E-03     464.218E-03    -228.941E-03     232.146E-03    -245.506E-03     474.267E-03    -228.623E-03     198.973E-03
            1609     9.30927E-03     67.3378E-03    -41.1740E+06     24.8746E+06     53.2176E+06    -550.109E+03    -235.126E-03     464.044E-03    -228.918E-03     230.227E-03    -244.949E-03     473.655E-03    -228.628E-03     197.753E-03
            1610     8.59258E-03     67.0332E-03    -49.1386E+06     19.2493E+06     45.6337E+06    -489.019E+03    -234.749E-03     463.677E-03    -228.928E-03     223.047E-03    -243.771E-03     472.461E-03    -228.657E-03     191.982E-03
            1611     7.87620E-03     66.7414E-03    -57.4300E+06     9.66603E+06     37.7411E+06    -171.748E+03    -234.267E-03     463.225E-03    -228.958E-03     211.098E-03    -242.199E-03     470.877E-03    -228.700E-03     182.047E-03
            1612     7.15959E-03     66.4683E-03    -66.4893E+06    -15.4054E+06     24.9182E+06    -175.401E+03    -233.680E-03     462.669E-03    -228.989E-03     195.654E-03    -240.369E-03     468.995E-03    -228.745E-03     169.060E-03
            1613     6.44334E-03     66.2177E-03    -75.7719E+06    -56.5379E+06     6.79989E+06    -621.267E+03    -233.134E-03     462.143E-03    -229.009E-03     178.364E-03    -238.564E-03     467.084E-03    -228.784E-03     154.479E-03
            1614     5.72757E-03     65.9898E-03    -84.9744E+06    -97.7204E+06    -11.6571E+06    -533.709E+03    -232.481E-03     461.501E-03    -229.020E-03     160.054E-03    -236.747E-03     465.152E-03    -228.813E-03     139.016E-03
            1615     5.01109E-03     65.7868E-03    -94.0138E+06    -131.647E+06    -30.4653E+06    -81.9234E+03    -231.804E-03     460.817E-03    -229.013E-03     141.206E-03    -235.050E-03     463.350E-03    -228.838E-03     123.056E-03
            1616     4.29523E-03     65.6085E-03    -102.936E+06    -161.798E+06    -50.0475E+06    -338.562E+03    -231.187E-03     460.178E-03    -228.991E-03     122.021E-03    -233.571E-03     461.767E-03    -228.858E-03     106.684E-03
            1617     3.57973E-03     65.4571E-03    -111.629E+06    -198.037E+06    -69.2479E+06    -387.718E+03    -230.524E-03     459.501E-03    -228.977E-03     102.438E-03    -232.186E-03     460.265E-03    -228.874E-03     89.8342E-03
            1618     2.86334E-03     65.3319E-03    -119.649E+06    -225.391E+06    -88.6229E+06    -21.4032E+03    -229.927E-03     458.883E-03    -228.956E-03     82.4897E-03    -231.014E-03     459.002E-03    -228.899E-03     72.5622E-03
            1619     2.14748E-03     65.2336E-03    -126.678E+06    -243.721E+06    -107.691E+06     58.3392E+03    -229.517E-03     458.435E-03    -228.918E-03     62.2943E-03    -230.173E-03     458.089E-03    -228.920E-03     54.9108E-03
            1620     1.43174E-03     65.1629E-03    -132.010E+06    -263.036E+06    -123.287E+06     87.5740E+03    -229.191E-03     458.073E-03    -228.882E-03     42.2164E-03    -229.540E-03     457.377E-03    -228.926E-03     37.2522E-03
            1621     715.921E-06     65.1192E-03    -135.521E+06    -277.521E+06    -133.175E+06     180.894E+03    -228.988E-03     457.821E-03    -228.834E-03     23.0715E-03    -229.150E-03     456.905E-03    -228.901E-03     20.3863E-03
            1622     13.6048E-03     67.5780E-03    -4.93115E+06     65.4550E+06     83.0454E+06    -58.5121E+03    -231.613E-03     460.573E-03    -228.961E-03     160.763E-03    -237.032E-03     465.966E-03    -228.633E-03     137.091E-03
            1623     12.8882E-03     67.3157E-03    -8.81837E+06     63.5353E+06     81.5900E+06     122.074E+03    -232.932E-03     461.890E-03    -228.958E-03     198.239E-03    -240.744E-03     469.659E-03    -228.629E-03     168.956E-03
            1624     12.1733E-03     67.0521E-03    -13.7169E+06     56.2241E+06     79.1632E+06     305.332E+03    -233.475E-03     462.430E-03    -228.955E-03     208.540E-03    -242.196E-03     471.073E-03    -228.621E-03     177.639E-03
            1625     11.4573E-03     66.7617E-03    -19.2263E+06     51.1221E+06     79.4560E+06    -24.6231E+03    -234.287E-03     463.243E-03    -228.956E-03     221.756E-03    -244.049E-03     472.888E-03    -228.605E-03     189.144E-03
            1626     10.7420E-03     66.4608E-03    -26.0847E+06     45.2534E+06     75.5837E+06     52.0232E+03    -234.629E-03     463.577E-03    -228.948E-03     228.966E-03    -244.802E-03     473.598E-03    -228.597E-03     195.881E-03
            1627     10.0255E-03     66.1512E-03    -33.7656E+06     34.0501E+06     63.7948E+06     559.643E+03    -234.837E-03     463.771E-03    -228.934E-03     232.888E-03    -245.061E-03     473.811E-03    -228.615E-03     199.841E-03
            1628     9.30831E-03     65.8399E-03    -40.9573E+06     25.7585E+06     53.3101E+06     390.797E+03    -234.994E-03     463.932E-03    -228.938E-03     230.673E-03    -244.824E-03     473.553E-03    -228.649E-03     198.237E-03
            1629     8.59220E-03     65.5356E-03    -48.6768E+06     19.4046E+06     45.8944E+06     133.424E+03    -234.911E-03     463.863E-03    -228.952E-03     222.992E-03    -243.938E-03     472.653E-03    -228.680E-03     191.899E-03
            1630     7.87587E-03     65.2436E-03    -57.3090E+06     9.70054E+06     37.8432E+06     61.3918E+03    -234.381E-03     463.350E-03    -228.969E-03     210.766E-03    -242.307E-03     470.997E-03    -228.710E-03     181.702E-03
            1631     7.15973E-03     64.9710E-03    -66.0278E+06    -15.1185E+06     25.5591E+06    -95.3477E+03    -233.793E-03     462.780E-03    -228.987E-03     195.365E-03    -240.477E-03     469.101E-03    -228.741E-03     168.757E-03
            1632     6.44375E-03     64.7194E-03    -75.2963E+06    -55.9931E+06     7.43027E+06    -63.9093E+03    -233.245E-03     462.236E-03    -228.991E-03     178.135E-03    -238.672E-03     467.175E-03    -228.763E-03     154.242E-03
            1633     5.72757E-03     64.4924E-03    -84.8055E+06    -98.0883E+06    -11.8630E+06    -364.327E+03    -232.563E-03     461.545E-03    -228.982E-03     159.972E-03    -236.827E-03     465.194E-03    -228.776E-03     138.929E-03
            1634     5.01198E-03     64.2893E-03    -93.7172E+06    -132.005E+06    -30.0519E+06    -328.895E+03    -231.822E-03     460.789E-03    -228.966E-03     141.308E-03    -235.069E-03     463.321E-03    -228.789E-03     123.154E-03
            1635     4.29575E-03     64.1115E-03    -102.617E+06    -161.444E+06    -49.5096E+06     52.9047E+03    -231.089E-03     460.033E-03    -228.944E-03     121.981E-03    -233.472E-03     461.622E-03    -228.809E-03     106.659E-03
            1636     3.57918E-03     63.9596E-03    -111.566E+06    -198.442E+06    -69.6002E+06    -110.732E+03    -230.471E-03     459.401E-03    -228.930E-03     102.145E-03    -232.127E-03     460.159E-03    -228.829E-03     89.5640E-03
            1637     2.86365E-03     63.8348E-03    -119.635E+06    -226.087E+06    -88.7702E+06    -373.318E+03    -229.918E-03     458.820E-03    -228.902E-03     82.2343E-03    -231.003E-03     458.935E-03    -228.845E-03     72.2927E-03
            1638     2.14766E-03     63.7362E-03    -126.617E+06    -243.790E+06    -107.406E+06    -194.474E+03    -229.428E-03     458.291E-03    -228.862E-03     62.1296E-03    -230.086E-03     457.944E-03    -228.862E-03     54.7316E-03
            1639     1.43168E-03     63.6657E-03    -132.228E+06    -263.046E+06    -123.001E+06     85.1814E+03    -229.101E-03     457.940E-03    -228.839E-03     42.0334E-03    -229.450E-03     457.243E-03    -228.881E-03     37.0772E-03
            1640     715.724E-06     63.6220E-03    -135.636E+06    -277.202E+06    -133.141E+06     69.9953E+03    -228.995E-03     457.749E-03    -228.754E-03     22.8970E-03    -229.158E-03     456.833E-03    -228.821E-03     20.2196E-03
            1641     13.6058E-03     66.0797E-03    -4.43342E+06     65.9103E+06     82.9824E+06    -772.189E+03    -231.714E-03     460.647E-03    -228.933E-03     160.837E-03    -237.132E-03     466.042E-03    -228.607E-03     137.137E-03
            1642     12.8904E-03     65.8180E-03    -8.94249E+06     61.5718E+06     80.6773E+06    -797.670E+03    -233.041E-03     461.963E-03    -228.922E-03     198.164E-03    -240.850E-03     469.725E-03    -228.595E-03     168.857E-03
            1643     12.1734E-03     65.5533E-03    -13.5614E+06      54.866E+06     78.8129E+06     174.646E+03    -233.399E-03     462.319E-03    -228.921E-03     208.934E-03    -242.105E-03     470.944E-03    -228.586E-03     178.103E-03
            1644     11.4580E-03     65.2629E-03    -19.8383E+06     51.8699E+06     79.3139E+06     1.04426E+06    -233.899E-03     462.839E-03    -228.940E-03     222.381E-03    -243.649E-03     472.473E-03    -228.590E-03     189.919E-03
            1645     10.7409E-03     64.9633E-03    -27.0927E+06     45.1216E+06     74.7666E+06     944.846E+03    -234.314E-03     463.273E-03    -228.959E-03     229.494E-03    -244.491E-03     473.298E-03    -228.611E-03     196.489E-03
            1646     10.0242E-03     64.6536E-03    -33.9976E+06     34.2720E+06     64.1953E+06     629.822E+03    -234.878E-03     463.840E-03    -228.962E-03     232.749E-03    -245.106E-03     473.882E-03    -228.641E-03     199.683E-03
            1647     9.30835E-03     64.3423E-03    -40.9168E+06     26.6404E+06     54.4055E+06     619.423E+03    -235.139E-03     464.099E-03    -228.960E-03     230.274E-03    -244.961E-03     473.712E-03    -228.667E-03     197.830E-03
            1648     8.59218E-03     64.0372E-03    -48.6410E+06     19.8362E+06     46.1781E+06     316.244E+03    -235.037E-03     463.993E-03    -228.956E-03     222.528E-03    -244.056E-03     472.775E-03    -228.683E-03     191.416E-03
            1649     7.87625E-03     63.7463E-03    -56.9160E+06     10.1579E+06     38.2051E+06     84.4982E+03    -234.546E-03     463.499E-03    -228.953E-03     210.372E-03    -242.470E-03     471.147E-03    -228.694E-03     181.270E-03
            1650     7.16002E-03     63.4730E-03    -65.8405E+06    -15.1100E+06     25.6882E+06     52.1532E+03    -233.853E-03     462.808E-03    -228.954E-03     195.205E-03    -240.533E-03     469.126E-03    -228.709E-03     168.593E-03
            1651     6.44384E-03     63.2218E-03    -74.9836E+06    -55.7493E+06     8.06846E+06     173.706E+03    -233.136E-03     462.095E-03    -228.959E-03     178.084E-03    -238.559E-03     467.030E-03    -228.729E-03     154.220E-03
            1652     5.72788E-03     62.9946E-03    -84.3886E+06    -97.2325E+06    -11.0511E+06     394.958E+03    -232.500E-03     461.456E-03    -228.957E-03     159.996E-03    -236.761E-03     465.105E-03    -228.749E-03     138.986E-03
            1653     5.01148E-03     62.7917E-03    -94.0283E+06    -132.764E+06    -30.6959E+06    -255.125E+03    -231.889E-03     460.822E-03    -228.933E-03     141.315E-03    -235.136E-03     463.353E-03    -228.758E-03     123.151E-03
            1654     4.29565E-03     62.6141E-03    -102.818E+06    -162.033E+06    -49.3984E+06    -362.476E+03    -231.160E-03     460.056E-03    -228.896E-03     121.874E-03    -233.543E-03     461.642E-03    -228.759E-03     106.535E-03
            1655     3.58021E-03     62.4625E-03    -111.073E+06    -197.536E+06    -68.6321E+06     337.754E+03    -230.443E-03     459.311E-03    -228.868E-03     102.081E-03    -232.098E-03     460.069E-03    -228.764E-03     89.5163E-03
            1656     2.86389E-03     62.3375E-03    -119.348E+06    -226.254E+06    -88.9660E+06    -111.324E+03    -229.833E-03     458.669E-03    -228.836E-03     82.3196E-03    -230.915E-03     458.782E-03    -228.780E-03     72.3953E-03
            1657     2.14793E-03     62.2395E-03    -126.433E+06    -244.257E+06    -107.640E+06    -365.394E+03    -229.361E-03     458.164E-03    -228.803E-03     62.3240E-03    -230.016E-03     457.816E-03    -228.804E-03     54.9348E-03
            1658     1.43192E-03     62.1687E-03    -131.666E+06    -263.113E+06    -123.005E+06    -139.257E+03    -229.079E-03     457.855E-03    -228.775E-03     42.1295E-03    -229.425E-03     457.156E-03    -228.818E-03     37.1816E-03
            1659     716.098E-06     62.1250E-03    -134.715E+06    -277.359E+06    -132.864E+06    -299.452E+03    -228.959E-03     457.610E-03    -228.651E-03     22.9204E-03    -229.118E-03     456.692E-03    -228.718E-03     20.2416E-03
            1660     13.6053E-03     64.5789E-03    -3.97196E+06     67.3877E+06     83.3146E+06    -263.195E+03    -231.633E-03     460.558E-03    -228.925E-03     161.625E-03    -237.072E-03     465.980E-03    -228.600E-03     137.920E-03
            1661     12.8892E-03     64.3199E-03    -10.6013E+06     60.8502E+06     79.1226E+06    -950.535E+03    -233.046E-03     461.963E-03    -228.917E-03     199.032E-03    -240.891E-03     469.756E-03    -228.594E-03     169.664E-03
            1662     12.1741E-03     64.0546E-03    -16.6765E+06     52.5104E+06     76.3772E+06    -401.611E+03    -233.285E-03     462.207E-03    -228.923E-03     209.545E-03    -242.008E-03     470.836E-03    -228.593E-03     178.745E-03
            1663     11.4568E-03     63.7661E-03    -22.5595E+06     51.3110E+06     77.5993E+06     276.708E+03    -233.692E-03     462.647E-03    -228.955E-03     222.266E-03    -243.446E-03     472.278E-03    -228.608E-03     189.827E-03
            1664     10.7406E-03     63.4653E-03    -28.0849E+06     45.3870E+06     74.4305E+06    -30.1335E+03    -234.432E-03     463.410E-03    -228.977E-03     228.996E-03    -244.600E-03     473.423E-03    -228.630E-03     195.965E-03
            1665     10.0250E-03     63.1556E-03    -34.2330E+06     33.9161E+06     63.8544E+06    -156.982E+03    -235.108E-03     464.070E-03    -228.963E-03     232.195E-03    -245.336E-03     474.112E-03    -228.643E-03     199.052E-03
            1666     9.30863E-03     62.8445E-03    -41.3782E+06     26.3626E+06     54.0201E+06    -21.9429E+03    -235.274E-03     464.216E-03    -228.941E-03     230.019E-03    -245.090E-03     473.821E-03    -228.649E-03     197.553E-03
            1667     8.59244E-03     62.5393E-03    -48.5496E+06     20.1142E+06     46.6323E+06     49.1685E+03    -235.040E-03     463.971E-03    -228.931E-03     222.378E-03    -244.047E-03     472.742E-03    -228.657E-03     191.284E-03
            1668     7.87632E-03     62.2479E-03    -56.8644E+06     10.1149E+06     38.3390E+06     193.245E+03    -234.549E-03     463.472E-03    -228.923E-03     210.293E-03    -242.473E-03     471.119E-03    -228.664E-03     181.188E-03
            1669     7.16044E-03     61.9755E-03    -65.9699E+06    -15.1426E+06     25.6301E+06     239.056E+03    -233.873E-03     462.791E-03    -228.919E-03     195.120E-03    -240.553E-03     469.110E-03    -228.673E-03     168.506E-03
            1670     6.44421E-03     61.7246E-03    -75.2519E+06    -56.0355E+06     7.77423E+06     249.395E+03    -233.129E-03     462.045E-03    -228.916E-03     177.895E-03    -238.544E-03     466.972E-03    -228.687E-03     154.047E-03
            1671     5.72778E-03     61.4972E-03    -84.1599E+06    -97.3424E+06    -10.6130E+06     233.656E+03    -232.479E-03     461.389E-03    -228.911E-03     159.674E-03    -236.732E-03     465.029E-03    -228.700E-03     138.671E-03
            1672     5.01213E-03     61.2942E-03    -92.8986E+06    -131.480E+06    -29.4393E+06     217.890E+03    -231.776E-03     460.663E-03    -228.886E-03     140.913E-03    -235.015E-03     463.191E-03    -228.708E-03     122.765E-03
            1673     4.29623E-03     61.1165E-03    -102.224E+06    -162.049E+06    -49.4509E+06    -72.4077E+03    -231.005E-03     459.862E-03    -228.857E-03     121.824E-03    -233.382E-03     461.445E-03    -228.721E-03     106.512E-03
            1674     3.57972E-03     60.9656E-03    -111.060E+06    -198.431E+06    -68.6949E+06    -176.150E+03    -230.386E-03     459.233E-03    -228.847E-03     102.363E-03    -232.041E-03     459.989E-03    -228.742E-03     89.7952E-03
            1675     2.86385E-03     60.8407E-03    -118.784E+06    -225.464E+06    -87.9363E+06     292.119E+03    -229.848E-03     458.667E-03    -228.819E-03     82.3953E-03    -230.930E-03     458.782E-03    -228.759E-03     72.4840E-03
            1676     2.14768E-03     60.7426E-03    -125.973E+06    -244.055E+06    -107.406E+06     114.254E+03    -229.362E-03     458.137E-03    -228.775E-03     62.2603E-03    -230.014E-03     457.786E-03    -228.775E-03     54.8939E-03
            1677     1.43181E-03     60.6715E-03    -131.591E+06    -263.407E+06    -123.037E+06    -189.411E+03    -229.037E-03     457.783E-03    -228.745E-03     42.1607E-03    -229.383E-03     457.082E-03    -228.788E-03     37.2146E-03
            1678     715.858E-06     60.6283E-03    -135.235E+06    -277.653E+06    -132.744E+06     98.6192E+03    -228.929E-03     457.555E-03    -228.626E-03     22.8058E-03    -229.089E-03     456.635E-03    -228.691E-03     20.1349E-03
            1679     13.6058E-03     63.0826E-03    -5.56134E+06     66.8651E+06     82.3352E+06     475.611E+03    -231.490E-03     460.424E-03    -228.934E-03     161.690E-03    -236.921E-03     465.834E-03    -228.611E-03     138.026E-03
            1680     12.8893E-03     62.8202E-03    -9.86069E+06     62.5786E+06     80.3754E+06     1.03734E+06    -232.864E-03     461.805E-03    -228.941E-03     198.779E-03    -240.682E-03     469.577E-03    -228.616E-03     169.514E-03
            1681     12.1726E-03     62.5565E-03    -15.3228E+06     53.3897E+06     77.3344E+06     216.511E+03    -233.330E-03     462.278E-03    -228.948E-03     208.927E-03    -242.044E-03     470.903E-03    -228.617E-03     178.098E-03
            1682     11.4573E-03     62.2681E-03    -20.4349E+06     51.3951E+06     78.8372E+06    -817.779E+03    -234.008E-03     462.975E-03    -228.967E-03     221.849E-03    -243.763E-03     472.611E-03    -228.617E-03     189.304E-03
            1683     10.7413E-03     61.9673E-03    -26.3065E+06     45.3168E+06     75.4981E+06    -157.361E+03    -234.653E-03     463.622E-03    -228.969E-03     228.856E-03    -244.822E-03     473.639E-03    -228.619E-03     195.768E-03
            1684     10.0246E-03     61.6574E-03    -33.6181E+06     32.9737E+06     63.7603E+06     49.8366E+03    -235.195E-03     464.133E-03    -228.938E-03     232.088E-03    -245.410E-03     474.161E-03    -228.619E-03     198.950E-03
            1685     9.30885E-03     61.3464E-03    -40.8677E+06     26.5106E+06     53.9414E+06      2.7735E+03    -235.320E-03     464.227E-03    -228.907E-03     229.796E-03    -245.126E-03     473.826E-03    -228.617E-03     197.327E-03
            1686     8.59290E-03     61.0415E-03    -48.7801E+06     19.7672E+06     46.2489E+06     42.6890E+03    -235.005E-03     463.898E-03    -228.893E-03     222.282E-03    -244.004E-03     472.660E-03    -228.620E-03     191.210E-03
            1687     7.87669E-03     60.7503E-03    -57.0953E+06     9.69061E+06     38.2564E+06     61.9046E+03    -234.459E-03     463.348E-03    -228.889E-03     210.208E-03    -242.372E-03     470.982E-03    -228.629E-03     181.138E-03
            1688     7.16036E-03     60.4774E-03    -65.8846E+06    -15.0800E+06     25.8740E+06     239.412E+03    -233.843E-03     462.730E-03    -228.887E-03     194.965E-03    -240.518E-03     469.042E-03    -228.640E-03     168.360E-03
            1689     6.44445E-03     60.2272E-03    -74.8576E+06    -55.6902E+06     8.15919E+06     219.675E+03    -233.237E-03     462.112E-03    -228.875E-03     177.903E-03    -238.651E-03     467.039E-03    -228.645E-03     154.048E-03
            1690     5.72878E-03     59.9998E-03    -84.0543E+06    -97.5337E+06    -10.7457E+06    -6.34924E+03    -232.507E-03     461.363E-03    -228.856E-03     159.841E-03    -236.760E-03     465.002E-03    -228.646E-03     138.838E-03
            1691     5.01245E-03     59.7969E-03    -93.2644E+06    -131.715E+06    -29.5392E+06     140.575E+03    -231.632E-03     460.468E-03    -228.836E-03     141.033E-03    -234.870E-03     462.993E-03    -228.658E-03     122.914E-03
            1692     4.29583E-03     59.6201E-03    -102.029E+06    -161.306E+06    -49.1879E+06     429.724E+03    -230.896E-03     459.716E-03    -228.820E-03     121.682E-03    -233.267E-03     461.295E-03    -228.685E-03     106.411E-03
            1693     3.57989E-03     59.4684E-03    -110.779E+06    -198.554E+06    -69.0478E+06    -160.195E+03    -230.349E-03     459.161E-03    -228.812E-03     101.950E-03    -231.997E-03     459.911E-03    -228.709E-03     89.3886E-03
            1694     2.86390E-03     59.3436E-03    -119.140E+06    -226.154E+06    -88.0029E+06    -237.351E+03    -229.829E-03     458.610E-03    -228.780E-03     82.0532E-03    -230.909E-03     458.719E-03    -228.720E-03     72.1360E-03
            1695     2.14817E-03     59.2458E-03    -126.026E+06    -243.355E+06    -106.367E+06     433.715E+03    -229.332E-03     458.061E-03    -228.729E-03     62.0981E-03    -229.985E-03     457.712E-03    -228.725E-03     54.7391E-03
            1696     1.43200E-03     59.1750E-03    -131.628E+06    -263.131E+06    -122.398E+06     449.206E+03    -228.960E-03     457.660E-03    -228.700E-03     42.0703E-03    -229.307E-03     456.960E-03    -228.739E-03     37.1336E-03
            1697     715.983E-06     59.1313E-03    -135.506E+06    -277.604E+06    -133.131E+06     221.191E+03    -228.935E-03     457.467E-03    -228.532E-03     22.6822E-03    -229.096E-03     456.549E-03    -228.599E-03     20.0106E-03
            1698     13.6048E-03     61.5834E-03    -3.58976E+06     65.9102E+06     83.4783E+06     893.942E+03    -231.651E-03     460.606E-03    -228.954E-03     161.793E-03    -237.070E-03     466.003E-03    -228.627E-03     138.124E-03
            1699     12.8891E-03     61.3222E-03    -7.69445E+06     62.7941E+06     81.4729E+06     976.664E+03    -232.996E-03     461.950E-03    -228.953E-03     198.701E-03    -240.793E-03     469.705E-03    -228.626E-03     169.468E-03
            1700     12.1735E-03     61.0583E-03    -12.1185E+06     55.8765E+06     79.7089E+06     692.864E+03    -233.489E-03     462.443E-03    -228.954E-03     208.557E-03    -242.188E-03     471.066E-03    -228.619E-03     177.708E-03
            1701     11.4571E-03     60.7690E-03    -18.3670E+06     51.2333E+06     79.9893E+06     528.146E+03    -234.224E-03     463.181E-03    -228.957E-03     221.437E-03    -243.970E-03     472.811E-03    -228.604E-03     188.857E-03
            1702     10.7410E-03     60.4694E-03    -25.9994E+06     44.7476E+06     75.5275E+06     722.660E+03    -234.719E-03     463.661E-03    -228.942E-03     228.426E-03    -244.884E-03     473.673E-03    -228.591E-03     195.317E-03
            1703     10.0255E-03     60.1592E-03    -33.2806E+06     34.5598E+06     64.6352E+06     712.073E+03    -235.128E-03     464.037E-03    -228.909E-03     231.939E-03    -245.321E-03     474.047E-03    -228.587E-03     198.878E-03
            1704     9.30939E-03     59.8485E-03    -40.6809E+06     26.2933E+06     54.3435E+06     531.905E+03    -235.255E-03     464.138E-03    -228.883E-03     229.904E-03    -245.054E-03     473.728E-03    -228.590E-03     197.476E-03
            1705     8.59307E-03     59.5439E-03    -48.3394E+06     20.1191E+06     46.6498E+06     638.608E+03    -235.048E-03     463.916E-03    -228.868E-03     222.467E-03    -244.052E-03     472.684E-03    -228.594E-03     191.395E-03
            1706     7.87697E-03     59.2525E-03    -56.5435E+06     10.1200E+06     38.6107E+06     292.530E+03    -234.502E-03     463.362E-03    -228.859E-03     210.281E-03    -242.412E-03     470.995E-03    -228.599E-03     181.217E-03
            1707     7.16092E-03     58.9802E-03    -65.4075E+06    -14.9859E+06     26.0717E+06     11.6692E+03    -233.832E-03     462.685E-03    -228.853E-03     194.932E-03    -240.498E-03     468.990E-03    -228.606E-03     168.345E-03
            1708     6.44461E-03     58.7293E-03    -74.7524E+06    -55.9452E+06     8.14028E+06     73.0505E+03    -233.199E-03     462.040E-03    -228.841E-03     177.867E-03    -238.605E-03     466.959E-03    -228.611E-03     154.033E-03
            1709     5.72831E-03     58.5022E-03    -84.0511E+06    -97.4081E+06    -10.7606E+06     248.131E+03    -232.443E-03     461.265E-03    -228.822E-03     159.628E-03    -236.691E-03     464.900E-03    -228.613E-03     138.641E-03
            1710     5.01223E-03     58.3004E-03    -93.2438E+06    -131.716E+06    -29.6756E+06     258.630E+03    -231.653E-03     460.450E-03    -228.797E-03     140.737E-03    -234.885E-03     462.970E-03    -228.619E-03     122.626E-03
            1711     4.29657E-03     58.1228E-03    -102.198E+06    -161.300E+06    -48.8846E+06     208.409E+03    -230.979E-03     459.744E-03    -228.765E-03     121.530E-03    -233.347E-03     461.319E-03    -228.628E-03     106.264E-03
            1712     3.58049E-03     57.9717E-03    -110.875E+06    -197.595E+06    -68.6533E+06     388.224E+03    -230.334E-03     459.072E-03    -228.737E-03     101.903E-03    -231.982E-03     459.823E-03    -228.633E-03     89.3760E-03
            1713     2.86428E-03     57.8470E-03    -119.293E+06    -226.261E+06    -88.6787E+06     147.343E+03    -229.730E-03     458.428E-03    -228.698E-03     81.9967E-03    -230.807E-03     458.535E-03    -228.640E-03     72.1097E-03
            1714     2.14790E-03     57.7490E-03    -126.504E+06    -244.212E+06    -107.118E+06    -47.3168E+03    -229.244E-03     457.896E-03    -228.652E-03     61.9712E-03    -229.896E-03     457.543E-03    -228.650E-03     54.6152E-03
            1715     1.43205E-03     57.6785E-03    -131.502E+06    -262.550E+06    -121.785E+06     290.954E+03    -228.881E-03     457.510E-03    -228.629E-03     42.0290E-03    -229.228E-03     456.811E-03    -228.666E-03     37.0964E-03
            1716     716.018E-06     57.6348E-03    -134.726E+06    -276.720E+06    -132.359E+06     233.572E+03    -228.725E-03     457.328E-03    -228.603E-03     22.8958E-03    -228.885E-03     456.412E-03    -228.668E-03     20.2365E-03
            1717     13.6053E-03     60.0857E-03    -3.78070E+06     64.9666E+06     84.0539E+06    -520.297E+03    -231.755E-03     460.715E-03    -228.960E-03     161.098E-03    -237.167E-03     466.100E-03    -228.629E-03     137.401E-03
            1718     12.8890E-03     59.8230E-03    -8.63898E+06     62.4888E+06     81.4939E+06     194.519E+03    -233.172E-03     462.117E-03    -228.945E-03     198.210E-03    -240.967E-03     469.867E-03    -228.616E-03     168.939E-03
            1719     12.1730E-03     59.5593E-03    -14.3661E+06     56.1083E+06     78.6757E+06     200.566E+03    -233.467E-03     462.400E-03    -228.932E-03     208.178E-03    -242.169E-03     471.022E-03    -228.600E-03     177.313E-03
            1720     11.4577E-03     59.2705E-03    -20.5257E+06     49.7057E+06     78.3757E+06     493.070E+03    -234.131E-03     463.068E-03    -228.937E-03     221.581E-03    -243.868E-03     472.681E-03    -228.587E-03     189.054E-03
            1721     10.7422E-03     58.9709E-03    -26.6846E+06     44.4933E+06     75.1221E+06     1.03995E+06    -234.749E-03     463.677E-03    -228.928E-03     228.734E-03    -244.913E-03     473.686E-03    -228.578E-03     195.656E-03
            1722     10.0255E-03     58.6619E-03    -33.3901E+06     36.0686E+06     65.1816E+06     1.13503E+06    -235.193E-03     464.088E-03    -228.896E-03     232.314E-03    -245.404E-03     474.120E-03    -228.574E-03     199.238E-03
            1723     9.30900E-03     58.3504E-03    -40.5652E+06     26.6429E+06     54.8393E+06     687.065E+03    -235.294E-03     464.161E-03    -228.867E-03     229.905E-03    -245.094E-03     473.752E-03    -228.573E-03     197.471E-03
            1724     8.59311E-03     58.0458E-03    -47.8838E+06     20.4586E+06     47.2002E+06     410.939E+03    -235.072E-03     463.919E-03    -228.847E-03     222.216E-03    -244.061E-03     472.674E-03    -228.571E-03     191.154E-03
            1725     7.87705E-03     57.7547E-03    -56.0268E+06     10.5739E+06     38.9817E+06     443.583E+03    -234.538E-03     463.368E-03    -228.830E-03     210.035E-03    -242.434E-03     470.990E-03    -228.570E-03     180.992E-03
            1726     7.16087E-03     57.4825E-03    -65.3127E+06    -14.9495E+06     25.9922E+06     584.112E+03    -233.877E-03     462.692E-03    -228.814E-03     194.726E-03    -240.532E-03     468.986E-03    -228.568E-03     168.171E-03
            1727     6.44496E-03     57.2320E-03    -74.7688E+06    -56.0359E+06     7.79848E+06     361.690E+03    -233.149E-03     461.945E-03    -228.795E-03     177.586E-03    -238.549E-03     466.857E-03    -228.567E-03     153.764E-03
            1728     5.72899E-03     57.0052E-03    -83.9100E+06    -97.1345E+06    -10.6707E+06     236.455E+03    -232.382E-03     461.158E-03    -228.776E-03     159.276E-03    -236.621E-03     464.785E-03    -228.567E-03     138.313E-03
            1729     5.01299E-03     56.8031E-03    -93.0387E+06    -131.206E+06    -29.2026E+06     438.020E+03    -231.659E-03     460.406E-03    -228.747E-03     140.586E-03    -234.886E-03     462.921E-03    -228.568E-03     122.499E-03
            1730     4.29649E-03     56.6261E-03    -102.259E+06    -161.297E+06    -49.0395E+06     403.154E+03    -230.949E-03     459.655E-03    -228.706E-03     121.540E-03    -233.319E-03     461.231E-03    -228.569E-03     106.279E-03
            1731     3.58031E-03     56.4749E-03    -111.050E+06    -197.802E+06    -68.7086E+06     389.082E+03    -230.302E-03     458.975E-03    -228.673E-03     101.823E-03    -231.947E-03     459.722E-03    -228.568E-03     89.3135E-03
            1732     2.86440E-03     56.3504E-03    -118.835E+06    -225.473E+06    -88.1588E+06     476.453E+03    -229.695E-03     458.320E-03    -228.625E-03     81.9403E-03    -230.771E-03     458.429E-03    -228.567E-03     72.0613E-03
            1733     2.14856E-03     56.2528E-03    -125.690E+06    -243.858E+06    -107.382E+06     181.821E+03    -229.194E-03     457.759E-03    -228.566E-03     61.9506E-03    -229.841E-03     457.407E-03    -228.567E-03     54.6074E-03
            1734     1.43222E-03     56.1821E-03    -130.974E+06    -262.715E+06    -122.541E+06    -359.208E+03    -228.841E-03     457.362E-03    -228.521E-03     41.8739E-03    -229.183E-03     456.662E-03    -228.562E-03     36.9417E-03
            1735     715.992E-06     56.1386E-03    -133.661E+06    -276.384E+06    -131.577E+06    -329.928E+03    -228.545E-03     457.091E-03    -228.545E-03     22.6689E-03    -228.701E-03     456.173E-03    -228.609E-03     20.0040E-03
            1736     13.6051E-03     58.5878E-03    -5.44488E+06     64.6936E+06     82.3836E+06    -625.879E+03    -232.008E-03     460.943E-03    -228.935E-03     161.043E-03    -237.417E-03     466.324E-03    -228.609E-03     137.360E-03
            1737     12.8899E-03     58.3231E-03    -10.5227E+06     60.6447E+06     79.9775E+06    -490.389E+03    -233.135E-03     462.052E-03    -228.917E-03     198.095E-03    -240.922E-03     469.785E-03    -228.589E-03     168.841E-03
            1738     12.1743E-03     58.0622E-03    -15.1005E+06     55.3846E+06     78.1637E+06    -153.230E+03    -233.250E-03     462.162E-03    -228.912E-03     208.261E-03    -241.952E-03     470.780E-03    -228.580E-03     177.410E-03
            1739     11.4574E-03     57.7717E-03    -20.4352E+06     48.6775E+06     78.2072E+06     334.777E+03    -233.973E-03     462.902E-03    -228.929E-03     221.693E-03    -243.694E-03     472.497E-03    -228.579E-03     189.230E-03
            1740     10.7406E-03     57.4726E-03    -27.1187E+06     44.1116E+06     74.7068E+06     457.871E+03    -234.664E-03     463.591E-03    -228.927E-03     228.474E-03    -244.807E-03     473.578E-03    -228.579E-03     195.435E-03
            1741     10.0252E-03     57.1629E-03    -33.8593E+06     36.2835E+06     64.7304E+06     229.571E+03    -235.328E-03     464.217E-03    -228.889E-03     231.985E-03    -245.545E-03     474.255E-03    -228.569E-03     198.831E-03
            1742     9.30987E-03     56.8528E-03    -40.5416E+06     27.2399E+06     54.6683E+06     130.548E+03    -235.491E-03     464.333E-03    -228.842E-03     229.638E-03    -245.290E-03     473.927E-03    -228.550E-03     197.153E-03
            1743     8.59364E-03     56.5480E-03    -48.1851E+06     20.1167E+06     46.7044E+06     177.335E+03    -235.142E-03     463.948E-03    -228.806E-03     221.873E-03    -244.116E-03     472.687E-03    -228.532E-03     190.825E-03
            1744     7.87752E-03     56.2572E-03    -56.7720E+06     10.0060E+06     38.3700E+06     582.931E+03    -234.511E-03     463.293E-03    -228.782E-03     209.670E-03    -242.388E-03     470.892E-03    -228.522E-03     180.677E-03
            1745     7.16150E-03     55.9849E-03    -65.8027E+06    -14.7482E+06     25.7364E+06     737.322E+03    -233.850E-03     462.612E-03    -228.761E-03     194.453E-03    -240.492E-03     468.893E-03    -228.516E-03     167.932E-03
            1746     6.44533E-03     55.7346E-03    -74.8114E+06    -55.1966E+06     8.09838E+06     416.294E+03    -233.100E-03     461.839E-03    -228.739E-03     177.317E-03    -238.494E-03     466.748E-03    -228.510E-03     153.514E-03
            1747     5.72906E-03     55.5081E-03    -84.1716E+06    -96.8941E+06    -10.7424E+06     457.810E+03    -232.296E-03     461.015E-03    -228.719E-03     159.190E-03    -236.530E-03     464.638E-03    -228.510E-03     138.259E-03
            1748     5.01274E-03     55.3062E-03    -93.5195E+06    -131.700E+06    -29.9061E+06     380.569E+03    -231.625E-03     460.312E-03    -228.687E-03     140.495E-03    -234.848E-03     462.822E-03    -228.510E-03     122.428E-03
            1749     4.29695E-03     55.1294E-03    -102.084E+06    -161.024E+06    -48.8691E+06     219.496E+03    -230.944E-03     459.583E-03    -228.639E-03     121.244E-03    -233.311E-03     461.158E-03    -228.502E-03     105.974E-03
            1750     3.58096E-03     54.9783E-03    -110.526E+06    -197.387E+06    -68.3144E+06     340.575E+03    -230.211E-03     458.810E-03    -228.599E-03     101.552E-03    -231.852E-03     459.557E-03    -228.494E-03     89.0444E-03
            1751     2.86465E-03     54.8542E-03    -118.720E+06    -225.533E+06    -88.0920E+06     162.502E+03    -229.589E-03     458.144E-03    -228.556E-03     81.8317E-03    -230.662E-03     458.251E-03    -228.497E-03     71.9621E-03
            1752     2.14822E-03     54.7564E-03    -125.493E+06    -243.066E+06    -106.696E+06     154.979E+03    -229.144E-03     457.643E-03    -228.498E-03     61.9817E-03    -229.794E-03     457.293E-03    -228.497E-03     54.6314E-03
            1753     1.43239E-03     54.6860E-03    -130.495E+06    -262.196E+06    -122.353E+06     80.9137E+03    -228.822E-03     457.252E-03    -228.430E-03     41.9153E-03    -229.163E-03     456.554E-03    -228.472E-03     36.9851E-03
            1754     716.476E-06     54.6427E-03    -134.012E+06    -277.286E+06    -132.382E+06    -223.942E+03    -228.565E-03     456.874E-03    -228.309E-03     22.6667E-03    -228.720E-03     455.954E-03    -228.375E-03     20.0077E-03
            1755     13.6061E-03     57.0867E-03    -4.36844E+06     65.5393E+06     82.4312E+06     492.846E+03    -232.131E-03     461.045E-03    -228.914E-03     160.629E-03    -237.525E-03     466.417E-03    -228.591E-03     136.970E-03
            1756     12.8899E-03     56.8263E-03    -8.70219E+06     60.8149E+06     80.0895E+06    -331.864E+03    -232.908E-03     461.804E-03    -228.896E-03     197.968E-03    -240.683E-03     469.532E-03    -228.572E-03     168.742E-03
            1757     12.1731E-03     56.5625E-03    -14.2857E+06     54.9516E+06     78.1976E+06    -235.587E+03    -233.195E-03     462.096E-03    -228.901E-03     208.295E-03    -241.892E-03     470.711E-03    -228.569E-03     177.464E-03
            1758     11.4578E-03     56.2746E-03    -20.2034E+06     49.5134E+06     78.7722E+06     371.559E+03    -234.029E-03     462.948E-03    -228.918E-03     221.396E-03    -243.742E-03     472.536E-03    -228.567E-03     188.936E-03
            1759     10.7423E-03     55.9744E-03    -26.3383E+06     43.1355E+06     75.0999E+06     87.0434E+03    -234.710E-03     463.622E-03    -228.912E-03     228.323E-03    -244.833E-03     473.587E-03    -228.561E-03     195.296E-03
            1760     10.0258E-03     55.6651E-03    -33.2337E+06     35.2597E+06     64.4012E+06     126.279E+03    -235.404E-03     464.268E-03    -228.864E-03     231.881E-03    -245.603E-03     474.288E-03    -228.545E-03     198.733E-03
            1761     9.30944E-03     55.3538E-03    -40.6168E+06     27.6941E+06     54.0608E+06     313.634E+03    -235.587E-03     464.392E-03    -228.805E-03     229.347E-03    -245.375E-03     473.978E-03    -228.516E-03     196.866E-03
            1762     8.59400E-03     55.0502E-03    -48.5886E+06     19.6296E+06     45.9041E+06     462.314E+03    -235.184E-03     463.943E-03    -228.759E-03     221.613E-03    -244.153E-03     472.676E-03    -228.487E-03     190.570E-03
            1763     7.87803E-03     54.7596E-03     -56.884E+06     9.48160E+06     37.9271E+06     729.526E+03    -234.542E-03     463.269E-03    -228.727E-03     209.656E-03    -242.412E-03     470.861E-03    -228.469E-03     180.680E-03
            1764     7.16177E-03     54.4875E-03    -65.4205E+06    -14.5436E+06     26.0087E+06     452.225E+03    -233.811E-03     462.515E-03    -228.704E-03     194.404E-03    -240.445E-03     468.790E-03    -228.458E-03     167.902E-03
            1765     6.44573E-03     54.2373E-03    -74.5976E+06    -54.8735E+06     8.36043E+06     604.546E+03    -233.038E-03     461.718E-03    -228.681E-03     177.117E-03    -238.421E-03     466.617E-03    -228.451E-03     153.355E-03
            1766     5.72960E-03     54.0117E-03    -83.6015E+06    -96.6371E+06    -10.2874E+06     519.706E+03    -232.349E-03     461.000E-03    -228.651E-03     158.906E-03    -236.577E-03     464.619E-03    -228.441E-03     137.970E-03
            1767     5.01352E-03     53.8094E-03    -92.4310E+06    -130.653E+06    -28.9162E+06     568.302E+03    -231.619E-03     460.222E-03    -228.603E-03     140.103E-03    -234.834E-03     462.729E-03    -228.424E-03     122.041E-03
            1768     4.29729E-03     53.6325E-03    -101.743E+06    -160.761E+06    -48.8195E+06     410.327E+03    -230.789E-03     459.338E-03    -228.549E-03     120.942E-03    -233.147E-03     460.906E-03    -228.412E-03     105.707E-03
            1769     3.58099E-03     53.4823E-03    -110.315E+06    -197.364E+06    -68.2332E+06     74.4401E+03    -230.089E-03     458.606E-03    -228.517E-03     101.485E-03    -231.729E-03     459.351E-03    -228.412E-03     88.9783E-03
            1770     2.86479E-03     53.3581E-03    -118.316E+06    -225.088E+06    -87.6188E+06     285.544E+03    -229.539E-03     458.012E-03    -228.473E-03     81.7134E-03    -230.609E-03     458.117E-03    -228.413E-03     71.8638E-03
            1771     2.14881E-03     53.2604E-03    -125.524E+06    -243.055E+06    -106.523E+06     59.3653E+03    -229.044E-03     457.456E-03    -228.412E-03     61.7817E-03    -229.692E-03     457.105E-03    -228.410E-03     54.4401E-03
            1772     1.43236E-03     53.1899E-03    -131.085E+06    -262.134E+06    -121.872E+06     242.382E+03    -228.647E-03     457.021E-03    -228.374E-03     41.7450E-03    -228.992E-03     456.323E-03    -228.413E-03     36.8190E-03
            1773     715.976E-06     53.1470E-03    -134.547E+06    -276.873E+06    -132.267E+06     545.080E+03    -228.502E-03     456.805E-03    -228.303E-03     22.6016E-03    -228.661E-03     455.887E-03    -228.367E-03     19.9495E-03
            1774     13.6059E-03     55.5886E-03    -4.57407E+06     66.3310E+06     82.1504E+06    -224.193E+03    -231.954E-03     460.864E-03    -228.909E-03     160.826E-03    -237.373E-03     466.263E-03    -228.588E-03     137.073E-03
            1775     12.8900E-03     55.3277E-03    -9.22611E+06     61.4156E+06     80.0333E+06     49.2547E+03    -232.958E-03     461.853E-03    -228.895E-03     197.871E-03    -240.751E-03     469.599E-03    -228.571E-03     168.606E-03
            1776     12.1745E-03     55.0654E-03    -14.1058E+06     54.4656E+06     78.1240E+06     466.892E+03    -233.222E-03     462.120E-03    -228.898E-03     208.495E-03    -241.906E-03     470.721E-03    -228.566E-03     177.726E-03
            1777     11.4578E-03     54.7755E-03    -19.9008E+06     50.0247E+06     78.5905E+06     110.498E+03    -234.178E-03     463.091E-03    -228.912E-03     221.924E-03    -243.890E-03     472.681E-03    -228.563E-03     189.466E-03
            1778     10.7413E-03     54.4764E-03    -26.6809E+06     42.0024E+06     74.4419E+06    -12.7036E+03    -235.073E-03     463.966E-03    -228.893E-03     228.605E-03    -245.213E-03     473.944E-03    -228.543E-03     195.497E-03
            1779     10.0257E-03     54.1662E-03    -33.3680E+06     34.5641E+06     64.4824E+06     358.584E+03    -235.555E-03     464.383E-03    -228.828E-03     231.577E-03    -245.738E-03     474.383E-03    -228.508E-03     198.446E-03
            1780     9.31066E-03     53.8557E-03    -40.5191E+06     27.6549E+06     54.3350E+06     688.343E+03    -235.470E-03     464.234E-03    -228.764E-03     229.005E-03    -245.229E-03     473.789E-03    -228.473E-03     196.602E-03
            1781     8.59435E-03     53.5523E-03    -47.9027E+06     19.4184E+06     46.2666E+06     834.704E+03    -235.176E-03     463.893E-03    -228.717E-03     221.397E-03    -244.125E-03     472.607E-03    -228.445E-03     190.394E-03
            1782     7.87821E-03     53.2621E-03    -55.9107E+06     9.88339E+06     38.6437E+06     535.302E+03    -234.616E-03     463.292E-03    -228.677E-03     209.380E-03    -242.480E-03     470.881E-03    -228.417E-03     180.382E-03
            1783     7.16235E-03     52.9900E-03    -64.8408E+06    -14.1634E+06     26.5561E+06     683.438E+03    -233.771E-03     462.413E-03    -228.642E-03     193.988E-03    -240.395E-03     468.680E-03    -228.395E-03     167.493E-03
            1784     6.44599E-03     52.7408E-03    -74.1316E+06    -54.3460E+06     8.69590E+06     920.224E+03    -233.022E-03     461.632E-03    -228.610E-03     176.821E-03    -238.393E-03     466.522E-03    -228.380E-03     153.089E-03
            1785     5.72991E-03     52.5141E-03    -83.5083E+06    -96.4877E+06    -10.3424E+06     451.909E+03    -232.380E-03     460.948E-03    -228.568E-03     158.800E-03    -236.602E-03     464.560E-03    -228.358E-03     137.879E-03
            1786     5.01411E-03     52.3128E-03    -92.6594E+06    -130.754E+06    -28.9930E+06     281.261E+03    -231.552E-03     460.063E-03    -228.511E-03     140.059E-03    -234.767E-03     462.569E-03    -228.332E-03     121.997E-03
            1787     4.29776E-03     52.1368E-03    -101.334E+06    -159.786E+06    -48.1448E+06     565.553E+03    -230.660E-03     459.117E-03    -228.458E-03     120.793E-03    -233.015E-03     460.685E-03    -228.320E-03     105.581E-03
            1788     3.58138E-03     51.9862E-03    -110.141E+06    -196.930E+06    -67.9919E+06     370.127E+03    -229.981E-03     458.410E-03    -228.429E-03     101.297E-03    -231.616E-03     459.151E-03    -228.323E-03     88.8252E-03
            1789     2.86520E-03     51.8621E-03    -118.495E+06    -225.070E+06    -87.6201E+06     245.901E+03    -229.445E-03     457.832E-03    -228.387E-03     81.6965E-03    -230.515E-03     457.936E-03    -228.327E-03     71.8532E-03
            1790     2.14879E-03     51.7647E-03    -125.402E+06    -242.630E+06    -106.325E+06     421.946E+03    -228.943E-03     457.273E-03    -228.329E-03     61.8271E-03    -229.592E-03     456.923E-03    -228.327E-03     54.5022E-03
            1791     1.43265E-03     51.6946E-03    -130.791E+06    -262.265E+06    -121.861E+06     289.647E+03    -228.574E-03     456.866E-03    -228.293E-03     41.7221E-03    -228.916E-03     456.167E-03    -228.332E-03     36.8066E-03
            1792     716.370E-06     51.6515E-03    -134.273E+06    -275.821E+06    -131.802E+06     58.0404E+03    -228.420E-03     456.639E-03    -228.219E-03     22.4369E-03    -228.579E-03     455.725E-03    -228.283E-03     19.7725E-03
            1793     13.6051E-03     54.0879E-03    -4.05547E+06     66.4055E+06     82.8435E+06     266.867E+03    -231.751E-03     460.676E-03    -228.926E-03     160.780E-03    -237.168E-03     466.074E-03    -228.602E-03     137.047E-03
            1794     12.8898E-03     53.8292E-03    -8.90305E+06     61.9921E+06     80.4473E+06    -95.5390E+03    -232.961E-03     461.876E-03    -228.915E-03     197.823E-03    -240.754E-03     469.624E-03    -228.590E-03     168.536E-03
            1795     12.1732E-03     53.5668E-03    -14.5517E+06     53.3545E+06     77.3935E+06    -2.86275E+03    -233.538E-03     462.446E-03    -228.908E-03     208.750E-03    -242.220E-03     471.042E-03    -228.578E-03     177.943E-03
            1796     11.4572E-03     53.2777E-03    -20.5850E+06     49.3932E+06     77.6911E+06     274.191E+03    -234.519E-03     463.419E-03    -228.900E-03     221.475E-03    -244.225E-03     473.002E-03    -228.553E-03     188.956E-03
            1797     10.7423E-03     52.9765E-03    -26.8588E+06     43.3033E+06     74.3573E+06    -91.5639E+03    -235.184E-03     464.044E-03    -228.860E-03     228.012E-03    -245.312E-03     474.015E-03    -228.512E-03     194.882E-03
            1798     10.0271E-03     52.6680E-03    -33.8997E+06     34.1046E+06     63.9228E+06    -110.417E+03    -235.553E-03     464.339E-03    -228.787E-03     231.316E-03    -245.721E-03     474.323E-03    -228.467E-03     198.206E-03
            1799     9.31033E-03     52.3580E-03    -40.7487E+06     26.5155E+06     54.2331E+06     191.591E+03    -235.517E-03     464.236E-03    -228.719E-03     228.852E-03    -245.256E-03     473.767E-03    -228.427E-03     196.480E-03
            1800     8.59453E-03     52.0543E-03    -47.8754E+06     19.3919E+06     46.7674E+06     390.883E+03    -235.249E-03     463.912E-03    -228.663E-03     221.033E-03    -244.182E-03     472.608E-03    -228.388E-03     190.037E-03
            1801     7.87903E-03     51.7641E-03    -56.1840E+06     9.85453E+06     38.6590E+06     498.166E+03    -234.584E-03     463.193E-03    -228.609E-03     208.863E-03    -242.440E-03     470.772E-03    -228.348E-03     179.863E-03
            1802     7.16281E-03     51.4932E-03    -65.0153E+06    -13.9608E+06     26.5978E+06     732.638E+03    -233.738E-03     462.303E-03    -228.565E-03     193.626E-03    -240.355E-03     468.563E-03    -228.317E-03     167.142E-03
            1803     6.44682E-03     51.2438E-03    -74.2768E+06    -53.6690E+06     8.98367E+06     1.01483E+06    -233.000E-03     461.524E-03    -228.524E-03     176.659E-03    -238.364E-03     466.407E-03    -228.293E-03     152.952E-03
            1804     5.73068E-03     51.0177E-03    -83.7667E+06    -95.8361E+06    -10.5623E+06      802.76E+03    -232.183E-03     460.664E-03    -228.481E-03     158.577E-03    -236.394E-03     464.268E-03    -228.274E-03     137.717E-03
            1805     5.01409E-03     50.8164E-03     -92.722E+06    -130.832E+06    -29.5973E+06    -25.5752E+03    -231.345E-03     459.784E-03    -228.439E-03     139.909E-03    -234.550E-03     462.281E-03    -228.263E-03     121.890E-03
            1806     4.29807E-03     50.6406E-03    -101.643E+06    -160.183E+06    -48.3692E+06    -6.27928E+03    -230.623E-03     459.021E-03    -228.397E-03     120.893E-03    -232.978E-03     460.586E-03    -228.260E-03     105.686E-03
            1807     3.58182E-03     50.4908E-03    -110.410E+06    -196.426E+06    -67.7046E+06     670.745E+03    -229.963E-03     458.328E-03    -228.365E-03     101.487E-03    -231.600E-03     459.072E-03    -228.258E-03     89.0374E-03
            1808     2.86525E-03     50.3665E-03    -118.331E+06    -224.638E+06    -87.5260E+06     482.495E+03    -229.347E-03     457.670E-03    -228.323E-03     81.7625E-03    -230.418E-03     457.777E-03    -228.263E-03     71.9256E-03
            1809     2.14896E-03     50.2693E-03    -125.307E+06    -242.382E+06    -106.366E+06     235.668E+03    -228.824E-03     457.106E-03    -228.281E-03     61.7588E-03    -229.472E-03     456.757E-03    -228.280E-03     54.4367E-03
            1810     1.43251E-03     50.1990E-03    -130.622E+06    -261.516E+06    -121.646E+06     251.379E+03    -228.503E-03     456.773E-03    -228.269E-03     41.8916E-03    -228.846E-03     456.076E-03    -228.309E-03     36.9878E-03
            1811     716.367E-06     50.1560E-03    -134.540E+06    -275.396E+06    -131.730E+06     156.833E+03    -228.351E-03     456.621E-03    -228.269E-03     22.7665E-03    -228.513E-03     455.710E-03    -228.334E-03     20.1028E-03
            1812     13.6059E-03     52.5890E-03    -4.34807E+06     65.4141E+06     83.3144E+06    -296.485E+03    -231.405E-03     460.342E-03    -228.937E-03     160.510E-03    -236.816E-03     465.728E-03    -228.609E-03     136.827E-03
            1813     12.8890E-03     52.3315E-03    -8.76682E+06     62.1044E+06     80.7408E+06     486.646E+03    -233.088E-03     462.016E-03    -228.928E-03     197.614E-03    -240.877E-03     469.761E-03    -228.602E-03     168.303E-03
            1814     12.1735E-03     52.0674E-03    -14.3727E+06     53.9038E+06     77.5617E+06     569.858E+03    -234.093E-03     462.989E-03    -228.896E-03     207.816E-03    -242.764E-03     471.576E-03    -228.566E-03     176.927E-03
            1815     11.4589E-03     51.7781E-03    -20.0952E+06     49.1882E+06     77.9173E+06     217.201E+03    -234.710E-03     463.569E-03    -228.859E-03     220.977E-03    -244.404E-03     473.141E-03    -228.511E-03     188.424E-03
            1816     10.7428E-03     51.4785E-03    -26.8586E+06     44.0559E+06     74.0783E+06     272.024E+03    -235.120E-03     463.928E-03    -228.808E-03     227.867E-03    -245.215E-03     473.869E-03    -228.462E-03     194.828E-03
            1817     10.0261E-03     51.1691E-03    -33.6151E+06      34.794E+06     64.0822E+06    -172.424E+03    -235.518E-03     464.252E-03    -228.734E-03     230.722E-03    -245.657E-03     474.210E-03    -228.416E-03     197.650E-03
            1818     9.31138E-03     50.8598E-03    -40.6180E+06     26.3144E+06     54.3920E+06    -89.9013E+03    -235.546E-03     464.205E-03    -228.658E-03     228.203E-03    -245.271E-03     473.721E-03    -228.365E-03     195.816E-03
            1819     8.59576E-03     50.5564E-03    -48.7436E+06     18.9070E+06     45.7790E+06     43.4588E+03    -235.156E-03     463.747E-03    -228.592E-03     220.924E-03    -244.080E-03     472.433E-03    -228.319E-03     189.947E-03
            1820     7.87947E-03     50.2668E-03    -56.8081E+06     9.46709E+06     37.8436E+06     396.629E+03    -234.505E-03     463.044E-03    -228.540E-03     208.860E-03    -242.345E-03     470.606E-03    -228.282E-03     179.921E-03
            1821     7.16348E-03     49.9962E-03    -65.7264E+06    -14.4306E+06     25.8250E+06     643.429E+03    -233.760E-03     462.254E-03    -228.494E-03     193.619E-03    -240.367E-03     468.502E-03    -228.249E-03     167.175E-03
            1822     6.44723E-03     49.7470E-03    -74.7206E+06    -53.7795E+06     8.51983E+06     463.064E+03    -232.941E-03     461.391E-03    -228.450E-03     176.702E-03    -238.303E-03     466.272E-03    -228.221E-03     153.006E-03
            1823     5.73094E-03     49.5214E-03    -83.2777E+06    -94.6870E+06    -9.74409E+06     732.123E+03    -232.032E-03     460.447E-03    -228.416E-03     158.549E-03    -236.238E-03     464.050E-03    -228.206E-03     137.726E-03
            1824     5.01478E-03     49.3208E-03    -92.7067E+06    -129.889E+06    -29.3729E+06     766.182E+03    -231.184E-03     459.569E-03    -228.385E-03     139.862E-03    -234.383E-03     462.063E-03    -228.209E-03     121.907E-03
            1825     4.29793E-03     49.1448E-03    -102.211E+06    -160.637E+06    -49.8113E+06     66.8219E+03    -230.506E-03     458.858E-03    -228.352E-03     120.773E-03    -232.854E-03     460.418E-03    -228.220E-03     105.606E-03
            1826     3.58155E-03     48.9949E-03    -110.574E+06    -197.205E+06    -68.5626E+06    -241.590E+03    -229.948E-03     458.273E-03    -228.325E-03     101.321E-03    -231.582E-03     459.013E-03    -228.222E-03     88.8540E-03
            1827     2.86551E-03     48.8711E-03    -118.163E+06    -224.428E+06    -87.1322E+06     205.379E+03    -229.341E-03     457.619E-03    -228.278E-03     81.6165E-03    -230.410E-03     457.725E-03    -228.217E-03     71.7832E-03
            1828     2.14906E-03     48.7740E-03    -124.906E+06    -241.647E+06    -106.067E+06     348.938E+03    -228.782E-03     457.009E-03    -228.228E-03     61.6320E-03    -229.426E-03     456.660E-03    -228.227E-03     54.3370E-03
            1829     1.43260E-03     48.7040E-03    -130.487E+06    -261.279E+06    -121.552E+06     173.717E+03    -228.423E-03     456.643E-03    -228.221E-03     41.6766E-03    -228.764E-03     455.946E-03    -228.260E-03     36.7854E-03
            1830     715.966E-06     48.6603E-03    -134.001E+06    -275.167E+06    -131.585E+06     159.842E+03    -228.210E-03     456.536E-03    -228.326E-03     22.4709E-03    -228.368E-03     455.624E-03    -228.391E-03     19.8182E-03
            1831     13.6050E-03     51.0946E-03    -5.14034E+06     64.8307E+06      81.511E+06    -259.075E+03    -231.517E-03     460.440E-03    -228.923E-03     160.314E-03    -236.925E-03     465.823E-03    -228.602E-03     136.606E-03
            1832     12.8892E-03     50.8300E-03    -10.6795E+06     60.4029E+06     78.8314E+06    -9.80363E+03    -233.365E-03     462.270E-03    -228.906E-03     197.786E-03    -241.156E-03     470.010E-03    -228.583E-03     168.452E-03
            1833     12.1749E-03     50.5680E-03    -15.0109E+06     54.1535E+06     77.4029E+06     58.5457E+03    -234.190E-03     463.057E-03    -228.868E-03     208.256E-03    -242.873E-03     471.655E-03    -228.538E-03     177.342E-03
            1834     11.4584E-03     50.2793E-03    -20.7491E+06     48.2811E+06      77.484E+06     124.530E+03    -234.932E-03     463.753E-03    -228.821E-03     221.014E-03    -244.629E-03     473.322E-03    -228.473E-03     188.435E-03
            1835     10.7430E-03     49.9798E-03    -26.5041E+06     45.0367E+06     75.0596E+06     416.395E+03    -235.306E-03     464.060E-03    -228.754E-03     227.292E-03    -245.389E-03     473.991E-03    -228.405E-03     194.236E-03
            1836     10.0286E-03     49.6711E-03    -33.2751E+06     36.0979E+06     64.7031E+06     119.315E+03    -235.462E-03     464.127E-03    -228.665E-03     230.386E-03    -245.584E-03     474.071E-03    -228.346E-03     197.343E-03
            1837     9.31204E-03     49.3618E-03    -41.1334E+06     25.3640E+06     53.4122E+06     44.9662E+03    -235.372E-03     463.962E-03    -228.590E-03     228.315E-03    -245.076E-03     473.455E-03    -228.300E-03     196.002E-03
            1838     8.59565E-03     49.0592E-03    -48.6166E+06     19.0210E+06     45.6516E+06     406.795E+03    -235.074E-03     463.607E-03    -228.533E-03     220.912E-03    -243.977E-03     472.273E-03    -228.262E-03     190.006E-03
            1839     7.87972E-03     48.7693E-03    -57.0637E+06     9.22741E+06     37.4504E+06     580.824E+03    -234.432E-03     462.916E-03    -228.484E-03     208.601E-03    -242.250E-03     470.455E-03    -228.227E-03     179.729E-03
            1840     7.16361E-03     48.4991E-03    -65.8669E+06    -14.5417E+06     25.2803E+06     195.530E+03    -233.652E-03     462.091E-03    -228.440E-03     193.411E-03    -240.243E-03     468.324E-03    -228.197E-03     167.007E-03
            1841     6.44758E-03     48.2505E-03    -74.6232E+06    -53.9466E+06     8.06058E+06    -336.594E+03    -232.821E-03     461.222E-03    -228.401E-03     176.546E-03    -238.173E-03     466.095E-03    -228.175E-03     152.866E-03
            1842     5.73121E-03     48.0255E-03    -83.7781E+06    -95.3415E+06    -10.0650E+06     281.136E+03    -231.984E-03     460.356E-03    -228.373E-03     158.403E-03    -236.184E-03     463.950E-03    -228.163E-03     137.598E-03
            1843     5.01453E-03     47.8249E-03    -92.7345E+06    -129.031E+06    -28.5866E+06     939.856E+03    -231.233E-03     459.569E-03    -228.336E-03     139.637E-03    -234.428E-03     462.060E-03    -228.157E-03     121.696E-03
            1844     4.29850E-03     47.6494E-03    -101.362E+06    -158.804E+06    -48.5708E+06     756.751E+03    -230.510E-03     458.797E-03    -228.287E-03     120.452E-03    -232.851E-03     460.355E-03    -228.152E-03     105.317E-03
            1845     3.58209E-03     47.4992E-03    -110.419E+06    -197.224E+06    -69.2205E+06    -48.0896E+03    -229.880E-03     458.124E-03    -228.244E-03     100.929E-03    -231.503E-03     458.856E-03    -228.144E-03     88.5002E-03
            1846     2.86552E-03     47.3757E-03    -118.706E+06    -225.500E+06    -88.2827E+06    -504.124E+03    -229.307E-03     457.492E-03    -228.185E-03     81.1456E-03    -230.371E-03     457.590E-03    -228.127E-03     71.3198E-03
            1847     2.14914E-03     47.2789E-03    -125.384E+06    -241.809E+06    -106.221E+06    -48.7533E+03    -228.789E-03     456.891E-03    -228.103E-03     61.2191E-03    -229.433E-03     456.540E-03    -228.101E-03     53.9193E-03
            1848     1.43291E-03     47.2087E-03    -130.425E+06    -260.956E+06    -121.584E+06     102.000E+03    -228.402E-03     456.426E-03    -228.023E-03     41.3679E-03    -228.742E-03     455.729E-03    -228.064E-03     36.4853E-03
            1849     716.785E-06     47.1657E-03    -133.788E+06    -274.991E+06    -131.699E+06     62.4204E+03    -228.250E-03     456.047E-03    -227.797E-03     22.2301E-03    -228.407E-03     455.135E-03    -227.863E-03     19.5917E-03
            1850     13.6059E-03     49.5915E-03    -3.55147E+06     65.7081E+06     82.9151E+06     1.24619E+06    -232.281E-03     461.197E-03    -228.916E-03     160.899E-03    -237.686E-03     466.582E-03    -228.592E-03     137.175E-03
            1851     12.8909E-03     49.3344E-03    -8.77918E+06     61.2625E+06     79.9312E+06     454.759E+03    -233.659E-03     462.526E-03    -228.867E-03     197.357E-03    -241.441E-03     470.263E-03    -228.544E-03     167.977E-03
            1852     12.1731E-03     49.0670E-03    -15.1833E+06     54.0092E+06     76.9378E+06    -194.313E+03    -233.955E-03     462.773E-03    -228.818E-03     207.534E-03    -242.605E-03     471.338E-03    -228.490E-03     176.665E-03
            1853     11.4594E-03     48.7796E-03    -20.6149E+06     49.9792E+06     78.3442E+06    -330.806E+03    -234.810E-03     463.588E-03    -228.778E-03     220.248E-03    -244.480E-03     473.135E-03    -228.429E-03     187.700E-03
            1854     10.7446E-03     48.4804E-03    -26.6876E+06     43.8483E+06     74.8890E+06    -519.548E+03    -235.198E-03     463.911E-03    -228.713E-03     227.477E-03    -245.280E-03     473.837E-03    -228.363E-03     194.420E-03
            1855     10.0278E-03     48.1731E-03    -33.8967E+06     34.3092E+06     63.5230E+06     432.045E+03    -235.462E-03     464.089E-03    -228.627E-03     230.926E-03    -245.572E-03     474.016E-03    -228.310E-03     197.944E-03
            1856     9.31205E-03     47.8645E-03    -40.9842E+06     25.7765E+06     53.2674E+06     708.560E+03    -235.559E-03     464.105E-03    -228.547E-03     228.290E-03    -245.246E-03     473.584E-03    -228.258E-03     196.008E-03
            1857     8.59652E-03     47.5614E-03    -48.4826E+06     18.7665E+06     45.8089E+06     473.582E+03    -235.108E-03     463.587E-03    -228.479E-03     220.394E-03    -243.988E-03     472.229E-03    -228.207E-03     189.521E-03
            1858     7.88053E-03     47.2726E-03    -56.3222E+06     9.33789E+06     38.0595E+06     329.307E+03    -234.283E-03     462.710E-03    -228.427E-03     208.336E-03    -242.081E-03     470.231E-03    -228.169E-03     179.506E-03
            1859     7.16419E-03     47.0025E-03    -64.9549E+06    -13.8542E+06     26.0440E+06     228.824E+03    -233.514E-03     461.904E-03    -228.390E-03     193.236E-03    -240.090E-03     468.124E-03    -228.146E-03     166.879E-03
            1860     6.44767E-03     46.7541E-03    -74.4802E+06    -53.8644E+06     8.07830E+06     179.324E+03    -232.794E-03     461.144E-03    -228.351E-03     176.069E-03    -238.130E-03     466.002E-03    -228.124E-03     152.430E-03
            1861     5.73129E-03     46.5296E-03    -83.7181E+06    -95.8659E+06    -10.6689E+06    -105.398E+03    -232.055E-03     460.360E-03    -228.305E-03     157.825E-03    -236.241E-03     463.939E-03    -228.098E-03     137.027E-03
            1862     5.01533E-03     46.3290E-03    -92.5516E+06    -129.596E+06    -28.6055E+06     13.2131E+03    -231.300E-03     459.544E-03    -228.245E-03     139.043E-03    -234.481E-03     462.020E-03    -228.066E-03     121.110E-03
            1863     4.29876E-03     46.1538E-03    -101.405E+06    -158.651E+06    -47.7103E+06     525.283E+03    -230.521E-03     458.691E-03    -228.170E-03     119.935E-03    -232.857E-03     460.242E-03    -228.031E-03     104.804E-03
            1864     3.58238E-03     46.0040E-03    -109.824E+06    -195.637E+06    -67.7289E+06     894.555E+03    -229.835E-03     457.935E-03    -228.100E-03     100.463E-03    -231.454E-03     458.666E-03    -227.996E-03     88.0709E-03
            1865     2.86620E-03     45.8806E-03    -118.059E+06    -224.687E+06    -87.9916E+06     319.381E+03    -229.223E-03     457.232E-03    -228.009E-03     80.7111E-03    -230.280E-03     457.327E-03    -227.952E-03     70.9148E-03
            1866     2.14992E-03     45.7839E-03    -125.489E+06    -242.562E+06    -106.981E+06    -365.761E+03    -228.637E-03     456.539E-03    -227.902E-03     60.9625E-03    -229.279E-03     456.184E-03    -227.903E-03     53.6544E-03
            1867     1.43331E-03     45.7144E-03    -130.939E+06    -261.061E+06    -121.978E+06    -204.356E+03    -228.178E-03     455.996E-03    -227.819E-03     41.3751E-03    -228.519E-03     455.300E-03    -227.860E-03     36.4992E-03
            1868     716.528E-06     45.6712E-03    -134.329E+06    -274.926E+06    -131.915E+06    -47.7402E+03    -228.260E-03     455.650E-03    -227.390E-03     22.3777E-03    -228.419E-03     454.739E-03    -227.456E-03     19.7515E-03
            1869     13.6053E-03     48.0923E-03    -4.16783E+06     64.5831E+06     83.2525E+06    -17.0415E+03    -232.598E-03     461.491E-03    -228.893E-03     160.345E-03    -237.990E-03     466.856E-03    -228.564E-03     136.611E-03
            1870     12.8901E-03     47.8318E-03    -8.41587E+06     61.6821E+06     81.2037E+06     400.875E+03    -233.806E-03     462.634E-03    -228.828E-03     197.063E-03    -241.598E-03     470.380E-03    -228.499E-03     167.610E-03
            1871     12.1776E-03     47.5711E-03    -12.8921E+06     56.4837E+06     79.3739E+06     1.33478E+06    -234.096E-03     462.865E-03    -228.769E-03     207.926E-03    -242.721E-03     471.415E-03    -228.436E-03     177.166E-03
            1872     11.4599E-03     47.2797E-03    -18.9323E+06     51.0457E+06     78.8259E+06     786.184E+03    -234.401E-03     463.137E-03    -228.736E-03     220.825E-03    -244.020E-03     472.641E-03    -228.388E-03     188.495E-03
            1873     10.7433E-03     46.9826E-03    -26.5012E+06     41.4173E+06     73.3526E+06     404.704E+03    -234.975E-03     463.667E-03    -228.693E-03     227.299E-03    -245.013E-03     473.546E-03    -228.347E-03     194.353E-03
            1874     10.0281E-03     46.6747E-03    -33.1620E+06     33.5461E+06     63.8681E+06     1.03856E+06    -235.630E-03     464.242E-03    -228.612E-03     230.396E-03    -245.712E-03     474.140E-03    -228.293E-03     197.432E-03
            1875     9.31279E-03     46.3656E-03    -40.1255E+06     27.2521E+06     54.4210E+06     912.695E+03    -235.691E-03     464.207E-03    -228.516E-03     227.995E-03    -245.373E-03     473.685E-03    -228.225E-03     195.688E-03
            1876     8.59701E-03     46.0641E-03    -47.5783E+06     19.2513E+06     46.1781E+06     415.657E+03    -235.107E-03     463.543E-03    -228.435E-03     220.305E-03    -243.979E-03     472.180E-03    -228.163E-03     189.439E-03
            1877     7.88058E-03     45.7760E-03    -55.9809E+06     9.48627E+06     38.2415E+06     209.526E+03    -234.324E-03     462.702E-03    -228.378E-03     208.265E-03    -242.109E-03     470.212E-03    -228.120E-03     179.459E-03
            1878     7.16429E-03     45.5058E-03    -65.0217E+06    -13.5309E+06     26.4560E+06     644.297E+03    -233.630E-03     461.958E-03    -228.328E-03     192.863E-03    -240.190E-03     468.163E-03    -228.082E-03     166.537E-03
            1879     6.44830E-03     45.2579E-03    -74.0907E+06    -53.0344E+06     8.77115E+06     590.597E+03    -232.906E-03     461.170E-03    -228.264E-03     175.423E-03    -238.226E-03     466.013E-03    -228.036E-03     151.810E-03
            1880     5.73232E-03     45.0334E-03    -83.2875E+06    -95.6023E+06    -10.6009E+06     139.608E+03    -232.143E-03     460.328E-03    -228.185E-03     157.242E-03    -236.313E-03     463.894E-03    -227.979E-03     136.466E-03
            1881     5.01585E-03     44.8335E-03    -92.6355E+06    -130.759E+06    -29.7418E+06    -115.270E+03    -231.339E-03     459.428E-03    -228.089E-03     138.498E-03    -234.508E-03     461.891E-03    -227.914E-03     120.574E-03
            1882     4.29977E-03     44.6585E-03    -101.413E+06    -159.585E+06    -48.2637E+06    -275.232E+03    -230.475E-03     458.460E-03    -227.985E-03     119.355E-03    -232.803E-03     460.002E-03    -227.848E-03     104.217E-03
            1883     3.58343E-03     44.5092E-03    -109.584E+06    -195.341E+06    -66.6278E+06     403.890E+03    -229.679E-03     457.577E-03    -227.898E-03     100.061E-03    -231.296E-03     458.305E-03    -227.789E-03     87.6714E-03
            1884     2.86683E-03     44.3859E-03    -117.490E+06    -223.465E+06    -86.4615E+06     996.523E+03    -228.975E-03     456.778E-03    -227.803E-03     80.5223E-03    -230.030E-03     456.873E-03    -227.741E-03     70.7664E-03
            1885     2.15007E-03     44.2899E-03    -124.603E+06    -241.639E+06    -106.154E+06     550.205E+03    -228.378E-03     456.084E-03    -227.706E-03     60.7934E-03    -229.015E-03     455.728E-03    -227.706E-03     53.5316E-03
            1886     1.43339E-03     44.2205E-03    -130.334E+06    -261.297E+06    -121.795E+06     74.8911E+03    -227.941E-03     455.589E-03    -227.648E-03     41.1995E-03    -228.278E-03     454.889E-03    -227.690E-03     36.3298E-03
            1887     716.738E-06     44.1776E-03    -133.218E+06    -275.010E+06    -131.790E+06    -248.932E+03    -227.962E-03     455.342E-03    -227.380E-03     22.2373E-03    -228.116E-03     454.429E-03    -227.447E-03     19.6174E-03
            1888     13.6078E-03     46.5939E-03    -5.23816E+06     63.2498E+06     81.6847E+06    -740.214E+03    -232.355E-03     461.222E-03    -228.867E-03     161.131E-03    -237.756E-03     466.592E-03    -228.543E-03     137.381E-03
            1889     12.8918E-03     46.3334E-03    -9.64550E+06     59.9521E+06     79.9255E+06    -300.726E+03    -233.738E-03     462.558E-03    -228.820E-03     198.281E-03    -241.514E-03     470.281E-03    -228.493E-03     168.953E-03
            1890     12.1738E-03     46.0690E-03    -14.5524E+06     55.2800E+06     77.8199E+06    -100.084E+03    -234.183E-03     462.948E-03    -228.765E-03     208.226E-03    -242.828E-03     471.512E-03    -228.435E-03     177.401E-03
            1891     11.4598E-03     45.7833E-03    -20.2357E+06     49.2467E+06     77.5020E+06     962.934E+03    -234.610E-03     463.333E-03    -228.723E-03     220.628E-03    -244.230E-03     472.831E-03    -228.378E-03     188.256E-03
            1892     10.7444E-03     45.4834E-03    -25.9100E+06     43.1536E+06     74.6894E+06     1.79741E+06    -235.170E-03     463.840E-03    -228.670E-03     226.982E-03    -245.182E-03     473.697E-03    -228.321E-03     194.087E-03
            1893     10.0288E-03     45.1764E-03    -32.9205E+06     34.7973E+06     64.6708E+06     792.723E+03    -235.659E-03     464.235E-03    -228.576E-03     230.092E-03    -245.727E-03     474.122E-03    -228.255E-03     197.122E-03
            1894     9.31271E-03     44.8675E-03    -39.6705E+06     27.1184E+06     54.6647E+06     302.831E+03    -235.505E-03     463.985E-03    -228.480E-03     227.605E-03    -245.156E-03     473.433E-03    -228.188E-03     195.359E-03
            1895     8.59671E-03     44.5664E-03    -47.1914E+06     19.6782E+06     46.5600E+06     532.114E+03    -235.139E-03     463.537E-03    -228.398E-03     219.681E-03    -243.987E-03     472.153E-03    -228.125E-03     188.835E-03
            1896     7.88110E-03     44.2790E-03    -55.5827E+06     9.93643E+06     38.6313E+06     895.516E+03    -234.642E-03     462.955E-03    -228.313E-03     207.423E-03    -242.406E-03     470.445E-03    -228.054E-03     178.608E-03
            1897     7.16526E-03     44.0091E-03    -64.3820E+06    -13.4516E+06     26.6025E+06     679.162E+03    -233.823E-03     462.044E-03    -228.220E-03     191.966E-03    -240.359E-03     468.226E-03    -227.974E-03     165.646E-03
            1898     6.44921E-03     43.7613E-03    -73.4434E+06    -52.7498E+06     9.16903E+06     581.330E+03    -232.932E-03     461.055E-03    -228.124E-03     174.719E-03    -238.234E-03     465.883E-03    -227.895E-03     151.120E-03
            1899     5.73293E-03     43.5377E-03    -82.6093E+06    -94.7353E+06    -9.73363E+06     730.121E+03    -232.115E-03     460.136E-03    -228.021E-03     156.654E-03    -236.275E-03     463.695E-03    -227.812E-03     135.899E-03
            1900     5.01706E-03     43.3377E-03     -91.736E+06    -129.504E+06    -28.9026E+06     402.145E+03    -231.220E-03     459.125E-03    -227.904E-03     138.043E-03    -234.380E-03     461.583E-03    -227.728E-03     120.150E-03
            1901     4.30070E-03     43.1636E-03    -101.014E+06    -159.413E+06    -48.4623E+06     53.4644E+03    -230.284E-03     458.073E-03    -227.789E-03     119.193E-03    -232.603E-03     459.608E-03    -227.654E-03     104.106E-03
            1902     3.58409E-03     43.0150E-03    -109.817E+06    -196.742E+06    -67.7118E+06    -225.636E+03    -229.460E-03     457.164E-03    -227.704E-03     100.098E-03    -231.071E-03     457.883E-03    -227.598E-03     87.7363E-03
            1903     2.86738E-03     42.8923E-03    -117.389E+06    -224.114E+06    -86.0869E+06     165.235E+03    -228.742E-03     456.368E-03    -227.626E-03     80.5325E-03    -229.794E-03     456.457E-03    -227.561E-03     70.7952E-03
            1904     2.15066E-03     42.7963E-03    -124.162E+06    -240.603E+06    -104.655E+06     901.187E+03    -228.192E-03     455.733E-03    -227.541E-03     60.7021E-03    -228.828E-03     455.378E-03    -227.535E-03     53.4807E-03
            1905     1.43384E-03     42.7272E-03    -129.569E+06    -260.014E+06    -120.827E+06     709.562E+03    -227.786E-03     455.263E-03    -227.477E-03     41.0779E-03    -228.122E-03     454.566E-03    -227.516E-03     36.2268E-03
            1906     716.892E-06     42.6845E-03    -132.618E+06    -274.613E+06    -130.754E+06     247.162E+03    -227.583E-03     454.991E-03    -227.408E-03     22.4200E-03    -227.736E-03     454.078E-03    -227.471E-03     19.7951E-03
            1907     13.6045E-03     45.0933E-03    -3.60926E+06     64.4652E+06     82.4513E+06     614.819E+03    -232.485E-03     461.373E-03    -228.888E-03     161.669E-03    -237.885E-03     466.750E-03    -228.564E-03     137.920E-03
            1908     12.8895E-03     44.8331E-03    -9.55947E+06     60.2121E+06     78.7158E+06     46.3687E+03    -233.903E-03     462.731E-03    -228.828E-03     197.764E-03    -241.660E-03     470.439E-03    -228.508E-03     168.424E-03
            1909     12.1766E-03     44.5705E-03    -15.1524E+06     53.6706E+06      76.129E+06    -809.506E+03    -234.165E-03     462.931E-03    -228.766E-03     207.382E-03    -242.802E-03     471.483E-03    -228.441E-03     176.487E-03
            1910     11.4601E-03     44.2833E-03    -20.0433E+06     48.5011E+06     77.8545E+06    -156.431E+03    -234.884E-03     463.602E-03    -228.717E-03     220.292E-03    -244.512E-03     473.104E-03    -228.369E-03     187.815E-03
            1911     10.7445E-03     43.9852E-03    -26.3367E+06     43.0714E+06     74.6829E+06     722.743E+03    -235.483E-03     464.123E-03    -228.640E-03     227.082E-03    -245.494E-03     473.977E-03    -228.291E-03     194.140E-03
            1912     10.0288E-03     43.6773E-03    -32.5908E+06     35.4957E+06     64.7458E+06     362.536E+03    -235.741E-03     464.269E-03    -228.528E-03     229.633E-03    -245.781E-03     474.131E-03    -228.208E-03     196.690E-03
            1913     9.31354E-03     43.3703E-03    -39.7406E+06     26.7077E+06     54.4520E+06     295.071E+03    -235.625E-03     464.040E-03    -228.415E-03     226.611E-03    -245.242E-03     473.453E-03    -228.123E-03     194.382E-03
            1914     8.59771E-03     43.0691E-03    -47.3662E+06     18.9959E+06     46.4870E+06     546.756E+03    -235.316E-03     463.622E-03    -228.306E-03     218.719E-03    -244.130E-03     472.200E-03    -228.032E-03     187.890E-03
            1915     7.88202E-03     42.7810E-03    -55.4297E+06     10.1242E+06     38.6655E+06     734.747E+03    -234.754E-03     462.943E-03    -228.188E-03     206.495E-03    -242.491E-03     470.407E-03    -227.929E-03     177.691E-03
            1916     7.16650E-03     42.5124E-03    -64.4036E+06    -13.1103E+06     26.5687E+06     834.351E+03    -233.840E-03     461.907E-03    -228.067E-03     191.252E-03    -240.359E-03     468.074E-03    -227.821E-03     164.946E-03
            1917     6.45043E-03     42.2657E-03    -73.8109E+06    -52.4605E+06     8.88464E+06     673.959E+03    -232.865E-03     460.814E-03    -227.949E-03     174.274E-03    -238.153E-03     465.628E-03    -227.721E-03     150.720E-03
            1918     5.73452E-03     42.0418E-03    -82.8323E+06    -94.3915E+06    -9.57229E+06     377.239E+03    -231.917E-03     459.756E-03    -227.840E-03     156.378E-03    -236.064E-03     463.302E-03    -227.630E-03     135.679E-03
            1919     5.01795E-03     41.8432E-03    -91.8093E+06    -128.880E+06    -28.3563E+06     604.888E+03    -230.939E-03     458.671E-03    -227.732E-03     137.892E-03    -234.089E-03     461.120E-03    -227.554E-03     120.069E-03
            1920     4.30119E-03     41.6694E-03    -100.658E+06    -158.413E+06    -48.2335E+06     543.403E+03    -230.052E-03     457.679E-03    -227.627E-03     118.989E-03    -232.362E-03     459.209E-03    -227.493E-03     103.966E-03
            1921     3.58448E-03     41.5212E-03    -109.188E+06    -196.401E+06    -67.7153E+06    -51.2283E+03    -229.293E-03     456.839E-03    -227.547E-03     99.7571E-03    -230.894E-03     457.553E-03    -227.442E-03     87.4306E-03
            1922     2.86771E-03     41.3990E-03    -117.379E+06    -224.901E+06    -86.7580E+06    -184.006E+03    -228.568E-03     456.036E-03    -227.468E-03     80.2754E-03    -229.614E-03     456.119E-03    -227.406E-03     70.5603E-03
            1923     2.15074E-03     41.3032E-03    -124.368E+06    -240.985E+06    -105.029E+06     105.811E+03    -227.980E-03     455.376E-03    -227.397E-03     60.6744E-03    -228.614E-03     455.018E-03    -227.392E-03     53.4568E-03
            1924     1.43387E-03     41.2342E-03    -129.545E+06    -258.942E+06    -120.395E+06     437.806E+03    -227.634E-03     454.986E-03    -227.352E-03     41.0896E-03    -227.972E-03     454.294E-03    -227.391E-03     36.2346E-03
            1925     716.902E-06     41.1921E-03    -133.654E+06    -273.587E+06    -130.348E+06     488.813E+03    -227.333E-03     454.746E-03    -227.413E-03     22.4200E-03    -227.494E-03     453.840E-03    -227.474E-03     19.7910E-03
            1926     13.6070E-03     43.5949E-03    -4.60535E+06     63.9114E+06     81.4656E+06     301.933E+03    -232.774E-03     461.666E-03    -228.893E-03     160.603E-03    -238.158E-03     467.024E-03    -228.571E-03     136.831E-03
            1927     12.8919E-03     43.3324E-03    -8.77367E+06     62.1838E+06     79.6216E+06     910.464E+03    -233.856E-03     462.682E-03    -228.826E-03     197.551E-03    -241.601E-03     470.386E-03    -228.506E-03     168.242E-03
            1928     12.1745E-03     43.0713E-03    -13.6843E+06     55.0640E+06     77.9746E+06     651.830E+03    -234.326E-03     463.093E-03    -228.767E-03     207.586E-03    -242.940E-03     471.628E-03    -228.437E-03     176.764E-03
            1929     11.4597E-03     42.7835E-03    -20.2397E+06     47.3274E+06     77.1878E+06    -279.487E+03    -235.274E-03     463.970E-03    -228.696E-03     219.952E-03    -244.873E-03     473.441E-03    -228.349E-03     187.465E-03
            1930     10.7448E-03     42.4859E-03    -26.3301E+06     42.0572E+06     74.0335E+06    -669.842E+03    -235.758E-03     464.347E-03    -228.588E-03     225.886E-03    -245.742E-03     474.172E-03    -228.241E-03     192.867E-03
            1931     10.0298E-03     42.1788E-03    -33.2268E+06     35.3203E+06     64.4875E+06     15.0353E+03    -235.904E-03     464.350E-03    -228.447E-03     228.502E-03    -245.910E-03     474.177E-03    -228.128E-03     195.565E-03
            1932     9.31430E-03     41.8720E-03    -40.3458E+06     26.3345E+06     53.9507E+06     227.705E+03    -235.856E-03     464.157E-03    -228.302E-03     225.763E-03    -245.444E-03     473.539E-03    -228.011E-03     193.537E-03
            1933     8.59918E-03     41.5714E-03    -47.7497E+06     18.8048E+06     46.0336E+06     366.827E+03    -235.438E-03     463.600E-03    -228.162E-03     218.160E-03    -244.224E-03     472.149E-03    -227.890E-03     187.366E-03
            1934     7.88366E-03     41.2841E-03    -56.3709E+06     9.70500E+06     38.0022E+06     560.508E+03    -234.575E-03     462.606E-03    -228.031E-03     206.122E-03    -242.286E-03     470.041E-03    -227.773E-03     177.401E-03
            1935     7.16750E-03     41.0159E-03    -65.2224E+06    -13.0083E+06     26.2007E+06     585.856E+03    -233.658E-03     461.569E-03    -227.911E-03     190.991E-03    -240.157E-03     467.714E-03    -227.667E-03     164.764E-03
            1936     6.45165E-03     40.7698E-03    -74.0067E+06    -51.5783E+06     9.06765E+06     425.279E+03    -232.729E-03     460.523E-03    -227.794E-03     174.175E-03    -238.001E-03     465.323E-03    -227.567E-03     150.693E-03
            1937     5.73503E-03     40.5471E-03    -82.9728E+06    -94.8342E+06    -10.1092E+06     81.8534E+03    -231.737E-03     459.422E-03    -227.685E-03     156.240E-03    -235.869E-03     462.952E-03    -227.477E-03     135.604E-03
            1938     5.01848E-03     40.3489E-03    -91.5998E+06    -129.290E+06    -28.5762E+06     18.9158E+03    -230.810E-03     458.387E-03    -227.577E-03     137.556E-03    -233.946E-03     460.821E-03    -227.399E-03     119.771E-03
            1939     4.30198E-03     40.1756E-03    -100.192E+06    -157.545E+06    -47.4037E+06     342.577E+03    -229.950E-03     457.415E-03    -227.465E-03     118.524E-03    -232.250E-03     458.937E-03    -227.328E-03     103.528E-03
            1940     3.58526E-03     40.0279E-03    -108.995E+06    -195.411E+06    -67.0717E+06     555.761E+03    -229.149E-03     456.518E-03    -227.369E-03     99.2524E-03    -230.745E-03     457.228E-03    -227.263E-03     86.9653E-03
            1941     2.86833E-03     39.9061E-03    -117.166E+06    -224.577E+06    -86.7602E+06     396.160E+03    -228.418E-03     455.692E-03    -227.274E-03     79.7719E-03    -229.458E-03     455.770E-03    -227.212E-03     70.0888E-03
            1942     2.15126E-03     39.8109E-03    -124.168E+06    -241.274E+06    -105.579E+06    -1.40499E+03    -227.815E-03     454.996E-03    -227.181E-03     60.1466E-03    -228.443E-03     454.634E-03    -227.179E-03     52.9428E-03
            1943     1.43397E-03     39.7417E-03    -129.877E+06    -259.223E+06    -121.008E+06    -23.4173E+03    -227.423E-03     454.541E-03    -227.118E-03     40.5577E-03    -227.758E-03     453.846E-03    -227.159E-03     35.7286E-03
            1944     717.140E-06     39.6992E-03    -133.219E+06    -272.439E+06    -130.831E+06     228.181E+03    -227.180E-03     454.255E-03    -227.075E-03     21.9313E-03    -227.337E-03     453.353E-03    -227.141E-03     19.3249E-03
            1945     13.6054E-03     42.0932E-03    -4.35427E+06     63.3618E+06     81.4604E+06     47.2882E+03    -232.751E-03     461.644E-03    -228.892E-03     160.956E-03    -238.138E-03     467.004E-03    -228.571E-03     137.185E-03
            1946     12.8895E-03     41.8338E-03    -8.88214E+06     61.0970E+06     80.2220E+06     315.945E+03    -234.070E-03     462.896E-03    -228.826E-03     197.477E-03    -241.800E-03     470.579E-03    -228.501E-03     168.166E-03
            1947     12.1757E-03     41.5712E-03    -14.0837E+06     55.3889E+06     78.0407E+06     525.477E+03    -234.799E-03     463.538E-03    -228.739E-03     206.505E-03    -243.379E-03     472.038E-03    -228.408E-03     175.642E-03
            1948     11.4609E-03     41.2833E-03    -19.6466E+06     48.3093E+06     77.6215E+06    -76.2712E+03    -235.571E-03     464.203E-03    -228.633E-03     218.790E-03    -245.137E-03     473.646E-03    -228.286E-03     186.268E-03
            1949     10.7463E-03     40.9860E-03    -26.3349E+06     41.7083E+06     73.8538E+06    -427.284E+03    -235.849E-03     464.348E-03    -228.499E-03     225.049E-03    -245.811E-03     474.150E-03    -228.152E-03     192.030E-03
            1950     10.0311E-03     40.6808E-03    -33.1192E+06     35.1346E+06     64.3974E+06     128.152E+03    -236.014E-03     464.353E-03    -228.339E-03     228.100E-03    -246.001E-03     474.160E-03    -228.020E-03     195.174E-03
            1951     9.31598E-03     40.3737E-03    -40.2391E+06     26.7713E+06     54.1514E+06     616.284E+03    -235.889E-03     464.068E-03    -228.179E-03     225.637E-03    -245.446E-03     473.420E-03    -227.889E-03     193.492E-03
            1952     8.60046E-03     40.0739E-03    -48.2915E+06     18.7047E+06     45.6574E+06     626.467E+03    -235.346E-03     463.379E-03    -228.033E-03     218.107E-03    -244.106E-03     471.902E-03    -227.762E-03     187.404E-03
            1953     7.88450E-03     39.7877E-03    -55.9764E+06     9.74803E+06     38.1456E+06     432.572E+03    -234.492E-03     462.394E-03    -227.903E-03     206.147E-03    -242.179E-03     469.807E-03    -227.645E-03     177.504E-03
            1954     7.16859E-03     39.5200E-03    -64.2150E+06    -12.5683E+06     26.5400E+06     118.217E+03    -233.548E-03     461.329E-03    -227.782E-03     190.850E-03    -240.018E-03     467.450E-03    -227.538E-03     164.700E-03
            1955     6.45205E-03     39.2745E-03    -72.9403E+06    -51.5542E+06     9.27774E+06    -4.94824E+03    -232.663E-03     460.321E-03    -227.659E-03     173.672E-03    -237.909E-03     465.099E-03    -227.432E-03     150.231E-03
            1956     5.73592E-03     39.0526E-03    -81.8341E+06    -94.4537E+06    -9.51384E+06     249.603E+03    -231.759E-03     459.289E-03    -227.530E-03     155.418E-03    -235.870E-03     462.801E-03    -227.322E-03     134.805E-03
            1957     5.01953E-03     38.8549E-03    -91.4302E+06    -129.161E+06    -28.6689E+06     357.911E+03    -230.777E-03     458.166E-03    -227.389E-03     136.731E-03    -233.897E-03     460.586E-03    -227.213E-03     118.983E-03
            1958     4.30277E-03     38.6821E-03    -100.829E+06    -157.944E+06    -48.1191E+06     258.748E+03    -229.802E-03     457.053E-03    -227.250E-03     117.791E-03    -232.091E-03     458.562E-03    -227.116E-03     102.836E-03
            1959     3.58590E-03     38.5351E-03    -109.179E+06    -195.179E+06    -67.1462E+06     476.628E+03    -228.974E-03     456.112E-03    -227.138E-03     98.6174E-03    -230.561E-03     456.813E-03    -227.032E-03     86.3737E-03
            1960     2.86896E-03     38.4138E-03    -117.269E+06    -224.389E+06    -86.6386E+06     643.945E+03    -228.276E-03     455.293E-03    -227.017E-03     79.2807E-03    -229.311E-03     455.366E-03    -226.955E-03     69.6330E-03
            1961     2.15198E-03     38.3188E-03    -124.450E+06    -240.940E+06    -105.848E+06     715.135E+03    -227.658E-03     454.538E-03    -226.880E-03     59.8395E-03    -228.284E-03     454.174E-03    -226.879E-03     52.6823E-03
            1962     1.43509E-03     38.2502E-03    -129.605E+06    -258.635E+06    -121.024E+06     375.296E+03    -227.124E-03     453.906E-03    -226.782E-03     40.4543E-03    -227.456E-03     453.211E-03    -226.824E-03     35.6723E-03
            1963     717.365E-06     38.2082E-03    -132.435E+06    -271.747E+06    -130.495E+06    -94.3022E+03    -226.845E-03     453.574E-03    -226.729E-03     22.1291E-03    -227.000E-03     452.673E-03    -226.795E-03     19.5345E-03
            1964     13.6062E-03     40.5952E-03    -3.74418E+06     63.0016E+06     82.6017E+06    -123.097E+03    -233.170E-03     462.070E-03    -228.900E-03     160.188E-03    -238.546E-03     467.417E-03    -228.573E-03     136.371E-03
            1965     12.8916E-03     40.3326E-03    -8.47972E+06     60.2449E+06     80.1366E+06     146.222E+03    -234.819E-03     463.610E-03    -228.791E-03     196.668E-03    -242.536E-03     471.279E-03    -228.466E-03     167.241E-03
            1966     12.1766E-03     40.0703E-03    -13.5366E+06     55.5970E+06     77.8273E+06     212.665E+03    -235.137E-03     463.800E-03    -228.663E-03     205.979E-03    -243.688E-03     472.274E-03    -228.335E-03     175.113E-03
            1967     11.4621E-03     39.7833E-03    -19.2925E+06     48.5676E+06     77.6392E+06     527.959E+03    -235.464E-03     464.010E-03    -228.547E-03     218.734E-03    -245.012E-03     473.437E-03    -228.201E-03     186.277E-03
            1968     10.7469E-03     39.4866E-03    -25.9156E+06     41.8944E+06     73.6329E+06     590.397E+03    -235.739E-03     464.154E-03    -228.415E-03     225.066E-03    -245.681E-03     473.939E-03    -228.070E-03     192.114E-03
            1969     10.0319E-03     39.1819E-03    -33.1272E+06     35.3722E+06     63.9183E+06     449.289E+03    -236.012E-03     464.266E-03    -228.255E-03     228.227E-03    -245.979E-03     474.056E-03    -227.938E-03     195.358E-03
            1970     9.31659E-03     38.8756E-03    -40.5272E+06     26.7978E+06     53.9950E+06     676.682E+03    -235.870E-03     463.966E-03    -228.096E-03     225.818E-03    -245.406E-03     473.297E-03    -227.807E-03     193.748E-03
            1971     8.60084E-03     38.5770E-03    -47.5207E+06     19.1570E+06     46.1241E+06     442.415E+03    -235.361E-03     463.308E-03    -227.948E-03     217.999E-03    -244.095E-03     471.808E-03    -227.676E-03     187.350E-03
            1972     7.88523E-03     38.2908E-03    -55.2316E+06     10.0954E+06     38.2135E+06    -58.1818E+03    -234.587E-03     462.388E-03    -227.801E-03     205.694E-03    -242.254E-03     469.784E-03    -227.544E-03     177.058E-03
            1973     7.16913E-03     38.0245E-03    -63.7336E+06    -12.5334E+06     26.5249E+06    -147.766E+03    -233.702E-03     461.353E-03    -227.651E-03     190.157E-03    -240.154E-03     467.458E-03    -227.408E-03     163.998E-03
            1974     6.45335E-03     37.7791E-03    -73.1696E+06    -51.8007E+06     8.83935E+06     172.889E+03    -232.762E-03     460.252E-03    -227.490E-03     172.737E-03    -237.984E-03     465.005E-03    -227.265E-03     149.330E-03
            1975     5.73715E-03     37.5580E-03    -83.0528E+06    -94.8280E+06    -10.4659E+06     622.800E+03    -231.730E-03     459.056E-03    -227.325E-03     154.538E-03    -235.818E-03     462.542E-03    -227.120E-03     134.000E-03
            1976     5.02075E-03     37.3612E-03    -92.2006E+06    -128.748E+06    -29.3979E+06     890.867E+03    -230.691E-03     457.846E-03    -227.155E-03     136.048E-03    -233.796E-03     460.252E-03    -226.982E-03     118.363E-03
            1977     4.30411E-03     37.1896E-03    -100.859E+06    -157.193E+06    -48.6347E+06     655.937E+03    -229.681E-03     456.668E-03    -226.987E-03     117.147E-03    -231.955E-03     458.168E-03    -226.856E-03     102.253E-03
            1978     3.58713E-03     37.0429E-03    -109.656E+06    -195.509E+06    -67.9105E+06     247.344E+03    -228.786E-03     455.634E-03    -226.848E-03     98.0018E-03    -230.362E-03     456.323E-03    -226.745E-03     85.8086E-03
            1979     2.86998E-03     36.9223E-03    -117.834E+06    -224.552E+06    -87.0360E+06     363.713E+03    -227.974E-03     454.687E-03    -226.713E-03     78.8180E-03    -229.003E-03     454.753E-03    -226.652E-03     69.2196E-03
            1980     2.15263E-03     36.8276E-03    -124.562E+06    -240.096E+06    -105.409E+06     433.564E+03    -227.295E-03     453.880E-03    -226.585E-03     59.5923E-03    -227.919E-03     453.516E-03    -226.584E-03     52.4707E-03
            1981     1.43481E-03     36.7597E-03    -129.473E+06    -257.630E+06    -120.387E+06     243.201E+03    -226.867E-03     453.353E-03    -226.486E-03     40.2898E-03    -227.200E-03     452.661E-03    -226.527E-03     35.5155E-03
            1982     717.567E-06     36.7178E-03    -132.441E+06    -271.716E+06    -130.340E+06     35.0203E+03    -226.441E-03     452.953E-03    -226.511E-03     21.8602E-03    -226.596E-03     452.051E-03    -226.577E-03     19.2720E-03
            1983     13.6055E-03     39.0922E-03    -4.98977E+06     63.2391E+06     80.9797E+06    -331.026E+03    -233.777E-03     462.645E-03    -228.868E-03     160.180E-03    -239.161E-03     468.001E-03    -228.547E-03     136.273E-03
            1984     12.8918E-03     38.8309E-03    -9.96466E+06     59.6751E+06     78.4733E+06    -620.508E+03    -235.055E-03     463.790E-03    -228.736E-03     196.733E-03    -242.775E-03     471.460E-03    -228.416E-03     167.264E-03
            1985     12.1777E-03     38.5699E-03    -15.2649E+06     54.3693E+06     76.5865E+06    -10.5901E+03    -235.003E-03     463.610E-03    -228.607E-03     206.314E-03    -243.555E-03     472.079E-03    -228.281E-03     175.488E-03
            1986     11.4626E-03     38.2836E-03    -21.2154E+06     48.2421E+06     76.6024E+06     218.997E+03    -235.434E-03     463.930E-03    -228.495E-03     218.976E-03    -244.980E-03     473.349E-03    -228.151E-03     186.544E-03
            1987     10.7477E-03     37.9877E-03    -27.6120E+06     42.3012E+06     72.9632E+06    -147.763E+03    -235.755E-03     464.119E-03    -228.364E-03     225.082E-03    -245.673E-03     473.877E-03    -228.020E-03     192.184E-03
            1988     10.0323E-03     37.6830E-03    -34.0824E+06     34.9684E+06     63.1189E+06    -146.181E+03    -236.021E-03     464.220E-03    -228.199E-03     227.864E-03    -245.954E-03     473.973E-03    -227.885E-03     195.055E-03
            1989     9.31680E-03     37.3780E-03    -40.4078E+06     26.4772E+06     53.6751E+06    -308.819E+03    -235.963E-03     463.992E-03    -228.029E-03     225.119E-03    -245.469E-03     473.293E-03    -227.741E-03     193.048E-03
            1990     8.60162E-03     37.0789E-03    -47.4547E+06     19.4883E+06     46.1704E+06    -440.757E+03    -235.513E-03     463.371E-03    -227.858E-03     217.109E-03    -244.222E-03     471.847E-03    -227.586E-03     186.441E-03
            1991     7.88602E-03     36.7947E-03    -55.6891E+06     9.95967E+06     37.8120E+06    -218.343E+03    -234.782E-03     462.458E-03    -227.675E-03     204.719E-03    -242.420E-03     469.824E-03    -227.420E-03     176.088E-03
            1992     7.17058E-03     36.5280E-03    -65.0188E+06    -13.3592E+06     25.4844E+06     183.615E+03    -233.870E-03     461.354E-03    -227.484E-03     189.214E-03    -240.293E-03     467.425E-03    -227.243E-03     163.096E-03
            1993     6.45475E-03     36.2842E-03    -74.5890E+06    -52.0573E+06     8.03856E+06     715.293E+03    -232.732E-03     460.020E-03    -227.289E-03     171.905E-03    -237.930E-03     464.746E-03    -227.065E-03     148.570E-03
            1994     5.73849E-03     36.0641E-03    -83.5904E+06    -94.5790E+06    -11.0580E+06     755.217E+03    -231.588E-03     458.689E-03    -227.101E-03     153.955E-03    -235.656E-03     462.157E-03    -226.898E-03     133.490E-03
            1995     5.02191E-03     35.8681E-03    -92.1706E+06    -128.696E+06    -29.9614E+06     391.286E+03    -230.569E-03     457.482E-03    -226.913E-03     135.535E-03    -233.656E-03     459.871E-03    -226.743E-03     117.910E-03
            1996     4.30512E-03     35.6971E-03    -100.766E+06    -156.738E+06    -48.9861E+06     715.242E+03    -229.569E-03     456.290E-03    -226.721E-03     116.686E-03    -231.830E-03     457.779E-03    -226.592E-03     101.848E-03
            1997     3.58819E-03     35.5516E-03    -109.166E+06    -194.672E+06    -67.7339E+06     712.239E+03    -228.630E-03     455.183E-03    -226.553E-03     97.6170E-03    -230.196E-03     455.867E-03    -226.451E-03     85.4819E-03
            1998     2.87089E-03     35.4317E-03    -117.068E+06    -223.809E+06    -85.9379E+06     99.3519E+03    -227.750E-03     454.143E-03    -226.393E-03     78.3458E-03    -228.770E-03     454.202E-03    -226.328E-03     68.7971E-03
            1999     2.15317E-03     35.3377E-03    -124.146E+06    -239.823E+06    -104.505E+06    -142.777E+03    -227.018E-03     453.253E-03    -226.234E-03     58.9954E-03    -227.637E-03     452.883E-03    -226.229E-03     51.8991E-03
            2000     1.43580E-03     35.2697E-03    -129.580E+06    -257.541E+06    -120.326E+06    -31.0207E+03    -226.522E-03     452.624E-03    -226.102E-03     39.7409E-03    -226.853E-03     451.929E-03    -226.142E-03     34.9932E-03
            2001     718.055E-06     35.2280E-03    -133.028E+06    -271.830E+06    -130.849E+06     125.007E+03    -226.186E-03     452.147E-03    -225.961E-03     21.2924E-03    -226.340E-03     451.244E-03    -226.028E-03     18.7321E-03
            2002     13.6074E-03     37.5901E-03    -4.83327E+06     63.7047E+06     80.7433E+06     575.658E+03    -234.031E-03     462.871E-03    -228.839E-03     160.306E-03    -239.393E-03     468.207E-03    -228.521E-03     136.447E-03
            2003     12.8926E-03     37.3300E-03    -9.17117E+06     60.4863E+06     79.1888E+06     429.419E+03    -234.723E-03     463.435E-03    -228.712E-03     196.316E-03    -242.405E-03     471.070E-03    -228.391E-03     166.972E-03
            2004     12.1772E-03     37.0695E-03    -14.5840E+06     53.9989E+06     76.9166E+06     214.952E+03    -234.934E-03     463.529E-03    -228.595E-03     206.580E-03    -243.474E-03     471.985E-03    -228.267E-03     175.780E-03
            2005     11.4626E-03     36.7833E-03    -20.0072E+06     49.2938E+06     77.6123E+06    -55.7555E+03    -235.710E-03     464.188E-03    -228.478E-03     218.758E-03    -245.220E-03     473.577E-03    -228.132E-03     186.344E-03
            2006     10.7477E-03     36.4882E-03    -26.0087E+06     42.2952E+06     74.1565E+06    -118.017E+03    -235.999E-03     464.326E-03    -228.327E-03     224.337E-03    -245.872E-03     474.042E-03    -227.980E-03     191.470E-03
            2007     10.0328E-03     36.1844E-03    -32.5241E+06     34.6177E+06     64.3773E+06    -62.2324E+03    -236.212E-03     464.352E-03    -228.140E-03     227.121E-03    -246.109E-03     474.070E-03    -227.821E-03     194.318E-03
            2008     9.31808E-03     35.8795E-03    -39.8547E+06     27.1543E+06     54.0655E+06    -252.128E+03    -236.163E-03     464.103E-03    -227.940E-03     224.418E-03    -245.642E-03     473.380E-03    -227.651E-03     192.333E-03
            2009     8.60274E-03     35.5819E-03    -47.7589E+06     19.1094E+06     45.6105E+06    -143.654E+03    -235.769E-03     463.502E-03    -227.733E-03     216.397E-03    -244.446E-03     471.944E-03    -227.463E-03     185.743E-03
            2010     7.88754E-03     35.2975E-03    -56.4419E+06     9.20508E+06     37.1595E+06     421.261E+03    -234.959E-03     462.473E-03    -227.514E-03     203.851E-03    -242.558E-03     469.796E-03    -227.259E-03     175.285E-03
            2011     7.17198E-03     35.0322E-03    -65.7005E+06    -13.5973E+06     24.8948E+06     802.576E+03    -233.776E-03     461.071E-03    -227.295E-03     188.421E-03    -240.162E-03     467.104E-03    -227.056E-03     162.405E-03
            2012     6.45598E-03     34.7895E-03    -74.4028E+06    -51.7112E+06     8.05020E+06     412.784E+03    -232.598E-03     459.685E-03    -227.087E-03     171.258E-03    -237.768E-03     464.383E-03    -226.863E-03     147.996E-03
            2013     5.73967E-03     34.5707E-03    -83.1398E+06    -94.2071E+06    -10.3539E+06     324.750E+03    -231.580E-03     458.459E-03    -226.880E-03     153.250E-03    -235.622E-03     461.903E-03    -226.674E-03     132.839E-03
            2014     5.02313E-03     34.3754E-03    -92.4509E+06    -128.572E+06    -29.7869E+06     571.414E+03    -230.505E-03     457.160E-03    -226.655E-03     134.611E-03    -233.568E-03     459.525E-03    -226.484E-03     117.065E-03
            2015     4.30631E-03     34.2054E-03    -101.515E+06    -157.671E+06    -49.6779E+06     548.077E+03    -229.374E-03     455.803E-03    -226.429E-03     115.653E-03    -231.615E-03     457.268E-03    -226.302E-03     100.889E-03
            2016     3.58908E-03     34.0607E-03    -110.111E+06    -192.939E+06    -68.7332E+06     547.249E+03    -228.397E-03     454.627E-03    -226.230E-03     96.6966E-03    -229.952E-03     455.305E-03    -226.134E-03     84.6297E-03
            2017     2.87179E-03     33.9417E-03    -118.081E+06    -222.161E+06    -87.2150E+06    -227.913E+03    -227.563E-03     453.592E-03    -226.029E-03     77.6095E-03    -228.578E-03     453.652E-03    -225.972E-03     68.1081E-03
            2018     2.15449E-03     33.8485E-03    -124.888E+06    -240.983E+06    -105.573E+06    -548.008E+03    -226.779E-03     452.597E-03    -225.818E-03     58.5556E-03    -227.393E-03     452.218E-03    -225.816E-03     51.4992E-03
            2019     1.43638E-03     33.7812E-03    -129.889E+06    -257.740E+06    -120.952E+06    -107.224E+03    -226.095E-03     451.743E-03    -225.647E-03     39.4467E-03    -226.423E-03     451.045E-03    -225.690E-03     34.7471E-03
            2020     718.032E-06     33.7404E-03    -133.740E+06    -271.958E+06    -131.340E+06    -25.1904E+03    -225.646E-03     451.223E-03    -225.577E-03     21.2604E-03    -225.802E-03     450.320E-03    -225.645E-03     18.7264E-03
            2021     13.6063E-03     36.0867E-03    -4.26419E+06     62.7562E+06     81.6289E+06     282.643E+03    -233.958E-03     462.802E-03    -228.844E-03     160.268E-03    -239.290E-03     468.105E-03    -228.521E-03     136.492E-03
            2022     12.8922E-03     35.8299E-03    -8.02612E+06     60.8707E+06     80.0053E+06     806.487E+03    -234.971E-03     463.681E-03    -228.710E-03     196.098E-03    -242.612E-03     471.278E-03    -228.387E-03     166.817E-03
            2023     12.1773E-03     35.5695E-03    -12.5704E+06     54.6791E+06     77.9255E+06     528.182E+03    -235.392E-03     463.961E-03    -228.569E-03     205.496E-03    -243.879E-03     472.371E-03    -228.240E-03     174.698E-03
            2024     11.4628E-03     35.2818E-03    -18.2952E+06     49.6529E+06     78.4310E+06     497.460E+03    -235.681E-03     464.110E-03    -228.429E-03     217.203E-03    -245.119E-03     473.432E-03    -228.082E-03     184.878E-03
            2025     10.7487E-03     34.9889E-03    -24.9901E+06     43.3426E+06     75.2945E+06     694.491E+03    -235.968E-03     464.238E-03    -228.271E-03     223.520E-03    -245.794E-03     473.912E-03    -227.921E-03     190.726E-03
            2026     10.0339E-03     34.6851E-03    -32.4777E+06     34.7676E+06     64.7122E+06     358.973E+03    -236.438E-03     464.506E-03    -228.067E-03     226.802E-03    -246.309E-03     474.197E-03    -227.747E-03     194.009E-03
            2027     9.31866E-03     34.3815E-03    -39.9244E+06     26.8092E+06     53.7236E+06     524.486E+03    -236.483E-03     464.319E-03    -227.836E-03     223.911E-03    -245.924E-03     473.557E-03    -227.548E-03     191.863E-03
            2028     8.60385E-03     34.0836E-03    -47.7107E+06     18.9005E+06     45.3361E+06     1.14420E+06    -236.009E-03     463.602E-03    -227.594E-03     215.716E-03    -244.640E-03     472.000E-03    -227.325E-03     185.136E-03
            2029     7.88894E-03     33.8005E-03    -56.0739E+06     9.12857E+06     37.2837E+06     1.23442E+06    -234.975E-03     462.323E-03    -227.348E-03     203.115E-03    -242.529E-03     469.603E-03    -227.094E-03     174.638E-03
            2030     7.17331E-03     33.5370E-03    -64.5174E+06    -12.5456E+06     25.9545E+06     920.861E+03    -233.762E-03     460.870E-03    -227.109E-03     187.569E-03    -240.107E-03     466.867E-03    -226.867E-03     161.627E-03
            2031     6.45716E-03     33.2953E-03    -73.8955E+06    -50.6607E+06     8.81997E+06     703.480E+03    -232.694E-03     459.560E-03    -226.865E-03     170.145E-03    -237.819E-03     464.217E-03    -226.641E-03     146.975E-03
            2032     5.74105E-03     33.0771E-03    -83.7084E+06    -94.8306E+06    -10.6589E+06     489.632E+03    -231.641E-03     458.248E-03    -226.608E-03     151.857E-03    -235.643E-03     461.647E-03    -226.402E-03     131.534E-03
            2033     5.02481E-03     32.8832E-03    -92.8126E+06    -128.653E+06    -29.3805E+06     682.014E+03    -230.414E-03     456.749E-03    -226.335E-03     133.243E-03    -233.446E-03     459.080E-03    -226.161E-03     115.779E-03
            2034     4.30799E-03     32.7145E-03    -101.841E+06    -157.560E+06    -48.7350E+06     1.15105E+06    -229.167E-03     455.235E-03    -226.068E-03     114.418E-03    -231.382E-03     456.671E-03    -225.936E-03     99.7640E-03
            2035     3.59075E-03     32.5710E-03    -110.764E+06    -190.693E+06    -69.5102E+06     579.669E+03    -228.074E-03     453.899E-03    -225.826E-03     95.6735E-03    -229.614E-03     454.571E-03    -225.736E-03     83.7014E-03
            2036     2.87311E-03     32.4525E-03    -118.484E+06    -220.621E+06    -88.8207E+06    -622.966E+03    -227.144E-03     452.748E-03    -225.605E-03     76.8335E-03    -228.149E-03     452.807E-03    -225.557E-03     67.3971E-03
            2037     2.15496E-03     32.3605E-03    -125.069E+06    -242.679E+06    -106.359E+06    -896.206E+03    -226.328E-03     451.730E-03    -225.402E-03     57.9109E-03    -226.932E-03     451.337E-03    -225.401E-03     50.9064E-03
            2038     1.43697E-03     32.2939E-03    -130.608E+06    -258.609E+06    -121.669E+06    -395.350E+03    -225.652E-03     450.893E-03    -225.242E-03     39.0604E-03    -225.977E-03     450.190E-03    -225.286E-03     34.3939E-03
            2039     718.815E-06     32.2537E-03    -133.682E+06    -271.975E+06    -131.531E+06    -43.2716E+03    -225.176E-03     450.426E-03    -225.250E-03     21.0385E-03    -225.331E-03     449.523E-03    -225.320E-03     18.5207E-03
            2040     13.6068E-03     34.5869E-03    -3.59855E+06     62.0514E+06     81.6480E+06    -385.680E+03    -234.045E-03     462.897E-03    -228.852E-03     159.332E-03    -239.338E-03     468.161E-03    -228.529E-03     135.589E-03
            2041     12.8916E-03     34.3275E-03    -9.13100E+06     59.5663E+06     78.8542E+06    -607.011E+03    -235.509E-03     464.205E-03    -228.695E-03     195.633E-03    -243.140E-03     471.786E-03    -228.374E-03     166.254E-03
            2042     12.1791E-03     34.0665E-03    -14.3348E+06     54.4949E+06     76.8760E+06    -406.107E+03    -235.665E-03     464.191E-03    -228.526E-03     205.120E-03    -244.159E-03     472.604E-03    -228.200E-03     174.248E-03
            2043     11.4650E-03     33.7839E-03    -19.7702E+06     49.1862E+06     77.7873E+06     838.673E+03    -235.729E-03     464.105E-03    -228.376E-03     217.539E-03    -245.156E-03     473.411E-03    -228.029E-03     185.278E-03
            2044     10.7490E-03     33.4889E-03    -26.5994E+06     43.8530E+06     74.1917E+06     1.14577E+06    -236.186E-03     464.392E-03    -228.206E-03     223.603E-03    -245.982E-03     474.034E-03    -227.860E-03     190.873E-03
            2045     10.0340E-03     33.1860E-03    -33.6052E+06     34.5231E+06     63.1690E+06     542.290E+03    -236.773E-03     464.750E-03    -227.977E-03     226.138E-03    -246.599E-03     474.396E-03    -227.662E-03     193.366E-03
            2046     9.31994E-03     32.8821E-03    -40.7335E+06     25.8514E+06     52.7569E+06     830.574E+03    -236.768E-03     464.481E-03    -227.713E-03     222.930E-03    -246.157E-03     473.664E-03    -227.427E-03     190.924E-03
            2047     8.60542E-03     32.5859E-03    -48.2697E+06     18.4415E+06     45.0055E+06     962.900E+03    -236.048E-03     463.490E-03    -227.441E-03     214.658E-03    -244.624E-03     471.829E-03    -227.173E-03     184.156E-03
            2048     7.88998E-03     32.3040E-03    -55.8329E+06     9.16161E+06     37.4337E+06     818.938E+03    -235.037E-03     462.205E-03    -227.168E-03     201.946E-03    -242.535E-03     469.429E-03    -226.913E-03     173.541E-03
            2049     7.17453E-03     32.0415E-03    -64.5822E+06    -12.2774E+06     25.9939E+06     971.871E+03    -234.017E-03     460.899E-03    -226.882E-03     186.045E-03    -240.306E-03     466.840E-03    -226.640E-03     160.169E-03
            2050     6.45922E-03     31.8009E-03    -73.9949E+06    -49.8164E+06     9.13918E+06     1.31102E+06    -232.875E-03     459.450E-03    -226.575E-03     168.585E-03    -237.949E-03     464.058E-03    -226.350E-03     145.511E-03
            2051     5.74341E-03     31.5840E-03    -83.0955E+06    -93.9139E+06    -9.79955E+06     1.09206E+06    -231.573E-03     457.834E-03    -226.261E-03     150.412E-03    -235.530E-03     461.192E-03    -226.054E-03     130.199E-03
            2052     5.02683E-03     31.3919E-03    -92.4272E+06    -128.737E+06    -28.9035E+06     1.01542E+06    -230.210E-03     456.155E-03    -225.945E-03     131.916E-03    -233.204E-03     458.447E-03    -225.769E-03     114.576E-03
            2053     4.30979E-03     31.2244E-03    -101.294E+06    -156.886E+06    -47.8765E+06     1.08228E+06    -228.938E-03     454.576E-03    -225.638E-03     113.237E-03    -231.123E-03     455.983E-03    -225.503E-03     98.6990E-03
            2054     3.59235E-03     31.0822E-03    -109.232E+06    -188.287E+06    -67.7459E+06     452.420E+03    -227.738E-03     453.092E-03    -225.354E-03     94.5322E-03    -229.257E-03     453.752E-03    -225.261E-03     82.6391E-03
            2055     2.87437E-03     30.9651E-03    -117.037E+06    -219.370E+06    -87.4095E+06    -91.5780E+03    -226.628E-03     451.740E-03    -225.111E-03     75.7933E-03    -227.615E-03     451.786E-03    -225.061E-03     66.4541E-03
            2056     2.15631E-03     30.8736E-03    -124.492E+06    -243.494E+06    -105.932E+06    -265.545E+03    -225.732E-03     450.653E-03    -224.920E-03     57.0045E-03    -226.323E-03     450.245E-03    -224.917E-03     50.0824E-03
            2057     1.43752E-03     30.8083E-03    -130.060E+06    -259.365E+06    -121.414E+06    -304.176E+03    -225.097E-03     449.895E-03    -224.798E-03     38.4835E-03    -225.415E-03     449.184E-03    -224.841E-03     33.8517E-03
            2058     718.388E-06     30.7680E-03    -133.374E+06    -272.353E+06    -131.343E+06    -155.286E+03    -224.922E-03     449.586E-03    -224.664E-03     20.9286E-03    -225.074E-03     448.680E-03    -224.732E-03     18.4218E-03
            2059     13.6061E-03     33.0856E-03    -4.22918E+06     62.2984E+06     81.7607E+06    -95.5914E+03    -234.694E-03     463.551E-03    -228.857E-03     159.182E-03    -239.981E-03     468.807E-03    -228.532E-03     135.410E-03
            2060     12.8936E-03     32.8236E-03    -9.57447E+06     59.6209E+06     78.9737E+06    -169.837E+03    -235.553E-03     464.236E-03    -228.684E-03     195.857E-03    -243.170E-03     471.802E-03    -228.361E-03     166.532E-03
            2061     12.1780E-03     32.5663E-03    -15.3237E+06     53.3717E+06     76.1081E+06     86.0740E+03    -235.492E-03     464.009E-03    -228.517E-03     205.089E-03    -243.962E-03     472.394E-03    -228.192E-03     174.274E-03
            2062     11.4628E-03     32.2819E-03    -21.8102E+06     47.5062E+06     75.7173E+06     253.251E+03    -236.231E-03     464.581E-03    -228.350E-03     217.021E-03    -245.643E-03     473.865E-03    -228.009E-03     184.671E-03
            2063     10.7498E-03     31.9891E-03    -27.8253E+06     44.0243E+06     72.9103E+06     55.5527E+03    -236.821E-03     464.957E-03    -228.136E-03     222.837E-03    -246.593E-03     474.575E-03    -227.795E-03     190.013E-03
            2064     10.0359E-03     31.6862E-03    -34.3422E+06     34.6478E+06     62.6929E+06     457.999E+03    -237.177E-03     465.039E-03    -227.862E-03     225.295E-03    -246.954E-03     474.635E-03    -227.549E-03     192.544E-03
            2065     9.32144E-03     31.3830E-03    -41.2595E+06     25.7741E+06     52.5437E+06     489.664E+03    -236.936E-03     464.499E-03    -227.563E-03     221.947E-03    -246.261E-03     473.616E-03    -227.278E-03     190.016E-03
            2066     8.60659E-03     31.0883E-03    -48.4461E+06     18.1716E+06     44.7352E+06     82.7261E+03    -236.264E-03     463.518E-03    -227.254E-03     213.318E-03    -244.769E-03     471.786E-03    -226.986E-03     182.877E-03
            2067     7.89193E-03     30.8074E-03    -56.3226E+06     8.46958E+06     36.7881E+06     306.216E+03    -235.357E-03     462.283E-03    -226.926E-03     200.356E-03    -242.782E-03     469.432E-03    -226.673E-03     172.022E-03
            2068     7.17713E-03     30.5457E-03    -64.8666E+06    -12.5370E+06     25.3321E+06     908.398E+03    -234.243E-03     460.816E-03    -226.573E-03     184.357E-03    -240.456E-03     466.681E-03    -226.335E-03     158.604E-03
            2069     6.46161E-03     30.3070E-03    -73.6268E+06    -49.5742E+06     8.80329E+06     1.01618E+06    -232.905E-03     459.109E-03    -226.204E-03     166.864E-03    -237.913E-03     463.654E-03    -225.981E-03     143.911E-03
            2070     5.74546E-03     30.0916E-03    -82.5421E+06    -93.7246E+06    -9.42124E+06     1.23394E+06    -231.438E-03     457.276E-03    -225.838E-03     148.640E-03    -235.337E-03     460.577E-03    -225.630E-03     128.569E-03
            2071     5.02900E-03     29.9014E-03    -91.4084E+06    -127.526E+06    -27.8425E+06     1.29230E+06    -229.999E-03     455.470E-03    -225.471E-03     130.088E-03    -232.942E-03     457.716E-03    -225.292E-03     112.896E-03
            2072     4.31196E-03     29.7353E-03    -100.214E+06    -155.827E+06    -47.2948E+06     607.108E+03    -228.612E-03     453.721E-03    -225.109E-03     111.509E-03    -230.757E-03     455.094E-03    -224.974E-03     97.0898E-03
            2073     3.59442E-03     29.5946E-03    -108.845E+06    -187.673E+06    -67.2042E+06     153.549E+03    -227.310E-03     452.089E-03    -224.779E-03     92.9405E-03    -228.801E-03     452.723E-03    -224.685E-03     81.1583E-03
            2074     2.87637E-03     29.4791E-03    -116.729E+06    -218.514E+06    -86.2183E+06     483.272E+03    -226.105E-03     450.603E-03    -224.498E-03     74.4137E-03    -227.074E-03     450.632E-03    -224.443E-03     65.1860E-03
            2075     2.15733E-03     29.3888E-03    -123.813E+06    -243.045E+06    -104.875E+06     562.298E+03    -225.127E-03     449.402E-03    -224.275E-03     55.8875E-03    -225.705E-03     448.982E-03    -224.268E-03     49.0641E-03
            2076     1.43839E-03     29.3240E-03    -129.469E+06     -259.25E+06    -120.779E+06     275.005E+03    -224.511E-03     448.619E-03    -224.108E-03     37.5546E-03    -224.822E-03     447.900E-03    -224.148E-03     32.9910E-03
            2077     719.526E-06     29.2839E-03    -133.178E+06    -272.473E+06    -130.979E+06     216.335E+03    -224.180E-03     448.134E-03    -223.954E-03     20.3595E-03    -224.329E-03     447.224E-03    -224.021E-03     17.9124E-03
            2078     13.6068E-03     31.5784E-03    -4.96273E+06     63.0602E+06     81.8680E+06    -229.349E+03    -234.916E-03     463.797E-03    -228.881E-03     159.141E-03    -240.225E-03     469.074E-03    -228.556E-03     135.306E-03
            2079     12.8919E-03     31.3243E-03    -8.97620E+06     58.6984E+06     79.4525E+06     410.877E+03    -235.792E-03     464.487E-03    -228.695E-03     195.242E-03    -243.390E-03     472.031E-03    -228.370E-03     165.892E-03
            2080     12.1781E-03     31.0635E-03    -13.9969E+06     52.4371E+06     76.8468E+06     1.55350E+06    -235.927E-03     464.433E-03    -228.505E-03     203.828E-03    -244.317E-03     472.736E-03    -228.177E-03     173.108E-03
            2081     11.4656E-03     30.7816E-03    -19.8173E+06     49.4643E+06     77.1061E+06     952.383E+03    -236.580E-03     464.886E-03    -228.306E-03     216.107E-03    -245.942E-03     474.130E-03    -227.963E-03     183.752E-03
            2082     10.7508E-03     30.4876E-03    -26.7830E+06     44.1102E+06     73.4584E+06     465.645E+03    -237.288E-03     465.346E-03    -228.058E-03     222.546E-03    -247.021E-03     474.928E-03    -227.716E-03     189.709E-03
            2083     10.0368E-03     30.1859E-03    -33.4589E+06     34.6821E+06     63.4450E+06     786.813E+03    -237.684E-03     465.429E-03    -227.745E-03     224.809E-03    -247.410E-03     474.976E-03    -227.429E-03     192.070E-03
            2084     9.32279E-03     29.8841E-03    -40.2009E+06     26.6486E+06     53.3447E+06     472.084E+03    -237.455E-03     464.847E-03    -227.391E-03     220.826E-03    -246.713E-03     473.902E-03    -227.105E-03     188.913E-03
            2085     8.60885E-03     29.5902E-03    -47.6010E+06     18.5065E+06     44.9166E+06     386.987E+03    -236.815E-03     463.826E-03    -227.011E-03     211.713E-03    -245.235E-03     472.013E-03    -226.744E-03     181.327E-03
            2086     7.89458E-03     29.3105E-03    -55.8839E+06     8.12576E+06     36.4713E+06     576.990E+03    -235.804E-03     462.406E-03    -226.602E-03     198.486E-03    -243.132E-03     469.459E-03    -226.350E-03     170.269E-03
            2087     7.17955E-03     29.0506E-03    -64.5439E+06    -12.7525E+06     25.1991E+06     644.561E+03    -234.443E-03     460.613E-03    -226.169E-03     182.180E-03    -240.561E-03     466.383E-03    -225.931E-03     156.572E-03
            2088     6.46443E-03     28.8131E-03    -73.5707E+06    -50.2966E+06     8.40125E+06     1.03588E+06    -232.918E-03     458.640E-03    -225.722E-03     164.273E-03    -237.834E-03     463.092E-03    -225.500E-03     141.490E-03
            2089     5.74877E-03     28.6007E-03    -82.8423E+06    -92.8323E+06    -10.3565E+06     1.09171E+06    -231.315E-03     456.589E-03    -225.274E-03     145.926E-03    -235.135E-03     459.816E-03    -225.071E-03     126.039E-03
            2090     5.03223E-03     28.4115E-03    -91.6250E+06    -126.260E+06    -28.3501E+06     209.809E+03    -229.680E-03     454.513E-03    -224.834E-03     127.592E-03    -232.562E-03     456.704E-03    -224.659E-03     110.558E-03
            2091     4.31504E-03     28.2480E-03    -100.119E+06    -155.686E+06    -47.0727E+06     250.936E+03    -228.127E-03     452.541E-03    -224.414E-03     109.250E-03    -230.224E-03     453.866E-03    -224.279E-03     94.9949E-03
            2092     3.59696E-03     28.1086E-03    -108.550E+06    -186.806E+06    -67.1396E+06     626.491E+03    -226.692E-03     450.723E-03    -224.032E-03     90.8736E-03    -228.145E-03     451.323E-03    -223.939E-03     79.2768E-03
            2093     2.87832E-03     27.9950E-03    -116.632E+06    -218.735E+06    -86.3203E+06     200.759E+03    -225.462E-03     449.164E-03    -223.702E-03     72.6745E-03    -226.407E-03     449.169E-03    -223.647E-03     63.5668E-03
            2094     2.15954E-03     27.9060E-03    -123.365E+06    -242.943E+06    -103.813E+06     522.807E+03    -224.484E-03     447.896E-03    -223.412E-03     54.5970E-03    -225.049E-03     447.461E-03    -223.400E-03     47.8654E-03
            2095     1.44000E-03     27.8418E-03    -128.856E+06    -258.195E+06    -119.591E+06     920.409E+03    -223.724E-03     446.877E-03    -223.153E-03     36.7030E-03    -224.028E-03     446.153E-03    -223.189E-03     32.2374E-03
            2096     720.014E-06     27.8025E-03    -131.963E+06    -271.074E+06    -130.062E+06      421.19E+03    -223.019E-03     446.120E-03    -223.101E-03     19.8583E-03    -223.163E-03     445.212E-03    -223.167E-03     17.4616E-03
            2097     13.6052E-03     30.0785E-03    -5.00691E+06     62.2395E+06     80.5213E+06    -206.634E+03    -234.845E-03     463.731E-03    -228.885E-03     157.851E-03    -240.106E-03     468.961E-03    -228.565E-03     134.066E-03
            2098     12.8924E-03     29.8179E-03    -9.73422E+06     56.7429E+06     77.9846E+06     828.127E+03    -236.027E-03     464.720E-03    -228.693E-03     194.295E-03    -243.575E-03     472.209E-03    -228.371E-03     164.994E-03
            2099     12.1799E-03     29.5628E-03    -14.0914E+06     52.6326E+06     76.7455E+06     679.938E+03    -236.292E-03     464.780E-03    -228.488E-03     204.085E-03    -244.664E-03     473.066E-03    -228.160E-03     173.363E-03
            2100     11.4642E-03     29.2790E-03    -19.3566E+06     49.5232E+06     77.7238E+06     696.308E+03    -237.134E-03     465.401E-03    -228.268E-03     216.682E-03    -246.468E-03     474.618E-03    -227.923E-03     184.340E-03
            2101     10.7513E-03     28.9863E-03    -24.9775E+06     43.8569E+06     74.8628E+06     1.79679E+06    -237.971E-03     465.954E-03    -227.983E-03     222.019E-03    -247.640E-03     475.473E-03    -227.636E-03     189.203E-03
            2102     10.0379E-03     28.6846E-03    -31.7324E+06     35.4565E+06     64.5921E+06     1.48958E+06    -238.431E-03     466.035E-03    -227.604E-03     223.323E-03    -248.082E-03     475.513E-03    -227.287E-03     190.550E-03
            2103     9.32487E-03     28.3840E-03    -38.7765E+06     27.3317E+06     54.2198E+06     1.00993E+06    -238.253E-03     465.419E-03    -227.166E-03     218.898E-03    -247.421E-03     474.389E-03    -226.878E-03     186.968E-03
            2104     8.61143E-03     28.0915E-03    -46.3198E+06     18.8963E+06     45.7051E+06     1.23614E+06    -237.542E-03     464.229E-03    -226.686E-03     209.477E-03    -245.853E-03     472.309E-03    -226.418E-03     179.157E-03
            2105     7.89760E-03     27.8136E-03    -54.7789E+06     8.77613E+06     37.1291E+06     1.41299E+06    -236.335E-03     462.504E-03    -226.169E-03     195.745E-03    -243.539E-03     469.437E-03    -225.917E-03     167.670E-03
            2106     7.18381E-03     27.5555E-03    -64.0657E+06    -12.6968E+06     25.4130E+06     1.34583E+06    -234.702E-03     460.331E-03    -225.629E-03     179.154E-03    -240.702E-03     465.984E-03    -225.390E-03     153.721E-03
            2107     6.46881E-03     27.3210E-03    -73.3627E+06    -50.4201E+06     8.76604E+06     1.56787E+06    -232.949E-03     458.029E-03    -225.080E-03     161.269E-03    -237.756E-03     462.371E-03    -224.857E-03     138.713E-03
            2108     5.75305E-03     27.1098E-03    -82.3598E+06    -90.0450E+06    -10.0563E+06     1.08011E+06    -231.143E-03     455.671E-03    -224.529E-03     142.948E-03    -234.870E-03     458.816E-03    -224.329E-03     123.295E-03
            2109     5.03646E-03     26.9244E-03    -91.3207E+06    -124.649E+06    -28.8462E+06    -19.1329E+03    -229.263E-03     453.258E-03    -223.995E-03     124.725E-03    -232.070E-03     455.382E-03    -223.826E-03     107.914E-03
            2110     4.31879E-03     26.7620E-03    -100.204E+06    -156.522E+06    -47.5313E+06    -96.7919E+03    -227.476E-03     450.981E-03    -223.505E-03     106.584E-03    -229.510E-03     452.242E-03    -223.370E-03     92.5634E-03
            2111     3.60063E-03     26.6255E-03    -108.495E+06    -186.191E+06    -67.1369E+06     336.164E+03    -225.901E-03     448.962E-03    -223.061E-03     88.5270E-03    -227.310E-03     449.520E-03    -222.969E-03     77.1413E-03
            2112     2.88150E-03     26.5131E-03    -116.086E+06    -218.522E+06    -86.2016E+06     132.141E+03    -224.598E-03     447.273E-03    -222.674E-03     70.7623E-03    -225.512E-03     447.249E-03    -222.620E-03     61.8250E-03
            2113     2.16162E-03     26.4255E-03    -122.905E+06    -243.757E+06    -103.724E+06     74.2024E+03    -223.496E-03     445.832E-03    -222.336E-03     53.1894E-03    -224.042E-03     445.376E-03    -222.323E-03     46.5802E-03
            2114     1.44151E-03     26.3628E-03    -127.842E+06    -257.344E+06    -118.569E+06     469.276E+03    -222.590E-03     444.654E-03    -222.064E-03     35.8484E-03    -222.884E-03     443.925E-03    -222.099E-03     31.4649E-03
            2115     720.984E-06     26.3244E-03    -131.169E+06    -269.559E+06    -128.931E+06     337.026E+03    -221.939E-03     443.950E-03    -222.011E-03     19.2691E-03    -222.080E-03     443.044E-03    -222.075E-03     16.8938E-03
            2116     13.6067E-03     28.5716E-03    -3.95039E+06     62.4194E+06     80.5730E+06     1.53794E+06    -234.916E-03     463.820E-03    -228.904E-03     158.346E-03    -240.137E-03     469.015E-03    -228.586E-03     134.728E-03
            2117     12.8930E-03     28.3177E-03    -9.57656E+06     57.9023E+06     77.5715E+06     269.434E+03    -236.034E-03     464.750E-03    -228.716E-03     195.395E-03    -243.573E-03     472.236E-03    -228.399E-03     166.153E-03
            2118     12.1771E-03     28.0587E-03    -14.5510E+06     52.8257E+06     75.9318E+06    -713.495E+03    -237.048E-03     465.544E-03    -228.496E-03     204.261E-03    -245.424E-03     473.835E-03    -228.171E-03     173.389E-03
            2119     11.4658E-03     27.7768E-03    -19.8194E+06     48.0827E+06     76.9415E+06    -343.257E+03    -238.244E-03     466.459E-03    -228.214E-03     215.264E-03    -247.538E-03     475.630E-03    -227.871E-03     182.745E-03
            2120     10.7525E-03     27.4831E-03    -25.9224E+06     41.7278E+06     73.7794E+06     104.983E+03    -238.906E-03     466.751E-03    -227.845E-03     220.209E-03    -248.503E-03     476.191E-03    -227.499E-03     187.276E-03
            2121     10.0404E-03     27.1826E-03    -32.0344E+06     34.9592E+06     64.2669E+06     696.631E+03    -239.282E-03     466.661E-03    -227.379E-03     221.314E-03    -248.828E-03     476.031E-03    -227.062E-03     188.522E-03
            2122     9.32777E-03     26.8831E-03    -38.8664E+06     27.1984E+06     54.0845E+06     1.15292E+06    -239.140E-03     465.980E-03    -226.840E-03     216.534E-03    -248.181E-03     474.822E-03    -226.553E-03     184.654E-03
            2123     8.61527E-03     26.5923E-03    -46.5634E+06     18.4382E+06     45.5871E+06     1.66282E+06    -238.394E-03     464.636E-03    -226.242E-03     206.631E-03    -246.561E-03     472.572E-03    -225.973E-03     176.425E-03
            2124     7.90267E-03     26.3163E-03    -54.6711E+06     8.95725E+06     37.4344E+06     2.18356E+06    -236.899E-03     462.496E-03    -225.597E-03     192.582E-03    -243.962E-03     469.288E-03    -225.343E-03     164.674E-03
            2125     7.18855E-03     26.0613E-03    -63.4983E+06    -11.4993E+06     26.0794E+06     2.34608E+06    -235.005E-03     459.934E-03    -224.929E-03     175.834E-03    -240.863E-03     465.450E-03    -224.690E-03     150.654E-03
            2126     6.47397E-03     25.8290E-03    -72.5737E+06    -48.8951E+06     9.41678E+06     1.85889E+06    -232.981E-03     457.237E-03    -224.256E-03     157.748E-03    -237.653E-03     461.450E-03    -224.033E-03     135.484E-03
            2127     5.75836E-03     25.6215E-03    -81.2135E+06    -88.0751E+06    -9.16338E+06     986.655E+03    -230.857E-03     454.445E-03    -223.588E-03     139.424E-03    -234.471E-03     457.484E-03    -223.389E-03     120.059E-03
            2128     5.04169E-03     25.4381E-03    -89.8958E+06    -122.849E+06    -27.8438E+06     572.057E+03    -228.785E-03     451.730E-03    -222.945E-03     121.320E-03    -231.498E-03     453.769E-03    -222.776E-03     104.798E-03
            2129     4.32402E-03     25.2796E-03    -98.6983E+06    -156.176E+06    -46.8888E+06     291.102E+03    -226.777E-03     449.125E-03    -222.348E-03     103.370E-03    -228.735E-03     450.315E-03    -222.213E-03     89.6166E-03
            2130     3.60475E-03     25.1447E-03    -107.142E+06    -186.071E+06    -66.3347E+06    -82.5738E+03    -224.961E-03     446.771E-03    -221.810E-03     85.6321E-03    -226.314E-03     447.275E-03    -221.716E-03     74.4793E-03
            2131     2.88507E-03     25.0346E-03    -114.719E+06    -218.184E+06    -84.8742E+06    -17.5565E+03    -223.424E-03     444.776E-03    -221.352E-03     68.2350E-03    -224.299E-03     444.714E-03    -221.293E-03     59.5064E-03
            2132     2.16467E-03     24.9488E-03    -121.463E+06    -243.854E+06    -102.482E+06     135.598E+03    -222.109E-03     443.088E-03    -220.979E-03     51.1326E-03    -222.628E-03     442.607E-03    -220.962E-03     44.6995E-03
            2133     1.44329E-03     24.8873E-03    -127.193E+06    -257.551E+06    -118.297E+06     9.24826E+03    -221.159E-03     441.872E-03    -220.713E-03     34.4357E-03    -221.441E-03     441.131E-03    -220.746E-03     30.1542E-03
            2134     721.514E-06     24.8496E-03    -131.394E+06    -268.948E+06    -128.428E+06     68.5351E+03    -221.093E-03     441.261E-03    -220.168E-03     18.3898E-03    -221.234E-03     440.355E-03    -220.230E-03     16.0788E-03
            2135     13.6048E-03     27.0712E-03    -3.09667E+06     61.9696E+06     81.8132E+06     1.15890E+06    -235.156E-03     464.140E-03    -228.983E-03     158.152E-03    -240.362E-03     469.317E-03    -228.660E-03     134.553E-03
            2136     12.8894E-03     26.8129E-03    -6.87771E+06     61.0539E+06     80.3216E+06     1.21344E+06    -236.928E-03     465.695E-03    -228.767E-03     195.231E-03    -244.475E-03     473.201E-03    -228.444E-03     165.844E-03
            2137     12.1794E-03     26.5541E-03    -12.8472E+06     54.2206E+06     77.0935E+06     804.788E+03    -238.295E-03     466.774E-03    -228.479E-03     203.490E-03    -246.646E-03     475.048E-03    -228.153E-03     172.462E-03
            2138     11.4664E-03     26.2711E-03    -18.9616E+06     48.8652E+06     77.2134E+06     152.108E+03    -239.479E-03     467.591E-03    -228.112E-03     214.543E-03    -248.734E-03     476.729E-03    -227.769E-03     181.874E-03
            2139     10.7555E-03     25.9800E-03    -25.3956E+06     41.0099E+06     73.5953E+06    -304.414E+03    -240.230E-03     467.876E-03    -227.646E-03     219.217E-03    -249.770E-03     477.258E-03    -227.301E-03     186.124E-03
            2140     10.0433E-03     25.6796E-03    -32.4154E+06     33.3593E+06     63.5188E+06     249.101E+03    -240.588E-03     467.650E-03    -227.062E-03     219.324E-03    -250.006E-03     476.887E-03    -226.746E-03     186.520E-03
            2141     9.33185E-03     25.3816E-03    -39.6557E+06     25.9751E+06     53.2081E+06     1.10195E+06    -240.258E-03     466.648E-03    -226.390E-03     213.615E-03    -249.128E-03     475.315E-03    -226.104E-03     181.840E-03
            2142     8.62034E-03     25.0920E-03    -47.0983E+06     17.3818E+06     44.7355E+06     1.74753E+06    -239.255E-03     464.905E-03    -225.650E-03     203.207E-03    -247.235E-03     472.650E-03    -225.383E-03     173.187E-03
            2143     7.90781E-03     24.8195E-03    -54.8223E+06     8.12235E+06     36.8778E+06     1.89650E+06    -237.607E-03     462.459E-03    -224.852E-03     188.452E-03    -244.480E-03     469.060E-03    -224.600E-03     160.768E-03
            2144     7.19496E-03     24.5673E-03    -62.7163E+06    -10.3330E+06     26.7415E+06     2.20378E+06    -235.393E-03     459.415E-03    -224.022E-03     171.036E-03    -241.057E-03     464.742E-03    -223.782E-03     146.167E-03
            2145     6.48081E-03     24.3387E-03    -71.1956E+06    -46.2184E+06     10.7015E+06     1.78316E+06    -232.959E-03     456.146E-03    -223.187E-03     152.810E-03    -237.453E-03     460.192E-03    -222.963E-03     130.912E-03
            2146     5.76522E-03     24.1349E-03    -79.9965E+06    -86.1338E+06    -8.14658E+06     1.00779E+06    -230.550E-03     452.914E-03    -222.364E-03     134.473E-03    -234.008E-03     455.807E-03    -222.164E-03     115.497E-03
            2147     5.04823E-03     23.9549E-03    -88.7397E+06    -121.763E+06    -26.9971E+06     685.151E+03    -228.160E-03     449.730E-03    -221.571E-03     116.363E-03    -230.738E-03     451.640E-03    -221.400E-03     100.251E-03
            2148     4.32998E-03     23.7994E-03    -97.2194E+06    -155.352E+06    -45.8928E+06     498.453E+03    -225.909E-03     446.736E-03    -220.827E-03     98.7266E-03    -227.763E-03     447.826E-03    -220.690E-03     85.3434E-03
            2149     3.61100E-03     23.6679E-03    -105.365E+06    -185.167E+06    -65.1364E+06     204.536E+03    -223.790E-03     443.938E-03    -220.148E-03     81.4984E-03    -225.064E-03     444.370E-03    -220.053E-03     70.6802E-03
            2150     2.89024E-03     23.5602E-03    -113.007E+06    -218.024E+06    -83.3412E+06    -42.8088E+03    -221.900E-03     441.480E-03    -219.579E-03     64.6775E-03    -222.719E-03     441.365E-03    -219.516E-03     56.2456E-03
            2151     2.16840E-03     23.4766E-03    -119.993E+06    -243.931E+06    -100.349E+06     332.367E+03    -220.433E-03     439.553E-03    -219.119E-03     48.2416E-03    -220.918E-03     439.036E-03    -219.094E-03     42.0460E-03
            2152     1.44601E-03     23.4167E-03    -125.914E+06    -257.096E+06    -116.589E+06     546.814E+03    -219.389E-03     438.134E-03    -218.746E-03     32.2446E-03    -219.652E-03     437.376E-03    -218.773E-03     28.1399E-03
            2153     723.285E-06     23.3792E-03    -129.984E+06    -268.111E+06    -127.562E+06     233.876E+03    -219.019E-03     437.187E-03    -218.169E-03     17.4941E-03    -219.151E-03     436.276E-03    -218.229E-03     15.2954E-03
            2154     13.6029E-03     25.5660E-03    -4.81368E+06     60.7467E+06     80.2628E+06    -473.080E+03    -236.152E-03     465.181E-03    -229.029E-03     156.660E-03    -241.331E-03     470.325E-03    -228.709E-03     132.989E-03
            2155     12.8928E-03     25.3077E-03    -8.91847E+06     60.1084E+06     79.0397E+06     304.330E+03    -238.154E-03     466.901E-03    -228.747E-03     194.120E-03    -245.694E-03     474.394E-03    -228.426E-03     164.536E-03
            2156     12.1786E-03     25.0478E-03    -13.4257E+06     54.2345E+06     76.6689E+06     757.151E+03    -238.983E-03     467.380E-03    -228.397E-03     202.730E-03    -247.288E-03     475.607E-03    -228.072E-03     171.651E-03
            2157     11.4680E-03     24.7649E-03    -19.0115E+06     49.2223E+06     76.5738E+06     651.186E+03    -240.564E-03     468.528E-03    -227.964E-03     213.635E-03    -249.740E-03     477.589E-03    -227.625E-03     180.911E-03
            2158     10.7568E-03     24.4733E-03    -25.4518E+06     41.3738E+06     73.1147E+06     321.732E+03    -241.951E-03     469.339E-03    -227.388E-03     217.256E-03    -251.380E-03     478.612E-03    -227.045E-03     184.046E-03
            2159     10.0475E-03     24.1748E-03    -32.1200E+06     33.5502E+06     63.6081E+06     870.850E+03    -242.412E-03     469.059E-03    -226.646E-03     216.377E-03    -251.667E-03     478.133E-03    -226.330E-03     183.535E-03
            2160     9.33761E-03     23.8787E-03    -39.1781E+06     25.5084E+06     53.4699E+06     1.38863E+06    -241.872E-03     467.662E-03    -225.789E-03     209.712E-03    -250.512E-03     476.098E-03    -225.502E-03     178.074E-03
            2161     8.62672E-03     23.5927E-03    -46.2132E+06     17.0941E+06     45.2432E+06     1.39189E+06    -240.565E-03     465.412E-03    -224.847E-03     198.019E-03    -248.277E-03     472.889E-03    -224.579E-03     168.239E-03
            2162     7.91586E-03     23.3220E-03    -53.5397E+06     8.02753E+06     37.2242E+06     1.54881E+06    -238.458E-03     462.292E-03    -223.834E-03     182.284E-03    -245.038E-03     468.603E-03    -223.582E-03     154.987E-03
            2163     7.20382E-03     23.0745E-03    -61.5283E+06    -9.81372E+06     27.0792E+06     1.41080E+06    -235.830E-03     458.619E-03    -222.788E-03     164.463E-03    -241.219E-03     463.676E-03    -222.549E-03     140.045E-03
            2164     6.48979E-03     22.8508E-03    -69.7841E+06    -44.0456E+06     11.9984E+06     1.33771E+06    -233.063E-03     454.799E-03    -221.736E-03     146.022E-03    -237.310E-03     458.607E-03    -221.511E-03     124.633E-03
            2165     5.77455E-03     22.6502E-03    -78.5033E+06    -84.1784E+06    -6.94307E+06     1.17730E+06    -230.242E-03     450.930E-03    -220.688E-03     127.442E-03    -233.478E-03     453.610E-03    -220.487E-03     109.034E-03
            2166     5.05785E-03     22.4755E-03    -87.2455E+06    -120.883E+06    -26.1050E+06     983.234E+03    -227.382E-03     447.057E-03    -219.675E-03     109.462E-03    -229.775E-03     448.787E-03    -219.504E-03     93.9213E-03
            2167     4.33924E-03     22.3234E-03    -95.8293E+06    -154.467E+06    -45.0538E+06     791.692E+03    -224.627E-03     443.358E-03    -218.731E-03     92.3428E-03    -226.334E-03     444.307E-03    -218.594E-03     79.5140E-03
            2168     3.61868E-03     22.1958E-03    -104.011E+06    -183.840E+06    -64.2273E+06     286.379E+03    -222.106E-03     439.984E-03    -217.878E-03     75.8381E-03    -223.276E-03     440.318E-03    -217.782E-03     65.5024E-03
            2169     2.89701E-03     22.0915E-03    -111.554E+06    -217.730E+06    -82.3496E+06     181.704E+03    -219.936E-03     437.088E-03    -217.152E-03     59.9375E-03    -220.683E-03     436.905E-03    -217.087E-03     51.9173E-03
            2170     2.17409E-03     22.0105E-03    -118.367E+06    -244.617E+06    -99.3061E+06     319.290E+03    -218.190E-03     434.736E-03    -216.547E-03     44.6300E-03    -218.628E-03     434.174E-03    -216.517E-03     38.7609E-03
            2171     1.45023E-03     21.9519E-03    -123.783E+06    -256.465E+06    -114.329E+06     720.188E+03    -216.855E-03     432.913E-03    -216.058E-03     29.8951E-03    -217.094E-03     432.133E-03    -216.078E-03     26.0268E-03
            2172     725.407E-06     21.9168E-03    -126.977E+06    -266.035E+06    -124.447E+06     817.647E+03    -215.784E-03     431.702E-03    -215.918E-03     16.1334E-03    -215.902E-03     430.786E-03    -215.970E-03     14.0749E-03
            2173     13.6047E-03     24.0583E-03    -5.14027E+06     60.3978E+06     79.7416E+06    -259.272E+03    -236.752E-03     465.789E-03    -229.038E-03     157.652E-03    -241.953E-03     470.955E-03    -228.719E-03     133.908E-03
            2174     12.8913E-03     23.8006E-03    -9.60117E+06     58.8072E+06     77.6108E+06    -854.672E+03    -239.197E-03     467.912E-03    -228.715E-03     195.241E-03    -246.763E-03     475.427E-03    -228.398E-03     165.469E-03
            2175     12.1820E-03     23.5421E-03    -14.4859E+06     53.2821E+06     74.9048E+06    -921.438E+03    -240.661E-03     468.946E-03    -228.285E-03     203.091E-03    -248.975E-03     477.180E-03    -227.967E-03     171.722E-03
            2176     11.4702E-03     23.2580E-03    -19.4040E+06     47.8535E+06     75.3789E+06     262.646E+03    -242.680E-03     470.408E-03    -227.728E-03     212.300E-03    -251.761E-03     479.371E-03    -227.392E-03     179.392E-03
            2177     10.7617E-03     22.9644E-03    -25.4860E+06     41.3449E+06     72.3071E+06     1.12362E+06    -244.044E-03     471.028E-03    -226.984E-03     213.796E-03    -253.256E-03     480.086E-03    -226.645E-03     180.590E-03
            2178     10.0529E-03     22.6681E-03    -32.4578E+06     33.2680E+06     62.5609E+06     772.615E+03    -244.555E-03     470.591E-03    -226.037E-03     211.419E-03    -253.528E-03     479.387E-03    -225.725E-03     178.635E-03
            2179     9.34440E-03     22.3742E-03    -38.6599E+06     25.6212E+06     53.4866E+06     865.694E+03    -244.086E-03     469.017E-03    -224.932E-03     203.358E-03    -252.381E-03     477.112E-03    -224.645E-03     171.905E-03
            2180     8.63671E-03     22.0911E-03    -45.0177E+06     17.3533E+06     45.9152E+06     803.707E+03    -242.325E-03     466.032E-03    -223.707E-03     190.415E-03    -249.644E-03     473.120E-03    -223.437E-03     161.031E-03
            2181     7.92705E-03     21.8263E-03    -52.3815E+06     7.97670E+06     37.7049E+06     1.07175E+06    -239.581E-03     461.985E-03    -222.404E-03     173.898E-03    -245.750E-03     467.888E-03    -222.151E-03     147.211E-03
            2182     7.21526E-03     21.5834E-03    -60.3447E+06    -8.71427E+06     27.6148E+06     1.07087E+06    -236.489E-03     457.551E-03    -221.062E-03     155.257E-03    -241.490E-03     462.227E-03    -220.823E-03     131.540E-03
            2183     6.50279E-03     21.3643E-03    -69.0534E+06    -43.1189E+06     12.0772E+06     822.401E+03    -233.190E-03     452.892E-03    -219.701E-03     136.361E-03    -237.094E-03     456.363E-03    -219.478E-03     115.712E-03
            2184     5.78793E-03     21.1703E-03    -77.6852E+06    -83.0929E+06    -6.59938E+06     910.810E+03    -229.673E-03     448.027E-03    -218.354E-03     118.041E-03    -232.620E-03     450.423E-03    -218.154E-03     100.415E-03
            2185     5.07066E-03     20.9998E-03    -86.1224E+06    -120.043E+06    -25.6420E+06     969.257E+03    -226.188E-03     443.251E-03    -217.063E-03     100.605E-03    -228.350E-03     444.755E-03    -216.892E-03     85.8240E-03
            2186     4.35141E-03     20.8540E-03    -94.1876E+06    -153.369E+06    -44.4071E+06     1.02463E+06    -222.833E-03     438.698E-03    -215.864E-03     84.2501E-03    -224.365E-03     439.479E-03    -215.727E-03     72.1223E-03
            2187     3.63005E-03     20.7304E-03    -102.269E+06    -181.898E+06    -63.2083E+06     746.841E+03    -219.744E-03     434.535E-03    -214.791E-03     68.7283E-03    -220.789E-03     434.754E-03    -214.695E-03     59.0216E-03
            2188     2.90657E-03     20.6304E-03    -110.116E+06    -217.053E+06    -81.3992E+06     282.575E+03    -217.143E-03     431.027E-03    -213.885E-03     54.1088E-03    -217.808E-03     430.767E-03    -213.817E-03     46.5978E-03
            2189     2.18151E-03     20.5523E-03    -116.817E+06    -244.584E+06    -98.1806E+06     275.365E+03    -215.006E-03     428.150E-03    -213.145E-03     40.3003E-03    -215.394E-03     427.540E-03    -213.112E-03     34.8292E-03
            2190     1.45487E-03     20.4968E-03    -121.957E+06    -256.188E+06    -112.744E+06     166.599E+03    -213.391E-03     425.982E-03    -212.591E-03     26.9091E-03    -213.603E-03     425.177E-03    -212.606E-03     23.3124E-03
            2191     727.446E-06     20.4626E-03    -125.004E+06    -264.694E+06    -122.481E+06     84.1472E+03    -212.350E-03     424.724E-03    -212.373E-03     14.3173E-03    -212.457E-03     423.802E-03    -212.420E-03     12.4020E-03
            2192     13.6022E-03     22.5524E-03    -3.88839E+06     61.8082E+06     80.3678E+06    -83.9559E+03    -236.763E-03     465.791E-03    -229.028E-03     157.868E-03    -241.954E-03     470.955E-03    -228.710E-03     134.103E-03
            2193     12.8920E-03     22.2914E-03    -9.20574E+06     58.2817E+06     76.7623E+06    -862.381E+03    -240.321E-03     468.993E-03    -228.672E-03     195.229E-03    -247.837E-03     476.461E-03    -228.359E-03     165.410E-03
            2194     12.1805E-03     22.0315E-03    -13.9277E+06     51.5903E+06     73.9777E+06    -377.178E+03    -243.554E-03     471.675E-03    -228.121E-03     201.978E-03    -251.799E-03     479.839E-03    -227.806E-03     170.267E-03
            2195     11.4746E-03     21.7457E-03    -19.8375E+06     46.3969E+06     74.3183E+06     347.848E+03    -246.012E-03     473.362E-03    -227.350E-03     209.402E-03    -254.926E-03     482.156E-03    -227.017E-03     176.208E-03
            2196     10.7677E-03     21.4544E-03    -25.8715E+06     40.7612E+06     71.9642E+06     778.438E+03    -247.199E-03     473.546E-03    -226.347E-03     208.762E-03    -256.092E-03     482.283E-03    -226.009E-03     175.555E-03
            2197     10.0617E-03     21.1589E-03    -31.4974E+06     33.7340E+06     63.0836E+06     607.963E+03    -247.584E-03     472.684E-03    -225.101E-03     204.075E-03    -256.117E-03     481.043E-03    -224.789E-03     171.509E-03
            2198     9.35693E-03     20.8678E-03    -37.7826E+06     25.7864E+06     53.3421E+06     100.583E+03    -246.579E-03     470.238E-03    -223.659E-03     194.286E-03    -254.366E-03     477.829E-03    -223.375E-03     163.268E-03
            2199     8.65006E-03     20.5900E-03    -44.7642E+06     16.9530E+06     45.3278E+06     133.197E+03    -244.312E-03     466.392E-03    -222.079E-03     180.128E-03    -251.095E-03     472.946E-03    -221.813E-03     151.410E-03
            2200     7.94217E-03     20.3309E-03    -52.0068E+06     7.60004E+06     37.4598E+06     297.636E+03    -241.222E-03     461.614E-03    -220.392E-03     162.485E-03    -246.871E-03     466.999E-03    -220.141E-03     136.583E-03
            2201     7.23332E-03     20.0941E-03    -59.8950E+06    -8.23975E+06     27.6993E+06     517.028E+03    -237.329E-03     455.972E-03    -218.643E-03     143.225E-03    -241.855E-03     460.177E-03    -218.406E-03     120.415E-03
            2202     6.52097E-03     19.8824E-03    -68.2627E+06    -41.4762E+06     12.5738E+06     586.427E+03    -232.977E-03     449.870E-03    -216.893E-03     124.315E-03    -236.474E-03     452.942E-03    -216.671E-03     104.642E-03
            2203     5.80617E-03     19.6948E-03    -76.7731E+06    -81.7871E+06    -6.35228E+06     432.411E+03    -228.570E-03     443.761E-03    -215.190E-03     106.588E-03    -231.186E-03     445.833E-03    -214.992E-03     89.9356E-03
            2204     5.08863E-03     19.5319E-03    -84.8903E+06    -119.545E+06    -25.3682E+06     515.822E+03    -224.292E-03     437.872E-03    -213.580E-03     90.0724E-03    -226.192E-03     439.121E-03    -213.411E-03     76.2214E-03
            2205     4.36802E-03     19.3918E-03    -92.9706E+06    -152.954E+06    -44.5535E+06     887.020E+03    -220.258E-03     432.354E-03    -212.097E-03     74.8629E-03    -221.597E-03     432.950E-03    -211.963E-03     63.5698E-03
            2206     3.64468E-03     19.2748E-03    -100.364E+06    -180.148E+06    -63.0331E+06     1.13099E+06    -216.581E-03     427.358E-03    -210.777E-03     60.8152E-03    -217.491E-03     427.454E-03    -210.685E-03     51.8401E-03
            2207     2.91886E-03     19.1793E-03    -107.522E+06    -215.183E+06    -79.4161E+06     845.729E+03    -213.461E-03     423.138E-03    -209.676E-03     47.5919E-03    -214.038E-03     422.797E-03    -209.605E-03     40.6877E-03
            2208     2.19094E-03     19.1057E-03    -114.491E+06    -243.572E+06    -94.9132E+06     153.348E+03    -210.953E-03     419.735E-03    -208.782E-03     35.0869E-03    -211.290E-03     419.074E-03    -208.737E-03     30.0564E-03
            2209     1.46166E-03     19.0526E-03    -120.273E+06    -255.932E+06    -110.318E+06    -318.323E+03    -209.089E-03     417.174E-03    -208.085E-03     23.2311E-03    -209.275E-03     416.343E-03    -208.091E-03     19.9294E-03
            2210     731.343E-06     19.0203E-03    -124.244E+06    -265.224E+06    -121.410E+06    -137.838E+03    -207.756E-03     415.546E-03    -207.790E-03     12.3968E-03    -207.853E-03     414.611E-03    -207.832E-03     10.6499E-03
            2211     13.6060E-03     21.0484E-03    -3.17521E+06     63.6717E+06     80.1758E+06     68.4095E+03    -238.995E-03     467.967E-03    -228.972E-03     157.819E-03    -244.152E-03     473.106E-03    -228.659E-03     133.915E-03
            2212     12.8924E-03     20.7829E-03    -8.07030E+06     59.3193E+06     77.2633E+06     167.395E+03    -243.242E-03     471.715E-03    -228.473E-03     193.712E-03    -250.651E-03     479.081E-03    -228.161E-03     163.714E-03
            2213     12.1867E-03     20.5157E-03    -14.0558E+06     49.7114E+06     73.7661E+06     576.041E+03    -246.755E-03     474.475E-03    -227.720E-03     197.438E-03    -254.754E-03     482.387E-03    -227.403E-03     165.609E-03
            2214     11.4808E-03     20.2305E-03    -19.6984E+06     46.6121E+06     74.4931E+06     205.549E+03    -249.497E-03     476.182E-03    -226.684E-03     202.812E-03    -258.042E-03     484.606E-03    -226.351E-03     169.573E-03
            2215     10.7778E-03     19.9395E-03    -25.0772E+06     41.2801E+06     72.5655E+06    -384.399E+03    -251.078E-03     476.432E-03    -225.353E-03     201.030E-03    -259.510E-03     484.711E-03    -225.014E-03     167.901E-03
            2216     10.0762E-03     19.6464E-03    -31.1754E+06     33.6483E+06     63.4079E+06    -504.188E+03    -251.248E-03     474.969E-03    -223.721E-03     194.692E-03    -259.214E-03     482.761E-03    -223.408E-03     162.511E-03
            2217     9.37288E-03     19.3609E-03    -37.7096E+06     25.4067E+06     53.1710E+06    -581.822E+03    -249.736E-03     471.588E-03    -221.852E-03     182.960E-03    -256.898E-03     478.554E-03    -221.568E-03     152.595E-03
            2218     8.66939E-03     19.0890E-03    -44.2925E+06     16.8062E+06     45.1228E+06    -420.054E+03    -246.899E-03     466.705E-03    -219.806E-03     166.952E-03    -253.046E-03     472.626E-03    -219.541E-03     139.081E-03
            2219     7.96457E-03     18.8362E-03    -51.4576E+06     7.36306E+06     36.9364E+06    -279.582E+03    -242.748E-03     460.384E-03    -217.637E-03     148.481E-03    -247.803E-03     465.178E-03    -217.388E-03     123.594E-03
            2220     7.25621E-03     18.6084E-03    -59.3476E+06    -8.28370E+06     27.1155E+06    -286.028E+03    -237.707E-03     453.133E-03    -215.425E-03     129.482E-03    -241.720E-03     456.828E-03    -215.192E-03     107.779E-03
            2221     6.54523E-03     18.4055E-03    -67.3008E+06    -40.3112E+06     13.0642E+06    -135.942E+03    -232.333E-03     445.580E-03    -213.247E-03     111.107E-03    -235.407E-03     448.235E-03    -213.026E-03     92.5637E-03
            2222     5.83012E-03     18.2276E-03    -75.2848E+06    -79.8277E+06    -5.06165E+06     182.522E+03    -226.905E-03     438.055E-03    -211.150E-03     94.1461E-03    -229.182E-03     439.797E-03    -210.951E-03     78.6055E-03
            2223     5.11107E-03     18.0724E-03    -83.8363E+06    -119.125E+06    -24.7986E+06     526.952E+03    -221.689E-03     430.876E-03    -209.188E-03     78.6928E-03    -223.329E-03     431.868E-03    -209.017E-03     65.8845E-03
            2224     4.38864E-03     17.9409E-03     -92.063E+06    -152.652E+06    -44.6474E+06     974.543E+03    -216.850E-03     424.247E-03    -207.396E-03     64.6512E-03    -217.999E-03     424.656E-03    -207.265E-03     54.2897E-03
            2225     3.66277E-03     17.8304E-03    -100.028E+06    -179.668E+06    -63.7321E+06     1.50031E+06    -212.533E-03     418.346E-03    -205.813E-03     51.9816E-03    -213.314E-03     418.318E-03    -205.727E-03     43.7977E-03
            2226     2.93408E-03     17.7412E-03    -107.511E+06    -211.822E+06    -80.5606E+06     1.26793E+06    -208.881E-03     413.368E-03    -204.487E-03     40.3871E-03    -209.380E-03     412.965E-03    -204.426E-03     34.1285E-03
            2227     2.20307E-03     17.6720E-03    -114.088E+06    -241.192E+06    -95.4645E+06    -241.871E+03    -205.958E-03     409.376E-03    -203.418E-03     29.7600E-03    -206.252E-03     408.683E-03    -203.380E-03     25.2097E-03
            2228     1.46989E-03     17.6230E-03    -119.450E+06    -257.240E+06    -109.751E+06    -551.672E+03    -203.773E-03     406.371E-03    -202.598E-03     19.7720E-03    -203.934E-03     405.510E-03    -202.601E-03     16.7899E-03
            2229     735.188E-06     17.5927E-03    -122.514E+06    -265.467E+06    -120.274E+06    -72.2638E+03    -202.255E-03     404.452E-03    -202.197E-03     10.4203E-03    -202.339E-03     403.506E-03    -202.236E-03     8.84714E-03
            2230     13.6031E-03     19.5359E-03    -4.96446E+06     62.8770E+06     78.7546E+06    -301.526E+03    -243.080E-03     471.936E-03    -228.856E-03     158.096E-03    -248.270E-03     477.104E-03    -228.546E-03     133.650E-03
            2231     12.9003E-03     19.2676E-03    -9.38050E+06     59.4804E+06     77.2970E+06     316.378E+03    -248.066E-03     476.174E-03    -228.108E-03     193.721E-03    -255.502E-03     483.564E-03    -227.795E-03     162.958E-03
            2232     12.1950E-03     18.9986E-03    -14.3289E+06     50.8980E+06     74.5916E+06     82.3050E+03    -251.279E-03     478.342E-03    -227.062E-03     195.948E-03    -259.106E-03     486.081E-03    -226.742E-03     163.804E-03
            2233     11.4940E-03     18.7124E-03    -18.6270E+06     47.5500E+06     75.8961E+06    -528.932E+03    -254.499E-03     480.185E-03    -225.686E-03     198.190E-03    -262.664E-03     488.232E-03    -225.348E-03     164.901E-03
            2234     10.7939E-03     18.4212E-03    -24.1111E+06     41.6677E+06     73.2161E+06    -663.073E+03    -256.154E-03     480.081E-03    -223.927E-03     192.779E-03    -264.062E-03     487.841E-03    -223.587E-03     159.799E-03
            2235     10.0943E-03     18.1319E-03    -30.2911E+06     33.1272E+06     63.5652E+06    -836.824E+03    -255.830E-03     477.629E-03    -221.799E-03     182.742E-03    -263.138E-03     484.765E-03    -221.485E-03     151.059E-03
            2236     9.39595E-03     17.8519E-03    -36.7142E+06     25.0618E+06     53.5745E+06    -919.320E+03    -253.558E-03     472.945E-03    -219.387E-03     168.575E-03    -260.019E-03     479.211E-03    -219.102E-03     138.979E-03
            2237     8.69626E-03     17.5871E-03    -43.3673E+06     16.8506E+06     45.1036E+06    -881.949E+03    -249.390E-03     466.174E-03    -216.783E-03     151.665E-03    -254.856E-03     471.417E-03    -216.519E-03     124.833E-03
            2238     7.99290E-03     17.3457E-03    -50.3862E+06     7.20883E+06     36.5746E+06    -939.362E+03    -243.796E-03     457.882E-03    -214.087E-03     133.040E-03    -248.232E-03     462.062E-03    -213.841E-03     109.381E-03
            2239     7.28604E-03     17.1279E-03    -57.8063E+06    -7.68822E+06     26.8630E+06    -773.125E+03    -237.485E-03     448.873E-03    -211.388E-03     114.118E-03    -240.960E-03     452.040E-03    -211.159E-03     93.7384E-03
            2240     6.57436E-03     16.9362E-03    -65.9206E+06    -39.6245E+06     12.5195E+06    -408.178E+03    -230.977E-03     439.737E-03    -208.760E-03     96.3620E-03    -233.612E-03     441.963E-03    -208.544E-03     79.1274E-03
            2241     5.85862E-03     16.7690E-03    -74.6086E+06    -78.7724E+06    -5.06630E+06     92.8908E+03    -224.563E-03     430.817E-03    -206.254E-03     80.4740E-03    -226.504E-03     432.229E-03    -206.057E-03     66.1552E-03
            2242     5.13837E-03     16.6250E-03    -82.9933E+06    -118.757E+06    -23.9742E+06     735.001E+03    -218.380E-03     422.304E-03    -203.924E-03     66.2983E-03    -219.768E-03     423.045E-03    -203.751E-03     54.6091E-03
            2243     4.41351E-03     16.5023E-03    -91.3648E+06    -152.778E+06    -44.1629E+06     1.86845E+06    -212.689E-03     414.498E-03    -201.808E-03     53.7894E-03    -213.656E-03     414.725E-03    -201.675E-03     44.4188E-03
            2244     3.68477E-03     16.4007E-03    -99.3807E+06    -178.754E+06    -64.0320E+06     2.76722E+06    -207.652E-03     407.600E-03    -199.947E-03     42.8035E-03    -208.310E-03     407.454E-03    -199.864E-03     35.4631E-03
            2245     2.95230E-03     16.3182E-03    -106.319E+06    -206.890E+06    -82.7638E+06     2.03209E+06    -203.369E-03     401.758E-03    -198.390E-03     32.9909E-03    -203.791E-03     401.306E-03    -198.349E-03     27.4071E-03
            2246     2.21665E-03     16.2551E-03    -112.380E+06    -238.045E+06    -97.8961E+06     397.110E+03    -200.013E-03     397.181E-03    -197.168E-03     24.1550E-03    -200.257E-03     396.462E-03    -197.149E-03     20.1136E-03
            2247     1.47904E-03     16.2095E-03    -117.348E+06    -258.818E+06    -109.825E+06    -218.660E+03    -197.594E-03     393.848E-03    -196.254E-03     15.8002E-03    -197.723E-03     392.957E-03    -196.258E-03     13.1445E-03
            2248     739.987E-06     16.1827E-03    -120.245E+06    -265.110E+06    -118.820E+06     48.0727E+03    -196.090E-03     391.661E-03    -195.572E-03     8.18635E-03    -196.159E-03     390.705E-03    -195.607E-03     6.77447E-03
            2249     13.6093E-03     18.0160E-03    -4.18964E+06     61.8939E+06     80.4098E+06     535.300E+03    -247.029E-03     475.685E-03    -228.655E-03     159.187E-03    -252.272E-03     480.899E-03    -228.337E-03     134.145E-03
            2250     12.9035E-03     17.7458E-03    -8.60373E+06     58.9617E+06     78.0061E+06    -386.833E+03    -253.137E-03     480.780E-03    -227.644E-03     193.553E-03    -260.529E-03     488.125E-03    -227.327E-03     162.128E-03
            2251     12.2039E-03     17.4748E-03    -12.8433E+06     53.3313E+06     75.6421E+06    -892.560E+03    -257.952E-03     484.176E-03    -226.223E-03     193.544E-03    -265.576E-03     491.724E-03    -225.904E-03     160.842E-03
            2252     11.5065E-03     17.1851E-03    -18.2939E+06     46.9739E+06     75.3935E+06    -1.17701E+06    -261.667E-03     486.014E-03    -224.347E-03     191.048E-03    -269.444E-03     493.675E-03    -224.011E-03     157.370E-03
            2253     10.8129E-03     16.8968E-03    -24.0920E+06     40.9727E+06     73.1007E+06    -1.45921E+06    -262.654E-03     484.658E-03    -222.005E-03     181.073E-03    -269.978E-03     491.833E-03    -221.664E-03     148.187E-03
            2254     10.1209E-03     16.6130E-03    -29.6499E+06     33.5017E+06     64.5208E+06    -1.50871E+06    -261.123E-03     480.381E-03    -219.258E-03     168.558E-03    -267.755E-03     486.842E-03    -218.941E-03     137.402E-03
            2255     9.42675E-03     16.3411E-03    -35.7593E+06     24.8814E+06     54.2058E+06    -1.49770E+06    -257.276E-03     473.504E-03    -216.228E-03     153.252E-03    -263.033E-03     479.069E-03    -215.941E-03     124.590E-03
            2256     8.72899E-03     16.0887E-03    -42.1852E+06     16.7794E+06     45.2253E+06    -1.49254E+06    -251.612E-03     464.644E-03    -213.032E-03     135.396E-03    -256.400E-03     469.214E-03    -212.769E-03     109.772E-03
            2257     8.02770E-03     15.8585E-03    -48.9464E+06     7.11850E+06     36.1655E+06    -1.29858E+06    -244.667E-03     454.433E-03    -209.766E-03     116.053E-03    -248.490E-03     458.006E-03    -209.525E-03     93.7428E-03
            2258     7.32149E-03     15.6548E-03    -56.3816E+06    -7.41355E+06     26.1394E+06    -765.114E+03    -236.881E-03     443.415E-03    -206.535E-03     97.1025E-03    -239.833E-03     446.068E-03    -206.311E-03     78.1341E-03
            2259     6.61000E-03     15.4766E-03    -64.5570E+06    -38.7266E+06     11.0476E+06    -126.604E+03    -228.937E-03     432.363E-03    -203.426E-03     80.0840E-03    -231.146E-03     434.176E-03    -203.221E-03     64.2500E-03
            2260     5.89263E-03     15.3221E-03    -72.8284E+06    -78.0946E+06    -6.78012E+06     425.339E+03    -221.297E-03     421.804E-03    -200.506E-03     65.4458E-03    -222.907E-03     422.899E-03    -200.321E-03     52.4244E-03
            2261     5.16987E-03     15.1902E-03    -81.2444E+06    -118.972E+06    -23.6237E+06     1.63055E+06    -214.154E-03     411.988E-03    -197.834E-03     53.0238E-03    -215.300E-03     412.492E-03    -197.662E-03     42.4858E-03
            2262     4.44199E-03     15.0792E-03    -89.5181E+06    -152.896E+06    -42.2577E+06     2.86440E+06    -207.650E-03     403.075E-03    -195.425E-03     42.4302E-03    -208.448E-03     403.134E-03    -195.285E-03     34.0582E-03
            2263     3.70927E-03     14.9868E-03    -96.7571E+06    -176.839E+06    -63.0817E+06     3.38816E+06    -201.905E-03     395.213E-03    -193.308E-03     33.2978E-03    -202.445E-03     394.963E-03    -193.227E-03     26.7925E-03
            2264     2.97255E-03     14.9131E-03    -102.804E+06    -202.354E+06    -82.6970E+06     3.27715E+06    -197.131E-03     388.673E-03    -191.542E-03     25.3782E-03    -197.475E-03     388.170E-03    -191.513E-03     20.4733E-03
            2265     2.23265E-03     14.8559E-03    -107.964E+06    -234.238E+06    -96.5617E+06     2.56438E+06    -193.385E-03     383.549E-03    -190.164E-03     18.3476E-03    -193.577E-03     382.803E-03    -190.150E-03     14.8274E-03
            2266     1.49001E-03     14.8155E-03    -112.589E+06    -257.482E+06    -106.318E+06     1.61295E+06    -190.625E-03     379.777E-03    -189.151E-03     11.9289E-03    -190.721E-03     378.863E-03    -189.146E-03     9.62823E-03
            2267     745.638E-06     14.7908E-03    -116.209E+06    -263.836E+06    -114.141E+06     940.264E+03    -188.843E-03     377.374E-03    -188.532E-03     6.21998E-03    -188.896E-03     376.406E-03    -188.551E-03     4.99484E-03
            2268     13.6106E-03     16.4933E-03    -2.83784E+06     61.9848E+06     82.7551E+06    -405.607E+03    -252.597E-03     480.995E-03    -228.398E-03     163.295E-03    -257.930E-03     486.297E-03    -228.070E-03     137.437E-03
            2269     12.9121E-03     16.2189E-03    -6.45424E+06     60.3866E+06     80.2851E+06     413.443E+03    -261.281E-03     488.280E-03    -226.998E-03     191.493E-03    -268.559E-03     495.516E-03    -226.675E-03     159.286E-03
            2270     12.2171E-03     15.9394E-03    -11.9724E+06     54.8573E+06     76.6677E+06    -74.0750E+03    -266.622E-03     491.646E-03    -225.024E-03     185.712E-03    -273.952E-03     498.907E-03    -224.703E-03     152.263E-03
            2271     11.5293E-03     15.6503E-03    -17.6679E+06     48.3811E+06     75.9596E+06    -1.82401E+06    -269.219E-03     491.740E-03    -222.521E-03     180.114E-03    -276.540E-03     498.952E-03    -222.186E-03     146.105E-03
            2272     10.8419E-03     15.3658E-03    -23.2828E+06     41.2889E+06     73.1263E+06    -2.14023E+06    -269.095E-03     488.634E-03    -219.539E-03     168.718E-03    -275.858E-03     495.251E-03    -219.199E-03     136.005E-03
            2273     10.1530E-03     15.0906E-03    -29.6405E+06     32.6695E+06     63.2788E+06    -2.59228E+06    -266.344E-03     482.486E-03    -216.142E-03     154.718E-03    -272.362E-03     488.336E-03    -215.830E-03     124.118E-03
            2274     9.46191E-03     14.8309E-03    -35.3305E+06     24.2690E+06     53.2267E+06    -2.72430E+06    -261.209E-03     473.671E-03    -212.462E-03     137.422E-03    -266.327E-03     478.599E-03    -212.180E-03     109.651E-03
            2275     8.76791E-03     14.5913E-03    -41.3025E+06     15.8372E+06     44.5181E+06    -2.37455E+06    -254.080E-03     462.697E-03    -208.617E-03     117.810E-03    -258.250E-03     466.653E-03    -208.358E-03     93.3095E-03
            2276     8.06878E-03     14.3773E-03    -48.1043E+06     6.04233E+06     34.7791E+06    -1.55269E+06    -245.293E-03     450.025E-03    -204.732E-03     97.8069E-03    -248.558E-03     453.045E-03    -204.497E-03     76.8019E-03
            2277     7.36326E-03     14.1898E-03    -55.4233E+06    -7.91497E+06     24.0200E+06    -708.987E+03    -235.761E-03     436.705E-03    -200.944E-03     79.4626E-03    -238.249E-03     438.902E-03    -200.732E-03     61.8526E-03
            2278     6.65077E-03     14.0280E-03    -63.3578E+06    -38.1963E+06     9.16353E+06     436.476E+03    -226.352E-03     423.707E-03    -197.355E-03     63.6946E-03    -228.195E-03     425.166E-03    -197.162E-03     49.1857E-03
            2279     5.93158E-03     13.8892E-03    -71.9650E+06    -78.1377E+06    -9.05722E+06     2.24422E+06    -217.366E-03     411.394E-03    -194.028E-03     50.4364E-03    -218.695E-03     412.219E-03    -193.856E-03     38.6632E-03
            2280     5.20561E-03     13.7716E-03    -81.0850E+06    -117.325E+06    -26.5791E+06     3.41461E+06    -209.117E-03     400.135E-03    -191.019E-03     39.6068E-03    -210.060E-03     400.451E-03    -190.864E-03     30.1850E-03
            2281     4.47386E-03     13.6725E-03    -89.6226E+06    -151.134E+06    -43.1446E+06     3.34098E+06    -201.760E-03     390.114E-03    -188.354E-03     30.7835E-03    -202.419E-03     390.042E-03    -188.221E-03     23.3584E-03
            2282     3.73680E-03     13.5919E-03    -97.5822E+06    -175.846E+06    -62.0247E+06     3.81838E+06    -195.355E-03     381.400E-03    -186.045E-03     23.6546E-03    -195.809E-03     381.060E-03    -185.958E-03     17.9409E-03
            2283     2.99506E-03     13.5265E-03    -105.092E+06    -199.947E+06    -82.7116E+06     4.94158E+06    -190.092E-03     374.217E-03    -184.126E-03     17.9113E-03    -190.393E-03     373.672E-03    -184.097E-03     13.6606E-03
            2284     2.24962E-03     13.4769E-03    -111.572E+06    -229.300E+06    -99.1089E+06     5.15227E+06    -186.003E-03     368.645E-03    -182.643E-03     13.0144E-03    -186.185E-03     367.901E-03    -182.644E-03     9.99975E-03
            2285     1.50135E-03     13.4415E-03    -116.653E+06    -251.694E+06    -110.166E+06     3.33345E+06    -183.049E-03     364.642E-03    -181.593E-03     8.53009E-03    -183.154E-03     363.755E-03    -181.610E-03     6.57213E-03
            2286     750.860E-06     13.4206E-03    -119.680E+06    -260.233E+06    -117.958E+06     1.03599E+06    -181.267E-03     362.262E-03    -180.995E-03     4.28327E-03    -181.332E-03     361.317E-03    -181.034E-03     3.23512E-03
            2287     13.6139E-03     14.9609E-03    -4.72530E+06     62.6981E+06     80.1575E+06    -1.65439E+06    -261.751E-03     489.739E-03    -227.988E-03     164.556E-03    -267.161E-03     495.122E-03    -227.671E-03     137.491E-03
            2288     12.9229E-03     14.6722E-03    -10.2736E+06     58.7593E+06     77.5417E+06    -1.74594E+06    -271.058E-03     497.102E-03    -226.044E-03     188.398E-03    -278.341E-03     504.333E-03    -225.727E-03     154.842E-03
            2289     12.2404E-03     14.3944E-03    -13.1014E+06     55.2182E+06     77.1468E+06    -2.02208E+06    -275.415E-03     498.887E-03    -223.472E-03     181.740E-03    -282.636E-03     506.034E-03    -223.147E-03     147.347E-03
            2290     11.5557E-03     14.1080E-03    -16.7053E+06     50.6079E+06     77.9971E+06    -1.57363E+06    -277.278E-03     497.625E-03    -220.347E-03     174.128E-03    -284.315E-03     504.559E-03    -220.006E-03     139.783E-03
            2291     10.8720E-03     13.8291E-03    -22.4943E+06     41.4587E+06     73.4932E+06    -2.34592E+06    -276.191E-03     492.892E-03    -216.701E-03     158.913E-03    -282.549E-03     499.109E-03    -216.361E-03     126.195E-03
            2292     10.1888E-03     13.5648E-03    -27.7677E+06     32.9693E+06     63.8471E+06    -2.80308E+06    -272.277E-03     484.884E-03    -212.607E-03     140.777E-03    -277.796E-03     490.241E-03    -212.296E-03     110.491E-03
            2293     9.50324E-03     13.3187E-03    -34.0618E+06     24.3473E+06     52.4602E+06    -2.68940E+06    -265.551E-03     473.758E-03    -208.207E-03     120.982E-03    -270.142E-03     478.170E-03    -207.931E-03     93.8468E-03
            2294     8.81250E-03     13.0966E-03    -41.0217E+06     14.6980E+06     42.2418E+06    -2.42922E+06    -256.287E-03     459.967E-03    -203.680E-03     100.460E-03    -259.954E-03     463.425E-03    -203.431E-03     76.9054E-03
            2295     8.11483E-03     12.9020E-03    -47.8750E+06     4.34290E+06     32.4762E+06    -1.76429E+06    -245.449E-03     444.644E-03    -199.195E-03     80.7556E-03    -248.278E-03     447.230E-03    -198.970E-03     60.8597E-03
            2296     7.40901E-03     12.7350E-03    -55.7311E+06    -9.89239E+06     20.8116E+06    -130.501E+03    -234.199E-03     429.084E-03    -194.885E-03     63.4065E-03    -236.335E-03     430.932E-03    -194.686E-03     46.9501E-03
            2297     6.69515E-03     12.5917E-03    -64.5720E+06    -39.2980E+06     4.78578E+06     2.61743E+06    -223.312E-03     414.159E-03    -190.847E-03     48.8860E-03    -224.887E-03     415.354E-03    -190.673E-03     35.4969E-03
            2298     5.97334E-03     12.4712E-03    -73.9846E+06    -78.7136E+06    -14.0754E+06     5.30743E+06    -213.134E-03     400.274E-03    -187.140E-03     37.0785E-03    -214.267E-03     400.908E-03    -186.989E-03     26.3457E-03
            2299     5.24428E-03     12.3695E-03    -83.3596E+06    -113.508E+06    -31.9709E+06     6.46019E+06    -203.764E-03     387.576E-03    -183.813E-03     27.9042E-03    -204.572E-03     387.778E-03    -183.687E-03     19.4289E-03
            2300     4.50810E-03     12.2851E-03    -93.0176E+06    -146.013E+06    -48.1729E+06     5.48158E+06    -195.451E-03     376.367E-03    -180.915E-03     20.8392E-03    -196.027E-03     376.233E-03    -180.810E-03     14.2268E-03
            2301     3.76584E-03     12.2161E-03    -102.068E+06    -175.155E+06    -64.1760E+06     4.78495E+06    -188.424E-03     366.886E-03    -178.461E-03     15.4589E-03    -188.834E-03     366.494E-03    -178.380E-03     10.4035E-03
            2302     3.01859E-03     12.1611E-03    -109.574E+06    -199.361E+06    -81.9017E+06     6.30753E+06    -182.669E-03     359.119E-03    -176.450E-03     11.3376E-03    -182.955E-03     358.542E-03    -176.411E-03     7.61816E-03
            2303     2.26716E-03     12.1187E-03    -116.182E+06    -222.521E+06    -99.3993E+06     6.62821E+06    -178.281E-03     353.186E-03    -174.905E-03     8.00220E-03    -178.474E-03     352.460E-03    -174.911E-03     5.39407E-03
            2304     1.51290E-03     12.0888E-03    -121.441E+06    -242.744E+06    -113.501E+06     4.23487E+06    -175.299E-03     349.116E-03    -173.817E-03     5.09831E-03    -175.426E-03     348.275E-03    -173.856E-03     3.41254E-03
            2305     757.212E-06     12.0706E-03    -124.582E+06    -255.024E+06    -122.782E+06     1.77511E+06    -173.571E-03     346.680E-03    -173.109E-03     2.62175E-03    -173.659E-03     345.772E-03    -173.173E-03     1.72903E-03
            2306     13.6251E-03     13.4080E-03    -4.79611E+06     65.2242E+06     80.8645E+06    -142.698E+03    -272.157E-03     499.589E-03    -227.432E-03     168.392E-03    -277.749E-03     505.161E-03    -227.116E-03     140.000E-03
            2307     12.9421E-03     13.1211E-03    -9.09581E+06     61.4868E+06     77.9642E+06    -3.25627E+06    -279.876E-03     504.832E-03    -224.956E-03     191.138E-03    -287.328E-03     512.244E-03    -224.643E-03     156.224E-03
            2308     12.2569E-03     12.8370E-03    -13.7451E+06     54.5738E+06     75.3058E+06    -4.94549E+06    -284.660E-03     506.476E-03    -221.815E-03     180.633E-03    -291.913E-03     513.656E-03    -221.498E-03     145.067E-03
            2309     11.5807E-03     12.5541E-03    -18.7221E+06     48.8653E+06     75.9168E+06    -4.17457E+06    -286.385E-03     504.410E-03    -218.026E-03     167.148E-03    -293.283E-03     511.199E-03    -217.690E-03     131.906E-03
            2310     10.9061E-03     12.2838E-03    -23.0178E+06     41.7564E+06     73.3343E+06    -4.19350E+06    -284.183E-03     497.832E-03    -213.648E-03     148.116E-03    -290.279E-03     503.786E-03    -213.309E-03     114.907E-03
            2311     10.2291E-03     12.0329E-03    -28.9013E+06     31.8955E+06     62.6441E+06    -3.96916E+06    -278.513E-03     487.318E-03    -208.806E-03     127.624E-03    -283.696E-03     492.337E-03    -208.497E-03     97.2966E-03
            2312     9.54750E-03     11.8051E-03    -35.0263E+06     22.9026E+06     50.5809E+06    -3.05954E+06    -269.381E-03     473.087E-03    -203.706E-03     106.430E-03    -273.606E-03     477.130E-03    -203.435E-03     79.7113E-03
            2313     8.85895E-03     11.6051E-03    -40.9986E+06     13.6650E+06     39.6567E+06    -1.88722E+06    -257.608E-03     456.182E-03    -198.574E-03     85.7545E-03    -260.924E-03     459.294E-03    -198.336E-03     62.9491E-03
            2314     8.16159E-03     11.4339E-03    -48.8319E+06     1.33715E+06     27.7625E+06     302.591E+03    -244.872E-03     438.458E-03    -193.586E-03     67.1286E-03    -247.412E-03     440.756E-03    -193.378E-03     48.1113E-03
            2315     7.45531E-03     11.2895E-03    -58.4592E+06    -13.3455E+06     15.2432E+06     3.55166E+06    -232.212E-03     421.069E-03    -188.857E-03     51.2376E-03    -234.136E-03     422.700E-03    -188.677E-03     35.6511E-03
            2316     6.73959E-03     11.1688E-03    -68.8009E+06    -40.7910E+06    -1.45901E+06     6.56714E+06    -220.053E-03     404.515E-03    -184.462E-03     38.3185E-03    -221.485E-03     405.566E-03    -184.310E-03     25.7506E-03
            2317     6.01497E-03     11.0677E-03    -78.3987E+06    -77.3649E+06    -20.3005E+06     8.24684E+06    -208.763E-03     389.226E-03    -180.463E-03     28.1805E-03    -209.805E-03     389.776E-03    -180.338E-03     18.1821E-03
            2318     5.28190E-03     10.9846E-03    -86.5595E+06    -109.715E+06    -36.9604E+06     8.60249E+06    -198.561E-03     375.463E-03    -176.903E-03     20.4808E-03    -199.314E-03     375.628E-03    -176.803E-03     12.6191E-03
            2319     4.54131E-03     10.9160E-03    -93.6788E+06    -138.701E+06    -52.0741E+06     7.57408E+06    -189.619E-03     363.427E-03    -173.808E-03     14.7066E-03    -190.158E-03     363.292E-03    -173.731E-03     8.60275E-03
            2320     3.79424E-03     10.8601E-03    -100.812E+06    -171.614E+06    -64.9299E+06     5.86938E+06    -182.109E-03     353.311E-03    -171.202E-03     10.2486E-03    -182.488E-03     352.909E-03    -171.132E-03     5.58182E-03
            2321     3.04176E-03     10.8157E-03    -107.549E+06    -198.761E+06    -78.1660E+06     5.48524E+06    -175.985E-03     345.039E-03    -169.054E-03     6.81717E-03    -176.249E-03     344.440E-03    -169.001E-03     3.36425E-03
            2322     2.28504E-03     10.7815E-03    -112.830E+06    -216.214E+06    -94.0540E+06     5.65076E+06    -171.173E-03     338.528E-03    -167.355E-03     4.31875E-03    -171.356E-03     337.812E-03    -167.348E-03     1.90601E-03
            2323     1.52514E-03     10.7567E-03    -117.242E+06    -234.257E+06    -108.741E+06     4.70659E+06    -167.766E-03     333.926E-03    -166.160E-03     2.56949E-03    -167.886E-03     333.110E-03    -166.195E-03     1.03289E-03
            2324     762.834E-06     10.7419E-03    -120.486E+06    -247.664E+06    -118.338E+06     2.86467E+06    -165.853E-03     331.312E-03    -165.460E-03     1.39473E-03    -165.935E-03     330.428E-03    -165.518E-03     588.728E-06
            2325     13.6318E-03     11.8507E-03    -3.08143E+06     67.8707E+06     84.1644E+06    -847.770E+03    -282.157E-03     509.150E-03    -226.993E-03     176.265E-03    -288.056E-03     515.034E-03    -226.666E-03     146.334E-03
            2326     12.9485E-03     11.5519E-03    -6.02328E+06     66.5493E+06     81.7901E+06    -1.64262E+06    -290.979E-03     514.937E-03    -223.959E-03     194.686E-03    -298.712E-03     522.648E-03    -223.638E-03     158.039E-03
            2327     12.2802E-03     11.2665E-03    -12.2769E+06     57.6573E+06     76.8353E+06    -2.34775E+06    -295.553E-03     515.693E-03    -220.140E-03     177.722E-03    -302.910E-03     522.989E-03    -219.821E-03     140.641E-03
            2328     11.6112E-03     10.9880E-03    -18.4704E+06     50.5015E+06     75.9349E+06    -4.50192E+06    -295.927E-03     511.542E-03    -215.615E-03     160.467E-03    -302.800E-03     518.313E-03    -215.282E-03     124.052E-03
            2329     10.9413E-03     10.7296E-03    -25.0896E+06     40.4937E+06     70.4997E+06    -5.91487E+06    -291.850E-03     502.351E-03    -210.501E-03     138.583E-03    -297.825E-03     508.183E-03    -210.171E-03     104.631E-03
            2330     10.2688E-03     10.4953E-03    -30.6760E+06     28.2926E+06     58.4559E+06    -5.32350E+06    -283.352E-03     488.341E-03    -204.989E-03     116.053E-03    -288.313E-03     493.132E-03    -204.693E-03     85.6262E-03
            2331     9.59052E-03     10.2908E-03    -36.1719E+06     19.4152E+06     46.0823E+06    -3.33031E+06    -271.336E-03     470.681E-03    -199.345E-03     94.5396E-03    -275.313E-03     474.474E-03    -199.090E-03     68.1967E-03
            2332     8.90290E-03     10.1179E-03    -43.6389E+06     9.01123E+06     33.2821E+06    -163.932E+03    -257.367E-03     451.167E-03    -193.801E-03     75.1057E-03    -260.471E-03     454.060E-03    -193.584E-03     52.9415E-03
            2333     8.20489E-03     9.97350E-03    -52.1228E+06    -4.20048E+06      19.237E+06     4.23475E+06    -243.018E-03     431.528E-03    -188.510E-03     58.7624E-03    -245.405E-03     433.667E-03    -188.332E-03     40.4768E-03
            2334     7.49629E-03     9.85423E-03    -61.1178E+06    -17.9706E+06     8.08833E+06     8.72016E+06    -229.247E-03     412.826E-03    -183.579E-03     45.2757E-03    -231.078E-03     414.359E-03    -183.424E-03     30.3809E-03
            2335     6.77794E-03     9.75737E-03    -70.6024E+06    -39.7479E+06    -3.13317E+06     11.3577E+06    -216.360E-03     395.414E-03    -179.054E-03     34.4809E-03    -217.758E-03     396.434E-03    -178.910E-03     22.4744E-03
            2336     6.04991E-03     9.67859E-03    -79.6295E+06    -71.7267E+06    -19.3735E+06     10.5639E+06    -204.559E-03     379.508E-03    -174.949E-03     26.1364E-03    -205.607E-03     380.078E-03    -174.826E-03     16.5323E-03
            2337     5.31319E-03     9.61452E-03    -86.9576E+06    -104.298E+06    -37.2688E+06     8.19866E+06    -194.110E-03     365.391E-03    -171.281E-03     19.5888E-03    -194.878E-03     365.591E-03    -171.190E-03     11.9587E-03
            2338     4.56897E-03     9.56262E-03    -92.8126E+06    -133.358E+06    -52.8462E+06     6.79697E+06    -185.009E-03     353.076E-03    -168.067E-03     14.4591E-03    -185.564E-03     352.982E-03    -168.003E-03     8.48356E-03
            2339     3.81810E-03     9.52065E-03    -97.9918E+06    -165.208E+06    -65.4881E+06     5.34307E+06    -177.234E-03     342.555E-03    -165.320E-03     10.4861E-03    -177.620E-03     342.197E-03    -165.266E-03     5.88905E-03
            2340     3.06178E-03     9.48748E-03    -103.156E+06    -195.816E+06    -77.6569E+06     3.23218E+06    -170.805E-03     333.832E-03    -163.026E-03     7.34629E-03    -171.063E-03     333.253E-03    -162.981E-03     3.89548E-03
            2341     2.30082E-03     9.46238E-03    -107.664E+06    -214.752E+06    -91.0948E+06     3.45300E+06    -165.623E-03     326.798E-03    -161.174E-03     4.92607E-03    -165.793E-03     326.086E-03    -161.162E-03     2.48829E-03
            2342     1.53587E-03     9.44456E-03    -110.914E+06    -227.750E+06    -103.320E+06     4.34057E+06    -161.802E-03     321.618E-03    -159.817E-03     3.05472E-03    -161.910E-03     320.823E-03    -159.842E-03     1.51120E-03
            2343     768.572E-06     9.43305E-03    -113.461E+06    -238.748E+06    -111.297E+06     2.83189E+06    -159.590E-03     318.486E-03    -158.895E-03     1.66132E-03    -159.662E-03     317.628E-03    -158.941E-03     852.826E-06
            2344     13.6308E-03     10.2718E-03    -3.78310E+06     69.3568E+06     83.2076E+06    -2.16300E+06    -293.232E-03     519.887E-03    -226.656E-03     180.549E-03    -299.481E-03     526.127E-03    -226.335E-03     148.655E-03
            2345     12.9668E-03     9.96426E-03    -9.22342E+06     66.3846E+06     79.7127E+06    -2.44208E+06    -303.019E-03     526.018E-03    -222.999E-03     196.656E-03    -311.164E-03     534.134E-03    -222.684E-03     157.677E-03
            2346     12.2996E-03     9.67984E-03    -13.6327E+06     59.5886E+06     76.7586E+06    -2.44251E+06    -306.783E-03     525.264E-03    -218.481E-03     176.002E-03    -314.348E-03     532.771E-03    -218.164E-03     137.168E-03
            2347     11.6372E-03     9.40840E-03    -17.3852E+06     53.5397E+06     76.4442E+06    -3.38133E+06    -304.981E-03     518.227E-03    -213.245E-03     154.221E-03    -311.903E-03     525.061E-03    -212.916E-03     116.522E-03
            2348     10.9752E-03     9.16468E-03    -22.6856E+06     42.4793E+06     70.3978E+06    -4.14919E+06    -297.410E-03     504.912E-03    -207.502E-03     129.366E-03    -303.274E-03     510.650E-03    -207.179E-03     94.9409E-03
            2349     10.3069E-03     8.95574E-03    -30.0928E+06     25.6685E+06     56.1437E+06    -2.98579E+06    -285.225E-03     486.756E-03    -201.532E-03     106.390E-03    -289.979E-03     491.342E-03    -201.245E-03     76.3130E-03
            2350     9.62812E-03     8.77964E-03    -38.8085E+06     13.3742E+06     39.6785E+06    -29.8668E+03    -270.169E-03     465.789E-03    -195.620E-03     86.5445E-03    -273.940E-03     469.364E-03    -195.385E-03     61.0611E-03
            2351     8.93851E-03     8.63646E-03    -47.4833E+06     2.86032E+06     25.0107E+06     4.04774E+06    -254.433E-03     444.413E-03    -189.980E-03     70.1383E-03    -257.402E-03     447.160E-03    -189.791E-03     48.9080E-03
            2352     8.23754E-03     8.52152E-03    -55.9277E+06    -10.3539E+06     12.5216E+06     7.99019E+06    -239.189E-03     423.911E-03    -184.723E-03     56.9874E-03    -241.517E-03     425.975E-03    -184.564E-03     39.5099E-03
            2353     7.52553E-03     8.42929E-03    -63.5255E+06    -22.6798E+06     4.36704E+06     11.5350E+06    -224.811E-03     404.720E-03    -179.909E-03     46.3859E-03    -226.639E-03     406.235E-03    -179.762E-03     32.1142E-03
            2354     6.80302E-03     8.35676E-03    -70.1555E+06    -35.8611E+06    -2.54505E+06     12.5924E+06    -211.814E-03     387.365E-03    -175.551E-03     38.0595E-03    -213.255E-03     388.441E-03    -175.410E-03     26.4339E-03
            2355     6.07147E-03     8.30016E-03    -76.2512E+06    -62.8285E+06    -13.3729E+06     10.2350E+06    -200.389E-03     372.024E-03    -171.635E-03     31.6655E-03    -201.500E-03     372.684E-03    -171.500E-03     22.2267E-03
            2356     5.33173E-03     8.25530E-03    -82.6186E+06    -97.9093E+06    -29.5293E+06     7.33315E+06    -190.350E-03     358.483E-03    -168.133E-03     26.5787E-03    -191.182E-03     358.762E-03    -168.019E-03     18.9776E-03
            2357     4.58471E-03     8.22005E-03    -89.1189E+06    -129.424E+06    -47.9737E+06     5.59606E+06    -181.587E-03     346.626E-03    -165.039E-03     22.2891E-03    -182.194E-03     346.599E-03    -164.962E-03     16.2613E-03
            2358     3.83125E-03     8.19265E-03    -95.0773E+06    -158.749E+06    -64.7874E+06     3.69373E+06    -174.027E-03     336.406E-03    -162.380E-03     18.6052E-03    -174.456E-03     336.124E-03    -162.335E-03     13.9219E-03
            2359     3.07203E-03     8.17121E-03    -100.243E+06    -191.837E+06    -77.3001E+06     1.42037E+06    -167.754E-03     327.942E-03    -160.188E-03     15.1464E-03    -168.037E-03     327.413E-03    -160.151E-03     11.6021E-03
            2360     2.30820E-03     8.15587E-03    -104.761E+06    -216.105E+06    -87.7883E+06     825.569E+03    -162.851E-03     321.279E-03    -158.428E-03     11.6110E-03    -163.030E-03     320.574E-03    -158.402E-03     9.06948E-03
            2361     1.54116E-03     8.14480E-03    -107.711E+06    -224.571E+06    -98.3037E+06     1.47838E+06    -159.193E-03     316.260E-03    -157.067E-03     8.06183E-03    -159.307E-03     315.480E-03    -157.077E-03     6.42976E-03
            2362     771.512E-06     8.13806E-03    -109.445E+06    -232.618E+06    -106.039E+06     1.48023E+06    -156.836E-03     312.937E-03    -156.100E-03     4.77604E-03    -156.907E-03     312.100E-03    -156.134E-03     3.93106E-03
            2363     13.6418E-03     8.67509E-03    -5.13645E+06     72.2301E+06     82.1509E+06    -1.15330E+06    -305.899E-03     532.214E-03    -226.315E-03     186.189E-03    -312.538E-03     538.851E-03    -226.002E-03     152.239E-03
            2364     12.9732E-03     8.36184E-03    -9.42005E+06     67.8929E+06     77.6407E+06    -2.78954E+06    -314.525E-03     536.537E-03    -222.012E-03     196.639E-03    -323.015E-03     545.010E-03    -221.709E-03     155.464E-03
            2365     12.3190E-03     8.07314E-03    -13.1323E+06     60.1753E+06     73.5210E+06    -4.57964E+06    -316.063E-03     532.907E-03    -216.844E-03     171.367E-03    -323.775E-03     540.576E-03    -216.544E-03     130.841E-03
            2366     11.6664E-03     7.81648E-03    -18.5170E+06     51.6575E+06     71.1872E+06    -4.48255E+06    -311.022E-03     522.061E-03    -211.039E-03     146.256E-03    -317.849E-03     528.806E-03    -210.731E-03     107.899E-03
            2367     11.0057E-03     7.59670E-03    -24.7788E+06     39.6283E+06     63.0379E+06    -1.01260E+06    -298.995E-03     503.904E-03    -204.909E-03     120.165E-03    -304.543E-03     509.332E-03    -204.615E-03     86.5335E-03
            2368     10.3354E-03     7.41722E-03    -32.7561E+06     22.6534E+06     48.3786E+06     2.71098E+06    -282.670E-03     481.490E-03    -198.820E-03     98.3421E-03    -287.077E-03     485.732E-03    -198.564E-03     69.8387E-03
            2369     9.65410E-03     7.27567E-03    -41.4526E+06     8.66717E+06     33.2275E+06     5.83063E+06    -265.066E-03     458.110E-03    -193.044E-03     81.7699E-03    -268.570E-03     461.410E-03    -192.830E-03     57.9994E-03
            2370     8.95947E-03     7.16467E-03    -49.6203E+06    -2.12801E+06     21.3851E+06     8.75299E+06    -248.040E-03     435.765E-03    -187.725E-03     69.5221E-03    -250.852E-03     438.339E-03    -187.543E-03     49.7897E-03
            2371     8.25337E-03     7.07843E-03    -56.8411E+06    -12.9443E+06     13.9103E+06     10.8233E+06    -232.338E-03     415.263E-03    -182.925E-03     60.4729E-03    -234.610E-03     417.253E-03    -182.754E-03     44.1316E-03
            2372     7.53641E-03     7.01421E-03    -63.1128E+06    -22.4837E+06     8.09214E+06     10.6857E+06    -218.235E-03     396.876E-03    -178.642E-03     54.0831E-03    -220.081E-03     398.402E-03    -178.477E-03     40.5669E-03
            2373     6.80936E-03     6.96538E-03    -68.3322E+06    -30.7737E+06     1.81807E+06     9.02209E+06    -205.988E-03     380.839E-03    -174.851E-03     49.2271E-03    -207.488E-03     381.987E-03    -174.699E-03     38.0754E-03
            2374     6.07363E-03     6.92910E-03    -73.4299E+06    -54.7388E+06    -7.40920E+06     6.40038E+06    -195.590E-03     367.121E-03    -171.531E-03     45.2705E-03    -196.780E-03     367.882E-03    -171.382E-03     36.1118E-03
            2375     5.33057E-03     6.90231E-03    -78.8186E+06    -94.2261E+06    -20.6975E+06     4.22345E+06    -186.755E-03     355.395E-03    -168.640E-03     41.7049E-03    -187.660E-03     355.749E-03    -168.493E-03     34.2617E-03
            2376     4.58091E-03     6.88271E-03    -84.5228E+06    -127.272E+06    -37.1385E+06     3.85290E+06    -179.215E-03     345.349E-03    -166.134E-03     37.9912E-03    -179.884E-03     345.376E-03    -166.012E-03     32.0636E-03
            2377     3.82579E-03     6.86831E-03    -91.0172E+06    -153.051E+06    -54.0097E+06     2.55226E+06    -172.959E-03     336.975E-03    -164.016E-03     33.7724E-03    -173.443E-03     336.751E-03    -163.932E-03     29.1479E-03
            2378     3.06602E-03     6.85838E-03    -97.5212E+06    -188.639E+06    -68.0493E+06    -200.692E+03    -167.985E-03     330.296E-03    -162.311E-03     28.7060E-03    -168.309E-03     329.801E-03    -162.236E-03     25.1854E-03
            2379     2.30278E-03     6.85058E-03    -103.458E+06    -216.811E+06    -81.4647E+06    -1.86156E+06    -164.194E-03     325.150E-03    -160.956E-03     22.6745E-03    -164.397E-03     324.450E-03    -160.899E-03     20.1308E-03
            2380     1.53675E-03     6.84625E-03    -109.137E+06    -225.551E+06    -95.6008E+06    -2.30358E+06    -161.445E-03     321.346E-03    -159.901E-03     15.8457E-03    -161.580E-03     320.568E-03    -159.894E-03     14.1794E-03
            2381     768.702E-06     6.84347E-03    -112.667E+06    -233.711E+06    -107.306E+06    -2.00298E+06    -159.565E-03     318.819E-03    -159.254E-03     8.86820E-03    -159.652E-03     317.985E-03    -159.288E-03     7.97657E-03
            2382     13.6383E-03     7.05439E-03    -2.85498E+06     75.8603E+06     82.5099E+06    -1.22901E+06    -317.563E-03     543.585E-03    -226.022E-03     190.793E-03    -324.563E-03     550.604E-03    -225.715E-03     155.089E-03
            2383     12.9932E-03     6.73909E-03    -6.59127E+06     71.6095E+06     76.0976E+06    -2.91494E+06    -325.500E-03     546.635E-03    -221.135E-03     201.765E-03    -334.460E-03     555.603E-03    -220.848E-03     158.463E-03
            2384     12.3416E-03     6.45996E-03    -11.1106E+06     60.1435E+06     69.2910E+06    -1.56499E+06    -325.641E-03     541.019E-03    -215.378E-03     168.561E-03    -333.236E-03     548.593E-03    -215.103E-03     127.540E-03
            2385     11.6865E-03     6.21609E-03    -17.9660E+06     46.3426E+06     63.9608E+06     1.47938E+06    -314.065E-03     523.204E-03    -209.138E-03     133.145E-03    -320.164E-03     529.230E-03    -208.860E-03     96.7249E-03
            2386     11.0269E-03     6.03055E-03    -27.1971E+06     32.5409E+06     53.1867E+06     5.29951E+06    -294.918E-03     497.854E-03    -202.936E-03     105.580E-03    -299.682E-03     502.495E-03    -202.678E-03     74.9144E-03
            2387     10.3535E-03     5.88864E-03    -35.4595E+06     19.3706E+06     41.8862E+06     8.59795E+06    -274.273E-03     471.446E-03    -197.173E-03     88.6707E-03    -278.076E-03     475.081E-03    -196.940E-03     63.1900E-03
            2388     9.66451E-03     5.78340E-03    -42.5109E+06     6.70109E+06     32.4194E+06     10.4890E+06    -254.814E-03     446.829E-03    -192.015E-03     78.3161E-03    -257.902E-03     449.705E-03    -191.801E-03     57.1811E-03
            2389     8.96322E-03     5.70440E-03    -48.5398E+06    -2.61969E+06     26.3039E+06     10.7227E+06    -237.167E-03     424.680E-03    -187.513E-03     72.5075E-03    -239.706E-03     426.970E-03    -187.307E-03     55.0100E-03
            2390     8.24908E-03     5.64864E-03    -53.3409E+06    -9.87556E+06     22.3829E+06     8.99540E+06    -221.877E-03     405.538E-03    -183.661E-03     69.3443E-03    -223.987E-03     407.366E-03    -183.457E-03     54.8019E-03
            2391     7.52396E-03     5.60845E-03    -57.2865E+06    -16.5376E+06     18.8068E+06     6.03380E+06    -209.252E-03     389.654E-03    -180.402E-03     67.4396E-03    -211.008E-03     391.100E-03    -180.201E-03     55.3265E-03
            2392     6.79065E-03     5.58085E-03    -61.8560E+06    -26.3377E+06     14.3201E+06     3.28688E+06    -198.965E-03     376.633E-03    -177.668E-03     65.7419E-03    -200.417E-03     377.735E-03    -177.468E-03     55.6901E-03
            2393     6.05010E-03     5.56218E-03    -67.5339E+06    -50.9989E+06     4.56258E+06     1.62916E+06    -190.758E-03     366.143E-03    -175.385E-03     63.4276E-03    -191.928E-03     366.883E-03    -175.191E-03     55.1397E-03
            2394     5.30377E-03     5.54981E-03    -74.7128E+06    -93.6924E+06    -9.51993E+06     481.686E+03    -184.308E-03     357.809E-03    -173.501E-03     59.8389E-03    -185.210E-03     358.142E-03    -173.304E-03     53.0599E-03
            2395     4.55304E-03     5.54253E-03    -82.2893E+06    -127.737E+06    -23.4639E+06    -184.200E+03    -179.200E-03     351.148E-03    -171.948E-03     54.9655E-03    -179.884E-03     351.154E-03    -171.761E-03     49.5057E-03
            2396     3.79849E-03     5.53782E-03    -88.6896E+06    -149.501E+06    -40.2699E+06    -1.40156E+06    -175.313E-03     345.978E-03    -170.665E-03     48.7573E-03    -175.820E-03     345.752E-03    -170.521E-03     44.4483E-03
            2397     3.04169E-03     5.53488E-03    -94.6516E+06    -187.568E+06    -59.8530E+06    -3.38138E+06    -172.483E-03     342.133E-03    -169.650E-03     41.0408E-03    -172.814E-03     341.630E-03    -169.540E-03     37.7167E-03
            2398     2.28280E-03     5.53354E-03    -100.490E+06    -218.547E+06    -78.1604E+06    -4.36582E+06    -170.369E-03     339.233E-03    -168.864E-03     32.1635E-03    -170.566E-03     338.516E-03    -168.792E-03     29.7302E-03
            2399     1.52258E-03     5.53253E-03    -104.888E+06    -228.968E+06    -95.0794E+06    -4.68490E+06    -168.952E-03     337.216E-03    -168.264E-03     22.2605E-03    -169.067E-03     336.413E-03    -168.255E-03     20.6392E-03
            2400     761.911E-06     5.53273E-03    -107.038E+06    -243.019E+06    -105.396E+06    -4.21074E+06    -167.738E-03     335.972E-03    -168.233E-03     12.3103E-03    -167.791E-03     335.078E-03    -168.253E-03     11.4132E-03
            2401     13.6518E-03     5.43479E-03    -184.046E+03     78.5428E+06     78.0592E+06    -2.38283E+06    -332.547E-03     558.734E-03    -226.187E-03     214.080E-03    -340.275E-03     566.505E-03    -225.910E-03     175.940E-03
            2402     12.9898E-03     5.09754E-03    -7.89584E+06     66.6395E+06     65.3084E+06    -1.22362E+06    -345.823E-03     566.344E-03    -220.521E-03     203.199E-03    -354.608E-03     575.147E-03    -220.280E-03     158.931E-03
            2403     12.3506E-03     4.81507E-03    -12.7198E+06     52.2907E+06     58.4033E+06     3.71948E+06    -335.090E-03     549.066E-03    -213.976E-03     143.058E-03    -341.387E-03     555.350E-03    -213.742E-03     104.592E-03
            2404     11.7098E-03     4.61781E-03    -19.4903E+06     39.4076E+06     54.8935E+06     9.09914E+06    -309.649E-03     517.156E-03    -207.507E-03     105.947E-03    -314.323E-03     521.756E-03    -207.261E-03     74.2334E-03
            2405     11.0436E-03     4.47831E-03    -25.3209E+06     29.4657E+06     51.6411E+06     12.2388E+06    -282.921E-03     484.666E-03    -201.746E-03     87.6095E-03    -286.550E-03     488.174E-03    -201.494E-03     61.8957E-03
            2406     10.3583E-03     4.37918E-03    -31.7637E+06     19.4893E+06     47.6834E+06     13.1664E+06    -259.118E-03     455.989E-03    -196.871E-03     80.0806E-03    -262.063E-03     458.763E-03    -196.615E-03     59.1338E-03
            2407     9.65869E-03     4.30885E-03    -37.2363E+06     10.8442E+06     43.1637E+06     11.0806E+06    -238.832E-03     431.706E-03    -192.874E-03     77.8917E-03    -241.265E-03     433.930E-03    -192.620E-03     60.7846E-03
            2408     8.94404E-03     4.26314E-03    -41.6014E+06     3.82240E+06     38.3878E+06     7.29758E+06    -222.424E-03     412.110E-03    -189.686E-03     78.7207E-03    -224.460E-03     413.909E-03    -189.439E-03     64.6815E-03
            2409     8.21850E-03     4.23152E-03    -45.6172E+06    -3.50686E+06     35.4181E+06     3.30665E+06    -209.877E-03     397.078E-03    -187.201E-03     79.7725E-03    -211.591E-03     398.523E-03    -186.953E-03     68.1474E-03
            2410     7.48552E-03     4.21170E-03    -50.5263E+06    -10.3757E+06     34.7009E+06    -72.7500E+03    -200.454E-03     385.747E-03    -185.293E-03     79.5418E-03    -201.903E-03     386.885E-03    -185.031E-03     69.8522E-03
            2411     6.74572E-03     4.19946E-03    -56.8046E+06    -24.0941E+06     29.9657E+06    -2.45356E+06    -193.550E-03     377.379E-03    -183.830E-03     77.7427E-03    -194.766E-03     378.224E-03    -183.562E-03     69.6427E-03
            2412     6.00189E-03     4.19233E-03    -63.5945E+06    -52.0204E+06     16.3805E+06    -3.60356E+06    -188.667E-03     371.369E-03    -182.701E-03     74.1360E-03    -189.653E-03     371.897E-03    -182.452E-03     67.3682E-03
            2413     5.25530E-03     4.18907E-03    -69.2448E+06    -94.1197E+06    -2.20251E+06    -5.23614E+06    -185.401E-03     367.240E-03    -181.839E-03     68.7872E-03    -186.154E-03     367.417E-03    -181.613E-03     63.1304E-03
            2414     4.50674E-03     4.18834E-03    -73.1824E+06    -127.731E+06    -19.5431E+06    -7.82356E+06    -183.281E-03     364.444E-03    -181.163E-03     61.8318E-03    -183.834E-03     364.335E-03    -180.969E-03     57.1232E-03
            2415     3.75721E-03     4.18860E-03    -76.8237E+06    -153.703E+06    -35.6186E+06    -7.80385E+06    -181.789E-03     362.419E-03    -180.630E-03     53.5767E-03    -182.177E-03     362.085E-03    -180.474E-03     49.7599E-03
            2416     3.00645E-03     4.18919E-03    -82.3216E+06    -191.948E+06    -54.4093E+06    -5.53095E+06    -180.781E-03     361.014E-03    -180.233E-03     44.0704E-03    -181.017E-03     360.425E-03    -180.107E-03     41.0886E-03
            2417     2.25536E-03     4.19071E-03    -88.4868E+06    -220.876E+06    -73.1589E+06    -5.10574E+06    -180.093E-03     360.037E-03    -179.943E-03     34.0233E-03    -180.215E-03     359.262E-03    -179.861E-03     31.8037E-03
            2418     1.50371E-03     4.19129E-03    -93.1981E+06    -236.165E+06    -88.5233E+06    -4.44633E+06    -179.682E-03     359.463E-03    -179.781E-03     23.5136E-03    -179.730E-03     358.588E-03    -179.746E-03     22.0243E-03
            2419     751.495E-06     4.19254E-03    -96.2481E+06    -253.310E+06    -97.0887E+06    -1.77043E+06    -179.301E-03     359.441E-03    -180.140E-03     12.7400E-03    -179.295E-03     358.465E-03    -180.118E-03     11.9371E-03
            2420     13.6083E-03     3.75750E-03    -1.28821E+06     78.9376E+06     72.2789E+06    -1.67245E+06    -370.365E-03     596.772E-03    -226.406E-03     209.903E-03    -377.570E-03     604.028E-03    -226.157E-03     170.418E-03
            2421     13.0055E-03     3.38238E-03    -9.19855E+06     56.9752E+06     58.6021E+06     5.16444E+06    -367.405E-03     586.637E-03    -219.232E-03     143.884E-03    -373.514E-03     592.767E-03    -219.008E-03     104.487E-03
            2422     12.3880E-03     3.17742E-03    -15.5036E+06     42.9764E+06     51.6924E+06     9.63790E+06    -328.173E-03     540.289E-03    -212.116E-03     89.7612E-03    -331.984E-03     544.069E-03    -211.897E-03     59.3624E-03
            2423     11.7257E-03     3.03904E-03    -19.3835E+06     37.2200E+06     53.3905E+06     10.8645E+06    -291.429E-03     497.668E-03    -206.239E-03     75.8822E-03    -294.332E-03     500.494E-03    -205.998E-03     52.1556E-03
            2424     11.0452E-03     2.95297E-03    -22.5912E+06     29.9234E+06     56.3085E+06     10.4272E+06    -262.455E-03     464.111E-03    -201.656E-03     71.7358E-03    -264.723E-03     466.254E-03    -201.385E-03     53.3245E-03
            2425     10.3462E-03     2.89542E-03    -24.2959E+06     24.4240E+06     60.0608E+06     9.00078E+06    -239.228E-03     437.433E-03    -198.205E-03     73.6348E-03    -241.079E-03     439.121E-03    -197.905E-03     59.1689E-03
            2426     9.62913E-03     2.86132E-03    -27.0113E+06     18.4335E+06     58.6658E+06     6.65049E+06    -221.953E-03     417.647E-03    -195.694E-03     76.2694E-03    -223.490E-03     418.991E-03    -195.388E-03     64.7445E-03
            2427     8.90166E-03     2.83870E-03    -31.7866E+06     11.4651E+06     52.7648E+06     3.46302E+06    -209.975E-03     403.893E-03    -193.919E-03     77.5546E-03    -211.270E-03     404.969E-03    -193.625E-03     68.1665E-03
            2428     8.16768E-03     2.82445E-03    -38.0536E+06     3.51567E+06     44.8614E+06    -396.728E+03    -201.748E-03     394.450E-03    -192.702E-03     76.8541E-03    -202.848E-03     395.301E-03    -192.427E-03     69.0441E-03
            2429     7.42859E-03     2.81633E-03    -44.7590E+06    -5.78827E+06     35.2480E+06    -4.13835E+06    -196.371E-03     388.268E-03    -191.898E-03     74.5165E-03    -197.312E-03     388.929E-03    -191.648E-03     67.8932E-03
            2430     6.68792E-03     2.81186E-03    -50.4380E+06    -22.2947E+06     23.1057E+06    -7.57965E+06    -193.132E-03     384.517E-03    -191.386E-03     70.6176E-03    -193.922E-03     384.981E-03    -191.165E-03     64.9186E-03
            2431     5.94558E-03     2.81042E-03    -54.6707E+06    -54.2747E+06     6.93544E+06    -10.4257E+06    -191.300E-03     382.375E-03    -191.075E-03     65.2101E-03    -191.925E-03     382.590E-03    -190.882E-03     60.2745E-03
            2432     5.20223E-03     2.81043E-03    -58.1786E+06    -95.5068E+06    -12.3807E+06    -12.3203E+06    -190.420E-03     381.314E-03    -190.894E-03     58.8401E-03    -190.876E-03     381.256E-03    -190.734E-03     54.5707E-03
            2433     4.45913E-03     2.81106E-03    -62.7226E+06    -131.497E+06    -31.3436E+06    -12.5644E+06    -190.147E-03     380.937E-03    -190.789E-03     51.8472E-03    -190.463E-03     380.649E-03    -190.664E-03     48.1992E-03
            2434     3.71588E-03     2.81300E-03    -68.7630E+06    -166.680E+06    -45.7855E+06    -9.12572E+06    -190.118E-03     380.869E-03    -190.751E-03     44.2478E-03    -190.322E-03     380.365E-03    -190.639E-03     41.2432E-03
            2435     2.97274E-03     2.81476E-03    -74.4968E+06    -200.245E+06    -57.7479E+06    -4.80874E+06    -190.182E-03     380.939E-03    -190.757E-03     36.1086E-03    -190.292E-03     380.234E-03    -190.648E-03     33.7428E-03
            2436     2.22930E-03     2.81685E-03    -79.6355E+06    -224.015E+06    -69.2551E+06    -2.81968E+06    -190.348E-03     381.126E-03    -190.778E-03     27.5125E-03    -190.387E-03     380.280E-03    -190.684E-03     25.7440E-03
            2437     1.48582E-03     2.81814E-03    -85.1650E+06    -244.213E+06    -78.6984E+06    -1.26707E+06    -190.510E-03     381.348E-03    -190.837E-03     18.7024E-03    -190.501E-03     380.389E-03    -190.753E-03     17.5257E-03
            2438     742.848E-06     2.81843E-03    -90.0694E+06    -256.859E+06    -87.1840E+06     694.035E+03    -190.763E-03     381.678E-03    -190.915E-03     10.0977E-03    -190.727E-03     380.657E-03    -190.848E-03     9.48625E-03
            2439     13.6568E-03     1.93271E-03    -7.49361E+06     77.4420E+06     74.3159E+06     623.607E+03    -453.213E-03     680.059E-03    -226.846E-03     181.087E-03    -458.323E-03     685.260E-03    -226.575E-03     144.152E-03
            2440     13.0678E-03     1.68802E-03    -8.87247E+06     55.9622E+06     68.7944E+06     4.79465E+06    -375.881E-03     593.505E-03    -217.623E-03     87.0570E-03    -378.480E-03     596.129E-03    -217.348E-03     62.6716E-03
            2441     12.4101E-03     1.57790E-03    -11.6766E+06     45.5729E+06     65.9584E+06     6.42049E+06    -310.862E-03     521.558E-03    -210.696E-03     55.4936E-03    -312.380E-03     523.026E-03    -210.415E-03     39.4700E-03
            2442     11.7341E-03     1.50348E-03    -11.8454E+06     41.8088E+06     68.4809E+06     5.40938E+06    -269.471E-03     475.401E-03    -205.930E-03     50.8679E-03    -270.666E-03     476.516E-03    -205.631E-03     38.7500E-03
            2443     11.0316E-03     1.46316E-03    -14.0533E+06     35.1158E+06     68.9231E+06     3.33014E+06    -241.772E-03     444.471E-03    -202.700E-03     50.0853E-03    -242.707E-03     445.289E-03    -202.385E-03     41.1151E-03
            2444     10.3122E-03     1.44291E-03    -16.5934E+06     26.9997E+06     65.3525E+06     1.67225E+06    -223.742E-03     424.295E-03    -200.553E-03     51.8372E-03    -224.527E-03     424.932E-03    -200.241E-03     44.9151E-03
            2445     9.58542E-03     1.42918E-03    -19.5583E+06     19.8340E+06     53.6780E+06     1.93640E+06    -212.291E-03     411.420E-03    -199.130E-03     52.2195E-03    -212.946E-03     411.924E-03    -198.862E-03     46.7228E-03
            2446     8.85405E-03     1.42039E-03    -23.1663E+06     15.2981E+06     42.2155E+06     1.91288E+06    -205.033E-03     403.264E-03    -198.231E-03     50.7371E-03    -205.590E-03     403.672E-03    -198.009E-03     46.2143E-03
            2447     8.11858E-03     1.41612E-03    -28.2724E+06     9.64752E+06     32.0278E+06    -224.616E+03    -200.401E-03     398.116E-03    -197.715E-03     48.0950E-03    -200.887E-03     398.443E-03    -197.528E-03     44.2323E-03
            2448     7.38151E-03     1.41283E-03    -34.2028E+06     587.580E+03     17.0144E+06    -4.43973E+06    -197.670E-03     395.119E-03    -197.449E-03     44.7311E-03    -198.094E-03     395.373E-03    -197.315E-03     41.3323E-03
            2449     6.64250E-03     1.41136E-03    -39.9580E+06    -18.2309E+06    -640.096E+03    -9.18766E+06    -196.254E-03     393.623E-03    -197.368E-03     40.9301E-03    -196.608E-03     393.771E-03    -197.287E-03     37.8773E-03
            2450     5.90349E-03     1.41063E-03    -46.0123E+06    -57.1575E+06    -16.2169E+06    -11.5685E+06    -195.770E-03     393.218E-03    -197.448E-03     37.0572E-03    -196.037E-03     393.164E-03    -197.379E-03     34.3257E-03
            2451     5.16499E-03     1.41130E-03    -53.3219E+06    -101.975E+06    -30.2163E+06    -10.2262E+06    -195.804E-03     393.421E-03    -197.617E-03     33.1174E-03    -195.989E-03     393.141E-03    -197.543E-03     30.7321E-03
            2452     4.42579E-03     1.41224E-03    -61.5644E+06    -140.915E+06    -43.9084E+06    -6.88069E+06    -196.113E-03     393.938E-03    -197.825E-03     29.0080E-03    -196.236E-03     393.467E-03    -197.751E-03     26.9880E-03
            2453     3.68711E-03     1.41316E-03    -68.8086E+06    -177.443E+06    -55.5074E+06    -4.31016E+06    -196.659E-03     394.712E-03    -198.053E-03     24.4980E-03    -196.724E-03     394.062E-03    -197.973E-03     22.8195E-03
            2454     2.94876E-03     1.41512E-03    -73.6235E+06    -206.894E+06    -64.2822E+06    -2.81487E+06    -197.295E-03     395.562E-03    -198.267E-03     19.9702E-03    -197.309E-03     394.764E-03    -198.182E-03     18.6265E-03
            2455     2.21122E-03     1.41570E-03    -76.7519E+06    -229.122E+06    -70.4493E+06    -921.819E+03    -197.908E-03     396.346E-03    -198.438E-03     15.2022E-03    -197.881E-03     395.434E-03    -198.347E-03     14.2055E-03
            2456     1.47439E-03     1.41719E-03    -78.8194E+06    -246.556E+06    -75.0102E+06     354.073E+03    -198.365E-03     396.905E-03    -198.539E-03     10.4520E-03    -198.305E-03     395.903E-03    -198.442E-03     9.79327E-03
            2457     737.208E-06     1.41693E-03    -79.8754E+06    -256.263E+06    -78.1703E+06    -249.462E+03    -198.666E-03     397.112E-03    -198.447E-03     5.94647E-03    -198.583E-03     396.062E-03    -198.350E-03     5.59291E-03


