********************************************************************************
Field Output Report, written Tue May 28 22:08:31 2024

Source 1
---------

   ODB: G:/Abaqus_calc_2019/1740/Vel_10/odb/zeides_2a_32_red_250_cal_75_vel_10_fric_050.odb
   Step: Step-1
   Frame: Increment   7159474: Step Time =   0.9124

Loc 1 : Nodal values from source 1

Output sorted by column "Nodal Label".

Field Output reported at nodes for region: DIE_2A_32_D0_36-1.Region_1
   Computation algorithm: EXTRAPOLATE_COMPUTE_AVERAGE
   Averaged at nodes
   Averaging regions: ODB_REGIONS

      Node Label     COORD.COOR1     COORD.COOR2
                          @Loc 1          @Loc 1
-------------------------------------------------
               1     22.3874E-03     108.698E-03


Field Output reported at nodes for region: DIE_2A_32_D0_36-1.Region_2
   Computation algorithm: EXTRAPOLATE_COMPUTE_AVERAGE
   Averaged at nodes
   Averaging regions: ODB_REGIONS

      Node Label     COORD.COOR1     COORD.COOR2
                          @Loc 1          @Loc 1
-------------------------------------------------
               1     22.3874E-03     108.698E-03


Field Output reported at nodes for part: WIRE-1
   Computation algorithm: EXTRAPOLATE_COMPUTE_AVERAGE
   Averaged at nodes
   Averaging regions: ODB_REGIONS

      Node Label     COORD.COOR1     COORD.COOR2           S.S11           S.S22           S.S33           S.S12         PE.PE11         PE.PE22         PE.PE33         PE.PE12         LE.LE11         LE.LE22         LE.LE33         LE.LE12
                          @Loc 1          @Loc 1          @Loc 1          @Loc 1          @Loc 1          @Loc 1          @Loc 1          @Loc 1          @Loc 1          @Loc 1          @Loc 1          @Loc 1          @Loc 1          @Loc 1
-------------------------------------------------------------------------------------------------------------------------------------------------------------------------------------------------------------------------------------------------
               1    -54.4033E-09     57.4691E-03    -23.7593E+06    -114.790E+06    -23.8016E+06    -10.1621E+03    -26.8832E-03     53.7183E-03    -26.8350E-03     3.39132E-03    -26.8011E-03     53.2134E-03    -26.7531E-03     3.38960E-03
               2     17.5277E-03     58.9289E-03    -2.76692E+06     181.271E+06     111.995E+06    -4.88903E+03    -31.1150E-03     58.0412E-03    -26.9262E-03     205.326E-03    -38.1448E-03     65.3798E-03    -26.6250E-03     212.989E-03
               3     17.1558E-03     117.071E-03     14.1652E+06    -13.2010E+06     5.82827E+06     1.88858E+06     20.4369E-03     20.7042E-03    -41.1411E-03     2.13149E-03     20.5018E-03     20.5925E-03    -41.1134E-03     2.15583E-03
               4    -1.30933E-06     115.222E-03     32.5372E+06    -1.33974E+06     30.6216E+06    -1.70245E+06    -28.9453E-03     58.7721E-03    -29.8268E-03    -886.539E-06    -28.8265E-03     58.6724E-03    -29.7189E-03    -909.443E-06
               5     167.802E-09    -291.434E-18    -11.0072E+06    -92.1542E+06    -10.4911E+06     255.598E+03    -19.5685E-03     39.0113E-03    -19.4429E-03     142.240E-06    -19.4744E-03     38.5819E-03    -19.3457E-03     145.607E-06
               6     17.3994E-03    -291.434E-18     10.7428E+06     116.145E+06     88.3344E+06     3.32728E+06    -85.0263E-03     116.165E-03    -31.1385E-03     121.662E-03    -85.7610E-03     117.130E-03    -30.8808E-03     120.623E-03
               7     876.260E-06     57.4724E-03    -23.5735E+06    -114.460E+06    -23.2396E+06     17.6212E+03    -26.8775E-03     53.7255E-03    -26.8480E-03     5.68851E-03    -26.7958E-03     53.2212E-03    -26.7641E-03     5.68604E-03
               8     1.75242E-03     57.4799E-03    -23.0431E+06    -113.574E+06    -21.6485E+06     68.6374E+03    -26.8831E-03     53.7473E-03    -26.8642E-03     10.5133E-03    -26.8026E-03     53.2446E-03    -26.7743E-03     10.5091E-03
               9     2.62870E-03     57.4924E-03    -22.1469E+06    -112.119E+06    -18.9949E+06     106.496E+03    -26.9111E-03     53.7835E-03    -26.8724E-03     15.6232E-03    -26.8327E-03     53.2835E-03    -26.7727E-03     15.6166E-03
              10     3.50488E-03     57.5096E-03    -20.9622E+06    -110.139E+06    -15.4200E+06     129.126E+03    -26.9508E-03     53.8341E-03    -26.8833E-03     20.8289E-03    -26.8753E-03     53.3379E-03    -26.7703E-03     20.8192E-03
              11     4.38116E-03     57.5320E-03    -19.5311E+06    -107.931E+06    -11.3160E+06     71.9810E+03    -27.0052E-03     53.9007E-03    -26.8956E-03     26.0819E-03    -26.9329E-03     53.4088E-03    -26.7673E-03     26.0674E-03
              12     5.25738E-03     57.5592E-03    -17.9389E+06    -103.013E+06    -7.69107E+06     19.0281E+03    -27.0654E-03     53.9659E-03    -26.9005E-03     31.3786E-03    -26.9994E-03     53.4928E-03    -26.7636E-03     31.3585E-03
              13     6.13366E-03     57.5916E-03    -16.1791E+06    -97.0979E+06     -4.2267E+06     25.9202E+03    -27.1373E-03     54.0393E-03    -26.9019E-03     36.7106E-03    -27.0788E-03     53.5908E-03    -26.7588E-03     36.6842E-03
              14     7.00992E-03     57.6290E-03    -14.4361E+06    -92.5454E+06    -1.34241E+06     232.135E+03    -27.2299E-03     54.1317E-03    -26.9019E-03     42.0346E-03    -27.1772E-03     53.7032E-03    -26.7534E-03     42.0031E-03
              15     7.88622E-03     57.6715E-03    -13.0219E+06    -86.2453E+06    -162.028E+03     382.297E+03    -27.3332E-03     54.2242E-03    -26.8910E-03     47.3576E-03    -27.2898E-03     53.8289E-03    -26.7479E-03     47.3182E-03
              16     8.76250E-03     57.7189E-03    -11.8973E+06    -80.9001E+06     459.292E+03     371.717E+03    -27.4571E-03     54.3365E-03    -26.8794E-03     52.6739E-03    -27.4248E-03     53.9734E-03    -26.7425E-03     52.6220E-03
              17     9.63881E-03     57.7716E-03    -10.8365E+06    -76.2458E+06    -664.940E+03     282.911E+03    -27.6020E-03     54.4629E-03    -26.8609E-03     57.9778E-03    -27.5811E-03     54.1348E-03    -26.7380E-03     57.9092E-03
              18     10.5151E-03     57.8290E-03    -9.96180E+06    -68.0958E+06    -3.16736E+06     109.217E+03    -27.7390E-03     54.5703E-03    -26.8313E-03     63.1941E-03    -27.7391E-03     54.3024E-03    -26.7340E-03     63.1040E-03
              19     11.3914E-03     57.8916E-03    -9.35680E+06    -54.2396E+06    -2.51666E+06    -79.8130E+03    -27.9219E-03     54.7317E-03    -26.8098E-03     69.7516E-03    -27.9675E-03     54.5588E-03    -26.7301E-03     69.6347E-03
              20     12.2677E-03     57.9613E-03    -8.21426E+06    -40.4683E+06    -3.82422E+06    -9.96650E+03    -28.1345E-03     54.9110E-03    -26.7765E-03     77.9129E-03    -28.2360E-03     54.8508E-03    -26.7250E-03     77.7680E-03
              21     13.1442E-03     58.0395E-03    -6.78518E+06    -24.9305E+06    -10.1326E+06     905.735E+03    -28.0653E-03     54.7765E-03    -26.7112E-03     80.2765E-03    -28.2330E-03     54.8609E-03    -26.7158E-03     80.1110E-03
              22     14.0222E-03     58.1142E-03    -7.68210E+06     8.13669E+06    -12.2632E+06     1.05297E+06    -28.8455E-03     55.4956E-03    -26.6500E-03     95.0045E-03    -29.2289E-03     55.9162E-03    -26.7120E-03     94.7988E-03
              23     14.8946E-03     58.2210E-03    -9.20672E+06     62.4284E+06    -12.1351E+06     470.075E+03    -32.2039E-03     58.7694E-03    -26.5655E-03     158.998E-03    -33.6268E-03     60.4165E-03    -26.7034E-03     158.802E-03
              24     15.7746E-03     58.4141E-03    -8.65192E+06     129.570E+06     22.9733E+06     248.133E+03    -38.9073E-03     65.5184E-03    -26.6111E-03     262.303E-03    -45.3799E-03     72.3536E-03    -26.6716E-03     263.405E-03
              25     16.6498E-03     58.7256E-03    -5.41287E+06     173.053E+06     85.5609E+06     30.2448E+03    -37.1543E-03     63.9768E-03    -26.8225E-03     261.737E-03    -45.9978E-03     73.1673E-03    -26.6378E-03     266.747E-03
              26     17.5270E-03     59.9271E-03     -3.2834E+06     180.255E+06     110.995E+06     179.375E+03    -30.8258E-03     57.7548E-03    -26.9289E-03     201.674E-03    -37.6693E-03     64.9046E-03    -26.6306E-03     209.254E-03
              27     17.5272E-03     60.9275E-03    -2.68034E+06     180.615E+06     111.277E+06     193.293E+03    -30.6307E-03     57.5646E-03    -26.9339E-03     199.908E-03    -37.4090E-03     64.6519E-03    -26.6355E-03     207.482E-03
              28     17.5273E-03     61.9251E-03    -2.68337E+06     181.976E+06     112.180E+06     376.249E+03    -30.7741E-03     57.7020E-03    -26.9280E-03     199.245E-03    -37.5310E-03     64.7701E-03    -26.6270E-03     206.822E-03
              29     17.5272E-03     62.9288E-03    -3.08409E+06     183.017E+06     112.863E+06     376.558E+03    -31.1500E-03     58.0778E-03    -26.9277E-03     201.767E-03    -38.0312E-03     65.2704E-03    -26.6243E-03     209.363E-03
              30     17.5271E-03     63.9314E-03    -2.41137E+06     183.831E+06     113.169E+06     376.722E+03    -30.4327E-03     57.3810E-03    -26.9482E-03     205.339E-03    -37.4563E-03     64.7204E-03    -26.6454E-03     213.057E-03
              31     17.5277E-03     64.9296E-03    -2.66911E+06     183.491E+06     112.892E+06    -65.4842E+03    -29.4908E-03     56.4649E-03    -26.9742E-03     204.087E-03    -36.4720E-03     63.7607E-03    -26.6719E-03     211.868E-03
              32     17.5263E-03     65.9238E-03    -2.71849E+06     183.122E+06     112.638E+06     30.5643E+03    -30.5456E-03     57.4993E-03    -26.9537E-03     199.788E-03    -37.3610E-03     64.6286E-03    -26.6521E-03     207.391E-03
              33     17.5274E-03     66.9242E-03    -4.21999E+06     182.998E+06     111.361E+06    -1.06224E+06    -32.4913E-03     59.3896E-03    -26.8984E-03     198.684E-03    -39.2680E-03     66.4781E-03    -26.6008E-03     206.074E-03
              34     17.5265E-03     67.9332E-03    -1.32062E+06     187.103E+06     114.467E+06     1.46740E+06    -30.7415E-03     57.6622E-03    -26.9206E-03     204.379E-03    -37.6444E-03     64.8927E-03    -26.6177E-03     211.927E-03
              35     17.5300E-03     68.9326E-03    -31.4515E+03     188.803E+06     115.706E+06    -601.964E+03    -31.4205E-03     58.3118E-03    -26.8913E-03     210.692E-03    -38.6333E-03     65.8595E-03    -26.5865E-03     218.356E-03
              36     17.5256E-03     69.9303E-03    -4.74956E+06     184.238E+06     111.585E+06    -941.021E+03    -34.0832E-03     60.9267E-03    -26.8435E-03     205.889E-03    -41.2281E-03     68.3862E-03    -26.5459E-03     213.398E-03
              37     17.5282E-03     70.9410E-03    -4.03815E+06     185.330E+06     112.269E+06     2.34797E+06    -28.8239E-03     55.8128E-03    -26.9889E-03     207.177E-03    -35.9721E-03     63.2798E-03    -26.6905E-03     215.235E-03
              38     17.5270E-03     71.9290E-03    -2.92675E+06     186.752E+06     113.398E+06     76.6447E+03    -26.7200E-03     53.7600E-03    -27.0400E-03     210.371E-03    -33.9613E-03     61.3254E-03    -26.7396E-03     218.604E-03
              39     17.5275E-03     72.9214E-03    -3.43548E+06     185.285E+06     112.803E+06    -432.111E+03    -31.4145E-03     58.3256E-03    -26.9110E-03     201.037E-03    -38.2498E-03     65.4794E-03    -26.6107E-03     208.533E-03
              40     17.5271E-03     73.9267E-03    -3.35597E+06     185.190E+06     112.711E+06    -128.453E+03    -33.0638E-03     59.9292E-03    -26.8653E-03     198.498E-03    -39.8064E-03     66.9904E-03    -26.5654E-03     205.797E-03
              41     17.5274E-03     74.9321E-03    -2.89404E+06     185.954E+06     112.869E+06     252.102E+03    -31.4171E-03     58.3265E-03    -26.9094E-03     202.094E-03    -38.3210E-03     65.5529E-03    -26.6105E-03     209.656E-03
              42     17.5274E-03     75.9295E-03    -3.16240E+06     185.767E+06     112.235E+06    -232.987E+03    -30.3452E-03     57.2847E-03    -26.9395E-03     203.215E-03    -37.2959E-03     64.5582E-03    -26.6431E-03     210.913E-03
              43     17.5268E-03     76.9297E-03    -3.13824E+06     185.571E+06     112.044E+06    -96.8169E+03    -30.6234E-03     57.5592E-03    -26.9358E-03     202.401E-03    -37.5286E-03     64.7871E-03    -26.6401E-03     210.038E-03
              44     17.5277E-03     77.9288E-03    -2.41339E+06     186.126E+06     112.281E+06     430.857E+03    -30.8920E-03     57.8177E-03    -26.9257E-03     202.364E-03    -37.7813E-03     65.0336E-03    -26.6307E-03     209.968E-03
              45     17.5268E-03     78.9311E-03    -2.82034E+06     187.589E+06     112.712E+06     661.792E+03    -30.9964E-03     57.9211E-03    -26.9247E-03     202.724E-03    -37.9208E-03     65.1745E-03    -26.6290E-03     210.349E-03
              46     17.5276E-03     79.9294E-03    -3.26435E+06     188.875E+06     113.355E+06     562.022E+03    -30.6248E-03     57.5589E-03    -26.9341E-03     202.078E-03    -37.5285E-03     64.7928E-03    -26.6365E-03     209.712E-03
              47     17.5268E-03     80.9301E-03    -2.81646E+06     189.701E+06     113.776E+06     246.831E+03    -30.4723E-03     57.4061E-03    -26.9337E-03     201.929E-03    -37.3663E-03     64.6335E-03    -26.6358E-03     209.564E-03
              48     17.5279E-03     81.9288E-03    -2.47789E+06     189.982E+06     114.002E+06    -211.025E+03    -30.2441E-03     57.1741E-03    -26.9300E-03     201.119E-03    -37.0939E-03     64.3589E-03    -26.6319E-03     208.731E-03
              49     17.5272E-03     82.9288E-03    -1.81050E+06     190.062E+06     114.075E+06    -29.2894E+03    -30.0031E-03     56.9261E-03    -26.9230E-03     201.076E-03    -36.8355E-03     64.0960E-03    -26.6256E-03     208.684E-03
              50     17.5284E-03     83.9273E-03    -2.59450E+06     189.551E+06     113.419E+06    -609.006E+03    -31.3836E-03     58.2650E-03    -26.8813E-03     201.704E-03    -38.2571E-03     65.4732E-03    -26.5853E-03     209.215E-03
              51     17.5271E-03     84.9314E-03    -3.48670E+06     188.819E+06     112.736E+06     139.391E+03    -32.2014E-03     59.0678E-03    -26.8664E-03     203.376E-03    -39.1604E-03     66.3579E-03    -26.5715E-03     210.869E-03
              52     17.5282E-03     85.9359E-03    -3.44536E+06     189.700E+06     112.947E+06     786.066E+03    -30.4473E-03     57.3626E-03    -26.9152E-03     205.674E-03    -37.5070E-03     64.7559E-03    -26.6206E-03     213.387E-03
              53     17.5272E-03     86.9290E-03    -2.81349E+06     190.809E+06     113.430E+06     274.216E+03    -29.7002E-03     56.6262E-03    -26.9260E-03     203.645E-03    -36.6636E-03     63.9281E-03    -26.6314E-03     211.385E-03
              54     17.5284E-03     87.9273E-03    -3.32298E+06     190.955E+06     113.194E+06     208.435E+03    -30.8927E-03     57.7678E-03    -26.8750E-03     200.716E-03    -37.7284E-03     64.9413E-03    -26.5811E-03     208.262E-03
              55     17.5281E-03     88.9309E-03    -3.62232E+06     191.406E+06     113.246E+06    -108.181E+03    -31.3123E-03     58.1567E-03    -26.8444E-03     201.976E-03    -38.2066E-03     65.3892E-03    -26.5505E-03     209.504E-03
              56     17.5290E-03     89.9319E-03    -2.21608E+06     192.128E+06     113.764E+06     363.934E+03    -30.6914E-03     57.5341E-03    -26.8426E-03     204.755E-03    -37.6958E-03     64.8827E-03    -26.5492E-03     212.415E-03
              57     17.5289E-03     90.9325E-03    -3.12193E+06     192.431E+06     113.671E+06     971.575E+03    -30.1600E-03     56.9913E-03    -26.8313E-03     205.445E-03    -37.2005E-03     64.3743E-03    -26.5375E-03     213.192E-03
              58     17.5300E-03     91.9289E-03    -3.41498E+06     193.396E+06     114.191E+06     347.772E+03    -30.0010E-03     56.7923E-03    -26.7912E-03     202.496E-03    -36.9282E-03     64.0627E-03    -26.4958E-03     210.194E-03
              59     17.5307E-03     92.9260E-03    -2.72242E+06     193.364E+06     114.207E+06     7.99113E+03    -30.5577E-03     57.2763E-03    -26.7186E-03     200.114E-03    -37.3733E-03     64.4375E-03    -26.4240E-03     207.698E-03
              60     17.5319E-03     93.9292E-03    -2.56223E+06     193.987E+06     114.791E+06     494.890E+03    -31.0164E-03     57.6607E-03    -26.6442E-03     200.625E-03    -37.8568E-03     64.8477E-03    -26.3478E-03     208.183E-03
              61     17.5333E-03     94.9287E-03    -3.27569E+06     194.123E+06     115.456E+06     87.9794E+03    -30.8324E-03     57.4098E-03    -26.5774E-03     201.604E-03    -37.7219E-03     64.6420E-03    -26.2769E-03     209.207E-03
              62     17.5345E-03     95.9294E-03    -2.97366E+06     193.561E+06     116.537E+06    -135.846E+03    -31.0464E-03     57.5373E-03    -26.4909E-03     202.333E-03    -37.9669E-03     64.7964E-03    -26.1845E-03     209.941E-03
              63     17.5367E-03     96.9299E-03    -2.99656E+06     191.801E+06     117.097E+06    -525.667E+03    -31.3432E-03     57.7289E-03    -26.3857E-03     201.414E-03    -38.2340E-03     64.9504E-03    -26.0740E-03     208.977E-03
              64     17.5381E-03     97.9286E-03    -3.25433E+06     189.569E+06     117.219E+06    -553.839E+03    -32.1936E-03     58.4481E-03    -26.2545E-03     200.243E-03    -39.0308E-03     65.6068E-03    -25.9386E-03     207.714E-03
              65     17.5408E-03     98.9313E-03    -3.42429E+06     187.279E+06     117.352E+06    -697.234E+03    -33.3394E-03     59.4476E-03    -26.1082E-03     199.815E-03    -40.1551E-03     66.5757E-03    -25.7880E-03     207.172E-03
              66     17.5423E-03     99.9356E-03    -3.23913E+06     184.795E+06     118.152E+06    -600.710E+03    -34.2655E-03     60.2637E-03    -25.9982E-03     198.797E-03    -41.1066E-03     67.4067E-03    -25.6707E-03     206.109E-03
              67     17.5428E-03     100.936E-03    -2.16860E+06     183.425E+06     118.379E+06    -633.794E+03    -35.3025E-03     61.1835E-03    -25.8811E-03     195.284E-03    -42.0820E-03     68.2631E-03    -25.5520E-03     202.478E-03
              68     17.5460E-03     101.939E-03    -3.03255E+06     179.799E+06     116.553E+06    -1.20728E+06    -38.5464E-03     64.2480E-03    -25.7016E-03     199.744E-03    -45.4357E-03     71.4276E-03    -25.3752E-03     206.690E-03
              69     17.5462E-03     102.965E-03    -4.13091E+06     175.425E+06     115.901E+06    -2.34388E+06    -41.2103E-03     66.8013E-03    -25.5910E-03     206.034E-03    -48.3198E-03     74.1832E-03    -25.2599E-03     212.727E-03
              70     17.5467E-03     103.962E-03    -1.79764E+06     173.039E+06     116.761E+06    -1.79275E+06    -39.8176E-03     65.3846E-03    -25.5670E-03     198.589E-03    -46.6618E-03     72.4973E-03    -25.2315E-03     205.200E-03
              71     17.5488E-03     104.960E-03    -1.60523E+06     166.269E+06     114.268E+06    -1.84839E+06    -41.7842E-03     67.2025E-03    -25.4183E-03     190.339E-03    -48.2481E-03     73.9199E-03    -25.0857E-03     196.546E-03
              72     17.5497E-03     105.983E-03    -2.71885E+06     158.995E+06     112.448E+06    -3.09674E+06    -48.3360E-03     73.5352E-03    -25.1992E-03     193.135E-03    -54.9212E-03     80.3501E-03    -24.8635E-03     198.663E-03
              73     17.5501E-03     107.006E-03    -3.26103E+06     153.676E+06     112.862E+06    -2.23965E+06    -54.1369E-03     79.1744E-03    -25.0375E-03     201.272E-03    -61.1015E-03     86.3466E-03    -24.6913E-03     206.395E-03
              74     17.5512E-03     108.035E-03    -4.26522E+06     147.698E+06     114.794E+06    -1.78702E+06    -60.7448E-03     85.6119E-03    -24.8671E-03     212.597E-03    -68.1328E-03     93.1784E-03    -24.5011E-03     217.235E-03
              75     17.5520E-03     109.077E-03    -4.48514E+06     141.860E+06     116.988E+06    -1.10461E+06    -68.1080E-03     92.7970E-03    -24.6890E-03     228.814E-03    -76.0259E-03     100.867E-03    -24.3033E-03     232.750E-03
              76     17.5530E-03     110.125E-03    -4.44298E+06     133.318E+06     111.429E+06    -2.69805E+06    -72.9809E-03     97.5188E-03    -24.5380E-03     247.002E-03    -81.4571E-03     106.132E-03    -24.1677E-03     250.266E-03
              77     17.5544E-03     111.168E-03    -4.03579E+06     117.601E+06     104.042E+06    -8.07229E+06    -77.1515E-03     101.550E-03    -24.3983E-03     265.826E-03    -86.0608E-03     110.564E-03    -24.0428E-03     268.174E-03
              78     17.5559E-03     112.220E-03     2.55438E+06     108.982E+06     102.415E+06    -1.78495E+06    -79.8587E-03     104.176E-03    -24.3173E-03     286.469E-03    -88.9916E-03     113.412E-03    -23.9670E-03     287.679E-03
              79     17.5570E-03     113.270E-03    -13.5239E+06     90.7156E+06     68.7671E+06    -12.3204E+06    -73.4353E-03     97.7970E-03    -24.3617E-03     309.811E-03    -82.0194E-03     106.459E-03    -24.1298E-03     310.168E-03
              80     17.5599E-03     114.293E-03    -6.84880E+06     40.4029E+06     26.0363E+06    -28.3143E+06    -41.2255E-03     66.2025E-03    -24.9771E-03     306.173E-03    -46.5655E-03     71.5978E-03    -24.8956E-03     306.635E-03
              81     17.5591E-03     115.221E-03     7.78802E+06     7.53255E+06     16.8138E+06    -9.83940E+06     4.52611E-03     23.3477E-03    -27.8738E-03     217.390E-03     3.06923E-03     24.8142E-03    -27.8120E-03     217.913E-03
              82     17.4186E-03     116.117E-03     3.30358E+06    -4.45369E+06     10.7552E+06     3.20214E+06     22.5390E-03     13.1364E-03    -35.6753E-03     73.2686E-03     22.4675E-03     13.1490E-03    -35.6199E-03     73.3594E-03
              83     16.2833E-03     116.816E-03     2.12055E+06     15.3765E+06     40.2404E+06     1.86311E+06     16.6282E-03     25.3656E-03    -41.9938E-03     12.5367E-03     16.5480E-03     25.3712E-03    -41.8180E-03     12.5605E-03
              84     15.3975E-03     116.597E-03    -7.49688E+06     7.26444E+06     70.7227E+06    -1.91699E+06    -8.87074E-03     51.8339E-03    -42.9632E-03     20.8780E-03    -9.03411E-03     51.7714E-03    -42.6092E-03     20.8321E-03
              85     14.5592E-03     116.355E-03     5.98325E+06    -12.6225E+06     60.2966E+06    -8.89933E+06    -34.1009E-03     76.5333E-03    -42.4324E-03     6.19067E-03    -34.1656E-03     76.3546E-03    -42.1213E-03     6.02795E-03
              86     13.7341E-03     116.155E-03     18.0088E+06    -6.58234E+06     62.8158E+06    -3.09798E+06    -38.8757E-03     80.1555E-03    -41.2798E-03    -10.1683E-03    -38.8892E-03     79.9830E-03    -40.9823E-03    -10.2590E-03
              87     12.8962E-03     115.997E-03     18.0935E+06     269.626E+03     69.9640E+06     2.30533E+06    -42.5806E-03     82.7550E-03    -40.1744E-03    -16.5462E-03    -42.6044E-03     82.6132E-03    -39.8512E-03    -16.5665E-03
              88     12.0569E-03     115.866E-03     18.8788E+06     1.30231E+06     64.2934E+06    -1.41497E+06    -46.1253E-03     85.0637E-03    -38.9383E-03    -18.9436E-03    -46.1352E-03     84.9363E-03    -38.6461E-03    -19.0134E-03
              89     11.2165E-03     115.755E-03     20.3435E+06    -3.38450E+06     61.9512E+06    -661.965E+03    -47.0132E-03     84.6482E-03    -37.6349E-03    -17.2124E-03    -47.0033E-03     84.5015E-03    -37.3498E-03    -17.2677E-03
              90     10.3708E-03     115.659E-03     20.2310E+06     851.787E+03     60.0736E+06    -240.785E+03    -46.0390E-03     82.3616E-03    -36.3226E-03    -14.5372E-03    -46.0313E-03     82.2419E-03    -36.0528E-03    -14.5802E-03
              91     9.52184E-03     115.577E-03     20.5823E+06    -43.4795E+03     58.0333E+06    -1.33131E+06    -43.9262E-03     79.0120E-03    -35.0858E-03    -12.0633E-03    -43.9116E-03     78.8918E-03    -34.8254E-03    -12.1135E-03
              92     8.66823E-03     115.507E-03     21.7957E+06     425.846E+03     56.5415E+06    -2.12571E+06    -41.3560E-03     75.3248E-03    -33.9688E-03    -9.76409E-03    -41.3331E-03     75.2088E-03    -33.7183E-03    -9.81747E-03
              93     7.81088E-03     115.447E-03     23.6379E+06    -662.442E+03     54.0765E+06    -2.17034E+06    -38.9335E-03     71.9192E-03    -32.9857E-03    -7.87638E-03    -38.8957E-03     71.7996E-03    -32.7486E-03    -7.92460E-03
              94     6.95005E-03     115.397E-03     25.3804E+06      54.737E+03     52.1065E+06    -2.05604E+06    -36.7087E-03     68.8456E-03    -32.1369E-03    -6.29837E-03    -36.6599E-03     68.7306E-03    -31.9132E-03    -6.34056E-03
              95     6.08647E-03     115.354E-03     26.6011E+06    -972.178E+03     46.6995E+06    -1.35236E+06    -34.7631E-03     66.1683E-03    -31.4052E-03    -5.02961E-03    -34.6985E-03     66.0548E-03    -31.2089E-03    -5.05919E-03
              96     5.22045E-03     115.318E-03     27.3423E+06     713.590E+03     42.1581E+06    -1.18647E+06    -33.1386E-03     63.9373E-03    -30.7987E-03    -4.03603E-03    -33.0659E-03     63.8381E-03    -30.6286E-03    -4.06081E-03
              97     4.35272E-03     115.289E-03     28.2417E+06    -258.084E+03     41.1106E+06    -1.64921E+06    -31.8490E-03     62.1758E-03    -30.3268E-03    -3.24581E-03    -31.7688E-03     62.0721E-03    -30.1618E-03    -3.27446E-03
              98     3.48352E-03     115.265E-03     29.2421E+06    -123.755E+03     37.9518E+06    -1.50620E+06    -30.8534E-03     60.7994E-03    -29.9460E-03    -2.57285E-03    -30.7637E-03     60.6997E-03    -29.7985E-03    -2.59789E-03
              99     2.61337E-03     115.247E-03     30.3193E+06    -444.447E+03     34.5373E+06    -1.29944E+06    -30.1155E-03     59.7790E-03    -29.6635E-03    -1.99331E-03    -30.0149E-03     59.6811E-03    -29.5341E-03    -2.01419E-03
             100     1.74242E-03     115.234E-03     31.0628E+06    -154.419E+03     33.1752E+06    -1.06743E+06    -29.6255E-03     59.1156E-03    -29.4901E-03    -1.48234E-03    -29.5197E-03     59.0201E-03    -29.3690E-03    -1.49887E-03
             101     871.084E-06     115.226E-03     31.8735E+06    -776.618E+03     31.1541E+06    -1.32400E+06    -29.1933E-03     58.8192E-03    -29.6260E-03    -1.06255E-03    -29.0795E-03     58.7225E-03    -29.5153E-03    -1.08116E-03
             102     539.709E-09     114.217E-03     28.7569E+06    -3.79110E+06     28.4538E+06    -979.364E+03    -26.4422E-03     53.0716E-03    -26.6294E-03     16.5090E-06    -26.3352E-03     52.9688E-03    -26.5234E-03     2.81719E-06
             103    -83.0279E-09     113.223E-03     18.0903E+06    -7.72156E+06     18.9101E+06    -855.170E+03    -21.8370E-03     43.4938E-03    -21.6568E-03     1.04969E-03    -21.7632E-03     43.4012E-03    -21.5772E-03     1.03753E-03
             104    -42.8413E-09     112.237E-03     2.03112E+06    -11.9792E+06     2.46369E+06    -1.71960E+06    -18.4472E-03     36.9964E-03    -18.5492E-03     1.41555E-03    -18.4234E-03     36.9299E-03    -18.5224E-03     1.39248E-03
             105    -4.67725E-09     111.255E-03    -16.3633E+06    -18.4134E+06    -15.8513E+06    -2.27305E+06    -16.4256E-03     32.7993E-03    -16.3737E-03     1.99254E-03    -16.4578E-03     32.7541E-03    -16.4025E-03     1.96261E-03
             106     149.314E-09     110.277E-03    -37.9923E+06    -26.3060E+06    -37.8798E+06    -2.70377E+06    -15.2465E-03     30.4211E-03    -15.1746E-03     2.53412E-03    -15.3433E-03     30.3997E-03    -15.2708E-03     2.49880E-03
             107    -168.138E-09     109.300E-03    -61.2323E+06    -34.8411E+06    -61.1813E+06    -2.48456E+06    -14.7022E-03     29.4385E-03    -14.7363E-03     2.85835E-03    -14.8690E-03     29.4419E-03    -14.9029E-03     2.82603E-03
             108     123.303E-09     108.324E-03    -83.3355E+06    -43.7829E+06    -83.0348E+06    -2.70535E+06    -14.7174E-03     29.4641E-03    -14.7467E-03     3.06315E-03    -14.9501E-03     29.4865E-03    -14.9775E-03     3.02808E-03
             109    -131.192E-09     107.347E-03    -98.3715E+06    -50.2752E+06    -99.5169E+06    -1.16760E+06    -15.0627E-03     30.1651E-03    -15.1025E-03     3.19691E-03    -15.3373E-03     30.2008E-03    -15.3845E-03     3.18177E-03
             110     50.7801E-09     106.369E-03    -80.9513E+06    -46.1449E+06    -82.6640E+06     3.68928E+06    -15.7656E-03     31.5703E-03    -15.8048E-03     3.26994E-03    -15.9835E-03     31.5770E-03    -16.0338E-03     3.31756E-03
             111    -64.2620E-09     105.390E-03    -46.5546E+06    -27.4520E+06    -46.9865E+06     7.56348E+06    -16.7982E-03     33.5763E-03    -16.7781E-03     3.38440E-03    -16.9230E-03     33.5747E-03    -16.9057E-03     3.48204E-03
             112     103.230E-09     104.408E-03    -25.1590E+06    -4.41323E+06    -23.7379E+06     6.25306E+06    -18.0094E-03     35.9666E-03    -17.9572E-03     3.53383E-03    -18.0944E-03     36.0155E-03    -18.0330E-03     3.61455E-03
             113    -39.1985E-09     103.423E-03    -9.17332E+06     8.96402E+06    -7.85987E+06     1.84023E+06    -19.3292E-03     38.6192E-03    -19.2900E-03     3.64221E-03    -19.3767E-03     38.6887E-03    -19.3290E-03     3.66590E-03
             114     53.8731E-09     102.436E-03     2.01936E+06     10.5267E+06     2.34351E+06    -885.249E+03    -20.6337E-03     41.2611E-03    -20.6274E-03     3.66741E-03    -20.6422E-03     41.3075E-03    -20.6339E-03     3.65580E-03
             115    -59.4425E-09     101.447E-03     7.43945E+06     5.71407E+06     7.67885E+06    -1.94007E+06    -21.8441E-03     43.6969E-03    -21.8529E-03     3.65324E-03    -21.8263E-03     43.7036E-03    -21.8335E-03     3.62785E-03
             116     46.6582E-09     100.455E-03     9.58577E+06    -1.70556E+06     9.57264E+06    -2.47018E+06    -22.9169E-03     45.8439E-03    -22.9270E-03     3.63313E-03    -22.8803E-03     45.8077E-03    -22.8906E-03     3.60071E-03
             117    -57.5219E-09     99.4613E-03     8.83552E+06    -10.0993E+06     8.72883E+06    -2.44529E+06    -23.8294E-03     47.6630E-03    -23.8336E-03     3.59503E-03    -23.7832E-03     47.5871E-03    -23.7881E-03     3.56275E-03
             118     54.1561E-09     98.4659E-03     6.18270E+06    -18.6996E+06     6.33819E+06    -2.66574E+06    -24.5863E-03     49.1707E-03    -24.5845E-03     3.54774E-03    -24.5375E-03     49.0592E-03    -24.5346E-03     3.51244E-03
             119    -51.3389E-09     97.4694E-03     3.11667E+06    -28.2058E+06     3.01404E+06    -2.90040E+06    -25.1960E-03     50.4001E-03    -25.2041E-03     3.51100E-03    -25.1439E-03     50.2503E-03    -25.1526E-03     3.47250E-03
             120     27.7713E-09     96.4715E-03    -832.563E+03    -37.2463E+06    -1.07395E+06    -2.44107E+06    -25.6789E-03     51.3681E-03    -25.6892E-03     3.48831E-03    -25.6275E-03     51.1848E-03    -25.6394E-03     3.45559E-03
             121    -30.5518E-09     95.4732E-03    -4.02189E+06    -45.2050E+06    -4.00046E+06    -2.19344E+06    -26.0569E-03     52.1188E-03    -26.0619E-03     3.47429E-03    -26.0056E-03     51.9046E-03    -26.0106E-03     3.44464E-03
             122     19.2709E-09     94.4739E-03    -7.77851E+06    -52.6262E+06    -7.84888E+06    -2.19399E+06    -26.3280E-03     52.6690E-03    -26.3410E-03     3.46117E-03    -26.2792E-03     52.4286E-03    -26.2926E-03     3.43141E-03
             123    -36.9595E-09     93.4746E-03    -12.7316E+06    -59.8251E+06    -12.8301E+06    -1.99320E+06    -26.5158E-03     53.0547E-03    -26.5389E-03     3.44480E-03    -26.4741E-03     52.7928E-03    -26.4978E-03     3.41757E-03
             124     7.74890E-09     92.4744E-03    -15.8350E+06    -66.3887E+06    -15.8566E+06    -1.84998E+06    -26.6565E-03     53.3327E-03    -26.6762E-03     3.42840E-03    -26.6164E-03     53.0468E-03    -26.6362E-03     3.40298E-03
             125    -18.5647E-09     91.4747E-03    -18.5670E+06    -72.9076E+06    -18.5665E+06    -1.94681E+06    -26.7567E-03     53.5210E-03    -26.7643E-03     3.40858E-03    -26.7169E-03     53.2104E-03    -26.7244E-03     3.38186E-03
             126     10.8996E-09     90.4742E-03    -20.9933E+06    -79.4843E+06    -21.0255E+06    -1.90434E+06    -26.8305E-03     53.6522E-03    -26.8217E-03     3.40216E-03    -26.7897E-03     53.3158E-03    -26.7811E-03     3.37596E-03
             127     6.59762E-09     89.4743E-03    -23.3062E+06    -85.7682E+06    -23.3650E+06    -1.78116E+06    -26.8594E-03     53.7308E-03    -26.8715E-03     3.40553E-03    -26.8176E-03     53.3698E-03    -26.8301E-03     3.38090E-03
             128    -51.2939E-09     88.4737E-03    -24.6617E+06    -91.2352E+06    -24.8379E+06    -1.40019E+06    -26.8791E-03     53.7799E-03    -26.9009E-03     3.39799E-03    -26.8341E-03     53.3957E-03    -26.8570E-03     3.37827E-03
             129     50.5375E-09     87.4737E-03    -26.4522E+06    -95.3686E+06    -26.5685E+06    -1.00623E+06    -26.8934E-03     53.7865E-03    -26.8931E-03     3.39271E-03    -26.8488E-03     53.3867E-03    -26.8493E-03     3.37810E-03
             130    -55.9646E-09     86.4731E-03    -27.9833E+06    -98.5111E+06    -27.9586E+06    -813.043E+03    -26.8884E-03     53.7784E-03    -26.8900E-03     3.40015E-03    -26.8449E-03     53.3671E-03    -26.8464E-03     3.38803E-03
             131     53.4614E-09     85.4732E-03    -28.2430E+06    -101.487E+06    -28.1841E+06    -953.895E+03    -26.8940E-03     53.7894E-03    -26.8954E-03     3.39168E-03    -26.8471E-03     53.3639E-03    -26.8482E-03     3.37774E-03
             132    -58.1335E-09     84.4726E-03    -28.4455E+06    -104.461E+06    -28.5861E+06    -783.106E+03    -26.8953E-03     53.7858E-03    -26.8905E-03     3.40063E-03    -26.8446E-03     53.3463E-03    -26.8407E-03     3.38890E-03
             133     64.2907E-09     83.4727E-03    -28.4223E+06    -106.904E+06    -28.3791E+06    -672.983E+03    -26.8937E-03     53.7832E-03    -26.8896E-03     3.40564E-03    -26.8396E-03     53.3312E-03    -26.8352E-03     3.39533E-03
             134    -68.1273E-09     82.4722E-03    -28.1495E+06    -109.455E+06    -28.1066E+06    -803.944E+03    -26.8942E-03     53.7833E-03    -26.8890E-03     3.41100E-03    -26.8355E-03     53.3177E-03    -26.8300E-03     3.39900E-03
             135     76.2415E-09     81.4723E-03    -28.9211E+06    -112.195E+06    -28.9489E+06    -825.201E+03    -26.8895E-03     53.7742E-03    -26.8847E-03     3.40032E-03    -26.8294E-03     53.2973E-03    -26.8248E-03     3.38805E-03
             136    -81.6372E-09     80.4719E-03    -27.7294E+06    -114.262E+06    -27.9437E+06    -357.098E+03    -26.8988E-03     53.7970E-03    -26.8982E-03     3.39917E-03    -26.8312E-03     53.3066E-03    -26.8320E-03     3.39295E-03
             137     80.3194E-09     79.4718E-03    -26.7187E+06    -115.360E+06    -26.5406E+06    -337.883E+03    -26.9025E-03     53.8079E-03    -26.9054E-03     3.40615E-03    -26.8303E-03     53.3084E-03    -26.8321E-03     3.40017E-03
             138    -87.4897E-09     78.4715E-03    -26.8837E+06    -116.203E+06    -27.2134E+06    -146.911E+03    -26.8909E-03     53.7749E-03    -26.8840E-03     3.41090E-03    -26.8174E-03     53.2725E-03    -26.8126E-03     3.40740E-03
             139     97.7243E-09     77.4715E-03    -26.5181E+06    -116.271E+06    -26.3301E+06     77.9132E+03    -26.8817E-03     53.7567E-03    -26.8751E-03     3.40445E-03    -26.8075E-03     53.2522E-03    -26.7997E-03     3.40385E-03
             140    -99.5967E-09     76.4713E-03    -26.4084E+06    -116.534E+06    -26.4459E+06    -155.851E+03    -26.8654E-03     53.7388E-03    -26.8734E-03     3.41040E-03    -26.7901E-03     53.2329E-03    -26.7984E-03     3.40677E-03
             141     81.5384E-09     75.4712E-03    -26.1001E+06    -116.676E+06    -26.1924E+06     66.1092E+03    -26.8630E-03     53.7175E-03    -26.8545E-03     3.40757E-03    -26.7863E-03     53.2101E-03    -26.7784E-03     3.40684E-03
             142    -55.0583E-09     74.4711E-03    -26.0525E+06    -116.671E+06    -25.9556E+06     22.4999E+03    -26.8549E-03     53.7007E-03    -26.8458E-03     3.40708E-03    -26.7783E-03     53.1929E-03    -26.7686E-03     3.40579E-03
             143     40.2377E-09     73.4710E-03    -25.7161E+06    -116.625E+06    -25.7860E+06    -30.1569E+03    -26.8496E-03     53.7057E-03    -26.8561E-03     3.40281E-03    -26.7717E-03     53.1974E-03    -26.7787E-03     3.40083E-03
             144    -43.0297E-09     72.4710E-03    -25.5753E+06    -116.581E+06    -25.5763E+06     17.1271E+03    -26.8472E-03     53.7052E-03    -26.8579E-03     3.39101E-03    -26.7690E-03     53.1966E-03    -26.7797E-03     3.38966E-03
             145     21.7483E-09     71.4709E-03    -25.1590E+06    -116.195E+06    -25.1677E+06     99.2890E+03    -26.8417E-03     53.7138E-03    -26.8720E-03     3.38219E-03    -26.7626E-03     53.2059E-03    -26.7929E-03     3.38189E-03
             146    -58.9192E-09     70.4709E-03    -25.0376E+06    -115.915E+06    -24.9630E+06     65.3130E+03    -26.8539E-03     53.7339E-03    -26.8800E-03     3.36673E-03    -26.7748E-03     53.2270E-03    -26.8004E-03     3.36602E-03
             147     46.0004E-09     69.4706E-03    -24.8075E+06    -115.741E+06    -24.8480E+06     52.4377E+03    -26.8831E-03     53.7448E-03    -26.8617E-03     3.38832E-03    -26.8032E-03     53.2382E-03    -26.7821E-03     3.38743E-03
             148    -1.41322E-09     68.4706E-03    -24.5606E+06    -115.626E+06    -24.6327E+06     41.5737E+03    -26.8624E-03     53.7442E-03    -26.8818E-03     3.41013E-03    -26.7818E-03     53.2375E-03    -26.8017E-03     3.40906E-03
             149    -83.4833E-09     67.4703E-03    -24.5675E+06    -115.539E+06    -24.5537E+06     72.2745E+03    -26.8398E-03     53.7453E-03    -26.9055E-03     3.38456E-03    -26.7595E-03     53.2390E-03    -26.8251E-03     3.38393E-03
             150     48.0294E-09     66.4704E-03    -24.5700E+06    -115.470E+06    -24.4558E+06    -68.9449E+03    -26.8847E-03     53.7580E-03    -26.8732E-03     3.39424E-03    -26.8047E-03     53.2519E-03    -26.7925E-03     3.39178E-03
             151     3.50132E-09     65.4700E-03    -24.2653E+06    -115.452E+06    -24.3444E+06          -929.5    -26.9113E-03     53.7611E-03    -26.8498E-03     3.44416E-03    -26.8299E-03     53.2545E-03    -26.7690E-03     3.44252E-03
             152     46.3396E-09     64.4701E-03    -24.3649E+06    -115.458E+06    -24.2992E+06    -51.7451E+03    -26.8918E-03     53.7540E-03    -26.8623E-03     3.45136E-03    -26.8109E-03     53.2474E-03    -26.7810E-03     3.44905E-03
             153    -49.2377E-09     63.4697E-03    -24.1597E+06    -115.326E+06    -24.2851E+06     117.294E+03    -26.8678E-03     53.7497E-03    -26.8819E-03     3.44511E-03    -26.7861E-03     53.2434E-03    -26.8011E-03     3.44499E-03
             154     20.4246E-09     62.4698E-03    -24.0625E+06    -115.182E+06    -23.9705E+06     78.7720E+03    -26.8645E-03     53.7419E-03    -26.8774E-03     3.41096E-03    -26.7830E-03     53.2358E-03    -26.7953E-03     3.41037E-03
             155    -18.5850E-09     61.4695E-03    -23.9309E+06    -114.965E+06    -24.0422E+06     7.49613E+03    -26.8766E-03     53.7373E-03    -26.8607E-03     3.39517E-03    -26.7947E-03     53.2322E-03    -26.7796E-03     3.39367E-03
             156     37.9343E-09     60.4696E-03    -23.9357E+06    -114.828E+06    -23.7797E+06    -17.5237E+03    -26.8683E-03     53.7407E-03    -26.8724E-03     3.39849E-03    -26.7870E-03     53.2359E-03    -26.7901E-03     3.39667E-03
             157    -68.0559E-09     59.4692E-03    -23.7931E+06    -114.898E+06    -23.8808E+06     34.3847E+03    -26.8605E-03     53.7335E-03    -26.8730E-03     3.40644E-03    -26.7783E-03     53.2283E-03    -26.7913E-03     3.40530E-03
             158     69.9934E-09     58.4693E-03    -23.8071E+06    -114.784E+06    -23.7339E+06     31.5393E+03    -26.8687E-03     53.7249E-03    -26.8562E-03     3.39967E-03    -26.7869E-03     53.2201E-03    -26.7739E-03     3.39849E-03
             159     117.486E-09     56.4691E-03    -23.6930E+06    -114.660E+06    -23.6907E+06     85.4192E+03    -26.8789E-03     53.7142E-03    -26.8352E-03     3.43841E-03    -26.7968E-03     53.2097E-03    -26.7531E-03     3.43790E-03
             160    -109.477E-09     55.4688E-03    -23.8954E+06    -114.683E+06    -23.8498E+06     18.7057E+03    -26.8412E-03     53.6917E-03    -26.8505E-03     3.44898E-03    -26.7598E-03     53.1877E-03    -26.7688E-03     3.44759E-03
             161     80.1703E-09     54.4689E-03    -23.7945E+06    -114.573E+06    -23.7995E+06    -33.5018E+03    -26.8325E-03     53.6774E-03    -26.8449E-03     3.41788E-03    -26.7508E-03     53.1737E-03    -26.7633E-03     3.41584E-03
             162    -78.0310E-09     53.4688E-03    -23.6608E+06    -114.618E+06    -23.6672E+06     -58.067E+03    -26.8400E-03     53.6816E-03    -26.8417E-03     3.38921E-03    -26.7578E-03     53.1773E-03    -26.7595E-03     3.38686E-03
             163     67.5160E-09     52.4688E-03    -23.7367E+06    -114.630E+06    -23.7747E+06     8.02303E+03    -26.8167E-03     53.6586E-03    -26.8419E-03     3.34524E-03    -26.7347E-03     53.1545E-03    -26.7602E-03     3.34380E-03
             164    -106.852E-09     51.4688E-03    -23.7775E+06    -114.634E+06    -23.7934E+06     32.8896E+03    -26.8235E-03     53.6346E-03    -26.8111E-03     3.28117E-03    -26.7417E-03     53.1306E-03    -26.7294E-03     3.28010E-03
             165     162.768E-09     50.4688E-03    -23.6779E+06    -114.518E+06    -23.5938E+06     6.58114E+03    -26.8511E-03     53.6351E-03    -26.7840E-03     3.30300E-03    -26.7693E-03     53.1313E-03    -26.7016E-03     3.30157E-03
             166    -105.101E-09     49.4687E-03    -23.7869E+06    -114.466E+06    -23.8554E+06     30.5836E+03    -26.8061E-03     53.6150E-03    -26.8089E-03     3.39936E-03    -26.7245E-03     53.1119E-03    -26.7277E-03     3.39817E-03
             167     36.4026E-09     48.4687E-03    -23.8433E+06    -114.456E+06    -23.8124E+06    -7.78297E+03    -26.7680E-03     53.5676E-03    -26.7996E-03     3.36801E-03    -26.6867E-03     53.0646E-03    -26.7181E-03     3.36634E-03
             168    -27.9350E-09     47.4690E-03    -23.6932E+06    -114.435E+06    -23.7501E+06    -36.7130E+03    -26.7676E-03     53.5202E-03    -26.7526E-03     3.30481E-03    -26.6856E-03     53.0169E-03    -26.6711E-03     3.30282E-03
             169     39.9342E-09     46.4689E-03    -23.7638E+06    -114.377E+06    -23.7233E+06     18.3802E+03    -26.7334E-03     53.4944E-03    -26.7611E-03     3.34248E-03    -26.6519E-03     52.9916E-03    -26.6794E-03     3.34118E-03
             170    -105.235E-09     45.4691E-03    -23.8524E+06    -114.439E+06    -23.8321E+06    -51.5768E+03    -26.6968E-03     53.4305E-03    -26.7337E-03     3.37350E-03    -26.6156E-03     52.9276E-03    -26.6523E-03     3.37126E-03
             171     100.984E-09     44.4692E-03    -23.8542E+06    -114.453E+06    -23.9237E+06     46.5673E+03    -26.6609E-03     53.3282E-03    -26.6674E-03     3.42828E-03    -26.5795E-03     52.8254E-03    -26.5864E-03     3.42727E-03
             172    -114.331E-09     43.4697E-03    -23.8709E+06    -114.347E+06    -23.8199E+06    -2.84425E+03    -26.5780E-03     53.2461E-03    -26.6681E-03     3.40819E-03    -26.4970E-03     52.7437E-03    -26.5868E-03     3.40656E-03
             173    -35.0510E-09     42.4700E-03    -23.8184E+06    -114.385E+06    -23.8934E+06     13.0994E+03    -26.5380E-03     53.1551E-03    -26.6171E-03     3.31103E-03    -26.4565E-03     52.6525E-03    -26.5362E-03     3.30968E-03
             174     39.7187E-09     41.4706E-03    -23.8787E+06    -114.361E+06    -23.8976E+06     41.6010E+03    -26.5299E-03     53.0308E-03    -26.5009E-03     3.27887E-03    -26.4488E-03     52.5284E-03    -26.4200E-03     3.27791E-03
             175     1.23686E-09     40.4713E-03    -23.8222E+06    -114.209E+06    -23.7979E+06     63.2512E+03    -26.4653E-03     52.8962E-03    -26.4309E-03     3.22343E-03    -26.3843E-03     52.3944E-03    -26.3497E-03     3.22280E-03
             176     13.6755E-09     39.4722E-03    -23.7853E+06    -114.113E+06    -23.7923E+06     25.5441E+03    -26.3915E-03     52.7672E-03    -26.3757E-03     3.16690E-03    -26.3105E-03     52.2658E-03    -26.2947E-03     3.16583E-03
             177    -5.55383E-09     38.4730E-03    -23.6061E+06    -113.876E+06    -23.5982E+06     86.4751E+03    -26.3281E-03     52.6300E-03    -26.3019E-03     3.15520E-03    -26.2468E-03     52.1292E-03    -26.2206E-03     3.15492E-03
             178     38.8130E-09     37.4741E-03    -23.5744E+06    -113.724E+06    -23.5401E+06    -4.26348E+03    -26.2283E-03     52.4256E-03    -26.1973E-03     3.13952E-03    -26.1471E-03     51.9254E-03    -26.1159E-03     3.13808E-03
             179    -21.8372E-09     36.4754E-03    -23.4600E+06    -113.529E+06    -23.5533E+06     123.586E+03    -26.0780E-03     52.1894E-03    -26.1114E-03     3.12513E-03    -25.9965E-03     51.6900E-03    -26.0305E-03     3.12534E-03
             180    -59.2612E-09     35.4771E-03    -23.2137E+06    -113.127E+06    -23.1083E+06     15.4768E+03    -25.9296E-03     51.9648E-03    -26.0351E-03     3.07880E-03    -25.8482E-03     51.4665E-03    -25.9530E-03     3.07765E-03
             181    -47.8801E-09     34.4786E-03    -23.0352E+06    -112.966E+06    -23.2354E+06     79.6392E+03    -25.7970E-03     51.6512E-03    -25.8542E-03     3.06323E-03    -25.7146E-03     51.1536E-03    -25.7732E-03     3.06292E-03
             182     48.0040E-09     33.4809E-03    -23.2224E+06    -112.754E+06    -23.0825E+06     114.614E+03    -25.6390E-03     51.2697E-03    -25.6306E-03     3.08639E-03    -25.5582E-03     50.7732E-03    -25.5489E-03     3.08651E-03
             183    -36.2756E-09     32.4833E-03    -23.0116E+06    -112.482E+06    -23.1364E+06     36.4453E+03    -25.4411E-03     50.8708E-03    -25.4297E-03     3.06594E-03    -25.3595E-03     50.3754E-03    -25.3489E-03     3.06506E-03
             184     38.7370E-09     31.4863E-03    -23.2159E+06    -112.381E+06    -23.1096E+06     30.1948E+03    -25.2255E-03     50.4262E-03    -25.2008E-03     3.02180E-03    -25.1451E-03     49.9316E-03    -25.1197E-03     3.02085E-03
             185    -821.737E-12     30.4898E-03    -23.1636E+06    -112.211E+06    -23.3139E+06     43.6844E+03    -24.9653E-03     49.9351E-03    -24.9698E-03     2.94564E-03    -24.8846E-03     49.4416E-03    -24.8900E-03     2.94493E-03
             186    -50.5828E-09     29.4938E-03    -23.0433E+06    -111.754E+06    -22.9978E+06     208.478E+03    -24.6702E-03     49.4101E-03    -24.7399E-03     2.87595E-03    -24.5900E-03     48.9183E-03    -24.6595E-03     2.87742E-03
             187    -23.7601E-09     28.4981E-03    -22.8191E+06    -111.265E+06    -22.8703E+06     71.6898E+03    -24.3704E-03     48.7960E-03    -24.4256E-03     2.85192E-03    -24.2900E-03     48.3061E-03    -24.3455E-03     2.85163E-03
             188    -3.02075E-09     27.5033E-03    -22.6683E+06    -110.758E+06    -22.7215E+06     187.395E+03    -24.0440E-03     48.1017E-03    -24.0577E-03     2.80486E-03    -23.9637E-03     47.6139E-03    -23.9779E-03     2.80610E-03
             189     1.41581E-09     26.5093E-03    -22.5639E+06    -110.207E+06    -22.5340E+06     157.355E+03    -23.7001E-03     47.3884E-03    -23.6883E-03     2.67021E-03    -23.6205E-03     46.9029E-03    -23.6084E-03     2.67114E-03
             190     18.0727E-09     25.5159E-03    -22.3196E+06    -109.481E+06    -22.4502E+06     281.614E+03    -23.3184E-03     46.6106E-03    -23.2922E-03     2.57873E-03    -23.2387E-03     46.1283E-03    -23.2133E-03     2.58132E-03
             191     4.04032E-09     24.5232E-03    -22.1913E+06    -108.665E+06    -22.1127E+06     309.026E+03    -22.8670E-03     45.7171E-03    -22.8501E-03     2.49122E-03    -22.7883E-03     45.2381E-03    -22.7709E-03     2.49421E-03
             192     1.69605E-09     23.5317E-03    -21.5647E+06    -107.518E+06    -21.7558E+06     419.084E+03    -22.3669E-03     44.7384E-03    -22.3715E-03     2.37229E-03    -22.2873E-03     44.2638E-03    -22.2931E-03     2.37678E-03
             193    -20.0908E-09     22.5410E-03    -21.2835E+06    -106.065E+06    -21.1181E+06     422.630E+03    -21.8630E-03     43.6982E-03    -21.8353E-03     2.21907E-03    -21.7850E-03     43.2296E-03    -21.7562E-03     2.22367E-03
             194     87.0400E-09     21.5515E-03    -20.8561E+06    -104.710E+06    -20.9579E+06     347.807E+03    -21.3169E-03     42.5826E-03    -21.2657E-03     2.10213E-03    -21.2390E-03     42.1199E-03    -21.1885E-03     2.10582E-03
             195    -66.9462E-09     20.5630E-03    -20.6867E+06    -103.333E+06    -20.6510E+06     434.894E+03    -20.6887E-03     41.3998E-03    -20.7111E-03     1.96425E-03    -20.6124E-03     40.9432E-03    -20.6345E-03     1.96913E-03
             196     6.10228E-09     19.5758E-03    -19.7992E+06    -101.819E+06    -19.9247E+06     465.737E+03    -20.0515E-03     40.1391E-03    -20.0876E-03     1.79929E-03    -19.9739E-03     39.6877E-03    -20.0109E-03     1.80463E-03
             197    -11.8311E-09     18.5898E-03    -18.2448E+06    -99.8240E+06    -18.3979E+06     756.095E+03    -19.4026E-03     38.7992E-03    -19.3965E-03     1.65652E-03    -19.3224E-03     38.3533E-03    -19.3173E-03     1.66566E-03
             198     25.4078E-09     17.6052E-03    -16.8348E+06    -97.1910E+06    -16.7413E+06     773.712E+03    -18.6883E-03     37.3693E-03    -18.6811E-03     1.43720E-03    -18.6072E-03     36.9322E-03    -18.5994E-03     1.44665E-03
             199    -26.0230E-09     16.6222E-03    -15.5557E+06    -94.3865E+06    -15.7340E+06     825.869E+03    -17.9736E-03     35.8948E-03    -17.9212E-03     1.23607E-03    -17.8917E-03     35.4684E-03    -17.8405E-03     1.24626E-03
             200     116.680E-09     15.6404E-03    -14.1445E+06    -91.0919E+06    -14.2672E+06     1.24466E+06    -17.2089E-03     34.3929E-03    -17.1840E-03     1.15571E-03    -17.1268E-03     33.9787E-03    -17.1027E-03     1.17134E-03
             201    -165.168E-09     14.6602E-03    -10.9050E+06    -86.5716E+06    -10.9556E+06     1.43389E+06    -16.4374E-03     32.8232E-03    -16.3858E-03     940.234E-06    -16.3505E-03     32.4222E-03    -16.2993E-03     958.389E-06
             202     304.312E-09     13.6816E-03    -7.36364E+06    -82.3403E+06    -7.20295E+06     1.10303E+06    -15.6771E-03     31.1428E-03    -15.4658E-03     691.278E-06    -15.5840E-03     30.7524E-03    -15.3717E-03     705.233E-06
             203    -67.0506E-09     12.7047E-03    -6.69252E+06    -79.4442E+06    -6.53674E+06     591.191E+03    -14.6706E-03     29.2114E-03    -14.5407E-03     497.859E-06    -14.5794E-03     28.8334E-03    -14.4485E-03     505.246E-06
             204     62.1111E-09     11.7297E-03    -9.47653E+06    -78.0676E+06    -9.40487E+06     316.149E+03    -13.5759E-03     27.1238E-03    -13.5479E-03     361.787E-06    -13.4964E-03     26.7610E-03    -13.4680E-03     365.617E-06
             205    -6.30662E-09     10.7568E-03    -13.0066E+06    -77.6037E+06    -12.8101E+06    -10.7381E+03    -12.6567E-03     25.2818E-03    -12.6251E-03     396.837E-06    -12.5907E-03     24.9314E-03    -12.5577E-03     396.408E-06
             206     9.14933E-09     9.78551E-03    -15.7732E+06    -78.0022E+06    -15.5513E+06    -255.599E+03    -12.1321E-03     24.1898E-03    -12.0577E-03     512.510E-06    -12.0753E-03     23.8454E-03    -11.9995E-03     508.909E-06
             207     122.772E-09     8.81472E-03    -16.6488E+06    -78.9795E+06    -16.3444E+06    -338.468E+03    -12.1565E-03     24.2406E-03    -12.0841E-03     807.666E-06    -12.1015E-03     23.8937E-03    -12.0272E-03     803.011E-06
             208    -122.740E-09     7.84322E-03    -15.3113E+06    -80.4055E+06    -15.1849E+06    -555.442E+03    -12.6894E-03     25.4154E-03    -12.7260E-03     965.730E-06    -12.6274E-03     25.0578E-03    -12.6631E-03     958.307E-06
             209     58.9648E-09     6.87029E-03    -12.4364E+06    -82.2709E+06    -12.4088E+06    -743.086E+03    -13.7006E-03     27.4570E-03    -13.7564E-03     1.09382E-03    -13.6255E-03     27.0818E-03    -13.6811E-03     1.08401E-03
             210    -93.9506E-09     5.89457E-03    -9.85683E+06    -84.2322E+06    -10.0642E+06    -659.809E+03    -14.9242E-03     29.9173E-03    -14.9931E-03     1.24899E-03    -14.8367E-03     29.5251E-03    -14.9070E-03     1.24030E-03
             211     4.18809E-09     4.91668E-03    -9.78578E+06    -86.5444E+06    -9.91287E+06    -531.398E+03    -16.1685E-03     32.3569E-03    -16.1884E-03     1.19387E-03    -16.0775E-03     31.9528E-03    -16.0983E-03     1.18687E-03
             212     48.5833E-09     3.93659E-03    -10.4481E+06    -88.6195E+06    -10.3833E+06    -667.523E+03    -17.3197E-03     34.6022E-03    -17.2825E-03     1.05525E-03    -17.2283E-03     34.1894E-03    -17.1907E-03     1.04650E-03
             213    -34.8775E-09     2.95424E-03    -11.1305E+06    -90.7524E+06    -11.2202E+06    -552.986E+03    -18.2431E-03     36.4890E-03    -18.2458E-03     854.541E-06    -18.1508E-03     36.0677E-03    -18.1542E-03     847.298E-06
             214     15.1028E-09     1.97043E-03    -11.3941E+06    -92.1188E+06    -11.6350E+06    -187.941E+03    -18.9168E-03     37.8652E-03    -18.9484E-03     608.433E-06    -18.8231E-03     37.4382E-03    -18.8565E-03     605.931E-06
             215    -54.2577E-09     985.453E-06    -11.1294E+06    -92.3100E+06    -11.0937E+06     88.7910E+03    -19.3780E-03     38.7137E-03    -19.3358E-03     312.370E-06    -19.2834E-03     38.2846E-03    -19.2413E-03     313.514E-06
             216     882.612E-06    -291.434E-18    -10.9654E+06    -92.3035E+06    -10.7098E+06     111.430E+03    -19.6168E-03     39.1175E-03    -19.5007E-03     257.667E-06    -19.5221E-03     38.6875E-03    -19.4045E-03     259.112E-06
             217     1.76513E-03    -291.434E-18    -10.8723E+06    -92.7021E+06    -11.1547E+06    -122.864E+03    -19.8011E-03     39.4070E-03    -19.6060E-03     491.231E-06    -19.7048E-03     38.9755E-03    -19.5116E-03     489.594E-06
             218     2.64737E-03    -291.434E-18    -10.5399E+06    -92.9878E+06    -11.4125E+06    -456.946E+03    -20.1427E-03     39.8648E-03    -19.7221E-03     754.742E-06    -20.0440E-03     39.4316E-03    -19.6290E-03     748.758E-06
             219     3.52923E-03    -291.434E-18    -9.85557E+06    -93.1100E+06    -11.6470E+06    -665.657E+03    -20.6243E-03     40.5050E-03    -19.8807E-03     1.05035E-03    -20.5217E-03     40.0707E-03    -19.7896E-03     1.04163E-03
             220     4.41062E-03    -291.434E-18    -9.16381E+06    -93.7071E+06    -12.7595E+06    -721.652E+03    -21.2529E-03     41.3341E-03    -20.0812E-03     1.37626E-03    -21.1443E-03     40.8973E-03    -19.9958E-03     1.36678E-03
             221     5.29134E-03    -291.434E-18    -8.31412E+06    -95.1022E+06    -15.8031E+06    -1.28209E+06    -22.0277E-03     42.3474E-03    -20.3197E-03     1.73546E-03    -21.9084E-03     41.9069E-03    -20.2488E-03     1.71868E-03
             222     6.17136E-03    -291.434E-18    -6.60750E+06    -96.7637E+06    -20.7679E+06    -2.35483E+06    -22.9503E-03     43.5449E-03    -20.5946E-03     2.19344E-03    -22.8129E-03     43.1008E-03    -20.5485E-03     2.16271E-03
             223     7.05037E-03    -291.434E-18    -3.93806E+06    -97.8203E+06    -26.4056E+06    -3.34191E+06    -24.0255E-03     44.9364E-03    -20.9109E-03     2.68432E-03    -23.8650E-03     44.4913E-03    -20.8954E-03     2.64069E-03
             224     7.92860E-03    -291.434E-18    -390.530E+03    -94.8880E+06    -31.5203E+06    -4.11802E+06    -25.2711E-03     46.5429E-03    -21.2718E-03     3.28753E-03    -25.0898E-03     46.1148E-03    -21.2913E-03     3.23364E-03
             225     8.80526E-03    -291.434E-18     3.58260E+06    -86.6596E+06    -37.6968E+06    -4.54192E+06    -26.6621E-03     48.3317E-03    -21.6696E-03     4.13199E-03    -26.4638E-03     47.9479E-03    -21.7377E-03     4.07242E-03
             226     9.68071E-03    -291.434E-18     7.89181E+06    -72.5326E+06    -41.9697E+06    -5.21552E+06    -28.1054E-03     50.2197E-03    -22.1143E-03     5.01181E-03    -27.8999E-03     49.9066E-03    -22.2304E-03     4.94284E-03
             227     10.5551E-03    -291.434E-18     11.9066E+06    -52.2654E+06    -40.8316E+06    -4.40293E+06    -29.6467E-03     52.2663E-03    -22.6196E-03     5.88864E-03    -29.4523E-03     52.0470E-03    -22.7652E-03     5.82929E-03
             228     11.4277E-03    -291.434E-18     14.6674E+06    -27.0373E+06    -34.0316E+06    -3.07802E+06    -31.3011E-03     54.4908E-03    -23.1897E-03     7.45181E-03    -31.1394E-03     54.3839E-03    -23.3419E-03     7.40850E-03
             229     12.2979E-03    -291.434E-18     15.2516E+06     6.03892E+06    -25.1743E+06    -1.73169E+06    -32.8186E-03     56.6145E-03    -23.7959E-03     8.47598E-03    -32.7148E-03     56.6594E-03    -23.9526E-03     8.44830E-03
             230     13.1696E-03    -291.434E-18     13.7478E+06     37.4761E+06    -9.32771E+06     290.453E+03    -34.7388E-03     59.2180E-03    -24.4792E-03     10.6732E-03    -34.7115E-03     59.3995E-03    -24.6001E-03     10.6686E-03
             231     14.0337E-03    -291.434E-18     11.8038E+06     58.1530E+06     15.8208E+06     517.769E+03    -39.1861E-03     64.5300E-03    -25.3439E-03     16.9148E-03    -39.2363E-03     64.7829E-03    -25.3662E-03     16.9025E-03
             232     14.8958E-03    -291.434E-18     8.35449E+06     72.1133E+06     44.8965E+06     2.45110E+06    -47.5410E-03     74.0646E-03    -26.5236E-03     28.1330E-03    -47.6707E-03     74.3492E-03    -26.4158E-03     28.1536E-03
             233     15.7386E-03    -291.434E-18     2.55721E+06     79.6262E+06     64.9585E+06     5.79079E+06    -56.1104E-03     84.1489E-03    -28.0385E-03     58.6271E-03    -56.3308E-03     84.4578E-03    -27.8329E-03     58.6511E-03
             234     16.5513E-03    -291.434E-18     4.99532E+06     98.7846E+06     78.5904E+06     5.10294E+06    -72.2797E-03     102.278E-03    -29.9983E-03     101.763E-03    -72.7811E-03     102.924E-03    -29.7559E-03     101.234E-03
             235     17.4591E-03     1.09679E-03    -2.12034E+06     116.564E+06     79.9671E+06     6.29718E+06    -91.9050E-03     121.475E-03    -29.5701E-03     124.463E-03    -93.1060E-03     122.878E-03    -29.3362E-03     123.083E-03
             236     17.4963E-03     2.21889E-03    -5.84322E+06     126.776E+06     78.2803E+06     9.13210E+06    -92.2182E-03     119.613E-03    -27.3949E-03     149.207E-03    -94.4302E-03     122.038E-03    -27.1789E-03     147.614E-03
             237     17.5140E-03     3.28167E-03    -397.656E+03     140.327E+06     87.9743E+06     6.11632E+06    -87.0936E-03     113.517E-03    -26.4238E-03     172.753E-03    -90.1855E-03     116.855E-03    -26.1868E-03     171.318E-03
             238     17.5197E-03     4.35408E-03    -4.67286E+06     147.293E+06     93.6613E+06     2.48122E+06    -88.4878E-03     114.452E-03    -25.9645E-03     180.206E-03    -92.3088E-03     118.513E-03    -25.7030E-03     178.976E-03
             239     17.5216E-03     5.41979E-03    -3.05260E+06     155.472E+06     99.3665E+06     3.75603E+06    -83.6340E-03     109.553E-03    -25.9191E-03     189.599E-03    -88.0400E-03     114.214E-03    -25.6433E-03     189.022E-03
             240     17.5250E-03     6.46655E-03    -916.168E+03     161.346E+06     101.959E+06     2.86586E+06    -77.1463E-03     103.122E-03    -25.9760E-03     195.435E-03    -81.9411E-03     108.191E-03    -25.6989E-03     195.571E-03
             241     17.5238E-03     7.50933E-03    -1.89841E+06     162.205E+06     101.556E+06     132.495E+03    -75.5865E-03     101.580E-03    -25.9930E-03     195.554E-03    -80.6496E-03     106.917E-03    -25.7177E-03     196.077E-03
             242     17.5237E-03     8.55527E-03    -2.51051E+06     162.786E+06     101.693E+06     658.112E+03    -73.4760E-03     99.5421E-03    -26.0661E-03     194.233E-03    -78.7302E-03     105.070E-03    -25.7900E-03     195.221E-03
             243     17.5231E-03     9.59316E-03    -2.85336E+06     164.478E+06     101.690E+06     1.06674E+06    -69.8069E-03     95.9947E-03    -26.1878E-03     194.168E-03    -75.2535E-03     101.720E-03    -25.9137E-03     195.719E-03
             244     17.5218E-03     10.6300E-03    -3.32824E+06     166.109E+06     102.207E+06     754.332E+03    -67.3005E-03     93.6117E-03    -26.3112E-03     192.555E-03    -72.8755E-03     99.4679E-03    -26.0362E-03     194.574E-03
             245     17.5204E-03     11.6636E-03    -2.20005E+06     166.424E+06     102.873E+06     570.064E+03    -64.2080E-03     90.6519E-03    -26.4440E-03     189.792E-03    -69.8216E-03     96.5496E-03    -26.1677E-03     192.270E-03
             246     17.5202E-03     12.6925E-03    -2.33427E+06     166.693E+06     102.965E+06     94.7251E+03    -60.6298E-03     87.1874E-03    -26.5576E-03     186.316E-03    -66.2342E-03     93.0760E-03    -26.2810E-03     189.251E-03
             247     17.5197E-03     13.7188E-03    -2.40035E+06     168.355E+06     104.308E+06    -371.591E+03    -57.9869E-03     84.6099E-03    -26.6230E-03     183.036E-03    -63.5564E-03     90.4656E-03    -26.3421E-03     186.344E-03
             248     17.5207E-03     14.7449E-03    -1.52250E+06     169.255E+06     105.200E+06    -853.441E+03    -55.6437E-03     82.2983E-03    -26.6546E-03     181.977E-03    -61.2206E-03     88.1656E-03    -26.3718E-03     185.621E-03
             249     17.5210E-03     15.7716E-03    -2.50001E+06     168.592E+06     104.350E+06    -780.250E+03    -53.3790E-03     80.0612E-03    -26.6822E-03     185.240E-03    -59.1384E-03     86.1081E-03    -26.4013E-03     189.279E-03
             250     17.5216E-03     16.7968E-03    -3.13062E+06     169.887E+06     105.000E+06     601.555E+03    -50.4836E-03     77.2240E-03    -26.7404E-03     189.813E-03    -56.4764E-03     83.5046E-03    -26.4572E-03     194.340E-03
             251     17.5217E-03     17.8167E-03    -2.57334E+06     172.193E+06     106.223E+06     1.23905E+06    -46.0952E-03     72.9217E-03    -26.8264E-03     192.433E-03    -52.2261E-03     79.3466E-03    -26.5413E-03     197.493E-03
             252     17.5229E-03     18.8271E-03    -2.20959E+06     173.012E+06     106.397E+06     408.259E+03    -42.8961E-03     69.7589E-03    -26.8628E-03     192.368E-03    -49.0596E-03     76.2200E-03    -26.5784E-03     197.823E-03
             253     17.5233E-03     19.8383E-03    -2.86758E+06     172.719E+06     106.132E+06    -412.150E+03    -42.6528E-03     69.4858E-03    -26.8330E-03     191.820E-03    -48.8433E-03     75.9715E-03    -26.5486E-03     197.411E-03
             254     17.5236E-03     20.8540E-03    -3.56451E+06     172.249E+06     105.918E+06    -80.1185E+03    -42.3749E-03     69.1968E-03    -26.8218E-03     193.449E-03    -48.6794E-03     75.7931E-03    -26.5368E-03     199.197E-03
             255     17.5240E-03     21.8662E-03    -3.03618E+06     173.087E+06     106.454E+06     689.630E+03    -40.1289E-03     66.9903E-03    -26.8614E-03     195.873E-03    -46.5678E-03     73.7241E-03    -26.5757E-03     201.978E-03
             256     17.5244E-03     22.8746E-03    -2.90629E+06     174.968E+06     107.347E+06     1.12283E+06    -37.7225E-03     64.6211E-03    -26.8986E-03     197.227E-03    -44.2434E-03     71.4415E-03    -26.6113E-03     203.662E-03
             257     17.5250E-03     23.8797E-03    -2.99592E+06     176.528E+06     108.179E+06     583.796E+03    -36.8602E-03     63.7540E-03    -26.8939E-03     197.463E-03    -43.4078E-03     70.6040E-03    -26.6046E-03     204.037E-03
             258     17.5253E-03     24.8871E-03    -2.84464E+06     176.980E+06     108.519E+06     142.817E+03    -36.6649E-03     63.5437E-03    -26.8788E-03     197.755E-03    -43.2472E-03     70.4294E-03    -26.5887E-03     204.402E-03
             259     17.5256E-03     25.8940E-03    -2.71863E+06     177.445E+06     108.803E+06     378.081E+03    -35.7615E-03     62.6494E-03    -26.8879E-03     199.222E-03    -42.4263E-03     69.6190E-03    -26.5973E-03     206.034E-03
             260     17.5260E-03     26.8988E-03    -2.61136E+06     177.816E+06     108.979E+06     243.147E+03    -34.5505E-03     61.4526E-03    -26.9020E-03     199.823E-03    -41.2563E-03     68.4643E-03    -26.6112E-03     206.802E-03
             261     17.5262E-03     27.9009E-03    -3.02252E+06     177.438E+06     108.759E+06    -192.925E+03    -34.2619E-03     61.1544E-03    -26.8925E-03     199.074E-03    -40.9486E-03     68.1448E-03    -26.6016E-03     206.101E-03
             262     17.5264E-03     28.9047E-03    -2.83925E+06     177.561E+06     109.375E+06     205.629E+03    -34.6976E-03     61.5716E-03    -26.8740E-03     198.851E-03    -41.3841E-03     68.5613E-03    -26.5805E-03     205.874E-03
             263     17.5264E-03     29.9112E-03    -2.60069E+06     179.190E+06     110.586E+06     834.551E+03    -33.9854E-03     60.8753E-03    -26.8899E-03     200.315E-03    -40.7507E-03     67.9469E-03    -26.5930E-03     207.470E-03
             264     17.5267E-03     30.9138E-03    -2.92678E+06     180.390E+06     110.683E+06     514.999E+03    -32.6231E-03     59.5379E-03    -26.9148E-03     202.179E-03    -39.4780E-03     66.7018E-03    -26.6187E-03     209.520E-03
             265     17.5268E-03     31.9145E-03    -3.35400E+06     180.099E+06     110.091E+06    -61.8414E+03    -32.4398E-03     59.3508E-03    -26.9110E-03     202.100E-03    -39.2970E-03     66.5162E-03    -26.6169E-03     209.472E-03
             266     17.5267E-03     32.9166E-03    -3.25646E+06     180.246E+06     110.424E+06     339.523E+03    -32.4821E-03     59.3999E-03    -26.9178E-03     200.277E-03    -39.2947E-03     66.5206E-03    -26.6223E-03     207.635E-03
             267     17.5262E-03     33.9168E-03    -2.08723E+06     181.656E+06     111.552E+06     380.490E+03    -31.8880E-03     58.8110E-03    -26.9229E-03     199.453E-03    -38.7114E-03     65.9483E-03    -26.6256E-03     206.897E-03
             268     17.5280E-03     34.9177E-03    -3.04412E+06     180.987E+06     110.818E+06    -106.502E+03    -32.3448E-03     59.2235E-03    -26.8787E-03     205.399E-03    -39.3677E-03     66.5568E-03    -26.5826E-03     212.914E-03
             269     17.5278E-03     35.9321E-03    -3.15794E+06     179.433E+06     110.136E+06    -673.874E+03    -32.4406E-03     59.3405E-03    -26.8999E-03     210.660E-03    -39.6391E-03     66.8455E-03    -26.6048E-03     218.191E-03
             270     17.5254E-03     36.9231E-03    -931.416E+03     181.332E+06     111.915E+06     618.937E+03    -29.9460E-03     56.9311E-03    -26.9851E-03     202.389E-03    -36.8221E-03     64.1233E-03    -26.6871E-03     209.980E-03
             271     17.5281E-03     37.9074E-03    -2.67764E+06     180.674E+06     110.881E+06    -5.21338E+03    -30.7354E-03     57.6608E-03    -26.9254E-03     193.375E-03    -37.2170E-03     64.4531E-03    -26.6291E-03     200.766E-03
             272     17.5266E-03     38.9234E-03    -3.53508E+06     180.044E+06     110.416E+06    -595.698E+03    -33.9901E-03     60.8332E-03    -26.8431E-03     198.412E-03    -40.6967E-03     67.8466E-03    -26.5470E-03     205.616E-03
             273     17.5274E-03     39.9330E-03    -3.40651E+06     180.802E+06     111.009E+06     497.565E+03    -32.0066E-03     58.9256E-03    -26.9190E-03     207.224E-03    -39.1124E-03     66.3394E-03    -26.6212E-03     214.801E-03
             274     17.5268E-03     40.9266E-03    -2.50118E+06     180.441E+06     111.178E+06     273.777E+03    -28.8650E-03     55.8594E-03    -26.9944E-03     206.600E-03    -35.9363E-03     63.2401E-03    -26.6965E-03     214.472E-03
             275     17.5275E-03     41.9198E-03    -2.67745E+06     179.901E+06     111.162E+06    -266.239E+03    -30.1161E-03     57.0600E-03    -26.9438E-03     201.134E-03    -36.9460E-03     64.1967E-03    -26.6450E-03     208.769E-03
             276     17.5273E-03     42.9211E-03    -4.12142E+06     178.417E+06     110.284E+06    -799.073E+03    -32.4335E-03     59.3100E-03    -26.8764E-03     198.307E-03    -39.1519E-03     66.3274E-03    -26.5778E-03     205.656E-03
             277     17.5272E-03     43.9274E-03    -2.78220E+06     178.569E+06     110.925E+06    -165.013E+03    -31.7574E-03     58.6633E-03    -26.9059E-03     199.026E-03    -38.5536E-03     65.7620E-03    -26.6062E-03     206.494E-03
             278     17.5269E-03     44.9244E-03    -2.22513E+06     179.509E+06     111.294E+06     303.731E+03    -30.7780E-03     57.7087E-03    -26.9307E-03     201.727E-03    -37.7143E-03     64.9516E-03    -26.6313E-03     209.409E-03
             279     17.5278E-03     45.9280E-03    -3.27615E+06     180.001E+06     110.864E+06     583.650E+03    -31.2679E-03     58.1641E-03    -26.8962E-03     208.199E-03    -38.4173E-03     65.6193E-03    -26.5981E-03     215.917E-03
             280     17.5286E-03     46.9372E-03    -4.02915E+06     179.012E+06     110.116E+06    -419.600E+03    -30.9531E-03     57.8736E-03    -26.9205E-03     213.174E-03    -38.2532E-03     65.4756E-03    -26.6237E-03     220.912E-03
             281     17.5257E-03     47.9274E-03      -699.4E+03     181.947E+06     113.264E+06     867.862E+03    -29.3953E-03     56.3847E-03    -26.9894E-03     204.658E-03    -36.3512E-03     63.6558E-03    -26.6859E-03     212.386E-03
             282     17.5281E-03     48.9140E-03    -1.23589E+06     182.390E+06     112.941E+06     413.738E+03    -29.7818E-03     56.7277E-03    -26.9459E-03     194.648E-03    -36.3343E-03     63.5960E-03    -26.6439E-03     202.184E-03
             283     17.5271E-03     49.9229E-03    -3.20457E+06     180.534E+06     110.932E+06    -876.259E+03    -32.3440E-03     59.2149E-03    -26.8709E-03     197.996E-03    -39.0473E-03     66.2262E-03    -26.5734E-03     205.347E-03
             284     17.5274E-03     50.9331E-03    -3.67647E+06     180.461E+06     110.769E+06    -138.592E+03    -32.1089E-03     59.0080E-03    -26.8991E-03     204.115E-03    -39.0980E-03     66.3036E-03    -26.6016E-03     211.628E-03
             285     17.5270E-03     51.9248E-03    -4.41582E+06     179.709E+06     110.219E+06    -97.3349E+03    -31.0766E-03     58.0045E-03    -26.9279E-03     202.627E-03    -38.0032E-03     65.2338E-03    -26.6310E-03     210.231E-03
             286     17.5271E-03     52.9276E-03    -3.16171E+06     180.822E+06     111.623E+06     303.598E+03    -31.1169E-03     58.0447E-03    -26.9278E-03     200.417E-03    -37.9418E-03     65.1765E-03    -26.6273E-03     207.978E-03
             287     17.5272E-03     53.9289E-03    -2.84546E+06     181.272E+06     111.854E+06    -87.0165E+03    -30.3734E-03     57.3122E-03    -26.9388E-03     201.591E-03    -37.2497E-03     64.4975E-03    -26.6382E-03     209.250E-03
             288     17.5276E-03     54.9261E-03    -3.14497E+06     180.946E+06     111.737E+06    -139.598E+03    -30.7839E-03     57.7174E-03    -26.9335E-03     201.704E-03    -37.6687E-03     64.9094E-03    -26.6327E-03     209.335E-03
             289     17.5264E-03     55.9295E-03    -2.71413E+06     181.325E+06     111.899E+06     108.244E+03    -30.9617E-03     57.8876E-03    -26.9259E-03     202.111E-03    -37.8669E-03     65.1023E-03    -26.6253E-03     209.712E-03
             290     17.5287E-03     56.9283E-03    -2.50672E+06     181.566E+06     112.155E+06     347.770E+03    -30.3022E-03     57.2298E-03    -26.9276E-03     205.283E-03    -37.2918E-03     64.5298E-03    -26.6265E-03     212.981E-03
             291     17.5269E-03     57.9321E-03    -2.79256E+06     181.413E+06     112.354E+06    -85.7030E+03    -30.8444E-03     57.7714E-03    -26.9270E-03     207.567E-03    -37.9551E-03     65.1904E-03    -26.6242E-03     215.292E-03
             292     876.183E-06     58.4724E-03     -23.641E+06    -114.519E+06    -23.2608E+06     26.3346E+03    -26.8734E-03     53.7340E-03    -26.8606E-03     5.69560E-03    -26.7919E-03     53.2296E-03    -26.7766E-03     5.69323E-03
             293     1.75246E-03     58.4801E-03    -23.0900E+06    -113.637E+06    -21.7085E+06     31.3707E+03    -26.8870E-03     53.7553E-03    -26.8683E-03     10.5188E-03    -26.8066E-03     53.2525E-03    -26.7786E-03     10.5140E-03
             294     2.62864E-03     58.4924E-03    -22.1862E+06    -112.209E+06    -19.0989E+06     74.0533E+03    -26.9124E-03     53.7882E-03    -26.8758E-03     15.6301E-03    -26.8339E-03     53.2879E-03    -26.7764E-03     15.6231E-03
             295     3.50491E-03     58.5098E-03    -20.9341E+06    -110.217E+06    -15.4971E+06     133.849E+03    -26.9525E-03     53.8385E-03    -26.8860E-03     20.8360E-03    -26.8766E-03     53.3420E-03    -26.7733E-03     20.8264E-03
             296     4.38111E-03     58.5320E-03    -19.4832E+06    -107.944E+06    -11.3302E+06     205.009E+03    -27.0052E-03     53.9031E-03    -26.8980E-03     26.0887E-03    -26.9326E-03     53.4111E-03    -26.7699E-03     26.0759E-03
             297     5.25739E-03     58.5594E-03    -17.9596E+06    -102.933E+06    -7.54462E+06     161.058E+03    -27.0644E-03     53.9677E-03    -26.9032E-03     31.3857E-03    -26.9989E-03     53.4948E-03    -26.7656E-03     31.3674E-03
             298     6.13363E-03     58.5917E-03    -16.4892E+06    -97.1656E+06    -4.24501E+06     124.106E+03    -27.1348E-03     54.0388E-03    -26.9040E-03     36.7166E-03    -27.0776E-03     53.5905E-03    -26.7604E-03     36.6915E-03
             299     7.00992E-03     58.6292E-03    -14.9936E+06    -92.9038E+06    -1.61870E+06     263.810E+03    -27.2258E-03     54.1287E-03    -26.9030E-03     42.0401E-03    -27.1750E-03     53.6996E-03    -26.7546E-03     42.0090E-03
             300     7.88620E-03     58.6715E-03    -13.4432E+06    -86.3704E+06    -395.902E+03     453.217E+03    -27.3302E-03     54.2217E-03    -26.8914E-03     47.3589E-03    -27.2884E-03     53.8267E-03    -26.7487E-03     47.3204E-03
             301     8.76251E-03     58.7192E-03    -12.0324E+06    -80.8503E+06     438.552E+03     431.015E+03    -27.4460E-03     54.3256E-03    -26.8796E-03     52.6652E-03    -27.4144E-03     53.9630E-03    -26.7427E-03     52.6141E-03
             302     9.63883E-03     58.7716E-03    -11.0512E+06    -76.1667E+06    -784.840E+03     347.689E+03    -27.5860E-03     54.4456E-03    -26.8596E-03     57.9720E-03    -27.5662E-03     54.1184E-03    -26.7370E-03     57.9044E-03
             303     10.5151E-03     58.8293E-03    -10.5871E+06    -67.8172E+06    -3.18716E+06     177.246E+03    -27.7274E-03     54.5573E-03    -26.8299E-03     63.1623E-03    -27.7310E-03     54.2919E-03    -26.7322E-03     63.0731E-03
             304     11.3914E-03     58.8915E-03    -10.2859E+06    -54.1174E+06    -2.69043E+06     8.75587E+03    -27.9008E-03     54.7083E-03    -26.8075E-03     69.7471E-03    -27.9510E-03     54.5377E-03    -26.7276E-03     69.6314E-03
             305     12.2677E-03     58.9618E-03    -10.2338E+06    -39.9904E+06    -4.23828E+06    -633.027E+03    -28.1962E-03     54.9724E-03    -26.7761E-03     77.9615E-03    -28.3085E-03     54.9186E-03    -26.7245E-03     77.8078E-03
             306     13.1438E-03     59.0393E-03    -9.90198E+06    -26.5635E+06    -11.4357E+06    -556.321E+03    -28.2749E-03     54.9954E-03    -26.7204E-03     80.4583E-03    -28.4562E-03     55.0803E-03    -26.7248E-03     80.2712E-03
             307     14.0185E-03     59.1145E-03    -8.68844E+06     6.98674E+06    -9.59148E+06     1.37356E+06    -28.1377E-03     54.7987E-03    -26.6610E-03     94.8229E-03    -28.5234E-03     55.2061E-03    -26.7065E-03     94.6292E-03
             308     14.9000E-03     59.2199E-03    -8.76190E+06     63.9019E+06    -6.62430E+06     1.42298E+06    -31.4883E-03     58.0346E-03    -26.5463E-03     157.901E-03    -32.8988E-03     59.6600E-03    -26.6593E-03     157.724E-03
             309     15.7746E-03     59.4149E-03    -8.94186E+06     130.627E+06     23.9975E+06     43.5088E+03    -39.5730E-03     66.1476E-03    -26.5746E-03     262.079E-03    -46.1003E-03     73.0373E-03    -26.6310E-03     263.126E-03
             310     16.6510E-03     59.7276E-03    -5.76238E+06     173.154E+06     84.5467E+06    -17.9699E+03    -37.5513E-03     64.3619E-03    -26.8106E-03     260.440E-03    -46.3662E-03     73.5258E-03    -26.6306E-03     265.357E-03
             311     876.250E-06     59.4727E-03    -23.6164E+06    -114.543E+06    -23.2978E+06     26.9084E+03    -26.8690E-03     53.7395E-03    -26.8705E-03     5.70022E-03    -26.7873E-03     53.2350E-03    -26.7866E-03     5.69786E-03
             312     1.75241E-03     59.4801E-03    -23.1265E+06    -113.676E+06    -21.7023E+06     37.1731E+03    -26.8886E-03     53.7596E-03    -26.8709E-03     10.5218E-03    -26.8084E-03     53.2566E-03    -26.7811E-03     10.5171E-03
             313     2.62868E-03     59.4926E-03    -22.2637E+06    -112.283E+06    -19.1052E+06     51.7447E+03    -26.9163E-03     53.7948E-03    -26.8786E-03     15.6346E-03    -26.8380E-03     53.2943E-03    -26.7790E-03     15.6273E-03
             314     3.50486E-03     59.5099E-03    -21.0525E+06    -110.328E+06    -15.5504E+06     92.1763E+03    -26.9539E-03     53.8427E-03    -26.8888E-03     20.8405E-03    -26.8784E-03     53.3459E-03    -26.7760E-03     20.8303E-03
             315     4.38114E-03     59.5322E-03    -19.4954E+06    -108.116E+06    -11.5016E+06     206.070E+03    -27.0049E-03     53.9046E-03    -26.8997E-03     26.0897E-03    -26.9320E-03     53.4120E-03    -26.7721E-03     26.0770E-03
             316     5.25736E-03     59.5594E-03    -17.7783E+06    -102.887E+06    -7.51980E+06     273.102E+03    -27.0637E-03     53.9684E-03    -26.9047E-03     31.3861E-03    -26.9973E-03     53.4955E-03    -26.7674E-03     31.3692E-03
             317     6.13365E-03     59.5919E-03    -16.1734E+06    -97.4521E+06    -3.87901E+06     471.867E+03    -27.1378E-03     54.0450E-03    -26.9073E-03     36.7050E-03    -27.0792E-03     53.5943E-03    -26.7619E-03     36.6844E-03
             318     7.00991E-03     59.6292E-03    -14.7526E+06    -92.9339E+06    -1.33843E+06     526.301E+03    -27.2293E-03     54.1350E-03    -26.9056E-03     42.0247E-03    -27.1777E-03     53.7049E-03    -26.7562E-03     41.9969E-03
             319     7.88620E-03     59.6718E-03    -13.3011E+06    -86.4784E+06    -348.331E+03     362.602E+03    -27.3317E-03     54.2249E-03    -26.8933E-03     47.3466E-03    -27.2891E-03     53.8292E-03    -26.7503E-03     47.3069E-03
             320     8.76250E-03     59.7192E-03    -11.9589E+06    -80.9165E+06     376.327E+03     448.352E+03    -27.4495E-03     54.3304E-03    -26.8809E-03     52.6383E-03    -27.4174E-03     53.9675E-03    -26.7444E-03     52.5873E-03
             321     9.63880E-03     59.7718E-03    -10.9863E+06    -76.2408E+06    -845.385E+03     563.044E+03    -27.5798E-03     54.4405E-03    -26.8607E-03     57.9315E-03    -27.5594E-03     54.1129E-03    -26.7385E-03     57.8666E-03
             322     10.5151E-03     59.8293E-03    -10.4508E+06    -67.6175E+06    -3.30239E+06     608.887E+03    -27.7173E-03     54.5468E-03    -26.8295E-03     63.1508E-03    -27.7203E-03     54.2822E-03    -26.7328E-03     63.0672E-03
             323     11.3914E-03     59.8919E-03    -10.2015E+06    -53.8612E+06    -2.89713E+06     296.753E+03    -27.8727E-03     54.6778E-03    -26.8051E-03     69.7428E-03    -27.9224E-03     54.5085E-03    -26.7267E-03     69.6310E-03
             324     12.2678E-03     59.9616E-03    -10.0668E+06    -39.0861E+06    -4.63858E+06    -9.88352E+03    -28.1199E-03     54.8877E-03    -26.7678E-03     78.1103E-03    -28.2317E-03     54.8385E-03    -26.7198E-03     77.9654E-03
             325     13.1442E-03     60.0402E-03    -10.8098E+06    -26.9150E+06    -13.1779E+06    -444.351E+03    -28.1501E-03     54.8518E-03    -26.7017E-03     80.8463E-03    -28.3326E-03     54.9387E-03    -26.7129E-03     80.6623E-03
             326     14.0219E-03     60.1146E-03    -10.4201E+06     4.91163E+06    -14.6767E+06    -149.667E+03    -28.3362E-03     54.9691E-03    -26.6329E-03     94.0318E-03    -28.7182E-03     55.3740E-03    -26.6983E-03     93.8170E-03
             327     14.8958E-03     60.2170E-03    -8.74267E+06     64.3750E+06    -8.79157E+06     1.11557E+06    -31.9083E-03     58.4550E-03    -26.5467E-03     157.292E-03    -33.3168E-03     60.0865E-03    -26.6713E-03     157.100E-03
             328     15.7744E-03     60.4170E-03    -7.92237E+06     131.455E+06     24.3397E+06     807.075E+03    -39.5280E-03     66.1225E-03    -26.5946E-03     262.497E-03    -46.0517E-03     73.0142E-03    -26.6520E-03     263.580E-03
             329     16.6496E-03     60.7274E-03    -5.17537E+06     173.294E+06     83.5294E+06     97.1461E+03    -37.2614E-03     64.0772E-03    -26.8158E-03     259.571E-03    -46.0377E-03     73.2081E-03    -26.6419E-03     264.521E-03
             330     876.177E-06     60.4727E-03    -23.7196E+06    -114.586E+06    -23.3040E+06     35.5001E+03    -26.8729E-03     53.7442E-03    -26.8713E-03     5.69807E-03    -26.7916E-03     53.2396E-03    -26.7873E-03     5.69582E-03
             331     1.75246E-03     60.4804E-03    -23.1692E+06    -113.745E+06    -21.6973E+06     88.3187E+03    -26.8905E-03     53.7640E-03    -26.8735E-03     10.5232E-03    -26.8103E-03     53.2607E-03    -26.7835E-03     10.5192E-03
             332     2.62862E-03     60.4927E-03    -22.3403E+06    -112.336E+06    -19.0529E+06     105.928E+03    -26.9187E-03     53.8000E-03    -26.8814E-03     15.6348E-03    -26.8408E-03     53.2993E-03    -26.7813E-03     15.6281E-03
             333     3.50489E-03     60.5101E-03    -21.1878E+06    -110.448E+06    -15.6137E+06     158.467E+03    -26.9554E-03     53.8466E-03    -26.8912E-03     20.8412E-03    -26.8803E-03     53.3494E-03    -26.7784E-03     20.8319E-03
             334     4.38109E-03     60.5323E-03    -19.7596E+06    -108.191E+06    -11.6529E+06     142.939E+03    -27.0055E-03     53.9072E-03    -26.9016E-03     26.0933E-03    -26.9335E-03     53.4147E-03    -26.7744E-03     26.0797E-03
             335     5.25736E-03     60.5597E-03    -18.1550E+06    -103.160E+06    -7.91756E+06     304.642E+03    -27.0651E-03     53.9710E-03    -26.9059E-03     31.3875E-03    -26.9997E-03     53.4978E-03    -26.7695E-03     31.3710E-03
             336     6.13362E-03     60.5919E-03    -16.4337E+06    -97.8311E+06    -4.25570E+06     563.471E+03    -27.1403E-03     54.0488E-03    -26.9085E-03     36.7022E-03    -27.0819E-03     53.5971E-03    -26.7641E-03     36.6828E-03
             337     7.00988E-03     60.6294E-03    -14.5658E+06    -92.8079E+06    -1.43165E+06     574.186E+03    -27.2337E-03     54.1407E-03    -26.9070E-03     42.0249E-03    -27.1812E-03     53.7112E-03    -26.7585E-03     41.9977E-03
             338     7.88617E-03     60.6718E-03    -13.0311E+06    -86.4064E+06    -347.623E+03     454.085E+03    -27.3362E-03     54.2314E-03    -26.8952E-03     47.3422E-03    -27.2924E-03     53.8356E-03    -26.7528E-03     47.3037E-03
             339     8.76246E-03     60.7194E-03    -11.8006E+06    -81.2018E+06     163.516E+03     474.264E+03    -27.4534E-03     54.3360E-03    -26.8825E-03     52.6415E-03    -27.4198E-03     53.9717E-03    -26.7469E-03     52.5909E-03
             340     9.63876E-03     60.7718E-03    -10.6621E+06    -76.3514E+06    -870.828E+03     612.719E+03    -27.5822E-03     54.4449E-03    -26.8627E-03     57.9298E-03    -27.5600E-03     54.1163E-03    -26.7409E-03     57.8655E-03
             341     10.5151E-03     60.8295E-03    -9.83229E+06    -67.9030E+06    -3.30033E+06     760.186E+03    -27.7033E-03     54.5339E-03    -26.8306E-03     63.1574E-03    -27.7027E-03     54.2669E-03    -26.7343E-03     63.0759E-03
             342     11.3915E-03     60.8918E-03    -9.28801E+06    -53.2091E+06    -2.19488E+06     708.044E+03    -27.8701E-03     54.6770E-03    -26.8069E-03     69.7007E-03    -27.9172E-03     54.5086E-03    -26.7273E-03     69.5943E-03
             343     12.2678E-03     60.9619E-03    -9.05674E+06    -38.9043E+06    -3.88106E+06     293.929E+03    -28.1048E-03     54.8747E-03    -26.7699E-03     77.9109E-03    -28.2129E-03     54.8238E-03    -26.7198E-03     77.7699E-03
             344     13.1444E-03     61.0398E-03    -8.68347E+06    -26.1242E+06    -10.7159E+06    -168.864E+03    -27.9967E-03     54.7019E-03    -26.7052E-03     80.1336E-03    -28.1716E-03     54.7844E-03    -26.7083E-03     79.9545E-03
             345     14.0199E-03     61.1145E-03    -9.16651E+06     4.38622E+06    -15.6526E+06    -437.006E+03    -28.5551E-03     55.1800E-03    -26.6249E-03     93.7382E-03    -28.9279E-03     55.5812E-03    -26.6963E-03     93.5174E-03
             346     14.8977E-03     61.2186E-03    -9.57756E+06     62.4189E+06    -12.0685E+06     115.189E+03    -32.4395E-03     58.9924E-03    -26.5530E-03     157.915E-03    -33.8608E-03     60.6363E-03    -26.6899E-03     157.702E-03
             347     15.7730E-03     61.4150E-03    -8.35125E+06     131.593E+06     25.5747E+06     671.182E+03    -39.3434E-03     65.9671E-03    -26.6237E-03     263.632E-03    -45.8874E-03     72.8745E-03    -26.6745E-03     264.750E-03
             348     16.6508E-03     61.7302E-03    -5.09927E+06     174.000E+06     84.9075E+06     498.521E+03    -36.9637E-03     63.7874E-03    -26.8236E-03     260.029E-03    -45.7313E-03     72.9083E-03    -26.6440E-03     265.027E-03
             349     876.242E-06     61.4729E-03    -23.7959E+06    -114.705E+06    -23.4523E+06     52.1830E+03    -26.8809E-03     53.7474E-03    -26.8665E-03     5.69780E-03    -26.7996E-03     53.2425E-03    -26.7829E-03     5.69577E-03
             350     1.75240E-03     61.4804E-03    -23.2817E+06    -113.867E+06    -21.7977E+06     133.972E+03    -26.8935E-03     53.7690E-03    -26.8755E-03     10.5273E-03    -26.8137E-03     53.2655E-03    -26.7856E-03     10.5239E-03
             351     2.62867E-03     61.4929E-03    -22.4082E+06    -112.452E+06    -19.1635E+06     206.048E+03    -26.9189E-03     53.8020E-03    -26.8832E-03     15.6378E-03    -26.8410E-03     53.3010E-03    -26.7834E-03     15.6325E-03
             352     3.50485E-03     61.5101E-03    -21.2332E+06    -110.530E+06    -15.6974E+06     225.179E+03    -26.9572E-03     53.8499E-03    -26.8927E-03     20.8429E-03    -26.8821E-03     53.3526E-03    -26.7802E-03     20.8344E-03
             353     4.38112E-03     61.5325E-03    -19.8597E+06    -108.287E+06    -11.7019E+06     310.924E+03    -27.0087E-03     53.9123E-03    -26.9036E-03     26.0946E-03    -26.9371E-03     53.4197E-03    -26.7763E-03     26.0832E-03
             354     5.25735E-03     61.5597E-03    -18.3868E+06    -103.474E+06    -8.23562E+06      416.35E+03    -27.0678E-03     53.9750E-03    -26.9072E-03     31.3904E-03    -27.0026E-03     53.5011E-03    -26.7717E-03     31.3753E-03
             355     6.13361E-03     61.5922E-03    -16.6118E+06    -97.9112E+06    -4.78972E+06     359.145E+03    -27.1407E-03     54.0490E-03    -26.9083E-03     36.7150E-03    -27.0823E-03     53.5979E-03    -26.7662E-03     36.6930E-03
             356     7.00989E-03     61.6294E-03    -14.7571E+06    -92.8929E+06    -1.66358E+06     347.161E+03    -27.2334E-03     54.1415E-03    -26.9081E-03     42.0394E-03    -27.1814E-03     53.7121E-03    -26.7603E-03     42.0093E-03
             357     7.88616E-03     61.6721E-03    -13.0769E+06    -86.4718E+06    -312.886E+03     481.303E+03    -27.3370E-03     54.2342E-03    -26.8972E-03     47.3515E-03    -27.2934E-03     53.8381E-03    -26.7544E-03     47.3133E-03
             358     8.76246E-03     61.7194E-03    -11.6682E+06    -81.2486E+06     251.527E+03     439.142E+03    -27.4535E-03     54.3379E-03    -26.8843E-03     52.6500E-03    -27.4193E-03     53.9731E-03    -26.7484E-03     52.5988E-03
             359     9.63877E-03     61.7721E-03    -10.5299E+06    -76.6134E+06    -860.578E+03     455.184E+03    -27.5905E-03     54.4551E-03    -26.8646E-03     57.9233E-03    -27.5673E-03     54.1251E-03    -26.7425E-03     57.8569E-03
             360     10.5151E-03     61.8294E-03    -9.67763E+06    -68.0914E+06    -3.09383E+06     594.319E+03    -27.7298E-03     54.5644E-03    -26.8346E-03     63.1134E-03    -27.7286E-03     54.2961E-03    -26.7373E-03     63.0296E-03
             361     11.3914E-03     61.8921E-03    -9.03845E+06    -53.3470E+06    -1.92837E+06     796.186E+03    -27.8943E-03     54.7071E-03    -26.8128E-03     69.6550E-03    -27.9403E-03     54.5373E-03    -26.7320E-03     69.5496E-03
             362     12.2677E-03     61.9619E-03    -8.90164E+06    -38.4158E+06    -3.15662E+06     922.192E+03    -28.1100E-03     54.8881E-03    -26.7781E-03     77.9000E-03    -28.2192E-03     54.8385E-03    -26.7253E-03     77.7671E-03
             363     13.1437E-03     62.0402E-03    -9.71298E+06    -25.3060E+06    -10.1979E+06     150.058E+03    -28.1222E-03     54.8399E-03    -26.7177E-03     80.2026E-03    -28.3050E-03     54.9279E-03    -26.7179E-03     80.0262E-03
             364     14.0212E-03     62.1140E-03    -9.93405E+06     4.30667E+06    -15.4520E+06    -518.572E+03    -28.5425E-03     55.1827E-03    -26.6402E-03     93.7287E-03    -28.9200E-03     55.5850E-03    -26.7093E-03     93.5070E-03
             365     14.8967E-03     62.2188E-03    -9.74432E+06     61.8052E+06    -12.3696E+06    -448.361E+03    -32.3790E-03     58.9427E-03    -26.5636E-03     157.694E-03    -33.8044E-03     60.5887E-03    -26.7010E-03     157.474E-03
             366     15.7735E-03     62.4163E-03    -8.91139E+06     131.014E+06     24.7494E+06     212.435E+03    -39.1116E-03     65.7391E-03    -26.6275E-03     262.711E-03    -45.6153E-03     72.6045E-03    -26.6808E-03     263.833E-03
             367     16.6507E-03     62.7276E-03    -5.48096E+06     174.115E+06     85.0914E+06     601.535E+03    -36.8404E-03     63.6654E-03    -26.8251E-03     260.512E-03    -45.6244E-03     72.8014E-03    -26.6441E-03     265.533E-03
             368     876.190E-06     62.4729E-03    -23.8958E+06    -114.884E+06    -23.5224E+06     94.4287E+03    -26.8756E-03     53.7509E-03    -26.8754E-03     5.70082E-03    -26.7945E-03     53.2455E-03    -26.7917E-03     5.69933E-03
             369     1.75244E-03     62.4806E-03    -23.3916E+06    -114.027E+06    -22.0105E+06     137.656E+03    -26.8954E-03     53.7720E-03    -26.8766E-03     10.5227E-03    -26.8155E-03     53.2682E-03    -26.7874E-03     10.5193E-03
             370     2.62862E-03     62.4929E-03    -22.4783E+06    -112.595E+06    -19.3781E+06     194.463E+03    -26.9202E-03     53.8044E-03    -26.8842E-03     15.6391E-03    -26.8422E-03     53.3030E-03    -26.7852E-03     15.6336E-03
             371     3.50488E-03     62.5103E-03    -21.2539E+06    -110.628E+06    -15.7792E+06     269.128E+03    -26.9599E-03     53.8542E-03    -26.8943E-03     20.8422E-03    -26.8847E-03     53.3565E-03    -26.7819E-03     20.8343E-03
             372     4.38108E-03     62.5325E-03    -19.7446E+06    -108.560E+06    -11.8413E+06     385.751E+03    -27.0122E-03     53.9172E-03    -26.9050E-03     26.0938E-03    -26.9393E-03     53.4232E-03    -26.7782E-03     26.0834E-03
             373     5.25733E-03     62.5599E-03    -17.9745E+06    -103.489E+06    -8.21696E+06     388.353E+03    -27.0702E-03     53.9787E-03    -26.9085E-03     31.3920E-03    -27.0029E-03     53.5041E-03    -26.7735E-03     31.3766E-03
             374     6.13361E-03     62.5922E-03    -16.2142E+06    -97.7670E+06    -4.44211E+06     207.090E+03    -27.1431E-03     54.0540E-03    -26.9109E-03     36.7197E-03    -27.0835E-03     53.6026E-03    -26.7678E-03     36.6957E-03
             375     7.00985E-03     62.6297E-03    -14.4697E+06    -93.1182E+06    -1.30809E+06     214.500E+03    -27.2349E-03     54.1463E-03    -26.9113E-03     42.0393E-03    -27.1817E-03     53.7149E-03    -26.7619E-03     42.0075E-03
             376     7.88616E-03     62.6720E-03    -12.7941E+06    -86.6111E+06     125.322E+03     303.453E+03    -27.3407E-03     54.2414E-03    -26.9007E-03     47.3449E-03    -27.2961E-03     53.8436E-03    -26.7560E-03     47.3043E-03
             377     8.76244E-03     62.7197E-03    -11.3223E+06    -81.2245E+06     819.524E+03     346.787E+03    -27.4664E-03     54.3552E-03    -26.8888E-03     52.6229E-03    -27.4313E-03     53.9892E-03    -26.7505E-03     52.5705E-03
             378     9.63874E-03     62.7720E-03    -10.1926E+06    -76.7258E+06    -466.090E+03     335.996E+03    -27.6153E-03     54.4852E-03    -26.8699E-03     57.8916E-03    -27.5909E-03     54.1536E-03    -26.7462E-03     57.8236E-03
             379     10.5150E-03     62.8298E-03    -9.42031E+06    -68.4453E+06    -2.86162E+06     524.772E+03    -27.7693E-03     54.6111E-03    -26.8418E-03     63.0962E-03    -27.7668E-03     54.3405E-03    -26.7432E-03     63.0112E-03
             380     11.3913E-03     62.8920E-03    -8.91021E+06    -53.6040E+06    -1.91048E+06     709.597E+03    -27.8959E-03     54.7161E-03    -26.8202E-03     69.6307E-03    -27.9410E-03     54.5448E-03    -26.7391E-03     69.5241E-03
             381     12.2676E-03     62.9623E-03    -8.09923E+06    -38.9125E+06    -2.87199E+06     1.06516E+06    -28.1182E-03     54.9042E-03    -26.7860E-03     77.8097E-03    -28.2232E-03     54.8506E-03    -26.7322E-03     77.6785E-03
             382     13.1446E-03     63.0399E-03    -8.01775E+06    -23.6770E+06    -9.27745E+06     1.17237E+06    -28.1849E-03     54.9111E-03    -26.7262E-03     80.0923E-03    -28.3632E-03     55.0038E-03    -26.7266E-03     79.9285E-03
             383     14.0193E-03     63.1150E-03    -9.14214E+06     5.15362E+06    -16.0121E+06    -124.676E+03    -28.6607E-03     55.3093E-03    -26.6486E-03     93.7881E-03    -29.0368E-03     55.7177E-03    -26.7229E-03     93.5699E-03
             384     14.8966E-03     63.2181E-03    -9.92672E+06     60.3930E+06    -13.8312E+06    -625.183E+03    -32.5430E-03     59.1212E-03    -26.5783E-03     158.169E-03    -33.9730E-03     60.7706E-03    -26.7206E-03     157.944E-03
             385     15.7729E-03     63.4172E-03    -9.30186E+06     130.573E+06     24.5977E+06     64.9118E+03    -39.1622E-03     65.8195E-03    -26.6573E-03     261.164E-03    -45.5990E-03     72.6155E-03    -26.7102E-03     262.274E-03
             386     16.6503E-03     63.7255E-03    -5.43812E+06     174.238E+06     85.5000E+06     336.373E+03    -36.4550E-03     63.3105E-03    -26.8555E-03     260.371E-03    -45.2378E-03     72.4446E-03    -26.6727E-03     265.439E-03
             387     876.223E-06     63.4732E-03    -24.0217E+06    -115.037E+06    -23.7167E+06     99.0550E+03    -26.8770E-03     53.7561E-03    -26.8791E-03     5.71603E-03    -26.7960E-03     53.2504E-03    -26.7961E-03     5.71458E-03
             388     1.75240E-03     63.4806E-03    -23.4819E+06    -114.149E+06    -22.1295E+06     87.3452E+03    -26.8961E-03     53.7749E-03    -26.8788E-03     10.5207E-03    -26.8163E-03     53.2707E-03    -26.7899E-03     10.5167E-03
             389     2.62865E-03     63.4931E-03    -22.5800E+06    -112.714E+06    -19.5153E+06     131.145E+03    -26.9222E-03     53.8080E-03    -26.8859E-03     15.6404E-03    -26.8443E-03     53.3064E-03    -26.7873E-03     15.6341E-03
             390     3.50484E-03     63.5104E-03    -21.3281E+06    -110.822E+06    -15.9776E+06     225.243E+03    -26.9609E-03     53.8564E-03    -26.8956E-03     20.8482E-03    -26.8854E-03     53.3582E-03    -26.7839E-03     20.8398E-03
             391     4.38109E-03     63.5328E-03    -19.7519E+06    -108.674E+06    -11.9798E+06     245.907E+03    -27.0128E-03     53.9190E-03    -26.9061E-03     26.0989E-03    -26.9396E-03     53.4246E-03    -26.7798E-03     26.0866E-03
             392     5.25734E-03     63.5599E-03    -18.0562E+06    -103.500E+06    -8.18583E+06     223.531E+03    -27.0713E-03     53.9816E-03    -26.9103E-03     31.3994E-03    -27.0045E-03     53.5070E-03    -26.7750E-03     31.3818E-03
             393     6.13357E-03     63.5925E-03    -16.3410E+06    -97.6130E+06    -4.38125E+06     191.048E+03    -27.1449E-03     54.0576E-03    -26.9127E-03     36.7263E-03    -27.0861E-03     53.6070E-03    -26.7694E-03     36.7021E-03
             394     7.00988E-03     63.6297E-03    -14.6383E+06    -93.2188E+06    -1.35142E+06     97.2373E+03    -27.2409E-03     54.1543E-03    -26.9134E-03     42.0403E-03    -27.1883E-03     53.7227E-03    -26.7638E-03     42.0070E-03
             395     7.88612E-03     63.6724E-03    -12.9781E+06    -86.7094E+06     66.3619E+03     129.539E+03    -27.3510E-03     54.2545E-03    -26.9035E-03     47.3475E-03    -27.3071E-03     53.8566E-03    -26.7586E-03     47.3047E-03
             396     8.76241E-03     63.7197E-03    -11.4958E+06    -81.2693E+06     841.525E+03     157.144E+03    -27.4809E-03     54.3738E-03    -26.8929E-03     52.6292E-03    -27.4467E-03     54.0078E-03    -26.7542E-03     52.5743E-03
             397     9.63865E-03     63.7724E-03    -10.3150E+06    -76.8345E+06    -441.645E+03     265.399E+03    -27.6405E-03     54.5160E-03    -26.8755E-03     57.9223E-03    -27.6166E-03     54.1840E-03    -26.7513E-03     57.8532E-03
             398     10.5149E-03     63.8297E-03    -9.46981E+06    -68.7505E+06    -2.88067E+06     370.504E+03    -27.7743E-03     54.6225E-03    -26.8482E-03     63.1271E-03    -27.7715E-03     54.3504E-03    -26.7492E-03     63.0401E-03
             399     11.3912E-03     63.8925E-03    -8.73145E+06    -53.9783E+06    -1.96192E+06     700.771E+03    -27.9223E-03     54.7491E-03    -26.8269E-03     69.5977E-03    -27.9659E-03     54.5759E-03    -26.7457E-03     69.4908E-03
             400     12.2677E-03     63.9619E-03    -8.39721E+06    -39.2242E+06    -2.97652E+06     788.395E+03    -28.2229E-03     55.0200E-03    -26.7971E-03     77.8637E-03    -28.3293E-03     54.9660E-03    -26.7429E-03     77.7279E-03
             401     13.1431E-03     64.0408E-03    -7.82714E+06    -24.0521E+06    -8.86220E+06     1.15061E+06    -28.1080E-03     54.8476E-03    -26.7396E-03     80.0541E-03    -28.2847E-03     54.9368E-03    -26.7377E-03     79.8910E-03
             402     14.0211E-03     64.1143E-03    -8.47065E+06      6.6007E+06    -12.8396E+06     1.39265E+06    -28.5258E-03     55.1905E-03    -26.6647E-03     94.0667E-03    -28.9056E-03     55.6009E-03    -26.7262E-03     93.8692E-03
             403     14.8966E-03     64.2193E-03    -10.1992E+06     60.9069E+06    -12.5170E+06     159.647E+03    -32.6422E-03     59.2261E-03    -26.5839E-03     159.071E-03    -34.0802E-03     60.8804E-03    -26.7200E-03     158.855E-03
             404     15.7719E-03     64.4177E-03    -9.22106E+06     129.940E+06     22.8850E+06    -349.580E+03    -39.7071E-03     66.3699E-03    -26.6629E-03     261.711E-03    -46.1559E-03     73.1810E-03    -26.7235E-03     262.775E-03
             405     16.6481E-03     64.7244E-03    -5.22789E+06     174.396E+06     84.9980E+06    -54.7413E+03    -36.4386E-03     63.3174E-03    -26.8788E-03     259.798E-03    -45.2120E-03     72.4449E-03    -26.6991E-03     264.856E-03
             406     876.194E-06     64.4732E-03    -24.1132E+06    -115.116E+06    -23.7823E+06    -5.20154E+03    -26.8901E-03     53.7602E-03    -26.8701E-03     5.71878E-03    -26.8094E-03     53.2543E-03    -26.7871E-03     5.71598E-03
             407     1.75243E-03     64.4809E-03    -23.5516E+06    -114.207E+06    -22.1702E+06     55.5058E+03    -26.8973E-03     53.7782E-03    -26.8809E-03     10.5207E-03    -26.8177E-03     53.2739E-03    -26.7920E-03     10.5163E-03
             408     2.62862E-03     64.4932E-03    -22.6804E+06    -112.837E+06    -19.6093E+06     93.8561E+03    -26.9224E-03     53.8098E-03    -26.8874E-03     15.6451E-03    -26.8447E-03     53.3079E-03    -26.7889E-03     15.6383E-03
             409     3.50486E-03     64.5106E-03    -21.4400E+06    -110.927E+06    -16.1119E+06     108.452E+03    -26.9606E-03     53.8572E-03    -26.8965E-03     20.8540E-03    -26.8854E-03     53.3587E-03    -26.7852E-03     20.8440E-03
             410     4.38109E-03     64.5328E-03    -19.9014E+06    -108.709E+06    -11.9734E+06     118.864E+03    -27.0131E-03     53.9207E-03    -26.9076E-03     26.1043E-03    -26.9407E-03     53.4264E-03    -26.7809E-03     26.0904E-03
             411     5.25731E-03     64.5602E-03    -18.1814E+06    -103.535E+06    -8.15290E+06     125.916E+03    -27.0730E-03     53.9849E-03    -26.9119E-03     31.4042E-03    -27.0068E-03     53.5102E-03    -26.7762E-03     31.3853E-03
             412     6.13360E-03     64.5924E-03    -16.4130E+06    -97.6349E+06    -4.40133E+06     150.164E+03    -27.1485E-03     54.0627E-03    -26.9142E-03     36.7342E-03    -27.0901E-03     53.6122E-03    -26.7708E-03     36.7094E-03
             413     7.00982E-03     64.6300E-03    -14.7139E+06    -93.0829E+06    -1.34705E+06       104.5E+03    -27.2482E-03     54.1636E-03    -26.9153E-03     42.0496E-03    -27.1962E-03     53.7328E-03    -26.7658E-03     42.0163E-03
             414     7.88612E-03     64.6723E-03    -13.1752E+06    -86.8221E+06    -124.321E+03     19.1462E+03    -27.3546E-03     54.2600E-03    -26.9054E-03     47.3677E-03    -27.3113E-03     53.8621E-03    -26.7610E-03     47.3235E-03
             415     8.76236E-03     64.7201E-03    -11.8012E+06    -81.2442E+06     662.536E+03     48.1903E+03    -27.4851E-03     54.3801E-03    -26.8950E-03     52.6774E-03    -27.4521E-03     54.0149E-03    -26.7568E-03     52.6211E-03
             416     9.63867E-03     64.7724E-03    -10.6040E+06    -77.0530E+06    -651.607E+03     76.1379E+03    -27.6384E-03     54.5160E-03    -26.8776E-03     57.9937E-03    -27.6154E-03     54.1836E-03    -26.7537E-03     57.9223E-03
             417     10.5148E-03     64.8303E-03    -9.66329E+06    -68.7579E+06    -3.08725E+06     132.957E+03    -27.7592E-03     54.6081E-03    -26.8489E-03     63.1777E-03    -27.7570E-03     54.3364E-03    -26.7506E-03     63.0878E-03
             418     11.3913E-03     64.8922E-03    -8.78356E+06    -54.6389E+06    -2.31855E+06     307.591E+03    -27.9717E-03     54.8000E-03    -26.8283E-03     69.7857E-03    -28.0144E-03     54.6242E-03    -26.7479E-03     69.6735E-03
             419     12.2672E-03     64.9628E-03    -7.96030E+06    -39.5700E+06    -3.29772E+06     999.903E+03    -28.1771E-03     54.9740E-03    -26.7969E-03     78.1000E-03    -28.2802E-03     54.9179E-03    -26.7444E-03     77.9676E-03
             420     13.1443E-03     65.0405E-03    -8.36659E+06    -24.8500E+06    -10.4052E+06     1.28064E+06    -28.1054E-03     54.8384E-03    -26.7330E-03     80.1436E-03    -28.2814E-03     54.9267E-03    -26.7369E-03     79.9822E-03
             421     14.0195E-03     65.1142E-03    -8.26223E+06     6.67427E+06    -13.0237E+06     1.36816E+06    -28.5703E-03     55.2340E-03    -26.6637E-03     94.0983E-03    -28.9506E-03     55.6464E-03    -26.7265E-03     93.8994E-03
             422     14.8968E-03     65.2198E-03    -7.77775E+06     62.7428E+06    -11.2787E+06     1.28695E+06    -32.0532E-03     58.6212E-03    -26.5680E-03     159.196E-03    -33.4754E-03     60.2713E-03    -26.7041E-03     159.009E-03
             423     15.7743E-03     65.4185E-03    -7.66092E+06     130.322E+06     22.4168E+06     207.297E+03    -39.4579E-03     66.0690E-03    -26.6110E-03     263.746E-03    -45.9766E-03     72.9581E-03    -26.6768E-03     264.824E-03
             424     16.6496E-03     65.7278E-03    -4.96138E+06     174.422E+06     84.6027E+06    -187.854E+03    -37.2498E-03     64.0864E-03    -26.8366E-03     259.559E-03    -46.0258E-03     73.2187E-03    -26.6593E-03     264.517E-03
             425     876.210E-06     65.4734E-03    -24.1377E+06    -115.146E+06    -23.8019E+06    -3.75430E+03    -26.8988E-03     53.7638E-03    -26.8650E-03     5.71250E-03    -26.8181E-03     53.2577E-03    -26.7820E-03     5.70973E-03
             426     1.75240E-03     65.4809E-03    -23.6292E+06    -114.290E+06    -22.2515E+06     35.4185E+03    -26.8964E-03     53.7784E-03    -26.8820E-03     10.5196E-03    -26.8170E-03     53.2739E-03    -26.7933E-03     10.5149E-03
             427     2.62863E-03     65.4934E-03    -22.7530E+06    -112.884E+06    -19.6325E+06     63.2346E+03    -26.9225E-03     53.8107E-03    -26.8882E-03     15.6478E-03    -26.8450E-03     53.3086E-03    -26.7897E-03     15.6406E-03
             428     3.50485E-03     65.5106E-03    -21.5585E+06    -110.968E+06    -16.1229E+06     69.7728E+03    -26.9609E-03     53.8582E-03    -26.8974E-03     20.8577E-03    -26.8861E-03     53.3598E-03    -26.7858E-03     20.8472E-03
             429     4.38107E-03     65.5330E-03    -20.0727E+06    -108.715E+06    -12.0484E+06     50.9813E+03    -27.0126E-03     53.9206E-03    -26.9081E-03     26.1122E-03    -26.9408E-03     53.4266E-03    -26.7816E-03     26.0974E-03
             430     5.25734E-03     65.5602E-03    -18.4268E+06    -103.613E+06    -8.25983E+06     80.5029E+03    -27.0744E-03     53.9869E-03    -26.9125E-03     31.4154E-03    -27.0091E-03     53.5124E-03    -26.7768E-03     31.3960E-03
             431     6.13354E-03     65.5927E-03    -16.7561E+06    -97.6945E+06    -4.72635E+06     130.376E+03    -27.1484E-03     54.0623E-03    -26.9139E-03     36.7491E-03    -27.0911E-03     53.6125E-03    -26.7716E-03     36.7241E-03
             432     7.00986E-03     65.6300E-03    -15.0780E+06    -93.0089E+06    -1.75379E+06     113.449E+03    -27.2424E-03     54.1566E-03    -26.9142E-03     42.0819E-03    -27.1917E-03     53.7273E-03    -26.7662E-03     42.0488E-03
             433     7.88607E-03     65.6727E-03    -13.5506E+06    -86.7194E+06    -461.714E+03     27.4073E+03    -27.3501E-03     54.2541E-03    -26.9040E-03     47.3978E-03    -27.3083E-03     53.8577E-03    -26.7609E-03     47.3537E-03
             434     8.76241E-03     65.7200E-03    -12.1786E+06    -81.3307E+06     235.293E+03    -40.2325E+03    -27.4709E-03     54.3634E-03    -26.8926E-03     52.7356E-03    -27.4391E-03     53.9990E-03    -26.7558E-03     52.6783E-03
             435     9.63861E-03     65.7729E-03    -11.0315E+06    -76.9507E+06    -985.831E+03    -103.001E+03    -27.6014E-03     54.4745E-03    -26.8731E-03     58.0576E-03    -27.5800E-03     54.1437E-03    -26.7505E-03     57.9841E-03
             436     10.5150E-03     65.8301E-03    -10.1617E+06    -68.9803E+06    -3.59430E+06    -110.553E+03    -27.7465E-03     54.5888E-03    -26.8422E-03     63.2620E-03    -27.7457E-03     54.3174E-03    -26.7455E-03     63.1691E-03
             437     11.3912E-03     65.8928E-03    -9.51094E+06    -54.6428E+06    -2.62235E+06    -104.819E+03    -27.9399E-03     54.7611E-03    -26.8212E-03     69.9915E-03    -27.9857E-03     54.5868E-03    -26.7413E-03     69.8742E-03
             438     12.2677E-03     65.9628E-03    -8.49771E+06    -40.7625E+06    -3.86588E+06     150.502E+03    -28.1492E-03     54.9375E-03    -26.7883E-03     77.9706E-03    -28.2521E-03     54.8767E-03    -26.7362E-03     77.8276E-03
             439     13.1438E-03     66.0404E-03    -6.75617E+06    -25.1058E+06    -9.78951E+06     966.499E+03    -28.1618E-03     54.8891E-03    -26.7273E-03     80.1279E-03    -28.3310E-03     54.9737E-03    -26.7301E-03     79.9617E-03
             440     14.0207E-03     66.1153E-03    -6.30111E+06     6.38534E+06    -12.1210E+06     1.25052E+06    -28.5385E-03     55.1982E-03    -26.6597E-03     94.2501E-03    -28.9111E-03     55.6063E-03    -26.7205E-03     94.0497E-03
             441     14.8965E-03     66.2188E-03    -6.61993E+06     62.0319E+06    -10.6602E+06     1.33237E+06    -31.8235E-03     58.3822E-03    -26.5588E-03     158.460E-03    -33.2343E-03     60.0207E-03    -26.6924E-03     158.277E-03
             442     15.7746E-03     66.4168E-03    -6.73600E+06     132.365E+06     27.1664E+06     2.00217E+06    -38.5862E-03     65.1764E-03    -26.5902E-03     263.700E-03    -45.0832E-03     72.0405E-03    -26.6365E-03     264.875E-03
             443     16.6526E-03     66.7312E-03    -5.62164E+06     175.396E+06     87.6695E+06     660.671E+03    -37.5078E-03     64.3014E-03    -26.7936E-03     259.601E-03    -46.2495E-03     73.3916E-03    -26.6014E-03     264.542E-03
             444     876.195E-06     66.4734E-03    -24.3271E+06    -115.194E+06    -23.9029E+06    -6.04578E+03    -26.8844E-03     53.7603E-03    -26.8759E-03     5.69495E-03    -26.8044E-03     53.2544E-03    -26.7931E-03     5.69217E-03
             445     1.75242E-03     66.4811E-03    -23.7421E+06    -114.336E+06    -22.2539E+06     44.9638E+03    -26.8960E-03     53.7772E-03    -26.8812E-03     10.5269E-03    -26.8171E-03     53.2727E-03    -26.7923E-03     10.5223E-03
             446     2.62863E-03     66.4934E-03    -22.8467E+06    -112.930E+06    -19.6721E+06     62.3871E+03    -26.9232E-03     53.8109E-03    -26.8877E-03     15.6517E-03    -26.8461E-03     53.3089E-03    -26.7892E-03     15.6445E-03
             447     3.50484E-03     66.5109E-03    -21.6364E+06    -110.984E+06    -16.2180E+06     62.1015E+03    -26.9603E-03     53.8571E-03    -26.8968E-03     20.8642E-03    -26.8858E-03     53.3588E-03    -26.7856E-03     20.8536E-03
             448     4.38110E-03     66.5331E-03    -20.1772E+06    -108.723E+06    -12.1364E+06     71.2921E+03    -27.0126E-03     53.9202E-03    -26.9076E-03     26.1190E-03    -26.9412E-03     53.4264E-03    -26.7813E-03     26.1045E-03
             449     5.25730E-03     66.5605E-03    -18.5794E+06    -103.729E+06     -8.4065E+06     122.522E+03    -27.0709E-03     53.9827E-03    -26.9118E-03     31.4264E-03    -27.0060E-03     53.5080E-03    -26.7764E-03     31.4075E-03
             450     6.13361E-03     66.5927E-03    -16.8998E+06    -97.7138E+06    -4.96085E+06     146.221E+03    -27.1416E-03     54.0535E-03    -26.9120E-03     36.7665E-03    -27.0847E-03     53.6041E-03    -26.7706E-03     36.7417E-03
             451     7.00982E-03     66.6303E-03    -15.2451E+06    -93.0031E+06    -1.98274E+06     126.719E+03    -27.2301E-03     54.1413E-03    -26.9112E-03     42.0998E-03    -27.1799E-03     53.7126E-03    -26.7641E-03     42.0669E-03
             452     7.88618E-03     66.6727E-03    -13.7228E+06    -86.5910E+06    -644.949E+03     83.2685E+03    -27.3368E-03     54.2366E-03    -26.8999E-03     47.4319E-03    -27.2957E-03     53.8414E-03    -26.7576E-03     47.3886E-03
             453     8.76237E-03     66.7204E-03    -12.4924E+06    -81.2735E+06     11.2585E+03    -23.4761E+03    -27.4463E-03     54.3333E-03    -26.8870E-03     52.7497E-03    -27.4158E-03     53.9699E-03    -26.7510E-03     52.6927E-03
             454     9.63882E-03     66.7727E-03    -11.5232E+06    -76.8862E+06    -1.24422E+06    -89.9270E+03    -27.5643E-03     54.4298E-03    -26.8655E-03     58.0571E-03    -27.5451E-03     54.1003E-03    -26.7435E-03     57.9839E-03
             455     10.5150E-03     66.8305E-03    -10.9574E+06    -68.9518E+06    -3.88020E+06    -131.954E+03    -27.7210E-03     54.5540E-03    -26.8330E-03     63.3197E-03    -27.7238E-03     54.2844E-03    -26.7366E-03     63.2267E-03
             456     11.3915E-03     66.8927E-03    -10.5579E+06    -54.7052E+06    -3.22956E+06    -113.155E+03    -27.8844E-03     54.6931E-03    -26.8087E-03     69.9903E-03    -27.9343E-03     54.5207E-03    -26.7302E-03     69.8734E-03
             457     12.2676E-03     66.9632E-03    -10.1827E+06    -40.3214E+06    -4.45481E+06    -609.943E+03    -28.1786E-03     54.9547E-03    -26.7761E-03     78.1145E-03    -28.2896E-03     54.8993E-03    -26.7251E-03     77.9618E-03
             458     13.1439E-03     67.0407E-03    -10.1982E+06    -27.2603E+06    -12.3586E+06    -361.572E+03    -28.2289E-03     54.9446E-03    -26.7157E-03     80.2211E-03    -28.4086E-03     55.0272E-03    -26.7232E-03     80.0376E-03
             459     14.0201E-03     67.1149E-03    -9.89760E+06     6.50176E+06    -11.3324E+06     1.00009E+06    -28.5493E-03     55.2158E-03    -26.6665E-03     93.6778E-03    -28.9395E-03     55.6268E-03    -26.7182E-03     93.4746E-03
             460     14.8976E-03     67.2191E-03    -11.0496E+06     63.1733E+06    -8.17637E+06     807.801E+03    -32.5611E-03     59.1619E-03    -26.6008E-03     157.182E-03    -34.0079E-03     60.8175E-03    -26.7173E-03     156.973E-03
             461     15.7730E-03     67.4163E-03    -9.69067E+06     129.316E+06     22.1067E+06     760.685E+03    -38.7710E-03     65.4122E-03    -26.6412E-03     259.815E-03    -45.1584E-03     72.1602E-03    -26.7041E-03     260.953E-03
             462     16.6522E-03     67.7272E-03    -4.06664E+06     175.866E+06     84.9210E+06     1.45067E+06    -36.0994E-03     62.9273E-03    -26.8279E-03     259.367E-03    -44.7724E-03     71.9640E-03    -26.6524E-03     264.379E-03
             463     876.212E-06     67.4737E-03    -24.3965E+06    -115.242E+06    -23.9736E+06     46.3105E+03    -26.8626E-03     53.7530E-03    -26.8903E-03     5.69194E-03    -26.7829E-03     53.2471E-03    -26.8077E-03     5.68984E-03
             464     1.75242E-03     67.4812E-03    -23.8498E+06    -114.383E+06    -22.3454E+06     60.7603E+03    -26.8964E-03     53.7748E-03    -26.8784E-03     10.5288E-03    -26.8178E-03     53.2702E-03    -26.7896E-03     10.5245E-03
             465     2.62863E-03     67.4937E-03    -22.9631E+06    -112.972E+06    -19.7597E+06     67.3550E+03    -26.9229E-03     53.8089E-03    -26.8860E-03     15.6524E-03    -26.8462E-03     53.3069E-03    -26.7876E-03     15.6452E-03
             466     3.50487E-03     67.5109E-03    -21.7481E+06    -111.004E+06    -16.2407E+06     67.1861E+03    -26.9602E-03     53.8560E-03    -26.8958E-03     20.8661E-03    -26.8862E-03     53.3578E-03    -26.7845E-03     20.8556E-03
             467     4.38107E-03     67.5333E-03    -20.2832E+06    -108.811E+06    -12.2387E+06     117.855E+03    -27.0090E-03     53.9152E-03    -26.9062E-03     26.1237E-03    -26.9379E-03     53.4213E-03    -26.7802E-03     26.1098E-03
             468     5.25735E-03     67.5605E-03    -18.6399E+06    -103.776E+06    -8.47070E+06     142.804E+03    -27.0637E-03     53.9735E-03    -26.9098E-03     31.4332E-03    -26.9989E-03     53.4987E-03    -26.7746E-03     31.4146E-03
             469     6.13357E-03     67.5930E-03    -16.9497E+06    -97.7752E+06    -4.94084E+06     164.993E+03    -27.1309E-03     54.0403E-03    -26.9094E-03     36.7733E-03    -27.0742E-03     53.5907E-03    -26.7678E-03     36.7489E-03
             470     7.00991E-03     67.6303E-03    -15.3118E+06    -92.9841E+06    -2.11360E+06     184.362E+03    -27.2186E-03     54.1253E-03    -26.9067E-03     42.1053E-03    -27.1685E-03     53.6969E-03    -26.7603E-03     42.0732E-03
             471     7.88613E-03     67.6729E-03    -13.8713E+06    -86.5930E+06    -824.229E+03     172.261E+03    -27.3149E-03     54.2089E-03    -26.8939E-03     47.4413E-03    -27.2744E-03     53.8140E-03    -26.7524E-03     47.3993E-03
             472     8.76255E-03     67.7203E-03    -12.6133E+06    -81.0889E+06    -101.799E+03     119.987E+03    -27.4281E-03     54.3078E-03    -26.8797E-03     52.7354E-03    -27.3983E-03     53.9456E-03    -26.7443E-03     52.6803E-03
             473     9.63873E-03     67.7730E-03    -11.7214E+06    -76.9859E+06    -1.53276E+06     110.279E+03    -27.5558E-03     54.4130E-03    -26.8573E-03     58.0241E-03    -27.5370E-03     54.0837E-03    -26.7363E-03     57.9535E-03
             474     10.5152E-03     67.8304E-03    -11.1447E+06    -68.7696E+06    -4.21945E+06     79.5736E+03    -27.6839E-03     54.5068E-03    -26.8230E-03     63.3242E-03    -27.6872E-03     54.2388E-03    -26.7282E-03     63.2342E-03
             475     11.3914E-03     67.8931E-03    -10.7062E+06    -54.6823E+06    -3.71317E+06    -19.0179E+03    -27.8355E-03     54.6310E-03    -26.7955E-03     69.9585E-03    -27.8852E-03     54.4593E-03    -26.7192E-03     69.8433E-03
             476     12.2680E-03     67.9629E-03    -10.5336E+06    -39.5935E+06    -5.04201E+06    -230.636E+03    -28.0920E-03     54.8495E-03    -26.7575E-03     78.2725E-03    -28.2045E-03     54.7986E-03    -26.7100E-03     78.1256E-03
             477     13.1443E-03     68.0414E-03    -10.5194E+06    -27.7645E+06    -13.4349E+06    -615.888E+03    -28.3508E-03     55.0486E-03    -26.6978E-03     80.5058E-03    -28.5299E-03     55.1307E-03    -26.7094E-03     80.3185E-03
             478     14.0203E-03     68.1150E-03    -10.8648E+06     4.99590E+06    -15.3844E+06     23.3123E+03    -29.1404E-03     55.7985E-03    -26.6581E-03     93.7949E-03    -29.5311E-03     56.2130E-03    -26.7266E-03     93.5727E-03
             479     14.8955E-03     68.2193E-03    -10.9423E+06     64.3157E+06    -9.72279E+06     2.22279E+06    -32.2783E-03     58.8829E-03    -26.6046E-03     158.414E-03    -33.7067E-03     60.5290E-03    -26.7306E-03     158.238E-03
             480     15.7699E-03     68.4189E-03    -9.90755E+06     128.620E+06     19.4591E+06     1.71128E+06    -38.5302E-03     65.1386E-03    -26.6084E-03     264.379E-03    -45.0711E-03     72.0442E-03    -26.6833E-03     265.550E-03
             481     16.6449E-03     68.7208E-03    -4.56005E+06     175.158E+06     81.2578E+06    -373.152E+03    -36.8828E-03     63.6575E-03    -26.7747E-03     265.893E-03    -45.8858E-03     73.0305E-03    -26.6158E-03     270.954E-03
             482     876.214E-06     68.4737E-03    -24.4228E+06    -115.338E+06    -24.1302E+06     75.3390E+03    -26.8733E-03     53.7509E-03    -26.8776E-03     5.70196E-03    -26.7933E-03     53.2448E-03    -26.7956E-03     5.70023E-03
             483     1.75241E-03     68.4814E-03    -23.9526E+06    -114.456E+06    -22.5053E+06     87.5705E+03    -26.8940E-03     53.7707E-03    -26.8767E-03     10.5261E-03    -26.8156E-03     53.2662E-03    -26.7885E-03     10.5221E-03
             484     2.62865E-03     68.4937E-03    -23.0828E+06    -113.010E+06    -19.7998E+06     107.833E+03    -26.9204E-03     53.8048E-03    -26.8845E-03     15.6525E-03    -26.8441E-03     53.3029E-03    -26.7862E-03     15.6459E-03
             485     3.50484E-03     68.5111E-03    -21.9234E+06    -111.066E+06    -16.2854E+06     136.864E+03    -26.9560E-03     53.8501E-03    -26.8941E-03     20.8685E-03    -26.8827E-03     53.3519E-03    -26.7827E-03     20.8589E-03
             486     4.38111E-03     68.5333E-03    -20.4399E+06    -108.843E+06    -12.3142E+06     114.579E+03    -27.0024E-03     53.9062E-03    -26.9037E-03     26.1266E-03    -26.9319E-03     53.4124E-03    -26.7778E-03     26.1127E-03
             487     5.25732E-03     68.5607E-03    -18.7825E+06    -103.873E+06    -8.62168E+06     152.425E+03    -27.0559E-03     53.9622E-03    -26.9063E-03     31.4349E-03    -26.9915E-03     53.4874E-03    -26.7715E-03     31.4165E-03
             488     6.13365E-03     68.5930E-03    -17.1361E+06    -97.8365E+06    -5.17638E+06     216.286E+03    -27.1203E-03     54.0250E-03    -26.9047E-03     36.7726E-03    -27.0641E-03     53.5756E-03    -26.7639E-03     36.7488E-03
             489     7.00988E-03     68.6305E-03    -15.4930E+06    -92.9926E+06    -2.44963E+06     202.388E+03    -27.2050E-03     54.1054E-03    -26.9004E-03     42.1054E-03    -27.1553E-03     53.6777E-03    -26.7554E-03     42.0735E-03
             490     7.88626E-03     68.6729E-03    -13.8891E+06    -86.5895E+06    -1.17592E+06     174.691E+03    -27.3002E-03     54.1865E-03    -26.8863E-03     47.4308E-03    -27.2592E-03     53.7922E-03    -26.7465E-03     47.3889E-03
             491     8.76250E-03     68.7205E-03    -12.5618E+06    -81.0929E+06    -498.965E+03     197.488E+03    -27.4144E-03     54.2852E-03    -26.8708E-03     52.7307E-03    -27.3836E-03     53.9235E-03    -26.7375E-03     52.6767E-03
             492     9.63897E-03     68.7729E-03    -11.4086E+06    -76.9616E+06    -1.68768E+06     169.212E+03    -27.5619E-03     54.4112E-03    -26.8493E-03     58.0120E-03    -27.5413E-03     54.0819E-03    -26.7296E-03     57.9421E-03
             493     10.5151E-03     68.8306E-03    -10.6789E+06    -68.8747E+06    -4.44224E+06     232.944E+03    -27.6623E-03     54.4768E-03    -26.8145E-03     63.2632E-03    -27.6627E-03     54.2078E-03    -26.7214E-03     63.1753E-03
             494     11.3917E-03     68.8930E-03    -10.2401E+06    -54.3993E+06    -3.65688E+06     108.920E+03    -27.7860E-03     54.5717E-03    -26.7857E-03     69.9056E-03    -27.8336E-03     54.4004E-03    -26.7102E-03     69.7924E-03
             495     12.2680E-03     68.9631E-03    -9.87927E+06    -39.6645E+06    -5.12595E+06     137.888E+03    -27.9873E-03     54.7296E-03    -26.7423E-03     78.2025E-03    -28.0957E-03     54.6770E-03    -26.6961E-03     78.0613E-03
             496     13.1446E-03     69.0412E-03    -10.0630E+06    -27.0231E+06    -12.2326E+06    -21.0032E+03    -28.1152E-03     54.7923E-03    -26.6770E-03     81.1164E-03    -28.2939E-03     54.8748E-03    -26.6844E-03     80.9390E-03
             497     14.0204E-03     69.1166E-03    -10.9456E+06     3.25796E+06    -17.5494E+06     88.4039E+03    -29.1305E-03     55.7452E-03    -26.6146E-03     95.7490E-03    -29.5202E-03     56.1585E-03    -26.6912E-03     95.5273E-03
             498     14.8956E-03     69.2209E-03    -9.18597E+06     61.9008E+06    -13.3175E+06     1.49395E+06    -31.5023E-03     58.0356E-03    -26.5333E-03     157.103E-03    -32.8770E-03     59.6359E-03    -26.6763E-03     156.938E-03
             499     15.7805E-03     69.4131E-03    -5.84452E+06     133.086E+06     26.1675E+06     1.46052E+06    -37.4152E-03     63.9516E-03    -26.5364E-03     262.030E-03    -43.8888E-03     70.8006E-03    -26.5901E-03     263.210E-03
             500     16.6624E-03     69.7326E-03    -4.84843E+06     176.730E+06     85.6564E+06    -193.043E+03    -38.0113E-03     64.7281E-03    -26.7168E-03     263.739E-03    -46.9628E-03     74.0415E-03    -26.5377E-03     268.717E-03
             501     876.195E-06     69.4739E-03    -24.6336E+06    -115.454E+06    -24.2885E+06     46.6417E+03    -26.8810E-03     53.7480E-03    -26.8670E-03     5.69064E-03    -26.8016E-03     53.2419E-03    -26.7853E-03     5.68856E-03
             502     1.75243E-03     69.4814E-03    -24.0869E+06    -114.563E+06    -22.6335E+06     107.348E+03    -26.8896E-03     53.7644E-03    -26.8748E-03     10.5313E-03    -26.8115E-03     53.2598E-03    -26.7869E-03     10.5275E-03
             503     2.62862E-03     69.4939E-03    -23.2216E+06    -113.120E+06    -19.9376E+06     176.131E+03    -26.9149E-03     53.7965E-03    -26.8815E-03     15.6603E-03    -26.8390E-03     53.2944E-03    -26.7835E-03     15.6546E-03
             504     3.50489E-03     69.5111E-03    -21.9856E+06    -111.110E+06    -16.3506E+06     190.205E+03    -26.9497E-03     53.8402E-03    -26.8905E-03     20.8711E-03    -26.8765E-03     53.3420E-03    -26.7793E-03     20.8622E-03
             505     4.38109E-03     69.5335E-03    -20.5356E+06    -108.847E+06    -12.3859E+06     178.322E+03    -26.9964E-03     53.8960E-03    -26.8996E-03     26.1283E-03    -26.9263E-03     53.4025E-03    -26.7739E-03     26.1153E-03
             506     5.25739E-03     69.5607E-03    -18.9517E+06    -103.961E+06    -8.81489E+06     167.669E+03    -27.0490E-03     53.9504E-03    -26.9014E-03     31.4345E-03    -26.9850E-03     53.4756E-03    -26.7673E-03     31.4163E-03
             507     6.13362E-03     69.5932E-03    -17.1860E+06    -97.8842E+06    -5.44302E+06     165.223E+03    -27.1130E-03     54.0118E-03    -26.8988E-03     36.7686E-03    -27.0566E-03     53.5627E-03    -26.7592E-03     36.7442E-03
             508     7.00998E-03     69.6305E-03    -15.3593E+06    -92.8925E+06    -2.64969E+06     71.2496E+03    -27.1971E-03     54.0912E-03    -26.8940E-03     42.0959E-03    -27.1467E-03     53.6641E-03    -26.7503E-03     42.0624E-03
             509     7.88623E-03     69.6731E-03    -13.6843E+06    -86.6282E+06    -1.35077E+06     6.66399E+03    -27.2942E-03     54.1740E-03    -26.8798E-03     47.4105E-03    -27.2518E-03     53.7795E-03    -26.7411E-03     47.3664E-03
             510     8.76266E-03     69.7205E-03    -12.1202E+06    -81.1541E+06    -470.716E+03     32.1734E+03    -27.4157E-03     54.2810E-03    -26.8652E-03     52.7073E-03    -27.3828E-03     53.9182E-03    -26.7324E-03     52.6512E-03
             511     9.63888E-03     69.7731E-03    -10.9741E+06    -76.9912E+06    -1.54752E+06     116.989E+03    -27.5568E-03     54.4013E-03    -26.8445E-03     57.9841E-03    -27.5342E-03     54.0709E-03    -26.7247E-03     57.9137E-03
             512     10.5153E-03     69.8306E-03    -10.1604E+06    -69.0211E+06    -4.16183E+06     154.653E+03    -27.6752E-03     54.4863E-03    -26.8111E-03     63.1531E-03    -27.6733E-03     54.2154E-03    -26.7171E-03     63.0640E-03
             513     11.3916E-03     69.8929E-03    -9.62155E+06    -54.3784E+06    -3.29610E+06     267.825E+03    -27.7919E-03     54.5753E-03    -26.7835E-03     69.7741E-03    -27.8369E-03     54.4028E-03    -26.7071E-03     69.6627E-03
             514     12.2682E-03     69.9632E-03    -9.27914E+06    -39.8522E+06    -4.69206E+06     230.459E+03    -27.9857E-03     54.7274E-03    -26.7417E-03     77.8824E-03    -28.0912E-03     54.6721E-03    -26.6939E-03     77.7422E-03
             515     13.1449E-03     70.0409E-03    -10.0191E+06    -26.5564E+06    -11.7499E+06      524.89E+03    -27.9652E-03     54.6383E-03    -26.6730E-03     80.4523E-03    -28.1440E-03     54.7213E-03    -26.6787E-03     80.2830E-03
             516     14.0224E-03     70.1165E-03    -10.6104E+06     3.58763E+06    -17.3615E+06     395.992E+03    -28.2918E-03     54.8729E-03    -26.5810E-03     94.8843E-03    -28.6696E-03     55.2760E-03    -26.6577E-03     94.6784E-03
             517     14.8995E-03     70.2225E-03    -9.72732E+06     61.4736E+06    -12.2545E+06    -1.34098E+06    -32.6872E-03     59.2127E-03    -26.5254E-03     154.380E-03    -34.0757E-03     60.8203E-03    -26.6618E-03     154.135E-03
             518     15.7692E-03     70.4084E-03    -8.23784E+06     132.163E+06     25.9745E+06    -1.41908E+06    -40.2478E-03     66.9122E-03    -26.6643E-03     255.859E-03    -46.5862E-03     73.6149E-03    -26.7142E-03     256.770E-03
             519     16.6428E-03     70.7239E-03    -5.61129E+06     176.377E+06     84.8041E+06     989.173E+03    -36.3544E-03     63.2507E-03    -26.8963E-03     260.453E-03    -45.1442E-03     72.4009E-03    -26.7199E-03     265.522E-03
             520     876.228E-06     70.4740E-03    -24.8346E+06    -115.586E+06    -24.4012E+06     98.0217E+03    -26.8639E-03     53.7375E-03    -26.8736E-03     5.68432E-03    -26.7852E-03     53.2311E-03    -26.7920E-03     5.68291E-03
             521     1.75241E-03     70.4816E-03    -24.3031E+06    -114.713E+06    -22.7925E+06     132.127E+03    -26.8847E-03     53.7544E-03    -26.8698E-03     10.5376E-03    -26.8072E-03     53.2496E-03    -26.7821E-03     10.5342E-03
             522     2.62868E-03     70.4940E-03    -23.3883E+06    -113.257E+06    -20.1364E+06     191.554E+03    -26.9099E-03     53.7862E-03    -26.8763E-03     15.6613E-03    -26.8344E-03     53.2840E-03    -26.7788E-03     15.6558E-03
             523     3.50487E-03     70.5114E-03    -22.1511E+06    -111.137E+06    -16.5085E+06     200.852E+03    -26.9440E-03     53.8293E-03    -26.8853E-03     20.8707E-03    -26.8714E-03     53.3314E-03    -26.7745E-03     20.8619E-03
             524     4.38116E-03     70.5336E-03    -20.5994E+06    -108.897E+06    -12.5198E+06     191.590E+03    -26.9911E-03     53.8854E-03    -26.8943E-03     26.1232E-03    -26.9211E-03     53.3919E-03    -26.7691E-03     26.1103E-03
             525     5.25738E-03     70.5609E-03    -18.8715E+06    -103.914E+06    -8.99231E+06     135.034E+03    -27.0449E-03     53.9404E-03    -26.8955E-03     31.4258E-03    -26.9804E-03     53.4661E-03    -26.7624E-03     31.4072E-03
             526     6.13370E-03     70.5932E-03    -17.0673E+06    -97.7536E+06    -5.63072E+06    -67.6897E+03    -27.1111E-03     54.0040E-03    -26.8929E-03     36.7599E-03    -27.0540E-03     53.5556E-03    -26.7546E-03     36.7324E-03
             527     7.00995E-03     70.6307E-03    -15.2205E+06    -92.7890E+06    -2.76108E+06    -195.042E+03    -27.1988E-03     54.0878E-03    -26.8890E-03     42.0797E-03    -27.1477E-03     53.6612E-03    -26.7462E-03     42.0428E-03
             528     7.88633E-03     70.6731E-03    -13.4843E+06    -86.5807E+06    -1.33844E+06    -264.746E+03    -27.3044E-03     54.1809E-03    -26.8765E-03     47.3810E-03    -27.2611E-03     53.7863E-03    -26.7381E-03     47.3333E-03
             529     8.76258E-03     70.7207E-03     -12.025E+06    -81.2630E+06    -533.667E+03    -250.148E+03    -27.4279E-03     54.2913E-03    -26.8634E-03     52.6742E-03    -27.3942E-03     53.9280E-03    -26.7308E-03     52.6144E-03
             530     9.63899E-03     70.7731E-03    -10.6895E+06    -77.1196E+06    -1.50762E+06    -152.201E+03    -27.5659E-03     54.4099E-03    -26.8440E-03     57.9146E-03    -27.5418E-03     54.0784E-03    -26.7242E-03     57.8406E-03
             531     10.5153E-03     70.8307E-03    -9.79246E+06    -69.1222E+06    -4.06276E+06     5.96808E+03    -27.7154E-03     54.5283E-03    -26.8129E-03     63.0590E-03    -27.7117E-03     54.2563E-03    -26.7188E-03     62.9677E-03
             532     11.3916E-03     70.8930E-03    -9.12125E+06    -54.5879E+06    -3.17066E+06     149.855E+03    -27.8673E-03     54.6571E-03    -26.7899E-03     69.5792E-03    -27.9099E-03     54.4828E-03    -26.7134E-03     69.4657E-03
             533     12.2680E-03     70.9630E-03     -8.9988E+06    -40.1952E+06    -4.59864E+06     642.359E+03    -28.1869E-03     54.9450E-03    -26.7581E-03     77.7035E-03    -28.2916E-03     54.8884E-03    -26.7098E-03     77.5667E-03
             534     13.1440E-03     71.0411E-03    -8.91710E+06    -25.8271E+06    -10.7815E+06     510.264E+03    -28.2682E-03     54.9756E-03    -26.7075E-03     80.0132E-03    -28.4458E-03     55.0612E-03    -26.7110E-03     79.8405E-03
             535     14.0193E-03     71.1160E-03    -8.35171E+06     4.51554E+06    -16.0323E+06    -372.202E+03    -28.3649E-03     54.9929E-03    -26.6280E-03     93.2857E-03    -28.7276E-03     55.3885E-03    -26.7026E-03     93.0695E-03
             536     14.8974E-03     71.2199E-03    -9.57869E+06     61.0783E+06    -12.2893E+06    -875.209E+03    -33.1393E-03     59.7153E-03    -26.5760E-03     157.040E-03    -34.5548E-03     61.3494E-03    -26.7121E-03     156.788E-03
             537     15.7722E-03     71.4213E-03    -10.7958E+06     130.747E+06     23.7252E+06    -416.135E+03    -41.5419E-03     68.2705E-03    -26.7286E-03     261.316E-03    -48.0192E-03     75.1048E-03    -26.7839E-03     262.228E-03
             538     16.6451E-03     71.7218E-03    -6.81176E+06     176.079E+06     83.4365E+06     172.354E+03    -36.0755E-03     63.0350E-03    -26.9595E-03     263.664E-03    -45.0110E-03     72.3295E-03    -26.7878E-03     268.828E-03
             539     876.199E-06     71.4741E-03    -25.0173E+06    -115.861E+06    -24.6283E+06     166.801E+03    -26.8572E-03     53.7232E-03    -26.8660E-03     5.69122E-03    -26.7787E-03     53.2161E-03    -26.7848E-03     5.69069E-03
             540     1.75247E-03     71.4817E-03    -24.5127E+06    -114.852E+06    -22.9188E+06     240.302E+03    -26.8816E-03     53.7453E-03    -26.8637E-03     10.5341E-03    -26.8048E-03     53.2402E-03    -26.7762E-03     10.5321E-03
             541     2.62864E-03     71.4941E-03    -23.6332E+06    -113.336E+06    -20.2204E+06     195.201E+03    -26.9047E-03     53.7762E-03    -26.8714E-03     15.6567E-03    -26.8302E-03     53.2740E-03    -26.7739E-03     15.6512E-03
             542     3.50493E-03     71.5114E-03    -22.3225E+06    -111.159E+06    -16.6335E+06     165.394E+03    -26.9390E-03     53.8192E-03    -26.8802E-03     20.8663E-03    -26.8670E-03     53.3216E-03    -26.7698E-03     20.8571E-03
             543     4.38113E-03     71.5337E-03    -20.7211E+06    -108.865E+06    -12.6508E+06     83.6756E+03    -26.9873E-03     53.8765E-03    -26.8892E-03     26.1166E-03    -26.9177E-03     53.3835E-03    -26.7645E-03     26.1022E-03
             544     5.25744E-03     71.5609E-03    -18.8863E+06    -103.713E+06    -9.14565E+06    -113.664E+03    -27.0436E-03     53.9339E-03    -26.8903E-03     31.4185E-03    -26.9791E-03     53.4607E-03    -26.7583E-03     31.3966E-03
             545     6.13368E-03     71.5934E-03    -16.9720E+06    -97.4547E+06    -5.74928E+06    -344.560E+03    -27.1146E-03     54.0029E-03    -26.8883E-03     36.7495E-03    -27.0573E-03     53.5560E-03    -26.7511E-03     36.7185E-03
             546     7.01003E-03     71.6307E-03    -15.1293E+06    -92.6893E+06    -2.86595E+06    -512.170E+03    -27.2101E-03     54.0962E-03    -26.8861E-03     42.0656E-03    -27.1585E-03     53.6702E-03    -26.7441E-03     42.0245E-03
             547     7.88626E-03     71.6733E-03    -13.4421E+06    -86.4854E+06    -1.46930E+06    -553.373E+03    -27.3236E-03     54.1991E-03    -26.8755E-03     47.3725E-03    -27.2801E-03     53.8051E-03    -26.7379E-03     47.3210E-03
             548     8.76263E-03     71.7207E-03    -11.8944E+06    -81.3012E+06    -634.129E+03    -560.930E+03    -27.4474E-03     54.3119E-03    -26.8645E-03     52.6497E-03    -27.4129E-03     53.9484E-03    -26.7325E-03     52.5857E-03
             549     9.63887E-03     71.7733E-03    -10.6517E+06    -77.1749E+06    -1.72246E+06    -535.556E+03    -27.5995E-03     54.4465E-03    -26.8470E-03     57.9006E-03    -27.5748E-03     54.1150E-03    -26.7282E-03     57.8215E-03
             550     10.5152E-03     71.8307E-03    -9.62948E+06    -69.4204E+06    -4.16066E+06    -353.116E+03    -27.7576E-03     54.5770E-03    -26.8194E-03     63.0606E-03    -27.7526E-03     54.3035E-03    -26.7256E-03     62.9644E-03
             551     11.3914E-03     71.8932E-03    -8.87639E+06    -54.8276E+06    -3.20212E+06    -38.7907E+03    -27.9890E-03     54.7910E-03    -26.8020E-03     69.5975E-03    -28.0304E-03     54.6156E-03    -26.7257E-03     69.4808E-03
             552     12.2676E-03     71.9631E-03    -7.83863E+06    -40.6694E+06    -4.21491E+06     327.258E+03    -28.3342E-03     55.1136E-03    -26.7794E-03     77.9598E-03    -28.4337E-03     55.0532E-03    -26.7302E-03     77.8179E-03
             553     13.1437E-03     72.0419E-03    -6.76479E+06    -25.9872E+06    -10.3812E+06     523.675E+03    -28.3018E-03     55.0320E-03    -26.7303E-03     80.4823E-03    -28.4693E-03     55.1134E-03    -26.7347E-03     80.3095E-03
             554     14.0207E-03     72.1162E-03    -7.73089E+06     4.93905E+06    -16.1818E+06     252.098E+03    -28.6605E-03     55.3156E-03    -26.6551E-03     94.4238E-03    -29.0252E-03     55.7173E-03    -26.7320E-03     94.2106E-03
             555     14.8950E-03     72.2206E-03    -9.40477E+06     60.3492E+06    -14.5213E+06     350.167E+03    -31.9571E-03     58.5157E-03    -26.5585E-03     160.312E-03    -33.3819E-03     60.1634E-03    -26.7050E-03     160.115E-03
             556     15.7738E-03     72.4203E-03    -8.94001E+06     131.844E+06     24.1564E+06     363.284E+03    -38.7956E-03     65.3917E-03    -26.5961E-03     264.162E-03    -45.2972E-03     72.2596E-03    -26.6535E-03     265.306E-03
             557     16.6527E-03     72.7282E-03    -5.69805E+06     177.166E+06     85.7641E+06    -205.197E+03    -37.1628E-03     63.9610E-03    -26.7982E-03     259.471E-03    -45.9170E-03     73.0752E-03    -26.6180E-03     264.443E-03
             558     876.259E-06     72.4742E-03    -25.3050E+06    -116.198E+06    -24.9460E+06     121.002E+03    -26.8577E-03     53.7145E-03    -26.8568E-03     5.69095E-03    -26.7796E-03     53.2065E-03    -26.7764E-03     5.68983E-03
             559     1.75242E-03     72.4818E-03     -24.669E+06    -115.095E+06    -23.1602E+06     286.438E+03    -26.8765E-03     53.7356E-03    -26.8590E-03     10.5291E-03    -26.7998E-03     53.2298E-03    -26.7722E-03     10.5277E-03
             560     2.62871E-03     72.4942E-03    -23.7755E+06    -113.351E+06    -20.2546E+06     316.711E+03    -26.9007E-03     53.7681E-03    -26.8674E-03     15.6528E-03    -26.8268E-03     53.2661E-03    -26.7698E-03     15.6489E-03
             561     3.50489E-03     72.5115E-03    -22.5417E+06    -111.026E+06    -16.7058E+06     100.694E+03    -26.9366E-03     53.8128E-03    -26.8763E-03     20.8587E-03    -26.8658E-03     53.3164E-03    -26.7661E-03     20.8486E-03
             562     4.38120E-03     72.5338E-03    -20.7627E+06    -108.590E+06    -12.7085E+06    -214.335E+03    -26.9867E-03     53.8722E-03    -26.8855E-03     26.1078E-03    -26.9176E-03     53.3808E-03    -26.7615E-03     26.0896E-03
             563     5.25741E-03     72.5611E-03    -18.7930E+06    -103.441E+06    -9.06390E+06    -456.877E+03    -27.0468E-03     53.9347E-03    -26.8879E-03     31.4061E-03    -26.9824E-03     53.4627E-03    -26.7560E-03     31.3798E-03
             564     6.13374E-03     72.5934E-03    -16.9274E+06    -97.1434E+06    -5.84870E+06    -645.116E+03    -27.1213E-03     54.0074E-03    -26.8861E-03     36.7386E-03    -27.0640E-03     53.5622E-03    -26.7500E-03     36.7037E-03
             565     7.00997E-03     72.6309E-03    -15.1467E+06    -92.4918E+06    -3.04461E+06    -789.830E+03    -27.2220E-03     54.1071E-03    -26.8851E-03     42.0627E-03    -27.1705E-03     53.6823E-03    -26.7443E-03     42.0180E-03
             566     7.88631E-03     72.6733E-03    -13.4596E+06    -86.3891E+06    -1.64692E+06    -875.910E+03    -27.3336E-03     54.2095E-03    -26.8759E-03     47.3792E-03    -27.2901E-03     53.8163E-03    -26.7393E-03     47.3235E-03
             567     8.76254E-03     72.7209E-03    -11.9967E+06    -81.2357E+06    -797.627E+03    -882.533E+03    -27.4643E-03     54.3306E-03    -26.8663E-03     52.6692E-03    -27.4302E-03     53.9678E-03    -26.7351E-03     52.6010E-03
             568     9.63888E-03     72.7733E-03    -10.7660E+06    -77.1926E+06    -1.86899E+06    -846.367E+03    -27.6165E-03     54.4668E-03    -26.8503E-03     57.9574E-03    -27.5922E-03     54.1356E-03    -26.7321E-03     57.8742E-03
             569     10.5151E-03     72.8310E-03    -9.86550E+06    -69.5858E+06    -4.31969E+06    -791.092E+03    -27.7852E-03     54.6096E-03    -26.8244E-03     63.1631E-03    -27.7810E-03     54.3359E-03    -26.7308E-03     63.0612E-03
             570     11.3914E-03     72.8933E-03    -8.99661E+06    -55.3421E+06    -3.40474E+06    -433.114E+03    -28.0182E-03     54.8267E-03    -26.8084E-03     69.8909E-03    -28.0594E-03     54.6493E-03    -26.7322E-03     69.7690E-03
             571     12.2674E-03     72.9639E-03    -8.52503E+06    -41.0618E+06    -4.35545E+06    -118.755E+03    -28.1952E-03     54.9770E-03    -26.7818E-03     78.3125E-03    -28.2971E-03     54.9155E-03    -26.7317E-03     78.1658E-03
             572     13.1438E-03     73.0417E-03    -8.73218E+06    -26.7976E+06    -10.9701E+06     152.245E+03    -28.0573E-03     54.7767E-03    -26.7195E-03     80.8269E-03    -28.2323E-03     54.8575E-03    -26.7228E-03     80.6511E-03
             573     14.0199E-03     73.1164E-03    -8.59663E+06     4.93066E+06    -13.4397E+06     1.03055E+06    -28.1796E-03     54.8160E-03    -26.6365E-03     94.5707E-03    -28.5545E-03     55.2169E-03    -26.6983E-03     94.3727E-03
             574     14.8988E-03     73.2205E-03    -8.77810E+06     61.0496E+06    -12.0021E+06     880.022E+03    -31.4041E-03     57.9144E-03    -26.5103E-03     159.340E-03    -32.8255E-03     59.5561E-03    -26.6461E-03     159.161E-03
             575     15.7767E-03     73.4181E-03    -8.27548E+06     132.191E+06     23.8051E+06     123.390E+03    -38.3370E-03     64.8525E-03    -26.5156E-03     262.921E-03    -44.8060E-03     71.6925E-03    -26.5762E-03     264.084E-03
             576     16.6535E-03     73.7293E-03    -5.37220E+06     177.443E+06     86.1362E+06    -8.81261E+03    -37.7024E-03     64.4369E-03    -26.7345E-03     257.853E-03    -46.3874E-03     73.4829E-03    -26.5533E-03     262.741E-03
             577     876.180E-06     73.4743E-03    -25.5589E+06    -116.362E+06    -25.2740E+06    -13.3439E+03    -26.8560E-03     53.7107E-03    -26.8547E-03     5.69794E-03    -26.7785E-03     53.2028E-03    -26.7753E-03     5.69507E-03
             578     1.75249E-03     73.4818E-03    -24.8942E+06    -115.394E+06    -23.5381E+06     117.894E+03    -26.8737E-03     53.7302E-03    -26.8565E-03     10.5260E-03    -26.7972E-03     53.2239E-03    -26.7708E-03     10.5224E-03
             579     2.62866E-03     73.4943E-03    -23.8066E+06    -113.563E+06    -20.5667E+06     317.050E+03    -26.9002E-03     53.7647E-03    -26.8645E-03     15.6439E-03    -26.8257E-03     53.2622E-03    -26.7682E-03     15.6401E-03
             580     3.50496E-03     73.5116E-03    -22.4540E+06    -110.526E+06    -16.6506E+06     90.6432E+03    -26.9373E-03     53.8118E-03    -26.8745E-03     20.8492E-03    -26.8669E-03     53.3176E-03    -26.7649E-03     20.8390E-03
             581     4.38114E-03     73.5339E-03    -20.8570E+06    -108.007E+06    -12.6868E+06    -525.152E+03    -26.9903E-03     53.8749E-03    -26.8845E-03     26.0981E-03    -26.9226E-03     53.3864E-03    -26.7611E-03     26.0759E-03
             582     5.25745E-03     73.5611E-03    -18.9747E+06    -103.168E+06    -9.31792E+06    -850.203E+03    -27.0517E-03     53.9389E-03    -26.8872E-03     31.3974E-03    -26.9883E-03     53.4689E-03    -26.7567E-03     31.3660E-03
             583     6.13368E-03     73.5935E-03    -17.0592E+06    -96.8747E+06    -6.07628E+06    -940.480E+03    -27.1279E-03     54.0142E-03    -26.8863E-03     36.7317E-03    -27.0714E-03     53.5708E-03    -26.7515E-03     36.6928E-03
             584     7.01001E-03     73.6309E-03    -15.2926E+06    -92.2505E+06    -3.27802E+06    -1.03943E+06    -27.2242E-03     54.1101E-03    -26.8858E-03     42.0626E-03    -27.1735E-03     53.6871E-03    -26.7463E-03     42.0146E-03
             585     7.88623E-03     73.6735E-03    -13.7558E+06    -86.2133E+06    -1.94911E+06    -1.11234E+06    -27.3325E-03     54.2090E-03    -26.8765E-03     47.3847E-03    -27.2903E-03     53.8176E-03    -26.7413E-03     47.3259E-03
             586     8.76260E-03     73.7209E-03    -12.3403E+06    -81.1200E+06    -1.13695E+06    -1.18213E+06    -27.4574E-03     54.3238E-03    -26.8664E-03     52.6983E-03    -27.4247E-03     53.9627E-03    -26.7366E-03     52.6263E-03
             587     9.63881E-03     73.7736E-03    -11.1326E+06    -77.2101E+06    -2.34836E+06    -1.15549E+06    -27.6066E-03     54.4556E-03    -26.8490E-03     58.0079E-03    -27.5834E-03     54.1256E-03    -26.7327E-03     57.9208E-03
             588     10.5152E-03     73.8310E-03    -10.2670E+06    -69.6092E+06    -4.83763E+06    -1.06071E+06    -27.7570E-03     54.5783E-03    -26.8213E-03     63.2945E-03    -27.7541E-03     54.3059E-03    -26.7297E-03     63.1893E-03
             589     11.3913E-03     73.8937E-03    -9.67380E+06    -55.8305E+06    -4.21103E+06    -879.602E+03    -27.8777E-03     54.6761E-03    -26.7984E-03     70.0965E-03    -27.9203E-03     54.4984E-03    -26.7245E-03     69.9695E-03
             590     12.2679E-03     73.9638E-03    -8.90006E+06    -41.6401E+06    -5.26620E+06    -352.971E+03    -27.9826E-03     54.7413E-03    -26.7587E-03     78.3287E-03    -28.0840E-03     54.6785E-03    -26.7117E-03     78.1802E-03
             591     13.1446E-03     74.0417E-03    -8.45801E+06    -27.3099E+06    -12.1851E+06     429.733E+03    -27.8719E-03     54.5535E-03    -26.6816E-03     80.8668E-03    -28.0429E-03     54.6329E-03    -26.6907E-03     80.6965E-03
             592     14.0215E-03     74.1165E-03    -8.82924E+06     4.47324E+06    -14.7619E+06     540.884E+03    -28.2206E-03     54.8176E-03    -26.5970E-03     93.8910E-03    -28.5937E-03     55.2181E-03    -26.6645E-03     93.6870E-03
             593     14.8976E-03     74.2183E-03    -8.69321E+06     61.6173E+06    -12.1304E+06     520.244E+03    -32.0542E-03     58.5563E-03    -26.5021E-03     157.469E-03    -33.4683E-03     60.1935E-03    -26.6395E-03     157.270E-03
             594     15.7739E-03     74.4182E-03    -8.05496E+06     132.254E+06     23.2486E+06     543.366E+03    -39.2246E-03     65.7826E-03    -26.5580E-03     261.122E-03    -45.6487E-03     72.5802E-03    -26.6219E-03     262.218E-03
             595     16.6506E-03     74.7273E-03    -5.31699E+06     177.437E+06     85.4304E+06     277.705E+03    -37.2452E-03     64.0357E-03    -26.7905E-03     258.921E-03    -45.9741E-03     73.1279E-03    -26.6129E-03     263.885E-03
             596     876.275E-06     74.4743E-03    -25.8266E+06    -116.340E+06    -25.3760E+06    -5.34172E+03    -26.8621E-03     53.7124E-03    -26.8503E-03     5.69852E-03    -26.7859E-03     53.2052E-03    -26.7711E-03     5.69575E-03
             597     1.75241E-03     74.4820E-03    -25.2139E+06    -115.451E+06    -23.7770E+06    -98.3273E+03    -26.8780E-03     53.7362E-03    -26.8582E-03     10.5200E-03    -26.8026E-03     53.2304E-03    -26.7731E-03     10.5136E-03
             598     2.62871E-03     74.4943E-03    -24.0909E+06    -113.889E+06    -21.0559E+06     1.27755E+03    -26.9029E-03     53.7690E-03    -26.8661E-03     15.6347E-03    -26.8286E-03     53.2659E-03    -26.7713E-03     15.6267E-03
             599     3.50488E-03     74.5117E-03    -22.6560E+06    -110.011E+06    -17.7041E+06    -65.2848E+03    -26.9380E-03     53.8097E-03    -26.8716E-03     20.8403E-03    -26.8679E-03     53.3199E-03    -26.7678E-03     20.8281E-03
             600     4.38120E-03     74.5340E-03    -21.0505E+06    -107.022E+06    -13.3858E+06    -694.765E+03    -26.9929E-03     53.8756E-03    -26.8827E-03     26.0908E-03    -26.9265E-03     53.3934E-03    -26.7639E-03     26.0664E-03
             601     5.25739E-03     74.5613E-03     -19.279E+06    -102.854E+06    -9.47436E+06    -1.20423E+06    -27.0577E-03     53.9474E-03    -26.8897E-03     31.3903E-03    -26.9960E-03     53.4796E-03    -26.7600E-03     31.3543E-03
             602     6.13371E-03     74.5936E-03    -17.4212E+06    -96.6530E+06    -6.46194E+06    -1.27506E+06    -27.1299E-03     54.0182E-03    -26.8883E-03     36.7302E-03    -27.0749E-03     53.5770E-03    -26.7552E-03     36.6871E-03
             603     7.00992E-03     74.6311E-03    -15.6671E+06    -92.0600E+06    -3.73383E+06    -1.26199E+06    -27.2219E-03     54.1092E-03    -26.8873E-03     42.0575E-03    -27.1727E-03     53.6884E-03    -26.7497E-03     42.0067E-03
             604     7.88629E-03     74.6735E-03    -13.9818E+06    -85.8981E+06    -2.36074E+06    -1.38917E+06    -27.3244E-03     54.2013E-03    -26.8770E-03     47.3842E-03    -27.2832E-03     53.8124E-03    -26.7439E-03     47.3218E-03
             605     8.76250E-03     74.7211E-03    -12.5392E+06    -81.0090E+06    -1.61159E+06    -1.44569E+06    -27.4415E-03     54.3070E-03    -26.8655E-03     52.6932E-03    -27.4093E-03     53.9473E-03    -26.7379E-03     52.6178E-03
             606     9.63892E-03     74.7736E-03    -11.4444E+06    -77.1999E+06    -2.83799E+06    -1.36319E+06    -27.5784E-03     54.4247E-03    -26.8463E-03     58.0136E-03    -27.5561E-03     54.0959E-03    -26.7319E-03     57.9238E-03
             607     10.5151E-03     74.8313E-03    -10.7204E+06    -69.6495E+06    -5.39563E+06    -1.28681E+06    -27.6885E-03     54.5032E-03    -26.8147E-03     63.2744E-03    -27.6870E-03     54.2320E-03    -26.7252E-03     63.1664E-03
             608     11.3917E-03     74.8936E-03    -10.0638E+06    -56.0062E+06    -4.72051E+06    -1.17108E+06    -27.7618E-03     54.5477E-03    -26.7859E-03     69.8787E-03    -27.8050E-03     54.3700E-03    -26.7137E-03     69.7486E-03
             609     12.2682E-03     74.9638E-03    -9.24663E+06    -42.0336E+06    -5.88848E+06    -1.11328E+06    -27.9309E-03     54.6724E-03    -26.7415E-03     77.9347E-03    -28.0321E-03     54.6086E-03    -26.6966E-03     77.7768E-03
             610     13.1446E-03     75.0414E-03    -8.27464E+06    -28.7768E+06    -12.7589E+06    -449.880E+03    -27.9407E-03     54.6090E-03    -26.6683E-03     80.0891E-03    -28.1062E-03     54.6800E-03    -26.6784E-03     79.9073E-03
             611     14.0214E-03     75.1159E-03    -7.81588E+06     3.89038E+06    -14.2572E+06     584.804E+03    -28.5425E-03     55.1432E-03    -26.6008E-03     93.3161E-03    -28.9098E-03     55.5380E-03    -26.6664E-03     93.1089E-03
             612     14.8974E-03     75.2199E-03    -9.12301E+06     61.9082E+06    -11.1710E+06     1.02735E+06    -32.6829E-03     59.2186E-03    -26.5358E-03     157.943E-03    -34.1087E-03     60.8643E-03    -26.6682E-03     157.736E-03
             613     15.7733E-03     75.4177E-03    -9.04300E+06     132.695E+06     23.5460E+06     839.659E+03    -39.7370E-03     66.3510E-03    -26.6140E-03     262.397E-03    -46.2165E-03     73.2012E-03    -26.6756E-03     263.473E-03
             614     16.6492E-03     75.7285E-03    -5.51176E+06     177.942E+06     84.9723E+06     163.481E+03    -36.8601E-03     63.6955E-03    -26.8353E-03     260.271E-03    -45.6558E-03     72.8569E-03    -26.6605E-03     265.291E-03
             615     876.169E-06     75.4745E-03    -25.9410E+06    -116.311E+06    -25.5851E+06     26.1643E+03    -26.8672E-03     53.7249E-03    -26.8577E-03     5.69548E-03    -26.7912E-03     53.2182E-03    -26.7794E-03     5.69311E-03
             616     1.75248E-03     75.4820E-03     -25.441E+06    -115.264E+06    -23.8214E+06    -74.6312E+03    -26.8826E-03     53.7473E-03    -26.8647E-03     10.5153E-03    -26.8085E-03     53.2428E-03    -26.7798E-03     10.5091E-03
             617     2.62862E-03     75.4945E-03    -24.5539E+06    -113.885E+06    -21.3951E+06    -258.630E+03    -26.9094E-03     53.7812E-03    -26.8718E-03     15.6319E-03    -26.8370E-03     53.2794E-03    -26.7781E-03     15.6205E-03
             618     3.50492E-03     75.5118E-03    -23.2002E+06    -109.595E+06    -18.9357E+06    -494.693E+03    -26.9417E-03     53.8143E-03    -26.8725E-03     20.8368E-03    -26.8731E-03     53.3291E-03    -26.7746E-03     20.8191E-03
             619     4.38111E-03     75.5341E-03    -21.6571E+06    -105.977E+06    -15.2607E+06    -977.170E+03    -26.9919E-03     53.8707E-03    -26.8788E-03     26.0872E-03    -26.9274E-03     53.3974E-03    -26.7701E-03     26.0591E-03
             620     5.25741E-03     75.5614E-03    -19.9804E+06    -102.292E+06    -10.7480E+06    -1.47787E+06    -27.0578E-03     53.9467E-03    -26.8889E-03     31.3891E-03    -26.9986E-03     53.4846E-03    -26.7654E-03     31.3496E-03
             621     6.13361E-03     75.5937E-03    -18.2360E+06    -96.5553E+06    -7.17663E+06    -1.56716E+06    -27.1288E-03     54.0195E-03    -26.8907E-03     36.7253E-03    -27.0771E-03     53.5811E-03    -26.7602E-03     36.6784E-03
             622     7.00996E-03     75.6312E-03    -16.3266E+06    -91.6185E+06    -4.50570E+06    -1.70736E+06    -27.2178E-03     54.1059E-03    -26.8881E-03     42.0582E-03    -27.1714E-03     53.6894E-03    -26.7542E-03     42.0016E-03
             623     7.88616E-03     75.6737E-03    -14.5008E+06    -85.6599E+06    -3.12007E+06    -1.85627E+06    -27.3181E-03     54.1953E-03    -26.8772E-03     47.3731E-03    -27.2787E-03     53.8094E-03    -26.7476E-03     47.3047E-03
             624     8.76259E-03     75.7212E-03    -12.9305E+06    -80.9304E+06    -2.16974E+06    -1.76992E+06    -27.4315E-03     54.2973E-03    -26.8658E-03     52.6710E-03    -27.4005E-03     53.9395E-03    -26.7406E-03     52.5914E-03
             625     9.63878E-03     75.7737E-03    -11.7034E+06    -77.2521E+06    -3.36547E+06    -1.62381E+06    -27.5558E-03     54.4011E-03    -26.8453E-03     57.9636E-03    -27.5339E-03     54.0732E-03    -26.7331E-03     57.8705E-03
             626     10.5153E-03     75.8312E-03    -10.7919E+06    -69.5794E+06    -5.85255E+06    -1.51241E+06    -27.6656E-03     54.4775E-03    -26.8118E-03     63.1501E-03    -27.6638E-03     54.2073E-03    -26.7246E-03     63.0393E-03
             627     11.3915E-03     75.8937E-03    -10.0927E+06    -56.0639E+06    -5.19718E+06    -1.43746E+06    -27.7972E-03     54.5811E-03    -26.7840E-03     69.6200E-03    -27.8396E-03     54.4038E-03    -26.7140E-03     69.4863E-03
             628     12.2680E-03     75.9635E-03    -9.72620E+06    -41.9921E+06    -6.66910E+06    -1.38498E+06    -28.0212E-03     54.7648E-03    -26.7437E-03     77.6752E-03    -28.1235E-03     54.7029E-03    -26.7020E-03     77.5134E-03
             629     13.1445E-03     76.0415E-03    -10.0470E+06    -29.6247E+06    -14.1014E+06    -1.24629E+06    -28.0007E-03     54.6769E-03    -26.6762E-03     80.0813E-03    -28.1718E-03     54.7480E-03    -26.6892E-03     79.8886E-03
             630     14.0203E-03     76.1160E-03    -10.9605E+06     1.90062E+06    -16.7492E+06     75.1789E+03    -28.6854E-03     55.2968E-03    -26.6114E-03     94.0963E-03    -29.0650E-03     55.6928E-03    -26.6820E-03     93.8805E-03
             631     14.8973E-03     76.2197E-03    -10.2496E+06     61.6204E+06    -12.4117E+06     1.25570E+06    -32.6951E-03     59.2456E-03    -26.5504E-03     158.200E-03    -34.1257E-03     60.8945E-03    -26.6870E-03     157.997E-03
             632     15.7734E-03     76.4195E-03    -8.34925E+06     133.692E+06     23.2494E+06     730.888E+03    -39.4000E-03     66.0201E-03    -26.6201E-03     262.183E-03    -45.8870E-03     72.8847E-03    -26.6856E-03     263.281E-03
             633     16.6506E-03     76.7281E-03    -5.34415E+06     178.478E+06     84.3369E+06     53.7653E+03    -36.7826E-03     63.6127E-03    -26.8301E-03     260.101E-03    -45.5665E-03     72.7666E-03    -26.6594E-03     265.109E-03
             634     876.255E-06     76.4746E-03    -26.1402E+06    -116.228E+06    -25.8539E+06    -109.501E+03    -26.8716E-03     53.7432E-03    -26.8716E-03     5.69801E-03    -26.7964E-03     53.2377E-03    -26.7944E-03     5.69387E-03
             635     1.75238E-03     76.4821E-03    -25.5045E+06    -115.203E+06    -24.1240E+06    -48.4565E+03    -26.8891E-03     53.7617E-03    -26.8726E-03     10.5146E-03    -26.8150E-03     53.2581E-03    -26.7892E-03     10.5088E-03
             636     2.62867E-03     76.4946E-03    -24.4915E+06    -113.256E+06    -21.3696E+06    -397.084E+03    -26.9173E-03     53.7970E-03    -26.8796E-03     15.6306E-03    -26.8455E-03     53.2981E-03    -26.7867E-03     15.6174E-03
             637     3.50482E-03     76.5119E-03    -23.1598E+06    -109.017E+06    -18.8228E+06    -962.474E+03    -26.9497E-03     53.8306E-03    -26.8809E-03     20.8380E-03    -26.8819E-03     53.3481E-03    -26.7833E-03     20.8142E-03
             638     4.38112E-03     76.5342E-03    -21.7665E+06    -105.207E+06    -16.1790E+06    -1.27819E+06    -26.9944E-03     53.8759E-03    -26.8814E-03     26.0874E-03    -26.9303E-03     53.4079E-03    -26.7782E-03     26.0554E-03
             639     5.25733E-03     76.5615E-03    -20.4039E+06    -101.545E+06    -12.1342E+06    -1.64082E+06    -27.0552E-03     53.9436E-03    -26.8885E-03     31.3897E-03    -26.9972E-03     53.4879E-03    -26.7723E-03     31.3480E-03
             640     6.13364E-03     76.5939E-03    -18.5986E+06    -96.1809E+06    -7.80514E+06    -2.01967E+06    -27.1295E-03     54.0230E-03    -26.8936E-03     36.7220E-03    -27.0792E-03     53.5879E-03    -26.7662E-03     36.6692E-03
             641     7.00984E-03     76.6313E-03    -16.6265E+06    -91.0578E+06    -5.03260E+06    -2.25771E+06    -27.2153E-03     54.1058E-03    -26.8905E-03     42.0497E-03    -27.1705E-03     53.6933E-03    -26.7595E-03     41.9859E-03
             642     7.88624E-03     76.6738E-03    -14.8541E+06    -85.4485E+06    -3.77384E+06    -2.33786E+06    -27.3168E-03     54.1957E-03    -26.8789E-03     47.3652E-03    -27.2785E-03     53.8123E-03    -26.7523E-03     47.2906E-03
             643     8.76241E-03     76.7212E-03    -13.2494E+06    -80.8717E+06    -2.93255E+06    -2.29001E+06    -27.4276E-03     54.2941E-03    -26.8665E-03     52.6503E-03    -27.3972E-03     53.9381E-03    -26.7447E-03     52.5640E-03
             644     9.63889E-03     76.7738E-03    -11.7389E+06    -77.2481E+06    -4.02051E+06    -2.18356E+06    -27.5534E-03     54.3990E-03    -26.8456E-03     57.9324E-03    -27.5307E-03     54.0721E-03    -26.7367E-03     57.8320E-03
             645     10.5151E-03     76.8313E-03    -10.6831E+06    -69.7458E+06     -6.5866E+06    -1.89708E+06    -27.6869E-03     54.4992E-03    -26.8123E-03     63.1133E-03    -27.6832E-03     54.2291E-03    -26.7286E-03     62.9975E-03
             646     11.3916E-03     76.8937E-03    -9.92916E+06    -55.9573E+06    -5.68157E+06    -1.75122E+06    -27.8612E-03     54.6492E-03    -26.7880E-03     69.6207E-03    -27.9024E-03     54.4730E-03    -26.7209E-03     69.4826E-03
             647     12.2678E-03     76.9636E-03    -9.37293E+06    -42.1035E+06    -7.19953E+06    -1.56539E+06    -28.0986E-03     54.8505E-03    -26.7519E-03     77.7440E-03    -28.1985E-03     54.7885E-03    -26.7132E-03     77.5794E-03
             648     13.1441E-03     77.0415E-03    -9.19973E+06    -29.9072E+06    -14.4747E+06    -1.15013E+06    -28.1177E-03     54.8081E-03    -26.6904E-03     79.8001E-03    -28.2840E-03     54.8776E-03    -26.7061E-03     79.6073E-03
             649     14.0219E-03     77.1154E-03    -8.90479E+06      674.01E+03    -19.2568E+06    -598.852E+03    -28.6882E-03     55.3052E-03    -26.6170E-03     94.0653E-03    -29.0524E-03     55.6960E-03    -26.7014E-03     93.8407E-03
             650     14.8962E-03     77.2222E-03    -8.75244E+06     60.5011E+06    -14.6148E+06     461.101E+03    -32.4435E-03     58.9918E-03    -26.5483E-03     158.642E-03    -33.8621E-03     60.6365E-03    -26.6964E-03     158.436E-03
             651     15.7729E-03     77.4174E-03    -7.70808E+06     134.110E+06     23.4634E+06     961.250E+03    -39.1792E-03     65.7925E-03    -26.6134E-03     262.429E-03    -45.6685E-03     72.6626E-03    -26.6793E-03     263.550E-03
             652     16.6499E-03     77.7292E-03    -4.55264E+06     178.969E+06     84.0649E+06     604.069E+03    -36.8631E-03     63.6787E-03    -26.8157E-03     260.183E-03    -45.6409E-03     72.8320E-03    -26.6482E-03     265.192E-03
             653     876.148E-06     77.4747E-03    -26.3888E+06    -116.006E+06    -25.9731E+06    -87.3932E+03    -26.8860E-03     53.7631E-03    -26.8771E-03     5.69580E-03    -26.8122E-03     53.2592E-03    -26.8005E-03     5.69195E-03
             654     1.75244E-03     77.4823E-03    -25.7690E+06    -115.081E+06    -24.5153E+06    -277.525E+03    -26.9001E-03     53.7821E-03    -26.8820E-03     10.5149E-03    -26.8269E-03     53.2800E-03    -26.8003E-03     10.5061E-03
             655     2.62857E-03     77.4947E-03    -24.6976E+06    -112.267E+06    -22.2404E+06    -727.928E+03    -26.9215E-03     53.8061E-03    -26.8846E-03     15.6315E-03    -26.8509E-03     53.3137E-03    -26.7972E-03     15.6141E-03
             656     3.50486E-03     77.5120E-03    -23.3476E+06    -108.022E+06    -19.4652E+06    -1.45007E+06    -26.9521E-03     53.8376E-03    -26.8855E-03     20.8399E-03    -26.8858E-03     53.3613E-03    -26.7923E-03     20.8098E-03
             657     4.38103E-03     77.5343E-03    -21.8036E+06    -104.887E+06    -15.8047E+06    -1.66068E+06    -27.0001E-03     53.8913E-03    -26.8911E-03     26.0908E-03    -26.9372E-03     53.4244E-03    -26.7865E-03     26.0539E-03
             658     5.25732E-03     77.5616E-03    -20.0901E+06    -100.599E+06    -11.8380E+06    -1.87837E+06    -27.0591E-03     53.9550E-03    -26.8959E-03     31.3911E-03    -27.0013E-03     53.5031E-03    -26.7801E-03     31.3463E-03
             659     6.13354E-03     77.5940E-03    -18.3485E+06     -95.303E+06    -8.21970E+06    -2.51557E+06    -27.1284E-03     54.0252E-03    -26.8967E-03     36.7236E-03    -27.0776E-03     53.5947E-03    -26.7730E-03     36.6644E-03
             660     7.00988E-03     77.6314E-03    -16.4634E+06    -90.6241E+06    -5.42450E+06    -2.81622E+06    -27.2170E-03     54.1107E-03    -26.8937E-03     42.0464E-03    -27.1714E-03     53.7006E-03    -26.7655E-03     41.9754E-03
             661     7.88608E-03     77.6738E-03    -14.6419E+06    -85.1071E+06    -4.14308E+06    -2.87273E+06    -27.3141E-03     54.1956E-03    -26.8815E-03     47.3639E-03    -27.2748E-03     53.8142E-03    -26.7575E-03     47.2824E-03
             662     8.76251E-03     77.7214E-03    -12.9267E+06    -80.6399E+06    -3.30229E+06    -2.95668E+06    -27.4318E-03     54.3003E-03    -26.8685E-03     52.6452E-03    -27.3996E-03     53.9455E-03    -26.7494E-03     52.5503E-03
             663     9.63870E-03     77.7738E-03    -11.5125E+06    -77.1814E+06    -4.33275E+06    -2.91251E+06    -27.5669E-03     54.4154E-03    -26.8485E-03     57.9080E-03    -27.5428E-03     54.0890E-03    -26.7416E-03     57.7981E-03
             664     10.5152E-03     77.8315E-03    -10.2818E+06    -69.9836E+06    -6.79762E+06    -2.65642E+06    -27.7093E-03     54.5261E-03    -26.8168E-03     63.1090E-03    -27.7030E-03     54.2546E-03    -26.7345E-03     62.9833E-03
             665     11.3913E-03     77.8937E-03    -9.45637E+06    -56.0990E+06    -5.79446E+06    -2.19013E+06    -27.8682E-03     54.6615E-03    -26.7933E-03     69.6367E-03    -27.9067E-03     54.4841E-03    -26.7272E-03     69.4929E-03
             666     12.2679E-03     77.9638E-03    -8.99254E+06    -42.3125E+06    -6.99815E+06    -1.84364E+06    -28.1861E-03     54.9477E-03    -26.7616E-03     77.7814E-03    -28.2847E-03     54.8844E-03    -26.7222E-03     77.6124E-03
             667     13.1443E-03     78.0414E-03    -8.73141E+06    -29.8816E+06    -13.6090E+06    -1.64610E+06    -28.2954E-03     55.0061E-03    -26.7108E-03     80.0464E-03    -28.4623E-03     55.0754E-03    -26.7228E-03     79.8452E-03
             668     14.0183E-03     78.1164E-03    -8.75501E+06    -344.680E+03    -19.1175E+06    -863.768E+03    -28.5721E-03     55.2082E-03    -26.6361E-03     94.4178E-03    -28.9353E-03     55.5946E-03    -26.7185E-03     94.1913E-03
             669     14.8979E-03     78.2202E-03    -8.95871E+06     59.0430E+06    -15.3595E+06     10.0954E+03    -32.0782E-03     58.6267E-03    -26.5485E-03     158.697E-03    -33.4890E-03     60.2598E-03    -26.6979E-03     158.492E-03
             670     15.7743E-03     78.4203E-03    -8.37751E+06     133.559E+06     23.0447E+06     509.442E+03    -39.1000E-03     65.7028E-03    -26.6028E-03     262.050E-03    -45.5661E-03     72.5465E-03    -26.6691E-03     263.158E-03
             671     16.6510E-03     78.7276E-03    -5.13367E+06     179.300E+06     84.2536E+06     739.543E+03    -37.0079E-03     63.8186E-03    -26.8106E-03     260.067E-03    -45.7850E-03     72.9696E-03    -26.6419E-03     265.075E-03
             672     876.243E-06     78.4749E-03    -26.6316E+06    -115.657E+06    -26.4135E+06    -205.454E+03    -26.8963E-03     53.7835E-03    -26.8872E-03     5.69608E-03    -26.8236E-03     53.2823E-03    -26.8129E-03     5.69070E-03
             673     1.75234E-03     78.4824E-03    -25.9313E+06    -114.434E+06    -24.7964E+06    -614.473E+03    -26.9084E-03     53.7997E-03    -26.8913E-03     10.5169E-03    -26.8365E-03     53.3015E-03    -26.8118E-03     10.5038E-03
             674     2.62861E-03     78.4949E-03    -24.8980E+06    -111.086E+06    -23.1593E+06    -1.27892E+06    -26.9239E-03     53.8124E-03    -26.8885E-03     15.6400E-03    -26.8546E-03     53.3276E-03    -26.8072E-03     15.6154E-03
             675     3.50477E-03     78.5121E-03    -23.7873E+06    -106.871E+06    -20.2311E+06    -1.87560E+06    -26.9533E-03     53.8422E-03    -26.8890E-03     20.8483E-03    -26.8897E-03     53.3735E-03    -26.8007E-03     20.8127E-03
             676     4.38105E-03     78.5345E-03    -22.2892E+06    -104.461E+06    -15.7331E+06    -2.22414E+06    -27.0037E-03     53.9030E-03    -26.8993E-03     26.0993E-03    -26.9439E-03     53.4388E-03    -26.7942E-03     26.0550E-03
             677     5.25725E-03     78.5617E-03    -20.3363E+06    -99.6867E+06    -11.8965E+06    -2.49052E+06    -27.0600E-03     53.9619E-03    -26.9019E-03     31.4011E-03    -27.0047E-03     53.5151E-03    -26.7874E-03     31.3484E-03
             678     6.13354E-03     78.5941E-03    -18.3385E+06    -94.1186E+06    -8.66993E+06    -2.98797E+06    -27.1269E-03     54.0260E-03    -26.8992E-03     36.7310E-03    -27.0770E-03     53.6021E-03    -26.7795E-03     36.6657E-03
             679     7.00977E-03     78.6315E-03    -16.4634E+06    -90.0395E+06    -5.97013E+06    -3.47505E+06    -27.2143E-03     54.1098E-03    -26.8955E-03     42.0580E-03    -27.1687E-03     53.7035E-03    -26.7709E-03     41.9785E-03
             680     7.88614E-03     78.6740E-03    -14.5345E+06    -84.5995E+06    -4.52983E+06    -3.66616E+06    -27.3179E-03     54.2014E-03    -26.8835E-03     47.3661E-03    -27.2783E-03     53.8229E-03    -26.7624E-03     47.2743E-03
             681     8.76236E-03     78.7214E-03    -12.8237E+06    -80.2630E+06    -3.62736E+06    -3.72426E+06    -27.4402E-03     54.3113E-03    -26.8711E-03     52.6480E-03    -27.4075E-03     53.9587E-03    -26.7543E-03     52.5431E-03
             682     9.63877E-03     78.7741E-03    -11.3008E+06    -76.9862E+06    -4.58358E+06    -3.69414E+06    -27.5936E-03     54.4463E-03    -26.8527E-03     57.9040E-03    -27.5684E-03     54.1210E-03    -26.7476E-03     57.7839E-03
             683     10.5149E-03     78.8313E-03    -10.2757E+06    -70.2095E+06    -7.16822E+06    -3.46318E+06    -27.7186E-03     54.5410E-03    -26.8223E-03     63.0955E-03    -27.7114E-03     54.2688E-03    -26.7415E-03     62.9593E-03
             684     11.3914E-03     78.8941E-03    -9.25764E+06    -56.6143E+06    -6.15957E+06    -2.92353E+06    -27.8700E-03     54.6688E-03    -26.7988E-03     69.6313E-03    -27.9062E-03     54.4890E-03    -26.7341E-03     69.4781E-03
             685     12.2677E-03     78.9636E-03     -8.4881E+06    -42.8767E+06    -7.18611E+06    -2.05194E+06    -28.1673E-03     54.9332E-03    -26.7659E-03     78.0609E-03    -28.2624E-03     54.8668E-03    -26.7274E-03     77.8893E-03
             686     13.1434E-03     79.0426E-03    -8.68664E+06    -29.9832E+06    -13.9082E+06    -1.54467E+06    -28.2147E-03     54.9247E-03    -26.7100E-03     80.3077E-03    -28.3805E-03     54.9936E-03    -26.7235E-03     80.1088E-03
             687     14.0225E-03     79.1154E-03    -9.05109E+06    -1.20786E+06    -20.1417E+06    -1.25573E+06    -28.5968E-03     55.2282E-03    -26.6314E-03     94.1600E-03    -28.9577E-03     55.6111E-03    -26.7172E-03     93.9284E-03
             688     14.8957E-03     79.2216E-03    -8.98266E+06     57.6279E+06    -17.6841E+06    -495.591E+03    -32.1817E-03     58.7232E-03    -26.5416E-03     158.638E-03    -33.5895E-03     60.3551E-03    -26.7005E-03     158.424E-03
             689     15.7731E-03     79.4175E-03    -8.18875E+06     133.013E+06     21.0748E+06     483.096E+03    -39.2208E-03     65.8226E-03    -26.6017E-03     262.156E-03    -45.6880E-03     72.6717E-03    -26.6773E-03     263.253E-03
             690     16.6498E-03     79.7298E-03    -5.50010E+06     179.639E+06     83.9690E+06     760.470E+03    -36.9088E-03     63.7273E-03    -26.8185E-03     259.677E-03    -45.6776E-03     72.8708E-03    -26.6511E-03     264.680E-03
             691     876.121E-06     79.4750E-03    -26.5486E+06    -115.018E+06    -26.4254E+06    -473.178E+03    -26.9021E-03     53.8033E-03    -26.9012E-03     5.69602E-03    -26.8298E-03     53.3052E-03    -26.8280E-03     5.68718E-03
             692     1.75240E-03     79.4826E-03    -26.0140E+06    -113.160E+06    -25.5262E+06    -1.06115E+06    -26.9084E-03     53.8031E-03    -26.8947E-03     10.5229E-03    -26.8378E-03     53.3125E-03    -26.8206E-03     10.5040E-03
             693     2.62853E-03     79.4950E-03    -25.1860E+06    -109.765E+06    -23.2618E+06    -1.79497E+06    -26.9269E-03     53.8203E-03    -26.8933E-03     15.6481E-03    -26.8609E-03     53.3427E-03    -26.8140E-03     15.6169E-03
             694     3.50480E-03     79.5124E-03    -24.0081E+06    -105.856E+06    -19.8529E+06    -2.20401E+06    -26.9577E-03     53.8542E-03    -26.8965E-03     20.8581E-03    -26.8972E-03     53.3903E-03    -26.8075E-03     20.8182E-03
             695     4.38097E-03     79.5346E-03    -22.5115E+06    -103.389E+06    -15.9488E+06    -2.71543E+06    -27.0045E-03     53.9080E-03    -26.9035E-03     26.1093E-03    -26.9470E-03     53.4498E-03    -26.8007E-03     26.0587E-03
             696     5.25725E-03     79.5619E-03    -20.6696E+06    -98.7594E+06    -12.5122E+06    -3.25569E+06    -27.0573E-03     53.9610E-03    -26.9037E-03     31.4112E-03    -27.0042E-03     53.5201E-03    -26.7930E-03     31.3486E-03
             697     6.13348E-03     79.5942E-03    -18.6254E+06    -92.9284E+06    -9.22692E+06    -3.72053E+06    -27.1241E-03     54.0240E-03    -26.8999E-03     36.7446E-03    -27.0766E-03     53.6073E-03    -26.7843E-03     36.6698E-03
             698     7.00979E-03     79.6317E-03    -16.5840E+06    -89.0638E+06    -6.36479E+06    -4.21198E+06    -27.2150E-03     54.1116E-03    -26.8966E-03     42.0657E-03    -27.1709E-03     53.7109E-03    -26.7752E-03     41.9767E-03
             699     7.88604E-03     79.6740E-03    -14.7216E+06    -83.9857E+06    -5.04311E+06    -4.53538E+06    -27.3222E-03     54.2067E-03    -26.8845E-03     47.3822E-03    -27.2836E-03     53.8324E-03    -26.7666E-03     47.2791E-03
             700     8.76239E-03     79.7217E-03    -12.9682E+06    -79.7761E+06    -4.12471E+06    -4.59920E+06    -27.4499E-03     54.3226E-03    -26.8727E-03     52.6706E-03    -27.4180E-03     53.9735E-03    -26.7588E-03     52.5544E-03
             701     9.63862E-03     79.7740E-03    -11.5478E+06    -76.8075E+06    -5.11933E+06    -4.50167E+06    -27.5992E-03     54.4541E-03    -26.8549E-03     57.9631E-03    -27.5747E-03     54.1308E-03    -26.7524E-03     57.8326E-03
             702     10.5150E-03     79.8318E-03    -10.3609E+06    -70.2770E+06    -7.58723E+06    -4.23060E+06    -27.7194E-03     54.5445E-03    -26.8251E-03     63.1101E-03    -27.7119E-03     54.2728E-03    -26.7461E-03     62.9641E-03
             703     11.3913E-03     79.8937E-03    -9.42316E+06    -57.1731E+06    -6.86794E+06    -3.83124E+06    -27.8665E-03     54.6668E-03    -26.8003E-03     69.7523E-03    -27.9018E-03     54.4855E-03    -26.7381E-03     69.5873E-03
             704     12.2676E-03     79.9643E-03    -8.19104E+06    -43.9821E+06    -7.77702E+06    -3.02517E+06    -28.1027E-03     54.8679E-03    -26.7652E-03     78.0748E-03    -28.1936E-03     54.7961E-03    -26.7284E-03     77.8912E-03
             705     13.1450E-03     80.0417E-03    -7.27497E+06    -30.4939E+06    -13.9065E+06    -1.83207E+06    -28.1571E-03     54.8623E-03    -26.7052E-03     80.2694E-03    -28.3146E-03     54.9260E-03    -26.7200E-03     80.0676E-03
             706     14.0180E-03     80.1169E-03    -7.35235E+06    -1.54395E+06    -19.8164E+06    -1.39638E+06    -28.6580E-03     55.2856E-03    -26.6276E-03     94.0385E-03    -29.0109E-03     55.6644E-03    -26.7138E-03     93.8044E-03
             707     14.8981E-03     80.2197E-03    -8.65017E+06     56.1072E+06    -18.5445E+06    -456.582E+03    -32.3648E-03     58.9078E-03    -26.5430E-03     158.458E-03    -33.7703E-03     60.5356E-03    -26.7045E-03     158.241E-03
             708     15.7738E-03     80.4203E-03    -8.97113E+06     132.137E+06     18.9308E+06     825.453E+03    -39.2680E-03     65.8707E-03    -26.6027E-03     262.524E-03    -45.7550E-03     72.7400E-03    -26.6866E-03     263.632E-03
             709     16.6500E-03     80.7284E-03    -5.39772E+06     180.343E+06     83.3314E+06     656.800E+03    -36.7565E-03     63.5749E-03    -26.8184E-03     259.920E-03    -45.5385E-03     72.7363E-03    -26.6554E-03     264.936E-03
             710     876.214E-06     80.4753E-03    -27.4981E+06    -113.717E+06    -27.4776E+06    -777.899E+03    -26.9011E-03     53.7979E-03    -26.8967E-03     5.69747E-03    -26.8340E-03     53.3092E-03    -26.8294E-03     5.68469E-03
             711     1.75232E-03     80.4827E-03    -26.8616E+06    -111.512E+06    -26.0487E+06    -1.57728E+06    -26.9091E-03     53.8036E-03    -26.8945E-03     10.5304E-03    -26.8444E-03     53.3232E-03    -26.8241E-03     10.5049E-03
             712     2.62858E-03     80.4952E-03    -25.8696E+06    -108.399E+06    -23.2849E+06    -2.16579E+06    -26.9285E-03     53.8254E-03    -26.8969E-03     15.6535E-03    -26.8678E-03     53.3556E-03    -26.8186E-03     15.6175E-03
             713     3.50472E-03     80.5124E-03    -24.4749E+06    -104.702E+06    -19.9657E+06    -2.69266E+06    -26.9582E-03     53.8581E-03    -26.8999E-03     20.8662E-03    -26.9016E-03     53.4008E-03    -26.8124E-03     20.8200E-03
             714     4.38100E-03     80.5348E-03    -22.6652E+06    -101.951E+06    -16.2377E+06    -3.28822E+06    -27.0022E-03     53.9069E-03    -26.9046E-03     26.1181E-03    -26.9472E-03     53.4565E-03    -26.8051E-03     26.0602E-03
             715     5.25720E-03     80.5620E-03    -20.7690E+06    -97.5100E+06    -12.7587E+06    -3.93264E+06    -27.0557E-03     53.9602E-03    -26.9045E-03     31.4190E-03    -27.0045E-03     53.5261E-03    -26.7968E-03     31.3477E-03
             716     6.13349E-03     80.5944E-03    -18.8223E+06    -91.6456E+06    -9.67777E+06    -4.55046E+06    -27.1219E-03     54.0212E-03    -26.8993E-03     36.7560E-03    -27.0766E-03     53.6118E-03    -26.7875E-03     36.6705E-03
             717     7.00974E-03     80.6317E-03    -16.8445E+06    -87.9765E+06    -6.84244E+06    -5.02746E+06    -27.2152E-03     54.1112E-03    -26.8959E-03     42.0837E-03    -27.1733E-03     53.7170E-03    -26.7781E-03     41.9841E-03
             718     7.88605E-03     80.6743E-03    -14.9864E+06    -83.1395E+06    -5.47697E+06    -5.33763E+06    -27.3192E-03     54.2033E-03    -26.8842E-03     47.4055E-03    -27.2825E-03     53.8342E-03    -26.7693E-03     47.2922E-03
             719     8.76233E-03     80.7216E-03    -13.3366E+06    -79.3046E+06    -4.66317E+06    -5.46416E+06    -27.4425E-03     54.3143E-03    -26.8718E-03     52.7219E-03    -27.4123E-03     53.9688E-03    -26.7608E-03     52.5945E-03
             720     9.63864E-03     80.7744E-03    -11.8939E+06    -76.5465E+06    -5.69888E+06    -5.32196E+06    -27.5763E-03     54.4289E-03    -26.8526E-03     58.0171E-03    -27.5530E-03     54.1082E-03    -26.7529E-03     57.8762E-03
             721     10.5150E-03     80.8316E-03    -10.7811E+06    -70.2233E+06    -8.15677E+06    -5.12995E+06    -27.7058E-03     54.5275E-03    -26.8217E-03     63.1731E-03    -27.6997E-03     54.2574E-03    -26.7450E-03     63.0155E-03
             722     11.3913E-03     80.8942E-03    -9.82897E+06    -57.4048E+06    -7.41325E+06    -4.71508E+06    -27.8961E-03     54.6940E-03    -26.7980E-03     69.7999E-03    -27.9324E-03     54.5132E-03    -26.7376E-03     69.6233E-03
             723     12.2679E-03     80.9638E-03    -9.21917E+06    -44.8622E+06    -8.64993E+06    -4.03459E+06    -28.1584E-03     54.9247E-03    -26.7663E-03     78.0401E-03    -28.2522E-03     54.8516E-03    -26.7311E-03     77.8429E-03
             724     13.1429E-03     81.0425E-03    -8.78758E+06    -31.8710E+06    -14.9892E+06    -3.02101E+06    -28.0785E-03     54.7849E-03    -26.7063E-03     80.2153E-03    -28.2396E-03     54.8450E-03    -26.7223E-03     79.9989E-03
             725     14.0231E-03     81.1162E-03    -9.46521E+06    -2.38970E+06    -18.3092E+06    -1.29651E+06    -28.6205E-03     55.2588E-03    -26.6383E-03     94.1417E-03    -28.9851E-03     55.6344E-03    -26.7126E-03     93.9090E-03
             726     14.8953E-03     81.2215E-03    -10.2108E+06     54.5227E+06    -18.3306E+06    -13.3762E+03    -32.5129E-03     59.0639E-03    -26.5511E-03     158.506E-03    -33.9270E-03     60.6886E-03    -26.7070E-03     158.292E-03
             727     15.7726E-03     81.4180E-03    -8.95221E+06     131.484E+06     16.3121E+06     567.006E+03    -39.2263E-03     65.8232E-03    -26.5969E-03     262.290E-03    -45.7020E-03     72.6866E-03    -26.6930E-03     263.406E-03
             728     16.6506E-03     81.7300E-03    -5.24524E+06     181.014E+06     82.5337E+06     319.116E+03    -36.5266E-03     63.3407E-03    -26.8141E-03     259.356E-03    -45.2774E-03     72.4761E-03    -26.6563E-03     264.371E-03
             729     876.148E-06     81.4753E-03    -28.4965E+06    -111.628E+06    -28.0385E+06    -1.25136E+06    -26.8969E-03     53.7855E-03    -26.8886E-03     5.69769E-03    -26.8370E-03     53.3095E-03    -26.8256E-03     5.67879E-03
             730     1.75239E-03     81.4830E-03    -27.5449E+06    -109.688E+06    -25.9137E+06    -1.96457E+06    -26.9109E-03     53.8057E-03    -26.8948E-03     10.5313E-03    -26.8524E-03     53.3352E-03    -26.8254E-03     10.5007E-03
             731     2.62851E-03     81.4953E-03    -26.3310E+06    -106.914E+06    -23.4458E+06    -2.57290E+06    -26.9288E-03     53.8266E-03    -26.8978E-03     15.6584E-03    -26.8723E-03     53.3651E-03    -26.8218E-03     15.6171E-03
             732     3.50477E-03     81.5127E-03    -24.8510E+06    -103.070E+06    -20.5527E+06    -3.27155E+06    -26.9554E-03     53.8537E-03    -26.8983E-03     20.8707E-03    -26.9022E-03     53.4059E-03    -26.8155E-03     20.8170E-03
             733     4.38095E-03     81.5349E-03    -23.1621E+06    -100.426E+06    -16.8303E+06    -4.00034E+06    -26.9984E-03     53.9012E-03    -26.9028E-03     26.1220E-03    -26.9472E-03     53.4600E-03    -26.8077E-03     26.0548E-03
             734     5.25721E-03     81.5623E-03    -21.1843E+06    -95.9142E+06    -13.2243E+06    -4.68892E+06    -27.0518E-03     53.9544E-03    -26.9026E-03     31.4243E-03    -27.0043E-03     53.5296E-03    -26.7989E-03     31.3432E-03
             735     6.13345E-03     81.5945E-03    -19.1550E+06    -90.2075E+06    -10.0989E+06    -5.35476E+06    -27.1181E-03     54.0155E-03    -26.8973E-03     36.7661E-03    -27.0760E-03     53.6144E-03    -26.7893E-03     36.6702E-03
             736     7.00975E-03     81.6320E-03    -17.1863E+06    -86.7800E+06    -7.32917E+06    -5.85553E+06    -27.2049E-03     54.0983E-03    -26.8933E-03     42.1021E-03    -27.1658E-03     53.7112E-03    -26.7792E-03     41.9919E-03
             737     7.88603E-03     81.6743E-03    -15.3458E+06    -82.2048E+06    -5.99956E+06    -6.14989E+06    -27.3072E-03     54.1879E-03    -26.8807E-03     47.4316E-03    -27.2729E-03     53.8247E-03    -26.7692E-03     47.3078E-03
             738     8.76235E-03     81.7219E-03    -13.7094E+06    -78.6568E+06    -5.27214E+06    -6.27035E+06    -27.4181E-03     54.2848E-03    -26.8667E-03     52.7532E-03    -27.3898E-03     53.9439E-03    -26.7592E-03     52.6156E-03
             739     9.63870E-03     81.7742E-03    -12.2568E+06    -76.2358E+06    -6.49762E+06    -6.23600E+06    -27.5494E-03     54.3943E-03    -26.8450E-03     58.0429E-03    -27.5272E-03     54.0768E-03    -26.7491E-03     57.8904E-03
             740     10.5150E-03     81.8319E-03    -11.1638E+06    -70.0563E+06    -9.02737E+06    -5.96421E+06    -27.7071E-03     54.5202E-03    -26.8131E-03     63.2064E-03    -27.7018E-03     54.2528E-03    -26.7405E-03     63.0381E-03
             741     11.3914E-03     81.8939E-03    -10.3893E+06    -57.7080E+06    -8.37219E+06    -5.46556E+06    -27.9223E-03     54.7135E-03    -26.7912E-03     69.9061E-03    -27.9598E-03     54.5335E-03    -26.7343E-03     69.7197E-03
             742     12.2673E-03     81.9646E-03    -9.75542E+06    -45.3560E+06    -9.80418E+06    -4.69289E+06    -28.1286E-03     54.8873E-03    -26.7587E-03     78.1690E-03    -28.2225E-03     54.8139E-03    -26.7278E-03     77.9637E-03
             743     13.1451E-03     82.0420E-03    -9.64679E+06    -33.7270E+06    -17.2955E+06    -3.40820E+06    -28.1390E-03     54.8351E-03    -26.6961E-03     80.3572E-03    -28.2986E-03     54.8909E-03    -26.7197E-03     80.1354E-03
             744     14.0178E-03     82.1165E-03    -9.30171E+06    -4.08813E+06    -19.8619E+06    -1.74481E+06    -28.6766E-03     55.3098E-03    -26.6332E-03     94.3538E-03    -29.0361E-03     55.6794E-03    -26.7131E-03     94.1150E-03
             745     14.8984E-03     82.2213E-03    -9.47415E+06     53.8942E+06    -19.6852E+06    -294.786E+03    -32.4333E-03     58.9767E-03    -26.5433E-03     158.572E-03    -33.8396E-03     60.5978E-03    -26.7062E-03     158.356E-03
             746     15.7736E-03     82.4199E-03    -8.92752E+06     130.679E+06     13.3548E+06      62.349E+03    -39.2617E-03     65.8422E-03    -26.5804E-03     262.385E-03    -45.7396E-03     72.7135E-03    -26.6902E-03     263.492E-03
             747     16.6492E-03     82.7283E-03    -4.73299E+06     181.160E+06     81.1961E+06    -83.9192E+03    -36.4680E-03     63.2703E-03    -26.8023E-03     259.480E-03    -45.2164E-03     72.4095E-03    -26.6521E-03     264.482E-03
             748     876.202E-06     82.4757E-03    -28.0718E+06    -109.103E+06    -27.5655E+06    -1.25883E+06    -26.8977E-03     53.7888E-03    -26.8911E-03     5.70071E-03    -26.8400E-03     53.3241E-03    -26.8300E-03     5.68172E-03
             749     1.75232E-03     82.4831E-03    -27.5878E+06    -107.688E+06    -26.1438E+06    -2.13115E+06    -26.9087E-03     53.8026E-03    -26.8939E-03     10.5275E-03    -26.8530E-03     53.3425E-03    -26.8285E-03     10.4948E-03
             750     2.62856E-03     82.4956E-03    -26.5464E+06    -104.985E+06    -23.8290E+06    -3.00484E+06    -26.9271E-03     53.8228E-03    -26.8958E-03     15.6546E-03    -26.8739E-03     53.3719E-03    -26.8242E-03     15.6077E-03
             751     3.50471E-03     82.5128E-03    -25.1197E+06    -101.166E+06    -20.9124E+06    -3.86801E+06    -26.9522E-03     53.8483E-03    -26.8962E-03     20.8677E-03    -26.9025E-03     53.4110E-03    -26.8176E-03     20.8063E-03
             752     4.38097E-03     82.5352E-03    -23.3646E+06    -98.5706E+06    -17.1901E+06    -4.69730E+06    -26.9943E-03     53.8944E-03    -26.9002E-03     26.1212E-03    -26.9463E-03     53.4634E-03    -26.8093E-03     26.0450E-03
             753     5.25719E-03     82.5623E-03    -21.4558E+06    -94.1590E+06    -13.6337E+06    -5.50232E+06    -27.0461E-03     53.9456E-03    -26.8995E-03     31.4275E-03    -27.0020E-03     53.5306E-03    -26.8000E-03     31.3359E-03
             754     6.13347E-03     82.5948E-03    -19.4745E+06    -88.5975E+06    -10.4887E+06    -6.16615E+06    -27.1080E-03     54.0019E-03    -26.8938E-03     36.7701E-03    -27.0692E-03     53.6098E-03    -26.7896E-03     36.6637E-03
             755     7.00974E-03     82.6320E-03    -17.5003E+06    -85.4405E+06    -7.81274E+06    -6.70328E+06    -27.1906E-03     54.0792E-03    -26.8886E-03     42.1070E-03    -27.1542E-03     53.7000E-03    -26.7784E-03     41.9860E-03
             756     7.88606E-03     82.6746E-03    -15.5747E+06    -81.1440E+06    -6.57837E+06    -7.06346E+06    -27.2857E-03     54.1598E-03    -26.8741E-03     47.4442E-03    -27.2533E-03     53.8031E-03    -26.7668E-03     47.3087E-03
             757     8.76240E-03     82.7218E-03    -13.7813E+06    -77.9039E+06    -5.85149E+06    -7.20291E+06    -27.3974E-03     54.2560E-03    -26.8587E-03     52.7521E-03    -27.3697E-03     53.9198E-03    -26.7550E-03     52.6025E-03
             758     9.63874E-03     82.7745E-03    -12.2993E+06    -75.7273E+06    -7.08692E+06    -7.16513E+06    -27.5332E-03     54.3691E-03    -26.8359E-03     58.0464E-03    -27.5110E-03     54.0550E-03    -26.7437E-03     57.8820E-03
             759     10.5151E-03     82.8318E-03    -11.1288E+06    -70.0172E+06    -9.75105E+06    -6.85345E+06    -27.7054E-03     54.5089E-03    -26.8035E-03     63.2922E-03    -27.6990E-03     54.2426E-03    -26.7346E-03     63.1125E-03
             760     11.3913E-03     82.8944E-03    -10.2769E+06    -58.1643E+06    -9.13191E+06    -6.15505E+06    -27.8664E-03     54.6464E-03    -26.7800E-03     69.9789E-03    -27.9013E-03     54.4648E-03    -26.7264E-03     69.7840E-03
             761     12.2682E-03     82.9642E-03    -9.67480E+06    -45.8847E+06    -10.3766E+06    -5.38377E+06    -28.1370E-03     54.8841E-03    -26.7471E-03     78.1468E-03    -28.2287E-03     54.8087E-03    -26.7185E-03     77.9326E-03
             762     13.1433E-03     83.0423E-03    -9.06876E+06    -35.0018E+06    -17.6757E+06    -4.33755E+06    -28.2111E-03     54.9001E-03    -26.6890E-03     80.3293E-03    -28.3659E-03     54.9497E-03    -26.7135E-03     80.0947E-03
             763     14.0230E-03     83.1170E-03    -9.02337E+06    -6.44643E+06    -20.3766E+06    -2.41441E+06    -28.6570E-03     55.2860E-03    -26.6290E-03     94.5266E-03    -29.0111E-03     55.6443E-03    -26.7085E-03     94.2790E-03
             764     14.8951E-03     83.2214E-03    -8.95288E+06     52.4349E+06    -20.9116E+06    -702.782E+03    -32.1197E-03     58.6428E-03    -26.5231E-03     158.944E-03    -33.5165E-03     60.2546E-03    -26.6907E-03     158.732E-03
             765     15.7732E-03     83.4191E-03    -8.19646E+06     130.945E+06     12.6222E+06    -153.187E+03    -38.7521E-03     65.2849E-03    -26.5328E-03     263.508E-03    -45.2449E-03     72.1768E-03    -26.6476E-03     264.651E-03
             766     16.6514E-03     83.7296E-03    -5.21050E+06     181.146E+06     80.8779E+06    -367.872E+03    -36.9423E-03     63.6936E-03    -26.7513E-03     260.723E-03    -45.7341E-03     72.8754E-03    -26.6020E-03     265.708E-03
             767     876.140E-06     83.4757E-03    -28.1944E+06    -106.642E+06    -27.9406E+06    -1.15751E+06    -26.8975E-03     53.7879E-03    -26.8905E-03     5.69991E-03    -26.8434E-03     53.3363E-03    -26.8347E-03     5.68221E-03
             768     1.75237E-03     83.4834E-03    -27.5771E+06    -105.225E+06    -26.4895E+06    -2.28490E+06    -26.9076E-03     53.7998E-03    -26.8922E-03     10.5257E-03    -26.8549E-03     53.3525E-03    -26.8321E-03     10.4910E-03
             769     2.62851E-03     83.4957E-03    -26.5868E+06    -102.687E+06    -24.0938E+06    -3.40934E+06    -26.9240E-03     53.8180E-03    -26.8940E-03     15.6474E-03    -26.8741E-03     53.3790E-03    -26.8270E-03     15.5953E-03
             770     3.50475E-03     83.5131E-03    -25.2517E+06    -98.9331E+06    -21.1482E+06    -4.42509E+06    -26.9479E-03     53.8419E-03    -26.8940E-03     20.8593E-03    -26.9018E-03     53.4163E-03    -26.8196E-03     20.7907E-03
             771     4.38094E-03     83.5352E-03    -23.6192E+06    -96.4198E+06    -17.5672E+06    -5.42671E+06    -26.9880E-03     53.8849E-03    -26.8969E-03     26.1154E-03    -26.9438E-03     53.4655E-03    -26.8107E-03     26.0298E-03
             772     5.25720E-03     83.5626E-03    -21.6897E+06    -92.1622E+06    -14.0522E+06    -6.29784E+06    -27.0365E-03     53.9318E-03    -26.8953E-03     31.4227E-03    -26.9958E-03     53.5277E-03    -26.8005E-03     31.3208E-03
             773     6.13346E-03     83.5947E-03    -19.6688E+06    -86.8628E+06    -10.9019E+06    -7.03011E+06    -27.0948E-03     53.9836E-03    -26.8888E-03     36.7643E-03    -27.0589E-03     53.6011E-03    -26.7888E-03     36.6468E-03
             774     7.00977E-03     83.6323E-03    -17.6091E+06    -83.8400E+06    -8.21193E+06    -7.64018E+06    -27.1745E-03     54.0568E-03    -26.8823E-03     42.1020E-03    -27.1404E-03     53.6863E-03    -26.7763E-03     41.9688E-03
             775     7.88609E-03     83.6745E-03    -15.6407E+06    -79.9264E+06    -7.03623E+06    -8.09533E+06    -27.2659E-03     54.1324E-03    -26.8665E-03     47.4349E-03    -27.2348E-03     53.7825E-03    -26.7632E-03     47.2861E-03
             776     8.76244E-03     83.7221E-03    -13.8283E+06    -76.9946E+06    -6.37941E+06    -8.29197E+06    -27.3776E-03     54.2273E-03    -26.8497E-03     52.7492E-03    -27.3506E-03     53.8964E-03    -26.7499E-03     52.5857E-03
             777     9.63881E-03     83.7743E-03    -12.2102E+06    -75.1877E+06    -7.62868E+06    -8.22812E+06    -27.5249E-03     54.3513E-03    -26.8264E-03     58.0600E-03    -27.5022E-03     54.0405E-03    -26.7378E-03     57.8819E-03
             778     10.5151E-03     83.8321E-03    -11.0090E+06    -69.9923E+06    -10.3570E+06    -7.87029E+06    -27.6699E-03     54.4629E-03    -26.7929E-03     63.3355E-03    -27.6620E-03     54.1974E-03    -26.7273E-03     63.1428E-03
             779     11.3917E-03     83.8943E-03    -9.91952E+06    -58.6010E+06    -9.68675E+06    -7.16719E+06    -27.8555E-03     54.6242E-03    -26.7687E-03     69.9207E-03    -27.8871E-03     54.4406E-03    -26.7177E-03     69.7128E-03
             780     12.2676E-03     83.9644E-03     -9.0167E+06    -46.7923E+06    -10.9090E+06    -5.99041E+06    -28.1175E-03     54.8529E-03    -26.7354E-03     78.2525E-03    -28.2040E-03     54.7728E-03    -26.7090E-03     78.0306E-03
             781     13.1449E-03     84.0428E-03    -8.92177E+06    -35.9287E+06    -18.2617E+06    -4.97846E+06    -28.2177E-03     54.8949E-03    -26.6771E-03     80.6099E-03    -28.3700E-03     54.9408E-03    -26.7034E-03     80.3670E-03
             782     14.0181E-03     84.1162E-03    -8.80757E+06    -8.58224E+06    -21.0031E+06    -3.74001E+06    -28.5110E-03     55.1256E-03    -26.6146E-03     94.4390E-03    -28.8591E-03     55.4729E-03    -26.6944E-03     94.1764E-03
             783     14.8990E-03     84.2221E-03    -7.74516E+06     50.0286E+06    -23.2895E+06    -1.82205E+06    -31.8504E-03     58.3388E-03    -26.4884E-03     158.477E-03    -33.2265E-03     59.9326E-03    -26.6661E-03     158.255E-03
             784     15.7757E-03     84.4181E-03    -6.56929E+06     131.039E+06     11.3840E+06    -309.693E+03    -38.5133E-03     65.0054E-03    -26.4921E-03     262.064E-03    -44.9423E-03     71.8433E-03    -26.6156E-03     263.205E-03
             785     16.6535E-03     84.7295E-03    -4.80622E+06     181.701E+06     81.4184E+06     197.627E+03    -37.1848E-03     63.9140E-03    -26.7292E-03     260.411E-03    -45.9702E-03     73.0913E-03    -26.5786E-03     265.387E-03
             786     876.194E-06     84.4761E-03    -28.2263E+06    -104.008E+06    -28.0185E+06    -1.38055E+06    -26.8974E-03     53.7886E-03    -26.8912E-03     5.69293E-03    -26.8472E-03     53.3503E-03    -26.8396E-03     5.67235E-03
             787     1.75232E-03     84.4835E-03    -27.6058E+06    -102.446E+06    -26.5283E+06    -2.56487E+06    -26.9052E-03     53.7971E-03    -26.8919E-03     10.5194E-03    -26.8566E-03     53.3637E-03    -26.8359E-03     10.4811E-03
             788     2.62854E-03     84.4960E-03    -26.6094E+06    -99.9870E+06    -24.2039E+06    -3.83055E+06    -26.9211E-03     53.8136E-03    -26.8925E-03     15.6408E-03    -26.8750E-03     53.3883E-03    -26.8300E-03     15.5832E-03
             789     3.50471E-03     84.5132E-03    -25.2131E+06    -96.4003E+06    -21.2948E+06    -5.02591E+06    -26.9442E-03     53.8361E-03    -26.8918E-03     20.8492E-03    -26.9014E-03     53.4233E-03    -26.8220E-03     20.7728E-03
             790     4.38095E-03     84.5355E-03    -23.5294E+06    -93.9615E+06    -17.6430E+06    -6.09279E+06    -26.9811E-03     53.8754E-03    -26.8943E-03     26.1022E-03    -26.9399E-03     53.4683E-03    -26.8122E-03     26.0079E-03
             791     5.25719E-03     84.5626E-03    -21.6962E+06    -89.9066E+06    -14.3093E+06    -7.12301E+06    -27.0247E-03     53.9157E-03    -26.8910E-03     31.4091E-03    -26.9869E-03     53.5232E-03    -26.8007E-03     31.2966E-03
             792     6.13348E-03     84.5951E-03    -19.6938E+06    -84.8777E+06    -11.2832E+06    -7.96434E+06    -27.0794E-03     53.9622E-03    -26.8828E-03     36.7508E-03    -27.0459E-03     53.5902E-03    -26.7876E-03     36.6213E-03
             793     7.00978E-03     84.6322E-03    -17.6860E+06    -82.0654E+06    -8.61473E+06    -8.63126E+06    -27.1566E-03     54.0316E-03    -26.8750E-03     42.0906E-03    -27.1248E-03     53.6707E-03    -26.7734E-03     41.9446E-03
             794     7.88612E-03     84.6748E-03    -15.7121E+06    -78.3532E+06    -7.43222E+06    -9.21556E+06    -27.2475E-03     54.1057E-03    -26.8582E-03     47.4226E-03    -27.2185E-03     53.7643E-03    -26.7589E-03     47.2594E-03
             795     8.76249E-03     84.7219E-03    -13.8043E+06    -75.9996E+06    -6.87415E+06    -9.51995E+06    -27.3594E-03     54.1997E-03    -26.8403E-03     52.7463E-03    -27.3331E-03     53.8745E-03    -26.7445E-03     52.5669E-03
             796     9.63887E-03     84.7746E-03    -12.1394E+06    -74.5236E+06    -8.19511E+06    -9.46471E+06    -27.5067E-03     54.3226E-03    -26.8159E-03     58.0848E-03    -27.4838E-03     54.0159E-03    -26.7313E-03     57.8908E-03
             797     10.5153E-03     84.8318E-03    -10.7598E+06    -69.8956E+06    -10.9228E+06    -9.12123E+06    -27.6439E-03     54.4256E-03    -26.7817E-03     63.3303E-03    -27.6339E-03     54.1609E-03    -26.7194E-03     63.1217E-03
             798     11.3915E-03     84.8945E-03    -9.54080E+06    -59.0124E+06    -10.3522E+06    -8.40440E+06    -27.8135E-03     54.5686E-03    -26.7551E-03     70.0641E-03    -27.8415E-03     54.3833E-03    -26.7075E-03     69.8406E-03
             799     12.2682E-03     84.9645E-03    -8.23764E+06    -48.0275E+06    -11.5692E+06    -7.25443E+06    -28.0011E-03     54.7181E-03    -26.7170E-03     78.3296E-03    -28.0805E-03     54.6313E-03    -26.6932E-03     78.0924E-03
             800     13.1442E-03     85.0423E-03    -7.37257E+06    -37.1152E+06    -18.7567E+06    -5.59137E+06    -28.1341E-03     54.7857E-03    -26.6515E-03     81.0602E-03    -28.2762E-03     54.8242E-03    -26.6808E-03     80.8105E-03
             801     14.0231E-03     85.1179E-03    -7.27901E+06    -9.49746E+06    -21.1598E+06    -4.73693E+06    -28.5957E-03     55.1869E-03    -26.5912E-03     94.1450E-03    -28.9342E-03     55.5272E-03    -26.6727E-03     93.8691E-03
             802     14.8962E-03     85.2194E-03    -8.27540E+06     47.7671E+06    -25.3696E+06    -3.24140E+06    -32.2543E-03     58.7312E-03    -26.4769E-03     157.805E-03    -33.6291E-03     60.3198E-03    -26.6610E-03     157.553E-03
             803     15.7731E-03     85.4190E-03    -7.95891E+06     128.952E+06     8.38708E+06    -823.913E+03    -39.4007E-03     65.9185E-03    -26.5177E-03     260.875E-03    -45.7872E-03     72.7102E-03    -26.6512E-03     261.927E-03
             804     16.6493E-03     85.7259E-03    -5.08700E+06     181.405E+06     80.5487E+06     385.652E+03    -36.8677E-03     63.6498E-03    -26.7820E-03     260.209E-03    -45.6572E-03     72.8316E-03    -26.6350E-03     265.221E-03
             805     876.130E-06     85.4762E-03    -28.0503E+06    -101.007E+06    -27.7330E+06    -1.53608E+06    -26.8957E-03     53.7895E-03    -26.8938E-03     5.68929E-03    -26.8494E-03     53.3655E-03    -26.8453E-03     5.66669E-03
             806     1.75234E-03     85.4839E-03    -27.4450E+06    -99.3961E+06    -26.3421E+06    -2.85710E+06    -26.9030E-03     53.7947E-03    -26.8917E-03     10.5161E-03    -26.8583E-03     53.3761E-03    -26.8395E-03     10.4740E-03
             807     2.62850E-03     85.4961E-03    -26.4114E+06    -96.8904E+06    -24.0420E+06    -4.29266E+06    -26.9180E-03     53.8093E-03    -26.8913E-03     15.6329E-03    -26.8756E-03     53.3990E-03    -26.8327E-03     15.5694E-03
             808     3.50472E-03     85.5135E-03    -25.0644E+06    -93.5185E+06    -21.2274E+06    -5.65708E+06    -26.9390E-03     53.8288E-03    -26.8898E-03     20.8403E-03    -26.8998E-03     53.4301E-03    -26.8240E-03     20.7558E-03
             809     4.38093E-03     85.5356E-03    -23.3740E+06    -91.2647E+06    -17.7413E+06    -6.87004E+06    -26.9722E-03     53.8628E-03    -26.8906E-03     26.0929E-03    -26.9340E-03     53.4691E-03    -26.8131E-03     25.9886E-03
             810     5.25719E-03     85.5629E-03    -21.4143E+06    -87.3163E+06    -14.3265E+06    -7.96271E+06    -27.0126E-03     53.8989E-03    -26.8863E-03     31.3975E-03    -26.9772E-03     53.5190E-03    -26.8002E-03     31.2741E-03
             811     6.13348E-03     85.5950E-03    -19.4612E+06    -82.6919E+06    -11.3575E+06    -8.89455E+06    -27.0639E-03     53.9408E-03    -26.8769E-03     36.7368E-03    -27.0323E-03     53.5795E-03    -26.7856E-03     36.5953E-03
             812     7.00980E-03     85.6325E-03    -17.4261E+06    -80.0098E+06    -8.70716E+06    -9.67019E+06    -27.1375E-03     54.0050E-03    -26.8675E-03     42.0802E-03    -27.1073E-03     53.6542E-03    -26.7698E-03     41.9209E-03
             813     7.88616E-03     85.6746E-03    -15.4657E+06    -76.5401E+06    -7.50683E+06    -10.3380E+06    -27.2295E-03     54.0792E-03    -26.8497E-03     47.4149E-03    -27.2018E-03     53.7467E-03    -26.7538E-03     47.2373E-03
             814     8.76253E-03     85.7222E-03    -13.7218E+06    -74.7252E+06    -7.01715E+06    -10.7410E+06    -27.3429E-03     54.1744E-03    -26.8315E-03     52.7437E-03    -27.3178E-03     53.8556E-03    -26.7383E-03     52.5487E-03
             815     9.63894E-03     85.7743E-03    -12.1020E+06    -73.7466E+06    -8.45912E+06    -10.8030E+06    -27.4756E-03     54.2814E-03    -26.8058E-03     58.1028E-03    -27.4532E-03     53.9788E-03    -26.7236E-03     57.8918E-03
             816     10.5153E-03     85.8322E-03    -10.7147E+06    -69.5124E+06    -11.1187E+06    -10.5748E+06    -27.6121E-03     54.3826E-03    -26.7705E-03     63.3538E-03    -27.6021E-03     54.1200E-03    -26.7098E-03     63.1267E-03
             817     11.3919E-03     85.8941E-03    -9.53069E+06    -59.4049E+06    -10.6308E+06    -9.90559E+06    -27.7518E-03     54.4937E-03    -26.7419E-03     70.0151E-03    -27.7786E-03     54.3066E-03    -26.6951E-03     69.7727E-03
             818     12.2683E-03     85.9646E-03    -8.42708E+06    -48.9911E+06    -11.8149E+06    -8.87646E+06    -28.0895E-03     54.7966E-03    -26.7071E-03     78.0977E-03    -28.1683E-03     54.7058E-03    -26.6829E-03     77.8388E-03
             819     13.1454E-03     86.0420E-03    -7.60866E+06    -38.5334E+06    -18.8295E+06    -7.39984E+06    -28.0622E-03     54.7079E-03    -26.6458E-03     80.4756E-03    -28.2019E-03     54.7385E-03    -26.6730E-03     80.2035E-03
             820     14.0195E-03     86.1177E-03    -7.61011E+06    -11.3289E+06    -18.8437E+06    -5.13036E+06    -28.5126E-03     55.1074E-03    -26.5948E-03     93.8628E-03    -28.8511E-03     55.4333E-03    -26.6616E-03     93.5822E-03
             821     14.8985E-03     86.2204E-03    -8.01271E+06     45.7486E+06    -23.6330E+06    -3.01279E+06    -32.6451E-03     59.1302E-03    -26.4852E-03     158.319E-03    -34.0249E-03     60.7126E-03    -26.6581E-03     158.061E-03
             822     15.7742E-03     86.4194E-03    -8.28714E+06     126.578E+06     5.91400E+06    -1.03537E+06    -39.9698E-03     66.4943E-03    -26.5245E-03     262.914E-03    -46.4261E-03     73.3534E-03    -26.6664E-03     263.936E-03
             823     16.6489E-03     86.7290E-03    -5.62225E+06     180.771E+06     79.0726E+06     207.627E+03    -36.8023E-03     63.5956E-03    -26.7934E-03     260.845E-03    -45.6116E-03     72.7974E-03    -26.6520E-03     265.852E-03
             824     876.186E-06     86.4766E-03    -27.7241E+06    -97.7191E+06    -27.4075E+06    -1.62405E+06    -26.8940E-03     53.7837E-03    -26.8896E-03     5.69188E-03    -26.8513E-03     53.3752E-03    -26.8448E-03     5.66815E-03
             825     1.75231E-03     86.4840E-03    -26.9485E+06    -95.8554E+06    -25.8921E+06    -3.26796E+06    -26.9031E-03     53.7924E-03    -26.8893E-03     10.5133E-03    -26.8617E-03     53.3902E-03    -26.8407E-03     10.4658E-03
             826     2.62851E-03     86.4965E-03    -25.7974E+06    -93.5052E+06    -23.5873E+06    -4.84434E+06    -26.9133E-03     53.8024E-03    -26.8890E-03     15.6292E-03    -26.8735E-03     53.4074E-03    -26.8340E-03     15.5585E-03
             827     3.50471E-03     86.5136E-03    -24.3918E+06    -90.2852E+06    -20.7695E+06    -6.27712E+06    -26.9306E-03     53.8170E-03    -26.8863E-03     20.8347E-03    -26.8934E-03     53.4328E-03    -26.8239E-03     20.7421E-03
             828     4.38094E-03     86.5359E-03    -22.8057E+06    -88.2484E+06    -17.3724E+06    -7.62337E+06    -26.9612E-03     53.8469E-03    -26.8857E-03     26.0865E-03    -26.9251E-03     53.4669E-03    -26.8115E-03     25.9725E-03
             829     5.25721E-03     86.5629E-03    -21.0636E+06    -84.5320E+06    -14.1266E+06    -8.80291E+06    -26.9980E-03     53.8778E-03    -26.8797E-03     31.3927E-03    -26.9651E-03     53.5110E-03    -26.7972E-03     31.2586E-03
             830     6.13350E-03     86.5953E-03    -19.0894E+06    -80.1502E+06    -11.0939E+06    -9.85518E+06    -27.0472E-03     53.9168E-03    -26.8696E-03     36.7330E-03    -27.0178E-03     53.5673E-03    -26.7811E-03     36.5791E-03
             831     7.00985E-03     86.6323E-03    -17.0719E+06    -77.7370E+06    -8.55371E+06    -10.7572E+06    -27.1175E-03     53.9761E-03    -26.8586E-03     42.0806E-03    -27.0890E-03     53.6359E-03    -26.7639E-03     41.9074E-03
             832     7.88621E-03     86.6749E-03    -15.1988E+06    -74.6118E+06    -7.35175E+06    -11.3682E+06    -27.2079E-03     54.0478E-03    -26.8400E-03     47.4265E-03    -27.1818E-03     53.7242E-03    -26.7465E-03     47.2356E-03
             833     8.76261E-03     86.7219E-03    -13.5190E+06    -73.1170E+06    -6.87746E+06    -11.8300E+06    -27.3207E-03     54.1416E-03    -26.8209E-03     52.7629E-03    -27.2971E-03     53.8304E-03    -26.7297E-03     52.5539E-03
             834     9.63901E-03     86.7746E-03    -12.0430E+06    -72.6222E+06    -8.60322E+06    -12.1097E+06    -27.4504E-03     54.2439E-03    -26.7935E-03     58.1154E-03    -27.4291E-03     53.9470E-03    -26.7137E-03     57.8876E-03
             835     10.5155E-03     86.8317E-03    -10.7808E+06    -68.9668E+06    -11.4902E+06    -11.9724E+06    -27.5957E-03     54.3529E-03    -26.7572E-03     63.3597E-03    -27.5862E-03     54.0937E-03    -26.6990E-03     63.1147E-03
             836     11.3918E-03     86.8944E-03    -9.67122E+06    -59.5577E+06    -11.1812E+06    -11.3535E+06    -27.8188E-03     54.5504E-03    -26.7316E-03     69.9474E-03    -27.8453E-03     54.3636E-03    -26.6872E-03     69.6860E-03
             837     12.2684E-03     86.9640E-03    -8.68377E+06    -49.4868E+06    -12.6231E+06    -10.3886E+06    -28.1483E-03     54.8493E-03    -26.7010E-03     78.3695E-03    -28.2266E-03     54.7577E-03    -26.6798E-03     78.0910E-03
             838     13.1435E-03     87.0432E-03    -7.76737E+06    -40.6043E+06    -20.4569E+06    -8.78476E+06    -28.1062E-03     54.7469E-03    -26.6407E-03     80.5585E-03    -28.2411E-03     54.7693E-03    -26.6728E-03     80.2684E-03
             839     14.0229E-03     87.1160E-03    -7.11339E+06    -14.1642E+06    -19.9628E+06    -6.23004E+06    -28.4504E-03     55.0411E-03    -26.5908E-03     94.2130E-03    -28.7812E-03     55.3543E-03    -26.6597E-03     93.9191E-03
             840     14.8971E-03     87.2220E-03    -7.10470E+06     42.9883E+06    -25.1983E+06    -3.14181E+06    -32.3444E-03     58.8105E-03    -26.4662E-03     158.730E-03    -33.7085E-03     60.3751E-03    -26.6442E-03     158.477E-03
             841     15.7735E-03     87.4186E-03    -7.40880E+06     124.728E+06     3.41318E+06    -689.545E+03    -39.3617E-03     65.8331E-03    -26.4714E-03     263.693E-03    -45.8389E-03     72.7169E-03    -26.6245E-03     264.785E-03
             842     16.6521E-03     87.7311E-03    -5.43307E+06     180.836E+06     77.9881E+06     186.800E+03    -36.9731E-03     63.7051E-03    -26.7320E-03     260.359E-03    -45.7523E-03     72.8808E-03    -26.5964E-03     265.331E-03
             843     876.144E-06     87.4767E-03    -26.2799E+06    -93.9717E+06    -26.3115E+06    -1.90364E+06    -26.8929E-03     53.7820E-03    -26.8891E-03     5.68639E-03    -26.8500E-03     53.3886E-03    -26.8463E-03     5.65904E-03
             844     1.75233E-03     87.4844E-03    -25.7426E+06    -91.7671E+06    -25.1009E+06    -3.76087E+06    -26.8961E-03     53.7807E-03    -26.8845E-03     10.5103E-03    -26.8558E-03     53.3960E-03    -26.8396E-03     10.4565E-03
             845     2.62851E-03     87.4966E-03    -24.7450E+06    -89.8223E+06    -22.8410E+06    -5.48352E+06    -26.9051E-03     53.7881E-03    -26.8829E-03     15.6275E-03    -26.8664E-03     53.4089E-03    -26.8310E-03     15.5486E-03
             846     3.50472E-03     87.5139E-03    -23.3707E+06    -86.7806E+06    -19.9925E+06    -6.98287E+06    -26.9187E-03     53.7979E-03    -26.8792E-03     20.8336E-03    -26.8825E-03     53.4287E-03    -26.8195E-03     20.7319E-03
             847     4.38097E-03     87.5359E-03    -21.7583E+06    -85.0443E+06    -16.4199E+06    -8.28595E+06    -26.9460E-03     53.8243E-03    -26.8783E-03     26.0835E-03    -26.9107E-03     53.4574E-03    -26.8055E-03     25.9609E-03
             848     5.25723E-03     87.5632E-03    -19.9872E+06    -81.4343E+06    -13.2414E+06    -9.54726E+06    -26.9792E-03     53.8496E-03    -26.8704E-03     31.3937E-03    -26.9467E-03     53.4955E-03    -26.7895E-03     31.2500E-03
             849     6.13357E-03     87.5952E-03    -18.1926E+06    -77.3156E+06    -10.4689E+06    -10.7430E+06    -27.0242E-03     53.8819E-03    -26.8578E-03     36.7441E-03    -26.9953E-03     53.5444E-03    -26.7716E-03     36.5788E-03
             850     7.00990E-03     87.6326E-03    -16.4374E+06    -75.3127E+06    -8.13944E+06    -11.6306E+06    -27.0925E-03     53.9375E-03    -26.8450E-03     42.1038E-03    -27.0649E-03     53.6078E-03    -26.7526E-03     41.9193E-03
             851     7.88631E-03     87.6746E-03    -14.7207E+06    -72.4954E+06    -7.21295E+06    -12.3647E+06    -27.1765E-03     54.0003E-03    -26.8238E-03     47.4713E-03    -27.1513E-03     53.6864E-03    -26.7334E-03     47.2678E-03
             852     8.76271E-03     87.7222E-03    -13.0149E+06    -71.2612E+06    -6.85373E+06    -12.9280E+06    -27.2891E-03     54.0917E-03    -26.8026E-03     52.8301E-03    -27.2656E-03     53.7889E-03    -26.7147E-03     52.6072E-03
             853     9.63918E-03     87.7742E-03    -11.5773E+06    -71.2193E+06    -8.65862E+06    -13.2225E+06    -27.4338E-03     54.2083E-03    -26.7745E-03     58.1940E-03    -27.4121E-03     53.9177E-03    -26.6977E-03     57.9520E-03
             854     10.5155E-03     87.8320E-03    -10.5543E+06    -68.2409E+06    -11.8947E+06    -13.1596E+06    -27.6032E-03     54.3416E-03    -26.7384E-03     63.4999E-03    -27.5930E-03     54.0862E-03    -26.6836E-03     63.2397E-03
             855     11.3921E-03     87.8940E-03    -9.49055E+06    -59.4725E+06    -11.7308E+06    -12.7529E+06    -27.8182E-03     54.5321E-03    -26.7139E-03     70.2583E-03    -27.8432E-03     54.3463E-03    -26.6726E-03     69.9791E-03
             856     12.2681E-03     87.9647E-03    -8.46209E+06    -49.9017E+06    -13.2612E+06    -11.8680E+06    -28.0425E-03     54.7223E-03    -26.6799E-03     78.6896E-03    -28.1177E-03     54.6288E-03    -26.6616E-03     78.3932E-03
             857     13.1462E-03     88.0422E-03    -8.17992E+06    -42.4159E+06    -21.4700E+06    -10.2941E+06    -28.0733E-03     54.6895E-03    -26.6162E-03     80.7954E-03    -28.2061E-03     54.7050E-03    -26.6502E-03     80.4862E-03
             858     14.0194E-03     88.1170E-03    -7.53185E+06    -17.3777E+06    -20.8805E+06    -7.59450E+06    -28.6095E-03     55.1825E-03    -26.5730E-03     94.6155E-03    -28.9389E-03     55.4841E-03    -26.6413E-03     94.3022E-03
             859     14.8984E-03     88.2204E-03    -7.66172E+06     38.9583E+06    -26.4727E+06    -3.80996E+06    -32.3060E-03     58.7582E-03    -26.4521E-03     158.864E-03    -33.6675E-03     60.3075E-03    -26.6299E-03     158.606E-03
             860     15.7759E-03     88.4201E-03    -7.78673E+06     122.330E+06     1.36358E+06    -655.014E+03    -38.9201E-03     65.3623E-03    -26.4422E-03     262.592E-03    -45.3388E-03     72.1837E-03    -26.6014E-03     263.714E-03
             861     16.6520E-03     88.7291E-03    -5.31907E+06     181.071E+06     76.9243E+06     176.461E+03    -36.8777E-03     63.5731E-03    -26.6953E-03     260.028E-03    -45.6293E-03     72.7254E-03    -26.5656E-03     265.016E-03
             862     876.159E-06     88.4771E-03    -24.5845E+06    -89.5352E+06    -24.8770E+06    -2.35671E+06    -26.8798E-03     53.7680E-03    -26.8881E-03     5.69113E-03    -26.8370E-03     53.3922E-03    -26.8470E-03     5.65793E-03
             863     1.75234E-03     88.4845E-03    -24.2154E+06    -87.2931E+06    -23.9855E+06    -4.24170E+06    -26.8826E-03     53.7565E-03    -26.8739E-03     10.5133E-03    -26.8428E-03     53.3904E-03    -26.8321E-03     10.4533E-03
             864     2.62853E-03     88.4970E-03    -23.4247E+06    -85.7289E+06    -21.7665E+06    -6.06929E+06    -26.8886E-03     53.7592E-03    -26.8706E-03     15.6286E-03    -26.8508E-03     53.3970E-03    -26.8212E-03     15.5421E-03
             865     3.50476E-03     88.5140E-03    -22.3090E+06    -83.1651E+06    -19.0875E+06    -7.56973E+06    -26.8982E-03     53.7635E-03    -26.8652E-03     20.8382E-03    -26.8633E-03     53.4094E-03    -26.8077E-03     20.7290E-03
             866     4.38101E-03     88.5363E-03    -20.8775E+06    -81.5388E+06    -15.7749E+06    -8.98486E+06    -26.9191E-03     53.7804E-03    -26.8613E-03     26.0972E-03    -26.8854E-03     53.4289E-03    -26.7917E-03     25.9657E-03
             867     5.25733E-03     88.5631E-03    -19.0718E+06    -78.0474E+06    -12.7045E+06    -10.4198E+06    -26.9464E-03     53.7970E-03    -26.8505E-03     31.4200E-03    -26.9150E-03     53.4576E-03    -26.7732E-03     31.2651E-03
             868     6.13364E-03     88.5955E-03    -17.2250E+06    -74.4414E+06    -9.96462E+06    -11.4934E+06    -26.9862E-03     53.8220E-03    -26.8357E-03     36.7835E-03    -26.9574E-03     53.4966E-03    -26.7526E-03     36.6087E-03
             869     7.01007E-03     88.6324E-03    -15.4716E+06    -72.6451E+06    -7.73046E+06    -12.4283E+06    -27.0482E-03     53.8681E-03    -26.8199E-03     42.1699E-03    -27.0202E-03     53.5497E-03    -26.7308E-03     41.9754E-03
             870     7.88646E-03     88.6749E-03    -13.7834E+06    -70.0612E+06    -6.90842E+06    -13.3038E+06    -27.1308E-03     53.9265E-03    -26.7957E-03     47.5671E-03    -27.1048E-03     53.6229E-03    -26.7087E-03     47.3518E-03
             871     8.76297E-03     88.7218E-03    -12.2939E+06    -69.2580E+06    -6.63242E+06    -13.9518E+06    -27.2417E-03     54.0143E-03    -26.7725E-03     52.9636E-03    -27.2177E-03     53.7200E-03    -26.6875E-03     52.7279E-03
             872     9.63940E-03     88.7745E-03    -10.9973E+06    -69.6745E+06    -8.44357E+06    -14.2719E+06    -27.3998E-03     54.1433E-03    -26.7435E-03     58.3758E-03    -27.3776E-03     53.8592E-03    -26.6688E-03     58.1207E-03
             873     10.5160E-03     88.8315E-03    -9.93842E+06    -67.2355E+06    -11.7244E+06    -14.2869E+06    -27.5614E-03     54.2680E-03    -26.7066E-03     63.7479E-03    -27.5496E-03     54.0163E-03    -26.6534E-03     63.4737E-03
             874     11.3922E-03     88.8944E-03    -9.15191E+06    -58.9524E+06    -11.7396E+06    -14.0524E+06    -27.7398E-03     54.4192E-03    -26.6794E-03     70.5144E-03    -27.7636E-03     54.2352E-03    -26.6393E-03     70.2193E-03
             875     12.2693E-03     88.9639E-03    -8.18494E+06    -50.3197E+06    -13.5573E+06    -13.4232E+06    -28.0448E-03     54.6891E-03    -26.6443E-03     78.8117E-03    -28.1175E-03     54.5934E-03    -26.6273E-03     78.4955E-03
             876     13.1442E-03     89.0427E-03    -7.24661E+06    -43.9722E+06    -21.6663E+06    -11.6414E+06    -28.0795E-03     54.6635E-03    -26.5840E-03     80.8185E-03    -28.2048E-03     54.6697E-03    -26.6180E-03     80.4924E-03
             877     14.0240E-03     89.1162E-03    -7.71755E+06    -20.7415E+06    -22.2731E+06    -8.69892E+06    -28.6687E-03     55.2110E-03    -26.5423E-03     94.7664E-03    -28.9923E-03     55.4982E-03    -26.6124E-03     94.4389E-03
             878     14.8976E-03     89.2219E-03    -7.85186E+06     33.8925E+06    -28.4365E+06    -4.65471E+06    -32.6638E-03     59.0983E-03    -26.4345E-03     158.811E-03    -34.0188E-03     60.6283E-03    -26.6145E-03     158.537E-03
             879     15.7731E-03     89.4180E-03    -7.19379E+06     119.453E+06    -1.35171E+06    -931.196E+03    -39.1833E-03     65.6209E-03    -26.4376E-03     261.759E-03    -45.5763E-03     72.4164E-03    -26.6071E-03     262.859E-03
             880     16.6517E-03     89.7288E-03    -4.69246E+06     181.206E+06     74.9936E+06     358.693E+03    -36.5733E-03     63.2651E-03    -26.6918E-03     260.779E-03    -45.3598E-03     72.4607E-03    -26.5728E-03     265.819E-03
             881     876.184E-06     89.4772E-03    -23.1963E+06    -84.3649E+06    -23.2179E+06    -2.73378E+06    -26.8596E-03     53.7229E-03    -26.8633E-03     5.69687E-03    -26.8197E-03     53.3685E-03    -26.8234E-03     5.65881E-03
             882     1.75236E-03     89.4849E-03    -22.8350E+06    -82.5891E+06    -22.3354E+06    -4.64195E+06    -26.8592E-03     53.7119E-03    -26.8527E-03     10.5195E-03    -26.8217E-03     53.3649E-03    -26.8115E-03     10.4544E-03
             883     2.62859E-03     89.4970E-03    -22.1115E+06    -81.2740E+06    -20.4316E+06    -6.50608E+06    -26.8593E-03     53.7066E-03    -26.8472E-03     15.6401E-03    -26.8234E-03     53.3628E-03    -26.7995E-03     15.5480E-03
             884     3.50482E-03     89.5143E-03    -20.8986E+06    -79.3111E+06    -17.9725E+06    -8.20101E+06    -26.8630E-03     53.7021E-03    -26.8391E-03     20.8557E-03    -26.8281E-03     53.3637E-03    -26.7837E-03     20.7384E-03
             885     4.38114E-03     89.5362E-03    -19.3191E+06    -77.6736E+06    -14.9278E+06    -9.73690E+06    -26.8753E-03     53.7057E-03    -26.8304E-03     26.1322E-03    -26.8406E-03     53.3700E-03    -26.7644E-03     25.9911E-03
             886     5.25744E-03     89.5634E-03    -17.7688E+06    -74.4898E+06    -11.9987E+06    -11.1728E+06    -26.8935E-03     53.7095E-03    -26.8161E-03     31.4720E-03    -26.8617E-03     53.3850E-03    -26.7423E-03     31.3076E-03
             887     6.13389E-03     89.5953E-03    -16.1098E+06    -71.4686E+06    -9.37101E+06    -12.3500E+06    -26.9241E-03     53.7219E-03    -26.7978E-03     36.8612E-03    -26.8948E-03     53.4089E-03    -26.7177E-03     36.6757E-03
             888     7.01029E-03     89.6326E-03    -14.3119E+06    -69.7429E+06    -7.14104E+06    -13.3219E+06    -26.9782E-03     53.7560E-03    -26.7778E-03     42.2807E-03    -26.9494E-03     53.4495E-03    -26.6917E-03     42.0750E-03
             889     7.88685E-03     89.6745E-03    -12.7265E+06    -67.5487E+06    -6.24143E+06    -14.1222E+06    -27.0571E-03     53.8079E-03    -26.7507E-03     47.7182E-03    -27.0303E-03     53.5141E-03    -26.6655E-03     47.4928E-03
             890     8.76330E-03     89.7220E-03    -11.3959E+06    -66.9745E+06    -6.00879E+06    -14.7834E+06    -27.1723E-03     53.8969E-03    -26.7245E-03     53.1638E-03    -27.1479E-03     53.6116E-03    -26.6409E-03     52.9178E-03
             891     9.63993E-03     89.7740E-03    -10.1770E+06    -67.9314E+06    -7.86841E+06    -15.3112E+06    -27.3276E-03     54.0209E-03    -26.6933E-03     58.6469E-03    -27.3044E-03     53.7433E-03    -26.6194E-03     58.3791E-03
             892     10.5163E-03     89.8318E-03    -9.20601E+06    -66.0444E+06    -11.4186E+06    -15.3991E+06    -27.4920E-03     54.1454E-03    -26.6534E-03     64.0200E-03    -27.4786E-03     53.8980E-03    -26.6014E-03     63.7322E-03
             893     11.3932E-03     89.8936E-03    -8.38861E+06    -58.0808E+06    -11.4160E+06    -15.1683E+06    -27.7258E-03     54.3523E-03    -26.6265E-03     70.8128E-03    -27.7474E-03     54.1710E-03    -26.5872E-03     70.5038E-03
             894     12.2691E-03     89.9645E-03    -7.85920E+06    -50.1858E+06    -13.4512E+06    -14.6132E+06    -28.0344E-03     54.6283E-03    -26.5939E-03     79.1886E-03    -28.1056E-03     54.5325E-03    -26.5770E-03     78.8577E-03
             895     13.1471E-03     90.0421E-03    -7.60326E+06    -45.9088E+06    -22.3060E+06    -13.2053E+06    -28.2208E-03     54.7610E-03    -26.5402E-03     81.2577E-03    -28.3449E-03     54.7598E-03    -26.5741E-03     80.9106E-03
             896     14.0201E-03     90.1165E-03    -6.82417E+06    -24.0419E+06    -22.7261E+06    -10.0727E+06    -28.9033E-03     55.4160E-03    -26.5127E-03     95.1167E-03    -29.2192E-03     55.6883E-03    -26.5816E-03     94.7694E-03
             897     14.8991E-03     90.2216E-03    -7.11833E+06     28.5734E+06    -29.6246E+06    -5.57509E+06    -32.6951E-03     59.1071E-03    -26.4120E-03     159.234E-03    -34.0370E-03     60.6111E-03    -26.5912E-03     158.949E-03
             898     15.7755E-03     90.4204E-03    -6.96654E+06     115.718E+06    -3.91342E+06    -1.46846E+06    -39.4182E-03     65.8307E-03    -26.4126E-03     262.079E-03    -45.8110E-03     72.6210E-03    -26.5898E-03     263.156E-03
             899     16.6511E-03     90.7267E-03    -4.52970E+06     181.347E+06     73.5917E+06     629.526E+03    -36.5790E-03     63.2518E-03    -26.6728E-03     261.122E-03    -45.3897E-03     72.4768E-03    -26.5612E-03     266.186E-03
             900     876.196E-06     90.4777E-03    -20.8272E+06    -78.6899E+06    -20.6119E+06    -2.91981E+06    -26.8257E-03     53.6463E-03    -26.8207E-03     5.69949E-03    -26.7859E-03     53.3132E-03    -26.7794E-03     5.65905E-03
             901     1.75245E-03     90.4850E-03    -20.3660E+06    -77.7613E+06    -19.4008E+06    -4.81421E+06    -26.8200E-03     53.6376E-03    -26.8176E-03     10.5294E-03    -26.7813E-03     53.3069E-03    -26.7724E-03     10.4621E-03
             902     2.62867E-03     90.4973E-03    -19.6521E+06    -76.4572E+06    -17.9784E+06    -6.82287E+06    -26.8138E-03     53.6221E-03    -26.8083E-03     15.6592E-03    -26.7760E-03     53.2953E-03    -26.7589E-03     15.5631E-03
             903     3.50499E-03     90.5143E-03    -18.6930E+06    -74.9348E+06    -16.2676E+06    -8.83295E+06    -26.8072E-03     53.6017E-03    -26.7945E-03     20.8902E-03    -26.7702E-03     53.2795E-03    -26.7401E-03     20.7649E-03
             904     4.38131E-03     90.5364E-03    -17.4916E+06    -73.6901E+06    -13.7621E+06    -10.4779E+06    -26.8069E-03     53.5870E-03    -26.7801E-03     26.1880E-03    -26.7705E-03     53.2668E-03    -26.7167E-03     26.0376E-03
             905     5.25776E-03     90.5632E-03    -15.9178E+06    -70.7235E+06    -10.8799E+06    -11.9251E+06    -26.8126E-03     53.5734E-03    -26.7609E-03     31.5527E-03    -26.7786E-03     53.2634E-03    -26.6896E-03     31.3789E-03
             906     6.13418E-03     90.5954E-03    -14.2967E+06    -68.2852E+06    -8.10611E+06    -13.1232E+06    -26.8330E-03     53.5720E-03    -26.7389E-03     36.9696E-03    -26.8010E-03     53.2703E-03    -26.6597E-03     36.7745E-03
             907     7.01078E-03     90.6322E-03    -12.8481E+06    -66.7806E+06    -6.04447E+06    -14.0609E+06    -26.8777E-03     53.5913E-03    -26.7136E-03     42.4344E-03    -26.8473E-03     53.2957E-03    -26.6284E-03     42.2197E-03
             908     7.88729E-03     90.6745E-03    -11.4588E+06    -64.9765E+06    -5.23903E+06    -14.8475E+06    -26.9519E-03     53.6338E-03    -26.6819E-03     47.9189E-03    -26.9237E-03     53.3494E-03    -26.5973E-03     47.6849E-03
             909     8.76402E-03     90.7214E-03    -10.0968E+06    -64.4787E+06    -5.01112E+06    -15.5781E+06    -27.0668E-03     53.7181E-03    -26.6513E-03     53.4350E-03    -27.0407E-03     53.4417E-03    -26.5682E-03     53.1796E-03
             910     9.64054E-03     90.7741E-03    -9.02731E+06    -65.8900E+06    -6.89717E+06    -16.1610E+06    -27.2247E-03     53.8417E-03    -26.6171E-03     58.9636E-03    -27.1999E-03     53.5710E-03    -26.5429E-03     58.6857E-03
             911     10.5174E-03     90.8310E-03    -8.26976E+06    -64.6623E+06    -10.7212E+06    -16.3803E+06    -27.4312E-03     54.0067E-03    -26.5755E-03     64.4026E-03    -27.4158E-03     53.7635E-03    -26.5233E-03     64.1030E-03
             912     11.3936E-03     90.8939E-03    -7.60693E+06    -57.0402E+06    -10.7918E+06    -16.2714E+06    -27.6920E-03     54.2420E-03    -26.5500E-03     71.2791E-03    -27.7119E-03     54.0637E-03    -26.5102E-03     70.9567E-03
             913     12.2708E-03     90.9637E-03    -6.72737E+06    -49.9128E+06    -12.6365E+06    -15.7819E+06    -28.0895E-03     54.6132E-03    -26.5238E-03     79.5755E-03    -28.1566E-03     54.5159E-03    -26.5048E-03     79.2298E-03
             914     13.1459E-03     91.0423E-03    -6.22829E+06    -47.0403E+06    -21.7429E+06    -14.4540E+06    -28.3398E-03     54.8194E-03    -26.4795E-03     81.7432E-03    -28.4570E-03     54.8105E-03    -26.5110E-03     81.3797E-03
             915     14.0248E-03     91.1172E-03    -6.85978E+06    -28.1391E+06    -23.7571E+06    -11.3080E+06    -28.9687E-03     55.4267E-03    -26.4580E-03     95.9141E-03    -29.2780E-03     55.6806E-03    -26.5260E-03     95.5512E-03
             916     14.8981E-03     91.2219E-03    -7.19173E+06     22.8256E+06    -30.6534E+06    -6.32446E+06    -32.5567E-03     58.9145E-03    -26.3578E-03     159.983E-03    -33.8901E-03     60.3923E-03    -26.5337E-03     159.694E-03
             917     15.7751E-03     91.4191E-03    -7.59019E+06     111.802E+06    -6.24259E+06    -1.72595E+06    -39.5822E-03     65.9301E-03    -26.3479E-03     263.133E-03    -45.9957E-03     72.7317E-03    -26.5302E-03     264.189E-03
             918     16.6524E-03     91.7291E-03    -5.79216E+06     180.609E+06     71.4043E+06     216.543E+03    -36.8270E-03     63.4422E-03    -26.6152E-03     260.412E-03    -45.6070E-03     72.6358E-03    -26.5116E-03     265.428E-03
             919     876.282E-06     91.4776E-03    -18.4124E+06    -72.7735E+06    -18.1401E+06    -2.97641E+06    -26.7583E-03     53.5191E-03    -26.7608E-03     5.71076E-03    -26.7187E-03     53.2084E-03    -26.7192E-03     5.66964E-03
             920     1.75252E-03     91.4853E-03    -17.7714E+06    -72.6335E+06    -16.9577E+06    -5.12928E+06    -26.7540E-03     53.5081E-03    -26.7541E-03     10.5493E-03    -26.7134E-03     53.1957E-03    -26.7078E-03     10.4780E-03
             921     2.62887E-03     91.4973E-03    -16.6879E+06    -71.2375E+06    -15.4088E+06    -7.36029E+06    -26.7390E-03     53.4810E-03    -26.7420E-03     15.6926E-03    -26.6977E-03     53.1723E-03    -26.6916E-03     15.5897E-03
             922     3.50520E-03     91.5144E-03    -15.6343E+06    -70.3935E+06    -13.4536E+06    -9.26074E+06    -26.7241E-03     53.4504E-03    -26.7263E-03     20.9358E-03    -26.6824E-03     53.1424E-03    -26.6688E-03     20.8052E-03
             923     4.38167E-03     91.5362E-03    -14.5365E+06    -69.2818E+06    -11.2895E+06    -11.0566E+06    -26.7091E-03     53.4148E-03    -26.7057E-03     26.2592E-03    -26.6679E-03     53.1087E-03    -26.6406E-03     26.1016E-03
             924     5.25812E-03     91.5632E-03    -13.2832E+06    -66.8307E+06    -9.10119E+06    -12.7103E+06    -26.6983E-03     53.3765E-03    -26.6782E-03     31.6593E-03    -26.6593E-03     53.0795E-03    -26.6076E-03     31.4758E-03
             925     6.13477E-03     91.5949E-03    -12.0148E+06    -65.2316E+06    -6.49728E+06    -13.6361E+06    -26.7073E-03     53.3581E-03    -26.6508E-03     37.1148E-03    -26.6705E-03     53.0659E-03    -26.5712E-03     36.9137E-03
             926     7.01135E-03     91.6320E-03    -10.7897E+06    -63.5896E+06    -4.45223E+06    -14.5286E+06    -26.7403E-03     53.3594E-03    -26.6192E-03     42.6293E-03    -26.7063E-03     53.0744E-03    -26.5336E-03     42.4094E-03
             927     7.88817E-03     91.6738E-03    -9.51842E+06    -62.2240E+06    -3.79363E+06    -15.5156E+06    -26.8095E-03     53.3910E-03    -26.5815E-03     48.1862E-03    -26.7774E-03     53.1152E-03    -26.4965E-03     47.9444E-03
             928     8.76480E-03     91.7212E-03    -8.42982E+06    -61.9462E+06    -3.76217E+06    -16.2057E+06    -26.9237E-03     53.4690E-03    -26.5453E-03     53.7747E-03    -26.8944E-03     53.2008E-03    -26.4621E-03     53.5124E-03
             929     9.64175E-03     91.7732E-03    -7.54202E+06    -63.6244E+06    -5.52597E+06    -16.7954E+06    -27.1041E-03     53.6128E-03    -26.5087E-03     59.3717E-03    -27.0767E-03     53.3488E-03    -26.4332E-03     59.0869E-03
             930     10.5182E-03     91.8310E-03    -7.07627E+06    -63.1653E+06    -9.73604E+06    -17.0168E+06    -27.3325E-03     53.7978E-03    -26.4653E-03     64.9197E-03    -27.3143E-03     53.5585E-03    -26.4122E-03     64.6133E-03
             931     11.3953E-03     91.8931E-03    -6.79059E+06    -55.6489E+06    -10.0186E+06    -17.0675E+06    -27.6536E-03     54.0948E-03    -26.4411E-03     71.8624E-03    -27.6722E-03     53.9207E-03    -26.4007E-03     71.5309E-03
             932     12.2713E-03     91.9639E-03    -6.48995E+06    -49.2692E+06    -11.9799E+06    -16.9038E+06    -28.1203E-03     54.5420E-03    -26.4217E-03     80.3979E-03    -28.1882E-03     54.4467E-03    -26.4008E-03     80.0385E-03
             933     13.1485E-03     92.0424E-03    -6.73142E+06    -49.0668E+06    -21.1812E+06    -15.0698E+06    -28.4595E-03     54.8509E-03    -26.3914E-03     82.7285E-03    -28.5779E-03     54.8326E-03    -26.4164E-03     82.3571E-03
             934     14.0224E-03     92.1167E-03    -7.04167E+06    -31.7082E+06    -23.4550E+06    -11.8245E+06    -28.8895E-03     55.2655E-03    -26.3761E-03     96.1671E-03    -29.1935E-03     55.5000E-03    -26.4371E-03     95.8002E-03
             935     14.9018E-03     92.2225E-03    -7.82655E+06     16.7403E+06    -32.6424E+06    -7.31208E+06    -32.5109E-03     58.7799E-03    -26.2689E-03     160.122E-03    -33.8353E-03     60.2306E-03    -26.4451E-03     159.821E-03
             936     15.7780E-03     92.4194E-03    -7.76523E+06     107.380E+06    -10.5663E+06    -2.28322E+06    -39.6590E-03     65.9044E-03    -26.2454E-03     264.229E-03    -46.1032E-03     72.7329E-03    -26.4427E-03     265.294E-03
             937     16.6533E-03     92.7310E-03    -4.86567E+06     180.420E+06     68.8537E+06    -42.5918E+03    -37.0475E-03     63.5696E-03    -26.5221E-03     259.975E-03    -45.8058E-03     72.7514E-03    -26.4324E-03     264.952E-03
             938     876.325E-06     92.4778E-03    -15.7132E+06    -66.6963E+06    -15.6313E+06    -3.03120E+06    -26.6575E-03     53.3253E-03    -26.6678E-03     5.72954E-03    -26.6168E-03     53.0374E-03    -26.6264E-03     5.68778E-03
             939     1.75273E-03     92.4851E-03    -15.2403E+06    -66.6861E+06    -14.8557E+06    -5.65526E+06    -26.6485E-03     53.3015E-03    -26.6531E-03     10.5807E-03    -26.6068E-03     53.0121E-03    -26.6085E-03     10.5027E-03
             940     2.62910E-03     92.4973E-03    -14.4091E+06    -65.7936E+06    -13.3942E+06    -8.12555E+06    -26.6241E-03     53.2618E-03    -26.6377E-03     15.7442E-03    -26.5822E-03     52.9740E-03    -26.5884E-03     15.6316E-03
             941     3.50561E-03     92.5141E-03    -13.1375E+06    -65.7657E+06    -11.1699E+06    -10.0186E+06    -26.5976E-03     53.2170E-03    -26.6194E-03     21.0074E-03    -26.5535E-03     52.9251E-03    -26.5608E-03     20.8673E-03
             942     4.38210E-03     92.5361E-03    -11.6481E+06    -64.4753E+06    -9.07467E+06    -11.8488E+06    -26.5672E-03     53.1588E-03    -26.5916E-03     26.3628E-03    -26.5216E-03     52.8693E-03    -26.5266E-03     26.1954E-03
             943     5.25881E-03     92.5627E-03    -10.4642E+06    -63.1766E+06    -7.03108E+06    -13.1515E+06    -26.5434E-03     53.1017E-03    -26.5583E-03     31.7990E-03    -26.4984E-03     52.8157E-03    -26.4867E-03     31.6104E-03
             944     6.13546E-03     92.5946E-03    -9.46284E+06    -62.1115E+06    -4.81342E+06    -14.0388E+06    -26.5364E-03     53.0593E-03    -26.5229E-03     37.3092E-03    -26.4937E-03     52.7764E-03    -26.4431E-03     37.1036E-03
             945     7.01237E-03     92.6312E-03    -8.19155E+06    -60.1943E+06    -2.81341E+06    -15.0819E+06    -26.5568E-03     53.0399E-03    -26.4831E-03     42.8956E-03    -26.5169E-03     52.7654E-03    -26.3980E-03     42.6695E-03
             946     7.88915E-03     92.6734E-03    -7.15339E+06    -59.5475E+06    -2.07557E+06    -15.8490E+06    -26.6195E-03     53.0597E-03    -26.4402E-03     48.5296E-03    -26.5816E-03     52.7910E-03    -26.3538E-03     48.2848E-03
             947     8.76624E-03     92.7202E-03    -6.37977E+06    -59.1984E+06    -2.20395E+06    -16.5654E+06    -26.7415E-03     53.1391E-03    -26.3976E-03     54.2233E-03    -26.7077E-03     52.8789E-03    -26.3136E-03     53.9578E-03
             948     9.64299E-03     92.7728E-03    -5.76678E+06    -61.3805E+06    -3.99687E+06    -17.2191E+06    -26.9421E-03     53.3002E-03    -26.3582E-03     59.9392E-03    -26.9107E-03     53.0421E-03    -26.2808E-03     59.6506E-03
             949     10.5201E-03     92.8300E-03    -5.43807E+06    -61.6995E+06    -8.44018E+06    -17.3256E+06    -27.2145E-03     53.5285E-03    -26.3140E-03     65.5738E-03    -27.1916E-03     53.2917E-03    -26.2588E-03     65.2651E-03
             950     11.3966E-03     92.8929E-03    -5.52589E+06    -53.9146E+06    -8.82146E+06    -17.3111E+06    -27.5822E-03     53.8738E-03    -26.2916E-03     72.6909E-03    -27.5983E-03     53.7044E-03    -26.2495E-03     72.3579E-03
             951     12.2736E-03     92.9634E-03    -5.87697E+06    -48.6320E+06    -10.9413E+06    -17.0854E+06    -28.0364E-03     54.3133E-03    -26.2768E-03     81.2197E-03    -28.1031E-03     54.2182E-03    -26.2525E-03     80.8599E-03
             952     13.1495E-03     93.0421E-03    -6.44540E+06    -51.1809E+06    -20.8302E+06    -15.3358E+06    -28.3970E-03     54.6465E-03    -26.2496E-03     83.9713E-03    -28.5113E-03     54.6166E-03    -26.2701E-03     83.5987E-03
             953     14.0271E-03     93.1183E-03    -6.98186E+06    -35.0753E+06    -24.7777E+06    -12.4400E+06    -29.1877E-03     55.4287E-03    -26.2410E-03     97.0843E-03    -29.4866E-03     55.6502E-03    -26.3039E-03     96.7081E-03
             954     14.9012E-03     93.2202E-03    -7.05837E+06     11.4906E+06    -34.1266E+06    -8.44948E+06    -33.0493E-03     59.2139E-03    -26.1646E-03     160.431E-03    -34.3686E-03     60.6479E-03    -26.3416E-03     160.108E-03
             955     15.7778E-03     93.4211E-03    -6.80261E+06     102.177E+06    -13.7516E+06    -3.49557E+06    -39.6204E-03     65.7725E-03    -26.1521E-03     263.899E-03    -46.0228E-03     72.5533E-03    -26.3592E-03     264.977E-03
             956     16.6563E-03     93.7296E-03    -4.52825E+06     179.158E+06     66.2468E+06    -288.088E+03    -37.0080E-03     63.4397E-03    -26.4317E-03     259.601E-03    -45.7392E-03     72.5988E-03    -26.3537E-03     264.593E-03
             957     876.484E-06     93.4775E-03    -12.4543E+06    -60.1189E+06    -12.5288E+06    -3.37651E+06    -26.5144E-03     53.0427E-03    -26.5283E-03     5.75364E-03    -26.4714E-03     52.7785E-03    -26.4857E-03     5.70752E-03
             958     1.75294E-03     93.4850E-03    -11.9425E+06    -60.1249E+06    -11.7510E+06    -6.13691E+06    -26.4972E-03     53.0062E-03    -26.5090E-03     10.6216E-03    -26.4530E-03     52.7403E-03    -26.4633E-03     10.5376E-03
             959     2.62952E-03     93.4969E-03    -11.3399E+06    -60.0032E+06    -10.6906E+06    -8.69713E+06    -26.4612E-03     52.9494E-03    -26.4882E-03     15.8092E-03    -26.4163E-03     52.6822E-03    -26.4382E-03     15.6896E-03
             960     3.50609E-03     93.5139E-03    -10.4449E+06    -60.5600E+06    -9.26936E+06    -10.9972E+06    -26.4175E-03     52.8786E-03    -26.4611E-03     21.1094E-03    -26.3701E-03     52.6060E-03    -26.4045E-03     20.9571E-03
             961     4.38287E-03     93.5354E-03    -9.32305E+06    -59.7876E+06    -7.50001E+06    -12.7724E+06    -26.3705E-03     52.7963E-03    -26.4257E-03     26.5063E-03    -26.3223E-03     52.5245E-03    -26.3630E-03     26.3276E-03
             962     5.25961E-03     93.5621E-03    -8.10021E+06    -59.8636E+06    -5.37959E+06    -13.7601E+06    -26.3323E-03     52.7194E-03    -26.3871E-03     31.9882E-03    -26.2825E-03     52.4440E-03    -26.3155E-03     31.7925E-03
             963     6.13662E-03     93.5936E-03    -6.78000E+06    -58.5633E+06    -3.37101E+06    -14.6467E+06    -26.3068E-03     52.6483E-03    -26.3415E-03     37.5745E-03    -26.2576E-03     52.3769E-03    -26.2636E-03     37.3621E-03
             964     7.01356E-03     93.6305E-03    -5.79023E+06    -57.0966E+06    -1.48785E+06    -15.5052E+06    -26.3128E-03     52.6064E-03    -26.2936E-03     43.2475E-03    -26.2670E-03     52.3416E-03    -26.2098E-03     43.0174E-03
             965     7.89081E-03     93.6721E-03    -4.95019E+06    -56.9394E+06    -479.564E+03    -16.0592E+06    -26.3755E-03     52.6206E-03    -26.2451E-03     48.9815E-03    -26.3323E-03     52.3591E-03    -26.1578E-03     48.7356E-03
             966     8.76782E-03     93.7193E-03    -4.22672E+06    -56.3195E+06    -532.266E+03    -16.7675E+06    -26.5014E-03     52.6976E-03    -26.1962E-03     54.8033E-03    -26.4628E-03     52.4456E-03    -26.1111E-03     54.5372E-03
             967     9.64519E-03     93.7714E-03    -3.73804E+06    -59.0949E+06    -2.13282E+06    -17.4108E+06    -26.7325E-03     52.8871E-03    -26.1546E-03     60.6580E-03    -26.6963E-03     52.6340E-03    -26.0741E-03     60.3691E-03
             968     10.5220E-03     93.8292E-03    -3.59359E+06    -60.2538E+06    -6.92391E+06    -17.5476E+06    -27.0740E-03     53.1841E-03    -26.1101E-03     66.4514E-03    -27.0454E-03     52.9490E-03    -26.0522E-03     66.1420E-03
             969     11.3992E-03     93.8919E-03    -3.59430E+06    -52.4456E+06    -7.35543E+06    -17.3089E+06    -27.4765E-03     53.5673E-03    -26.0909E-03     73.6329E-03    -27.4864E-03     53.3996E-03    -26.0464E-03     73.3022E-03
             970     12.2757E-03     93.9630E-03    -3.78869E+06    -48.0421E+06     -8.8739E+06    -16.8598E+06    -28.0358E-03     54.1235E-03    -26.0877E-03     82.1801E-03    -28.0957E-03     54.0251E-03    -26.0569E-03     81.8248E-03
             971     13.1526E-03     94.0419E-03    -4.33022E+06    -52.9130E+06    -19.4109E+06    -15.4176E+06    -28.3993E-03     54.4700E-03    -26.0707E-03     84.6325E-03    -28.5014E-03     54.4251E-03    -26.0847E-03     84.2612E-03
             972     14.0282E-03     94.1176E-03    -5.35186E+06    -37.6902E+06    -24.7841E+06    -13.0988E+06    -29.4096E-03     55.4819E-03    -26.0723E-03     97.9222E-03    -29.6968E-03     55.6882E-03    -26.1338E-03     97.5374E-03
             973     14.9046E-03     94.2232E-03    -6.32032E+06     6.61205E+06    -34.2119E+06    -9.33839E+06    -33.7117E-03     59.7435E-03    -26.0318E-03     161.359E-03    -35.0303E-03     61.1624E-03    -26.2033E-03     161.015E-03
             974     15.7799E-03     94.4199E-03    -6.68542E+06     96.8188E+06    -16.1422E+06    -4.04129E+06    -40.2259E-03     66.2754E-03    -26.0495E-03     264.166E-03    -46.6331E-03     73.0494E-03    -26.2609E-03     265.214E-03
             975     16.6554E-03     94.7302E-03    -5.09747E+06     177.271E+06     63.8499E+06    -639.419E+03    -37.1321E-03     63.4801E-03    -26.3480E-03     260.107E-03    -45.8902E-03     72.6642E-03    -26.2784E-03     265.102E-03
             976     876.615E-06     94.4772E-03    -7.82531E+06    -52.9211E+06    -7.86316E+06    -3.63971E+06    -26.3190E-03     52.6495E-03    -26.3305E-03     5.77919E-03    -26.2700E-03     52.4078E-03    -26.2818E-03     5.72978E-03
             977     1.75333E-03     94.4843E-03    -7.72636E+06    -53.2783E+06    -7.89364E+06    -6.50343E+06    -26.2875E-03     52.5946E-03    -26.3070E-03     10.6739E-03    -26.2378E-03     52.3512E-03    -26.2581E-03     10.5853E-03
             978     2.63002E-03     94.4964E-03    -7.34881E+06    -53.7721E+06    -7.53266E+06    -9.21497E+06    -26.2363E-03     52.5143E-03    -26.2780E-03     15.8954E-03    -26.1850E-03     52.2678E-03    -26.2270E-03     15.7695E-03
             979     3.50690E-03     94.5130E-03    -6.80374E+06    -54.7562E+06    -6.46293E+06    -11.6512E+06    -26.1762E-03     52.4193E-03    -26.2431E-03     21.2360E-03    -26.1230E-03     52.1663E-03    -26.1861E-03     21.0758E-03
             980     4.38377E-03     94.5346E-03    -6.21030E+06    -55.3456E+06    -5.33551E+06    -13.3814E+06    -26.1103E-03     52.3096E-03    -26.1993E-03     26.6860E-03    -26.0560E-03     52.0522E-03    -26.1367E-03     26.5002E-03
             981     5.26090E-03     94.5609E-03    -5.31769E+06    -56.0622E+06    -3.76458E+06    -14.6529E+06    -26.0507E-03     52.2012E-03    -26.1505E-03     32.2399E-03    -25.9948E-03     51.9382E-03    -26.0803E-03     32.0338E-03
             982     6.13801E-03     94.5925E-03    -4.18838E+06    -55.2998E+06    -2.05958E+06    -15.4937E+06    -26.0069E-03     52.1018E-03    -26.0949E-03     37.9118E-03    -25.9511E-03     51.8408E-03    -26.0190E-03     37.6898E-03
             983     7.01543E-03     94.6289E-03    -3.17841E+06    -54.4132E+06    -35.8072E+03    -15.7584E+06    -26.0023E-03     52.0415E-03    -26.0392E-03     43.6856E-03    -25.9490E-03     51.7839E-03    -25.9559E-03     43.4539E-03
             984     7.89271E-03     94.6707E-03    -2.53953E+06    -54.2368E+06     1.16453E+06    -16.2114E+06    -26.0618E-03     52.0453E-03    -25.9835E-03     49.5524E-03    -26.0122E-03     51.7908E-03    -25.8953E-03     49.3066E-03
             985     8.77033E-03     94.7176E-03    -2.15007E+06    -53.6493E+06     1.18356E+06    -16.7429E+06    -26.2051E-03     52.1341E-03    -25.9290E-03     55.5163E-03    -26.1618E-03     51.8892E-03    -25.8422E-03     55.2529E-03
             986     9.64758E-03     94.7700E-03    -1.93880E+06    -56.5821E+06    -130.015E+03    -17.4241E+06    -26.4751E-03     52.3613E-03    -25.8862E-03     61.5526E-03    -26.4356E-03     52.1144E-03    -25.8020E-03     61.2662E-03
             987     10.5251E-03     94.8277E-03    -1.76119E+06    -58.6794E+06    -5.11230E+06    -17.8028E+06    -26.8888E-03     52.7321E-03    -25.8433E-03     67.5292E-03    -26.8550E-03     52.4986E-03    -25.7813E-03     67.2193E-03
             988     11.4019E-03     94.8910E-03    -1.87184E+06    -51.5158E+06    -5.91717E+06    -17.3560E+06    -27.4222E-03     53.2536E-03    -25.8314E-03     74.7653E-03    -27.4262E-03     53.0853E-03    -25.7836E-03     74.4362E-03
             989     12.2790E-03     94.9621E-03    -2.18217E+06    -47.2899E+06    -6.37453E+06    -16.7326E+06    -28.1140E-03     53.9638E-03    -25.8499E-03     83.3568E-03    -28.1703E-03     53.8630E-03    -25.8100E-03     83.0046E-03
             990     13.1550E-03     95.0417E-03    -2.98877E+06    -54.4599E+06    -17.3755E+06    -15.2440E+06    -28.6742E-03     54.5330E-03    -25.8588E-03     85.7395E-03    -28.7708E-03     54.4761E-03    -25.8624E-03     85.3702E-03
             991     14.0314E-03     95.1178E-03    -4.27273E+06    -39.3404E+06    -23.1790E+06    -13.0351E+06    -29.7015E-03     55.5877E-03    -25.8863E-03     99.3680E-03    -29.9862E-03     55.7849E-03    -25.9389E-03     98.9833E-03
             992     14.9068E-03     95.2236E-03    -5.83576E+06     2.17014E+06    -31.3774E+06    -9.66429E+06    -34.0554E-03     59.9387E-03    -25.8833E-03     162.174E-03    -35.3721E-03     61.3333E-03    -26.0349E-03     161.821E-03
             993     15.7817E-03     95.4224E-03    -7.01390E+06     90.5948E+06    -18.9901E+06    -4.46411E+06    -40.7312E-03     66.6402E-03    -25.9090E-03     263.782E-03    -47.1320E-03     73.3928E-03    -26.1251E-03     264.801E-03
             994     16.6587E-03     95.7301E-03    -5.03485E+06     175.556E+06     60.1414E+06    -878.888E+03    -37.4834E-03     63.7107E-03    -26.2273E-03     260.229E-03    -46.2540E-03     72.9122E-03    -26.1738E-03     265.207E-03
             995     876.895E-06     95.4761E-03    -3.93031E+06    -45.3528E+06    -4.11787E+06    -3.73414E+06    -26.0417E-03     52.0929E-03    -26.0511E-03     5.81251E-03    -25.9897E-03     51.8779E-03    -26.0003E-03     5.76204E-03
             996     1.75377E-03     95.4835E-03    -3.78764E+06    -46.0116E+06    -4.29827E+06    -6.85174E+06    -25.9989E-03     52.0244E-03    -26.0255E-03     10.7444E-03    -25.9453E-03     51.8064E-03    -25.9747E-03     10.6517E-03
             997     2.63082E-03     95.4951E-03    -3.59996E+06    -47.2044E+06    -4.24435E+06    -9.72496E+06    -25.9347E-03     51.9255E-03    -25.9908E-03     16.0055E-03    -25.8789E-03     51.7016E-03    -25.9383E-03     15.8734E-03
             998     3.50786E-03     95.5118E-03    -3.31081E+06    -48.8145E+06    -3.76388E+06    -12.1244E+06    -25.8552E-03     51.8025E-03    -25.9472E-03     21.3974E-03    -25.7970E-03     51.5701E-03    -25.8905E-03     21.2318E-03
             999     4.38515E-03     95.5330E-03    -2.78427E+06    -50.6984E+06     -2.9804E+06    -13.9449E+06    -25.7690E-03     51.6641E-03    -25.8951E-03     26.9097E-03    -25.7076E-03     51.4214E-03    -25.8325E-03     26.7176E-03
            1000     5.26245E-03     95.5593E-03    -2.18426E+06    -51.7518E+06    -1.94225E+06    -15.3337E+06    -25.6867E-03     51.5215E-03    -25.8348E-03     32.5500E-03    -25.6237E-03     51.2726E-03    -25.7663E-03     32.3363E-03
            1001     6.14006E-03     95.5905E-03    -1.61155E+06    -52.3257E+06    -688.194E+03    -16.1308E+06    -25.6274E-03     51.3971E-03    -25.7697E-03     38.3212E-03    -25.5646E-03     51.1448E-03    -25.6949E-03     38.0926E-03
            1002     7.01763E-03     95.6269E-03    -889.835E+03    -52.0706E+06     871.878E+03    -16.2932E+06    -25.6113E-03     51.3146E-03    -25.7033E-03     44.2300E-03    -25.5507E-03     51.0634E-03    -25.6222E-03     43.9934E-03
            1003     7.89553E-03     95.6684E-03    -166.034E+03    -51.7805E+06     2.49947E+06    -16.2724E+06    -25.6739E-03     51.3149E-03    -25.6410E-03     50.2465E-03    -25.6172E-03     51.0665E-03    -25.5531E-03     50.0024E-03
            1004     8.77320E-03     95.7155E-03    -91.8851E+03    -51.5641E+06     2.88395E+06    -16.2362E+06    -25.8498E-03     51.4335E-03    -25.5837E-03     56.3886E-03    -25.8007E-03     51.1926E-03    -25.4944E-03     56.1346E-03
            1005     9.65113E-03     95.7678E-03    -457.559E+03    -53.3732E+06     2.00310E+06    -16.9826E+06    -26.1758E-03     51.7171E-03    -25.5413E-03     62.6231E-03    -26.1356E-03     51.4799E-03    -25.4532E-03     62.3455E-03
            1006     10.5285E-03     95.8259E-03    -874.783E+03    -56.9567E+06    -3.03956E+06    -17.8553E+06    -26.6793E-03     52.1850E-03    -25.5058E-03     68.8083E-03    -26.6455E-03     51.9547E-03    -25.4371E-03     68.5008E-03
            1007     11.4060E-03     95.8895E-03    -1.08379E+06    -50.8932E+06    -4.57568E+06    -17.4319E+06    -27.3677E-03     52.8720E-03    -25.5042E-03     76.2476E-03    -27.3698E-03     52.7028E-03    -25.4518E-03     75.9203E-03
            1008     12.2825E-03     95.9613E-03    -1.51597E+06    -46.9242E+06    -4.44420E+06    -16.3420E+06    -28.2343E-03     53.7820E-03    -25.5477E-03     84.9720E-03    -28.2906E-03     53.6791E-03    -25.4996E-03     84.6265E-03
            1009     13.1591E-03     96.0415E-03    -2.62836E+06    -55.9731E+06    -16.0062E+06    -14.7337E+06    -29.0000E-03     54.5877E-03    -25.5877E-03     87.3160E-03    -29.0957E-03     54.5218E-03    -25.5828E-03     86.9534E-03
            1010     14.0345E-03     96.1179E-03    -3.80662E+06    -40.3554E+06    -21.3862E+06    -12.5775E+06    -30.2294E-03     55.8851E-03    -25.6557E-03     100.929E-03    -30.5163E-03     56.0773E-03    -25.6986E-03     100.547E-03
            1011     14.9094E-03     96.2255E-03    -5.17875E+06    -2.29602E+06    -27.5057E+06    -9.27471E+06    -34.5391E-03     60.2444E-03    -25.7053E-03     163.896E-03    -35.8652E-03     61.6238E-03    -25.8320E-03     163.543E-03
            1012     15.7845E-03     96.4237E-03    -6.51524E+06     85.0693E+06    -19.8456E+06    -4.64218E+06    -41.2845E-03     67.0285E-03    -25.7440E-03     264.309E-03    -47.6873E-03     73.7678E-03    -25.9571E-03     265.307E-03
            1013     16.6596E-03     96.7306E-03    -5.04568E+06     173.816E+06     57.1997E+06    -1.38572E+06    -38.0001E-03     64.0854E-03    -26.0853E-03     259.395E-03    -46.7525E-03     73.2710E-03    -26.0440E-03     264.330E-03
            1014     877.178E-06     96.4747E-03    -801.469E+03    -37.2953E+06    -1.15298E+06    -4.10783E+06    -25.6615E-03     51.3371E-03    -25.6756E-03     5.85236E-03    -25.6098E-03     51.1536E-03    -25.6262E-03     5.79727E-03
            1015     1.75448E-03     96.4817E-03    -634.236E+03    -38.3614E+06    -1.10733E+06    -7.30558E+06    -25.6140E-03     51.2611E-03    -25.6470E-03     10.8326E-03    -25.5603E-03     51.0721E-03    -25.5960E-03     10.7344E-03
            1016     2.63175E-03     96.4935E-03    -404.707E+03    -40.3936E+06    -1.20116E+06    -10.2031E+06    -25.5376E-03     51.1459E-03    -25.6084E-03     16.1418E-03    -25.4800E-03     50.9470E-03    -25.5552E-03     16.0042E-03
            1017     3.50927E-03     96.5097E-03    -171.779E+03    -42.8059E+06    -1.40135E+06    -12.6264E+06    -25.4375E-03     50.9933E-03    -25.5558E-03     21.5947E-03    -25.3756E-03     50.7829E-03    -25.5005E-03     21.4235E-03
            1018     4.38681E-03     96.5309E-03     23.2184E+03    -45.7012E+06    -1.22697E+06    -14.5156E+06    -25.3290E-03     50.8226E-03    -25.4936E-03     27.1851E-03    -25.2631E-03     50.5981E-03    -25.4335E-03     26.9868E-03
            1019     5.26465E-03     96.5568E-03     209.968E+03    -47.5691E+06    -864.692E+03    -15.7578E+06    -25.2256E-03     50.6473E-03    -25.4217E-03     32.9251E-03    -25.1579E-03     50.4140E-03    -25.3574E-03     32.7074E-03
            1020     6.14252E-03     96.5879E-03     339.782E+03    -49.2745E+06    -31.9161E+03    -16.3945E+06    -25.1507E-03     50.4973E-03    -25.3466E-03     38.8192E-03    -25.0831E-03     50.2561E-03    -25.2758E-03     38.5891E-03
            1021     7.02072E-03     96.6240E-03     449.612E+03    -49.6908E+06     1.09014E+06    -16.6271E+06    -25.1298E-03     50.4005E-03    -25.2706E-03     44.8822E-03    -25.0657E-03     50.1583E-03    -25.1938E-03     44.6437E-03
            1022     7.89882E-03     96.6656E-03     529.857E+03    -50.1483E+06     2.50486E+06    -16.3028E+06    -25.2060E-03     50.4080E-03    -25.2020E-03     51.0874E-03    -25.1473E-03     50.1658E-03    -25.1175E-03     50.8458E-03
            1023     8.77718E-03     96.7124E-03     751.976E+03    -49.8249E+06     3.57748E+06    -15.8551E+06    -25.4276E-03     50.5718E-03    -25.1442E-03     57.4483E-03    -25.3767E-03     50.3363E-03    -25.0552E-03     57.2025E-03
            1024     9.65516E-03     96.7651E-03     457.407E+03    -50.6171E+06     3.61424E+06    -15.9084E+06    -25.8308E-03     50.9374E-03    -25.1066E-03     63.9239E-03    -25.7910E-03     50.7091E-03    -25.0158E-03     63.6638E-03
            1025     10.5332E-03     96.8234E-03    -889.347E+03    -54.3851E+06    -691.538E+03    -16.6876E+06    -26.4462E-03     51.5313E-03    -25.0851E-03     70.3627E-03    -26.4183E-03     51.3092E-03    -25.0084E-03     70.0739E-03
            1026     11.4104E-03     96.8876E-03    -2.27477E+06    -50.0636E+06    -3.49750E+06    -17.1753E+06    -27.2715E-03     52.3691E-03    -25.0976E-03     78.0780E-03    -27.2813E-03     52.2032E-03    -25.0392E-03     77.7574E-03
            1027     12.2876E-03     96.9603E-03    -2.59862E+06    -47.0873E+06    -3.28501E+06    -16.2116E+06    -28.3375E-03     53.5048E-03    -25.1673E-03     86.9407E-03    -28.4003E-03     53.4007E-03    -25.1116E-03     86.5992E-03
            1028     13.1635E-03     97.0411E-03    -3.05521E+06    -57.5991E+06    -14.5362E+06    -14.1632E+06    -29.3934E-03     54.6399E-03    -25.2465E-03     89.4681E-03    -29.4926E-03     54.5660E-03    -25.2313E-03     89.1127E-03
            1029     14.0385E-03     97.1192E-03    -4.66416E+06    -41.3708E+06    -19.7820E+06    -12.0420E+06    -30.8995E-03     56.2634E-03    -25.3639E-03     103.083E-03    -31.1972E-03     56.4550E-03    -25.3961E-03     102.704E-03
            1030     14.9137E-03     97.2265E-03    -5.84473E+06    -6.34667E+06    -23.6844E+06    -9.49829E+06    -35.2767E-03     60.7596E-03    -25.4829E-03     165.018E-03    -36.6169E-03     62.1253E-03    -25.5837E-03     164.653E-03
            1031     15.7883E-03     97.4265E-03    -5.84713E+06     79.8354E+06    -19.1443E+06    -4.99609E+06    -41.8738E-03     67.4273E-03    -25.5536E-03     264.704E-03    -48.3051E-03     74.1769E-03    -25.7566E-03     265.677E-03
            1032     16.6627E-03     97.7335E-03    -4.40654E+06     172.341E+06     55.6760E+06    -1.33767E+06    -38.6706E-03     64.5919E-03    -25.9212E-03     259.066E-03    -47.4211E-03     73.7770E-03    -25.8864E-03     263.940E-03
            1033     877.647E-06     97.4723E-03     3.02698E+06    -28.7028E+06     2.77329E+06    -4.39708E+06    -25.1761E-03     50.3667E-03    -25.1906E-03     5.90154E-03    -25.1234E-03     50.2149E-03    -25.1395E-03     5.84297E-03
            1034     1.75527E-03     97.4794E-03     2.81756E+06    -30.4706E+06     2.18923E+06    -7.57344E+06    -25.1181E-03     50.2764E-03    -25.1583E-03     10.9341E-03    -25.0633E-03     50.1171E-03    -25.1073E-03     10.8329E-03
            1035     2.63310E-03     97.4908E-03     2.65862E+06    -33.3196E+06     1.45323E+06    -10.5929E+06    -25.0258E-03     50.1386E-03    -25.1128E-03     16.2996E-03    -24.9670E-03     49.9667E-03    -25.0611E-03     16.1576E-03
            1036     3.51095E-03     97.5070E-03     2.45577E+06    -36.7651E+06     532.197E+03    -12.9895E+06    -24.9067E-03     49.9581E-03    -25.0514E-03     21.8240E-03    -24.8431E-03     49.7712E-03    -24.9990E-03     21.6492E-03
            1037     4.38910E-03     97.5277E-03     2.18151E+06    -40.5297E+06    -200.912E+03    -14.8160E+06    -24.7766E-03     49.7545E-03    -24.9778E-03     27.5057E-03    -24.7087E-03     49.5510E-03    -24.9232E-03     27.3049E-03
            1038     5.26730E-03     97.5535E-03     1.79955E+06    -43.7570E+06    -535.929E+03    -15.8759E+06    -24.6543E-03     49.5499E-03    -24.8956E-03     33.3577E-03    -24.5843E-03     49.3325E-03    -24.8375E-03     33.1403E-03
            1039     6.14584E-03     97.5842E-03     1.35499E+06    -46.1931E+06    -172.658E+03    -16.3184E+06    -24.5675E-03     49.3781E-03    -24.8106E-03     39.3943E-03    -24.4986E-03     49.1505E-03    -24.7465E-03     39.1675E-03
            1040     7.02438E-03     97.6202E-03     687.132E+03    -47.6685E+06     687.660E+03    -16.1455E+06    -24.5519E-03     49.2799E-03    -24.7280E-03     45.6316E-03    -24.4881E-03     49.0473E-03    -24.6564E-03     45.4021E-03
            1041     7.90321E-03     97.6616E-03    -32.0484E+03    -48.5266E+06     1.88764E+06    -15.7951E+06    -24.6546E-03     49.3097E-03    -24.6551E-03     52.0625E-03    -24.5991E-03     49.0763E-03    -24.5752E-03     51.8307E-03
            1042     8.78181E-03     97.7086E-03    -637.500E+03    -48.4965E+06     2.80497E+06    -15.4336E+06    -24.9299E-03     49.5275E-03    -24.5976E-03     58.7026E-03    -24.8855E-03     49.3005E-03    -24.5124E-03     58.4660E-03
            1043     9.66050E-03     97.7614E-03    -1.23570E+06    -49.1455E+06     3.54531E+06    -14.7821E+06    -25.4295E-03     49.9987E-03    -24.5693E-03     65.4607E-03    -25.3987E-03     49.7788E-03    -24.4785E-03     65.2192E-03
            1044     10.5386E-03     97.8203E-03    -2.29816E+06    -51.7996E+06     1.35806E+06    -14.7256E+06    -26.1923E-03     50.7624E-03    -24.5700E-03     72.1756E-03    -26.1767E-03     50.5508E-03    -24.4848E-03     71.9161E-03
            1045     11.4164E-03     97.8853E-03    -4.00443E+06    -47.8268E+06    -995.596E+03    -15.6272E+06    -27.1973E-03     51.8062E-03    -24.6089E-03     80.0901E-03    -27.2216E-03     51.6493E-03    -24.5387E-03     79.7928E-03
            1046     12.2932E-03     97.9587E-03    -4.96666E+06    -46.7244E+06    -1.88144E+06    -16.3411E+06    -28.4325E-03     53.1403E-03    -24.7079E-03     89.1731E-03    -28.5092E-03     53.0390E-03    -24.6423E-03     88.8326E-03
            1047     13.1693E-03     98.0411E-03    -4.79453E+06    -60.1534E+06    -14.0246E+06    -14.4919E+06    -29.8641E-03     54.6936E-03    -24.8295E-03     91.9469E-03    -29.9709E-03     54.6106E-03    -24.8054E-03     91.5871E-03
            1048     14.0445E-03     98.1199E-03    -5.34754E+06    -41.6024E+06    -17.2243E+06    -12.0293E+06    -31.8355E-03     56.8513E-03    -25.0158E-03     105.221E-03    -32.1480E-03     57.0472E-03    -25.0339E-03     104.835E-03
            1049     14.9172E-03     98.2299E-03    -5.97805E+06    -9.84019E+06    -18.4717E+06    -9.84647E+06    -36.3832E-03     61.6108E-03    -25.2276E-03     166.320E-03    -37.7440E-03     62.9691E-03    -25.2971E-03     165.932E-03
            1050     15.7904E-03     98.4280E-03    -6.24667E+06     74.0543E+06    -17.8760E+06    -5.40920E+06    -42.5288E-03     67.8740E-03    -25.3452E-03     264.825E-03    -48.9779E-03     74.6157E-03    -25.5329E-03     265.790E-03
            1051     16.6665E-03     98.7357E-03    -5.06767E+06     170.544E+06     54.4436E+06    -1.65487E+06    -39.3430E-03     65.0869E-03    -25.7439E-03     258.526E-03    -48.0938E-03     74.2673E-03    -25.7116E-03     263.351E-03
            1052     878.129E-06     98.4689E-03     6.08593E+06    -19.9404E+06     5.91172E+06    -4.33656E+06    -24.5640E-03     49.1377E-03    -24.5737E-03     5.96069E-03    -24.5133E-03     49.0207E-03    -24.5240E-03     5.90318E-03
            1053     1.75640E-03     98.4758E-03     5.78382E+06    -22.4142E+06     4.80545E+06    -7.62570E+06    -24.4939E-03     49.0343E-03    -24.5404E-03     11.0434E-03    -24.4397E-03     48.9071E-03    -24.4922E-03     10.9420E-03
            1054     2.63466E-03     98.4871E-03     5.17137E+06    -26.1589E+06     3.35150E+06    -10.6149E+06    -24.3843E-03     48.8718E-03    -24.4875E-03     16.4716E-03    -24.3260E-03     48.7292E-03    -24.4403E-03     16.3302E-03
            1055     3.51320E-03     98.5029E-03     4.34376E+06    -30.7658E+06     1.60508E+06    -12.9588E+06    -24.2484E-03     48.6656E-03    -24.4172E-03     22.0731E-03    -24.1855E-03     48.5042E-03    -24.3708E-03     21.8998E-03
            1056     4.39181E-03     98.5236E-03     3.21395E+06    -35.6255E+06    -169.779E+03    -14.5272E+06    -24.0996E-03     48.4328E-03    -24.3332E-03     27.8529E-03    -24.0334E-03     48.2520E-03    -24.2870E-03     27.6574E-03
            1057     5.27075E-03     98.5489E-03     1.77417E+06    -40.2467E+06    -1.55318E+06    -15.2893E+06    -23.9624E-03     48.2033E-03    -24.2409E-03     33.8302E-03    -23.8957E-03     48.0045E-03    -24.1929E-03     33.6224E-03
            1058     6.14976E-03     98.5795E-03     49.3921E+03    -43.5381E+06    -2.15967E+06    -15.3606E+06    -23.8703E-03     48.0169E-03    -24.1466E-03     40.0298E-03    -23.8082E-03     47.8067E-03    -24.0944E-03     39.8179E-03
            1059     7.02908E-03     98.6152E-03    -1.70545E+06    -46.2248E+06    -1.63523E+06    -14.8333E+06    -23.8708E-03     47.9313E-03    -24.0605E-03     46.4663E-03    -23.8168E-03     47.7118E-03    -23.9991E-03     46.2568E-03
            1060     7.90831E-03     98.6565E-03    -3.40430E+06    -46.7236E+06    -300.350E+03    -14.3320E+06    -24.0134E-03     48.0012E-03    -23.9878E-03     53.1527E-03    -23.9730E-03     47.7836E-03    -23.9166E-03     52.9434E-03
            1061     8.78769E-03     98.7036E-03    -5.01198E+06    -47.3780E+06     1.04796E+06    -13.9735E+06    -24.3647E-03     48.3037E-03    -23.9390E-03     60.0825E-03    -24.3397E-03     48.0897E-03    -23.8578E-03     59.8689E-03
            1062     9.66664E-03     98.7568E-03    -6.20451E+06    -48.1512E+06     2.21831E+06    -13.5588E+06    -24.9885E-03     48.9139E-03    -23.9253E-03     67.1808E-03    -24.9804E-03     48.7063E-03    -23.8354E-03     66.9594E-03
            1063     10.5453E-03     98.8164E-03    -7.03806E+06    -50.2536E+06     1.31088E+06    -13.2411E+06    -25.9308E-03     49.8831E-03    -23.9523E-03     74.2245E-03    -25.9395E-03     49.6846E-03    -23.8627E-03     73.9885E-03
            1064     11.4230E-03     98.8822E-03    -7.83143E+06    -44.7605E+06     756.008E+03    -13.8553E+06    -27.1481E-03     51.1760E-03    -24.0279E-03     82.3899E-03    -27.1974E-03     51.0365E-03    -23.9479E-03     82.1189E-03
            1065     12.3000E-03     98.9571E-03    -8.35762E+06    -43.8797E+06     207.387E+03    -16.0596E+06    -28.6952E-03     52.8677E-03    -24.1725E-03     91.5768E-03    -28.7966E-03     52.7831E-03    -24.0957E-03     91.2412E-03
            1066     13.1762E-03     99.0403E-03    -8.50324E+06    -63.0457E+06    -14.2558E+06    -15.7746E+06    -30.6568E-03     55.0125E-03    -24.3557E-03     94.7239E-03    -30.7808E-03     54.9240E-03    -24.3232E-03     94.3450E-03
            1067     14.0492E-03     99.1229E-03    -7.58246E+06    -41.6672E+06    -14.6626E+06    -13.5734E+06    -32.7821E-03     57.4095E-03    -24.6274E-03     107.492E-03    -33.1191E-03     57.6142E-03    -24.6293E-03     107.080E-03
            1068     14.9230E-03     99.2323E-03    -6.04858E+06    -13.4845E+06    -13.1591E+06    -10.9019E+06    -37.2770E-03     62.2031E-03    -24.9261E-03     167.950E-03    -38.6576E-03     63.5526E-03    -24.9636E-03     167.532E-03
            1069     15.7959E-03     99.4332E-03    -5.16130E+06     67.6696E+06    -16.3681E+06    -5.20039E+06    -43.9811E-03     69.0869E-03    -25.1058E-03     265.122E-03    -50.4375E-03     75.8128E-03    -25.2783E-03     266.005E-03
            1070     16.6682E-03     99.7368E-03    -4.01191E+06     169.316E+06     54.8101E+06    -1.12639E+06    -40.7533E-03     66.3367E-03    -25.5834E-03     257.372E-03    -49.5220E-03     75.5333E-03    -25.5491E-03     262.107E-03
            1071     878.846E-06     99.4642E-03     8.56308E+06    -11.2656E+06     8.16837E+06    -4.17861E+06    -23.8037E-03     47.6226E-03    -23.8189E-03     6.02191E-03    -23.7565E-03     47.5421E-03    -23.7741E-03     5.96675E-03
            1072     1.75766E-03     99.4710E-03     7.73885E+06    -14.5317E+06     6.47866E+06    -7.39443E+06    -23.7257E-03     47.5046E-03    -23.7789E-03     11.1514E-03    -23.6756E-03     47.4115E-03    -23.7367E-03     11.0536E-03
            1073     2.63672E-03     99.4820E-03     6.45024E+06    -19.2670E+06     4.00242E+06    -10.1212E+06    -23.6030E-03     47.3214E-03    -23.7183E-03     16.6470E-03    -23.5491E-03     47.2103E-03    -23.6797E-03     16.5129E-03
            1074     3.51583E-03     99.4976E-03     4.58343E+06    -25.1923E+06     1.05138E+06    -12.1108E+06    -23.4517E-03     47.0911E-03    -23.6394E-03     22.3279E-03    -23.3947E-03     46.9578E-03    -23.6043E-03     22.1668E-03
            1075     4.39526E-03     99.5179E-03     2.13390E+06    -31.4609E+06    -2.01193E+06    -13.1387E+06    -23.2903E-03     46.8370E-03    -23.5466E-03     28.2077E-03    -23.2326E-03     46.6809E-03    -23.5142E-03     28.0318E-03
            1076     5.27479E-03     99.5430E-03    -835.193E+03    -37.3459E+06    -4.50348E+06    -13.3594E+06    -23.1487E-03     46.5962E-03    -23.4475E-03     34.3146E-03    -23.0945E-03     46.4194E-03    -23.4146E-03     34.1339E-03
            1077     6.15465E-03     99.5731E-03    -4.10242E+06    -41.7116E+06    -5.82679E+06    -12.9052E+06    -23.0666E-03     46.4166E-03    -23.3500E-03     40.6799E-03    -23.0218E-03     46.2260E-03    -23.3127E-03     40.5023E-03
            1078     7.03452E-03     99.6087E-03    -7.19070E+06    -44.8121E+06    -5.33668E+06    -12.4061E+06    -23.0991E-03     46.3654E-03    -23.2663E-03     47.3315E-03    -23.0682E-03     46.1653E-03    -23.2176E-03     47.1565E-03
            1079     7.91459E-03     99.6500E-03    -9.82080E+06    -45.6646E+06    -3.32389E+06    -11.7152E+06    -23.3061E-03     46.5100E-03    -23.2039E-03     54.2753E-03    -23.2936E-03     46.3101E-03    -23.1401E-03     54.1035E-03
            1080     8.79437E-03     99.6973E-03    -11.7289E+06    -45.4780E+06    -771.296E+03    -11.7475E+06    -23.7612E-03     46.9334E-03    -23.1721E-03     61.5191E-03    -23.7683E-03     46.7396E-03    -23.0930E-03     61.3382E-03
            1081     9.67398E-03     99.7510E-03    -12.5199E+06    -46.9828E+06     970.912E+03    -12.2322E+06    -24.5334E-03     47.7149E-03    -23.1815E-03     68.9911E-03    -24.5550E-03     47.5224E-03    -23.0904E-03     68.7912E-03
            1082     10.5529E-03     99.8115E-03     -12.833E+06    -49.4294E+06     655.989E+03    -11.9259E+06    -25.6715E-03     48.9115E-03    -23.2400E-03     76.4404E-03    -25.7077E-03     48.7248E-03    -23.1465E-03     76.2256E-03
            1083     11.4309E-03     99.8787E-03    -12.8167E+06    -40.8949E+06     1.69094E+06    -13.1498E+06    -27.1858E-03     50.5454E-03    -23.3596E-03     84.8613E-03    -27.2662E-03     50.4302E-03    -23.2733E-03     84.6025E-03
            1084     12.3079E-03     99.9548E-03    -12.5368E+06    -39.8889E+06     2.45692E+06    -15.5515E+06    -29.2740E-03     52.8469E-03    -23.5729E-03     94.3428E-03    -29.4080E-03     52.7877E-03    -23.4846E-03     94.0123E-03
            1085     13.1825E-03     100.041E-03    -12.5386E+06    -63.4392E+06    -12.9356E+06    -16.6724E+06    -31.5061E-03     55.3440E-03    -23.8379E-03     97.9150E-03    -31.6561E-03     55.2619E-03    -23.7924E-03     97.5211E-03
            1086     14.0563E-03     100.125E-03    -11.7529E+06    -42.2298E+06    -13.9619E+06    -15.8712E+06    -33.7535E-03     57.9424E-03    -24.1889E-03     110.162E-03    -34.1216E-03     58.1595E-03    -24.1804E-03     109.712E-03
            1087     14.9279E-03     100.236E-03    -10.0624E+06    -18.0070E+06    -12.0188E+06    -13.4071E+06    -38.4813E-03     63.0618E-03    -24.5805E-03     169.031E-03    -39.8987E-03     64.4145E-03    -24.5999E-03     168.556E-03
            1088     15.7999E-03     100.437E-03    -8.97777E+06     59.8204E+06    -16.4477E+06    -7.80352E+06    -45.6874E-03     70.5426E-03    -24.8551E-03     265.839E-03    -52.1970E-03     77.2804E-03    -25.0111E-03     266.583E-03
            1089     16.6709E-03     100.744E-03    -5.48587E+06     166.269E+06     54.4603E+06    -2.18952E+06    -42.3624E-03     67.7837E-03    -25.4212E-03     256.239E-03    -51.1385E-03     76.9726E-03    -25.3821E-03     260.815E-03
            1090     879.568E-06     100.458E-03     9.05891E+06    -3.13416E+06     8.56905E+06    -3.86158E+06    -22.8877E-03     45.7956E-03    -22.9079E-03     6.07886E-03    -22.8503E-03     45.7544E-03    -22.8737E-03     6.02812E-03
            1091     1.75931E-03     100.464E-03     7.65961E+06    -7.28092E+06     6.14370E+06    -6.59039E+06    -22.8042E-03     45.6661E-03    -22.8620E-03     11.2510E-03    -22.7644E-03     45.6098E-03    -22.8318E-03     11.1642E-03
            1092     2.63905E-03     100.475E-03     5.37388E+06    -13.3165E+06     2.56380E+06    -8.75236E+06    -22.6750E-03     45.4711E-03    -22.7962E-03     16.8045E-03    -22.6329E-03     45.3933E-03    -22.7718E-03     16.6890E-03
            1093     3.51910E-03     100.491E-03     2.14713E+06    -20.7551E+06    -1.70317E+06    -9.91949E+06    -22.5178E-03     45.2300E-03    -22.7122E-03     22.5558E-03    -22.4752E-03     45.1262E-03    -22.6937E-03     22.4243E-03
            1094     4.39922E-03     100.511E-03    -1.95652E+06    -28.6063E+06    -5.78497E+06    -10.1068E+06    -22.3592E-03     44.9768E-03    -22.6175E-03     28.5249E-03    -22.3203E-03     44.8460E-03    -22.6021E-03     28.3898E-03
            1095     5.27969E-03     100.535E-03    -6.60517E+06    -35.5394E+06    -8.76079E+06    -9.59528E+06    -22.2334E-03     44.7544E-03    -22.5210E-03     34.7479E-03    -22.2040E-03     44.6007E-03    -22.5037E-03     34.6178E-03
            1096     6.16020E-03     100.565E-03    -11.0407E+06    -40.4978E+06    -9.76588E+06    -9.02853E+06    -22.1854E-03     44.6178E-03    -22.4324E-03     41.2723E-03    -22.1707E-03     44.4484E-03    -22.4065E-03     41.1474E-03
            1097     7.04097E-03     100.601E-03    -14.7321E+06    -43.4435E+06    -8.37447E+06    -8.69246E+06    -22.2763E-03     44.6393E-03    -22.3630E-03     48.1336E-03    -22.2797E-03     44.4603E-03    -22.3205E-03     48.0096E-03
            1098     7.92156E-03     100.642E-03    -17.0332E+06    -44.5928E+06    -5.32122E+06    -8.81342E+06    -22.5745E-03     44.8950E-03    -22.3205E-03     55.3500E-03    -22.5955E-03     44.7126E-03    -22.2577E-03     55.2191E-03
            1099     8.80210E-03     100.690E-03    -17.8331E+06    -42.8720E+06    -1.55554E+06    -9.61693E+06    -23.1498E-03     45.4617E-03    -22.3119E-03     62.9423E-03    -23.1885E-03     45.2894E-03    -22.2317E-03     62.7928E-03
            1100     9.68207E-03     100.744E-03    -17.9045E+06    -44.9820E+06     883.597E+03    -10.9096E+06    -24.1021E-03     46.4556E-03    -22.3535E-03     70.8079E-03    -24.1517E-03     46.2794E-03    -22.2579E-03     70.6291E-03
            1101     10.5614E-03     100.806E-03    -16.6196E+06    -48.3412E+06     1.00247E+06    -11.8568E+06    -25.4609E-03     47.9126E-03    -22.4516E-03     78.6662E-03    -25.5167E-03     47.7348E-03    -22.3524E-03     78.4562E-03
            1102     11.4396E-03     100.874E-03    -14.6789E+06    -36.7487E+06     3.33187E+06    -12.9744E+06    -27.3963E-03     50.0209E-03    -22.6246E-03     87.6433E-03    -27.4943E-03     49.9268E-03    -22.5334E-03     87.3888E-03
            1103     12.3159E-03     100.953E-03    -13.9793E+06    -36.4991E+06     4.67465E+06    -14.6772E+06    -29.9292E-03     52.8449E-03    -22.9156E-03     97.6284E-03    -30.0818E-03     52.8048E-03    -22.8191E-03     97.3075E-03
            1104     13.1907E-03     101.042E-03    -14.3238E+06    -61.5880E+06    -11.6230E+06    -16.1964E+06    -32.1120E-03     55.3676E-03    -23.2556E-03     101.078E-03    -32.2795E-03     55.2994E-03    -23.2036E-03     100.689E-03
            1105     14.0629E-03     101.128E-03    -15.1133E+06    -41.9925E+06    -14.1528E+06    -16.9222E+06    -34.7294E-03     58.4077E-03    -23.6783E-03     114.160E-03    -35.1257E-03     58.6425E-03    -23.6663E-03     113.687E-03
            1106     14.9340E-03     101.242E-03    -13.9231E+06    -19.0108E+06    -10.9555E+06    -15.9105E+06    -41.0393E-03     65.2397E-03    -24.2004E-03     171.737E-03    -42.5294E-03     66.6450E-03    -24.2074E-03     171.174E-03
            1107     15.8038E-03     101.442E-03    -10.4513E+06     52.8053E+06    -13.0268E+06    -11.6112E+06    -46.7975E-03     71.4120E-03    -24.6145E-03     265.338E-03    -53.2970E-03     78.0997E-03    -24.7411E-03     266.013E-03
            1108     16.6743E-03     101.753E-03    -5.82242E+06     157.605E+06     55.4122E+06    -4.76693E+06    -43.2986E-03     68.5345E-03    -25.2358E-03     257.814E-03    -52.0663E-03     77.6806E-03    -25.1789E-03     262.265E-03
            1109     880.573E-06     101.450E-03     6.70703E+06     3.70018E+06     6.39265E+06    -2.99851E+06    -21.8164E-03     43.6513E-03    -21.8350E-03     6.11345E-03    -21.7976E-03     43.6509E-03    -21.8181E-03     6.07416E-03
            1110     1.76111E-03     101.456E-03     4.43689E+06    -1.58820E+06     2.97434E+06    -4.83927E+06    -21.7334E-03     43.5224E-03    -21.7890E-03     11.3179E-03    -21.7134E-03     43.5038E-03    -21.7783E-03     11.2544E-03
            1111     2.64191E-03     101.467E-03     686.635E+03    -9.30663E+06    -1.67157E+06    -5.79162E+06    -21.6090E-03     43.3335E-03    -21.7245E-03     16.9091E-03    -21.5899E-03     43.2886E-03    -21.7204E-03     16.8327E-03
            1112     3.52275E-03     101.482E-03    -4.35965E+06    -18.3230E+06    -6.73384E+06    -5.75009E+06    -21.4678E-03     43.1139E-03    -21.6461E-03     22.7098E-03    -21.4538E-03     43.0387E-03    -21.6468E-03     22.6333E-03
            1113     4.40390E-03     101.501E-03    -10.0805E+06    -27.4735E+06    -10.9414E+06    -5.04521E+06    -21.3383E-03     42.9016E-03    -21.5633E-03     28.7463E-03    -21.3338E-03     42.7954E-03    -21.5635E-03     28.6780E-03
            1114     5.28510E-03     101.526E-03    -15.5235E+06    -34.7966E+06    -13.1436E+06    -4.32228E+06    -21.2562E-03     42.7407E-03    -21.4845E-03     35.0722E-03    -21.2657E-03     42.6096E-03    -21.4773E-03     35.0121E-03
            1115     6.16656E-03     101.555E-03    -19.9666E+06    -39.3665E+06    -12.7998E+06    -4.21541E+06    -21.2693E-03     42.6876E-03    -21.4183E-03     41.7463E-03    -21.2957E-03     42.5404E-03    -21.3963E-03     41.6857E-03
            1116     7.04794E-03     101.591E-03    -22.6772E+06    -41.8362E+06    -10.1854E+06    -4.93870E+06    -21.4427E-03     42.8160E-03    -21.3734E-03     48.8294E-03    -21.4845E-03     42.6584E-03    -21.3308E-03     48.7564E-03
            1117     7.92935E-03     101.632E-03    -23.3083E+06    -41.8804E+06    -6.10396E+06    -6.75249E+06    -21.8428E-03     43.1996E-03    -21.3568E-03     56.3415E-03    -21.8968E-03     43.0398E-03    -21.2928E-03     56.2403E-03
            1118     8.81036E-03     101.680E-03    -22.5591E+06    -40.7016E+06    -1.70419E+06    -8.31434E+06    -22.5613E-03     43.9412E-03    -21.3800E-03     64.3095E-03    -22.6251E-03     43.7853E-03    -21.2968E-03     64.1804E-03
            1119     9.69092E-03     101.736E-03    -21.1372E+06    -41.6015E+06     1.43699E+06    -10.0194E+06    -23.6950E-03     45.1531E-03    -21.4581E-03     72.6313E-03    -23.7648E-03     44.9960E-03    -21.3600E-03     72.4677E-03
            1120     10.5704E-03     101.799E-03    -19.1763E+06    -45.2001E+06     1.49346E+06    -12.9079E+06    -25.3212E-03     46.9232E-03    -21.6021E-03     81.0222E-03    -25.3936E-03     46.7628E-03    -21.5013E-03     80.8021E-03
            1121     11.4487E-03     101.869E-03    -16.8737E+06    -35.3263E+06     3.05782E+06    -13.6426E+06    -27.5968E-03     49.4292E-03    -21.8325E-03     90.9268E-03    -27.7074E-03     49.3458E-03    -21.7415E-03     90.6659E-03
            1122     12.3250E-03     101.951E-03    -14.5603E+06    -32.6909E+06     5.83713E+06    -14.3576E+06    -30.2741E-03     52.4636E-03    -22.1895E-03     101.424E-03    -30.4382E-03     52.4431E-03    -22.0918E-03     101.108E-03
            1123     13.1987E-03     102.042E-03    -12.7653E+06    -59.8783E+06    -10.1438E+06    -16.3170E+06    -32.9562E-03     55.5623E-03    -22.6062E-03     104.651E-03    -33.1268E-03     55.5047E-03    -22.5515E-03     104.255E-03
            1124     14.0722E-03     102.130E-03    -11.1647E+06    -39.9931E+06    -11.5529E+06    -17.3204E+06    -36.4308E-03     59.5682E-03    -23.1375E-03     117.398E-03    -36.8323E-03     59.8220E-03    -23.1210E-03     116.900E-03
            1125     14.9422E-03     102.250E-03    -9.45053E+06    -19.0468E+06    -7.49146E+06    -17.4552E+06    -42.6671E-03     66.4457E-03    -23.7787E-03     175.540E-03    -44.1573E-03     67.8566E-03    -23.7748E-03     174.929E-03
            1126     15.8048E-03     102.455E-03    -5.66015E+06     44.8056E+06    -8.22740E+06    -12.8762E+06    -48.4981E-03     72.8184E-03    -24.3203E-03     264.585E-03    -54.9497E-03     79.4331E-03    -24.4182E-03     265.146E-03
            1127     16.6818E-03     102.746E-03    -3.40134E+06     150.425E+06     58.8119E+06    -5.53142E+06    -45.7219E-03     70.7929E-03    -25.0709E-03     257.906E-03    -54.5592E-03     79.9820E-03    -24.9901E-03     262.143E-03
            1128     881.556E-06     102.439E-03     680.381E+03     7.78787E+06     627.270E+03    -1.16875E+06    -20.6072E-03     41.2226E-03    -20.6154E-03     6.11848E-03    -20.6161E-03     41.2597E-03    -20.6245E-03     6.10308E-03
            1129     1.76328E-03     102.445E-03    -3.01933E+06     923.889E+03    -3.42689E+06    -1.22962E+06    -20.5359E-03     41.1170E-03    -20.5811E-03     11.3154E-03    -20.5475E-03     41.1309E-03    -20.5952E-03     11.2990E-03
            1130     2.64498E-03     102.456E-03    -8.44687E+06    -8.39876E+06    -8.20571E+06    -482.853E+03    -20.4409E-03     40.9729E-03    -20.5320E-03     16.9173E-03    -20.4593E-03     40.9551E-03    -20.5486E-03     16.9102E-03
            1131     3.52694E-03     102.470E-03    -14.6853E+06    -18.4776E+06    -12.5385E+06     710.521E+03    -20.3459E-03     40.8229E-03    -20.4769E-03     22.7435E-03    -20.3747E-03     40.7701E-03    -20.4916E-03     22.7514E-03
            1132     4.40890E-03     102.490E-03    -20.6325E+06    -27.7427E+06    -15.2857E+06     1.56137E+06    -20.2776E-03     40.7010E-03    -20.4234E-03     28.8345E-03    -20.3189E-03     40.6148E-03    -20.4297E-03     28.8528E-03
            1133     5.29110E-03     102.514E-03    -25.2693E+06    -34.3573E+06    -15.8007E+06     1.46582E+06    -20.2664E-03     40.6427E-03    -20.3762E-03     35.2544E-03    -20.3210E-03     40.5312E-03    -20.3687E-03     35.2705E-03
            1134     6.17324E-03     102.544E-03    -27.8878E+06    -37.6763E+06    -14.0452E+06     180.352E+03    -20.3598E-03     40.7006E-03    -20.3408E-03     42.0822E-03    -20.4259E-03     40.5746E-03    -20.3159E-03     42.0802E-03
            1135     7.05548E-03     102.579E-03    -28.2700E+06    -38.6724E+06    -10.4533E+06    -2.52843E+06    -20.6207E-03     40.9461E-03    -20.3253E-03     49.3991E-03    -20.6939E-03     40.8119E-03    -20.2805E-03     49.3595E-03
            1136     7.93744E-03     102.621E-03    -27.0479E+06    -37.9869E+06    -5.86358E+06    -5.72760E+06    -21.1293E-03     41.4693E-03    -20.3400E-03     57.2279E-03    -21.2068E-03     41.3328E-03    -20.2750E-03     57.1427E-03
            1137     8.81915E-03     102.670E-03    -24.8323E+06    -38.3257E+06    -1.71253E+06    -8.12420E+06    -21.9903E-03     42.3884E-03    -20.3981E-03     65.6274E-03    -22.0675E-03     42.2463E-03    -20.3151E-03     65.5039E-03
            1138     9.70004E-03     102.726E-03    -21.5262E+06    -37.0802E+06     1.95744E+06    -10.8599E+06    -23.2898E-03     43.8036E-03    -20.5138E-03     74.4992E-03    -23.3672E-03     43.6673E-03    -20.4190E-03     74.3284E-03
            1139     10.5800E-03     102.791E-03    -18.0719E+06    -40.9855E+06     2.82802E+06    -13.8237E+06    -25.1744E-03     45.8828E-03    -20.7084E-03     83.5933E-03    -25.2479E-03     45.7385E-03    -20.6086E-03     83.3649E-03
            1140     11.4582E-03     102.864E-03    -15.3053E+06    -35.3371E+06     3.46428E+06    -14.5970E+06    -27.6554E-03     48.6495E-03    -20.9941E-03     94.3870E-03    -27.7584E-03     48.5627E-03    -20.9033E-03     94.1168E-03
            1141     12.3346E-03     102.948E-03    -12.2754E+06    -28.4020E+06     7.24260E+06    -15.6950E+06    -30.5329E-03     51.9397E-03    -21.4068E-03     105.015E-03    -30.6943E-03     51.9359E-03    -21.3116E-03     104.684E-03
            1142     13.2097E-03     103.042E-03    -9.47628E+06    -57.0248E+06    -7.47428E+06    -18.0831E+06    -34.1947E-03     56.1111E-03    -21.9163E-03     108.989E-03    -34.3653E-03     56.0675E-03    -21.8573E-03     108.563E-03
            1143     14.0782E-03     103.136E-03    -7.27777E+06    -39.0745E+06    -10.2367E+06    -18.2704E+06    -38.5380E-03     61.1096E-03    -22.5716E-03     122.451E-03    -38.9486E-03     61.3856E-03    -22.5556E-03     121.915E-03
            1144     14.9445E-03     103.257E-03    -5.79133E+06    -19.0993E+06    -6.21197E+06    -18.3579E+06    -43.8905E-03     67.2222E-03    -23.3316E-03     177.405E-03    -45.3469E-03     68.6081E-03    -23.3266E-03     176.760E-03
            1145     15.8214E-03     103.462E-03    -7.36110E+06     35.2904E+06    -14.7919E+06    -15.4361E+06    -51.9729E-03     75.9790E-03    -24.0060E-03     263.651E-03    -58.4636E-03     82.6122E-03    -24.1205E-03     263.864E-03
            1146     16.6750E-03     103.765E-03    -5.51774E+06     142.260E+06     51.7000E+06    -6.73474E+06    -48.3578E-03     73.2982E-03    -24.9404E-03     253.716E-03    -57.1464E-03     82.4225E-03    -24.8802E-03     257.583E-03
            1147     882.786E-06     103.426E-03    -11.0585E+06     6.20493E+06    -9.54483E+06     2.78331E+06    -19.3064E-03     38.6006E-03    -19.2942E-03     6.05857E-03    -19.3569E-03     38.6615E-03    -19.3349E-03     6.09439E-03
            1148     1.76549E-03     103.432E-03    -15.5516E+06    -1.31283E+06    -12.6681E+06     4.76022E+06    -19.2649E-03     38.5569E-03    -19.2919E-03     11.2091E-03    -19.3225E-03     38.5912E-03    -19.3308E-03     11.2703E-03
            1149     2.64840E-03     103.442E-03    -20.8547E+06    -11.2343E+06    -15.2560E+06     6.82248E+06    -19.2294E-03     38.5069E-03    -19.2775E-03     16.7930E-03    -19.2954E-03     38.5031E-03    -19.3072E-03     16.8807E-03
            1150     3.53123E-03     103.457E-03    -25.9788E+06    -20.9536E+06    -16.9124E+06     8.33448E+06    -19.2091E-03     38.4712E-03    -19.2621E-03     22.6338E-03    -19.2842E-03     38.4287E-03    -19.2787E-03     22.7408E-03
            1151     4.41425E-03     103.476E-03    -29.9206E+06    -28.3356E+06    -17.1368E+06     8.20642E+06    -19.2242E-03     38.4721E-03    -19.2480E-03     28.7786E-03    -19.3081E-03     38.3989E-03    -19.2492E-03     28.8836E-03
            1152     5.29718E-03     103.500E-03    -31.7427E+06    -33.0136E+06    -15.9843E+06     6.10984E+06    -19.3021E-03     38.5392E-03    -19.2371E-03     35.2979E-03    -19.3903E-03     38.4438E-03    -19.2231E-03     35.3752E-03
            1153     6.18023E-03     103.530E-03    -31.4368E+06    -34.6996E+06    -13.4172E+06     2.77745E+06    -19.4786E-03     38.7132E-03    -19.2346E-03     42.2841E-03    -19.5671E-03     38.6058E-03    -19.2058E-03     42.3171E-03
            1154     7.06308E-03     103.566E-03    -30.1462E+06    -34.1607E+06    -9.73122E+06    -1.12810E+06    -19.8190E-03     39.0691E-03    -19.2502E-03     49.8330E-03    -19.9084E-03     38.9584E-03    -19.2056E-03     49.8134E-03
            1155     7.94583E-03     103.608E-03    -28.5601E+06    -33.5123E+06    -5.74269E+06    -5.04929E+06    -20.4235E-03     39.7203E-03    -19.2968E-03     58.0092E-03    -20.5142E-03     39.6072E-03    -19.2355E-03     57.9351E-03
            1156     8.82799E-03     103.658E-03    -25.8173E+06    -33.9473E+06    -1.99879E+06    -9.13457E+06    -21.4027E-03     40.7921E-03    -19.3894E-03     66.8888E-03    -21.4894E-03     40.6724E-03    -19.3127E-03     66.7552E-03
            1157     9.70954E-03     103.715E-03    -22.0001E+06    -32.1536E+06     1.70674E+06    -12.9196E+06    -22.8409E-03     42.3842E-03    -19.5433E-03     76.3774E-03    -22.9257E-03     42.2718E-03    -19.4563E-03     76.1837E-03
            1158     10.5897E-03     103.782E-03    -18.4968E+06    -37.5996E+06     2.37657E+06    -15.3338E+06    -24.8967E-03     44.6783E-03    -19.7816E-03     86.3074E-03    -24.9748E-03     44.5504E-03    -19.6883E-03     86.0634E-03
            1159     11.4683E-03     103.857E-03    -15.0405E+06    -33.8824E+06     2.91571E+06    -16.6029E+06    -27.5961E-03     47.7114E-03    -20.1152E-03     97.8594E-03    -27.6978E-03     47.6310E-03    -20.0297E-03     97.5671E-03
            1160     12.3450E-03     103.945E-03    -11.1802E+06    -24.4966E+06     7.54487E+06    -18.0500E+06    -31.0635E-03     51.6550E-03    -20.5915E-03     109.182E-03    -31.2271E-03     51.6703E-03    -20.5020E-03     108.822E-03
            1161     13.2175E-03     104.042E-03    -8.86729E+06    -53.7499E+06    -6.19890E+06    -20.0023E+06    -35.3042E-03     56.5012E-03    -21.1970E-03     114.486E-03    -35.4873E-03     56.4803E-03    -21.1372E-03     114.028E-03
            1162     14.0888E-03     104.142E-03    -8.06136E+06    -38.7345E+06    -10.4138E+06    -20.0440E+06    -39.9035E-03     61.8561E-03    -21.9526E-03     127.829E-03    -40.3325E-03     62.1496E-03    -21.9368E-03     127.257E-03
            1163     14.9571E-03     104.267E-03    -7.36607E+06    -17.6840E+06    -5.62960E+06    -19.1731E+06    -47.3040E-03     70.1765E-03    -22.8724E-03     180.419E-03    -48.8156E-03     71.6158E-03    -22.8643E-03     179.667E-03
            1164     15.8116E-03     104.471E-03    -7.78124E+06     28.6557E+06    -20.4666E+06    -16.1402E+06    -55.0163E-03     78.7202E-03    -23.7039E-03     268.416E-03    -61.6407E-03     85.4783E-03    -23.8365E-03     268.478E-03
            1165     16.6816E-03     104.784E-03    -5.04081E+06     131.101E+06     43.2539E+06    -7.47257E+06    -49.7274E-03     74.4626E-03    -24.7353E-03     253.523E-03    -58.4144E-03     83.4720E-03    -24.7018E-03     257.124E-03
            1166     883.879E-06     104.410E-03    -26.8069E+06    -4.92174E+06    -23.3575E+06     8.85431E+06    -17.9998E-03     35.9787E-03    -17.9789E-03     5.90855E-03    -18.0929E-03     36.0268E-03    -18.0497E-03     6.02285E-03
            1167     1.76785E-03     104.417E-03    -30.4320E+06    -8.90250E+06    -22.3864E+06     12.7359E+06    -18.0031E-03     36.0170E-03    -18.0139E-03     10.9845E-03    -18.1099E-03     36.0490E-03    -18.0688E-03     11.1489E-03
            1168     2.65167E-03     104.427E-03    -33.6199E+06    -16.7905E+06    -21.1636E+06     14.4256E+06    -18.0396E-03     36.0801E-03    -18.0404E-03     16.5341E-03    -18.1527E-03     36.0755E-03    -18.0731E-03     16.7203E-03
            1169     3.53562E-03     104.441E-03    -34.8928E+06    -24.2572E+06    -19.4966E+06     14.4325E+06    -18.1044E-03     36.1694E-03    -18.0651E-03     22.3936E-03    -18.2154E-03     36.1270E-03    -18.0768E-03     22.5798E-03
            1170     4.41942E-03     104.460E-03    -34.4046E+06    -28.3728E+06    -17.2552E+06     12.5632E+06    -18.2075E-03     36.2938E-03    -18.0863E-03     28.5932E-03    -18.3135E-03     36.2269E-03    -18.0816E-03     28.7550E-03
            1171     5.30332E-03     104.485E-03    -33.2246E+06    -30.2866E+06    -14.9900E+06     8.88714E+06    -18.3675E-03     36.4751E-03    -18.1076E-03     35.2029E-03    -18.4682E-03     36.3938E-03    -18.0905E-03     35.3168E-03
            1172     6.18702E-03     104.515E-03    -31.9841E+06    -30.5800E+06    -12.5690E+06     4.35371E+06    -18.6180E-03     36.7540E-03    -18.1361E-03     42.3288E-03    -18.7161E-03     36.6664E-03    -18.1082E-03     42.3833E-03
            1173     7.07073E-03     104.550E-03    -30.1998E+06    -29.1174E+06    -9.32095E+06    -329.586E+03    -19.0276E-03     37.2093E-03    -18.1817E-03     50.1052E-03    -19.1246E-03     37.1227E-03    -18.1423E-03     50.0974E-03
            1174     7.95403E-03     104.593E-03    -27.6530E+06    -28.4418E+06    -5.52565E+06    -4.78832E+06    -19.7119E-03     37.9714E-03    -18.2595E-03     58.6395E-03    -19.8047E-03     37.8811E-03    -18.2058E-03     58.5709E-03
            1175     8.83695E-03     104.644E-03    -25.4118E+06    -27.5851E+06    -1.84721E+06    -9.50588E+06    -20.7704E-03     39.1542E-03    -18.3838E-03     68.0220E-03    -20.8630E-03     39.0640E-03    -18.3162E-03     67.8865E-03
            1176     9.71885E-03     104.703E-03    -23.8661E+06    -27.2989E+06     542.127E+03    -13.6378E+06    -22.2954E-03     40.8649E-03    -18.5694E-03     78.1657E-03    -22.3930E-03     40.7792E-03    -18.4925E-03     77.9664E-03
            1177     10.5998E-03     104.771E-03    -21.7503E+06    -33.5038E+06     616.953E+03    -16.8960E+06    -24.4669E-03     43.3076E-03    -18.8407E-03     88.9823E-03    -24.5623E-03     43.2050E-03    -18.7575E-03     88.7227E-03
            1178     11.4787E-03     104.849E-03    -18.1237E+06    -30.2329E+06     1.56913E+06    -19.9652E+06    -27.4505E-03     46.6659E-03    -19.2154E-03     101.485E-03    -27.5687E-03     46.6081E-03    -19.1375E-03     101.154E-03
            1179     12.3552E-03     104.941E-03    -13.7523E+06    -22.2634E+06     6.28131E+06    -21.3969E+06    -31.4410E-03     51.1895E-03    -19.7485E-03     114.321E-03    -31.6203E-03     51.2231E-03    -19.6649E-03     113.918E-03
            1180     13.2290E-03     105.044E-03    -10.3741E+06    -51.3652E+06    -5.48884E+06    -21.9323E+06    -36.2738E-03     56.7141E-03    -20.4403E-03     120.707E-03    -36.4768E-03     56.7143E-03    -20.3782E-03     120.219E-03
            1181     14.0967E-03     105.147E-03    -8.38107E+06    -37.9171E+06    -9.83261E+06    -21.8590E+06    -41.5591E-03     62.8595E-03    -21.3005E-03     133.476E-03    -42.0097E-03     63.1749E-03    -21.2825E-03     132.861E-03
            1182     14.9604E-03     105.278E-03    -7.29879E+06    -17.7578E+06    -4.66077E+06    -20.7546E+06    -49.5922E-03     71.9357E-03    -22.3436E-03     187.645E-03    -51.1584E-03     73.4270E-03    -22.3306E-03     186.816E-03
            1183     15.8277E-03     105.494E-03    -5.75757E+06     21.9469E+06    -19.6971E+06    -15.8468E+06    -56.3694E-03     79.6449E-03    -23.2755E-03     272.164E-03    -62.8310E-03     86.2213E-03    -23.3975E-03     272.169E-03
            1184     16.6895E-03     105.790E-03    -3.60993E+06     121.166E+06     41.5916E+06    -7.31895E+06    -53.0932E-03     77.5187E-03    -24.4255E-03     253.978E-03    -61.6354E-03     86.3582E-03    -24.3880E-03     257.231E-03
            1185     885.017E-06     105.392E-03    -45.1130E+06    -24.8637E+06    -42.7281E+06     11.7427E+06    -16.8001E-03     33.5977E-03    -16.7976E-03     5.70353E-03    -16.9277E-03     33.6008E-03    -16.9098E-03     5.85512E-03
            1186     1.76988E-03     105.398E-03    -42.4608E+06    -21.8218E+06    -33.6206E+06     18.0474E+06    -16.8334E-03     33.6767E-03    -16.8433E-03     10.6770E-03    -16.9653E-03     33.6778E-03    -16.9181E-03     10.9100E-03
            1187     2.65483E-03     105.409E-03    -40.4693E+06    -23.4973E+06    -25.8166E+06     19.9112E+06    -16.9267E-03     33.8225E-03    -16.8957E-03     16.1900E-03    -17.0576E-03     33.8010E-03    -16.9321E-03     16.4471E-03
            1188     3.53957E-03     105.423E-03    -38.6707E+06    -26.5593E+06    -21.2339E+06     17.9516E+06    -17.0673E-03     34.0116E-03    -16.9443E-03     22.0676E-03    -17.1914E-03     33.9656E-03    -16.9559E-03     22.2994E-03
            1189     4.42439E-03     105.443E-03    -36.0369E+06    -27.3076E+06    -18.1257E+06     14.0500E+06    -17.2394E-03     34.2273E-03    -16.9879E-03     28.2865E-03    -17.3537E-03     34.1692E-03    -16.9867E-03     28.4679E-03
            1190     5.30900E-03     105.467E-03    -32.6410E+06    -26.9928E+06    -15.1827E+06     9.51925E+06    -17.4599E-03     34.4934E-03    -17.0336E-03     34.9355E-03    -17.5620E-03     34.4278E-03    -17.0230E-03     35.0581E-03
            1191     6.19362E-03     105.497E-03    -29.2275E+06    -26.1128E+06    -11.9235E+06     4.85844E+06    -17.7768E-03     34.8655E-03    -17.0887E-03     42.1749E-03    -17.8682E-03     34.7949E-03    -17.0681E-03     42.2367E-03
            1192     7.07790E-03     105.533E-03    -26.7457E+06    -23.9504E+06    -8.19503E+06     260.270E+03    -18.2574E-03     35.4201E-03    -17.1627E-03     50.1601E-03    -18.3457E-03     35.3521E-03    -17.1302E-03     50.1611E-03
            1193     7.96202E-03     105.577E-03    -25.2017E+06    -22.9122E+06    -4.72606E+06    -4.35325E+06    -18.9955E-03     36.2634E-03    -17.2679E-03     59.0212E-03    -19.0844E-03     36.1951E-03    -17.2217E-03     58.9600E-03
            1194     8.84542E-03     105.628E-03    -23.4824E+06    -21.0722E+06    -1.25878E+06    -8.98807E+06    -20.0763E-03     37.4920E-03    -17.4157E-03     68.8624E-03    -20.1681E-03     37.4293E-03    -17.3574E-03     68.7363E-03
            1195     9.72820E-03     105.689E-03    -21.5154E+06    -22.3282E+06     1.27375E+06    -12.9063E+06    -21.6655E-03     39.2914E-03    -17.6259E-03     79.6670E-03    -21.7574E-03     39.2239E-03    -17.5559E-03     79.4809E-03
            1196     10.6095E-03     105.759E-03    -19.5346E+06    -26.8953E+06     2.29163E+06    -17.4752E+06    -23.9447E-03     41.8664E-03    -17.9217E-03     91.3952E-03    -24.0380E-03     41.7883E-03    -17.8429E-03     91.1332E-03
            1197     11.4891E-03     105.840E-03    -16.9987E+06    -24.5552E+06     3.20118E+06    -22.3174E+06    -27.1495E-03     45.4751E-03    -18.3256E-03     105.138E-03    -27.2695E-03     45.4383E-03    -18.2493E-03     104.782E-03
            1198     12.3661E-03     105.936E-03    -14.2070E+06    -20.8024E+06     6.24905E+06    -24.2065E+06    -31.5536E-03     50.4501E-03    -18.8966E-03     119.535E-03    -31.7363E-03     50.4908E-03    -18.8145E-03     119.100E-03
            1199     13.2388E-03     106.044E-03    -11.0909E+06    -49.1258E+06    -4.25343E+06    -24.6301E+06    -36.9090E-03     56.5590E-03    -19.6500E-03     127.360E-03    -37.1237E-03     56.5727E-03    -19.5839E-03     126.837E-03
            1200     14.1077E-03     106.156E-03    -8.14153E+06    -37.4563E+06    -8.46712E+06    -24.1943E+06    -42.9973E-03     63.5920E-03    -20.5947E-03     141.259E-03    -43.4676E-03     63.9255E-03    -20.5709E-03     140.598E-03
            1201     14.9728E-03     106.291E-03    -5.59387E+06    -18.6792E+06    -2.75101E+06    -22.5256E+06    -51.1247E-03     72.8597E-03    -21.7350E-03     193.785E-03    -52.6836E-03     74.3410E-03    -21.7136E-03     192.897E-03
            1202     15.8318E-03     106.507E-03    -5.05023E+06     13.1574E+06    -21.2341E+06    -17.3868E+06    -58.8306E-03     81.6126E-03    -22.7821E-03     271.736E-03    -64.9219E-03     87.7948E-03    -22.9000E-03     271.437E-03
            1203     16.6933E-03     106.807E-03    -4.59448E+06     110.101E+06     38.1355E+06    -7.64043E+06    -57.9007E-03     82.0287E-03    -24.1280E-03     255.630E-03    -66.2829E-03     90.6756E-03    -24.0903E-03     258.407E-03
            1204     885.713E-06     106.372E-03    -76.2952E+06    -42.8826E+06    -76.5709E+06     6.43707E+06    -15.7757E-03     31.5799E-03    -15.8041E-03     5.52262E-03    -15.9840E-03     31.5871E-03    -16.0142E-03     5.60569E-03
            1205     1.77163E-03     106.378E-03    -64.3753E+06    -36.0227E+06    -60.5642E+06     11.8991E+06    -15.8120E-03     31.6435E-03    -15.8314E-03     10.3387E-03    -15.9939E-03     31.6445E-03    -15.9887E-03     10.4922E-03
            1206     2.65739E-03     106.388E-03    -50.1660E+06    -31.0440E+06    -41.8735E+06     15.3974E+06    -15.9120E-03     31.8045E-03    -15.8925E-03     15.7169E-03    -16.0571E-03     31.7827E-03    -15.9842E-03     15.9157E-03
            1207     3.54319E-03     106.403E-03    -38.4331E+06    -28.5744E+06    -27.9859E+06     15.3523E+06    -16.0918E-03     32.0454E-03    -15.9536E-03     21.5528E-03    -16.2019E-03     31.9988E-03    -15.9964E-03     21.7511E-03
            1208     4.42867E-03     106.423E-03    -31.5343E+06    -26.4777E+06    -20.2318E+06     13.1879E+06    -16.3248E-03     32.3343E-03    -16.0094E-03     27.7896E-03    -16.4147E-03     32.2768E-03    -16.0265E-03     27.9599E-03
            1209     5.31417E-03     106.447E-03    -28.8741E+06    -23.9823E+06    -15.7339E+06     9.81311E+06    -16.6115E-03     32.6824E-03    -16.0709E-03     34.4710E-03    -16.6983E-03     32.6271E-03    -16.0729E-03     34.5976E-03
            1210     6.19941E-03     106.478E-03    -27.5066E+06    -21.0251E+06    -12.0154E+06     4.78305E+06    -16.9849E-03     33.1309E-03    -16.1460E-03     41.7540E-03    -17.0747E-03     33.0833E-03    -16.1357E-03     41.8152E-03
            1211     7.08458E-03     106.514E-03    -24.6280E+06    -18.9296E+06    -7.92904E+06    -433.937E+03    -17.5161E-03     33.7582E-03    -16.2422E-03     49.8674E-03    -17.6011E-03     33.7115E-03    -16.2186E-03     49.8603E-03
            1212     7.96917E-03     106.559E-03    -20.7937E+06    -17.7144E+06    -3.58248E+06    -4.56849E+06    -18.2793E-03     34.6467E-03    -16.3674E-03     58.9784E-03    -18.3546E-03     34.5956E-03    -16.3295E-03     58.9159E-03
            1213     8.85339E-03     106.611E-03    -18.6070E+06    -15.6802E+06     598.414E+03    -8.05604E+06    -19.3717E-03     35.9051E-03    -16.5334E-03     69.2107E-03    -19.4482E-03     35.8581E-03    -16.4807E-03     69.0990E-03
            1214     9.73666E-03     106.673E-03    -17.7120E+06    -16.6798E+06     3.71416E+06    -11.9815E+06    -20.9744E-03     37.7341E-03    -16.7597E-03     80.6375E-03    -21.0565E-03     37.6834E-03    -16.6913E-03     80.4670E-03
            1215     10.6188E-03     106.746E-03    -16.0931E+06    -18.3422E+06     5.82339E+06    -17.6006E+06    -23.2769E-03     40.3429E-03    -17.0661E-03     93.3014E-03    -23.3667E-03     40.2936E-03    -16.9870E-03     93.0432E-03
            1216     11.4990E-03     106.830E-03    -14.7664E+06    -18.7872E+06     6.35533E+06    -22.2976E+06    -26.6521E-03     44.1354E-03    -17.4833E-03     108.409E-03    -26.7687E-03     44.1146E-03    -17.4029E-03     108.061E-03
            1217     12.3764E-03     106.930E-03    -14.1378E+06    -17.8965E+06     7.53052E+06    -24.3085E+06    -31.4029E-03     49.4732E-03    -18.0703E-03     124.678E-03    -31.5865E-03     49.5215E-03    -17.9862E-03     124.249E-03
            1218     13.2501E-03     107.044E-03    -12.2224E+06    -43.8078E+06    -1.62215E+06    -28.2285E+06    -37.0511E-03     55.9084E-03    -18.8573E-03     133.986E-03    -37.2796E-03     55.9432E-03    -18.7842E-03     133.422E-03
            1219     14.1185E-03     107.162E-03    -7.58610E+06    -38.3329E+06    -5.74646E+06    -29.4637E+06    -43.8615E-03     63.7188E-03    -19.8573E-03     148.708E-03    -44.3358E-03     64.0475E-03    -19.8195E-03     147.972E-03
            1220     14.9809E-03     107.306E-03    -3.66625E+06    -23.1137E+06    -676.480E+03    -24.0425E+06    -53.4659E-03     74.5631E-03    -21.0971E-03     199.770E-03    -55.0028E-03     76.0076E-03    -21.0617E-03     198.793E-03
            1221     15.8417E-03     107.526E-03    -3.50204E+06     4.75859E+06    -19.2345E+06    -16.6177E+06    -62.2997E-03     84.6014E-03    -22.3017E-03     275.657E-03    -68.1076E-03     90.4699E-03    -22.3996E-03     275.053E-03
            1222     16.6986E-03     107.827E-03    -4.18183E+06     99.3065E+06     39.3265E+06    -7.15171E+06    -63.0790E-03     86.9247E-03    -23.8457E-03     263.154E-03    -71.4053E-03     95.4759E-03    -23.7870E-03     265.438E-03
            1223     886.390E-06     107.350E-03    -95.4989E+06    -48.1135E+06    -95.8292E+06    -1.42462E+06    -15.0701E-03     30.1657E-03    -15.0956E-03     5.36609E-03    -15.3389E-03     30.2026E-03    -15.3665E-03     5.34759E-03
            1224     1.77266E-03     107.356E-03    -86.8000E+06    -42.8393E+06    -85.4196E+06    -1.03065E+06    -15.0771E-03     30.1764E-03    -15.0994E-03     9.99474E-03    -15.3251E-03     30.2120E-03    -15.3385E-03     9.98125E-03
            1225     2.65918E-03     107.366E-03    -73.0830E+06    -36.3886E+06    -70.7637E+06     609.688E+03    -15.1038E-03     30.2265E-03    -15.1228E-03     15.1311E-03    -15.3139E-03     30.2532E-03    -15.3178E-03     15.1388E-03
            1226     3.54563E-03     107.381E-03    -57.0497E+06    -31.1047E+06    -55.6592E+06     2.24461E+06    -15.2125E-03     30.3642E-03    -15.1516E-03     20.7128E-03    -15.3720E-03     30.3721E-03    -15.3021E-03     20.7417E-03
            1227     4.43220E-03     107.401E-03    -41.4392E+06    -27.9472E+06    -39.9787E+06     3.68465E+06    -15.4393E-03     30.6431E-03    -15.2038E-03     26.7871E-03    -15.5480E-03     30.6214E-03    -15.3031E-03     26.8346E-03
            1228     5.31839E-03     107.426E-03    -28.4098E+06    -23.4167E+06    -24.4483E+06     4.58402E+06    -15.7811E-03     31.0630E-03    -15.2819E-03     33.4476E-03    -15.8537E-03     31.0225E-03    -15.3290E-03     33.5067E-03
            1229     6.20437E-03     107.457E-03    -20.5425E+06    -16.9332E+06    -12.7160E+06     3.33320E+06    -16.2453E-03     31.6203E-03    -15.3750E-03     40.8368E-03    -16.3052E-03     31.5840E-03    -15.3842E-03     40.8795E-03
            1230     7.08989E-03     107.494E-03    -18.6052E+06    -14.1212E+06    -6.31672E+06    -110.399E+03    -16.8548E-03     32.3423E-03    -15.4875E-03     49.0695E-03    -16.9188E-03     32.3084E-03    -15.4716E-03     49.0670E-03
            1231     7.97527E-03     107.539E-03    -19.1700E+06    -12.8113E+06    -2.75008E+06    -4.21350E+06    -17.6263E-03     33.2515E-03    -15.6252E-03     58.2738E-03    -17.7012E-03     33.2209E-03    -15.5926E-03     58.2168E-03
            1232     8.86001E-03     107.592E-03    -17.7472E+06    -10.9614E+06     1.58945E+06    -8.08853E+06    -18.6941E-03     34.4957E-03    -15.8016E-03     68.7780E-03    -18.7733E-03     34.4684E-03    -15.7520E-03     68.6678E-03
            1233     9.74402E-03     107.656E-03    -14.7264E+06    -10.9041E+06     6.20376E+06    -11.7597E+06    -20.2464E-03     36.2791E-03    -16.0326E-03     80.7333E-03    -20.3231E-03     36.2467E-03    -15.9645E-03     80.5693E-03
            1234     10.6268E-03     107.730E-03    -13.7019E+06    -10.1164E+06     9.54036E+06    -16.1871E+06    -22.4968E-03     38.8338E-03    -16.3370E-03     94.2336E-03    -22.5872E-03     38.8120E-03    -16.2548E-03     93.9995E-03
            1235     11.5079E-03     107.818E-03    -14.0816E+06    -13.2523E+06     10.1493E+06    -20.4507E+06    -25.9636E-03     42.7164E-03    -16.7528E-03     110.788E-03    -26.0828E-03     42.7092E-03    -16.6624E-03     110.472E-03
            1236     12.3860E-03     107.922E-03    -13.8029E+06    -14.1043E+06     10.4453E+06    -23.0081E+06    -30.8423E-03     48.1730E-03    -17.3308E-03     128.870E-03    -31.0236E-03     48.2252E-03    -17.2381E-03     128.468E-03
            1237     13.2602E-03     108.043E-03    -13.5006E+06    -32.5228E+06     4.19072E+06    -29.3856E+06    -36.7872E-03     54.9092E-03    -18.1221E-03     139.969E-03    -37.0361E-03     54.9831E-03    -18.0344E-03     139.402E-03
            1238     14.1291E-03     108.168E-03    -12.1230E+06    -37.4428E+06    -3.33810E+06    -35.2356E+06    -44.5316E-03     63.6815E-03    -19.1499E-03     156.795E-03    -45.0279E-03     64.0123E-03    -19.0947E-03     155.982E-03
            1239     14.9928E-03     108.321E-03    -7.65005E+06    -34.1038E+06    -1.47132E+06    -29.0958E+06    -55.4558E-03     75.9216E-03    -20.4659E-03     207.072E-03    -56.9702E-03     77.2932E-03    -20.4127E-03     205.973E-03
            1240     15.8493E-03     108.547E-03    -4.29370E+06    -5.48553E+06    -14.1016E+06    -16.9751E+06    -65.4674E-03     87.2939E-03    -21.8265E-03     278.039E-03    -70.8469E-03     92.6803E-03    -21.8828E-03     277.115E-03
            1241     16.7068E-03     108.850E-03    -4.26944E+06     89.1769E+06     43.9920E+06    -6.24059E+06    -68.6051E-03     92.1713E-03    -23.5661E-03     270.987E-03    -76.7909E-03     100.533E-03    -23.4693E-03     272.661E-03
            1242     886.635E-06     108.326E-03    -82.8670E+06    -42.5839E+06    -81.9427E+06    -4.31053E+06    -14.7323E-03     29.4756E-03    -14.7433E-03     5.14411E-03    -14.9661E-03     29.5018E-03    -14.9711E-03     5.08823E-03
            1243     1.77343E-03     108.333E-03    -81.1778E+06    -39.4299E+06    -78.9314E+06    -7.44118E+06    -14.7492E-03     29.4931E-03    -14.7439E-03     9.56600E-03    -14.9836E-03     29.5282E-03    -14.9636E-03     9.46952E-03
            1244     2.66007E-03     108.343E-03    -77.3783E+06    -34.9000E+06    -74.1706E+06    -9.87253E+06    -14.7527E-03     29.5022E-03    -14.7495E-03     14.4114E-03    -14.9815E-03     29.5475E-03    -14.9575E-03     14.2834E-03
            1245     3.54693E-03     108.358E-03    -70.5778E+06    -30.6498E+06    -67.2169E+06    -10.9743E+06    -14.7789E-03     29.5354E-03    -14.7564E-03     19.5970E-03    -14.9901E-03     29.5821E-03    -14.9457E-03     19.4546E-03
            1246     4.43370E-03     108.378E-03    -60.3919E+06    -28.4929E+06    -57.2640E+06    -11.0622E+06    -14.8691E-03     29.6455E-03    -14.7764E-03     25.2512E-03    -15.0470E-03     29.6739E-03    -14.9338E-03     25.1077E-03
            1247     5.32065E-03     108.403E-03    -46.7637E+06    -24.4424E+06    -44.9478E+06    -10.0623E+06    -15.0857E-03     29.8955E-03    -14.8098E-03     31.5942E-03    -15.2192E-03     29.9065E-03    -14.9313E-03     31.4636E-03
            1248     6.20740E-03     108.434E-03    -31.6553E+06    -17.5895E+06    -31.2663E+06    -7.28591E+06    -15.5090E-03     30.3762E-03    -14.8672E-03     38.8316E-03    -15.5968E-03     30.3799E-03    -14.9522E-03     38.7368E-03
            1249     7.09382E-03     108.473E-03    -19.4692E+06    -13.3071E+06    -15.4299E+06    -3.94159E+06    -16.1645E-03     31.1452E-03    -14.9807E-03     47.0848E-03    -16.2208E-03     31.1299E-03    -15.0103E-03     47.0328E-03
            1250     7.97940E-03     108.518E-03    -12.9889E+06    -8.58242E+06    -1.38274E+06    -3.91101E+06    -17.0370E-03     32.1754E-03    -15.1385E-03     56.4766E-03    -17.0888E-03     32.1547E-03    -15.1141E-03     56.4239E-03
            1251     8.86457E-03     108.572E-03    -11.6217E+06    -6.01193E+06     5.68690E+06    -7.12594E+06    -18.1534E-03     33.4743E-03    -15.3210E-03     67.1851E-03    -18.2142E-03     33.4560E-03    -15.2670E-03     67.0887E-03
            1252     9.74907E-03     108.637E-03    -12.3249E+06    -5.90291E+06     9.41488E+06    -10.6074E+06    -19.5959E-03     35.1418E-03    -15.5460E-03     79.3831E-03    -19.6700E-03     35.1239E-03    -15.4725E-03     79.2371E-03
            1253     10.6326E-03     108.713E-03    -12.1287E+06    -3.59011E+06     13.6571E+06    -14.0040E+06    -21.7354E-03     37.5739E-03    -15.8385E-03     93.5998E-03    -21.8283E-03     37.5714E-03    -15.7474E-03     93.3997E-03
            1254     11.5143E-03     108.804E-03    -11.1855E+06    -6.78699E+06     15.8925E+06    -18.2987E+06    -25.1406E-03     41.3775E-03    -16.2369E-03     111.462E-03    -25.2531E-03     41.3803E-03    -16.1314E-03     111.183E-03
            1255     12.3934E-03     108.913E-03    -10.3800E+06    -10.6925E+06     16.1048E+06    -21.3591E+06    -29.9020E-03     46.6860E-03    -16.7840E-03     131.198E-03    -30.0625E-03     46.7253E-03    -16.6730E-03     130.833E-03
            1256     13.2689E-03     109.039E-03    -11.1844E+06    -20.0591E+06     13.4238E+06    -25.6297E+06    -36.0434E-03     53.5876E-03    -17.5442E-03     144.692E-03    -36.2904E-03     53.6853E-03    -17.4318E-03     144.192E-03
            1257     14.1389E-03     109.173E-03    -15.6157E+06    -28.3422E+06     4.05022E+06    -33.1360E+06    -44.8927E-03     63.4627E-03    -18.5701E-03     163.670E-03    -45.4051E-03     63.8084E-03    -18.4861E-03     162.891E-03
            1258     15.0009E-03     109.336E-03    -18.7683E+06    -43.9714E+06    -1.99966E+06    -34.6613E+06    -57.3296E-03     77.2741E-03    -19.9445E-03     213.172E-03    -58.8080E-03     78.5368E-03    -19.8635E-03     211.952E-03
            1259     15.8578E-03     109.571E-03    -14.9579E+06    -21.9313E+06    -12.3642E+06    -24.7693E+06    -69.1390E-03     90.6014E-03    -21.4624E-03     280.056E-03    -74.0254E-03     95.3938E-03    -21.4707E-03     278.701E-03
            1260     16.7085E-03     109.873E-03    -7.83726E+06     75.2394E+06     44.1007E+06    -9.87604E+06    -73.4404E-03     96.8031E-03    -23.3626E-03     279.759E-03    -81.4509E-03     104.927E-03    -23.2399E-03     280.777E-03
            1261     886.875E-06     109.303E-03    -60.6711E+06    -33.8835E+06    -59.9123E+06    -4.36472E+06    -14.7385E-03     29.4777E-03    -14.7392E-03     4.79425E-03    -14.9059E-03     29.4833E-03    -14.9017E-03     4.73749E-03
            1262     1.77354E-03     109.309E-03    -59.0947E+06    -31.2314E+06    -56.1161E+06    -8.21350E+06    -14.8189E-03     29.5830E-03    -14.7641E-03     8.89279E-03    -14.9878E-03     29.5940E-03    -14.9137E-03     8.78597E-03
            1263     2.66032E-03     109.320E-03    -57.1048E+06    -28.1251E+06    -50.8232E+06    -11.7038E+06    -14.9055E-03     29.7167E-03    -14.8113E-03     13.3591E-03    -15.0767E-03     29.7328E-03    -14.9418E-03     13.2068E-03
            1264     3.54687E-03     109.335E-03    -55.3969E+06    -25.7086E+06    -46.5083E+06    -14.4193E+06    -14.9700E-03     29.8230E-03    -14.8531E-03     18.1107E-03    -15.1426E-03     29.8426E-03    -14.9680E-03     17.9230E-03
            1265     4.43360E-03     109.355E-03    -53.7910E+06    -24.1356E+06    -44.2296E+06    -17.0376E+06    -15.0173E-03     29.8949E-03    -14.8777E-03     23.2362E-03    -15.1877E-03     29.9169E-03    -14.9858E-03     23.0143E-03
            1266     5.32031E-03     109.380E-03    -51.2362E+06    -21.8662E+06    -42.1108E+06    -19.4692E+06    -15.1044E-03     29.9971E-03    -14.8927E-03     28.9522E-03    -15.2686E-03     30.0239E-03    -14.9972E-03     28.6987E-03
            1267     6.20712E-03     109.411E-03    -45.6233E+06    -18.8827E+06    -37.1469E+06    -19.6483E+06    -15.2957E-03     30.2137E-03    -14.9180E-03     35.5189E-03    -15.4435E-03     30.2403E-03    -15.0102E-03     35.2631E-03
            1268     7.09380E-03     109.450E-03    -34.6559E+06    -16.3928E+06    -26.4248E+06    -16.7464E+06    -15.6878E-03     30.6660E-03    -14.9782E-03     43.2552E-03    -15.8002E-03     30.6737E-03    -15.0363E-03     43.0368E-03
            1269     7.98043E-03     109.496E-03    -20.6267E+06    -8.59688E+06    -12.6821E+06    -12.7912E+06    -16.4107E-03     31.4819E-03    -15.0712E-03     52.5001E-03    -16.4845E-03     31.4887E-03    -15.0922E-03     52.3324E-03
            1270     8.86602E-03     109.551E-03    -9.82963E+06    -4.98423E+06     1.71345E+06    -9.27996E+06    -17.5421E-03     32.7699E-03    -15.2279E-03     63.3868E-03    -17.5891E-03     32.7594E-03    -15.1978E-03     63.2632E-03
            1271     9.75064E-03     109.617E-03    -4.85436E+06    -1.59940E+06     14.4892E+06    -8.99815E+06    -19.0575E-03     34.5066E-03    -15.4491E-03     75.9096E-03    -19.1059E-03     34.4901E-03    -15.3673E-03     75.7865E-03
            1272     10.6345E-03     109.695E-03    -3.33855E+06     1.42565E+06     20.8396E+06    -11.8485E+06    -21.2075E-03     36.9298E-03    -15.7223E-03     90.6808E-03    -21.2693E-03     36.9244E-03    -15.6154E-03     90.5134E-03
            1273     11.5168E-03     109.788E-03    -3.80086E+06    -892.963E+03     24.3048E+06    -14.6319E+06    -24.3042E-03     40.3973E-03    -16.0931E-03     109.285E-03    -24.3890E-03     40.3951E-03    -15.9648E-03     109.064E-03
            1274     12.3968E-03     109.901E-03    -4.35151E+06    -4.44541E+06     25.7622E+06    -19.1054E+06    -28.7353E-03     45.3278E-03    -16.5925E-03     130.421E-03    -28.8660E-03     45.3527E-03    -16.4509E-03     130.104E-03
            1275     13.2737E-03     110.033E-03    -4.87667E+06    -15.9367E+06     22.5833E+06    -20.0302E+06    -35.0253E-03     52.3141E-03    -17.2888E-03     146.471E-03    -35.2253E-03     52.3753E-03    -17.1457E-03     146.069E-03
            1276     14.1444E-03     110.176E-03    -8.24882E+06    -13.7934E+06     17.1843E+06    -23.3596E+06    -44.7565E-03     63.0324E-03    -18.2759E-03     168.857E-03    -45.2219E-03     63.3708E-03    -18.1580E-03     168.227E-03
            1277     15.0069E-03     110.352E-03    -10.7538E+06    -40.3706E+06     8.14460E+06    -31.7735E+06    -58.5061E-03     78.1650E-03    -19.6589E-03     218.712E-03    -59.8382E-03     79.2933E-03    -19.5440E-03     217.513E-03
            1278     15.8610E-03     110.593E-03    -10.8704E+06    -38.1975E+06    -7.65418E+06    -27.5285E+06    -71.6705E-03     92.9144E-03    -21.2440E-03     284.247E-03    -75.9192E-03     97.0122E-03    -21.2111E-03     282.611E-03
            1279     16.7113E-03     110.904E-03    -7.55389E+06     58.6098E+06     43.3879E+06    -14.2695E+06    -77.1592E-03     100.370E-03    -23.2105E-03     291.359E-03    -84.8729E-03     108.141E-03    -23.0676E-03     291.677E-03
            1280     886.425E-06     110.280E-03    -37.6232E+06    -25.0079E+06    -36.6085E+06    -4.45653E+06    -15.2663E-03     30.4747E-03    -15.2084E-03     4.25583E-03    -15.3651E-03     30.4574E-03    -15.3006E-03     4.19761E-03
            1281     1.77295E-03     110.286E-03    -36.8966E+06    -22.8390E+06     -33.189E+06    -7.76996E+06    -15.3672E-03     30.6432E-03    -15.2760E-03     7.89158E-03    -15.4706E-03     30.6308E-03    -15.3554E-03     7.78996E-03
            1282     2.65914E-03     110.297E-03    -36.0770E+06    -20.8792E+06    -29.2876E+06    -10.6147E+06    -15.5417E-03     30.8919E-03    -15.3502E-03     11.8222E-03    -15.6497E-03     30.8825E-03    -15.4140E-03     11.6831E-03
            1283     3.54537E-03     110.312E-03    -34.7787E+06    -18.9501E+06    -25.5175E+06    -13.2883E+06    -15.7336E-03     31.1690E-03    -15.4354E-03     15.9585E-03    -15.8436E-03     31.1622E-03    -15.4851E-03     15.7841E-03
            1284     4.43133E-03     110.332E-03    -32.9337E+06    -17.1965E+06    -21.4113E+06    -16.2583E+06    -15.9253E-03     31.4512E-03    -15.5258E-03     20.3922E-03    -16.0350E-03     31.4448E-03    -15.5602E-03     20.1787E-03
            1285     5.31722E-03     110.357E-03    -31.5393E+06    -15.8472E+06    -17.5723E+06    -19.0461E+06    -16.0778E-03     31.6907E-03    -15.6129E-03     25.3205E-03    -16.1885E-03     31.6840E-03    -15.6320E-03     25.0702E-03
            1286     6.20302E-03     110.388E-03    -31.5009E+06    -15.6950E+06    -15.1263E+06    -21.1089E+06    -16.1781E-03     31.8640E-03    -15.6860E-03     30.9684E-03    -16.2928E-03     31.8549E-03    -15.6932E-03     30.6909E-03
            1287     7.08900E-03     110.427E-03    -31.5352E+06    -15.2476E+06    -14.2846E+06    -22.9418E+06    -16.2861E-03     32.0237E-03    -15.7376E-03     37.6574E-03    -16.4034E-03     32.0161E-03    -15.7412E-03     37.3560E-03
            1288     7.97491E-03     110.473E-03    -28.5862E+06    -10.7277E+06    -12.3766E+06    -22.4212E+06    -16.5274E-03     32.3049E-03    -15.7775E-03     45.8458E-03    -16.6395E-03     32.3132E-03    -15.7824E-03     45.5512E-03
            1289     8.86111E-03     110.530E-03    -20.5713E+06    -8.53113E+06    -3.75844E+06    -18.4993E+06    -17.1349E-03     32.9927E-03    -15.8579E-03     55.9756E-03    -17.2231E-03     32.9884E-03    -15.8344E-03     55.7317E-03
            1290     9.74663E-03     110.597E-03    -10.1559E+06    -1.39892E+06     9.14503E+06    -14.2958E+06    -18.3944E-03     34.3855E-03    -15.9911E-03     68.5078E-03    -18.4608E-03     34.3844E-03    -15.9287E-03     68.3171E-03
            1291     10.6305E-03     110.676E-03    -2.95121E+06     4.01613E+06     20.9164E+06    -12.4427E+06    -20.5337E-03     36.7404E-03    -16.2066E-03     84.0213E-03    -20.5931E-03     36.7430E-03    -16.1036E-03     83.8504E-03
            1292     11.5126E-03     110.772E-03     1.17368E+06     2.63059E+06     30.5654E+06    -13.0873E+06    -23.5437E-03     40.0792E-03    -16.5356E-03     103.138E-03    -23.6064E-03     40.0669E-03    -16.3882E-03     102.947E-03
            1293     12.3935E-03     110.887E-03     1.80906E+06     2.01170E+06     34.7373E+06    -14.4885E+06    -27.7211E-03     44.6967E-03    -16.9755E-03     125.214E-03    -27.8183E-03     44.7068E-03    -16.8074E-03     124.976E-03
            1294     13.2707E-03     111.025E-03     1.43610E+06    -14.9425E+06     30.8659E+06    -16.6809E+06    -33.7037E-03     51.2972E-03    -17.5935E-03     143.953E-03    -33.8412E-03     51.2977E-03    -17.4196E-03     143.626E-03
            1295     14.1430E-03     111.177E-03     2.71930E+06    -6.12140E+06     29.3406E+06    -16.9167E+06    -43.3750E-03     61.8567E-03    -18.4817E-03     170.450E-03    -43.7300E-03     62.1156E-03    -18.3301E-03     169.954E-03
            1296     15.0070E-03     111.366E-03    -375.020E+03    -23.6203E+06     21.4145E+06    -23.9651E+06    -57.7699E-03     77.5346E-03    -19.7647E-03     221.610E-03    -58.8859E-03     78.5047E-03    -19.6229E-03     220.566E-03
            1297     15.8629E-03     111.616E-03    -1.21508E+06    -48.9152E+06    -4.08342E+06    -27.7374E+06    -71.2363E-03     92.5059E-03    -21.2697E-03     284.956E-03    -74.6722E-03     95.7766E-03    -21.2174E-03     283.265E-03
            1298     16.7159E-03     111.932E-03     1.96409E+06     37.7518E+06     41.6759E+06    -12.4864E+06    -78.1680E-03     101.335E-03    -23.1666E-03     301.453E-03    -85.3339E-03     108.523E-03    -23.0158E-03     301.109E-03
            1299     885.591E-06     111.258E-03    -16.3920E+06    -17.0414E+06    -15.0277E+06    -3.64222E+06    -16.4639E-03     32.8714E-03    -16.4075E-03     3.47477E-03    -16.4994E-03     32.8318E-03    -16.4342E-03     3.42669E-03
            1300     1.77093E-03     111.265E-03    -16.1573E+06    -15.5311E+06    -12.8812E+06    -6.40452E+06    -16.6175E-03     33.1019E-03    -16.4844E-03     6.52416E-03    -16.6573E-03     33.0664E-03    -16.5029E-03     6.43941E-03
            1301     2.65629E-03     111.276E-03    -15.3617E+06    -14.2427E+06     -9.6347E+06    -9.17229E+06    -16.8940E-03     33.4835E-03    -16.5895E-03     9.70572E-03    -16.9367E-03     33.4488E-03    -16.5948E-03     9.58406E-03
            1302     3.54121E-03     111.291E-03    -14.3976E+06    -12.5409E+06    -5.49767E+06    -11.7765E+06    -17.2381E-03     33.9674E-03    -16.7293E-03     13.0114E-03    -17.2848E-03     33.9341E-03    -16.7177E-03     12.8548E-03
            1303     4.42588E-03     111.311E-03    -14.1214E+06    -10.7832E+06    -1.78306E+06    -14.1507E+06    -17.5866E-03     34.4742E-03    -16.8876E-03     16.5601E-03    -17.6404E-03     34.4444E-03    -16.8604E-03     16.3714E-03
            1304     5.31022E-03     111.337E-03    -14.3567E+06    -10.0764E+06     481.525E+03    -16.2277E+06    -17.8942E-03     34.9414E-03    -17.0471E-03     20.5015E-03    -17.9541E-03     34.9127E-03    -17.0093E-03     20.2844E-03
            1305     6.19443E-03     111.368E-03    -14.1477E+06    -10.8460E+06     2.56315E+06    -17.7906E+06    -18.1345E-03     35.3362E-03    -17.2017E-03     25.0179E-03    -18.1960E-03     35.3012E-03    -17.1527E-03     24.7793E-03
            1306     7.07838E-03     111.406E-03    -14.2713E+06    -9.98264E+06     5.78130E+06    -19.4923E+06    -18.2719E-03     35.6165E-03    -17.3446E-03     30.3936E-03    -18.3408E-03     35.5821E-03    -17.2806E-03     30.1319E-03
            1307     7.96250E-03     111.453E-03    -15.8211E+06    -9.16523E+06     7.88745E+06    -20.9917E+06    -18.2993E-03     35.7594E-03    -17.4602E-03     36.9997E-03    -18.3811E-03     35.7291E-03    -17.3845E-03     36.7181E-03
            1308     8.84662E-03     111.508E-03    -17.1792E+06    -9.06611E+06     7.81861E+06    -21.7416E+06    -18.3251E-03     35.8640E-03    -17.5388E-03     45.3311E-03    -18.4144E-03     35.8368E-03    -17.4617E-03     45.0400E-03
            1309     9.73123E-03     111.576E-03    -15.5198E+06    -4.33685E+06     10.1599E+06    -20.1572E+06    -18.7031E-03     36.3094E-03    -17.6063E-03     56.2786E-03    -18.7948E-03     36.3007E-03    -17.5267E-03     56.0086E-03
            1310     10.6159E-03     111.657E-03    -10.2164E+06     2.97925E+06     20.7543E+06    -16.6806E+06    -19.9863E-03     37.7212E-03    -17.7349E-03     70.9212E-03    -20.0786E-03     37.7273E-03    -17.6206E-03     70.6959E-03
            1311     11.4990E-03     111.755E-03    -4.67415E+06     4.79647E+06     32.0701E+06    -15.2871E+06    -22.5179E-03     40.4757E-03    -17.9578E-03     89.9981E-03    -22.6064E-03     40.4717E-03    -17.7977E-03     89.7863E-03
            1312     12.3788E-03     111.873E-03    -967.286E+03     802.039E+03     37.7838E+06    -12.5193E+06    -26.3479E-03     44.6392E-03    -18.2913E-03     113.187E-03    -26.4369E-03     44.6182E-03    -18.1021E-03     112.995E-03
            1313     13.2569E-03     112.015E-03    -2.80639E+06    -8.25487E+06     36.9257E+06    -12.2244E+06    -31.8861E-03     50.6752E-03    -18.7891E-03     134.619E-03    -32.0138E-03     50.6569E-03    -18.5884E-03     134.388E-03
            1314     14.1303E-03     112.174E-03    -7.31154E+06    -6.73892E+06     34.7076E+06    -15.1159E+06    -41.1139E-03     60.6633E-03    -19.5494E-03     163.997E-03    -41.4178E-03     60.8174E-03    -19.3555E-03     163.596E-03
            1315     14.9970E-03     112.374E-03    -8.67305E+06    -5.15094E+06     36.4108E+06    -19.6393E+06    -54.7606E-03     75.4475E-03    -20.6869E-03     215.479E-03    -55.6564E-03     76.1898E-03    -20.4848E-03     214.635E-03
            1316     15.8547E-03     112.636E-03    -13.8799E+06    -45.6022E+06     4.58725E+06    -28.6959E+06    -66.8727E-03     88.8637E-03    -21.9910E-03     275.267E-03    -69.3999E-03     91.1674E-03    -21.8818E-03     273.748E-03
            1317     16.7088E-03     112.951E-03    -16.1636E+06     5.41885E+06     20.4217E+06    -22.8957E+06    -72.3521E-03     95.8441E-03    -23.4920E-03     306.902E-03    -78.4982E-03     101.895E-03    -23.3743E-03     306.153E-03
            1318     883.729E-06     112.239E-03     2.11733E+06    -10.8613E+06     2.73322E+06    -2.72972E+06    -18.5577E-03     37.1118E-03    -18.5540E-03     2.52862E-03    -18.5356E-03     37.0503E-03    -18.5277E-03     2.49181E-03
            1319     1.76747E-03     112.246E-03     2.39593E+06    -9.06429E+06     4.73744E+06    -5.25073E+06    -18.8361E-03     37.4611E-03    -18.6250E-03     4.75947E-03    -18.8184E-03     37.4054E-03    -18.5917E-03     4.68863E-03
            1320     2.65073E-03     112.258E-03     2.80293E+06    -8.35946E+06     8.33185E+06    -7.73052E+06    -19.2194E-03     38.0016E-03    -18.7822E-03     7.00115E-03    -19.2061E-03     37.9437E-03    -18.7325E-03     6.89659E-03
            1321     3.53368E-03     112.274E-03     2.86426E+06    -7.50446E+06     11.6596E+06    -9.34386E+06    -19.6736E-03     38.6517E-03    -18.9781E-03     9.31446E-03    -19.6665E-03     38.5936E-03    -18.9131E-03     9.18715E-03
            1322     4.41613E-03     112.294E-03     2.61661E+06    -5.70244E+06     14.3403E+06    -10.8137E+06    -20.1737E-03     39.3724E-03    -19.1987E-03     11.8060E-03    -20.1748E-03     39.3202E-03    -19.1225E-03     11.6576E-03
            1323     5.29816E-03     112.320E-03     2.27501E+06    -5.12809E+06     16.8841E+06    -12.6027E+06    -20.6936E-03     40.1351E-03    -19.4414E-03     14.5765E-03    -20.7016E-03     40.0831E-03    -19.3529E-03     14.4026E-03
            1324     6.17961E-03     112.352E-03     1.43917E+06    -6.74628E+06     19.1268E+06    -14.1319E+06    -21.1708E-03     40.8688E-03    -19.6980E-03     17.7765E-03    -21.1848E-03     40.8075E-03    -19.5947E-03     17.5804E-03
            1325     7.06079E-03     112.391E-03    -132.191E+03    -6.43954E+06     20.7533E+06    -14.5239E+06    -21.5420E-03     41.4910E-03    -19.9490E-03     21.6210E-03    -21.5678E-03     41.4321E-03    -19.8357E-03     21.4174E-03
            1326     7.94154E-03     112.437E-03    -1.78384E+06    -5.12713E+06     22.4664E+06    -15.2575E+06    -21.7767E-03     41.9630E-03    -20.1863E-03     26.3523E-03    -21.8164E-03     41.9117E-03    -20.0639E-03     26.1371E-03
            1327     8.82239E-03     112.492E-03    -3.07217E+06    -5.28155E+06     24.4411E+06    -17.0868E+06    -21.8758E-03     42.2801E-03    -20.4044E-03     32.3578E-03    -21.9259E-03     42.2282E-03    -20.2700E-03     32.1175E-03
            1328     9.70319E-03     112.558E-03    -4.16905E+06    -4.41709E+06     26.8904E+06    -18.1931E+06    -21.8936E-03     42.4900E-03    -20.5964E-03     40.3224E-03    -21.9554E-03     42.4415E-03    -20.4495E-03     40.0674E-03
            1329     10.5842E-03     112.639E-03    -5.03155E+06     335.689E+03     31.4118E+06    -16.6562E+06    -22.0396E-03     42.8104E-03    -20.7708E-03     51.4708E-03    -22.1201E-03     42.7812E-03    -20.6069E-03     51.2366E-03
            1330     11.4656E-03     112.737E-03    -6.13329E+06     4.88564E+06     36.7511E+06    -13.5977E+06    -22.8113E-03     43.7613E-03    -20.9500E-03     67.2252E-03    -22.9124E-03     43.7496E-03    -20.7644E-03     67.0325E-03
            1331     12.3471E-03     112.857E-03    -6.76227E+06    -1.82613E+06     39.4104E+06    -11.4824E+06    -24.7674E-03     45.9384E-03    -21.1710E-03     88.4626E-03    -24.8689E-03     45.8942E-03    -20.9615E-03     88.2962E-03
            1332     13.2252E-03     113.002E-03    -4.02034E+06    -6.29792E+06     43.5398E+06    -8.10068E+06    -29.2100E-03     50.7239E-03    -21.5139E-03     111.757E-03    -29.3148E-03     50.6659E-03    -21.2813E-03     111.615E-03
            1333     14.0987E-03     113.168E-03    -992.052E+03    -1.68260E+06     46.8976E+06    -8.73366E+06    -38.0051E-03     60.1118E-03    -22.1066E-03     143.159E-03    -38.1933E-03     60.1549E-03    -21.8683E-03     142.921E-03
            1334     14.9646E-03     113.376E-03    -4.80783E+06     1.93736E+06     45.2927E+06    -10.5429E+06    -49.6485E-03     72.6711E-03    -23.0226E-03     193.227E-03    -50.1932E-03     73.0750E-03    -22.7920E-03     192.707E-03
            1335     15.8259E-03     113.645E-03    -9.58835E+06    -24.7813E+06     30.0145E+06    -16.6961E+06    -58.4850E-03     82.5852E-03    -24.1002E-03     248.423E-03    -59.9903E-03     83.8818E-03    -23.9003E-03     247.421E-03
            1336     16.6894E-03     113.958E-03    -8.51392E+06    -6.47184E+06     20.9873E+06    -26.2956E+06    -51.2928E-03     76.1005E-03    -24.8076E-03     289.943E-03    -55.0536E-03     79.7529E-03    -24.6809E-03     289.516E-03
            1337     881.060E-06     113.226E-03     18.0623E+06    -5.93491E+06     18.7851E+06    -2.05281E+06    -21.9561E-03     43.7153E-03    -21.7592E-03     1.54559E-03    -21.8850E-03     43.6318E-03    -21.6829E-03     1.51708E-03
            1338     1.76171E-03     113.233E-03     17.7108E+06    -3.98751E+06     19.7772E+06    -3.93551E+06    -22.2570E-03     44.2113E-03    -21.9543E-03     2.60251E-03    -22.1922E-03     44.1365E-03    -21.8753E-03     2.54779E-03
            1339     2.64209E-03     113.245E-03     17.0287E+06    -3.90063E+06     22.2680E+06    -5.37227E+06    -22.6790E-03     44.8368E-03    -22.1579E-03     3.73842E-03    -22.6214E-03     44.7600E-03    -22.0656E-03     3.66304E-03
            1340     3.52192E-03     113.262E-03     16.6001E+06    -3.92756E+06     24.6263E+06    -6.56169E+06    -23.2252E-03     45.6235E-03    -22.3983E-03     4.94017E-03    -23.1735E-03     45.5439E-03    -22.2935E-03     4.84705E-03
            1341     4.40124E-03     113.283E-03     16.2290E+06    -2.17705E+06     27.3591E+06    -7.45567E+06    -23.8897E-03     46.5707E-03    -22.6811E-03     6.26930E-03    -23.8467E-03     46.4968E-03    -22.5647E-03     6.16196E-03
            1342     5.27976E-03     113.310E-03     15.1387E+06    -1.47854E+06     30.7052E+06    -8.25294E+06    -24.6475E-03     47.6602E-03    -23.0127E-03     7.75725E-03    -24.6164E-03     47.5869E-03    -22.8790E-03     7.63659E-03
            1343     6.15762E-03     113.343E-03     13.2928E+06    -3.59302E+06     32.4590E+06    -8.90532E+06    -25.4624E-03     48.8430E-03    -23.3807E-03     9.46580E-03    -25.4407E-03     48.7598E-03    -23.2324E-03     9.33327E-03
            1344     7.03456E-03     113.381E-03     11.9137E+06    -4.25777E+06     33.0609E+06    -9.58939E+06    -26.2756E-03     50.0477E-03    -23.7721E-03     11.5222E-03    -26.2617E-03     49.9629E-03    -23.6179E-03     11.3770E-03
            1345     7.91087E-03     113.428E-03     11.2557E+06    -1.83573E+06     35.8343E+06    -10.3832E+06    -27.0607E-03     51.2545E-03    -24.1938E-03     14.0458E-03    -27.0589E-03     51.1795E-03    -24.0283E-03     13.8863E-03
            1346     8.78620E-03     113.483E-03     9.59519E+06    -1.91800E+06     39.2967E+06    -10.9406E+06    -27.8180E-03     52.4634E-03    -24.6454E-03     17.2329E-03    -27.8310E-03     52.3864E-03    -24.4601E-03     17.0617E-03
            1347     9.66077E-03     113.549E-03     6.64463E+06    -1.71817E+06      41.514E+06    -11.6788E+06    -28.4165E-03     53.5243E-03    -25.1077E-03     21.5784E-03    -28.4499E-03     53.4505E-03    -24.9073E-03     21.3934E-03
            1348     10.5347E-03     113.629E-03     4.19077E+06    -915.819E+03     43.4916E+06    -11.4464E+06    -28.6085E-03     54.1732E-03    -25.5647E-03     27.7853E-03    -28.6602E-03     54.1051E-03    -25.3520E-03     27.6008E-03
            1349     11.4088E-03     113.725E-03     2.90935E+06     1.29884E+06     45.5663E+06    -8.14930E+06    -28.1574E-03     54.1418E-03    -25.9844E-03     36.9326E-03    -28.2233E-03     54.0842E-03    -25.7626E-03     36.7921E-03
            1350     12.2829E-03     113.842E-03     2.05466E+06    -201.252E+03     48.5118E+06    -6.22361E+06    -27.3853E-03     53.7382E-03    -26.3529E-03     50.6268E-03    -27.4579E-03     53.6700E-03    -26.1130E-03     50.5166E-03
            1351     13.1597E-03     113.985E-03     5.03279E+06    -6.81944E+06     53.6861E+06    -8.74770E+06    -28.3212E-03     55.0395E-03    -26.7183E-03     69.9057E-03    -28.3795E-03     54.9302E-03    -26.4473E-03     69.7640E-03
            1352     14.0330E-03     114.159E-03     10.3682E+06    -3.44219E+06     53.7438E+06    -4.99944E+06    -33.0299E-03     60.1829E-03    -27.1530E-03     100.003E-03    -33.0921E-03     60.1119E-03    -26.8943E-03     99.8806E-03
            1353     14.8991E-03     114.372E-03     14.0896E+06     3.78625E+06     56.4292E+06     137.078E+03    -41.8013E-03     69.6327E-03    -27.8314E-03     146.587E-03    -41.9943E-03     69.7244E-03    -27.5752E-03     146.400E-03
            1354     15.7623E-03     114.638E-03     21.9095E+06    -2.66243E+06     64.8260E+06    -7.64194E+06    -45.1527E-03     73.7797E-03    -28.6270E-03     194.448E-03    -45.7075E-03     74.2159E-03    -28.3307E-03     193.957E-03
            1355     16.6243E-03     114.949E-03     17.8758E+06    -1.99172E+06     42.0004E+06    -12.3308E+06    -19.3109E-03     47.7420E-03    -28.4311E-03     216.070E-03    -20.4397E-03     48.8100E-03    -28.2442E-03     215.990E-03
            1356     876.979E-06     114.220E-03     28.4233E+06    -2.20858E+06     28.7641E+06    -1.43880E+06    -26.6137E-03     53.2457E-03    -26.6321E-03    -7.00104E-06    -26.5112E-03     53.1507E-03    -26.5263E-03    -27.4107E-06
            1357     1.75353E-03     114.228E-03     27.6626E+06    -1.10848E+06     29.7410E+06    -2.07758E+06    -26.9589E-03     53.6773E-03    -26.7184E-03    -26.4423E-06    -26.8634E-03     53.5873E-03    -26.6082E-03    -56.7496E-06
            1358     2.62970E-03     114.241E-03     26.8424E+06    -1.21445E+06     31.3424E+06    -2.57918E+06    -27.4121E-03     54.3281E-03    -26.9160E-03    -11.6774E-06    -27.3229E-03     54.2365E-03    -26.7964E-03    -50.2711E-06
            1359     3.50541E-03     114.258E-03     25.8578E+06    -1.29260E+06     34.0288E+06    -3.39843E+06    -28.0795E-03     55.2663E-03    -27.1868E-03     10.9705E-06    -27.9991E-03     55.1718E-03    -27.0523E-03    -40.2105E-06
            1360     4.38027E-03     114.280E-03     24.7038E+06    -523.069E+03     36.8962E+06    -3.69977E+06    -28.9483E-03     56.4819E-03    -27.5336E-03     41.7971E-06    -28.8792E-03     56.3889E-03    -27.3842E-03    -15.5620E-06
            1361     5.25430E-03     114.308E-03     23.5275E+06     256.342E+03     39.1604E+06    -3.49662E+06    -30.0349E-03     57.9920E-03    -27.9571E-03     54.9947E-06    -29.9763E-03     57.9013E-03    -27.7958E-03    -2.42732E-06
            1362     6.12703E-03     114.342E-03     22.4135E+06    -1.64415E+06     42.1189E+06    -3.65985E+06    -31.3589E-03     59.8318E-03    -28.4729E-03     16.2692E-06    -31.3078E-03     59.7289E-03    -28.2924E-03    -46.5161E-06
            1363     6.99845E-03     114.382E-03     21.2565E+06    -1.51498E+06     45.5497E+06    -4.79414E+06    -32.8770E-03     61.9544E-03    -29.0773E-03    -75.6995E-06    -32.8375E-03     61.8487E-03    -28.8782E-03    -157.126E-06
            1364     7.86810E-03     114.430E-03     19.6382E+06    -609.362E+03     48.0979E+06    -5.18330E+06    -34.5617E-03     64.3296E-03    -29.7679E-03    -204.031E-06    -34.5360E-03     64.2270E-03    -29.5550E-03    -295.393E-06
            1365     8.73600E-03     114.487E-03     18.2434E+06    -207.289E+03     51.1786E+06    -4.80535E+06    -36.3778E-03     66.9322E-03    -30.5544E-03    -290.938E-06    -36.3652E-03     66.8290E-03    -30.3246E-03    -383.373E-06
            1366     9.60167E-03     114.554E-03     16.8904E+06    -101.229E+03     53.4510E+06    -4.44417E+06    -38.1960E-03     69.6249E-03    -31.4289E-03    -227.010E-06    -38.1950E-03     69.5206E-03    -31.1860E-03    -321.531E-06
            1367     10.4652E-03     114.633E-03     14.8666E+06    -38.4318E+03     54.9938E+06    -4.32701E+06    -39.5638E-03     71.9385E-03    -32.3746E-03     224.544E-06    -39.5770E-03     71.8347E-03    -32.1212E-03     125.238E-06
            1368     11.3263E-03     114.728E-03     13.4431E+06    -2.38645E+06     55.7216E+06    -3.08111E+06    -39.7716E-03     73.1145E-03    -33.3428E-03     1.61037E-03    -39.7917E-03     72.9991E-03    -33.0803E-03     1.52318E-03
            1369     12.1878E-03     114.841E-03     14.7817E+06     1.20667E+06     60.1175E+06    -2.41689E+06    -38.3811E-03     72.6530E-03    -34.2719E-03     5.21112E-03    -38.4085E-03     72.5459E-03    -33.9945E-03     5.13257E-03
            1370     13.0482E-03     114.978E-03     13.0910E+06    -2.35068E+06     64.3034E+06    -3.74523E+06    -35.8269E-03     70.9479E-03    -35.1210E-03     13.7903E-03    -35.8658E-03     70.8189E-03    -34.8150E-03     13.6988E-03
            1371     13.9111E-03     115.147E-03     9.84427E+06    -8.74866E+06     55.9775E+06    -4.99130E+06    -34.3967E-03     70.2610E-03    -35.8643E-03     30.7346E-03    -34.4349E-03     70.1164E-03    -35.5860E-03     30.6291E-03
            1372     14.7782E-03     115.356E-03     15.6754E+06    -3.14257E+06     65.0794E+06    -3.11796E+06    -35.6008E-03     72.3412E-03    -36.7404E-03     60.9748E-03    -35.6629E-03     72.2351E-03    -36.4332E-03     60.8571E-03
            1373     15.6319E-03     115.627E-03     16.1362E+06     6.88245E+06     77.6848E+06    -4.71636E+06    -22.8993E-03     60.2128E-03    -37.3135E-03     90.3039E-03    -23.0552E-03     60.2164E-03    -36.9585E-03     90.1327E-03
            1374     16.5147E-03     115.899E-03     7.08567E+06     5.49317E+06     42.2617E+06    -2.96288E+06     6.76933E-03     29.7457E-03    -36.5151E-03     86.8058E-03     6.62158E-03     29.8049E-03    -36.3220E-03     86.7383E-03
            1375     16.6513E-03     57.7218E-03    -4.54706E+06     172.864E+06     84.1111E+06     210.088E+03    -36.2914E-03     63.1268E-03    -26.8354E-03     261.763E-03    -45.1096E-03     72.2986E-03    -26.6589E-03     266.860E-03
            1376     15.7713E-03     57.4189E-03    -7.77594E+06     129.319E+06     21.2230E+06     527.058E+03    -38.6938E-03     65.3429E-03    -26.6491E-03     261.599E-03    -45.1081E-03     72.1271E-03    -26.7192E-03     262.743E-03
            1377     14.8968E-03     57.2171E-03    -9.65553E+06     62.6785E+06    -12.6287E+06     187.035E+03    -32.7795E-03     59.3790E-03    -26.5994E-03     158.554E-03    -34.2120E-03     61.0363E-03    -26.7394E-03     158.338E-03
            1378     14.0195E-03     57.1143E-03    -9.79238E+06     6.93113E+06    -13.6801E+06     97.1074E+03    -29.0551E-03     55.7153E-03    -26.6602E-03     94.4378E-03    -29.4461E-03     56.1358E-03    -26.7244E-03     94.2177E-03
            1379     13.1442E-03     57.0395E-03    -8.91071E+06    -24.6561E+06    -10.8600E+06     941.755E+03    -28.1844E-03     54.8957E-03    -26.7114E-03     80.6723E-03    -28.3626E-03     54.9862E-03    -26.7170E-03     80.5067E-03
            1380     12.2677E-03     56.9613E-03    -8.51277E+06    -39.2655E+06    -3.77121E+06     890.817E+03    -28.0718E-03     54.8470E-03    -26.7753E-03     78.0396E-03    -28.1762E-03     54.7928E-03    -26.7248E-03     77.9072E-03
            1381     11.3913E-03     56.8912E-03    -9.18538E+06    -54.3919E+06    -2.75951E+06     183.064E+03    -27.9075E-03     54.7188E-03    -26.8113E-03     69.7179E-03    -27.9516E-03     54.5452E-03    -26.7329E-03     69.6045E-03
            1382     10.5151E-03     56.8290E-03    -10.0293E+06    -68.2261E+06    -3.35297E+06     232.724E+03    -27.7656E-03     54.5987E-03    -26.8331E-03     63.1549E-03    -27.7656E-03     54.3306E-03    -26.7364E-03     63.0663E-03
            1383     9.63877E-03     56.7713E-03    -10.8123E+06    -76.3432E+06    -720.903E+03     344.079E+03    -27.6148E-03     54.4764E-03    -26.8616E-03     57.9522E-03    -27.5936E-03     54.1478E-03    -26.7388E-03     57.8844E-03
            1384     8.76252E-03     56.7189E-03    -11.9108E+06    -80.8050E+06     396.768E+03     317.409E+03    -27.4664E-03     54.3450E-03    -26.8787E-03     52.6490E-03    -27.4342E-03     53.9826E-03    -26.7422E-03     52.5964E-03
            1385     7.88621E-03     56.6713E-03    -13.2515E+06    -86.1506E+06    -442.870E+03     198.815E+03    -27.3382E-03     54.2268E-03    -26.8886E-03     47.3530E-03    -27.2957E-03     53.8327E-03    -26.7467E-03     47.3112E-03
            1386     7.00995E-03     56.6289E-03    -14.6174E+06    -92.2857E+06    -1.53582E+06     80.0129E+03    -27.2330E-03     54.1318E-03    -26.8988E-03     42.0278E-03    -27.1813E-03     53.7050E-03    -26.7515E-03     41.9943E-03
            1387     6.13366E-03     56.5915E-03    -16.1172E+06    -97.0822E+06    -4.18610E+06     61.5928E+03    -27.1397E-03     54.0390E-03    -26.8993E-03     36.6978E-03    -27.0809E-03     53.5905E-03    -26.7561E-03     36.6719E-03
            1388     5.25742E-03     56.5591E-03    -17.7945E+06    -102.975E+06    -7.69861E+06     32.0033E+03    -27.0649E-03     53.9618E-03    -26.8969E-03     31.3662E-03    -26.9982E-03     53.4887E-03    -26.7603E-03     31.3461E-03
            1389     4.38114E-03     56.5318E-03    -19.4938E+06    -108.010E+06    -11.4229E+06     27.4303E+03    -27.0028E-03     53.8943E-03    -26.8915E-03     26.0695E-03    -26.9301E-03     53.4020E-03    -26.7637E-03     26.0544E-03
            1390     3.50493E-03     56.5096E-03    -20.9944E+06    -110.116E+06    -15.3511E+06     63.1726E+03    -26.9487E-03     53.8284E-03    -26.8796E-03     20.8201E-03    -26.8735E-03     53.3322E-03    -26.7663E-03     20.8096E-03
            1391     2.62866E-03     56.4922E-03    -22.1891E+06    -112.061E+06    -18.9028E+06     71.1516E+03    -26.9093E-03     53.7773E-03    -26.8680E-03     15.6166E-03    -26.8313E-03     53.2775E-03    -26.7678E-03     15.6095E-03
            1392     1.75248E-03     56.4799E-03    -23.0439E+06    -113.502E+06    -21.6062E+06     52.1326E+03    -26.8768E-03     53.7359E-03    -26.8591E-03     10.5049E-03    -26.7965E-03     53.2335E-03    -26.7691E-03     10.5005E-03
            1393     876.185E-06     56.4723E-03    -23.5517E+06    -114.397E+06    -23.2321E+06     67.2838E+03    -26.8700E-03     53.7154E-03    -26.8454E-03     5.70671E-03    -26.7883E-03     53.2114E-03    -26.7615E-03     5.70487E-03
            1394     16.6488E-03     56.7272E-03    -4.76046E+06     172.934E+06     84.3734E+06     329.815E+03    -36.2642E-03     63.1028E-03    -26.8385E-03     260.912E-03    -45.0581E-03     72.2490E-03    -26.6605E-03     265.981E-03
            1395     15.7730E-03     56.4153E-03    -8.41642E+06     129.756E+06     22.7610E+06     268.843E+03    -39.0498E-03     65.6973E-03    -26.6476E-03     261.665E-03    -45.5062E-03     72.5185E-03    -26.7097E-03     262.789E-03
            1396     14.8963E-03     56.2185E-03    -9.41487E+06     62.1708E+06    -11.1121E+06     135.987E+03    -32.5260E-03     59.1198E-03    -26.5938E-03     158.294E-03    -33.9576E-03     60.7709E-03    -26.7258E-03     158.079E-03
            1397     14.0204E-03     56.1130E-03    -8.92329E+06     6.26422E+06    -13.1229E+06     371.254E+03    -28.7309E-03     55.3959E-03    -26.6649E-03     93.8058E-03    -29.1142E-03     55.8078E-03    -26.7267E-03     93.5923E-03
            1398     13.1440E-03     56.0394E-03    -9.08781E+06    -25.0644E+06    -10.9033E+06     459.817E+03    -28.2940E-03     55.0135E-03    -26.7195E-03     80.0451E-03    -28.4730E-03     55.1029E-03    -26.7245E-03     79.8717E-03
            1399     12.2678E-03     55.9613E-03    -9.21551E+06    -38.9175E+06    -3.65581E+06     523.595E+03    -28.1338E-03     54.9110E-03    -26.7772E-03     78.0546E-03    -28.2428E-03     54.8598E-03    -26.7257E-03     77.9169E-03
            1400     11.3914E-03     55.8911E-03    -9.51019E+06    -53.8587E+06    -2.51922E+06     549.628E+03    -27.8954E-03     54.7065E-03    -26.8111E-03     69.7229E-03    -27.9421E-03     54.5356E-03    -26.7318E-03     69.6144E-03
            1401     10.5150E-03     55.8287E-03    -10.1459E+06    -68.4062E+06    -3.37194E+06     271.792E+03    -27.7693E-03     54.6017E-03    -26.8323E-03     63.0771E-03    -27.7696E-03     54.3329E-03    -26.7353E-03     62.9889E-03
            1402     9.63883E-03     55.7712E-03    -10.8326E+06    -76.2793E+06    -686.977E+03     285.535E+03    -27.6202E-03     54.4800E-03    -26.8598E-03     57.8945E-03    -27.5993E-03     54.1518E-03    -26.7370E-03     57.8259E-03
            1403     8.76251E-03     55.7187E-03    -11.7986E+06    -80.7427E+06     559.276E+03     276.265E+03    -27.4656E-03     54.3424E-03    -26.8768E-03     52.6098E-03    -27.4332E-03     53.9799E-03    -26.7399E-03     52.5566E-03
            1404     7.88625E-03     55.6712E-03    -13.0098E+06    -85.8618E+06    -243.825E+03     131.051E+03    -27.3427E-03     54.2286E-03    -26.8859E-03     47.3223E-03    -27.2997E-03     53.8353E-03    -26.7438E-03     47.2796E-03
            1405     7.00995E-03     55.6287E-03    -14.5334E+06    -92.2420E+06    -1.47365E+06    -27.7451E+03    -27.2338E-03     54.1291E-03    -26.8953E-03     42.0072E-03    -27.1819E-03     53.7024E-03    -26.7478E-03     41.9724E-03
            1406     6.13370E-03     55.5914E-03    -16.1903E+06    -97.0978E+06    -4.19723E+06    -37.8026E+03    -27.1383E-03     54.0335E-03    -26.8952E-03     36.6796E-03    -27.0798E-03     53.5850E-03    -26.7519E-03     36.6525E-03
            1407     5.25742E-03     55.5590E-03    -17.8206E+06    -102.999E+06    -7.72866E+06     34.2675E+03    -27.0618E-03     53.9541E-03    -26.8923E-03     31.3525E-03    -26.9952E-03     53.4809E-03    -26.7557E-03     31.3325E-03
            1408     4.38119E-03     55.5318E-03    -19.4421E+06    -107.988E+06    -11.4084E+06     58.0861E+03    -26.9992E-03     53.8858E-03    -26.8866E-03     26.0573E-03    -26.9263E-03     53.3936E-03    -26.7588E-03     26.0426E-03
            1409     3.50492E-03     55.5094E-03    -20.9526E+06    -110.117E+06    -15.3814E+06     26.6174E+03    -26.9441E-03     53.8185E-03    -26.8744E-03     20.8127E-03    -26.8686E-03     53.3224E-03    -26.7613E-03     20.8016E-03
            1410     2.62872E-03     55.4922E-03    -22.1794E+06    -112.034E+06    -18.8949E+06     22.5041E+03    -26.9035E-03     53.7665E-03    -26.8631E-03     15.6128E-03    -26.8254E-03     53.2668E-03    -26.7629E-03     15.6051E-03
            1411     1.75244E-03     55.4798E-03    -23.0876E+06    -113.464E+06    -21.5585E+06     33.5446E+03    -26.8743E-03     53.7279E-03    -26.8537E-03     10.4955E-03    -26.7943E-03     53.2258E-03    -26.7635E-03     10.4908E-03
            1412     876.266E-06     55.4722E-03    -23.6674E+06    -114.348E+06    -23.2273E+06     27.0505E+03    -26.8517E-03     53.7018E-03    -26.8501E-03     5.70535E-03    -26.7707E-03     53.1983E-03    -26.7661E-03     5.70298E-03
            1413     16.6514E-03     55.7269E-03    -5.18971E+06     172.779E+06     84.7524E+06     117.658E+03    -36.8360E-03     63.6607E-03    -26.8248E-03     260.382E-03    -45.6351E-03     72.8090E-03    -26.6440E-03     265.401E-03
            1414     15.7736E-03     55.4165E-03    -8.24829E+06     129.644E+06     22.9996E+06     263.842E+03    -39.0788E-03     65.6981E-03    -26.6193E-03     262.774E-03    -45.5777E-03     72.5612E-03    -26.6804E-03     263.901E-03
            1415     14.8968E-03     55.2176E-03    -9.05564E+06     62.2102E+06    -11.7359E+06     431.796E+03    -32.3402E-03     58.9087E-03    -26.5684E-03     158.407E-03    -33.7663E-03     60.5575E-03    -26.7042E-03     158.200E-03
            1416     14.0204E-03     55.1131E-03    -9.39737E+06     6.31634E+06    -13.7991E+06     453.326E+03    -28.5957E-03     55.2455E-03    -26.6497E-03     93.9517E-03    -28.9791E-03     55.6579E-03    -26.7143E-03     93.7411E-03
            1417     13.1439E-03     55.0390E-03    -8.99989E+06    -24.9583E+06    -10.9328E+06     517.436E+03    -28.1631E-03     54.8780E-03    -26.7149E-03     79.9906E-03    -28.3413E-03     54.9673E-03    -26.7203E-03     79.8190E-03
            1418     12.2677E-03     54.9611E-03    -9.02869E+06    -39.0836E+06    -3.52227E+06     456.425E+03    -28.1962E-03     54.9714E-03    -26.7752E-03     77.8757E-03    -28.3044E-03     54.9191E-03    -26.7231E-03     77.7365E-03
            1419     11.3914E-03     54.8910E-03    -9.55265E+06    -53.5809E+06    -2.25525E+06     401.492E+03    -27.9141E-03     54.7199E-03    -26.8058E-03     69.6739E-03    -27.9617E-03     54.5499E-03    -26.7256E-03     69.5635E-03
            1420     10.5151E-03     54.8285E-03    -9.90392E+06    -68.1810E+06    -3.04338E+06     335.222E+03    -27.7461E-03     54.5727E-03    -26.8266E-03     63.0156E-03    -27.7459E-03     54.3041E-03    -26.7286E-03     62.9284E-03
            1421     9.63885E-03     54.7711E-03    -10.6888E+06    -76.3636E+06    -552.676E+03     236.723E+03    -27.6075E-03     54.4621E-03    -26.8546E-03     57.8229E-03    -27.5859E-03     54.1330E-03    -26.7311E-03     57.7537E-03
            1422     8.76258E-03     54.7186E-03    -11.7305E+06    -80.5102E+06     712.978E+03     149.249E+03    -27.4584E-03     54.3300E-03    -26.8716E-03     52.5770E-03    -27.4262E-03     53.9682E-03    -26.7343E-03     52.5222E-03
            1423     7.88628E-03     54.6711E-03    -12.9638E+06    -85.7444E+06    -174.255E+03     18.5481E+03    -27.3372E-03     54.2176E-03    -26.8804E-03     47.2975E-03    -27.2942E-03     53.8247E-03    -26.7382E-03     47.2534E-03
            1424     7.01002E-03     54.6286E-03    -14.3916E+06    -92.1575E+06    -1.45707E+06    -8.25886E+03    -27.2301E-03     54.1193E-03    -26.8892E-03     41.9838E-03    -27.1776E-03     53.6928E-03    -26.7420E-03     41.9491E-03
            1425     6.13372E-03     54.5912E-03    -16.0885E+06    -97.1723E+06    -4.30784E+06    -8.55456E+03    -27.1320E-03     54.0207E-03    -26.8887E-03     36.6616E-03    -27.0727E-03     53.5719E-03    -26.7461E-03     36.6348E-03
            1426     5.25747E-03     54.5589E-03    -17.8518E+06    -103.037E+06    -7.79859E+06     23.4184E+03    -27.0560E-03     53.9422E-03    -26.8862E-03     31.3377E-03    -26.9893E-03     53.4690E-03    -26.7499E-03     31.3176E-03
            1427     4.38119E-03     54.5316E-03    -19.4878E+06    -107.963E+06    -11.4578E+06     32.9828E+03    -26.9922E-03     53.8729E-03    -26.8806E-03     26.0479E-03    -26.9195E-03     53.3809E-03    -26.7531E-03     26.0329E-03
            1428     3.50497E-03     54.5094E-03    -20.9518E+06    -110.077E+06    -15.4456E+06     23.3659E+03    -26.9368E-03     53.8054E-03    -26.8686E-03     20.8073E-03    -26.8613E-03     53.3096E-03    -26.7559E-03     20.7963E-03
            1429     2.62868E-03     54.4921E-03    -22.1612E+06    -112.051E+06    -18.9652E+06     10.3878E+03    -26.8964E-03     53.7544E-03    -26.8580E-03     15.6081E-03    -26.8182E-03     53.2547E-03    -26.7582E-03     15.6002E-03
            1430     1.75249E-03     54.4797E-03    -23.0572E+06    -113.439E+06    -21.5614E+06     13.4779E+03    -26.8708E-03     53.7198E-03    -26.8490E-03     10.4961E-03    -26.7908E-03     53.2177E-03    -26.7589E-03     10.4912E-03
            1431     876.216E-06     54.4721E-03    -23.6275E+06    -114.305E+06    -23.2356E+06    -11.0314E+03    -26.8474E-03     53.6922E-03    -26.8448E-03     5.69217E-03    -26.7662E-03     53.1888E-03    -26.7609E-03     5.68932E-03
            1432     16.6504E-03     54.7284E-03    -5.09206E+06     172.799E+06     84.6641E+06     45.6112E+03    -36.9942E-03     63.8236E-03    -26.8294E-03     260.741E-03    -45.7983E-03     72.9775E-03    -26.6492E-03     265.745E-03
            1433     15.7731E-03     54.4159E-03    -8.35530E+06     129.583E+06     22.9726E+06     221.178E+03    -39.4290E-03     66.0448E-03    -26.6158E-03     263.607E-03    -45.9474E-03     72.9270E-03    -26.6767E-03     264.702E-03
            1434     14.8972E-03     54.2175E-03    -9.28592E+06     61.7200E+06    -11.7612E+06     609.850E+03    -32.4178E-03     58.9747E-03    -26.5569E-03     158.511E-03    -33.8453E-03     60.6225E-03    -26.6918E-03     158.305E-03
            1435     14.0205E-03     54.1132E-03    -8.71904E+06     6.61780E+06    -12.8895E+06     704.303E+03    -28.5663E-03     55.2050E-03    -26.6387E-03     93.7659E-03    -28.9457E-03     55.6143E-03    -26.7001E-03     93.5594E-03
            1436     13.1442E-03     54.0388E-03    -8.77567E+06    -24.8351E+06    -10.1100E+06     308.737E+03    -28.1222E-03     54.8276E-03    -26.7053E-03     79.8789E-03    -28.3000E-03     54.9153E-03    -26.7071E-03     79.7051E-03
            1437     12.2679E-03     53.9609E-03    -8.82410E+06    -39.0921E+06    -3.33061E+06     391.672E+03    -28.1609E-03     54.9250E-03    -26.7641E-03     77.6957E-03    -28.2682E-03     54.8719E-03    -26.7113E-03     77.5558E-03
            1438     11.3916E-03     53.8908E-03    -9.13872E+06    -53.4227E+06    -1.98116E+06     373.738E+03    -27.9037E-03     54.6988E-03    -26.7951E-03     69.5770E-03    -27.9499E-03     54.5286E-03    -26.7143E-03     69.4663E-03
            1439     10.5153E-03     53.8285E-03    -9.78243E+06    -68.0728E+06    -2.91976E+06     264.031E+03    -27.7174E-03     54.5336E-03    -26.8162E-03     62.9968E-03    -27.7168E-03     54.2651E-03    -26.7179E-03     62.9089E-03
            1440     9.63896E-03     53.7709E-03    -10.3860E+06    -76.2636E+06    -483.067E+03     234.973E+03    -27.5823E-03     54.4274E-03    -26.8451E-03     57.7958E-03    -27.5593E-03     54.0982E-03    -26.7219E-03     57.7267E-03
            1441     8.76264E-03     53.7185E-03    -11.4426E+06    -80.3745E+06     823.055E+03     146.155E+03    -27.4461E-03     54.3094E-03    -26.8633E-03     52.5560E-03    -27.4127E-03     53.9477E-03    -26.7261E-03     52.5011E-03
            1442     7.88635E-03     53.6710E-03    -12.8455E+06    -85.5875E+06    -163.048E+03     27.4391E+03    -27.3260E-03     54.1982E-03    -26.8722E-03     47.2779E-03    -27.2827E-03     53.8060E-03    -26.7303E-03     47.2340E-03
            1443     7.01005E-03     53.6285E-03    -14.4661E+06    -92.2574E+06    -1.58649E+06     8.25625E+03    -27.2180E-03     54.0995E-03    -26.8815E-03     41.9630E-03    -27.1656E-03     53.6728E-03    -26.7347E-03     41.9286E-03
            1444     6.13378E-03     53.5912E-03    -16.1612E+06    -97.1334E+06    -4.38959E+06     74.6863E+03    -27.1230E-03     54.0044E-03    -26.8814E-03     36.6492E-03    -27.0641E-03     53.5560E-03    -26.7390E-03     36.6235E-03
            1445     5.25750E-03     53.5588E-03    -17.8268E+06    -103.045E+06    -7.89656E+06     29.8986E+03    -27.0470E-03     53.9260E-03    -26.8790E-03     31.3258E-03    -26.9800E-03     53.4529E-03    -26.7432E-03     31.3058E-03
            1446     4.38125E-03     53.5316E-03    -19.4479E+06    -107.942E+06    -11.5149E+06     20.7609E+03    -26.9836E-03     53.8576E-03    -26.8740E-03     26.0396E-03    -26.9106E-03     53.3658E-03    -26.7469E-03     26.0245E-03
            1447     3.50496E-03     53.5093E-03    -20.9382E+06    -110.071E+06    -15.4723E+06     20.6563E+03    -26.9291E-03     53.7918E-03    -26.8627E-03     20.7990E-03    -26.8535E-03     53.2960E-03    -26.7501E-03     20.7879E-03
            1448     2.62875E-03     53.4920E-03    -22.1478E+06    -112.023E+06    -19.0002E+06     8.61267E+03    -26.8888E-03     53.7414E-03    -26.8526E-03     15.6032E-03    -26.8105E-03     53.2419E-03    -26.7531E-03     15.5953E-03
            1449     1.75245E-03     53.4796E-03    -23.0139E+06    -113.439E+06    -21.6454E+06    -2.03732E+03    -26.8626E-03     53.7078E-03    -26.8452E-03     10.4972E-03    -26.7822E-03     53.2058E-03    -26.7555E-03     10.4921E-03
            1450     876.260E-06     53.4721E-03    -23.4906E+06    -114.298E+06    -23.1707E+06    -19.1272E+03    -26.8467E-03     53.6886E-03    -26.8420E-03     5.67932E-03    -26.7649E-03     53.1850E-03    -26.7580E-03     5.67637E-03
            1451     16.6490E-03     53.7265E-03    -5.64442E+06     172.309E+06     84.4734E+06     81.9087E+03    -36.8749E-03     63.7124E-03    -26.8375E-03     260.299E-03    -45.6578E-03     72.8420E-03    -26.6568E-03     265.313E-03
            1452     15.7739E-03     53.4159E-03    -8.95936E+06     129.712E+06     24.1649E+06     204.587E+03    -39.6896E-03     66.3134E-03    -26.6237E-03     263.324E-03    -46.1971E-03     73.1794E-03    -26.6780E-03     264.405E-03
            1453     14.8969E-03     53.2171E-03    -9.15634E+06     61.4321E+06    -12.9804E+06    -180.643E+03    -32.6451E-03     59.1815E-03    -26.5364E-03     158.036E-03    -34.0698E-03     60.8294E-03    -26.6771E-03     157.812E-03
            1454     14.0210E-03     53.1130E-03    -8.12162E+06     6.20296E+06    -15.3161E+06     259.980E+03    -28.5301E-03     55.1340E-03    -26.6039E-03     93.3882E-03    -28.8996E-03     55.5412E-03    -26.6777E-03     93.1769E-03
            1455     13.1446E-03     53.0389E-03    -7.58237E+06    -24.3767E+06    -9.88016E+06     794.696E+03    -28.0176E-03     54.7027E-03    -26.6850E-03     80.1274E-03    -28.1909E-03     54.7911E-03    -26.6881E-03     79.9608E-03
            1456     12.2681E-03     52.9607E-03    -8.29093E+06    -39.1072E+06    -3.33287E+06     485.043E+03    -28.1076E-03     54.8569E-03    -26.7493E-03     77.7791E-03    -28.2123E-03     54.8030E-03    -26.6972E-03     77.6407E-03
            1457     11.3917E-03     52.8908E-03    -8.93783E+06    -53.2091E+06    -2.08108E+06     438.035E+03    -27.8711E-03     54.6535E-03    -26.7824E-03     69.6140E-03    -27.9164E-03     54.4843E-03    -26.7027E-03     69.5042E-03
            1458     10.5154E-03     52.8283E-03    -9.48372E+06    -67.9777E+06    -2.97298E+06     319.104E+03    -27.7045E-03     54.5094E-03    -26.8049E-03     63.0034E-03    -27.7025E-03     54.2410E-03    -26.7074E-03     62.9163E-03
            1459     9.63906E-03     52.7709E-03    -10.3333E+06    -76.1152E+06    -562.371E+03     206.658E+03    -27.5609E-03     54.3956E-03    -26.8347E-03     57.8264E-03    -27.5377E-03     54.0672E-03    -26.7122E-03     57.7570E-03
            1460     8.76273E-03     52.7184E-03    -11.3700E+06    -80.3074E+06     742.145E+03     151.516E+03    -27.4380E-03     54.2915E-03    -26.8535E-03     52.5640E-03    -27.4043E-03     53.9302E-03    -26.7169E-03     52.5093E-03
            1461     7.88643E-03     52.6709E-03    -12.7220E+06    -85.5185E+06     25.6465E+03     183.770E+03    -27.3117E-03     54.1757E-03    -26.8640E-03     47.2601E-03    -27.2681E-03     53.7833E-03    -26.7214E-03     47.2182E-03
            1462     7.01012E-03     52.6284E-03    -14.3896E+06    -92.2317E+06    -1.55242E+06     163.558E+03    -27.2041E-03     54.0773E-03    -26.8732E-03     41.9587E-03    -27.1513E-03     53.6505E-03    -26.7264E-03     41.9264E-03
            1463     6.13382E-03     52.5911E-03    -16.1053E+06    -97.0975E+06    -4.40489E+06     67.7927E+03    -27.1126E-03     53.9861E-03    -26.8735E-03     36.6388E-03    -27.0534E-03     53.5378E-03    -26.7314E-03     36.6131E-03
            1464     5.25754E-03     52.5588E-03    -17.7862E+06    -102.999E+06    -7.86621E+06     60.8898E+03    -27.0369E-03     53.9087E-03    -26.8718E-03     31.3173E-03    -26.9699E-03     53.4357E-03    -26.7360E-03     31.2977E-03
            1465     4.38125E-03     52.5315E-03    -19.4429E+06    -107.939E+06    -11.5317E+06     39.6459E+03    -26.9759E-03     53.8429E-03    -26.8670E-03     26.0312E-03    -26.9029E-03     53.3511E-03    -26.7399E-03     26.0163E-03
            1466     3.50502E-03     52.5092E-03    -20.9101E+06    -110.044E+06    -15.5119E+06     28.2838E+03    -26.9217E-03     53.7774E-03    -26.8557E-03     20.7902E-03    -26.8460E-03     53.2817E-03    -26.7433E-03     20.7793E-03
            1467     2.62871E-03     52.4919E-03    -22.1288E+06    -112.009E+06    -19.0383E+06     23.7062E+03    -26.8828E-03     53.7283E-03    -26.8456E-03     15.5933E-03    -26.8043E-03     53.2289E-03    -26.7463E-03     15.5856E-03
            1468     1.75251E-03     52.4796E-03    -23.0195E+06    -113.414E+06    -21.5908E+06     4.12042E+03    -26.8581E-03     53.6957E-03    -26.8376E-03     10.4856E-03    -26.7778E-03     53.1937E-03    -26.7477E-03     10.4805E-03
            1469     876.216E-06     52.4720E-03    -23.5690E+06    -114.320E+06    -23.2168E+06    -17.9831E+03    -26.8330E-03     53.6709E-03    -26.8379E-03     5.65243E-03    -26.7516E-03     53.1673E-03    -26.7540E-03     5.64952E-03
            1470     16.6517E-03     52.7280E-03    -5.50711E+06     172.349E+06     84.5772E+06     337.843E+03    -37.3160E-03     64.1300E-03    -26.8139E-03     259.887E-03    -46.0887E-03     73.2497E-03    -26.6330E-03     264.837E-03
            1471     15.7727E-03     52.4154E-03    -8.64922E+06     130.094E+06     24.7912E+06     52.9021E+03    -39.5613E-03     66.1514E-03    -26.5901E-03     262.755E-03    -46.0729E-03     73.0222E-03    -26.6422E-03     263.826E-03
            1472     14.8982E-03     52.2157E-03    -9.42415E+06     61.6274E+06    -12.6407E+06    -418.559E+03    -32.2190E-03     58.7325E-03    -26.5135E-03     157.594E-03    -33.6349E-03     60.3703E-03    -26.6524E-03     157.377E-03
            1473     14.0214E-03     52.1142E-03    -9.38721E+06     5.32530E+06    -15.6094E+06    -306.127E+03    -28.4399E-03     55.0338E-03    -26.5939E-03     93.8620E-03    -28.8164E-03     55.4412E-03    -26.6661E-03     93.6448E-03
            1474     13.1444E-03     52.0384E-03    -8.87159E+06    -24.5547E+06    -9.96306E+06     487.893E+03    -28.0638E-03     54.7400E-03    -26.6762E-03     80.3199E-03    -28.2438E-03     54.8303E-03    -26.6776E-03     80.1485E-03
            1475     12.2683E-03     51.9609E-03    -8.43657E+06    -38.6292E+06    -3.13751E+06     695.066E+03    -28.0344E-03     54.7742E-03    -26.7398E-03     77.8908E-03    -28.1407E-03     54.7224E-03    -26.6872E-03     77.7556E-03
            1476     11.3917E-03     51.8905E-03    -8.86496E+06    -53.2305E+06    -2.05599E+06     385.771E+03    -27.8692E-03     54.6439E-03    -26.7746E-03     69.6498E-03    -27.9143E-03     54.4745E-03    -26.6949E-03     69.5393E-03
            1477     10.5155E-03     51.8284E-03    -9.41992E+06    -67.7751E+06    -2.95429E+06     401.005E+03    -27.6851E-03     54.4822E-03    -26.7971E-03     63.0159E-03    -27.6830E-03     54.2147E-03    -26.6999E-03     62.9300E-03
            1478     9.63910E-03     51.7708E-03    -10.1651E+06    -75.9856E+06    -441.834E+03     292.645E+03    -27.5669E-03     54.3944E-03    -26.8274E-03     57.8954E-03    -27.5433E-03     54.0662E-03    -26.7047E-03     57.8272E-03
            1479     8.76282E-03     51.7183E-03    -11.3786E+06    -80.2544E+06     665.029E+03     245.291E+03    -27.4316E-03     54.2767E-03    -26.8450E-03     52.5706E-03    -27.3979E-03     53.9157E-03    -26.7089E-03     52.5171E-03
            1480     7.88648E-03     51.6708E-03    -12.8474E+06    -85.6019E+06    -62.5248E+03     307.208E+03    -27.3018E-03     54.1577E-03    -26.8559E-03     47.2722E-03    -27.2586E-03     53.7651E-03    -26.7134E-03     47.2319E-03
            1481     7.01017E-03     51.6284E-03    -14.4088E+06    -91.9965E+06    -1.52484E+06     263.245E+03    -27.1986E-03     54.0636E-03    -26.8650E-03     41.9594E-03    -27.1463E-03     53.6380E-03    -26.7183E-03     41.9284E-03
            1482     6.13388E-03     51.5910E-03    -16.0961E+06    -97.0141E+06    -4.54005E+06     125.323E+03    -27.1030E-03     53.9675E-03    -26.8645E-03     36.6299E-03    -27.0436E-03     53.5198E-03    -26.7232E-03     36.6050E-03
            1483     5.25757E-03     51.5587E-03    -17.7960E+06    -102.992E+06    -7.91634E+06     80.3835E+03    -27.0296E-03     53.8930E-03    -26.8634E-03     31.3046E-03    -26.9626E-03     53.4201E-03    -26.7278E-03     31.2853E-03
            1484     4.38131E-03     51.5314E-03    -19.4138E+06    -107.881E+06    -11.5363E+06     74.1141E+03    -26.9667E-03     53.8254E-03    -26.8587E-03     26.0173E-03    -26.8936E-03     53.3338E-03    -26.7318E-03     26.0028E-03
            1485     3.50501E-03     51.5092E-03    -20.9301E+06    -110.033E+06    -15.4984E+06     46.7004E+03    -26.9140E-03     53.7616E-03    -26.8476E-03     20.7828E-03    -26.8384E-03     53.2660E-03    -26.7352E-03     20.7721E-03
            1486     2.62879E-03     51.4919E-03    -22.1289E+06    -111.968E+06    -18.9948E+06     35.4812E+03    -26.8769E-03     53.7139E-03    -26.8370E-03     15.5880E-03    -26.7985E-03     53.2146E-03    -26.7376E-03     15.5805E-03
            1487     1.75249E-03     51.4795E-03    -23.0163E+06    -113.401E+06    -21.6159E+06     24.1378E+03    -26.8509E-03     53.6785E-03    -26.8276E-03     10.4909E-03    -26.7706E-03     53.1766E-03    -26.7378E-03     10.4861E-03
            1488     876.298E-06     51.4720E-03    -23.5732E+06    -114.308E+06    -23.2278E+06     43.1269E+03    -26.8325E-03     53.6496E-03    -26.8171E-03     5.62813E-03    -26.7511E-03     53.1461E-03    -26.7333E-03     5.62603E-03
            1489     16.6499E-03     51.7286E-03    -5.77271E+06     172.366E+06     85.0992E+06     71.5409E+03    -37.8736E-03     64.6816E-03    -26.8080E-03     261.000E-03    -46.6981E-03     73.8508E-03    -26.6240E-03     265.911E-03
            1490     15.7769E-03     51.4137E-03    -8.58600E+06     130.730E+06     26.5254E+06     181.331E+03    -39.6968E-03     66.2689E-03    -26.5721E-03     262.788E-03    -46.2068E-03     73.1355E-03    -26.6165E-03     263.817E-03
            1491     14.8976E-03     51.2190E-03    -9.32816E+06     61.8411E+06    -12.0243E+06    -162.028E+03    -31.8706E-03     58.3673E-03    -26.4967E-03     158.062E-03    -33.2845E-03     60.0025E-03    -26.6329E-03     157.863E-03
            1492     14.0201E-03     51.1120E-03    -8.51524E+06     5.14449E+06    -15.1671E+06    -249.868E+03    -28.4274E-03     55.0137E-03    -26.5863E-03     93.6751E-03    -28.8001E-03     55.4183E-03    -26.6572E-03     93.4583E-03
            1493     13.1453E-03     51.0394E-03    -8.41650E+06    -25.2232E+06    -10.0282E+06     52.3197E+03    -27.9713E-03     54.6417E-03    -26.6704E-03     80.1664E-03    -28.1467E-03     54.7268E-03    -26.6718E-03     79.9904E-03
            1494     12.2680E-03     50.9606E-03    -8.52351E+06    -38.6219E+06    -3.38226E+06     418.571E+03    -28.0614E-03     54.7967E-03    -26.7352E-03     78.2674E-03    -28.1683E-03     54.7460E-03    -26.6838E-03     78.1284E-03
            1495     11.3920E-03     50.8905E-03    -8.89915E+06    -52.9963E+06    -2.09028E+06     535.214E+03    -27.8584E-03     54.6288E-03    -26.7705E-03     69.6191E-03    -27.9037E-03     54.4605E-03    -26.6912E-03     69.5107E-03
            1496     10.5154E-03     50.8284E-03    -9.55850E+06    -67.7379E+06    -3.22208E+06     378.242E+03    -27.6893E-03     54.4815E-03    -26.7922E-03     63.1113E-03    -27.6875E-03     54.2147E-03    -26.6962E-03     63.0252E-03
            1497     9.63919E-03     50.7707E-03    -10.3087E+06    -75.8479E+06    -604.962E+03     379.306E+03    -27.5843E-03     54.4060E-03    -26.8217E-03     57.9081E-03    -27.5614E-03     54.0789E-03    -26.6998E-03     57.8410E-03
            1498     8.76286E-03     50.7183E-03    -11.3794E+06    -80.2868E+06     576.853E+03     401.248E+03    -27.4266E-03     54.2653E-03    -26.8386E-03     52.5737E-03    -27.3927E-03     53.9042E-03    -26.7028E-03     52.5224E-03
            1499     7.88653E-03     50.6707E-03    -12.7540E+06    -85.5396E+06    -98.8372E+03     400.239E+03    -27.3068E-03     54.1556E-03    -26.8488E-03     47.2776E-03    -27.2631E-03     53.7633E-03    -26.7068E-03     47.2386E-03
            1500     7.01024E-03     50.6283E-03    -14.3331E+06    -91.7998E+06    -1.37999E+06     310.687E+03    -27.1966E-03     54.0543E-03    -26.8577E-03     41.9477E-03    -27.1444E-03     53.6293E-03    -26.7107E-03     41.9173E-03
            1501     6.13392E-03     50.5910E-03    -16.0296E+06    -96.8662E+06    -4.38668E+06     207.651E+03    -27.0995E-03     53.9561E-03    -26.8566E-03     36.6248E-03    -27.0402E-03     53.5087E-03    -26.7148E-03     36.6010E-03
            1502     5.25763E-03     50.5586E-03    -17.7436E+06    -102.956E+06    -7.93871E+06     137.474E+03    -27.0236E-03     53.8778E-03    -26.8542E-03     31.2962E-03    -26.9563E-03     53.4050E-03    -26.7189E-03     31.2777E-03
            1503     4.38133E-03     50.5314E-03    -19.4323E+06    -107.826E+06    -11.4792E+06     108.061E+03    -26.9591E-03     53.8086E-03    -26.8495E-03     26.0067E-03    -26.8862E-03     53.3172E-03    -26.7224E-03     25.9928E-03
            1504     3.50508E-03     50.5092E-03    -20.9173E+06    -109.970E+06    -15.4283E+06     69.2939E+03    -26.9052E-03     53.7433E-03    -26.8381E-03     20.7758E-03    -26.8297E-03     53.2478E-03    -26.7254E-03     20.7654E-03
            1505     2.62877E-03     50.4919E-03    -22.1538E+06    -111.952E+06    -18.9911E+06     34.6424E+03    -26.8680E-03     53.6948E-03    -26.8269E-03     15.5791E-03    -26.7898E-03     53.1957E-03    -26.7274E-03     15.5716E-03
            1506     1.75254E-03     50.4795E-03    -23.0241E+06    -113.385E+06    -21.6700E+06     52.7542E+03    -26.8360E-03     53.6543E-03    -26.8183E-03     10.4784E-03    -26.7557E-03     53.1526E-03    -26.7289E-03     10.4740E-03
            1507     876.219E-06     50.4719E-03    -23.5327E+06    -114.244E+06    -23.1690E+06     27.4111E+03    -26.8353E-03     53.6350E-03    -26.7997E-03     5.63449E-03    -26.7538E-03     53.1316E-03    -26.7157E-03     5.63219E-03
            1508     16.6502E-03     50.7206E-03    -5.45689E+06     171.747E+06     84.2948E+06    -61.0838E+03    -37.4727E-03     64.2521E-03    -26.7794E-03     259.647E-03    -46.2124E-03     73.3378E-03    -26.5991E-03     264.592E-03
            1509     15.7731E-03     50.4164E-03    -7.85098E+06     130.531E+06     25.8526E+06     403.347E+03    -39.0412E-03     65.6009E-03    -26.5597E-03     261.298E-03    -45.4452E-03     72.3654E-03    -26.6084E-03     262.403E-03
            1510     14.8977E-03     50.2170E-03    -9.21649E+06     63.0215E+06    -12.3155E+06     134.226E+03    -32.1112E-03     58.6031E-03    -26.4919E-03     158.534E-03    -33.5360E-03     60.2546E-03    -26.6315E-03     158.330E-03
            1511     14.0231E-03     50.1134E-03    -9.16804E+06     4.56885E+06    -16.8641E+06    -425.862E+03    -28.2459E-03     54.8247E-03    -26.5787E-03     94.1933E-03    -28.6171E-03     55.2284E-03    -26.6564E-03     93.9765E-03
            1512     13.1439E-03     50.0395E-03    -8.57946E+06    -25.7458E+06    -11.3586E+06     73.6426E+03    -27.9776E-03     54.6489E-03    -26.6712E-03     80.8890E-03    -28.1526E-03     54.7349E-03    -26.6782E-03     80.7133E-03
            1513     12.2684E-03     49.9601E-03    -9.01016E+06    -38.7260E+06    -4.14612E+06     380.467E+03    -28.1631E-03     54.8994E-03    -26.7363E-03     78.2894E-03    -28.2715E-03     54.8503E-03    -26.6878E-03     78.1492E-03
            1514     11.3917E-03     49.8908E-03    -9.50231E+06    -53.0286E+06    -2.62587E+06     457.403E+03    -27.8483E-03     54.6179E-03    -26.7696E-03     69.6681E-03    -27.8956E-03     54.4508E-03    -26.6920E-03     69.5590E-03
            1515     10.5155E-03     49.8281E-03    -9.98863E+06    -67.4913E+06    -3.56247E+06     477.056E+03    -27.7432E-03     54.5330E-03    -26.7898E-03     63.1617E-03    -27.7436E-03     54.2686E-03    -26.6952E-03     63.0765E-03
            1516     9.63923E-03     49.7707E-03    -10.8015E+06    -75.9068E+06    -1.03577E+06     409.967E+03    -27.5867E-03     54.4033E-03    -26.8166E-03     57.8794E-03    -27.5654E-03     54.0772E-03    -26.6961E-03     57.8128E-03
            1517     8.76287E-03     49.7181E-03    -11.9164E+06    -80.1726E+06     206.803E+03     414.640E+03    -27.4359E-03     54.2684E-03    -26.8325E-03     52.5785E-03    -27.4042E-03     53.9092E-03    -26.6979E-03     52.5274E-03
            1518     7.88661E-03     49.6707E-03    -13.1387E+06    -85.4598E+06    -465.063E+03     331.332E+03    -27.3106E-03     54.1516E-03    -26.8410E-03     47.2645E-03    -27.2684E-03     53.7608E-03    -26.7004E-03     47.2246E-03
            1519     7.01026E-03     49.6283E-03    -14.5206E+06    -91.6307E+06    -1.63281E+06     284.112E+03    -27.1950E-03     54.0439E-03    -26.8490E-03     41.9385E-03    -27.1435E-03     53.6204E-03    -26.7032E-03     41.9079E-03
            1520     6.13399E-03     49.5909E-03    -16.1201E+06    -96.7868E+06    -4.30318E+06     234.696E+03    -27.0973E-03     53.9459E-03    -26.8486E-03     36.6127E-03    -27.0387E-03     53.4990E-03    -26.7064E-03     36.5893E-03
            1521     5.25766E-03     49.5586E-03    -17.8122E+06    -102.839E+06    -7.82624E+06     196.974E+03    -27.0197E-03     53.8649E-03    -26.8452E-03     31.2826E-03    -26.9530E-03     53.3926E-03    -26.7094E-03     31.2649E-03
            1522     4.38139E-03     49.5314E-03    -19.4244E+06    -107.754E+06    -11.4813E+06     115.922E+03    -26.9561E-03     53.7947E-03    -26.8386E-03     25.9900E-03    -26.8833E-03     53.3037E-03    -26.7116E-03     25.9762E-03
            1523     3.50509E-03     49.5092E-03    -20.9214E+06    -109.913E+06    -15.4287E+06     88.7517E+03    -26.8996E-03     53.7251E-03    -26.8254E-03     20.7564E-03    -26.8242E-03     53.2299E-03    -26.7129E-03     20.7463E-03
            1524     2.62884E-03     49.4918E-03    -22.1533E+06    -111.914E+06    -18.9772E+06     71.0170E+03    -26.8551E-03     53.6684E-03    -26.8133E-03     15.5581E-03    -26.7770E-03     53.1694E-03    -26.7138E-03     15.5511E-03
            1525     1.75254E-03     49.4795E-03    -23.0769E+06    -113.344E+06    -21.6131E+06     31.3891E+03    -26.8187E-03     53.6246E-03    -26.8059E-03     10.4560E-03    -26.7388E-03     53.1231E-03    -26.7161E-03     10.4514E-03
            1526     876.296E-06     49.4719E-03    -23.6038E+06    -114.192E+06    -23.2896E+06     29.7503E+03    -26.8043E-03     53.6106E-03    -26.8063E-03     5.66959E-03    -26.7231E-03     53.1078E-03    -26.7229E-03     5.66729E-03
            1527     16.6551E-03     49.7267E-03    -5.21162E+06     171.523E+06     84.2630E+06    -19.6388E+03    -37.0315E-03     63.7988E-03    -26.7673E-03     259.534E-03    -45.7397E-03     72.8531E-03    -26.5871E-03     264.482E-03
            1528     15.7755E-03     49.4163E-03    -8.32570E+06     129.880E+06     24.7594E+06     569.795E+03    -38.9003E-03     65.4750E-03    -26.5747E-03     264.008E-03    -45.4193E-03     72.3538E-03    -26.6272E-03     265.179E-03
            1529     14.8985E-03     49.2168E-03    -9.30749E+06     64.0137E+06    -9.52661E+06     604.940E+03    -32.2043E-03     58.7397E-03    -26.5354E-03     158.419E-03    -33.6355E-03     60.3928E-03    -26.6624E-03     158.212E-03
            1530     14.0188E-03     49.1147E-03    -10.4240E+06     5.08855E+06    -14.4103E+06     236.469E+03    -28.3043E-03     54.9244E-03    -26.6201E-03     94.8363E-03    -28.6868E-03     55.3297E-03    -26.6844E-03     94.6275E-03
            1531     13.1448E-03     49.0382E-03    -10.8758E+06    -26.5482E+06    -12.5691E+06    -375.138E+03    -28.3421E-03     55.0276E-03    -26.6854E-03     81.0216E-03    -28.5281E-03     55.1172E-03    -26.6940E-03     80.8362E-03
            1532     12.2681E-03     48.9607E-03    -9.97146E+06    -38.8133E+06    -4.53357E+06    -53.4692E+03    -28.1741E-03     54.9131E-03    -26.7389E-03     78.0071E-03    -28.2857E-03     54.8645E-03    -26.6908E-03     77.8618E-03
            1533     11.3918E-03     48.8904E-03    -9.91745E+06    -53.3454E+06    -2.90301E+06     272.762E+03    -27.8927E-03     54.6625E-03    -26.7698E-03     69.7079E-03    -27.9413E-03     54.4949E-03    -26.6926E-03     69.5962E-03
            1534     10.5155E-03     48.8281E-03    -10.3230E+06    -67.3841E+06    -3.47249E+06     453.259E+03    -27.7565E-03     54.5451E-03    -26.7886E-03     63.0841E-03    -27.7588E-03     54.2816E-03    -26.6933E-03     62.9987E-03
            1535     9.63920E-03     48.7706E-03    -10.9894E+06    -75.8196E+06    -1.09799E+06     424.300E+03    -27.5995E-03     54.4123E-03    -26.8129E-03     57.8542E-03    -27.5791E-03     54.0870E-03    -26.6925E-03     57.7878E-03
            1536     8.76298E-03     48.7181E-03    -11.9503E+06    -80.0872E+06     167.099E+03     354.868E+03    -27.4490E-03     54.2759E-03    -26.8268E-03     52.5524E-03    -27.4175E-03     53.9172E-03    -26.6926E-03     52.5006E-03
            1537     7.88661E-03     48.6706E-03    -13.2445E+06    -85.2877E+06    -652.096E+03     282.096E+03    -27.3130E-03     54.1461E-03    -26.8331E-03     47.2381E-03    -27.2713E-03     53.7565E-03    -26.6935E-03     47.1977E-03
            1538     7.01035E-03     48.6282E-03    -14.7649E+06     -91.599E+06    -1.89137E+06     197.792E+03    -27.1986E-03     54.0382E-03    -26.8396E-03     41.9108E-03    -27.1480E-03     53.6155E-03    -26.6948E-03     41.8791E-03
            1539     6.13401E-03     48.5909E-03    -16.3576E+06    -96.6752E+06    -4.50874E+06     180.463E+03    -27.0965E-03     53.9342E-03    -26.8378E-03     36.5800E-03    -27.0389E-03     53.4885E-03    -26.6964E-03     36.5560E-03
            1540     5.25774E-03     48.5586E-03    -17.9148E+06    -102.769E+06    -7.84450E+06     113.234E+03    -27.0162E-03     53.8498E-03    -26.8337E-03     31.2530E-03    -26.9501E-03     53.3781E-03    -26.6979E-03     31.2342E-03
            1541     4.38143E-03     48.5314E-03    -19.5018E+06    -107.669E+06    -11.5532E+06     116.957E+03    -26.9513E-03     53.7764E-03    -26.8250E-03     25.9675E-03    -26.8789E-03     53.2860E-03    -26.6984E-03     25.9538E-03
            1542     3.50518E-03     48.5091E-03    -20.9712E+06    -109.892E+06    -15.4626E+06     95.4035E+03    -26.8894E-03     53.7000E-03    -26.8106E-03     20.7360E-03    -26.8142E-03     53.2051E-03    -26.6982E-03     20.7260E-03
            1543     2.62886E-03     48.4919E-03    -22.1860E+06    -111.849E+06    -18.9452E+06     72.9838E+03    -26.8359E-03     53.6347E-03    -26.7988E-03     15.5518E-03    -26.7581E-03     53.1360E-03    -26.6991E-03     15.5448E-03
            1544     1.75258E-03     48.4795E-03    -23.0686E+06    -113.273E+06    -21.5969E+06     46.5706E+03    -26.8075E-03     53.5985E-03    -26.7910E-03     10.4600E-03    -26.7277E-03     53.0973E-03    -26.7012E-03     10.4555E-03
            1545     876.254E-06     48.4720E-03    -23.6463E+06    -114.154E+06    -23.2323E+06     12.1755E+03    -26.7850E-03     53.5788E-03    -26.7938E-03     5.65619E-03    -26.7041E-03     53.0762E-03    -26.7102E-03     5.65367E-03
            1546     16.6481E-03     48.7322E-03    -5.58503E+06     171.666E+06     84.4222E+06    -56.8974E+03    -37.1453E-03     63.9836E-03    -26.8384E-03     259.248E-03    -45.9068E-03     73.0901E-03    -26.6571E-03     264.167E-03
            1547     15.7709E-03     48.4100E-03    -9.74059E+06     128.213E+06     22.9722E+06    -534.351E+03    -39.6520E-03     66.2717E-03    -26.6197E-03     263.689E-03    -46.2627E-03     73.2365E-03    -26.6766E-03     264.746E-03
            1548     14.8963E-03     48.2198E-03    -9.51660E+06     62.8727E+06    -10.8336E+06     508.607E+03    -32.0024E-03     58.5657E-03    -26.5633E-03     157.178E-03    -33.4015E-03     60.1857E-03    -26.6949E-03     156.977E-03
            1549     14.0216E-03     48.1132E-03    -9.13976E+06     6.47513E+06    -13.6547E+06     1.01983E+06    -28.8183E-03     55.4589E-03    -26.6406E-03     94.9792E-03    -29.2023E-03     55.8730E-03    -26.7050E-03     94.7739E-03
            1550     13.1441E-03     48.0383E-03    -9.15832E+06    -26.0355E+06    -11.8405E+06    -105.350E+03    -28.4023E-03     55.0915E-03    -26.6892E-03     80.5659E-03    -28.5808E-03     55.1794E-03    -26.6974E-03     80.3835E-03
            1551     12.2681E-03     47.9603E-03    -9.62382E+06    -39.5631E+06    -4.65396E+06    -383.947E+03    -28.2128E-03     54.9513E-03    -26.7385E-03     77.8567E-03    -28.3212E-03     54.8985E-03    -26.6904E-03     77.7069E-03
            1552     11.3919E-03     47.8903E-03    -10.0339E+06    -53.4677E+06    -2.96696E+06     59.5466E+03    -27.9212E-03     54.6878E-03    -26.7666E-03     69.6893E-03    -27.9701E-03     54.5200E-03    -26.6894E-03     69.5748E-03
            1553     10.5155E-03     47.8279E-03    -10.3808E+06    -67.5924E+06    -3.55413E+06     245.086E+03    -27.7470E-03     54.5313E-03    -26.7843E-03     63.0622E-03    -27.7490E-03     54.2668E-03    -26.6890E-03     62.9743E-03
            1554     9.63934E-03     47.7704E-03    -10.8848E+06    -75.6116E+06    -976.069E+03     306.296E+03    -27.6165E-03     54.4244E-03    -26.8079E-03     57.8108E-03    -27.5961E-03     54.0998E-03    -26.6874E-03     57.7428E-03
            1555     8.76296E-03     47.7180E-03    -11.8475E+06    -80.1083E+06     111.008E+03     272.435E+03    -27.4596E-03     54.2790E-03    -26.8193E-03     52.5069E-03    -27.4275E-03     53.9201E-03    -26.6855E-03     52.4541E-03
            1556     7.88674E-03     47.6706E-03    -13.0956E+06    -85.1594E+06    -576.380E+03     314.522E+03    -27.3223E-03     54.1462E-03    -26.8240E-03     47.1899E-03    -27.2801E-03     53.7569E-03    -26.6844E-03     47.1499E-03
            1557     7.01039E-03     47.6282E-03    -14.6232E+06    -91.4578E+06    -1.88163E+06     236.164E+03    -27.2036E-03     54.0317E-03    -26.8281E-03     41.8635E-03    -27.1526E-03     53.6095E-03    -26.6837E-03     41.8324E-03
            1558     6.13414E-03     47.5908E-03    -16.2552E+06    -96.5766E+06    -4.66239E+06     90.8978E+03    -27.0967E-03     53.9202E-03    -26.8235E-03     36.5344E-03    -27.0385E-03     53.4750E-03    -26.6832E-03     36.5092E-03
            1559     5.25780E-03     47.5586E-03    -17.9327E+06    -102.762E+06    -8.00738E+06     96.1113E+03    -27.0107E-03     53.8286E-03    -26.8178E-03     31.2177E-03    -26.9445E-03     53.3571E-03    -26.6829E-03     31.1987E-03
            1560     4.38152E-03     47.5314E-03    -19.5656E+06    -107.626E+06    -11.5464E+06     88.3035E+03    -26.9402E-03     53.7488E-03    -26.8086E-03     25.9337E-03    -26.8682E-03     53.2587E-03    -26.6819E-03     25.9196E-03
            1561     3.50520E-03     47.5092E-03    -21.0251E+06    -109.838E+06    -15.5260E+06     67.0475E+03    -26.8698E-03     53.6632E-03    -26.7934E-03     20.6965E-03    -26.7948E-03     53.1687E-03    -26.6813E-03     20.6861E-03
            1562     2.62891E-03     47.4919E-03    -22.1986E+06    -111.811E+06    -18.9891E+06     39.8555E+03    -26.8182E-03     53.6002E-03    -26.7821E-03     15.5263E-03    -26.7404E-03     53.1018E-03    -26.6827E-03     15.5189E-03
            1563     1.75258E-03     47.4796E-03    -23.0583E+06    -113.212E+06    -21.6007E+06     18.5931E+03    -26.7961E-03     53.5690E-03    -26.7730E-03     10.4550E-03    -26.7163E-03     53.0681E-03    -26.6834E-03     10.4501E-03
            1564     876.344E-06     47.4720E-03    -23.5427E+06    -114.119E+06    -23.2308E+06    -20.2991E+03    -26.7797E-03     53.5401E-03    -26.7604E-03     5.62703E-03    -26.6983E-03     53.0375E-03    -26.6769E-03     5.62412E-03
            1565     16.6483E-03     47.7218E-03    -4.26650E+06     172.436E+06     84.9121E+06    -140.411E+03    -37.2656E-03     64.1348E-03    -26.8691E-03     259.551E-03    -46.1094E-03     73.3295E-03    -26.6884E-03     264.509E-03
            1566     15.7776E-03     47.4163E-03    -8.62563E+06     127.823E+06     21.5024E+06    -37.2622E+03    -39.6168E-03     66.2342E-03    -26.6174E-03     259.920E-03    -46.0944E-03     73.0727E-03    -26.6827E-03     260.946E-03
            1567     14.8964E-03     47.2177E-03    -9.17917E+06     62.1640E+06    -12.5345E+06     1.04892E+06    -31.9084E-03     58.4609E-03    -26.5525E-03     157.947E-03    -33.2994E-03     60.0763E-03    -26.6920E-03     157.763E-03
            1568     14.0197E-03     47.1130E-03    -8.88370E+06     6.94221E+06    -13.4090E+06     576.581E+03    -28.9749E-03     55.6128E-03    -26.6379E-03     94.6942E-03    -29.3623E-03     56.0323E-03    -26.7022E-03     94.4801E-03
            1569     13.1446E-03     47.0379E-03    -8.53726E+06    -25.4787E+06    -11.2244E+06     287.041E+03    -28.2976E-03     54.9830E-03    -26.6854E-03     80.3711E-03    -28.4729E-03     55.0700E-03    -26.6922E-03     80.1956E-03
            1570     12.2682E-03     46.9601E-03    -8.88459E+06    -39.6165E+06    -4.46329E+06     124.082E+03    -28.2059E-03     54.9425E-03    -26.7366E-03     77.7724E-03    -28.3109E-03     54.8883E-03    -26.6885E-03     77.6291E-03
            1571     11.3918E-03     46.8903E-03    -9.68802E+06    -53.8032E+06    -3.15798E+06    -18.0402E+03    -27.9456E-03     54.7086E-03    -26.7630E-03     69.6903E-03    -27.9921E-03     54.5389E-03    -26.6867E-03     69.5747E-03
            1572     10.5157E-03     46.8278E-03    -10.2387E+06    -67.5749E+06    -3.81860E+06     128.926E+03    -27.7767E-03     54.5544E-03    -26.7778E-03     63.0642E-03    -27.7776E-03     54.2902E-03    -26.6840E-03     62.9747E-03
            1573     9.63930E-03     46.7704E-03    -10.9895E+06    -75.7621E+06    -1.24249E+06     223.790E+03    -27.6308E-03     54.4302E-03    -26.7995E-03     57.7650E-03    -27.6102E-03     54.1053E-03    -26.6799E-03     57.6960E-03
            1574     8.76313E-03     46.7179E-03    -12.1157E+06    -79.9812E+06    -125.838E+03     329.375E+03    -27.4723E-03     54.2809E-03    -26.8086E-03     52.4426E-03    -27.4413E-03     53.9233E-03    -26.6757E-03     52.3905E-03
            1575     7.88677E-03     46.6706E-03    -13.4548E+06    -85.1338E+06    -1.01063E+06     225.141E+03    -27.3297E-03     54.1397E-03    -26.8100E-03     47.1384E-03    -27.2887E-03     53.7517E-03    -26.6721E-03     47.0973E-03
            1576     7.01054E-03     46.6281E-03    -14.7738E+06    -91.2417E+06    -2.15272E+06     152.233E+03    -27.2054E-03     54.0174E-03    -26.8120E-03     41.8116E-03    -27.1549E-03     53.5968E-03    -26.6690E-03     41.7794E-03
            1577     6.13420E-03     46.5909E-03    -16.3478E+06    -96.5433E+06    -4.75869E+06     123.546E+03    -27.0936E-03     53.8999E-03    -26.8063E-03     36.4815E-03    -27.0358E-03     53.4551E-03    -26.6664E-03     36.4567E-03
            1578     5.25792E-03     46.5586E-03    -18.0157E+06    -102.709E+06    -7.97692E+06     80.1501E+03    -27.0036E-03     53.8026E-03    -26.7990E-03     31.1703E-03    -26.9379E-03     53.3315E-03    -26.6638E-03     31.1512E-03
            1579     4.38160E-03     46.5315E-03    -19.5864E+06    -107.593E+06    -11.5784E+06     40.9495E+03    -26.9247E-03     53.7124E-03    -26.7877E-03     25.8888E-03    -26.8527E-03     53.2225E-03    -26.6612E-03     25.8741E-03
            1580     3.50530E-03     46.5092E-03    -21.0192E+06    -109.792E+06    -15.5152E+06     15.5274E+03    -26.8536E-03     53.6249E-03    -26.7713E-03     20.6433E-03    -26.7787E-03     53.1306E-03    -26.6592E-03     20.6324E-03
            1581     2.62896E-03     46.4921E-03    -22.2026E+06    -111.770E+06    -19.0340E+06    -2.84773E+03    -26.8011E-03     53.5588E-03    -26.7577E-03     15.4932E-03    -26.7234E-03     53.0606E-03    -26.6586E-03     15.4853E-03
            1582     1.75266E-03     46.4796E-03    -23.0583E+06    -113.224E+06    -21.6824E+06    -19.1817E+03    -26.7658E-03     53.5146E-03    -26.7488E-03     10.4410E-03    -26.6859E-03     53.0138E-03    -26.6596E-03     10.4357E-03
            1583     876.290E-06     46.4722E-03    -23.5948E+06    -114.105E+06    -23.2422E+06     5.46595E+03    -26.7421E-03     53.4956E-03    -26.7535E-03     5.63396E-03    -26.6610E-03     52.9932E-03    -26.6700E-03     5.63137E-03
            1584     16.6501E-03     46.7151E-03    -5.36124E+06     171.232E+06     82.7365E+06    -462.260E+03    -36.3190E-03     63.1475E-03    -26.8284E-03     262.433E-03    -45.1870E-03     72.3644E-03    -26.6552E-03     267.514E-03
            1585     15.7709E-03     46.4167E-03    -9.00313E+06     128.790E+06     22.1399E+06     460.055E+03    -38.9325E-03     65.5678E-03    -26.6353E-03     260.196E-03    -45.3165E-03     72.3130E-03    -26.6983E-03     261.320E-03
            1586     14.8974E-03     46.2178E-03    -9.98175E+06     63.0081E+06    -11.3013E+06     766.989E+03    -32.9119E-03     59.4803E-03    -26.5684E-03     159.364E-03    -34.3541E-03     61.1435E-03    -26.7018E-03     159.155E-03
            1587     14.0215E-03     46.1125E-03    -8.46744E+06     7.45674E+06    -13.9203E+06     450.418E+03    -28.8748E-03     55.4953E-03    -26.6205E-03     94.2120E-03    -29.2562E-03     55.9135E-03    -26.6886E-03     93.9985E-03
            1588     13.1445E-03     46.0378E-03    -8.61450E+06    -25.2628E+06    -11.9002E+06     612.819E+03    -28.1698E-03     54.8440E-03    -26.6742E-03     80.2131E-03    -28.3431E-03     54.9316E-03    -26.6846E-03     80.0437E-03
            1589     12.2681E-03     45.9601E-03    -8.91746E+06    -39.3604E+06    -4.68754E+06     420.286E+03    -28.1719E-03     54.9045E-03    -26.7326E-03     77.8201E-03    -28.2769E-03     54.8517E-03    -26.6861E-03     77.6810E-03
            1590     11.3919E-03     45.8900E-03    -9.42273E+06    -53.7977E+06    -3.38968E+06     274.264E+03    -27.9992E-03     54.7572E-03    -26.7579E-03     69.5918E-03    -28.0442E-03     54.5875E-03    -26.6832E-03     69.4796E-03
            1591     10.5156E-03     45.8278E-03    -10.2135E+06    -67.6739E+06    -3.94509E+06     257.625E+03    -27.8120E-03     54.5816E-03    -26.7695E-03     62.9689E-03    -27.8125E-03     54.3170E-03    -26.6763E-03     62.8809E-03
            1592     9.63950E-03     45.7702E-03    -11.0859E+06    -75.7871E+06    -1.33327E+06     325.243E+03    -27.6467E-03     54.4349E-03    -26.7882E-03     57.6842E-03    -27.6264E-03     54.1102E-03    -26.6689E-03     57.6164E-03
            1593     8.76317E-03     45.7179E-03    -12.1155E+06    -79.9588E+06    -59.2562E+03     298.404E+03    -27.4818E-03     54.2772E-03    -26.7953E-03     52.3611E-03    -27.4510E-03     53.9196E-03    -26.6621E-03     52.3085E-03
            1594     7.88696E-03     45.6704E-03    -13.3103E+06    -84.8622E+06    -892.402E+03     200.039E+03    -27.3355E-03     54.1294E-03    -26.7938E-03     47.0638E-03    -27.2943E-03     53.7423E-03    -26.6559E-03     47.0223E-03
            1595     7.01062E-03     45.6282E-03    -14.8603E+06    -91.2358E+06    -2.11142E+06     64.6913E+03    -27.2038E-03     53.9975E-03    -26.7936E-03     41.7379E-03    -27.1539E-03     53.5770E-03    -26.6503E-03     41.7046E-03
            1596     6.13436E-03     45.5909E-03    -16.3922E+06    -96.4692E+06    -4.64593E+06     42.6266E+03    -27.0886E-03     53.8742E-03    -26.7856E-03     36.4164E-03    -27.0313E-03     53.4297E-03    -26.6452E-03     36.3906E-03
            1597     5.25803E-03     45.5587E-03    -17.9490E+06    -102.671E+06    -7.94099E+06     22.2732E+03    -26.9907E-03     53.7663E-03    -26.7756E-03     31.1082E-03    -26.9248E-03     53.2952E-03    -26.6404E-03     31.0884E-03
            1598     4.38172E-03     45.5315E-03    -19.5706E+06    -107.543E+06    -11.5368E+06    -1.87373E+03    -26.9040E-03     53.6670E-03    -26.7629E-03     25.8400E-03    -26.8321E-03     53.1773E-03    -26.6363E-03     25.8248E-03
            1599     3.50538E-03     45.5094E-03    -21.0179E+06    -109.789E+06    -15.5564E+06    -40.4861E+03    -26.8363E-03     53.5808E-03    -26.7445E-03     20.6136E-03    -26.7613E-03     53.0866E-03    -26.6326E-03     20.6019E-03
            1600     2.62907E-03     45.4922E-03    -22.2079E+06    -111.783E+06    -19.0924E+06    -11.8685E+03    -26.7846E-03     53.5120E-03    -26.7274E-03     15.4650E-03    -26.7068E-03     53.0139E-03    -26.6285E-03     15.4570E-03
            1601     1.75269E-03     45.4799E-03    -23.1234E+06    -113.219E+06    -21.7070E+06     26.6942E+03    -26.7352E-03     53.4510E-03    -26.7157E-03     10.4000E-03    -26.6556E-03     52.9503E-03    -26.6266E-03     10.3953E-03
            1602     876.352E-06     45.4723E-03    -23.6613E+06    -114.110E+06    -23.2909E+06    -21.6058E+03    -26.7046E-03     53.4275E-03    -26.7229E-03     5.62064E-03    -26.6238E-03     52.9252E-03    -26.6396E-03     5.61772E-03
            1603     16.6521E-03     45.7251E-03    -5.54649E+06     171.047E+06     83.1557E+06     797.773E+03    -36.1092E-03     62.9254E-03    -26.8161E-03     262.437E-03    -44.8980E-03     72.0605E-03    -26.6403E-03     267.543E-03
            1604     15.7723E-03     45.4137E-03    -8.63354E+06     128.706E+06     22.1620E+06     198.480E+03    -38.8301E-03     65.4704E-03    -26.6403E-03     261.036E-03    -45.2113E-03     72.2137E-03    -26.7036E-03     262.167E-03
            1605     14.8963E-03     45.2163E-03    -10.5459E+06     62.5875E+06    -12.3555E+06    -487.739E+03    -33.1536E-03     59.7203E-03    -26.5667E-03     157.532E-03    -34.5988E-03     61.3861E-03    -26.7039E-03     157.294E-03
            1606     14.0206E-03     45.1121E-03    -10.6161E+06     6.84725E+06    -15.0254E+06     218.911E+03    -28.8203E-03     55.4295E-03    -26.6092E-03     93.9718E-03    -29.2076E-03     55.8470E-03    -26.6789E-03     93.7569E-03
            1607     13.1446E-03     45.0382E-03    -9.28724E+06    -24.7699E+06    -11.8947E+06     652.655E+03    -28.1533E-03     54.8189E-03    -26.6656E-03     80.1679E-03    -28.3308E-03     54.9100E-03    -26.6757E-03     79.9989E-03
            1608     12.2683E-03     44.9596E-03    -9.37215E+06    -39.1047E+06    -4.61932E+06     492.350E+03    -28.1768E-03     54.9005E-03    -26.7237E-03     77.7656E-03    -28.2845E-03     54.8495E-03    -26.6765E-03     77.6274E-03
            1609     11.3920E-03     44.8900E-03    -9.89457E+06    -53.6094E+06    -3.38540E+06     406.147E+03    -28.0038E-03     54.7510E-03    -26.7473E-03     69.4503E-03    -28.0514E-03     54.5830E-03    -26.6721E-03     69.3396E-03
            1610     10.5159E-03     44.8274E-03    -10.4097E+06    -67.7535E+06    -3.88319E+06     369.444E+03    -27.8271E-03     54.5839E-03    -26.7568E-03     62.8398E-03    -27.8285E-03     54.3191E-03    -26.6629E-03     62.7532E-03
            1611     9.63958E-03     44.7702E-03    -11.0858E+06    -75.6243E+06    -1.10619E+06     321.197E+03    -27.6495E-03     54.4228E-03    -26.7733E-03     57.5927E-03    -27.6298E-03     54.0985E-03    -26.6531E-03     57.5250E-03
            1612     8.76339E-03     44.7177E-03    -12.0369E+06    -79.8466E+06     205.872E+03     146.749E+03    -27.4851E-03     54.2635E-03    -26.7784E-03     52.2867E-03    -27.4544E-03     53.9060E-03    -26.6441E-03     52.2322E-03
            1613     7.88708E-03     44.6705E-03    -13.2431E+06    -84.7725E+06    -567.251E+03     112.481E+03    -27.3376E-03     54.1123E-03    -26.7747E-03     46.9844E-03    -27.2967E-03     53.7251E-03    -26.6354E-03     46.9419E-03
            1614     7.01083E-03     44.6281E-03    -14.5898E+06    -91.0873E+06    -1.82449E+06     60.5239E+03    -27.1999E-03     53.9712E-03    -26.7713E-03     41.6624E-03    -27.1492E-03     53.5506E-03    -26.6272E-03     41.6291E-03
            1615     6.13450E-03     44.5910E-03    -16.2510E+06    -96.5031E+06    -4.53316E+06    -16.3083E+03    -27.0772E-03     53.8377E-03    -26.7605E-03     36.3530E-03    -27.0192E-03     53.3926E-03    -26.6197E-03     36.3265E-03
            1616     5.25819E-03     44.5587E-03    -17.9420E+06    -102.615E+06    -7.88697E+06    -19.9893E+03    -26.9755E-03     53.7236E-03    -26.7481E-03     31.0428E-03    -26.9097E-03     53.2527E-03    -26.6128E-03     31.0225E-03
            1617     4.38184E-03     44.5317E-03    -19.5076E+06    -107.529E+06    -11.5859E+06    -57.6279E+03    -26.8842E-03     53.6170E-03    -26.7327E-03     25.7724E-03    -26.8120E-03     53.1273E-03    -26.6065E-03     25.7565E-03
            1618     3.50549E-03     44.5095E-03    -21.0052E+06    -109.826E+06    -15.6289E+06         279.053    -26.8118E-03     53.5241E-03    -26.7123E-03     20.5624E-03    -26.7366E-03     53.0298E-03    -26.6008E-03     20.5514E-03
            1619     2.62912E-03     44.4924E-03    -22.2867E+06    -111.808E+06    -19.1058E+06     33.1241E+03    -26.7596E-03     53.4524E-03    -26.6929E-03     15.4124E-03    -26.6821E-03     52.9543E-03    -26.5940E-03     15.4050E-03
            1620     1.75280E-03     44.4800E-03    -23.1513E+06    -113.190E+06    -21.7221E+06     2.96776E+03    -26.7094E-03     53.3852E-03    -26.6758E-03     10.3653E-03    -26.6300E-03     52.8847E-03    -26.5867E-03     10.3604E-03
            1621     876.393E-06     44.4726E-03    -23.6735E+06    -114.114E+06    -23.3744E+06     23.1235E+03    -26.6724E-03     53.3402E-03    -26.6678E-03     5.64459E-03    -26.5915E-03     52.8381E-03    -26.5849E-03     5.64223E-03
            1622     16.6493E-03     44.7271E-03    -4.29490E+06     171.894E+06     84.7705E+06     1.30471E+06    -37.1628E-03     63.9881E-03    -26.8253E-03     260.889E-03    -45.9547E-03     73.1291E-03    -26.6444E-03     265.912E-03
            1623     15.7738E-03     44.4129E-03    -7.21957E+06     129.770E+06     23.9244E+06     1.19229E+06    -39.6368E-03     66.2400E-03    -26.6032E-03     262.724E-03    -46.1082E-03     73.0770E-03    -26.6613E-03     263.806E-03
            1624     14.8980E-03     44.2160E-03    -8.62012E+06     62.0114E+06    -11.3854E+06     190.827E+03    -32.4849E-03     59.0127E-03    -26.5278E-03     156.822E-03    -33.9021E-03     60.6525E-03    -26.6621E-03     156.606E-03
            1625     14.0212E-03     44.1121E-03    -9.16915E+06     6.07788E+06    -13.4577E+06     286.413E+03    -28.5938E-03     55.1913E-03    -26.5975E-03     93.1952E-03    -28.9729E-03     55.5984E-03    -26.6603E-03     92.9831E-03
            1626     13.1448E-03     44.0377E-03    -9.17725E+06    -24.9137E+06    -10.8421E+06     398.292E+03    -28.1512E-03     54.8083E-03    -26.6571E-03     80.0605E-03    -28.3300E-03     54.8976E-03    -26.6619E-03     79.8879E-03
            1627     12.2686E-03     43.9599E-03    -9.27689E+06    -38.9489E+06    -4.04206E+06     499.348E+03    -28.1982E-03     54.9087E-03    -26.7106E-03     77.8147E-03    -28.3067E-03     54.8578E-03    -26.6608E-03     77.6762E-03
            1628     11.3923E-03     43.8895E-03    -9.72079E+06    -53.4417E+06    -2.83956E+06     449.451E+03    -27.9780E-03     54.7109E-03    -26.7329E-03     69.4826E-03    -28.0255E-03     54.5425E-03    -26.6555E-03     69.3727E-03
            1629     10.5160E-03     43.8275E-03    -10.2227E+06    -67.6469E+06    -3.64446E+06     311.914E+03    -27.8297E-03     54.5702E-03    -26.7405E-03     62.7540E-03    -27.8305E-03     54.3051E-03    -26.6458E-03     62.6667E-03
            1630     9.63984E-03     43.7699E-03    -10.8535E+06    -75.4834E+06    -898.773E+03     211.471E+03    -27.6531E-03     54.4078E-03    -26.7548E-03     57.5353E-03    -27.6326E-03     54.0834E-03    -26.6341E-03     57.4663E-03
            1631     8.76353E-03     43.7178E-03    -11.9246E+06    -79.6725E+06     430.751E+03     155.801E+03    -27.4895E-03     54.2470E-03    -26.7576E-03     52.2204E-03    -27.4586E-03     53.8898E-03    -26.6226E-03     52.1662E-03
            1632     7.88730E-03     43.6704E-03    -13.2056E+06    -84.6442E+06    -486.000E+03    -69.2940E+03    -27.3372E-03     54.0877E-03    -26.7505E-03     46.8999E-03    -27.2963E-03     53.7008E-03    -26.6110E-03     46.8552E-03
            1633     7.01099E-03     43.6283E-03    -14.5888E+06    -91.1568E+06    -1.91172E+06    -70.6693E+03    -27.1931E-03     53.9369E-03    -26.7437E-03     41.5760E-03    -27.1422E-03     53.5160E-03    -26.6000E-03     41.5411E-03
            1634     6.13469E-03     43.5910E-03    -16.1564E+06    -96.5130E+06    -4.50865E+06     83.7845E+03    -27.0623E-03     53.7931E-03    -26.7308E-03     36.2674E-03    -27.0038E-03     53.3477E-03    -26.5900E-03     36.2423E-03
            1635     5.25835E-03     43.5590E-03    -17.8801E+06    -102.492E+06    -7.95777E+06    -6.17392E+03    -26.9565E-03     53.6720E-03    -26.7155E-03     30.9688E-03    -26.8904E-03     53.2016E-03    -26.5807E-03     30.9487E-03
            1636     4.38200E-03     43.5318E-03    -19.6009E+06    -107.620E+06    -11.7351E+06    -14.5348E+03    -26.8674E-03     53.5645E-03    -26.6971E-03     25.7021E-03    -26.7952E-03     53.0747E-03    -26.5713E-03     25.6868E-03
            1637     3.50564E-03     43.5098E-03    -21.1263E+06    -109.849E+06    -15.6685E+06     42.4190E+03    -26.7813E-03     53.4555E-03    -26.6742E-03     20.5124E-03    -26.7066E-03     52.9613E-03    -26.5626E-03     20.5019E-03
            1638     2.62926E-03     43.4926E-03    -22.2827E+06    -111.762E+06    -19.1160E+06     10.1256E+03    -26.7162E-03     53.3704E-03    -26.6542E-03     15.3752E-03    -26.6387E-03     52.8725E-03    -26.5555E-03     15.3676E-03
            1639     1.75283E-03     43.4804E-03    -23.1540E+06    -113.205E+06    -21.7740E+06     23.2076E+03    -26.6715E-03     53.3093E-03    -26.6378E-03     10.3381E-03    -26.5919E-03     52.8088E-03    -26.5489E-03     10.3334E-03
            1640     876.428E-06     43.4728E-03    -23.6980E+06    -114.070E+06    -23.3230E+06     20.1599E+03    -26.6154E-03     53.2647E-03    -26.6494E-03     5.63647E-03    -26.5348E-03     52.7627E-03    -26.5662E-03     5.63408E-03
            1641     16.6508E-03     43.7245E-03    -4.79527E+06     170.488E+06     82.7676E+06     189.634E+03    -37.5933E-03     64.3667E-03    -26.7734E-03     258.410E-03    -46.3019E-03     73.4235E-03    -26.5998E-03     263.324E-03
            1642     15.7748E-03     43.4138E-03    -7.06450E+06     129.778E+06     23.1199E+06     1.09394E+06    -39.1791E-03     65.7218E-03    -26.5427E-03     262.181E-03    -45.6332E-03     72.5444E-03    -26.6050E-03     263.286E-03
            1643     14.8976E-03     43.2149E-03    -7.78774E+06     63.0349E+06    -10.6498E+06     1.18752E+06    -31.9383E-03     58.4363E-03    -26.4980E-03     157.755E-03    -33.3498E-03     60.0749E-03    -26.6314E-03     157.567E-03
            1644     14.0218E-03     43.1128E-03    -8.33339E+06     6.39985E+06    -14.1589E+06     805.029E+03    -28.5102E-03     55.0930E-03    -26.5828E-03     93.9545E-03    -28.8862E-03     55.5032E-03    -26.6508E-03     93.7504E-03
            1645     13.1449E-03     43.0375E-03    -8.55216E+06    -24.7127E+06    -11.0365E+06     700.733E+03    -28.2080E-03     54.8556E-03    -26.6476E-03     80.5047E-03    -28.3845E-03     54.9460E-03    -26.6546E-03     80.3354E-03
            1646     12.2687E-03     42.9596E-03    -8.86580E+06    -38.9949E+06    -3.98368E+06     517.274E+03    -28.2505E-03     54.9500E-03    -26.6995E-03     77.9284E-03    -28.3571E-03     54.8983E-03    -26.6501E-03     77.7899E-03
            1647     11.3924E-03     42.8895E-03    -9.23520E+06    -53.2490E+06    -2.53203E+06     483.568E+03    -28.0270E-03     54.7454E-03    -26.7183E-03     69.5325E-03    -28.0728E-03     54.5766E-03    -26.6404E-03     69.4231E-03
            1648     10.5162E-03     42.8271E-03    -9.77518E+06    -67.3924E+06    -3.24362E+06     339.488E+03    -27.8311E-03     54.5543E-03    -26.7232E-03     62.6901E-03    -27.8304E-03     54.2891E-03    -26.6275E-03     62.6034E-03
            1649     9.63998E-03     42.7701E-03    -10.5432E+06    -75.4798E+06    -831.791E+03     208.295E+03    -27.6801E-03     54.4134E-03    -26.7333E-03     57.4619E-03    -27.6581E-03     54.0884E-03    -26.6127E-03     57.3928E-03
            1650     8.76378E-03     42.7176E-03    -11.5239E+06    -79.4426E+06     551.827E+03     109.879E+03    -27.5047E-03     54.2362E-03    -26.7316E-03     52.1156E-03    -27.4723E-03     53.8793E-03    -26.5969E-03     52.0608E-03
            1651     7.88752E-03     42.6705E-03    -12.8416E+06    -84.4725E+06    -255.600E+03    -5.06259E+03    -27.3353E-03     54.0568E-03    -26.7214E-03     46.7760E-03    -27.2931E-03     53.6698E-03    -26.5816E-03     46.7322E-03
            1652     7.01123E-03     42.6282E-03    -14.5079E+06    -91.3099E+06    -1.82832E+06    -41.4441E+03    -27.1841E-03     53.8957E-03    -26.7116E-03     41.4587E-03    -27.1326E-03     53.4738E-03    -26.5673E-03     41.4242E-03
            1653     6.13491E-03     42.5913E-03    -16.1124E+06    -96.5342E+06    -4.74571E+06     -20.357E+03    -27.0448E-03     53.7387E-03    -26.6939E-03     36.1571E-03    -26.9858E-03     53.2935E-03    -26.5543E-03     36.1307E-03
            1654     5.25854E-03     42.5591E-03    -17.7102E+06    -102.541E+06    -8.00541E+06     158.047E+03    -26.9302E-03     53.6071E-03    -26.6769E-03     30.8771E-03    -26.8631E-03     53.1364E-03    -26.5426E-03     30.8592E-03
            1655     4.38218E-03     42.5321E-03    -19.4983E+06    -107.559E+06    -11.6052E+06     186.467E+03    -26.8366E-03     53.4939E-03    -26.6573E-03     25.6193E-03    -26.7642E-03     53.0041E-03    -26.5311E-03     25.6067E-03
            1656     3.50578E-03     42.5101E-03    -21.0653E+06    -109.761E+06    -15.6843E+06     16.2464E+03    -26.7462E-03     53.3779E-03    -26.6317E-03     20.4432E-03    -26.6714E-03     52.8841E-03    -26.5204E-03     20.4324E-03
            1657     2.62934E-03     42.4930E-03    -22.2818E+06    -111.788E+06    -19.1968E+06     11.9836E+03    -26.6750E-03     53.2853E-03    -26.6103E-03     15.3208E-03    -26.5974E-03     52.7874E-03    -26.5119E-03     15.3133E-03
            1658     1.75291E-03     42.4807E-03    -23.1604E+06    -113.156E+06    -21.7199E+06     27.9791E+03    -26.6281E-03     53.2217E-03    -26.5936E-03     10.2788E-03    -26.5488E-03     52.7214E-03    -26.5045E-03     10.2743E-03
            1659     876.461E-06     42.4733E-03    -23.6593E+06    -114.055E+06    -23.3507E+06     7.69915E+03    -26.5734E-03     53.1749E-03    -26.6015E-03     5.55910E-03    -26.4926E-03     52.6730E-03    -26.5185E-03     5.55660E-03
            1660     16.6543E-03     42.7265E-03    -5.55143E+06     169.951E+06     83.2575E+06    -389.932E+03    -37.5975E-03     64.3494E-03    -26.7519E-03     259.130E-03    -46.3129E-03     73.4070E-03    -26.5740E-03     264.021E-03
            1661     15.7758E-03     42.4144E-03    -8.42864E+06     128.491E+06     22.7898E+06     484.933E+03    -38.8172E-03     65.3547E-03    -26.5375E-03     264.185E-03    -45.3288E-03     72.2265E-03    -26.5977E-03     265.321E-03
            1662     14.8982E-03     42.2167E-03    -8.69056E+06     62.8152E+06    -10.9957E+06     1.25324E+06    -31.9855E-03     58.4941E-03    -26.5086E-03     158.981E-03    -33.4094E-03     60.1420E-03    -26.6420E-03     158.793E-03
            1663     14.0202E-03     42.1117E-03    -8.24840E+06     7.33183E+06    -12.8519E+06     1.25889E+06    -28.6411E-03     55.2379E-03    -26.5968E-03     93.9418E-03    -29.0200E-03     55.6508E-03    -26.6597E-03     93.7416E-03
            1664     13.1451E-03     42.0376E-03    -8.68688E+06    -24.3560E+06    -10.1862E+06     776.139E+03    -28.3250E-03     54.9777E-03    -26.6526E-03     80.3922E-03    -28.5040E-03     55.0688E-03    -26.6557E-03     80.2229E-03
            1665     12.2685E-03     41.9594E-03    -8.61864E+06    -38.7479E+06    -3.60971E+06     575.874E+03    -28.3762E-03     55.0692E-03    -26.6930E-03     77.9703E-03    -28.4827E-03     55.0180E-03    -26.6424E-03     77.8319E-03
            1666     11.3927E-03     41.8891E-03    -9.02892E+06    -53.1332E+06    -2.59927E+06     399.154E+03    -28.1092E-03     54.8104E-03    -26.7012E-03     69.3187E-03    -28.1538E-03     54.6418E-03    -26.6240E-03     69.2080E-03
            1667     10.5164E-03     41.8273E-03    -9.43551E+06    -67.2707E+06    -3.12644E+06     354.688E+03    -27.8639E-03     54.5641E-03    -26.7003E-03     62.5650E-03    -27.8617E-03     54.2987E-03    -26.6047E-03     62.4785E-03
            1668     9.64025E-03     41.7697E-03    -10.1298E+06    -75.2860E+06    -694.155E+03     292.375E+03    -27.7029E-03     54.4083E-03    -26.7054E-03     57.3013E-03    -27.6792E-03     54.0834E-03    -26.5850E-03     57.2333E-03
            1669     8.76406E-03     41.7177E-03    -11.2602E+06    -79.3244E+06     406.398E+03     135.629E+03    -27.5106E-03     54.2087E-03    -26.6981E-03     51.9610E-03    -27.4767E-03     53.8521E-03    -26.5647E-03     51.9066E-03
            1670     7.88779E-03     41.6704E-03    -12.7333E+06    -84.5118E+06    -297.412E+03     231.844E+03    -27.3295E-03     54.0146E-03    -26.6851E-03     46.6372E-03    -27.2865E-03     53.6273E-03    -26.5456E-03     46.5965E-03
            1671     7.01152E-03     41.6285E-03    -14.4208E+06    -91.1292E+06    -1.78077E+06     184.142E+03    -27.1699E-03     53.8417E-03    -26.6718E-03     41.3229E-03    -27.1182E-03     53.4205E-03    -26.5277E-03     41.2914E-03
            1672     6.13515E-03     41.5913E-03    -16.3424E+06    -96.6224E+06    -4.92756E+06     101.704E+03    -27.0244E-03     53.6745E-03    -26.6502E-03     36.0257E-03    -26.9660E-03     53.2295E-03    -26.5110E-03     36.0010E-03
            1673     5.25881E-03     41.5595E-03    -18.1786E+06    -102.685E+06    -8.32772E+06     192.912E+03    -26.8975E-03     53.5271E-03    -26.6296E-03     30.7557E-03    -26.8320E-03     53.0568E-03    -26.4960E-03     30.7383E-03
            1674     4.38237E-03     41.5324E-03    -19.6077E+06    -107.292E+06    -11.7655E+06     137.823E+03    -26.7909E-03     53.3987E-03    -26.6078E-03     25.5153E-03    -26.7192E-03     52.9106E-03    -26.4826E-03     25.5022E-03
            1675     3.50595E-03     41.5105E-03    -20.9585E+06    -109.748E+06    -15.6150E+06     90.1085E+03    -26.7052E-03     53.2868E-03    -26.5816E-03     20.3385E-03    -26.6299E-03     52.7928E-03    -26.4702E-03     20.3288E-03
            1676     2.62950E-03     41.4934E-03    -22.2328E+06    -111.727E+06    -19.1433E+06     68.8219E+03    -26.6322E-03     53.1893E-03    -26.5570E-03     15.2444E-03    -26.5545E-03     52.6915E-03    -26.4585E-03     15.2376E-03
            1677     1.75303E-03     41.4812E-03    -23.1365E+06    -113.140E+06    -21.7747E+06     27.6388E+03    -26.5776E-03     53.1140E-03    -26.5365E-03     10.2311E-03    -26.4980E-03     52.6138E-03    -26.4477E-03     10.2266E-03
            1678     876.520E-06     41.4737E-03    -23.6821E+06    -114.033E+06    -23.3452E+06     54.9064E+03    -26.5437E-03     53.0579E-03    -26.5142E-03     5.51875E-03    -26.4631E-03     52.5561E-03    -26.4312E-03     5.51689E-03
            1679     16.6489E-03     41.7240E-03    -5.72349E+06     169.350E+06     83.4738E+06    -279.270E+03    -37.0607E-03     63.9004E-03    -26.8397E-03     260.346E-03    -45.8349E-03     73.0134E-03    -26.6596E-03     265.306E-03
            1680     15.7727E-03     41.4150E-03    -9.22413E+06     127.594E+06     23.6826E+06     23.4787E+03    -39.9106E-03     66.5294E-03    -26.6188E-03     263.768E-03    -46.4313E-03     73.4016E-03    -26.6720E-03     264.813E-03
            1681     14.8965E-03     41.2156E-03    -9.37237E+06     61.8451E+06    -13.6432E+06     300.116E+03    -32.6366E-03     59.1604E-03    -26.5237E-03     158.929E-03    -34.0622E-03     60.8118E-03    -26.6680E-03     158.714E-03
            1682     14.0223E-03     41.1118E-03    -7.63193E+06     7.05789E+06    -15.6674E+06     821.369E+03    -28.8746E-03     55.4573E-03    -26.5826E-03     93.9586E-03    -29.2453E-03     55.8713E-03    -26.6601E-03     93.7510E-03
            1683     13.1446E-03     41.0375E-03    -6.72352E+06    -23.4254E+06    -9.61199E+06     1.32080E+06    -28.4684E-03     55.1079E-03    -26.6395E-03     80.1305E-03    -28.6396E-03     55.2000E-03    -26.6439E-03     79.9671E-03
            1684     12.2690E-03     40.9586E-03    -7.65874E+06    -38.4491E+06    -3.37633E+06     955.238E+03    -28.4550E-03     55.1264E-03    -26.6714E-03     77.6263E-03    -28.5572E-03     55.0747E-03    -26.6215E-03     77.4924E-03
            1685     11.3928E-03     40.8892E-03    -8.51349E+06    -52.7044E+06    -2.32322E+06     544.527E+03    -28.1277E-03     54.8019E-03    -26.6742E-03     68.9792E-03    -28.1704E-03     54.6341E-03    -26.5971E-03     68.8704E-03
            1686     10.5168E-03     40.8269E-03    -9.24278E+06    -67.3439E+06    -3.30789E+06     382.548E+03    -27.8980E-03     54.5651E-03    -26.6671E-03     62.3781E-03    -27.8944E-03     54.2992E-03    -26.5726E-03     62.2920E-03
            1687     9.64064E-03     40.7699E-03    -9.97147E+06    -75.0127E+06    -652.429E+03     351.277E+03    -27.7019E-03     54.3700E-03    -26.6681E-03     57.1347E-03    -27.6778E-03     54.0460E-03    -26.5481E-03     57.0676E-03
            1688     8.76439E-03     40.7176E-03    -11.0671E+06    -79.3670E+06     421.569E+03     361.791E+03    -27.5021E-03     54.1596E-03    -26.6574E-03     51.7809E-03    -27.4672E-03     53.8023E-03    -26.5242E-03     51.7296E-03
            1689     7.88816E-03     40.6707E-03    -12.4142E+06    -84.5294E+06    -230.630E+03     378.506E+03    -27.3198E-03     53.9604E-03    -26.6406E-03     46.4635E-03    -27.2753E-03     53.5723E-03    -26.5011E-03     46.4248E-03
            1690     7.01182E-03     40.6285E-03    -14.0572E+06    -91.0648E+06    -1.38757E+06     500.292E+03    -27.1515E-03     53.7761E-03    -26.6246E-03     41.1472E-03    -27.0986E-03     53.3541E-03    -26.4791E-03     41.1200E-03
            1691     6.13551E-03     40.5917E-03    -16.0076E+06    -96.5201E+06    -4.20070E+06     551.889E+03    -26.9965E-03     53.5972E-03    -26.6007E-03     35.8646E-03    -26.9376E-03     53.1510E-03    -26.4585E-03     35.8458E-03
            1692     5.25908E-03     40.5597E-03    -17.8676E+06    -102.357E+06    -8.09143E+06     197.658E+03    -26.8614E-03     53.4350E-03    -26.5736E-03     30.6146E-03    -26.7952E-03     52.9655E-03    -26.4397E-03     30.5974E-03
            1693     4.38266E-03     40.5329E-03    -19.5282E+06    -107.313E+06    -11.8155E+06     21.4841E+03    -26.7417E-03     53.2899E-03    -26.5483E-03     25.4015E-03    -26.6694E-03     52.8017E-03    -26.4234E-03     25.3870E-03
            1694     3.50616E-03     40.5109E-03    -20.9700E+06    -109.735E+06    -15.6280E+06     126.104E+03    -26.6473E-03     53.1681E-03    -26.5208E-03     20.2531E-03    -26.5720E-03     52.6741E-03    -26.4094E-03     20.2438E-03
            1695     2.62967E-03     40.4940E-03    -22.1613E+06    -111.656E+06    -19.1104E+06     141.423E+03    -26.5758E-03     53.0705E-03    -26.4947E-03     15.1693E-03    -26.4979E-03     52.5730E-03    -26.3962E-03     15.1634E-03
            1696     1.75311E-03     40.4818E-03    -23.0985E+06    -113.079E+06    -21.7590E+06     118.201E+03    -26.5178E-03     52.9896E-03    -26.4718E-03     10.1762E-03    -26.4381E-03     52.4896E-03    -26.3832E-03     10.1729E-03
            1697     876.587E-06     40.4744E-03    -23.6523E+06    -113.932E+06    -23.3170E+06     54.4361E+03    -26.4799E-03     52.9260E-03    -26.4461E-03     5.46405E-03    -26.3993E-03     52.4247E-03    -26.3632E-03     5.46223E-03
            1698     16.6472E-03     40.7211E-03    -5.29198E+06     169.327E+06     83.3727E+06     344.884E+03    -36.9367E-03     63.8289E-03    -26.8922E-03     260.776E-03    -45.7403E-03     72.9731E-03    -26.7131E-03     265.784E-03
            1699     15.7735E-03     40.4131E-03    -8.96376E+06     127.490E+06     24.0660E+06    -96.2238E+03    -40.6135E-03     67.2586E-03    -26.6450E-03     260.008E-03    -47.0326E-03     74.0286E-03    -26.6966E-03     260.973E-03
            1700     14.8982E-03     40.2159E-03    -9.80692E+06     62.0301E+06    -12.9331E+06    -383.388E+03    -32.7332E-03     59.2464E-03    -26.5132E-03     157.257E-03    -34.1497E-03     60.8858E-03    -26.6536E-03     157.032E-03
            1701     14.0198E-03     40.1109E-03    -9.73253E+06     5.84465E+06    -16.1607E+06     143.135E+03    -28.8523E-03     55.4138E-03    -26.5616E-03     93.5297E-03    -29.2299E-03     55.8245E-03    -26.6367E-03     93.3138E-03
            1702     13.1459E-03     40.0369E-03    -9.15671E+06    -23.7652E+06    -10.4548E+06     815.177E+03    -28.5619E-03     55.1721E-03    -26.6102E-03     79.8347E-03    -28.7436E-03     55.2672E-03    -26.6147E-03     79.6638E-03
            1703     12.2694E-03     39.9586E-03    -8.45538E+06    -37.8385E+06    -3.73883E+06     1.00789E+06    -28.4445E-03     55.0790E-03    -26.6345E-03     77.4389E-03    -28.5508E-03     55.0318E-03    -26.5861E-03     77.3058E-03
            1704     11.3934E-03     39.8887E-03    -8.63489E+06    -52.4197E+06    -2.33457E+06     799.722E+03    -28.1010E-03     54.7375E-03    -26.6366E-03     68.8047E-03    -28.1443E-03     54.5708E-03    -26.5597E-03     68.6997E-03
            1705     10.5172E-03     39.8270E-03    -9.32436E+06    -67.0400E+06    -3.45828E+06     573.640E+03    -27.9017E-03     54.5276E-03    -26.6260E-03     62.2338E-03    -27.8985E-03     54.2634E-03    -26.5325E-03     62.1502E-03
            1706     9.64103E-03     39.7696E-03    -10.1711E+06    -75.0772E+06    -887.634E+03     453.242E+03    -27.7085E-03     54.3311E-03    -26.6226E-03     56.9605E-03    -27.6847E-03     54.0072E-03    -26.5034E-03     56.8949E-03
            1707     8.76487E-03     39.7178E-03    -11.2989E+06    -79.2280E+06     324.306E+03     488.851E+03    -27.4921E-03     54.0996E-03    -26.6075E-03     51.5940E-03    -27.4582E-03     53.7434E-03    -26.4746E-03     51.5445E-03
            1708     7.88856E-03     39.6707E-03    -12.7281E+06    -84.6107E+06    -352.760E+03     519.941E+03    -27.2999E-03     53.8864E-03    -26.5865E-03     46.2838E-03    -27.2565E-03     53.4985E-03    -26.4471E-03     46.2472E-03
            1709     7.01229E-03     39.6289E-03    -14.3323E+06    -91.1225E+06    -1.41756E+06     654.238E+03    -27.1208E-03     53.6875E-03    -26.5667E-03     40.9718E-03    -27.0691E-03     53.2655E-03    -26.4209E-03     40.9467E-03
            1710     6.13585E-03     39.5920E-03    -15.7825E+06    -96.1458E+06    -3.91143E+06     509.725E+03    -26.9564E-03     53.4956E-03    -26.5392E-03     35.7122E-03    -26.8974E-03     53.0505E-03    -26.3965E-03     35.6930E-03
            1711     5.25945E-03     39.5603E-03    -17.3017E+06    -102.012E+06    -7.41821E+06     346.178E+03    -26.8144E-03     53.3246E-03    -26.5102E-03     30.4635E-03    -26.7468E-03     52.8550E-03    -26.3743E-03     30.4483E-03
            1712     4.38294E-03     39.5334E-03    -19.1367E+06    -107.304E+06    -11.5731E+06      289.13E+03    -26.6851E-03     53.1658E-03    -26.4806E-03     25.2749E-03    -26.6112E-03     52.6766E-03    -26.3552E-03     25.2639E-03
            1713     3.50642E-03     39.5116E-03    -20.8681E+06    -109.682E+06    -15.6815E+06     228.805E+03    -26.5798E-03     53.0303E-03    -26.4505E-03     20.1634E-03    -26.5040E-03     52.5365E-03    -26.3396E-03     20.1556E-03
            1714     2.62983E-03     39.4946E-03    -22.1666E+06    -111.579E+06    -19.0884E+06     219.876E+03    -26.5051E-03     52.9296E-03    -26.4245E-03     15.0879E-03    -26.4273E-03     52.4324E-03    -26.3261E-03     15.0832E-03
            1715     1.75328E-03     39.4826E-03    -23.0436E+06    -112.912E+06    -21.6185E+06     151.418E+03    -26.4448E-03     52.8475E-03    -26.4027E-03     10.1224E-03    -26.3653E-03     52.3481E-03    -26.3137E-03     10.1195E-03
            1716     876.630E-06     39.4751E-03    -23.5885E+06    -113.792E+06    -23.2472E+06     79.2878E+03    -26.4043E-03     52.7885E-03    -26.3843E-03     5.41726E-03    -26.3236E-03     52.2877E-03    -26.3013E-03     5.41580E-03
            1717     16.6496E-03     39.7191E-03    -5.37557E+06     168.982E+06     83.4684E+06     277.604E+03    -37.4787E-03     64.2771E-03    -26.7984E-03     260.057E-03    -46.2241E-03     73.3613E-03    -26.6183E-03     265.000E-03
            1718     15.7742E-03     39.4108E-03    -7.79540E+06     127.677E+06     24.5274E+06     467.681E+03    -39.2725E-03     65.8340E-03    -26.5615E-03     258.588E-03    -45.6081E-03     72.5240E-03    -26.6126E-03     259.653E-03
            1719     14.8980E-03     39.2162E-03    -9.29908E+06     63.2282E+06    -13.0250E+06     320.790E+03    -32.4718E-03     58.9335E-03    -26.4617E-03     156.854E-03    -33.8823E-03     60.5732E-03    -26.6051E-03     156.644E-03
            1720     14.0237E-03     39.1109E-03    -10.0583E+06     5.25504E+06    -17.4770E+06    -57.1061E+03    -28.7417E-03     55.2572E-03    -26.5155E-03     93.8636E-03    -29.1185E-03     55.6676E-03    -26.5959E-03     93.6462E-03
            1721     13.1454E-03     39.0365E-03    -9.33115E+06    -24.8747E+06    -11.7625E+06     221.593E+03    -28.4471E-03     55.0174E-03    -26.5703E-03     80.0527E-03    -28.6261E-03     55.1090E-03    -26.5795E-03     79.8754E-03
            1722     12.2700E-03     38.9581E-03    -9.12005E+06    -37.7843E+06    -4.35881E+06     579.033E+03    -28.4860E-03     55.0831E-03    -26.5971E-03     77.2685E-03    -28.5946E-03     55.0378E-03    -26.5509E-03     77.1297E-03
            1723     11.3937E-03     38.8888E-03    -9.44142E+06    -52.2689E+06    -2.67419E+06     756.332E+03    -28.1074E-03     54.7028E-03    -26.5955E-03     68.7397E-03    -28.1541E-03     54.5383E-03    -26.5194E-03     68.6344E-03
            1724     10.5177E-03     38.8267E-03    -9.82944E+06    -66.7411E+06    -3.59997E+06     665.687E+03    -27.9215E-03     54.5017E-03    -26.5802E-03     62.0960E-03    -27.9209E-03     54.2397E-03    -26.4872E-03     62.0138E-03
            1725     9.64159E-03     38.7698E-03    -10.5956E+06    -75.0027E+06    -1.13279E+06     585.480E+03    -27.7138E-03     54.2844E-03    -26.5706E-03     56.7657E-03    -27.6917E-03     53.9617E-03    -26.4522E-03     56.7020E-03
            1726     8.76533E-03     38.7178E-03    -11.6871E+06    -79.1884E+06     209.554E+03     557.705E+03    -27.4819E-03     54.0325E-03    -26.5506E-03     51.4233E-03    -27.4497E-03     53.6771E-03    -26.4178E-03     51.3749E-03
            1727     7.88910E-03     38.6711E-03    -13.0174E+06    -84.6473E+06    -517.345E+03     647.971E+03    -27.2741E-03     53.7985E-03    -26.5244E-03     46.1098E-03    -27.2317E-03     53.4109E-03    -26.3853E-03     46.0750E-03
            1728     7.01269E-03     38.6292E-03    -14.4328E+06    -90.9284E+06    -1.75372E+06     544.294E+03    -27.0842E-03     53.5829E-03    -26.4987E-03     40.8066E-03    -27.0327E-03     53.1624E-03    -26.3547E-03     40.7803E-03
            1729     6.13633E-03     38.5926E-03    -16.0581E+06    -95.8108E+06    -4.46274E+06     370.460E+03    -26.9091E-03     53.3753E-03    -26.4662E-03     35.5508E-03    -26.8510E-03     52.9330E-03    -26.3263E-03     35.5300E-03
            1730     5.25981E-03     38.5608E-03    -17.7896E+06    -102.045E+06    -7.80869E+06     378.444E+03    -26.7516E-03     53.1873E-03    -26.4357E-03     30.3131E-03    -26.6857E-03     52.7186E-03    -26.3010E-03     30.2986E-03
            1731     4.38330E-03     38.5342E-03    -19.3495E+06    -107.159E+06    -11.4940E+06     480.614E+03    -26.6208E-03     53.0259E-03    -26.4051E-03     25.1430E-03    -26.5483E-03     52.5376E-03    -26.2792E-03     25.1346E-03
            1732     3.50668E-03     38.5123E-03    -20.8212E+06    -109.482E+06    -15.5214E+06     419.466E+03    -26.5096E-03     52.8818E-03    -26.3722E-03     20.0591E-03    -26.4341E-03     52.3887E-03    -26.2609E-03     20.0539E-03
            1733     2.63007E-03     38.4955E-03    -22.0669E+06    -111.383E+06    -18.9525E+06     243.206E+03    -26.4216E-03     52.7670E-03    -26.3454E-03     15.0053E-03    -26.3438E-03     52.2704E-03    -26.2466E-03     15.0009E-03
            1734     1.75335E-03     38.4834E-03    -22.9457E+06    -112.750E+06    -21.5696E+06     149.737E+03    -26.3584E-03     52.6846E-03    -26.3262E-03     10.0543E-03    -26.2788E-03     52.1858E-03    -26.2373E-03     10.0515E-03
            1735     876.703E-06     38.4761E-03    -23.4511E+06    -113.589E+06    -23.0943E+06     92.9110E+03    -26.3304E-03     52.6409E-03    -26.3105E-03     5.38372E-03    -26.2496E-03     52.1406E-03    -26.2272E-03     5.38246E-03
            1736     16.6571E-03     38.7229E-03    -4.81404E+06     168.867E+06     84.0390E+06     246.176E+03    -37.6704E-03     64.3985E-03    -26.7281E-03     260.343E-03    -46.3945E-03     73.4614E-03    -26.5457E-03     265.232E-03
            1737     15.7762E-03     38.4135E-03    -8.24166E+06     126.906E+06     24.0295E+06     1.32496E+06    -38.8061E-03     65.3261E-03    -26.5199E-03     263.655E-03    -45.3243E-03     72.1958E-03    -26.5719E-03     264.846E-03
            1738     14.8990E-03     38.2144E-03    -9.95435E+06     64.4412E+06    -10.4765E+06     1.25229E+06    -32.7379E-03     59.1935E-03    -26.4555E-03     157.119E-03    -34.1587E-03     60.8381E-03    -26.5869E-03     156.910E-03
            1739     14.0211E-03     38.1119E-03    -9.97832E+06     6.43021E+06    -14.3137E+06     80.3683E+03    -28.8137E-03     55.3146E-03    -26.5008E-03     94.1933E-03    -29.1972E-03     55.7269E-03    -26.5673E-03     93.9766E-03
            1740     13.1466E-03     38.0355E-03    -10.0068E+06    -25.7623E+06    -12.1858E+06    -301.313E+03    -28.5142E-03     55.0498E-03    -26.5355E-03     80.1854E-03    -28.6950E-03     55.1389E-03    -26.5446E-03     80.0007E-03
            1741     12.2702E-03     37.9581E-03    -9.51549E+06    -38.0053E+06    -4.42026E+06     225.282E+03    -28.4402E-03     54.9993E-03    -26.5592E-03     76.9218E-03    -28.5491E-03     54.9523E-03    -26.5124E-03     76.7794E-03
            1742     11.3943E-03     37.8885E-03    -9.67501E+06    -52.4808E+06    -2.85444E+06     516.869E+03    -28.1597E-03     54.7123E-03    -26.5526E-03     68.6267E-03    -28.2069E-03     54.5471E-03    -26.4767E-03     68.5181E-03
            1743     10.5182E-03     37.8267E-03    -10.1602E+06    -66.5075E+06    -3.56371E+06     694.269E+03    -27.9436E-03     54.4744E-03    -26.5308E-03     61.9367E-03    -27.9448E-03     54.2137E-03    -26.4374E-03     61.8551E-03
            1744     9.64207E-03     37.7698E-03    -10.8119E+06    -74.8454E+06    -1.31443E+06     571.619E+03    -27.7152E-03     54.2291E-03    -26.5139E-03     56.5943E-03    -27.6939E-03     53.9075E-03    -26.3962E-03     56.5307E-03
            1745     8.76592E-03     37.7181E-03    -11.7921E+06    -79.2302E+06    -1.19591E+03     585.014E+03    -27.4778E-03     53.9656E-03    -26.4879E-03     51.2393E-03    -27.4455E-03     53.6103E-03    -26.3559E-03     51.1916E-03
            1746     7.88959E-03     37.6713E-03    -12.9581E+06    -84.5120E+06    -802.551E+03     550.454E+03    -27.2537E-03     53.7084E-03    -26.4547E-03     45.9169E-03    -27.2106E-03     53.3217E-03    -26.3174E-03     45.8812E-03
            1747     7.01327E-03     37.6297E-03    -14.3048E+06    -90.6982E+06    -1.98807E+06     463.873E+03    -27.0503E-03     53.4739E-03    -26.4235E-03     40.6199E-03    -26.9981E-03     53.0546E-03    -26.2812E-03     40.5928E-03
            1748     6.13677E-03     37.5931E-03    -15.8850E+06    -95.7042E+06    -4.48945E+06     473.204E+03    -26.8573E-03     53.2447E-03    -26.3874E-03     35.3533E-03    -26.7984E-03     52.8026E-03    -26.2480E-03     35.3341E-03
            1749     5.26026E-03     37.5616E-03    -17.6140E+06    -102.010E+06    -7.74970E+06     475.366E+03    -26.6884E-03     53.0420E-03    -26.3536E-03     30.1316E-03    -26.6218E-03     52.5732E-03    -26.2189E-03     30.1185E-03
            1750     4.38364E-03     37.5349E-03    -19.3558E+06    -107.091E+06    -11.3753E+06     466.001E+03    -26.5511E-03     52.8710E-03    -26.3199E-03     24.9920E-03    -26.4788E-03     52.3828E-03    -26.1934E-03     24.9836E-03
            1751     3.50702E-03     37.5133E-03    -20.7844E+06    -109.158E+06    -15.3264E+06     403.204E+03    -26.4311E-03     52.7146E-03    -26.2835E-03     19.9239E-03    -26.3561E-03     52.2227E-03    -26.1717E-03     19.9186E-03
            1752     2.63027E-03     37.4964E-03    -21.9208E+06    -111.149E+06    -18.8340E+06     270.930E+03    -26.3357E-03     52.5894E-03    -26.2536E-03     14.9021E-03    -26.2577E-03     52.0936E-03    -26.1549E-03     14.8982E-03
            1753     1.75358E-03     37.4845E-03    -22.8171E+06    -112.550E+06    -21.4579E+06     175.417E+03    -26.2717E-03     52.5030E-03    -26.2313E-03     9.96602E-03    -26.1918E-03     52.0048E-03    -26.1423E-03     9.96358E-03
            1754     876.756E-06     37.4771E-03    -23.3809E+06    -113.427E+06    -23.0600E+06     81.5489E+03    -26.2369E-03     52.4463E-03    -26.2094E-03     5.33116E-03    -26.1560E-03     51.9467E-03    -26.1263E-03     5.32979E-03
            1755     16.6493E-03     37.7315E-03    -6.27658E+06     167.721E+06     83.5380E+06    -108.922E+03    -37.8840E-03     64.6919E-03    -26.8079E-03     259.525E-03    -46.6536E-03     73.7927E-03    -26.6243E-03     264.352E-03
            1756     15.7711E-03     37.4062E-03    -9.57923E+06     126.053E+06     24.5115E+06    -27.2900E+03    -40.2582E-03     66.8209E-03    -26.5627E-03     263.970E-03    -46.9057E-03     73.8110E-03    -26.6091E-03     265.003E-03
            1757     14.8989E-03     37.2162E-03    -9.03750E+06     64.3611E+06    -9.99396E+06     804.132E+03    -32.6411E-03     59.0975E-03    -26.4564E-03     156.358E-03    -34.0330E-03     60.7147E-03    -26.5865E-03     156.147E-03
            1758     14.0236E-03     37.1106E-03    -8.17850E+06     7.45472E+06    -14.1675E+06     1.24086E+06    -29.3035E-03     55.7859E-03    -26.4824E-03     94.4561E-03    -29.6834E-03     56.2044E-03    -26.5522E-03     94.2486E-03
            1759     13.1469E-03     37.0356E-03    -8.30738E+06    -25.2132E+06    -11.7494E+06     290.086E+03    -28.6525E-03     55.1511E-03    -26.4985E-03     79.8841E-03    -28.8255E-03     55.2391E-03    -26.5087E-03     79.7062E-03
            1760     12.2709E-03     36.9579E-03    -9.15608E+06    -38.6451E+06    -4.71860E+06     40.4046E+03    -28.4098E-03     54.9259E-03    -26.5160E-03     76.9789E-03    -28.5146E-03     54.8746E-03    -26.4703E-03     76.8351E-03
            1761     11.3948E-03     36.8883E-03    -9.52586E+06    -52.6380E+06    -3.08596E+06     480.524E+03    -28.2041E-03     54.7098E-03    -26.5057E-03     68.5277E-03    -28.2499E-03     54.5438E-03    -26.4310E-03     68.4187E-03
            1762     10.5188E-03     36.8267E-03    -9.96455E+06    -66.5326E+06    -3.67068E+06     580.328E+03    -27.9714E-03     54.4485E-03    -26.4771E-03     61.7574E-03    -27.9711E-03     54.1873E-03    -26.3846E-03     61.6745E-03
            1763     9.64268E-03     36.7699E-03    -10.6028E+06    -74.5596E+06    -1.24665E+06     590.693E+03    -27.7335E-03     54.1868E-03    -26.4533E-03     56.3880E-03    -27.7114E-03     53.8660E-03    -26.3360E-03     56.3249E-03
            1764     8.76647E-03     36.7183E-03    -11.5903E+06    -79.3362E+06    -149.327E+03     527.210E+03    -27.4831E-03     53.9021E-03    -26.4191E-03     51.0008E-03    -27.4493E-03     53.5460E-03    -26.2880E-03     50.9525E-03
            1765     7.89022E-03     36.6718E-03    -12.9037E+06    -84.2933E+06    -842.029E+03     596.729E+03    -27.2403E-03     53.6189E-03    -26.3785E-03     45.6749E-03    -27.1972E-03     53.2331E-03    -26.2418E-03     45.6400E-03
            1766     7.01379E-03     36.6303E-03    -14.5037E+06    -90.5351E+06    -2.16325E+06     483.782E+03    -27.0143E-03     53.3543E-03    -26.3400E-03     40.3801E-03    -26.9629E-03     52.9363E-03    -26.1985E-03     40.3535E-03
            1767     6.13734E-03     36.5938E-03    -16.0490E+06    -95.6585E+06    -4.66624E+06     397.129E+03    -26.8047E-03     53.1024E-03    -26.2977E-03     35.1165E-03    -26.7463E-03     52.6610E-03    -26.1591E-03     35.0965E-03
            1768     5.26074E-03     36.5624E-03    -17.5402E+06    -102.007E+06    -7.77779E+06     511.183E+03    -26.6269E-03     52.8853E-03    -26.2584E-03     29.9112E-03    -26.5598E-03     52.4163E-03    -26.1239E-03     29.8987E-03
            1769     4.38410E-03     36.5360E-03    -19.0914E+06    -106.832E+06    -11.3089E+06     512.108E+03    -26.4738E-03     52.6928E-03    -26.2190E-03     24.7959E-03    -26.4007E-03     52.2055E-03    -26.0930E-03     24.7882E-03
            1770     3.50734E-03     36.5143E-03     -20.591E+06    -108.947E+06    -15.2601E+06     364.669E+03    -26.3389E-03     52.5175E-03    -26.1786E-03     19.7495E-03    -26.2634E-03     52.0263E-03    -26.0671E-03     19.7437E-03
            1771     2.63060E-03     36.4977E-03    -21.8118E+06    -110.927E+06    -18.7605E+06     318.498E+03    -26.2356E-03     52.3813E-03    -26.1457E-03     14.7816E-03    -26.1575E-03     51.8863E-03    -26.0470E-03     14.7784E-03
            1772     1.75371E-03     36.4856E-03    -22.7056E+06    -112.316E+06    -21.3147E+06     224.117E+03    -26.1673E-03     52.2877E-03    -26.1204E-03     9.89933E-03    -26.0874E-03     51.7904E-03    -26.0312E-03     9.89757E-03
            1773     876.935E-06     36.4785E-03    -23.2720E+06    -113.199E+06    -22.9308E+06     123.470E+03    -26.1103E-03     52.2208E-03    -26.1105E-03     5.30088E-03    -26.0294E-03     51.7220E-03    -26.0273E-03     5.30007E-03
            1774     16.6467E-03     36.7181E-03    -4.53384E+06     168.244E+06     84.5887E+06    -293.331E+03    -38.2815E-03     65.1275E-03    -26.8460E-03     258.418E-03    -47.0763E-03     74.2585E-03    -26.6605E-03     263.241E-03
            1775     15.7803E-03     36.4118E-03    -8.26723E+06     125.143E+06     23.5060E+06    -249.787E+03    -40.4396E-03     66.9875E-03    -26.5479E-03     259.412E-03    -46.9025E-03     73.7973E-03    -26.5999E-03     260.364E-03
            1776     14.8972E-03     36.2145E-03    -8.93419E+06     63.2285E+06    -12.1215E+06     1.33588E+06    -32.2681E-03     58.6966E-03    -26.4285E-03     157.464E-03    -33.6517E-03     60.3080E-03    -26.5678E-03     157.276E-03
            1777     14.0221E-03     36.1091E-03    -9.12284E+06     7.71943E+06    -14.5868E+06     1.26151E+06    -29.5380E-03     56.0063E-03    -26.4682E-03     94.1617E-03    -29.9248E-03     56.4303E-03    -26.5391E-03     93.9507E-03
            1778     13.1474E-03     36.0355E-03    -8.50558E+06    -24.4142E+06    -11.5464E+06     788.685E+03    -28.7603E-03     55.2328E-03    -26.4724E-03     79.5985E-03    -28.9350E-03     55.3241E-03    -26.4824E-03     79.4266E-03
            1779     12.2712E-03     35.9576E-03    -8.81441E+06    -38.6904E+06    -4.78823E+06     605.591E+03    -28.5502E-03     55.0281E-03    -26.4779E-03     77.0220E-03    -28.6533E-03     54.9765E-03    -26.4330E-03     76.8849E-03
            1780     11.3953E-03     35.8882E-03    -9.55282E+06    -52.7374E+06    -3.30800E+06     398.347E+03    -28.2658E-03     54.7227E-03    -26.4569E-03     68.4023E-03    -28.3108E-03     54.5561E-03    -26.3831E-03     68.2924E-03
            1781     10.5194E-03     35.8266E-03    -9.95572E+06    -66.5395E+06    -4.06400E+06     480.141E+03    -28.0300E-03     54.4478E-03    -26.4178E-03     61.5145E-03    -28.0288E-03     54.1868E-03    -26.3272E-03     61.4305E-03
            1782     9.64331E-03     35.7700E-03    -10.5864E+06    -74.5765E+06    -1.28534E+06     580.152E+03    -27.7685E-03     54.1542E-03    -26.3856E-03     56.1094E-03    -27.7460E-03     53.8331E-03    -26.2686E-03     56.0464E-03
            1783     8.76717E-03     35.7186E-03    -11.7008E+06    -79.1883E+06    -180.796E+03     663.568E+03    -27.4938E-03     53.8353E-03    -26.3415E-03     50.6975E-03    -27.4605E-03     53.4799E-03    -26.2107E-03     50.6513E-03
            1784     7.89087E-03     35.6723E-03    -12.9981E+06    -84.2819E+06    -981.977E+03     600.123E+03    -27.2306E-03     53.5217E-03    -26.2911E-03     45.3637E-03    -27.1875E-03     53.1361E-03    -26.1550E-03     45.3291E-03
            1785     7.01450E-03     35.6310E-03    -14.3191E+06    -90.1747E+06    -2.14180E+06     541.599E+03    -26.9781E-03     53.2218E-03    -26.2437E-03     40.0707E-03    -26.9262E-03     52.8051E-03    -26.1029E-03     40.0450E-03
            1786     6.13795E-03     35.5947E-03    -15.9668E+06    -95.6512E+06    -4.95597E+06     430.036E+03    -26.7508E-03     52.9434E-03    -26.1925E-03     34.8283E-03    -26.6916E-03     52.5022E-03    -26.0555E-03     34.8089E-03
            1787     5.26134E-03     35.5635E-03    -17.6654E+06    -101.984E+06    -8.10828E+06     444.027E+03    -26.5574E-03     52.7029E-03    -26.1455E-03     29.6544E-03    -26.4904E-03     52.2347E-03    -26.0126E-03     29.6412E-03
            1788     4.38461E-03     35.5371E-03    -19.1648E+06    -106.625E+06    -11.4276E+06     438.958E+03    -26.3832E-03     52.4830E-03    -26.0999E-03     24.5689E-03    -26.3105E-03     51.9969E-03    -25.9746E-03     24.5604E-03
            1789     3.50782E-03     35.5157E-03    -20.5369E+06    -108.745E+06    -15.2257E+06     428.137E+03    -26.2319E-03     52.2864E-03    -26.0546E-03     19.5605E-03    -26.1563E-03     51.7961E-03    -25.9432E-03     19.5557E-03
            1790     2.63089E-03     35.4990E-03    -21.7304E+06    -110.722E+06    -18.6544E+06     330.547E+03    -26.1155E-03     52.1337E-03    -26.0182E-03     14.6319E-03    -26.0374E-03     51.6394E-03    -25.9194E-03     14.6290E-03
            1791     1.75399E-03     35.4872E-03    -22.5696E+06    -112.064E+06    -21.2136E+06     229.496E+03    -26.0305E-03     52.0243E-03    -25.9937E-03     9.79913E-03    -25.9505E-03     51.5278E-03    -25.9046E-03     9.79749E-03
            1792     876.938E-06     35.4799E-03    -23.0517E+06    -112.885E+06    -22.7072E+06     112.098E+03    -25.9629E-03     51.9728E-03    -26.0100E-03     5.24130E-03    -25.8816E-03     51.4749E-03    -25.9264E-03     5.24038E-03
            1793     16.6532E-03     35.7103E-03    -3.99523E+06     167.931E+06     82.3663E+06    -205.965E+03    -37.4201E-03     64.1991E-03    -26.7790E-03     261.212E-03    -46.1978E-03     73.3201E-03    -26.6049E-03     266.155E-03
            1794     15.7716E-03     35.4125E-03    -8.97088E+06     124.497E+06     21.4159E+06     838.665E+03    -39.5687E-03     66.1035E-03    -26.5348E-03     259.428E-03    -45.9079E-03     72.7907E-03    -26.5952E-03     260.507E-03
            1795     14.9002E-03     35.2141E-03    -10.5392E+06     63.9488E+06    -11.6156E+06     1.12158E+06    -33.3125E-03     59.7360E-03    -26.4234E-03     158.455E-03    -34.7463E-03     61.3930E-03    -26.5590E-03     158.239E-03
            1796     14.0238E-03     35.1085E-03    -8.30175E+06     8.73802E+06    -14.1798E+06     923.401E+03    -29.2534E-03     55.6911E-03    -26.4377E-03     93.5683E-03    -29.6313E-03     56.1116E-03    -26.5092E-03     93.3578E-03
            1797     13.1472E-03     35.0347E-03    -8.71833E+06    -24.6970E+06    -12.2151E+06     901.369E+03    -28.8088E-03     55.2529E-03    -26.4441E-03     79.1859E-03    -28.9821E-03     55.3430E-03    -26.4567E-03     79.0156E-03
            1798     12.2719E-03     34.9575E-03    -8.82585E+06    -38.1024E+06    -4.83109E+06     756.764E+03    -28.7702E-03     55.2087E-03    -26.4385E-03     76.7145E-03    -28.8745E-03     55.1604E-03    -26.3946E-03     76.5779E-03
            1799     11.3959E-03     34.8879E-03    -9.28251E+06    -52.7020E+06    -3.48493E+06     619.773E+03    -28.3787E-03     54.7794E-03    -26.4007E-03     68.1101E-03    -28.4217E-03     54.6125E-03    -26.3283E-03     68.0030E-03
            1800     10.5201E-03     34.8266E-03    -10.0315E+06    -66.4232E+06    -4.30191E+06     565.688E+03    -28.0913E-03     54.4404E-03    -26.3491E-03     61.1568E-03    -28.0899E-03     54.1801E-03    -26.2598E-03     61.0740E-03
            1801     9.64407E-03     34.7702E-03    -10.8883E+06    -74.7864E+06    -1.76753E+06     661.163E+03    -27.8095E-03     54.1142E-03    -26.3047E-03     55.7303E-03    -27.7872E-03     53.7929E-03    -26.1893E-03     55.6685E-03
            1802     8.76794E-03     34.7190E-03    -11.9798E+06    -79.0009E+06    -388.169E+03     774.578E+03    -27.5020E-03     53.7518E-03    -26.2499E-03     50.3182E-03    -27.4698E-03     53.3978E-03    -26.1199E-03     50.2736E-03
            1803     7.89169E-03     34.6729E-03    -13.2499E+06    -83.9593E+06    -1.43668E+06     549.755E+03    -27.2122E-03     53.3995E-03    -26.1873E-03     44.9970E-03    -27.1700E-03     53.0164E-03    -26.0535E-03     44.9620E-03
            1804     7.01526E-03     34.6318E-03    -14.6307E+06    -90.1454E+06    -2.65401E+06     419.269E+03    -26.9387E-03     53.0686E-03    -26.1299E-03     39.7202E-03    -26.8875E-03     52.6531E-03    -25.9913E-03     39.6932E-03
            1805     6.13871E-03     34.5958E-03    -16.0513E+06    -95.5247E+06    -5.09648E+06     531.809E+03    -26.6899E-03     52.7602E-03    -26.0703E-03     34.5026E-03    -26.6309E-03     52.3199E-03    -25.9340E-03     34.4847E-03
            1806     5.26202E-03     34.5647E-03    -17.5916E+06    -101.837E+06    -8.16059E+06     437.521E+03    -26.4722E-03     52.4869E-03    -26.0146E-03     29.3534E-03    -26.4050E-03     52.0193E-03    -25.8822E-03     29.3404E-03
            1807     4.38522E-03     34.5385E-03    -19.1674E+06    -106.524E+06    -11.5194E+06     390.129E+03    -26.2767E-03     52.2381E-03    -25.9613E-03     24.3026E-03    -26.2040E-03     51.7525E-03    -25.8367E-03     24.2936E-03
            1808     3.50829E-03     34.5172E-03    -20.5647E+06    -108.571E+06    -15.2130E+06     355.411E+03    -26.1102E-03     52.0200E-03    -25.9097E-03     19.3422E-03    -26.0351E-03     51.5305E-03    -25.7985E-03     19.3367E-03
            1809     2.63133E-03     34.5007E-03    -21.6504E+06    -110.466E+06    -18.5087E+06     288.325E+03    -25.9784E-03     51.8464E-03    -25.8680E-03     14.4600E-03    -25.9004E-03     51.3531E-03    -25.7690E-03     14.4566E-03
            1810     1.75422E-03     34.4889E-03    -22.4774E+06    -111.835E+06    -21.0872E+06     200.656E+03    -25.8808E-03     51.7205E-03    -25.8397E-03     9.67866E-03    -25.8008E-03     51.2249E-03    -25.7504E-03     9.67673E-03
            1811     877.149E-06     34.4818E-03    -22.9282E+06    -112.668E+06    -22.6716E+06     116.898E+03    -25.8196E-03     51.6616E-03    -25.8420E-03     5.18705E-03    -25.7381E-03     51.1646E-03    -25.7587E-03     5.18622E-03
            1812     16.6516E-03     34.7212E-03    -5.80537E+06     166.283E+06     81.1638E+06     413.172E+03    -37.2674E-03     64.0324E-03    -26.7650E-03     261.157E-03    -45.9693E-03     73.0687E-03    -26.5919E-03     266.098E-03
            1813     15.7747E-03     34.4077E-03    -8.16305E+06     124.651E+06     21.7966E+06     966.849E+03    -39.6991E-03     66.2335E-03    -26.5344E-03     260.271E-03    -46.0448E-03     72.9295E-03    -26.5943E-03     261.340E-03
            1814     14.8988E-03     34.2126E-03    -9.44818E+06     64.2391E+06    -10.9991E+06     394.496E+03    -33.6360E-03     60.0471E-03    -26.4111E-03     156.629E-03    -35.0665E-03     61.7040E-03    -26.5456E-03     156.391E-03
            1815     14.0235E-03     34.1086E-03    -10.4436E+06     8.03599E+06    -15.3736E+06     519.909E+03    -29.3571E-03     55.7598E-03    -26.4026E-03     93.6377E-03    -29.7418E-03     56.1804E-03    -26.4760E-03     93.4222E-03
            1816     13.1480E-03     34.0340E-03    -9.34839E+06    -23.8300E+06    -12.6375E+06     847.196E+03    -28.8854E-03     55.2852E-03    -26.3998E-03     79.0829E-03    -29.0616E-03     55.3803E-03    -26.4149E-03     78.9120E-03
            1817     12.2723E-03     33.9568E-03    -9.08961E+06    -38.3193E+06    -5.33580E+06     582.522E+03    -28.9170E-03     55.2997E-03    -26.3827E-03     76.1399E-03    -29.0213E-03     55.2511E-03    -26.3406E-03     76.0001E-03
            1818     11.3968E-03     33.8878E-03    -9.42211E+06    -52.4380E+06    -3.53931E+06     751.917E+03    -28.4924E-03     54.8229E-03    -26.3305E-03     67.6019E-03    -28.5361E-03     54.6572E-03    -26.2585E-03     67.4962E-03
            1819     10.5209E-03     33.8265E-03    -9.98821E+06    -66.4327E+06    -4.19968E+06     822.953E+03    -28.1364E-03     54.4026E-03    -26.2661E-03     60.7255E-03    -28.1346E-03     54.1416E-03    -26.1763E-03     60.6462E-03
            1820     9.64500E-03     33.7704E-03    -10.7844E+06    -74.6958E+06    -1.68699E+06     807.519E+03    -27.8351E-03     54.0444E-03    -26.2093E-03     55.2751E-03    -27.8122E-03     53.7230E-03    -26.0938E-03     55.2154E-03
            1821     8.76890E-03     33.7195E-03    -11.6939E+06    -78.8870E+06    -353.158E+03     667.675E+03    -27.5013E-03     53.6434E-03    -26.1421E-03     49.8793E-03    -27.4677E-03     53.2892E-03    -26.0125E-03     49.8336E-03
            1822     7.89261E-03     33.6736E-03    -12.8235E+06    -83.5918E+06    -1.10782E+06     631.661E+03    -27.1846E-03     53.2536E-03    -26.0690E-03     44.5675E-03    -27.1412E-03     52.8711E-03    -25.9347E-03     44.5338E-03
            1823     7.01617E-03     33.6328E-03    -14.3975E+06    -90.0988E+06    -2.43850E+06     540.090E+03    -26.8916E-03     52.8922E-03    -26.0005E-03     39.3055E-03    -26.8395E-03     52.4761E-03    -25.8612E-03     39.2804E-03
            1824     6.13957E-03     33.5970E-03    -16.0694E+06    -95.4189E+06    -5.02700E+06     442.386E+03    -26.6149E-03     52.5445E-03    -25.9296E-03     34.1244E-03    -26.5562E-03     52.1045E-03    -25.7930E-03     34.1057E-03
            1825     5.26282E-03     33.5661E-03    -17.5977E+06    -101.659E+06    -8.14092E+06     444.439E+03    -26.3698E-03     52.2335E-03    -25.8637E-03     29.0148E-03    -26.3028E-03     51.7667E-03    -25.7315E-03     29.0020E-03
            1826     4.38592E-03     33.5402E-03    -19.1106E+06    -106.376E+06    -11.4507E+06     366.514E+03    -26.1545E-03     51.9565E-03    -25.8020E-03     24.0062E-03    -26.0817E-03     51.4715E-03    -25.6773E-03     23.9972E-03
            1827     3.50892E-03     33.5191E-03    -20.4750E+06    -108.390E+06    -15.2035E+06     268.739E+03    -25.9660E-03     51.7089E-03    -25.7429E-03     19.1027E-03    -25.8907E-03     51.2202E-03    -25.6321E-03     19.0961E-03
            1828     2.63175E-03     33.5027E-03    -21.6210E+06    -110.316E+06    -18.5420E+06     217.639E+03    -25.8190E-03     51.5146E-03    -25.6957E-03     14.2802E-03    -25.7410E-03     51.0221E-03    -25.5971E-03     14.2760E-03
            1829     1.75457E-03     33.4910E-03    -22.4399E+06    -111.630E+06    -21.0172E+06     174.115E+03    -25.7171E-03     51.3788E-03    -25.6617E-03     9.56821E-03    -25.6373E-03     50.8840E-03    -25.5724E-03     9.56602E-03
            1830     877.273E-06     33.4838E-03    -22.9889E+06    -112.468E+06    -22.5717E+06     118.848E+03    -25.6583E-03     51.2976E-03    -25.6393E-03     5.16257E-03    -25.5776E-03     50.8015E-03    -25.5557E-03     5.16179E-03
            1831     16.6504E-03     33.7192E-03    -4.82348E+06     166.903E+06     83.0390E+06     897.984E+03    -38.3144E-03     65.0980E-03    -26.7835E-03     258.991E-03    -47.0052E-03     74.1233E-03    -26.6034E-03     263.824E-03
            1832     15.7756E-03     33.4075E-03    -7.74865E+06     124.402E+06     23.1174E+06     1.00614E+06    -40.4095E-03     66.9127E-03    -26.5032E-03     261.302E-03    -46.8245E-03     73.6748E-03    -26.5568E-03     262.308E-03
            1833     14.8999E-03     33.2115E-03    -8.32361E+06     63.6612E+06    -10.1778E+06     975.305E+03    -33.2082E-03     59.5788E-03    -26.3706E-03     156.083E-03    -34.6154E-03     61.2119E-03    -26.5017E-03     155.861E-03
            1834     14.0244E-03     33.1077E-03    -8.93080E+06     7.67941E+06    -13.3416E+06     763.638E+03    -29.6466E-03     56.0130E-03    -26.3663E-03     92.5867E-03    -30.0268E-03     56.4274E-03    -26.4312E-03     92.3699E-03
            1835     13.1488E-03     33.0335E-03    -9.12400E+06    -23.6160E+06    -11.4789E+06     482.479E+03    -29.0321E-03     55.3726E-03    -26.3406E-03     78.6561E-03    -29.2084E-03     55.4660E-03    -26.3505E-03     78.4796E-03
            1836     12.2734E-03     32.9561E-03    -9.22661E+06    -38.2418E+06    -5.19065E+06     658.973E+03    -28.9343E-03     55.2418E-03    -26.3075E-03     75.6901E-03    -29.0386E-03     55.1926E-03    -26.2646E-03     75.5517E-03
            1837     11.3977E-03     32.8875E-03    -9.63731E+06    -52.6689E+06    -3.66302E+06     701.364E+03    -28.5563E-03     54.8003E-03    -26.2440E-03     67.0795E-03    -28.6000E-03     54.6334E-03    -26.1720E-03     66.9731E-03
            1838     10.5220E-03     32.8266E-03    -10.0708E+06    -66.3482E+06    -4.29757E+06     864.311E+03    -28.1845E-03     54.3504E-03    -26.1659E-03     60.2853E-03    -28.1825E-03     54.0896E-03    -26.0766E-03     60.2069E-03
            1839     9.64608E-03     32.7707E-03    -10.6105E+06    -74.4859E+06    -1.57195E+06     808.757E+03    -27.8440E-03     53.9408E-03    -26.0968E-03     54.8127E-03    -27.8203E-03     53.6196E-03    -25.9813E-03     54.7535E-03
            1840     8.77000E-03     32.7201E-03    -11.6562E+06    -78.6428E+06    -324.717E+03     689.632E+03    -27.4955E-03     53.5121E-03    -26.0165E-03     49.3965E-03    -27.4618E-03     53.1587E-03    -25.8872E-03     49.3516E-03
            1841     7.89371E-03     32.6745E-03    -12.9775E+06    -83.5427E+06    -1.07858E+06     614.541E+03    -27.1517E-03     53.0825E-03    -25.9309E-03     44.0900E-03    -27.1088E-03     52.7002E-03    -25.7963E-03     44.0565E-03
            1842     7.01725E-03     32.6340E-03    -14.2532E+06    -89.8356E+06    -2.22720E+06     602.103E+03    -26.8253E-03     52.6755E-03    -25.8502E-03     38.8471E-03    -26.7730E-03     52.2601E-03    -25.7104E-03     38.8232E-03
            1843     6.14057E-03     32.5985E-03    -15.7726E+06    -95.2939E+06    -4.72839E+06     522.294E+03    -26.5197E-03     52.2882E-03    -25.7686E-03     33.6992E-03    -26.4599E-03     51.8479E-03    -25.6312E-03     33.6819E-03
            1844     5.26373E-03     32.5679E-03    -17.4493E+06    -101.489E+06    -7.89220E+06     424.158E+03    -26.2477E-03     51.9405E-03    -25.6928E-03     28.6402E-03    -26.1804E-03     51.4738E-03    -25.5598E-03     28.6275E-03
            1845     4.38672E-03     32.5422E-03    -18.9823E+06    -106.177E+06    -11.4008E+06     328.296E+03    -26.0079E-03     51.6296E-03    -25.6217E-03     23.6870E-03    -25.9348E-03     51.1453E-03    -25.4973E-03     23.6777E-03
            1846     3.50954E-03     32.5212E-03    -20.4076E+06    -108.256E+06    -15.2246E+06     271.575E+03    -25.7994E-03     51.3553E-03    -25.5559E-03     18.8419E-03    -25.7238E-03     50.8671E-03    -25.4454E-03     18.8355E-03
            1847     2.63228E-03     32.5051E-03    -21.5840E+06    -110.166E+06    -18.5898E+06     217.519E+03    -25.6398E-03     51.1432E-03    -25.5034E-03     14.0888E-03    -25.5617E-03     50.6514E-03    -25.4053E-03     14.0848E-03
            1848     1.75488E-03     32.4934E-03    -22.4447E+06    -111.484E+06    -21.0790E+06     141.429E+03    -25.5279E-03     50.9931E-03    -25.4652E-03     9.43879E-03    -25.4482E-03     50.4991E-03    -25.3764E-03     9.43625E-03
            1849     877.482E-06     32.4864E-03     -22.902E+06    -112.243E+06    -22.6021E+06     81.8880E+03    -25.4613E-03     50.9011E-03    -25.4397E-03     5.10115E-03    -25.3804E-03     50.4060E-03    -25.3568E-03     5.09992E-03
            1850     16.6516E-03     32.7162E-03    -4.83586E+06     166.567E+06     82.2053E+06     432.951E+03    -38.5633E-03     65.3297E-03    -26.7664E-03     258.297E-03    -47.2338E-03     74.3360E-03    -26.5899E-03     263.072E-03
            1851     15.7761E-03     32.4074E-03    -7.34016E+06     123.742E+06     21.5781E+06     886.536E+03    -40.5544E-03     67.0187E-03    -26.4642E-03     260.765E-03    -46.9517E-03     73.7666E-03    -26.5251E-03     261.755E-03
            1852     14.9002E-03     32.2100E-03    -8.72257E+06     64.1696E+06    -11.3709E+06     1.18978E+06    -33.4757E-03     59.7930E-03    -26.3173E-03     156.542E-03    -34.8822E-03     61.4293E-03    -26.4546E-03     156.317E-03
            1853     14.0254E-03     32.1068E-03    -8.72044E+06     8.37984E+06    -14.6026E+06     1.14267E+06    -29.8270E-03     56.1232E-03    -26.2962E-03     92.3160E-03    -30.2036E-03     56.5410E-03    -26.3687E-03     92.1024E-03
            1854     13.1501E-03     32.0329E-03    -8.45653E+06    -23.7477E+06    -12.3013E+06     1.08677E+06    -29.1599E-03     55.4183E-03    -26.2584E-03     78.4208E-03    -29.3307E-03     55.5104E-03    -26.2732E-03     78.2517E-03
            1855     12.2744E-03     31.9557E-03    -9.04095E+06    -37.8057E+06    -5.11100E+06     919.447E+03    -28.9722E-03     55.1900E-03    -26.2179E-03     75.4452E-03    -29.0752E-03     55.1416E-03    -26.1755E-03     75.3108E-03
            1856     11.3989E-03     31.8872E-03    -9.67117E+06    -52.8204E+06    -3.82398E+06     809.018E+03    -28.6092E-03     54.7523E-03    -26.1431E-03     66.6197E-03    -28.6518E-03     54.5842E-03    -26.0716E-03     66.5151E-03
            1857     10.5232E-03     31.8266E-03    -10.1086E+06    -66.1607E+06    -4.22762E+06     707.590E+03    -28.2382E-03     54.2897E-03    -26.0515E-03     59.7586E-03    -28.2362E-03     54.0293E-03    -25.9621E-03     59.6785E-03
            1858     9.64733E-03     31.7711E-03    -10.6403E+06    -74.4249E+06    -1.57367E+06     687.629E+03    -27.8607E-03     53.8279E-03    -25.9672E-03     54.3056E-03    -27.8368E-03     53.5066E-03    -25.8517E-03     54.2453E-03
            1859     8.77124E-03     31.7208E-03    -11.4852E+06    -78.4430E+06     33.7689E+03     741.386E+03    -27.4828E-03     53.3564E-03    -25.8737E-03     48.8574E-03    -27.4486E-03     53.0030E-03    -25.7431E-03     48.8135E-03
            1860     7.89498E-03     31.6756E-03    -12.6616E+06    -83.3516E+06    -786.074E+03     627.263E+03    -27.1054E-03     52.8788E-03    -25.7734E-03     43.5637E-03    -27.0614E-03     52.4962E-03    -25.6381E-03     43.5308E-03
            1861     7.01844E-03     31.6354E-03    -14.1581E+06    -89.7432E+06    -2.07011E+06     545.680E+03    -26.7411E-03     52.4207E-03    -25.6796E-03     38.3546E-03    -26.6885E-03     52.0052E-03    -25.5393E-03     38.3304E-03
            1862     6.14170E-03     31.6002E-03    -15.6690E+06    -95.0979E+06    -4.62936E+06     533.510E+03    -26.4050E-03     51.9911E-03    -25.5861E-03     33.2424E-03    -26.3450E-03     51.5513E-03    -25.4486E-03     33.2256E-03
            1863     5.26474E-03     31.5699E-03    -17.1925E+06    -101.308E+06    -7.81065E+06     473.597E+03    -26.1050E-03     51.6050E-03    -25.5000E-03     28.2293E-03    -26.0367E-03     51.1387E-03    -25.3672E-03     28.2175E-03
            1864     4.38760E-03     31.5445E-03    -18.8530E+06    -105.998E+06    -11.4095E+06     423.173E+03    -25.8386E-03     51.2591E-03    -25.4205E-03     23.3285E-03    -25.7651E-03     50.7755E-03    -25.2965E-03     23.3207E-03
            1865     3.51029E-03     31.5238E-03    -20.3622E+06    -108.094E+06    -15.2415E+06     344.216E+03    -25.6136E-03     50.9617E-03    -25.3481E-03     18.5471E-03    -25.5380E-03     50.4742E-03    -25.2380E-03     18.5420E-03
            1866     2.63282E-03     31.5078E-03    -21.5679E+06    -109.978E+06    -18.5754E+06     255.036E+03    -25.4408E-03     50.7309E-03    -25.2900E-03     13.8701E-03    -25.3630E-03     50.2399E-03    -25.1922E-03     13.8667E-03
            1867     1.75530E-03     31.4963E-03    -22.4250E+06    -111.287E+06    -21.1066E+06     155.567E+03    -25.3165E-03     50.5636E-03    -25.2471E-03     9.28645E-03    -25.2370E-03     50.0706E-03    -25.1588E-03     9.28421E-03
            1868     877.639E-06     31.4893E-03    -22.9915E+06    -112.104E+06    -22.6360E+06     56.4121E+03    -25.2459E-03     50.4610E-03    -25.2151E-03     5.01875E-03    -25.1656E-03     49.9668E-03    -25.1324E-03     5.01725E-03
            1869     16.6515E-03     31.7143E-03    -5.47861E+06     166.073E+06     82.6912E+06     27.0345E+03    -38.6819E-03     65.4450E-03    -26.7631E-03     258.971E-03    -47.3596E-03     74.4530E-03    -26.5825E-03     263.725E-03
            1870     15.7762E-03     31.4062E-03    -8.44945E+06     122.793E+06     21.5100E+06      555.63E+03    -41.0125E-03     67.4555E-03    -26.4430E-03     260.311E-03    -47.3948E-03     74.1813E-03    -26.5012E-03     261.263E-03
            1871     14.9013E-03     31.2088E-03    -9.58801E+06     63.6005E+06    -9.19996E+06     1.64535E+06    -33.7696E-03     60.0503E-03    -26.2806E-03     156.112E-03    -35.1791E-03     61.6782E-03    -26.4050E-03     155.884E-03
            1872     14.0259E-03     31.1055E-03    -10.1951E+06     9.38664E+06    -11.6163E+06     1.63348E+06    -29.8688E-03     56.1156E-03    -26.2468E-03     91.8553E-03    -30.2552E-03     56.5328E-03    -26.3037E-03     91.6480E-03
            1873     13.1508E-03     31.0322E-03    -10.0830E+06    -23.3505E+06    -11.9942E+06     772.239E+03    -29.3270E-03     55.5103E-03    -26.1833E-03     77.9938E-03    -29.5064E-03     55.6058E-03    -26.1948E-03     77.8195E-03
            1874     12.2757E-03     30.9553E-03     -9.5219E+06    -37.8736E+06    -4.72945E+06     801.944E+03    -29.1243E-03     55.2479E-03    -26.1237E-03     75.0662E-03    -29.2295E-03     55.1986E-03    -26.0786E-03     74.9299E-03
            1875     11.4001E-03     30.8870E-03    -9.55039E+06    -52.4124E+06    -3.50849E+06     771.095E+03    -28.6866E-03     54.7160E-03    -26.0295E-03     66.1147E-03    -28.7288E-03     54.5485E-03    -25.9572E-03     66.0099E-03
            1876     10.5246E-03     30.8268E-03    -9.91557E+06    -66.0953E+06    -3.88540E+06     617.869E+03    -28.2858E-03     54.2080E-03    -25.9222E-03     59.1675E-03    -28.2828E-03     53.9464E-03    -25.8314E-03     59.0866E-03
            1877     9.64875E-03     30.7716E-03    -10.4881E+06    -74.2762E+06    -1.51824E+06     568.193E+03    -27.8800E-03     53.7000E-03    -25.8200E-03     53.7411E-03    -27.8551E-03     53.3786E-03    -25.7047E-03     53.6798E-03
            1878     8.77272E-03     30.7217E-03    -11.2779E+06    -78.4591E+06    -16.8781E+03     508.357E+03    -27.4547E-03     53.1651E-03    -25.7104E-03     48.2926E-03    -27.4190E-03     52.8109E-03    -25.5804E-03     48.2463E-03
            1879     7.89636E-03     30.6769E-03    -12.3614E+06    -83.2317E+06    -617.806E+03     679.924E+03    -27.0410E-03     52.6377E-03    -25.5966E-03     43.0000E-03    -26.9956E-03     52.2547E-03    -25.4611E-03     42.9684E-03
            1880     7.01980E-03     30.6371E-03    -13.7884E+06    -89.5541E+06    -1.90831E+06     662.132E+03    -26.6455E-03     52.1347E-03    -25.4892E-03     37.8139E-03    -26.5913E-03     51.7192E-03    -25.3489E-03     37.7917E-03
            1881     6.14295E-03     30.6023E-03    -15.4485E+06    -94.9726E+06    -4.68525E+06     573.852E+03    -26.2744E-03     51.6571E-03    -25.3827E-03     32.7434E-03    -26.2133E-03     51.2175E-03    -25.2460E-03     32.7275E-03
            1882     5.26587E-03     30.5723E-03    -17.1779E+06    -101.187E+06    -7.91944E+06     611.124E+03    -25.9450E-03     51.2309E-03    -25.2859E-03     27.7766E-03    -25.8765E-03     50.7652E-03    -25.1539E-03     27.7670E-03
            1883     4.38858E-03     30.5472E-03    -18.7986E+06    -105.764E+06    -11.3457E+06     559.288E+03    -25.6549E-03     50.8526E-03    -25.1977E-03     22.9325E-03    -25.5815E-03     50.3698E-03    -25.0738E-03     22.9267E-03
            1884     3.51108E-03     30.5268E-03    -20.2659E+06    -107.869E+06    -15.1930E+06     449.195E+03    -25.4109E-03     50.5277E-03    -25.1168E-03     18.2214E-03    -25.3352E-03     50.0412E-03    -25.0070E-03     18.2178E-03
            1885     2.63347E-03     30.5109E-03    -21.4790E+06    -109.730E+06    -18.5814E+06     341.318E+03    -25.2169E-03     50.2688E-03    -25.0519E-03     13.6130E-03    -25.1389E-03     49.7789E-03    -24.9545E-03     13.6109E-03
            1886     1.75569E-03     30.4996E-03    -22.4133E+06    -111.058E+06    -21.0949E+06     231.794E+03    -25.0787E-03     50.0841E-03    -25.0054E-03     9.12574E-03    -24.9995E-03     49.5922E-03    -24.9174E-03     9.12459E-03
            1887     877.894E-06     30.4927E-03    -22.9886E+06    -111.909E+06    -22.7054E+06     124.150E+03    -24.9964E-03     49.9748E-03    -24.9784E-03     4.93247E-03    -24.9162E-03     49.4817E-03    -24.8963E-03     4.93190E-03
            1888     16.6505E-03     30.7119E-03    -5.81828E+06     165.862E+06     83.6082E+06     419.253E+03    -39.0602E-03     65.8194E-03    -26.7592E-03     258.611E-03    -47.7168E-03     74.8017E-03    -26.5732E-03     263.317E-03
            1889     15.7767E-03     30.4034E-03    -9.65263E+06     122.473E+06     22.8337E+06     138.958E+03    -41.4366E-03     67.8515E-03    -26.4149E-03     259.075E-03    -47.7959E-03     74.5451E-03    -26.4644E-03     259.983E-03
            1890     14.9024E-03     30.2078E-03    -9.16484E+06     62.1403E+06    -11.6281E+06     597.958E+03    -33.9604E-03     60.1675E-03    -26.2072E-03     155.285E-03    -35.3526E-03     61.7815E-03    -26.3421E-03     155.040E-03
            1891     14.0273E-03     30.1046E-03    -6.91086E+06     9.91123E+06    -12.8122E+06     1.60380E+06    -29.9719E-03     56.1294E-03    -26.1575E-03     91.5286E-03    -30.3379E-03     56.5432E-03    -26.2259E-03     91.3211E-03
            1892     13.1521E-03     30.0313E-03    -6.67856E+06    -22.3656E+06    -10.1542E+06     1.39277E+06    -29.4715E-03     55.5662E-03    -26.0947E-03     77.3791E-03    -29.6368E-03     55.6579E-03    -26.1034E-03     77.2121E-03
            1893     12.2769E-03     29.9547E-03    -7.66229E+06    -38.1784E+06    -4.13282E+06     890.398E+03    -29.2816E-03     55.2964E-03    -26.0148E-03     74.5077E-03    -29.3772E-03     55.2412E-03    -25.9690E-03     74.3723E-03
            1894     11.4017E-03     29.8868E-03    -8.32979E+06    -51.8729E+06    -2.91725E+06     872.934E+03    -28.7779E-03     54.6792E-03    -25.9013E-03     65.5563E-03    -28.8148E-03     54.5108E-03    -25.8286E-03     65.4532E-03
            1895     10.5261E-03     29.8270E-03    -8.97867E+06    -66.1086E+06    -3.75651E+06     781.526E+03    -28.3325E-03     54.1079E-03    -25.7754E-03     58.5784E-03    -28.3243E-03     53.8440E-03    -25.6853E-03     58.5002E-03
            1896     9.65036E-03     29.7723E-03    -9.85233E+06     -73.942E+06    -1.51009E+06     717.410E+03    -27.8888E-03     53.5443E-03    -25.6555E-03     53.1272E-03    -27.8607E-03     53.2231E-03    -25.5415E-03     53.0685E-03
            1897     8.77426E-03     29.7228E-03    -11.1627E+06    -78.5016E+06    -380.020E+03     657.595E+03    -27.4197E-03     52.9488E-03    -25.5290E-03     47.6800E-03    -27.3824E-03     52.5942E-03    -25.4009E-03     47.6364E-03
            1898     7.89793E-03     29.6784E-03    -12.5646E+06    -83.1723E+06    -1.04672E+06      628.41E+03    -26.9682E-03     52.3679E-03    -25.3997E-03     42.3897E-03    -26.9230E-03     51.9859E-03    -25.2661E-03     42.3580E-03
            1899     7.02125E-03     29.6391E-03    -13.8635E+06    -89.4318E+06    -2.20960E+06     666.904E+03    -26.5369E-03     51.8149E-03    -25.2780E-03     37.2228E-03    -26.4826E-03     51.4003E-03    -25.1393E-03     37.2012E-03
            1900     6.14433E-03     29.6047E-03    -15.4174E+06    -94.9212E+06    -4.60644E+06     808.393E+03    -26.1320E-03     51.2918E-03    -25.1598E-03     32.1850E-03    -26.0707E-03     50.8521E-03    -25.0228E-03     32.1727E-03
            1901     5.26710E-03     29.5751E-03    -17.1006E+06    -100.935E+06    -7.83743E+06     755.395E+03    -25.7698E-03     50.8204E-03    -25.0506E-03     27.2742E-03    -25.7013E-03     50.3556E-03    -24.9187E-03     27.2669E-03
            1902     4.38966E-03     29.5503E-03    -18.7044E+06    -105.545E+06    -11.3473E+06     646.220E+03    -25.4561E-03     50.4073E-03    -24.9512E-03     22.4971E-03    -25.3824E-03     49.9254E-03    -24.8277E-03     22.4928E-03
            1903     3.51200E-03     29.5302E-03    -20.1558E+06    -107.581E+06    -15.2189E+06     585.237E+03    -25.1879E-03     50.0482E-03    -24.8603E-03     17.8627E-03    -25.1119E-03     49.5629E-03    -24.7512E-03     17.8611E-03
            1904     2.63415E-03     29.5146E-03    -21.3921E+06    -109.460E+06    -18.6044E+06     491.993E+03    -24.9713E-03     49.7589E-03    -24.7876E-03     13.3284E-03    -24.8933E-03     49.2703E-03    -24.6909E-03     13.3284E-03
            1905     1.75618E-03     29.5035E-03    -22.2885E+06    -110.761E+06    -21.1022E+06     364.393E+03    -24.8124E-03     49.5496E-03    -24.7373E-03     8.94028E-03    -24.7329E-03     49.0590E-03    -24.6499E-03     8.94097E-03
            1906     878.088E-06     29.4966E-03    -22.8385E+06    -111.519E+06    -22.5673E+06     230.600E+03    -24.7094E-03     49.4385E-03    -24.7290E-03     4.83808E-03    -24.6293E-03     48.9469E-03    -24.6470E-03     4.83895E-03
            1907     16.6528E-03     29.7102E-03    -4.83554E+06     165.932E+06     83.8790E+06     970.528E+03    -39.6710E-03     66.3862E-03    -26.7152E-03     257.762E-03    -48.2720E-03     75.3159E-03    -26.5294E-03     262.383E-03
            1908     15.7780E-03     29.4007E-03    -7.51218E+06     123.607E+06     23.4548E+06     541.483E+03    -41.3046E-03     67.6571E-03    -26.3526E-03     258.569E-03    -47.6371E-03     74.3338E-03    -26.4037E-03     259.485E-03
            1909     14.9032E-03     29.2068E-03    -8.21145E+06     61.7340E+06    -15.2437E+06    -194.093E+03    -34.0857E-03     60.2077E-03    -26.1220E-03     154.688E-03    -35.4565E-03     61.8127E-03    -26.2758E-03     154.430E-03
            1910     14.0284E-03     29.1032E-03    -8.11369E+06     8.43309E+06    -17.1628E+06     443.646E+03    -30.2451E-03     56.3002E-03    -26.0550E-03     91.3119E-03    -30.6075E-03     56.7134E-03    -26.1413E-03     91.0871E-03
            1911     13.1535E-03     29.0306E-03    -7.18755E+06    -21.9819E+06    -10.6972E+06     1.66868E+06    -29.6125E-03     55.6000E-03    -25.9875E-03     76.9670E-03    -29.7785E-03     55.6935E-03    -25.9987E-03     76.8033E-03
            1912     12.2785E-03     28.9541E-03    -6.93833E+06    -37.5487E+06    -4.32625E+06     1.58660E+06    -29.3872E-03     55.2770E-03    -25.8898E-03     73.9885E-03    -29.4784E-03     55.2229E-03    -25.8469E-03     73.8623E-03
            1913     11.4033E-03     28.8867E-03    -7.62255E+06    -51.7652E+06    -2.86917E+06     1.19210E+06    -28.8705E-03     54.6306E-03    -25.7601E-03     64.9505E-03    -28.9030E-03     54.4606E-03    -25.6883E-03     64.8520E-03
            1914     10.5278E-03     28.8273E-03    -8.33867E+06    -65.8306E+06    -3.64929E+06     1.18765E+06    -28.3898E-03     54.0048E-03    -25.6150E-03     57.9411E-03    -28.3780E-03     53.7404E-03    -25.5257E-03     57.8689E-03
            1915     9.65206E-03     28.7731E-03    -9.31923E+06    -73.8575E+06    -1.24132E+06     1.18578E+06    -27.8995E-03     53.3768E-03    -25.4773E-03     52.4266E-03    -27.8685E-03     53.0541E-03    -25.3629E-03     52.3747E-03
            1916     8.77602E-03     28.7241E-03    -10.5169E+06    -78.0950E+06    -120.614E+03     1.05616E+06    -27.3867E-03     52.7187E-03    -25.3319E-03     46.9777E-03    -27.3466E-03     52.3643E-03    -25.2040E-03     46.9400E-03
            1917     7.89960E-03     28.6802E-03    -11.9056E+06    -83.0524E+06    -841.759E+03     835.892E+03    -26.8918E-03     52.0772E-03    -25.1854E-03     41.6958E-03    -26.8433E-03     51.6941E-03    -25.0520E-03     41.6675E-03
            1918     7.02289E-03     28.6414E-03    -13.6718E+06    -89.4332E+06    -2.08513E+06     910.411E+03    -26.4198E-03     51.4679E-03    -25.0480E-03     36.5541E-03    -26.3644E-03     51.0525E-03    -24.9090E-03     36.5363E-03
            1919     6.14583E-03     28.6074E-03    -15.3948E+06    -94.7747E+06    -4.72898E+06     902.979E+03    -25.9770E-03     50.8906E-03    -24.9136E-03     31.5602E-03    -25.9155E-03     50.4517E-03    -24.7775E-03     31.5496E-03
            1920     5.26848E-03     28.5784E-03    -16.9456E+06    -100.659E+06    -7.94952E+06     874.211E+03    -25.5795E-03     50.3700E-03    -24.7905E-03     26.7139E-03    -25.5103E-03     49.9064E-03    -24.6597E-03     26.7085E-03
            1921     4.39085E-03     28.5539E-03    -18.5650E+06    -105.289E+06    -11.4964E+06     832.297E+03    -25.2333E-03     49.9126E-03    -24.6793E-03     22.0191E-03    -25.1590E-03     49.4319E-03    -24.5572E-03     22.0176E-03
            1922     3.51298E-03     28.5341E-03    -20.0922E+06    -107.297E+06    -15.2438E+06     758.709E+03    -24.9380E-03     49.5176E-03    -24.5795E-03     17.4673E-03    -24.8620E-03     49.0336E-03    -24.4710E-03     17.4683E-03
            1923     2.63492E-03     28.5188E-03    -21.2917E+06    -109.094E+06    -18.5573E+06     646.090E+03    -24.7039E-03     49.2028E-03    -24.4989E-03     13.0293E-03    -24.6259E-03     48.7158E-03    -24.4027E-03     13.0315E-03
            1924     1.75670E-03     28.5078E-03    -22.1588E+06    -110.316E+06    -20.9335E+06     485.174E+03    -24.5317E-03     48.9727E-03    -24.4410E-03     8.72960E-03    -24.4525E-03     48.4839E-03    -24.3536E-03     8.73199E-03
            1925     878.368E-06     28.5011E-03    -22.6648E+06    -111.028E+06    -22.3614E+06     256.902E+03    -24.4152E-03     48.8370E-03    -24.4218E-03     4.73845E-03    -24.3351E-03     48.3473E-03    -24.3398E-03     4.73973E-03
            1926     16.6536E-03     28.7083E-03    -4.63806E+06     165.568E+06     83.1203E+06     461.891E+03    -40.1818E-03     66.8672E-03    -26.6854E-03     257.392E-03    -48.7468E-03     75.7625E-03    -26.5032E-03     261.922E-03
            1927     15.7785E-03     28.3990E-03    -7.64393E+06     124.361E+06     24.7853E+06     701.348E+03    -41.5595E-03     67.8711E-03    -26.3116E-03     258.863E-03    -47.8937E-03     74.5478E-03    -26.3569E-03     259.754E-03
            1928     14.9041E-03     28.2049E-03    -8.98329E+06     62.4177E+06    -14.1967E+06     481.488E+03    -34.3787E-03     60.4412E-03    -26.0625E-03     154.241E-03    -35.7477E-03     62.0411E-03    -26.2110E-03     153.984E-03
            1929     14.0298E-03     28.1021E-03    -9.06618E+06     7.51746E+06    -18.3507E+06     362.107E+03    -30.5107E-03     56.4746E-03    -25.9639E-03     90.7466E-03    -30.8723E-03     56.8840E-03    -26.0534E-03     90.5184E-03
            1930     13.1550E-03     28.0295E-03    -8.80883E+06    -22.9114E+06    -11.9694E+06     877.852E+03    -29.7690E-03     55.6446E-03    -25.8756E-03     76.5687E-03    -29.9383E-03     55.7361E-03    -25.8895E-03     76.3946E-03
            1931     12.2801E-03     27.9536E-03    -8.43242E+06    -36.9972E+06    -5.13448E+06     1.43430E+06    -29.5350E-03     55.2926E-03    -25.7576E-03     73.4795E-03    -29.6321E-03     55.2433E-03    -25.7174E-03     73.3515E-03
            1932     11.4050E-03     27.8866E-03    -8.48716E+06    -51.5431E+06    -3.46176E+06     1.39399E+06    -28.9847E-03     54.5913E-03    -25.6066E-03     64.2912E-03    -29.0199E-03     54.4234E-03    -25.5368E-03     64.1959E-03
            1933     10.5296E-03     27.8277E-03    -8.95811E+06    -65.7685E+06    -4.11428E+06     1.39708E+06    -28.4584E-03     53.8982E-03    -25.4398E-03     57.1943E-03    -28.4483E-03     53.6347E-03    -25.3520E-03     57.1254E-03
            1934     9.65397E-03     27.7740E-03    -9.52786E+06    -73.6006E+06    -1.58865E+06     1.41091E+06    -27.9145E-03     53.1947E-03    -25.2802E-03     51.6544E-03    -27.8837E-03     52.8734E-03    -25.1676E-03     51.6062E-03
            1935     8.77790E-03     27.7256E-03    -10.4568E+06    -77.6737E+06    -287.006E+03     1.23450E+06    -27.3537E-03     52.4681E-03    -25.1144E-03     46.1961E-03    -27.3130E-03     52.1154E-03    -24.9880E-03     46.1616E-03
            1936     7.90148E-03     27.6823E-03    -11.8286E+06    -82.9662E+06    -1.05951E+06     1.27133E+06    -26.8096E-03     51.7582E-03    -24.9486E-03     40.9186E-03    -26.7601E-03     51.3753E-03    -24.8165E-03     40.8967E-03
            1937     7.02466E-03     27.6440E-03    -13.3789E+06    -89.2420E+06    -2.26076E+06     1.27028E+06    -26.2919E-03     51.0848E-03    -24.7929E-03     35.8050E-03    -26.2347E-03     50.6699E-03    -24.6554E-03     35.7925E-03
            1938     6.14750E-03     27.6107E-03    -15.0744E+06    -94.4466E+06    -4.93249E+06     1.14756E+06    -25.8079E-03     50.4494E-03    -24.6415E-03     30.8621E-03    -25.7446E-03     50.0117E-03    -24.5074E-03     30.8552E-03
            1939     5.26997E-03     27.5820E-03    -16.8547E+06    -100.485E+06    -8.23957E+06     1.07793E+06    -25.3716E-03     49.8751E-03    -24.5035E-03     26.0806E-03    -25.3016E-03     49.4125E-03    -24.3746E-03     26.0784E-03
            1940     4.39216E-03     27.5580E-03    -18.4861E+06    -104.982E+06    -11.5775E+06     1.07960E+06    -24.9864E-03     49.3667E-03    -24.3803E-03     21.4707E-03    -24.9119E-03     48.8875E-03    -24.2591E-03     21.4728E-03
            1941     3.51406E-03     27.5386E-03    -19.9692E+06    -106.909E+06    -15.2404E+06     972.230E+03    -24.6614E-03     48.9319E-03    -24.2706E-03     17.0084E-03    -24.5853E-03     48.4496E-03    -24.1628E-03     17.0125E-03
            1942     2.63574E-03     27.5235E-03    -21.1979E+06    -108.583E+06    -18.3581E+06     761.121E+03    -24.4069E-03     48.5895E-03    -24.1825E-03     12.6792E-03    -24.3295E-03     48.1045E-03    -24.0862E-03     12.6831E-03
            1943     1.75726E-03     27.5128E-03    -22.0347E+06    -109.748E+06    -20.6956E+06     506.201E+03    -24.2271E-03     48.3422E-03    -24.1151E-03     8.49121E-03    -24.1484E-03     47.8557E-03    -24.0275E-03     8.49402E-03
            1944     878.692E-06     27.5062E-03    -22.5165E+06    -110.497E+06    -22.1869E+06     266.755E+03    -24.1005E-03     48.1725E-03    -24.0720E-03     4.61593E-03    -24.0208E-03     47.6850E-03    -23.9900E-03     4.61741E-03
            1945     16.6520E-03     27.7038E-03    -5.35154E+06     164.902E+06     82.9959E+06     18.6970E+03    -40.4470E-03     67.1461E-03    -26.6991E-03     256.739E-03    -48.9795E-03     76.0043E-03    -26.5155E-03     261.210E-03
            1946     15.7791E-03     27.3969E-03    -8.71289E+06     124.109E+06     25.9536E+06     629.324E+03    -42.3647E-03     68.6622E-03    -26.2974E-03     258.017E-03    -48.6663E-03     75.2982E-03    -26.3350E-03     258.838E-03
            1947     14.9052E-03     27.2025E-03    -9.50596E+06     62.9012E+06    -13.4666E+06     837.928E+03    -34.8316E-03     60.8343E-03    -26.0028E-03     153.665E-03    -36.1983E-03     62.4297E-03    -26.1475E-03     153.401E-03
            1948     14.0310E-03     27.1008E-03    -9.05725E+06     7.44733E+06    -19.0943E+06     658.391E+03    -30.7599E-03     56.6292E-03    -25.8693E-03     90.0675E-03    -31.1167E-03     57.0357E-03    -25.9624E-03     89.8414E-03
            1949     13.1564E-03     27.0286E-03    -8.79573E+06    -23.4544E+06    -12.7566E+06     838.352E+03    -29.9910E-03     55.7493E-03    -25.7582E-03     76.1016E-03    -30.1567E-03     55.8375E-03    -25.7753E-03     75.9264E-03
            1950     12.2818E-03     26.9529E-03    -8.93019E+06    -37.1189E+06    -5.80710E+06     1.12060E+06    -29.7396E-03     55.3557E-03    -25.6161E-03     72.8203E-03    -29.8367E-03     55.3062E-03    -25.5783E-03     72.6881E-03
            1951     11.4069E-03     26.8865E-03    -9.25274E+06    -51.3133E+06    -4.20304E+06     1.32851E+06    -29.1362E-03     54.5744E-03    -25.4382E-03     63.4772E-03    -29.1732E-03     54.4086E-03    -25.3714E-03     63.3815E-03
            1952     10.5316E-03     26.8282E-03    -9.53855E+06    -65.7372E+06    -4.95721E+06     1.38288E+06    -28.5296E-03     53.7752E-03    -25.2456E-03     56.3230E-03    -28.5202E-03     53.5129E-03    -25.1612E-03     56.2548E-03
            1953     9.65602E-03     26.7752E-03    -10.0383E+06    -73.2890E+06    -2.42461E+06     1.34661E+06    -27.9307E-03     52.9926E-03    -25.0619E-03     50.7770E-03    -27.9009E-03     52.6740E-03    -24.9532E-03     50.7289E-03
            1954     8.77998E-03     26.7274E-03    -10.9671E+06    -77.5690E+06    -933.327E+03     1.42448E+06    -27.3203E-03     52.1947E-03    -24.8744E-03     45.3028E-03    -27.2808E-03     51.8436E-03    -24.7507E-03     45.2716E-03
            1955     7.90352E-03     26.6848E-03    -12.1410E+06    -82.7724E+06    -1.69107E+06     1.45157E+06    -26.7231E-03     51.4094E-03    -24.6863E-03     40.0378E-03    -26.6741E-03     51.0284E-03    -24.5571E-03     40.0191E-03
            1956     7.02663E-03     26.6471E-03    -13.4093E+06    -88.9630E+06    -2.87346E+06     1.39631E+06    -26.1527E-03     50.6625E-03    -24.5097E-03     34.9613E-03    -26.0949E-03     50.2495E-03    -24.3757E-03     34.9512E-03
            1957     6.14932E-03     26.6143E-03    -14.8949E+06    -94.2583E+06    -5.08704E+06     1.50297E+06    -25.6217E-03     49.9635E-03    -24.3418E-03     30.0693E-03    -25.5574E-03     49.5265E-03    -24.2090E-03     30.0677E-03
            1958     5.27164E-03     26.5862E-03    -16.6520E+06    -100.101E+06    -8.20353E+06     1.52766E+06    -25.1425E-03     49.3301E-03    -24.1876E-03     25.3594E-03    -25.0720E-03     48.8690E-03    -24.0593E-03     25.3636E-03
            1959     4.39361E-03     26.5627E-03    -18.4554E+06    -104.594E+06    -11.5722E+06     1.34661E+06    -24.7180E-03     48.7676E-03    -24.0495E-03     20.8477E-03    -24.6439E-03     48.2901E-03    -23.9290E-03     20.8537E-03
            1960     3.51527E-03     26.5436E-03    -19.9116E+06    -106.309E+06    -15.0911E+06     1.11876E+06    -24.3583E-03     48.2859E-03    -23.9276E-03     16.4955E-03    -24.2829E-03     47.8062E-03    -23.8200E-03     16.5018E-03
            1961     2.63668E-03     26.5289E-03    -21.0211E+06    -107.975E+06    -18.2002E+06     814.054E+03    -24.0767E-03     47.9063E-03    -23.8296E-03     12.2832E-03    -23.9994E-03     47.4239E-03    -23.7335E-03     12.2881E-03
            1962     1.75791E-03     26.5184E-03    -21.8445E+06    -109.160E+06    -20.5818E+06     523.927E+03    -23.8728E-03     47.6292E-03    -23.7564E-03     8.22901E-03    -23.7942E-03     47.1452E-03    -23.6694E-03     8.23222E-03
            1963     878.983E-06     26.5120E-03    -22.3598E+06    -109.934E+06    -22.0703E+06     279.246E+03    -23.7454E-03     47.4525E-03    -23.7071E-03     4.45019E-03    -23.6659E-03     46.9674E-03    -23.6256E-03     4.45194E-03
            1964     16.6521E-03     26.6989E-03    -5.18257E+06     164.624E+06     83.4010E+06     292.251E+03    -40.8172E-03     67.5159E-03    -26.6988E-03     256.053E-03    -49.3054E-03     76.3283E-03    -26.5129E-03     260.461E-03
            1965     15.7792E-03     26.3932E-03    -8.80856E+06     123.477E+06     26.1815E+06     546.094E+03    -42.8506E-03     69.1158E-03    -26.2652E-03     256.226E-03    -49.0887E-03     75.6850E-03    -26.3005E-03     256.997E-03
            1966     14.9062E-03     26.2001E-03    -9.56887E+06     62.8638E+06    -13.7761E+06     845.016E+03    -35.2056E-03     61.1373E-03    -25.9316E-03     152.429E-03    -36.5594E-03     62.7202E-03    -26.0778E-03     152.156E-03
            1967     14.0322E-03     26.0991E-03    -9.28004E+06     7.69655E+06    -19.5735E+06     918.163E+03    -31.0477E-03     56.8159E-03    -25.7681E-03     89.1504E-03    -31.4012E-03     57.2205E-03    -25.8637E-03     88.9255E-03
            1968     13.1581E-03     26.0274E-03    -9.12088E+06    -23.4305E+06    -13.2806E+06     898.750E+03    -30.2953E-03     55.9241E-03    -25.6287E-03     75.3419E-03    -30.4601E-03     56.0118E-03    -25.6479E-03     75.1660E-03
            1969     12.2837E-03     25.9522E-03    -8.94326E+06    -37.3214E+06    -6.32908E+06     1.05284E+06    -29.9614E-03     55.4180E-03    -25.4566E-03     71.9643E-03    -30.0559E-03     55.3666E-03    -25.4211E-03     71.8310E-03
            1970     11.4090E-03     25.8863E-03    -9.13339E+06    -51.3751E+06    -4.50084E+06     1.30969E+06    -29.2768E-03     54.5278E-03    -25.2511E-03     62.4490E-03    -29.3111E-03     54.3605E-03    -25.1859E-03     62.3537E-03
            1971     10.5339E-03     25.8289E-03    -9.58302E+06    -65.4944E+06    -5.26765E+06     1.39239E+06    -28.6013E-03     53.6328E-03    -25.0315E-03     55.3006E-03    -28.5908E-03     53.3710E-03    -24.9489E-03     55.2335E-03
            1972     9.65831E-03     25.7765E-03    -10.1987E+06    -73.1920E+06    -2.92481E+06     1.40117E+06    -27.9478E-03     52.7692E-03    -24.8214E-03     49.7555E-03    -27.9173E-03     52.4511E-03    -24.7151E-03     49.7091E-03
            1973     8.78229E-03     25.7295E-03    -11.0437E+06    -77.5448E+06    -1.38465E+06     1.50383E+06    -27.2795E-03     51.8886E-03    -24.6090E-03     44.2766E-03    -27.2391E-03     51.5377E-03    -24.4875E-03     44.2473E-03
            1974     7.90579E-03     25.6875E-03    -12.1499E+06    -82.4758E+06    -2.04903E+06     1.55148E+06    -26.6255E-03     51.0224E-03    -24.3969E-03     39.0382E-03    -26.5760E-03     50.6429E-03    -24.2700E-03     39.0217E-03
            1975     7.02881E-03     25.6506E-03    -13.5596E+06    -88.7720E+06    -3.30280E+06     1.56893E+06    -26.0004E-03     50.1981E-03    -24.1977E-03     34.0095E-03    -25.9425E-03     49.7866E-03    -24.0658E-03     34.0024E-03
            1976     6.15137E-03     25.6184E-03    -15.0893E+06    -94.2139E+06    -5.60121E+06     1.71144E+06    -25.4138E-03     49.4227E-03    -24.0089E-03     29.1881E-03    -25.3495E-03     48.9866E-03    -23.8784E-03     29.1898E-03
            1977     5.27348E-03     25.5910E-03    -16.5819E+06    -99.7022E+06    -8.28208E+06     1.86568E+06    -24.8860E-03     48.7236E-03    -23.8377E-03     24.5665E-03    -24.8154E-03     48.2643E-03    -23.7105E-03     24.5755E-03
            1978     4.39522E-03     25.5680E-03    -18.1247E+06    -103.836E+06    -11.2725E+06     1.66604E+06    -24.4220E-03     48.1063E-03    -23.6843E-03     20.1622E-03    -24.3476E-03     47.6316E-03    -23.5639E-03     20.1728E-03
            1979     3.51661E-03     25.5494E-03    -19.6233E+06    -105.598E+06    -14.8970E+06     1.22545E+06    -24.0257E-03     47.5736E-03    -23.5479E-03     15.9363E-03    -23.9502E-03     47.0967E-03    -23.4408E-03     15.9444E-03
            1980     2.63772E-03     25.5350E-03    -20.7758E+06    -107.332E+06    -18.1608E+06     908.893E+03    -23.7097E-03     47.1483E-03    -23.4386E-03     11.8541E-03    -23.6322E-03     46.6686E-03    -23.3436E-03     11.8605E-03
            1981     1.75859E-03     25.5248E-03    -21.6224E+06    -108.540E+06    -20.5101E+06     629.426E+03    -23.4775E-03     46.8388E-03    -23.3613E-03     7.93586E-03    -23.3988E-03     46.3575E-03    -23.2751E-03     7.94060E-03
            1982     879.330E-06     25.5185E-03    -22.1670E+06    -109.263E+06    -21.9361E+06     380.451E+03    -23.3509E-03     46.6627E-03    -23.3118E-03     4.29551E-03    -23.2716E-03     46.1805E-03    -23.2309E-03     4.29865E-03
            1983     16.6532E-03     25.6950E-03    -4.99796E+06     164.475E+06     83.6156E+06     500.585E+03    -41.4929E-03     68.1591E-03    -26.6662E-03     255.390E-03    -49.9227E-03     76.9127E-03    -26.4794E-03     259.692E-03
            1984     15.7806E-03     25.3890E-03    -8.48851E+06     123.131E+06     26.1864E+06     850.118E+03    -43.0290E-03     69.2315E-03    -26.2025E-03     254.945E-03    -49.2131E-03     75.7466E-03    -26.2378E-03     255.690E-03
            1985     14.9075E-03     25.1977E-03    -9.93700E+06     62.7286E+06    -14.5340E+06     1.13244E+06    -35.5075E-03     61.3492E-03    -25.8417E-03     150.997E-03    -36.8438E-03     62.9151E-03    -25.9909E-03     150.719E-03
            1986     14.0340E-03     25.0971E-03    -9.64912E+06     8.23304E+06    -20.1088E+06     1.03454E+06    -31.4117E-03     57.0591E-03    -25.6474E-03     88.1015E-03    -31.7623E-03     57.4630E-03    -25.7459E-03     87.8751E-03
            1987     13.1600E-03     25.0262E-03    -8.97841E+06    -23.2198E+06    -13.6033E+06     842.583E+03    -30.5997E-03     56.0758E-03    -25.4761E-03     74.3605E-03    -30.7610E-03     56.1623E-03    -25.4974E-03     74.1827E-03
            1988     12.2859E-03     24.9513E-03    -8.89565E+06    -37.6134E+06    -6.80429E+06     947.631E+03    -30.1647E-03     55.4375E-03    -25.2728E-03     70.9394E-03    -30.2557E-03     55.3831E-03    -25.2393E-03     70.8050E-03
            1989     11.4114E-03     24.8864E-03    -9.07756E+06    -51.5614E+06    -4.87947E+06     1.27707E+06    -29.3926E-03     54.4313E-03    -25.0387E-03     61.2953E-03    -29.4240E-03     54.2617E-03    -24.9752E-03     61.2006E-03
            1990     10.5364E-03     24.8296E-03    -9.35233E+06    -65.3262E+06    -5.51254E+06     1.48399E+06    -28.6704E-03     53.4615E-03    -24.7911E-03     54.1482E-03    -28.6573E-03     53.1993E-03    -24.7103E-03     54.0833E-03
            1991     9.66090E-03     24.7781E-03    -9.90008E+06    -73.0846E+06    -3.23507E+06     1.54865E+06    -27.9577E-03     52.5104E-03    -24.5527E-03     48.6011E-03    -27.9244E-03     52.1919E-03    -24.4486E-03     48.5577E-03
            1992     8.78487E-03     24.7318E-03    -10.8755E+06    -77.4832E+06    -1.76684E+06     1.64786E+06    -27.2233E-03     51.5367E-03    -24.3134E-03     43.1299E-03    -27.1809E-03     51.1857E-03    -24.1941E-03     43.1037E-03
            1993     7.90832E-03     24.6908E-03    -12.1226E+06    -82.3063E+06    -2.43656E+06     1.78619E+06    -26.5081E-03     50.5839E-03    -24.0758E-03     37.9243E-03    -26.4575E-03     50.2052E-03    -23.9511E-03     37.9118E-03
            1994     7.03122E-03     24.6545E-03    -13.5658E+06    -88.5837E+06    -3.65469E+06     1.91174E+06    -25.8236E-03     49.6765E-03    -23.8528E-03     32.9522E-03    -25.7652E-03     49.2660E-03    -23.7230E-03     32.9504E-03
            1995     6.15362E-03     24.6232E-03    -15.1688E+06    -94.0376E+06    -6.01124E+06     1.97958E+06    -25.1798E-03     48.8218E-03    -23.6420E-03     28.2151E-03    -25.1153E-03     48.3870E-03    -23.5137E-03     28.2211E-03
            1996     5.27552E-03     24.5964E-03    -16.6716E+06    -99.2797E+06    -8.68708E+06     1.93490E+06    -24.5988E-03     48.0497E-03    -23.4509E-03     23.7059E-03    -24.5285E-03     47.5930E-03    -23.3262E-03     23.7165E-03
            1997     4.39698E-03     24.5740E-03    -17.9748E+06    -103.028E+06    -11.3236E+06     1.75149E+06    -24.0900E-03     47.3716E-03    -23.2816E-03     19.4193E-03    -24.0158E-03     46.9007E-03    -23.1628E-03     19.4315E-03
            1998     3.51808E-03     24.5559E-03    -19.2526E+06    -104.807E+06    -14.8414E+06     1.46488E+06    -23.6559E-03     46.7874E-03    -23.1315E-03     15.3239E-03    -23.5797E-03     46.3138E-03    -23.0258E-03     15.3354E-03
            1999     2.63884E-03     24.5419E-03    -20.4797E+06    -106.629E+06    -18.0790E+06     1.14006E+06    -23.3083E-03     46.3201E-03    -23.0118E-03     11.3837E-03    -23.2304E-03     45.8434E-03    -22.9178E-03     11.3933E-03
            2000     1.75937E-03     24.5320E-03    -21.3699E+06    -107.754E+06    -20.3208E+06     825.016E+03    -23.0582E-03     45.9845E-03    -22.9263E-03     7.61526E-03    -22.9795E-03     45.5064E-03    -22.8407E-03     7.62271E-03
            2001     879.710E-06     24.5259E-03    -21.9392E+06    -108.430E+06    -21.6786E+06     485.590E+03    -22.9133E-03     45.7843E-03    -22.8710E-03     4.13177E-03    -22.8344E-03     45.3055E-03    -22.7904E-03     4.13636E-03
            2002     16.6541E-03     24.6903E-03    -5.22270E+06     163.857E+06     83.3770E+06     571.129E+03    -42.1794E-03     68.8181E-03    -26.6387E-03     254.698E-03    -50.5459E-03     77.5060E-03    -26.4518E-03     258.883E-03
            2003     15.7815E-03     24.3850E-03    -8.80451E+06     122.793E+06     26.3872E+06     1.28875E+06    -43.5174E-03     69.6598E-03    -26.1424E-03     254.468E-03    -49.6677E-03     76.1383E-03    -26.1758E-03     255.170E-03
            2004     14.9090E-03     24.1945E-03    -10.0289E+06     63.2883E+06    -14.5087E+06     1.37335E+06    -36.0625E-03     61.8048E-03    -25.7423E-03     149.790E-03    -37.3835E-03     63.3570E-03    -25.8921E-03     149.501E-03
            2005     14.0359E-03     24.0950E-03    -9.54001E+06     8.76993E+06    -20.6324E+06     969.273E+03    -31.8703E-03     57.3738E-03    -25.5035E-03     86.8286E-03    -32.2144E-03     57.7750E-03    -25.6055E-03     86.5977E-03
            2006     13.1624E-03     24.0246E-03    -8.80644E+06    -23.2056E+06    -14.0884E+06     840.929E+03    -30.8598E-03     56.1568E-03    -25.2970E-03     73.2699E-03    -31.0162E-03     56.2404E-03    -25.3210E-03     73.0919E-03
            2007     12.2885E-03     23.9506E-03    -8.67925E+06    -37.8319E+06    -7.33333E+06     1.01122E+06    -30.3448E-03     55.4076E-03    -25.0628E-03     69.8151E-03    -30.4312E-03     55.3502E-03    -25.0320E-03     69.6823E-03
            2008     11.4141E-03     23.8864E-03    -8.91285E+06    -51.7631E+06    -5.46959E+06     1.25026E+06    -29.5165E-03     54.3147E-03    -24.7982E-03     60.0437E-03    -29.5440E-03     54.1426E-03    -24.7375E-03     59.9498E-03
            2009     10.5392E-03     23.8306E-03    -9.21780E+06    -65.3417E+06    -6.05539E+06     1.54861E+06    -28.7301E-03     53.2503E-03    -24.5202E-03     52.8829E-03    -28.7141E-03     52.9872E-03    -24.4424E-03     52.8201E-03
            2010     9.66377E-03     23.7799E-03    -9.78449E+06    -73.0203E+06    -3.67930E+06     1.78567E+06    -27.9524E-03     52.2050E-03    -24.2526E-03     47.3255E-03    -27.9169E-03     51.8862E-03    -24.1509E-03     47.2864E-03
            2011     8.78775E-03     23.7346E-03    -10.7249E+06    -77.3876E+06    -2.18233E+06     1.93171E+06    -27.1505E-03     51.1352E-03    -23.9847E-03     41.8612E-03    -27.1060E-03     50.7843E-03    -23.8678E-03     41.8398E-03
            2012     7.91111E-03     23.6944E-03    -11.9187E+06    -82.2427E+06    -2.82043E+06     2.11117E+06    -26.3654E-03     50.0856E-03    -23.7202E-03     36.6974E-03    -26.3127E-03     49.7069E-03    -23.5978E-03     36.6902E-03
            2013     7.03389E-03     23.6591E-03    -13.3442E+06    -88.3961E+06    -3.97055E+06     2.31503E+06    -25.6165E-03     49.0891E-03    -23.4726E-03     31.7922E-03    -25.5563E-03     48.6793E-03    -23.3450E-03     31.7966E-03
            2014     6.15608E-03     23.6285E-03    -14.8827E+06    -93.6156E+06    -6.26575E+06     2.35205E+06    -24.9144E-03     48.1535E-03    -23.2391E-03     27.1485E-03    -24.8484E-03     47.7205E-03    -23.1131E-03     27.1601E-03
            2015     5.27775E-03     23.6025E-03    -16.4015E+06    -98.5771E+06    -9.02750E+06     2.10407E+06    -24.2799E-03     47.3070E-03    -23.0271E-03     22.7661E-03    -24.2086E-03     46.8537E-03    -22.9056E-03     22.7795E-03
            2016     4.39892E-03     23.5807E-03    -17.8434E+06    -102.358E+06    -11.7027E+06     1.79092E+06    -23.7227E-03     46.5633E-03    -22.8407E-03     18.6110E-03    -23.6481E-03     46.0960E-03    -22.7249E-03     18.6242E-03
            2017     3.51966E-03     23.5632E-03    -19.0867E+06    -104.136E+06    -14.8796E+06     1.64228E+06    -23.2478E-03     45.9259E-03    -22.6781E-03     14.6497E-03    -23.1716E-03     45.4554E-03    -22.5738E-03     14.6639E-03
            2018     2.64007E-03     23.5497E-03    -20.1449E+06    -105.754E+06    -17.8921E+06     1.43626E+06    -22.8732E-03     45.4208E-03    -22.5476E-03     10.8689E-03    -22.7952E-03     44.9477E-03    -22.4545E-03     10.8826E-03
            2019     1.76019E-03     23.5401E-03    -21.0164E+06    -106.774E+06    -20.0311E+06     1.03804E+06    -22.6051E-03     45.0566E-03    -22.4515E-03     7.27109E-03    -22.5265E-03     44.5824E-03    -22.3664E-03     7.28148E-03
            2020     880.172E-06     23.5341E-03    -21.4749E+06    -107.337E+06    -21.2934E+06     618.198E+03    -22.4319E-03     44.8237E-03    -22.3918E-03     3.94500E-03    -22.3528E-03     44.3492E-03    -22.3115E-03     3.95141E-03
            2021     16.6535E-03     23.6847E-03    -5.69404E+06     163.122E+06     83.0829E+06     882.314E+03    -42.8982E-03     69.5330E-03    -26.6348E-03     254.007E-03    -51.2101E-03     78.1628E-03    -26.4476E-03     258.076E-03
            2022     15.7821E-03     23.3802E-03    -9.20058E+06     122.395E+06     26.8096E+06     1.19188E+06    -44.6054E-03     70.6915E-03    -26.0860E-03     252.917E-03    -50.7020E-03     77.1122E-03    -26.1161E-03     253.521E-03
            2023     14.9106E-03     23.1905E-03    -9.46386E+06     63.9577E+06    -13.8580E+06     1.07952E+06    -36.7411E-03     62.3625E-03    -25.6214E-03     147.644E-03    -38.0374E-03     63.8925E-03    -25.7697E-03     147.333E-03
            2024     14.0384E-03     23.0925E-03    -8.71161E+06     9.32424E+06    -20.7617E+06     1.00347E+06    -32.1958E-03     57.5293E-03    -25.3334E-03     85.0861E-03    -32.5277E-03     57.9236E-03    -25.4381E-03     84.8540E-03
            2025     13.1650E-03     23.0232E-03    -8.42890E+06     -23.362E+06    -14.5950E+06     1.03663E+06    -31.0910E-03     56.1846E-03    -25.0935E-03     72.1239E-03    -31.2410E-03     56.2641E-03    -25.1204E-03     71.9484E-03
            2026     12.2913E-03     22.9497E-03    -8.41853E+06    -37.9360E+06    -7.77412E+06     1.14428E+06    -30.5445E-03     55.3719E-03    -24.8274E-03     68.5777E-03    -30.6263E-03     55.3117E-03    -24.7990E-03     68.4472E-03
            2027     11.4172E-03     22.8866E-03    -8.71870E+06    -51.8814E+06    -5.84865E+06     1.42305E+06    -29.6418E-03     54.1716E-03    -24.5297E-03     58.6520E-03    -29.6655E-03     53.9971E-03    -24.4711E-03     58.5616E-03
            2028     10.5424E-03     22.8317E-03    -9.19369E+06    -65.4970E+06    -6.53088E+06     1.72633E+06    -28.7806E-03     52.9996E-03    -24.2190E-03     51.4956E-03    -28.7619E-03     52.7348E-03    -24.1433E-03     51.4365E-03
            2029     9.66698E-03     22.7820E-03    -9.73909E+06    -73.0250E+06    -4.14755E+06     1.99290E+06    -27.9299E-03     51.8496E-03    -23.9197E-03     45.9329E-03    -27.8923E-03     51.5302E-03    -23.8204E-03     45.8979E-03
            2030     8.79093E-03     22.7377E-03    -10.5513E+06    -77.3021E+06    -2.57582E+06     2.20732E+06    -27.0530E-03     50.6748E-03    -23.6218E-03     40.4796E-03    -27.0064E-03     50.3238E-03    -23.5073E-03     40.4631E-03
            2031     7.91421E-03     22.6985E-03    -11.6658E+06    -82.2031E+06    -3.22588E+06     2.44065E+06    -26.1949E-03     49.5242E-03    -23.3293E-03     35.3720E-03    -26.1398E-03     49.1453E-03    -23.2093E-03     35.3703E-03
            2032     7.03681E-03     22.6642E-03    -12.9379E+06    -88.2296E+06    -4.31960E+06     2.69205E+06    -25.3793E-03     48.4353E-03    -23.0560E-03     30.5428E-03    -25.3164E-03     48.0258E-03    -22.9309E-03     30.5531E-03
            2033     6.15879E-03     22.6345E-03    -14.3401E+06    -93.0225E+06    -6.48471E+06     2.72932E+06    -24.6173E-03     47.4163E-03    -22.7990E-03     25.9973E-03    -24.5488E-03     46.9855E-03    -22.6758E-03     26.0146E-03
            2034     5.28017E-03     22.6093E-03    -15.8266E+06    -97.7112E+06    -9.09408E+06     2.49372E+06    -23.9263E-03     46.4931E-03    -22.5668E-03     21.7398E-03    -23.8531E-03     46.0432E-03    -22.4476E-03     21.7589E-03
            2035     4.40102E-03     22.5883E-03    -17.3759E+06    -101.587E+06    -11.8082E+06     2.16940E+06    -23.3200E-03     45.6828E-03    -22.3628E-03     17.7310E-03    -23.2440E-03     45.2187E-03    -22.2493E-03     17.7497E-03
            2036     3.52141E-03     22.5714E-03    -18.8585E+06    -103.456E+06    -15.0170E+06     1.89283E+06    -22.8068E-03     44.9925E-03    -22.1857E-03     13.9233E-03    -22.7302E-03     44.5252E-03    -22.0834E-03     13.9411E-03
            2037     2.64139E-03     22.5584E-03    -19.9405E+06    -104.759E+06    -17.7091E+06     1.61310E+06    -22.4000E-03     44.4439E-03    -22.0438E-03     10.3185E-03    -22.3226E-03     43.9751E-03    -21.9516E-03     10.3348E-03
            2038     1.76112E-03     22.5491E-03    -20.6380E+06    -105.619E+06    -19.6984E+06     1.19978E+06    -22.1061E-03     44.0448E-03    -21.9387E-03     6.89444E-03    -22.0277E-03     43.5753E-03    -21.8541E-03     6.90712E-03
            2039     880.590E-06     22.5434E-03    -21.1096E+06    -106.040E+06    -20.8372E+06     688.001E+03    -21.9251E-03     43.7903E-03    -21.8652E-03     3.71873E-03    -21.8467E-03     43.3210E-03    -21.7850E-03     3.72615E-03
            2040     16.6530E-03     22.6769E-03    -5.21578E+06     162.767E+06     83.3735E+06     1.17684E+06    -43.9653E-03     70.5760E-03    -26.6107E-03     252.650E-03    -52.1953E-03     79.1236E-03    -26.4223E-03     256.562E-03
            2041     15.7839E-03     22.3739E-03    -8.24293E+06     122.828E+06     28.0507E+06     1.04920E+06    -45.6485E-03     71.6433E-03    -25.9948E-03     250.356E-03    -51.6530E-03     77.9733E-03    -26.0207E-03     250.855E-03
            2042     14.9137E-03     22.1862E-03    -8.60204E+06     64.0674E+06    -13.6141E+06     1.08170E+06    -37.2340E-03     62.6980E-03    -25.4639E-03     145.093E-03    -38.4970E-03     64.1973E-03    -25.6124E-03     144.767E-03
            2043     14.0411E-03     22.0903E-03    -8.22080E+06     9.53282E+06    -21.1339E+06     1.31503E+06    -32.3696E-03     57.5053E-03    -25.1357E-03     83.3183E-03    -32.6889E-03     57.8906E-03    -25.2433E-03     83.0908E-03
            2044     13.1679E-03     22.0215E-03    -8.07845E+06    -23.2268E+06    -14.8466E+06     1.29423E+06    -31.3171E-03     56.1839E-03    -24.8668E-03     70.9721E-03    -31.4617E-03     56.2604E-03    -24.8957E-03     70.8001E-03
            2045     12.2946E-03     21.9490E-03    -8.15462E+06    -38.0084E+06    -8.07926E+06     1.38951E+06    -30.7607E-03     55.3267E-03    -24.5661E-03     67.2091E-03    -30.8379E-03     55.2636E-03    -24.5395E-03     67.0824E-03
            2046     11.4205E-03     21.8869E-03    -8.56747E+06    -52.0453E+06    -6.17559E+06     1.69001E+06    -29.7597E-03     53.9923E-03    -24.2326E-03     57.1611E-03    -29.7796E-03     53.8150E-03    -24.1756E-03     57.0756E-03
            2047     10.5459E-03     21.8331E-03    -8.94498E+06    -65.5816E+06    -6.89435E+06     1.97962E+06    -28.8223E-03     52.7093E-03    -23.8870E-03     50.0149E-03    -28.8001E-03     52.4425E-03    -23.8134E-03     49.9607E-03
            2048     9.67051E-03     21.7845E-03    -9.44561E+06    -73.0376E+06    -4.52581E+06     2.21828E+06    -27.8873E-03     51.4417E-03    -23.5544E-03     44.4455E-03    -27.8464E-03     51.1212E-03    -23.4575E-03     44.4151E-03
            2049     8.79441E-03     21.7413E-03    -10.2841E+06    -77.2922E+06    -3.01211E+06     2.49200E+06    -26.9299E-03     50.1552E-03    -23.2253E-03     39.0133E-03    -26.8804E-03     49.8036E-03    -23.1134E-03     39.0020E-03
            2050     7.91756E-03     21.7032E-03    -11.3589E+06    -82.1547E+06    -3.69941E+06     2.79184E+06    -26.0011E-03     48.9047E-03    -22.9036E-03     33.9532E-03    -25.9432E-03     48.5256E-03    -22.7865E-03     33.9573E-03
            2051     7.03999E-03     21.6700E-03    -12.5844E+06    -88.0073E+06    -4.75745E+06     3.01943E+06    -25.1143E-03     47.7177E-03    -22.6033E-03     29.2070E-03    -25.0489E-03     47.3090E-03    -22.4813E-03     29.2226E-03
            2052     6.16171E-03     21.6413E-03    -13.8950E+06    -92.4496E+06    -6.80104E+06     3.12471E+06    -24.2882E-03     46.6104E-03    -22.3222E-03     24.7691E-03    -24.2176E-03     46.1820E-03    -22.2020E-03     24.7924E-03
            2053     5.28280E-03     21.6170E-03    -15.3552E+06    -96.8703E+06    -9.32418E+06     3.06050E+06    -23.5389E-03     45.6076E-03    -22.0687E-03     20.6395E-03    -23.4640E-03     45.1614E-03    -21.9526E-03     20.6668E-03
            2054     4.40329E-03     21.5968E-03    -16.9867E+06    -100.630E+06    -11.8062E+06     2.80831E+06    -22.8820E-03     44.7296E-03    -21.8476E-03     16.7865E-03    -22.8053E-03     44.2696E-03    -21.7361E-03     16.8140E-03
            2055     3.52326E-03     21.5805E-03    -18.4897E+06    -102.375E+06    -14.7986E+06     2.33213E+06    -22.3298E-03     43.9857E-03    -21.6559E-03     13.1449E-03    -22.2531E-03     43.5228E-03    -21.5546E-03     13.1689E-03
            2056     2.64284E-03     21.5681E-03    -19.6293E+06    -103.620E+06    -17.4494E+06     1.76705E+06    -21.8880E-03     43.3896E-03    -21.5016E-03     9.72793E-03    -21.8110E-03     42.9256E-03    -21.4101E-03     9.74655E-03
            2057     1.76206E-03     21.5592E-03    -20.3817E+06    -104.340E+06    -19.2699E+06     1.25781E+06    -21.5663E-03     42.9545E-03    -21.3883E-03     6.49149E-03    -21.4891E-03     42.4905E-03    -21.3038E-03     6.50512E-03
            2058     881.122E-06     21.5537E-03    -20.7604E+06    -104.655E+06    -20.4802E+06     677.567E+03    -21.3772E-03     42.6810E-03    -21.3038E-03     3.50053E-03    -21.2996E-03     42.2176E-03    -21.2243E-03     3.50793E-03
            2059     16.6557E-03     21.6696E-03    -4.74395E+06     162.377E+06     83.5798E+06     923.066E+03    -45.4885E-03     72.0184E-03    -26.5299E-03     250.639E-03    -53.5837E-03     80.4309E-03    -26.3405E-03     254.326E-03
            2060     15.7861E-03     21.3665E-03    -7.28845E+06     123.109E+06     28.4421E+06     1.28762E+06    -45.8382E-03     71.6895E-03    -25.8513E-03     247.676E-03    -51.7183E-03     77.8984E-03    -25.8771E-03     248.121E-03
            2061     14.9159E-03     21.1816E-03    -8.75622E+06     63.8511E+06    -14.8661E+06     1.51122E+06    -37.2679E-03     62.5566E-03    -25.2887E-03     143.007E-03    -38.4965E-03     64.0240E-03    -25.4429E-03     142.687E-03
            2062     14.0442E-03     21.0881E-03    -8.73449E+06     9.99293E+06    -22.2335E+06     1.57020E+06    -32.7940E-03     57.7237E-03    -24.9297E-03     82.0535E-03    -33.1079E-03     58.1067E-03    -25.0427E-03     81.8271E-03
            2063     13.1713E-03     21.0199E-03    -7.98046E+06    -22.8585E+06    -15.3725E+06     1.51650E+06    -31.6761E-03     56.2969E-03    -24.6208E-03     69.8676E-03    -31.8165E-03     56.3724E-03    -24.6529E-03     69.6977E-03
            2064     12.2981E-03     20.9482E-03    -7.91608E+06    -38.1492E+06    -8.61905E+06     1.68021E+06    -30.9606E-03     55.2413E-03    -24.2807E-03     65.8450E-03    -31.0325E-03     55.1747E-03    -24.2570E-03     65.7233E-03
            2065     11.4243E-03     20.8874E-03    -8.18142E+06    -52.1272E+06    -6.51749E+06     2.02420E+06    -29.9076E-03     53.8174E-03    -23.9097E-03     55.6001E-03    -29.9225E-03     53.6371E-03    -23.8549E-03     55.5205E-03
            2066     10.5497E-03     20.8348E-03    -8.58761E+06    -65.5755E+06    -7.35315E+06     2.28388E+06    -28.8606E-03     52.3865E-03    -23.5258E-03     48.4366E-03    -28.8342E-03     52.1181E-03    -23.4551E-03     48.3881E-03
            2067     9.67433E-03     20.7874E-03    -9.11450E+06    -73.0467E+06    -4.97524E+06     2.53356E+06    -27.8292E-03     50.9878E-03    -23.1587E-03     42.8508E-03    -27.7847E-03     50.6661E-03    -23.0644E-03     42.8262E-03
            2068     8.79815E-03     20.7455E-03    -9.91732E+06    -77.2985E+06    -3.41576E+06     2.81618E+06    -26.7881E-03     49.5855E-03    -22.7974E-03     37.4445E-03    -26.7352E-03     49.2329E-03    -22.6880E-03     37.4389E-03
            2069     7.92119E-03     20.7086E-03    -10.9281E+06    -82.1416E+06    -4.12030E+06     3.17894E+06    -25.7813E-03     48.2267E-03    -22.4454E-03     32.4428E-03    -25.7200E-03     47.8470E-03    -22.3311E-03     32.4533E-03
            2070     7.04341E-03     20.6765E-03    -12.1923E+06    -87.7209E+06    -5.14912E+06     3.51961E+06    -24.8234E-03     46.9409E-03    -22.1174E-03     27.7906E-03    -24.7554E-03     46.5331E-03    -21.9983E-03     27.8138E-03
            2071     6.16487E-03     20.6489E-03    -13.6984E+06    -91.9538E+06    -7.28646E+06     3.69274E+06    -23.9286E-03     45.7396E-03    -21.8110E-03     23.4671E-03    -23.8567E-03     45.3138E-03    -21.6942E-03     23.4988E-03
            2072     5.28560E-03     20.6256E-03    -15.2241E+06    -96.0331E+06    -9.69525E+06     3.70485E+06    -23.1220E-03     44.6574E-03    -21.5354E-03     19.4741E-03    -23.0469E-03     44.2155E-03    -21.4226E-03     19.5104E-03
            2073     4.40571E-03     20.6062E-03    -16.5973E+06    -99.3646E+06    -11.6691E+06     3.33126E+06    -22.4139E-03     43.7103E-03    -21.2964E-03     15.7821E-03    -22.3371E-03     43.2556E-03    -21.1866E-03     15.8170E-03
            2074     3.52528E-03     20.5907E-03    -17.8385E+06    -101.008E+06    -14.3482E+06     2.75304E+06    -21.8158E-03     42.9054E-03    -21.0895E-03     12.3206E-03    -21.7384E-03     42.4477E-03    -20.9890E-03     12.3504E-03
            2075     2.64436E-03     20.5788E-03    -18.9952E+06    -102.161E+06    -16.8784E+06     2.12326E+06    -21.3410E-03     42.2638E-03    -20.9228E-03     9.08998E-03    -21.2638E-03     41.8054E-03    -20.8315E-03     9.11352E-03
            2076     1.76313E-03     20.5704E-03    -19.9253E+06    -102.888E+06    -18.8224E+06     1.33715E+06    -20.9892E-03     41.7895E-03    -20.8002E-03     6.05718E-03    -20.9125E-03     41.3314E-03    -20.7163E-03     6.07204E-03
            2077     881.603E-06     20.5652E-03    -20.4903E+06    -103.271E+06    -20.1871E+06     680.256E+03    -20.7667E-03     41.4972E-03    -20.7306E-03     3.27061E-03    -20.6901E-03     41.0399E-03    -20.6520E-03     3.27814E-03
            2078     16.6576E-03     20.6597E-03    -5.17409E+06     161.660E+06     83.3495E+06     310.752E+03    -46.8818E-03     73.3325E-03    -26.4507E-03     248.885E-03    -54.8502E-03     81.6149E-03    -26.2608E-03     252.345E-03
            2079     15.7898E-03     20.3608E-03    -7.99605E+06     122.013E+06     27.7093E+06     1.45294E+06    -46.1831E-03     71.8963E-03    -25.7132E-03     245.996E-03    -51.9758E-03     78.0135E-03    -25.7400E-03     246.391E-03
            2080     14.9181E-03     20.1778E-03    -8.79402E+06     64.0707E+06    -15.8609E+06     2.11020E+06    -37.5436E-03     62.6570E-03    -25.1134E-03     141.056E-03    -38.7370E-03     64.0927E-03    -25.2729E-03     140.737E-03
            2081     14.0463E-03     20.0844E-03    -8.44253E+06     11.0350E+06    -22.7691E+06     1.70602E+06    -33.2596E-03     57.9751E-03    -24.7155E-03     80.2431E-03    -33.5638E-03     58.3546E-03    -24.8331E-03     80.0162E-03
            2082     13.1748E-03     20.0184E-03    -8.04154E+06    -22.7727E+06    -16.0853E+06     1.54976E+06    -32.1117E-03     56.4716E-03    -24.3599E-03     68.3031E-03    -32.2466E-03     56.5438E-03    -24.3956E-03     68.1331E-03
            2083     12.3017E-03     19.9474E-03    -7.71112E+06    -38.3536E+06    -9.30218E+06     1.94618E+06    -31.2408E-03     55.2137E-03    -23.9729E-03     64.3269E-03    -31.3070E-03     55.1434E-03    -23.9526E-03     64.2098E-03
            2084     11.4282E-03     19.8880E-03     -7.9833E+06    -52.2396E+06    -6.95284E+06     2.38742E+06    -30.0508E-03     53.6107E-03    -23.5600E-03     53.7450E-03    -30.0611E-03     53.4275E-03    -23.5074E-03     53.6719E-03
            2085     10.5538E-03     19.8368E-03    -8.34601E+06    -65.4067E+06    -7.72218E+06     2.62295E+06    -28.8763E-03     52.0131E-03    -23.1368E-03     46.6701E-03    -28.8464E-03     51.7438E-03    -23.0685E-03     46.6280E-03
            2086     9.67841E-03     19.7908E-03    -8.80050E+06    -73.0663E+06    -5.35568E+06     2.81149E+06    -27.7485E-03     50.4827E-03    -22.7342E-03     41.1326E-03    -27.7005E-03     50.1596E-03    -22.6423E-03     41.1135E-03
            2087     8.80221E-03     19.7502E-03    -9.48307E+06    -77.3076E+06    -3.67851E+06     3.16940E+06    -26.6192E-03     48.9597E-03    -22.3405E-03     35.7747E-03    -26.5627E-03     48.6058E-03    -22.2331E-03     35.7753E-03
            2088     7.92504E-03     19.7146E-03    -10.4407E+06    -82.1929E+06    -4.38652E+06     3.59417E+06    -25.5340E-03     47.4924E-03    -21.9584E-03     30.8554E-03    -25.4691E-03     47.1114E-03    -21.8460E-03     30.8727E-03
            2089     7.04704E-03     19.6838E-03    -11.4864E+06    -87.4895E+06    -5.40166E+06     4.02943E+06    -24.5086E-03     46.1103E-03    -21.6017E-03     26.2971E-03    -24.4366E-03     45.7026E-03    -21.4852E-03     26.3281E-03
            2090     6.16820E-03     19.6574E-03    -12.7245E+06    -91.5295E+06    -6.62439E+06     4.40273E+06    -23.5520E-03     44.8251E-03    -21.2731E-03     22.0892E-03    -23.4765E-03     44.3987E-03    -21.1551E-03     22.1309E-03
            2091     5.28860E-03     19.6351E-03    -14.2022E+06    -94.9437E+06    -8.66079E+06      4.3851E+06    -22.6846E-03     43.6591E-03    -20.9745E-03     18.2361E-03    -22.6073E-03     43.2194E-03    -20.8596E-03     18.2820E-03
            2092     4.40830E-03     19.6167E-03    -15.7039E+06    -97.7978E+06    -11.4488E+06     3.85511E+06    -21.9177E-03     42.6278E-03    -20.7101E-03     14.7068E-03    -21.8389E-03     42.1792E-03    -20.6028E-03     14.7490E-03
            2093     3.52738E-03     19.6020E-03    -17.0180E+06    -99.5424E+06    -14.1611E+06     3.22008E+06    -21.2697E-03     41.7563E-03    -20.4866E-03     11.4441E-03    -21.1906E-03     41.3044E-03    -20.3884E-03     11.4803E-03
            2094     2.64601E-03     19.5907E-03    -18.0640E+06    -100.361E+06    -16.2152E+06     2.50371E+06    -20.7570E-03     41.0661E-03    -20.3090E-03     8.42011E-03    -20.6786E-03     40.6142E-03    -20.2184E-03     8.44889E-03
            2095     1.76421E-03     19.5828E-03    -18.9288E+06    -101.153E+06    -18.0403E+06     1.64676E+06    -20.3822E-03     40.5602E-03    -20.1780E-03     5.59302E-03    -20.3042E-03     40.1082E-03    -20.0941E-03     5.61208E-03
            2096     882.190E-06     19.5779E-03    -19.5694E+06    -101.703E+06    -19.4499E+06     846.336E+03    -20.1402E-03     40.2460E-03    -20.1058E-03     3.01252E-03    -20.0624E-03     39.7941E-03    -20.0272E-03     3.02231E-03
            2097     16.6578E-03     19.6497E-03    -5.50490E+06     160.541E+06     82.5328E+06     259.958E+03    -47.6439E-03     74.0822E-03    -26.4383E-03     247.391E-03    -55.4909E-03     82.2404E-03    -26.2505E-03     250.689E-03
            2098     15.7890E-03     19.3523E-03    -9.15408E+06     120.657E+06     27.8752E+06     1.58468E+06    -47.6375E-03     73.2762E-03    -25.6387E-03     243.838E-03    -53.3463E-03     79.3002E-03    -25.6610E-03     244.124E-03
            2099     14.9214E-03     19.1733E-03    -9.98298E+06     64.4820E+06    -15.8619E+06     2.14704E+06    -38.8133E-03     63.7552E-03    -24.9420E-03     138.380E-03    -39.9812E-03     65.1628E-03    -25.1003E-03     138.032E-03
            2100     14.0506E-03     19.0811E-03    -8.64769E+06     11.9279E+06    -23.5890E+06     1.61958E+06    -33.7832E-03     58.2474E-03    -24.4642E-03     77.8697E-03    -34.0760E-03     58.6203E-03    -24.5869E-03     77.6397E-03
            2101     13.1781E-03     19.0165E-03    -7.65223E+06    -22.6722E+06    -16.3662E+06     1.43377E+06    -32.4018E-03     56.4650E-03    -24.0632E-03     66.1748E-03    -32.5285E-03     56.5316E-03    -24.1010E-03     66.0045E-03
            2102     12.3060E-03     18.9466E-03    -7.66109E+06    -38.9936E+06    -9.93479E+06     2.12508E+06    -31.5016E-03     55.1323E-03    -23.6307E-03     62.2464E-03    -31.5619E-03     55.0558E-03    -23.6127E-03     62.1330E-03
            2103     11.4326E-03     18.8888E-03    -7.73959E+06    -52.2356E+06    -7.07485E+06     2.69178E+06    -30.1055E-03     53.2821E-03    -23.1766E-03     51.6185E-03    -30.1114E-03     53.0957E-03    -23.1250E-03     51.5519E-03
            2104     10.5582E-03     18.8391E-03    -7.99487E+06    -65.1840E+06    -7.86522E+06     2.85489E+06    -28.8379E-03     51.5542E-03    -22.7163E-03     44.7115E-03    -28.8043E-03     51.2837E-03    -22.6495E-03     44.6748E-03
            2105     9.68282E-03     18.7946E-03    -8.26853E+06    -73.1032E+06    -5.64771E+06     3.08317E+06    -27.6293E-03     49.9079E-03    -22.2786E-03     39.2323E-03    -27.5766E-03     49.5828E-03    -22.1889E-03     39.2188E-03
            2106     8.80643E-03     18.7555E-03    -8.93384E+06    -77.4552E+06    -3.97140E+06     3.55954E+06    -26.4229E-03     48.2752E-03    -21.8523E-03     33.9274E-03    -26.3620E-03     47.9192E-03    -21.7469E-03     33.9350E-03
            2107     7.92913E-03     18.7214E-03    -9.90323E+06    -82.1937E+06    -4.57954E+06     4.10625E+06    -25.2660E-03     46.7052E-03    -21.4392E-03     29.0810E-03    -25.1974E-03     46.3229E-03    -21.3285E-03     29.1064E-03
            2108     7.05086E-03     18.6919E-03    -11.1175E+06    -87.3462E+06    -5.71064E+06     4.58310E+06    -24.1690E-03     45.2215E-03    -21.0525E-03     24.6217E-03    -24.0943E-03     44.8139E-03    -20.9383E-03     24.6612E-03
            2109     6.17172E-03     18.6667E-03    -12.3497E+06    -91.0425E+06    -7.06315E+06     4.92419E+06    -23.1460E-03     43.8414E-03    -20.6954E-03     20.5511E-03    -23.0683E-03     43.4172E-03    -20.5808E-03     20.6007E-03
            2110     5.29175E-03     18.6457E-03    -13.4732E+06    -93.7147E+06    -8.72856E+06     4.94224E+06    -22.2136E-03     42.5860E-03    -20.3724E-03     16.8632E-03    -22.1341E-03     42.1513E-03    -20.2606E-03     16.9171E-03
            2111     4.41102E-03     18.6283E-03    -14.7205E+06    -96.1358E+06    -11.1469E+06     4.58916E+06    -21.3904E-03     41.4776E-03    -20.0872E-03     13.5152E-03    -21.3094E-03     41.0354E-03    -19.9822E-03     13.5675E-03
            2112     3.52966E-03     18.6144E-03    -15.9682E+06    -97.6417E+06    -13.8196E+06     3.82237E+06    -20.6911E-03     40.5364E-03    -19.8454E-03     10.4649E-03    -20.6098E-03     40.0919E-03    -19.7497E-03     10.5094E-03
            2113     2.64770E-03     18.6039E-03    -16.9333E+06    -98.3942E+06    -15.6523E+06     2.86962E+06    -20.1355E-03     39.7910E-03    -19.6554E-03     7.67169E-03    -20.0551E-03     39.3465E-03    -19.5665E-03     7.70553E-03
            2114     1.76538E-03     18.5964E-03    -17.6249E+06    -99.1363E+06    -17.0217E+06     2.02121E+06    -19.7379E-03     39.2548E-03    -19.5169E-03     5.07449E-03    -19.6578E-03     38.8095E-03    -19.4327E-03     5.09859E-03
            2115     882.760E-06     18.5918E-03    -18.0766E+06    -99.6853E+06    -18.0391E+06     1.17972E+06    -19.4906E-03     38.9189E-03    -19.4282E-03     2.73995E-03    -19.4103E-03     38.4729E-03    -19.3477E-03     2.75414E-03
            2116     16.6552E-03     18.6363E-03    -5.37684E+06     159.623E+06     81.2360E+06     851.045E+03    -48.8574E-03     75.2807E-03    -26.4233E-03     244.600E-03    -56.5392E-03     83.2745E-03    -26.2408E-03     247.686E-03
            2117     15.7913E-03     18.3427E-03    -9.56546E+06     119.832E+06     27.9870E+06     1.55415E+06    -49.3230E-03     74.8496E-03    -25.5266E-03     237.853E-03    -54.8411E-03     80.6781E-03    -25.5465E-03     237.973E-03
            2118     14.9236E-03     18.1658E-03    -10.1416E+06     65.3204E+06    -14.8090E+06     1.61034E+06    -39.6815E-03     64.4064E-03    -24.7249E-03     133.200E-03    -40.7998E-03     65.7637E-03    -24.8789E-03     132.826E-03
            2119     14.0544E-03     18.0783E-03    -9.23900E+06     12.4202E+06    -24.9781E+06     1.34810E+06    -34.2309E-03     58.3986E-03    -24.1677E-03     74.8985E-03    -34.5116E-03     58.7632E-03    -24.2972E-03     74.6652E-03
            2120     13.1832E-03     18.0144E-03    -8.29909E+06    -22.9852E+06    -17.7880E+06     1.52860E+06    -32.6850E-03     56.4038E-03    -23.7187E-03     64.4027E-03    -32.8069E-03     56.4662E-03    -23.7623E-03     64.2353E-03
            2121     12.3107E-03     17.9460E-03    -7.73876E+06    -39.6575E+06    -11.2179E+06     2.10757E+06    -31.6250E-03     54.8688E-03    -23.2438E-03     60.0338E-03    -31.6782E-03     54.7864E-03    -23.2312E-03     59.9229E-03
            2122     11.4374E-03     17.8901E-03    -7.45744E+06    -52.4396E+06    -7.82813E+06     2.73874E+06    -30.1065E-03     52.8592E-03    -22.7527E-03     49.4054E-03    -30.1061E-03     52.6689E-03    -22.7050E-03     49.3427E-03
            2123     10.5630E-03     17.8420E-03    -7.41214E+06    -65.0122E+06    -8.09871E+06     3.14673E+06    -28.7743E-03     51.0319E-03    -22.2576E-03     42.5779E-03    -28.7354E-03     50.7594E-03    -22.1931E-03     42.5478E-03
            2124     9.68754E-03     17.7991E-03    -7.81866E+06    -73.1657E+06    -6.15081E+06     3.45169E+06    -27.4892E-03     49.2724E-03    -21.7832E-03     37.1022E-03    -27.4317E-03     48.9454E-03    -21.6966E-03     37.0960E-03
            2125     8.81109E-03     17.7615E-03    -8.44208E+06    -77.6846E+06    -4.38303E+06     3.96831E+06    -26.2052E-03     47.5279E-03    -21.3227E-03     31.8428E-03    -26.1397E-03     47.1694E-03    -21.2197E-03     31.8578E-03
            2126     7.93356E-03     17.7289E-03    -9.36128E+06    -82.3797E+06    -4.84079E+06     4.74285E+06    -24.9693E-03     45.8464E-03    -20.8770E-03     27.0817E-03    -24.8965E-03     45.4619E-03    -20.7682E-03     27.1172E-03
            2127     7.05505E-03     17.7009E-03    -10.5188E+06    -87.0127E+06    -5.92593E+06     5.33932E+06    -23.7940E-03     44.2529E-03    -20.4589E-03     22.7519E-03    -23.7159E-03     43.8458E-03    -20.3471E-03     22.8026E-03
            2128     6.17556E-03     17.6771E-03    -11.6924E+06    -90.2581E+06    -7.61713E+06     5.43436E+06    -22.6941E-03     42.7656E-03    -20.0715E-03     18.8467E-03    -22.6131E-03     42.3447E-03    -19.9617E-03     18.9041E-03
            2129     5.29516E-03     17.6573E-03    -12.7959E+06    -92.6420E+06    -9.22025E+06     5.42534E+06    -21.6935E-03     41.4175E-03    -19.7241E-03     15.3510E-03    -21.6112E-03     40.9877E-03    -19.6173E-03     15.4121E-03
            2130     4.41397E-03     17.6410E-03    -13.8560E+06    -94.4020E+06    -10.6862E+06     5.19136E+06    -20.8116E-03     40.2335E-03    -19.4219E-03     12.2209E-03    -20.7293E-03     39.7979E-03    -19.3184E-03     12.2817E-03
            2131     3.53206E-03     17.6281E-03    -14.8341E+06    -95.3239E+06    -12.9232E+06     4.41345E+06    -20.0681E-03     39.2321E-03    -19.1640E-03     9.41920E-03    -19.9858E-03     38.7961E-03    -19.0688E-03     9.47187E-03
            2132     2.64959E-03     17.6183E-03    -15.7046E+06    -96.1549E+06    -14.8569E+06     3.38275E+06    -19.4777E-03     38.4368E-03    -18.9592E-03     6.88004E-03    -19.3955E-03     38.0006E-03    -18.8713E-03     6.92084E-03
            2133     1.76664E-03     17.6113E-03    -16.3482E+06    -96.8685E+06    -16.0006E+06     2.35840E+06    -19.0501E-03     37.8607E-03    -18.8106E-03     4.53529E-03    -18.9683E-03     37.4233E-03    -18.7264E-03     4.56395E-03
            2134     883.407E-06     17.6071E-03    -16.7088E+06    -97.1971E+06    -16.5922E+06     1.32061E+06    -18.7838E-03     37.4993E-03    -18.7155E-03     2.42546E-03    -18.7024E-03     37.0617E-03    -18.6333E-03     2.44158E-03
            2135     16.6585E-03     17.6206E-03    -5.10278E+06     159.038E+06     80.5278E+06     1.32722E+06    -51.1766E-03     77.4883E-03    -26.3116E-03     241.299E-03    -58.6524E-03     85.2771E-03    -26.1322E-03     244.061E-03
            2136     15.7957E-03     17.3315E-03    -8.31015E+06     119.847E+06     28.0144E+06     1.41955E+06    -50.2283E-03     75.5269E-03    -25.2986E-03     231.740E-03    -55.5058E-03     81.1194E-03    -25.3202E-03     231.724E-03
            2137     14.9299E-03     17.1596E-03    -8.78841E+06     65.9960E+06    -14.4737E+06     1.54390E+06    -39.8424E-03     64.2714E-03    -24.4290E-03     128.238E-03    -40.8953E-03     65.5697E-03    -24.5843E-03     127.860E-03
            2138     14.0590E-03     17.0751E-03    -8.52319E+06     12.8577E+06    -25.8618E+06     1.81829E+06    -34.3438E-03     58.1716E-03    -23.8278E-03     71.8241E-03    -34.6046E-03     58.5229E-03    -23.9634E-03     71.6015E-03
            2139     13.1876E-03     17.0122E-03    -8.25764E+06    -23.3190E+06    -19.1260E+06     1.90985E+06    -32.9070E-03     56.2467E-03    -23.3396E-03     62.4376E-03    -33.0197E-03     56.3028E-03    -23.3895E-03     62.2778E-03
            2140     12.3158E-03     16.9458E-03    -7.76919E+06    -40.2220E+06    -12.7428E+06     2.02355E+06    -31.7612E-03     54.5819E-03    -22.8207E-03     57.6850E-03    -31.8065E-03     54.4938E-03    -22.8148E-03     57.5763E-03
            2141     11.4427E-03     16.8917E-03    -7.50036E+06    -52.9354E+06    -8.95456E+06     2.67975E+06    -30.1423E-03     52.4306E-03    -22.2883E-03     46.9686E-03    -30.1360E-03     52.2359E-03    -22.2455E-03     46.9085E-03
            2142     10.5682E-03     16.8453E-03    -7.49488E+06    -65.0670E+06    -8.66871E+06     3.39735E+06    -28.7117E-03     50.4657E-03    -21.7540E-03     40.2180E-03    -28.6697E-03     50.1913E-03    -21.6921E-03     40.1942E-03
            2143     9.69280E-03     16.8041E-03    -7.68225E+06    -73.1468E+06    -6.65061E+06     3.82142E+06    -27.3405E-03     48.5800E-03    -21.2395E-03     34.7272E-03    -27.2799E-03     48.2518E-03    -21.1555E-03     34.7285E-03
            2144     8.81616E-03     16.7683E-03     -8.2447E+06    -77.9648E+06    -4.82983E+06     4.37947E+06    -25.9526E-03     46.6943E-03    -20.7417E-03     29.5398E-03    -25.8837E-03     46.3335E-03    -20.6409E-03     29.5625E-03
            2145     7.93843E-03     16.7374E-03    -8.91685E+06    -82.7318E+06    -5.03571E+06     5.20065E+06    -24.6234E-03     44.8861E-03    -20.2626E-03     24.8932E-03    -24.5467E-03     44.4987E-03    -20.1549E-03     24.9366E-03
            2146     7.05958E-03     16.7109E-03    -9.50698E+06    -86.4822E+06    -5.93645E+06     5.79401E+06    -23.3585E-03     43.1712E-03    -19.8127E-03     20.7204E-03    -23.2755E-03     42.7647E-03    -19.7032E-03     20.7786E-03
            2147     6.17969E-03     16.6886E-03    -10.2616E+06    -89.3898E+06    -6.79333E+06     6.03668E+06    -22.1767E-03     41.5789E-03    -19.4022E-03     17.0114E-03    -22.0906E-03     41.1587E-03    -19.2917E-03     17.0778E-03
            2148     5.29885E-03     16.6701E-03    -11.4006E+06    -91.5656E+06    -8.16546E+06     6.14951E+06    -21.1040E-03     40.1387E-03    -19.0347E-03     13.7544E-03    -21.0176E-03     39.7104E-03    -18.9262E-03     13.8258E-03
            2149     4.41710E-03     16.6550E-03    -12.6168E+06    -92.3800E+06    -10.0428E+06     5.75808E+06    -20.1669E-03     38.8801E-03    -18.7132E-03     10.8849E-03    -20.0821E-03     38.4517E-03    -18.6112E-03     10.9537E-03
            2150     3.53462E-03     16.6431E-03    -13.6275E+06    -92.9823E+06    -11.9279E+06     4.93534E+06    -19.3882E-03     37.8324E-03    -18.4442E-03     8.35214E-03    -19.3046E-03     37.4049E-03    -18.3493E-03     8.41203E-03
            2151     2.65151E-03     16.6340E-03    -14.4359E+06    -93.5754E+06    -13.6808E+06     3.97933E+06    -18.7734E-03     37.0033E-03    -18.2299E-03     6.07912E-03    -18.6902E-03     36.5763E-03    -18.1417E-03     6.12796E-03
            2152     1.76796E-03     16.6277E-03    -15.1055E+06    -94.1247E+06    -14.9057E+06     2.77484E+06    -18.3221E-03     36.3960E-03    -18.0739E-03     4.01099E-03    -18.2396E-03     35.9690E-03    -17.9901E-03     4.04523E-03
            2153     884.075E-06     16.6237E-03    -15.4846E+06    -94.3561E+06    -15.5499E+06     1.46748E+06    -18.0556E-03     36.0216E-03    -17.9660E-03     2.13979E-03    -17.9737E-03     35.5949E-03    -17.8845E-03     2.15791E-03
            2154     16.6626E-03     16.6049E-03    -4.21319E+06     158.715E+06     80.9721E+06     1.17486E+06    -53.7523E-03     79.9048E-03    -26.1525E-03     237.818E-03    -60.9673E-03     87.4338E-03    -25.9717E-03     240.238E-03
            2155     15.8000E-03     16.3192E-03    -6.56884E+06     119.898E+06     28.7344E+06     1.94292E+06    -50.6491E-03     75.6833E-03    -25.0342E-03     226.765E-03    -55.6791E-03     81.0327E-03    -25.0549E-03     226.676E-03
            2156     14.9332E-03     16.1532E-03    -8.03822E+06     65.8886E+06    -14.9585E+06     2.45802E+06    -39.9964E-03     64.1072E-03    -24.1108E-03     123.803E-03    -40.9825E-03     65.3424E-03    -24.2695E-03     123.437E-03
            2157     14.0645E-03     16.0720E-03    -8.21418E+06     13.8017E+06    -26.6188E+06     2.56384E+06    -34.6341E-03     58.0979E-03    -23.4638E-03     69.4505E-03    -34.8795E-03     58.4404E-03    -23.6050E-03     69.2401E-03
            2158     13.1934E-03     16.0106E-03    -7.86749E+06    -22.9942E+06    -20.0797E+06     2.19796E+06    -33.2132E-03     56.1407E-03    -22.9275E-03     60.4168E-03    -33.3163E-03     56.1925E-03    -22.9831E-03     60.2629E-03
            2159     12.3214E-03     15.9455E-03    -7.55640E+06    -40.4783E+06    -13.5665E+06     2.33438E+06    -31.9439E-03     54.3033E-03    -22.3594E-03     54.9605E-03    -31.9807E-03     54.2090E-03    -22.3576E-03     54.8594E-03
            2160     11.4484E-03     15.8938E-03    -7.69997E+06    -53.4499E+06    -9.70204E+06     2.89945E+06    -30.2148E-03     51.9933E-03    -21.7785E-03     44.2370E-03    -30.2038E-03     51.7934E-03    -21.7383E-03     44.1833E-03
            2161     10.5741E-03     15.8491E-03    -7.78139E+06    -65.2216E+06    -9.16578E+06     3.45564E+06    -28.6713E-03     49.8681E-03    -21.1968E-03     37.5838E-03    -28.6272E-03     49.5915E-03    -21.1368E-03     37.5641E-03
            2162     9.69860E-03     15.8099E-03    -7.79976E+06    -73.2719E+06    -7.04394E+06     4.03377E+06    -27.1644E-03     47.8018E-03    -20.6375E-03     32.0663E-03    -27.1016E-03     47.4718E-03    -20.5551E-03     32.0733E-03
            2163     8.82182E-03     15.7759E-03    -8.13690E+06    -78.2538E+06    -5.05307E+06     4.72072E+06    -25.6578E-03     45.7577E-03    -20.0999E-03     26.9649E-03    -25.5863E-03     45.3942E-03    -19.9999E-03     26.9946E-03
            2164     7.94379E-03     15.7468E-03    -8.68179E+06    -82.8454E+06    -4.98991E+06     5.40204E+06    -24.2059E-03     43.7924E-03    -19.5865E-03     22.4576E-03    -24.1270E-03     43.4031E-03    -19.4787E-03     22.5057E-03
            2165     7.06456E-03     15.7221E-03    -9.29071E+06    -86.1223E+06    -5.89768E+06     5.99543E+06    -22.8280E-03     41.9354E-03    -19.1074E-03     18.4838E-03    -22.7440E-03     41.5298E-03    -18.9985E-03     18.5463E-03
            2166     6.18420E-03     15.7013E-03    -10.0333E+06    -88.7039E+06    -6.74765E+06     6.50199E+06    -21.5523E-03     40.2279E-03    -18.6756E-03     15.0307E-03    -21.4658E-03     39.8104E-03    -18.5661E-03     15.1044E-03
            2167     5.30275E-03     15.6843E-03    -10.7425E+06    -90.2430E+06    -7.65410E+06     6.61812E+06    -20.4151E-03     38.7102E-03    -18.2951E-03     12.0688E-03    -20.3279E-03     38.2867E-03    -18.1870E-03     12.1471E-03
            2168     4.42041E-03     15.6704E-03    -11.3418E+06    -90.2342E+06    -9.33918E+06     6.22890E+06    -19.4417E-03     37.4063E-03    -17.9646E-03     9.51034E-03    -19.3546E-03     36.9857E-03    -17.8640E-03     9.58585E-03
            2169     3.53728E-03     15.6595E-03    -12.0413E+06    -90.5620E+06    -11.0557E+06     5.51384E+06    -18.6459E-03     36.3374E-03    -17.6915E-03     7.27934E-03    -18.5591E-03     35.9184E-03    -17.5980E-03     7.34717E-03
            2170     2.65354E-03     15.6512E-03    -12.8092E+06    -90.7887E+06    -12.3665E+06     4.58393E+06    -18.0238E-03     35.5006E-03    -17.4769E-03     5.28159E-03    -17.9384E-03     35.0833E-03    -17.3885E-03     5.33854E-03
            2171     1.76928E-03     15.6455E-03    -13.4013E+06     -90.868E+06    -13.4502E+06     3.35987E+06    -17.5681E-03     34.8884E-03    -17.3203E-03     3.46129E-03    -17.4839E-03     34.4731E-03    -17.2364E-03     3.50329E-03
            2172     884.698E-06     15.6420E-03    -13.8862E+06    -90.9673E+06    -14.1058E+06     1.94694E+06    -17.2949E-03     34.5153E-03    -17.2204E-03     1.88065E-03    -17.2120E-03     34.1011E-03    -17.1389E-03     1.90506E-03
            2173     16.6647E-03     15.5858E-03    -4.00454E+06     157.479E+06     80.1391E+06     336.171E+03    -55.9625E-03     81.9868E-03    -26.0243E-03     232.740E-03    -62.8709E-03     89.2082E-03    -25.8461E-03     234.804E-03
            2174     15.8043E-03     15.3073E-03    -7.10770E+06     118.482E+06     28.5518E+06     2.48764E+06    -51.5321E-03     76.3302E-03    -24.7981E-03     220.875E-03    -56.3143E-03     81.4256E-03    -24.8168E-03     220.682E-03
            2175     14.9391E-03     15.1468E-03    -8.74382E+06     66.1053E+06    -15.4032E+06     3.65172E+06    -40.3815E-03     64.1818E-03    -23.8003E-03     119.069E-03    -41.3015E-03     65.3504E-03    -23.9605E-03     118.717E-03
            2176     14.0690E-03     15.0690E-03    -8.48334E+06     15.3450E+06    -27.8147E+06     3.14982E+06    -35.2921E-03     58.3762E-03    -23.0842E-03     66.7788E-03    -35.5261E-03     58.7154E-03    -23.2332E-03     66.5756E-03
            2177     13.1989E-03     15.0083E-03    -7.98151E+06    -22.4622E+06    -20.9335E+06     2.60771E+06    -33.7507E-03     56.2322E-03    -22.4815E-03     57.9244E-03    -33.8467E-03     56.2810E-03    -22.5420E-03     57.7767E-03
            2178     12.3278E-03     14.9460E-03    -7.88261E+06    -40.5005E+06    -14.2612E+06     2.86702E+06    -32.1651E-03     54.0172E-03    -21.8521E-03     52.0486E-03    -32.1961E-03     53.9179E-03    -21.8532E-03     51.9586E-03
            2179     11.4548E-03     14.8961E-03    -7.94642E+06    -53.5731E+06    -10.1554E+06     3.19711E+06    -30.3335E-03     51.5489E-03    -21.2154E-03     41.3243E-03    -30.3188E-03     51.3454E-03    -21.1770E-03     41.2783E-03
            2180     10.5807E-03     14.8536E-03    -7.92823E+06    -65.3483E+06    -9.43914E+06     3.53253E+06    -28.6642E-03     49.2425E-03    -20.5783E-03     34.6499E-03    -28.6173E-03     48.9630E-03    -20.5192E-03     34.6347E-03
            2181     9.70510E-03     14.8164E-03    -7.96836E+06    -73.5715E+06    -7.23407E+06     4.07490E+06    -26.9798E-03     46.9477E-03    -19.9678E-03     29.1268E-03    -26.9153E-03     46.6147E-03    -19.8858E-03     29.1376E-03
            2182     8.82813E-03     14.7845E-03    -8.16851E+06    -78.5838E+06    -4.98802E+06     4.86833E+06    -25.3051E-03     44.6923E-03    -19.3872E-03     24.1104E-03    -25.2321E-03     44.3259E-03    -19.2864E-03     24.1447E-03
            2183     7.94976E-03     14.7573E-03    -8.64003E+06    -82.7267E+06    -4.53962E+06     5.55768E+06    -23.6953E-03     42.5352E-03    -18.8399E-03     19.7882E-03    -23.6162E-03     42.1449E-03    -18.7301E-03     19.8406E-03
            2184     7.07005E-03     14.7345E-03    -9.21365E+06    -85.9754E+06    -5.02357E+06     6.15243E+06    -22.1873E-03     40.5252E-03    -18.3379E-03     16.0630E-03    -22.1038E-03     40.1184E-03    -18.2250E-03     16.1292E-03
            2185     6.18905E-03     14.7155E-03    -9.72293E+06    -88.0040E+06    -5.96939E+06      6.6396E+06    -20.8244E-03     38.7134E-03    -17.8890E-03     12.8966E-03    -20.7382E-03     38.2975E-03    -17.7771E-03     12.9733E-03
            2186     5.30697E-03     14.6999E-03    -10.1251E+06    -88.7000E+06    -7.31444E+06     6.60931E+06    -19.6327E-03     37.1295E-03    -17.4968E-03     10.2398E-03    -19.5449E-03     36.7120E-03    -17.3901E-03     10.3190E-03
            2187     4.42389E-03     14.6873E-03    -10.4170E+06    -88.3594E+06    -8.79768E+06     6.30766E+06    -18.6305E-03     35.7953E-03    -17.1648E-03     8.00112E-03    -18.5422E-03     35.3818E-03    -17.0655E-03     8.07832E-03
            2188     3.54003E-03     14.6774E-03    -10.6423E+06    -88.1355E+06    -10.0952E+06     5.87629E+06    -17.8255E-03     34.7212E-03    -16.8957E-03     6.08550E-03    -17.7366E-03     34.3108E-03    -16.8029E-03     6.15847E-03
            2189     2.65556E-03     14.6700E-03    -10.8386E+06    -87.7887E+06    -10.8106E+06      5.0088E+06    -17.2113E-03     33.9005E-03    -16.6892E-03     4.41215E-03    -17.1227E-03     33.4931E-03    -16.6003E-03     4.47491E-03
            2190     1.77065E-03     14.6648E-03    -10.9850E+06    -87.3108E+06    -11.0593E+06     3.76308E+06    -16.7840E-03     33.3244E-03    -16.5404E-03     2.88742E-03    -16.6964E-03     32.9198E-03    -16.4532E-03     2.93483E-03
            2191     885.441E-06     14.6616E-03    -10.9757E+06    -86.8153E+06    -11.0420E+06     2.25193E+06    -16.5267E-03     32.9592E-03    -16.4325E-03     1.54627E-03    -16.4397E-03     32.5571E-03    -16.3460E-03     1.57475E-03
            2192     16.6656E-03     14.5636E-03    -4.68179E+06     155.964E+06     78.8189E+06     192.519E+03    -57.9310E-03     83.8542E-03    -25.9232E-03     226.098E-03    -64.4994E-03     90.7317E-03    -25.7485E-03     227.827E-03
            2193     15.8075E-03     14.2930E-03    -9.13529E+06     115.841E+06     26.9442E+06     2.47359E+06    -52.6401E-03     77.2148E-03    -24.5747E-03     212.334E-03    -57.1183E-03     81.9945E-03    -24.5947E-03     211.997E-03
            2194     14.9424E-03     14.1407E-03    -10.3071E+06     66.3814E+06    -15.8545E+06     3.76282E+06    -41.1642E-03     64.6447E-03    -23.4805E-03     113.814E-03    -42.0235E-03     65.7494E-03    -23.6411E-03     113.455E-03
            2195     14.0752E-03     14.0644E-03    -9.42667E+06     16.8808E+06    -28.4573E+06     3.45404E+06    -36.1329E-03     58.8112E-03    -22.6784E-03     63.6750E-03    -36.3588E-03     59.1463E-03    -22.8315E-03     63.4742E-03
            2196     13.2058E-03     14.0066E-03    -8.48423E+06    -21.9175E+06    -21.5067E+06     3.14786E+06    -34.2912E-03     56.2900E-03    -21.9988E-03     54.9736E-03    -34.3810E-03     56.3344E-03    -22.0622E-03     54.8353E-03
            2197     12.3344E-03     13.9462E-03    -8.11324E+06    -40.4622E+06    -14.7167E+06     3.29066E+06    -32.5166E-03     53.8157E-03    -21.2991E-03     48.8925E-03    -32.5413E-03     53.7108E-03    -21.3022E-03     48.8123E-03
            2198     11.4620E-03     13.8989E-03    -8.05645E+06    -53.3619E+06    -10.0328E+06     3.45467E+06    -30.5286E-03     51.1250E-03    -20.5964E-03     38.1494E-03    -30.5106E-03     50.9182E-03    -20.5575E-03     38.1108E-03
            2199     10.5879E-03     13.8586E-03    -8.13593E+06    -65.2722E+06    -9.36284E+06     3.63485E+06    -28.6785E-03     48.5728E-03    -19.8943E-03     31.4024E-03    -28.6301E-03     48.2911E-03    -19.8347E-03     31.3921E-03
            2200     9.71239E-03     13.8238E-03    -8.19981E+06    -73.9113E+06    -7.12892E+06     4.10372E+06    -26.7776E-03     46.0041E-03    -19.2265E-03     25.8912E-03    -26.7119E-03     45.6677E-03    -19.1431E-03     25.9056E-03
            2201     8.83515E-03     13.7942E-03    -8.52214E+06    -78.9539E+06    -4.66161E+06     4.89948E+06    -24.8835E-03     43.4836E-03    -18.6001E-03     21.0417E-03    -24.8110E-03     43.1141E-03    -18.4966E-03     21.0791E-03
            2202     7.95637E-03     13.7692E-03    -8.99629E+06    -82.5713E+06    -3.94073E+06     5.58907E+06    -23.1048E-03     41.1230E-03    -18.0181E-03     16.9208E-03    -23.0278E-03     40.7323E-03    -17.9051E-03     16.9757E-03
            2203     7.07604E-03     13.7484E-03    -9.47826E+06    -85.6862E+06    -3.96881E+06     6.03139E+06    -21.4763E-03     38.9692E-03    -17.4929E-03     13.4399E-03    -21.3956E-03     38.5622E-03    -17.3747E-03     13.5062E-03
            2204     6.19442E-03     13.7311E-03    -9.84635E+06    -87.2486E+06    -4.98621E+06     6.35793E+06    -20.0284E-03     37.0542E-03    -17.0258E-03     10.5487E-03    -19.9450E-03     36.6405E-03    -16.9099E-03     10.6230E-03
            2205     5.31158E-03     13.7171E-03    -10.0768E+06    -87.1272E+06    -6.87822E+06     6.34127E+06    -18.7814E-03     35.4009E-03    -16.6195E-03     8.19931E-03    -18.6961E-03     34.9904E-03    -16.5129E-03     8.27588E-03
            2206     4.42777E-03     13.7058E-03    -10.1226E+06    -86.6553E+06    -8.18940E+06     6.00763E+06    -17.7459E-03     34.0296E-03    -16.2836E-03     6.29166E-03    -17.6594E-03     33.6231E-03    -16.1842E-03     6.36561E-03
            2207     3.54313E-03     13.6970E-03    -9.83492E+06    -85.8089E+06    -8.69936E+06     5.49634E+06    -16.9196E-03     32.9382E-03    -16.0185E-03     4.71264E-03    -16.8319E-03     32.5361E-03    -15.9234E-03     4.78116E-03
            2208     2.65785E-03     13.6903E-03    -9.20550E+06    -84.7757E+06    -8.60407E+06     4.57744E+06    -16.3054E-03     32.1271E-03    -15.8217E-03     3.39404E-03    -16.2161E-03     31.7291E-03    -15.7285E-03     3.45155E-03
            2209     1.77211E-03     13.6856E-03    -8.41451E+06    -83.7326E+06    -8.10275E+06     3.27239E+06    -15.9015E-03     31.5872E-03    -15.6857E-03     2.22733E-03    -15.8105E-03     31.1925E-03    -15.5926E-03     2.26861E-03
            2210     886.128E-06     13.6828E-03    -7.68069E+06    -82.7689E+06    -7.48041E+06     1.82516E+06    -15.7137E-03     31.2624E-03    -15.5487E-03     1.17663E-03    -15.6213E-03     30.8706E-03    -15.4549E-03     1.19971E-03
            2211     16.6678E-03     13.5354E-03    -5.06569E+06     155.031E+06     80.0474E+06     601.648E+03    -60.0456E-03     85.8741E-03    -25.8286E-03     219.663E-03    -66.2931E-03     92.4225E-03    -25.6458E-03     221.088E-03
            2212     15.8121E-03     13.2801E-03    -8.21041E+06     113.929E+06     26.7394E+06     2.41374E+06    -54.0371E-03     78.3664E-03    -24.3293E-03     201.268E-03    -58.1226E-03     82.7507E-03    -24.3488E-03     200.787E-03
            2213     14.9489E-03     13.1322E-03    -8.59133E+06     66.1698E+06    -17.1270E+06     4.05019E+06    -41.8959E-03     65.0111E-03    -23.1152E-03     107.716E-03    -42.6658E-03     66.0356E-03    -23.2844E-03     107.358E-03
            2214     14.0812E-03     13.0603E-03    -8.32094E+06     18.2178E+06    -28.4193E+06     4.37387E+06    -36.8184E-03     59.0586E-03    -22.2402E-03     60.4953E-03    -37.0243E-03     59.3822E-03    -22.3966E-03     60.3082E-03
            2215     13.2120E-03     13.0042E-03    -7.98669E+06    -21.3764E+06    -21.9791E+06     3.69407E+06    -35.0530E-03     56.5309E-03    -21.4779E-03     51.8296E-03    -35.1319E-03     56.5695E-03    -21.5452E-03     51.6996E-03
            2216     12.3421E-03     12.9469E-03    -7.90063E+06    -40.1633E+06    -14.8342E+06     3.66892E+06    -33.0208E-03     53.7145E-03    -20.6936E-03     45.1721E-03    -33.0378E-03     53.6041E-03    -20.6981E-03     45.1008E-03
            2217     11.4697E-03     12.9020E-03    -8.01466E+06    -53.0887E+06     -9.8272E+06     3.81257E+06    -30.7413E-03     50.6549E-03    -19.9137E-03     34.6246E-03    -30.7195E-03     50.4450E-03    -19.8742E-03     34.5951E-03
            2218     10.5960E-03     12.8643E-03    -8.28467E+06    -65.0264E+06    -8.90458E+06     3.91904E+06    -28.6572E-03     47.8009E-03    -19.1437E-03     27.8460E-03    -28.6078E-03     47.5172E-03    -19.0819E-03     27.8432E-03
            2219     9.72032E-03     12.8322E-03    -8.74829E+06    -74.1110E+06    -6.89344E+06     4.31819E+06    -26.4977E-03     44.9147E-03    -18.4170E-03     22.4454E-03    -26.4330E-03     44.5760E-03    -18.3313E-03     22.4658E-03
            2220     8.84284E-03     12.8051E-03    -9.23687E+06    -79.1885E+06    -4.13224E+06     4.86928E+06    -24.4043E-03     42.1495E-03    -17.7452E-03     17.8493E-03    -24.3346E-03     41.7779E-03    -17.6376E-03     17.8890E-03
            2221     7.96354E-03     12.7825E-03    -9.73264E+06    -82.4259E+06    -3.34714E+06     5.43267E+06    -22.4724E-03     39.5982E-03    -17.1257E-03     13.9765E-03    -22.3994E-03     39.2077E-03    -17.0088E-03     14.0314E-03
            2222     7.08271E-03     12.7638E-03    -10.3249E+06    -85.1141E+06    -3.53116E+06     5.77335E+06    -20.7235E-03     37.2940E-03    -16.5706E-03     10.7848E-03    -20.6480E-03     36.8900E-03    -16.4498E-03     10.8492E-03
            2223     6.20037E-03     12.7485E-03    -10.8101E+06    -86.3518E+06    -4.37977E+06     5.77781E+06    -19.1830E-03     35.2660E-03    -16.0830E-03     8.23035E-03    -19.1064E-03     34.8571E-03    -15.9640E-03     8.29814E-03
            2224     5.31681E-03     12.7361E-03    -10.8471E+06    -85.6539E+06    -5.88337E+06     5.52954E+06    -17.8724E-03     33.5355E-03    -15.6632E-03     6.23469E-03    -17.7943E-03     33.1320E-03    -15.5527E-03     6.30145E-03
            2225     4.43217E-03     12.7262E-03    -10.4127E+06    -84.8439E+06    -6.83433E+06     4.98816E+06    -16.7941E-03     32.1134E-03    -15.3193E-03     4.68651E-03    -16.7135E-03     31.7144E-03    -15.2154E-03     4.74775E-03
            2226     3.54666E-03     12.7184E-03    -9.62712E+06    -83.5860E+06    -6.82991E+06     4.15332E+06    -15.9497E-03     31.0007E-03    -15.0510E-03     3.46655E-03    -15.8669E-03     30.6068E-03    -14.9500E-03     3.51804E-03
            2227     2.66051E-03     12.7125E-03    -8.65558E+06    -82.1206E+06    -6.75930E+06     3.14658E+06    -15.3324E-03     30.1823E-03    -14.8499E-03     2.47104E-03    -15.2469E-03     29.7941E-03    -14.7521E-03     2.51027E-03
            2228     1.77391E-03     12.7083E-03    -7.70201E+06    -80.8630E+06    -6.97493E+06     2.05762E+06    -14.9148E-03     29.6248E-03    -14.7100E-03     1.60131E-03    -14.8260E-03     29.2418E-03    -14.6164E-03     1.62703E-03
            2229     887.012E-06     12.7057E-03    -6.98337E+06    -79.8753E+06     -6.7848E+06     1.04661E+06    -14.7116E-03     29.3097E-03    -14.5981E-03     841.665E-06    -14.6209E-03     28.9303E-03    -14.5061E-03     854.755E-06
            2230     16.6683E-03     12.5037E-03    -4.92262E+06     153.609E+06     81.3472E+06     648.729E+03    -62.1551E-03     87.8588E-03    -25.7037E-03     213.269E-03    -68.0549E-03     94.0511E-03    -25.5125E-03     214.371E-03
            2231     15.8167E-03     12.2628E-03    -7.60609E+06     112.179E+06     28.5112E+06     2.16125E+06    -55.3338E-03     79.3982E-03    -24.0645E-03     188.696E-03    -58.9865E-03     83.3409E-03    -24.0735E-03     188.073E-03
            2232     14.9546E-03     12.1251E-03    -8.45381E+06     65.4454E+06    -16.7050E+06     4.57427E+06    -42.6931E-03     65.4224E-03    -22.7293E-03     101.360E-03    -43.3861E-03     66.3668E-03    -22.8955E-03     101.008E-03
            2233     14.0873E-03     12.0556E-03    -8.50628E+06     19.9462E+06    -28.5683E+06     5.36599E+06    -37.5964E-03     59.3594E-03    -21.7630E-03     57.2252E-03    -37.7883E-03     59.6750E-03    -21.9224E-03     57.0547E-03
            2234     13.2200E-03     12.0010E-03    -7.91962E+06    -20.4039E+06    -23.2195E+06     4.41489E+06    -35.9011E-03     56.8060E-03    -20.9049E-03     48.0471E-03    -35.9702E-03     56.8421E-03    -20.9799E-03     47.9279E-03
            2235     12.3502E-03     11.9477E-03    -7.96940E+06    -40.0194E+06    -15.4410E+06     4.24313E+06    -33.5580E-03     53.5879E-03    -20.0299E-03     40.9823E-03    -33.5677E-03     53.4723E-03    -20.0375E-03     40.9227E-03
            2236     11.4785E-03     11.9055E-03    -8.28203E+06    -52.5371E+06    -9.78511E+06     4.39367E+06    -30.9041E-03     50.0743E-03    -19.1702E-03     30.9027E-03    -30.8804E-03     49.8632E-03    -19.1309E-03     30.8854E-03
            2237     10.6047E-03     11.8708E-03    -8.94487E+06    -64.7536E+06    -8.47080E+06      4.5208E+06    -28.4970E-03     46.8340E-03    -18.3369E-03     24.1730E-03    -28.4493E-03     46.5493E-03    -18.2724E-03     24.1822E-03
            2238     9.72889E-03     11.8417E-03    -9.59925E+06    -73.8664E+06    -6.41978E+06     4.64922E+06    -26.1067E-03     43.6651E-03    -17.5584E-03     19.0125E-03    -26.0457E-03     43.3265E-03    -17.4694E-03     19.0405E-03
            2239     8.85094E-03     11.8174E-03    -10.2469E+06    -79.0750E+06    -3.36406E+06     4.79442E+06    -23.8285E-03     40.6758E-03    -16.8472E-03     14.7874E-03    -23.7642E-03     40.3042E-03    -16.7346E-03     14.8286E-03
            2240     7.97122E-03     11.7974E-03    -10.8619E+06    -82.2438E+06    -2.64743E+06     5.09835E+06    -21.7447E-03     37.9415E-03    -16.1969E-03     11.3192E-03    -21.6781E-03     37.5521E-03    -16.0751E-03     11.3715E-03
            2241     7.08966E-03     11.7810E-03    -11.3808E+06    -84.3824E+06    -3.00270E+06     5.29471E+06    -19.8855E-03     35.5043E-03    -15.6187E-03     8.56870E-03    -19.8169E-03     35.1044E-03    -15.4949E-03     8.62803E-03
            2242     6.20660E-03     11.7677E-03    -11.7192E+06    -84.9996E+06    -3.24458E+06     4.88578E+06    -18.2793E-03     33.3983E-03    -15.1190E-03     6.44065E-03    -18.2106E-03     32.9957E-03    -14.9950E-03     6.49757E-03
            2243     5.32220E-03     11.7570E-03    -11.6900E+06    -84.0972E+06    -4.24407E+06     4.04701E+06    -16.9293E-03     31.6209E-03    -14.6917E-03     4.82359E-03    -16.8600E-03     31.2240E-03    -14.5740E-03     4.87157E-03
            2244     4.43669E-03     11.7484E-03    -11.2188E+06    -83.1222E+06    -5.38315E+06     3.23423E+06    -15.8337E-03     30.1727E-03    -14.3390E-03     3.58825E-03    -15.7617E-03     29.7814E-03    -14.2292E-03     3.62702E-03
            2245     3.55031E-03     11.7417E-03    -10.6738E+06    -81.7050E+06    -6.35945E+06     2.39057E+06    -14.9843E-03     29.0418E-03    -14.0576E-03     2.64385E-03    -14.9101E-03     28.6581E-03    -13.9554E-03     2.67264E-03
            2246     2.66328E-03     11.7366E-03    -10.2350E+06    -80.2700E+06    -7.54350E+06     1.55938E+06    -14.3552E-03     28.1949E-03    -13.8397E-03     1.87372E-03    -14.2792E-03     27.8194E-03    -13.7461E-03     1.89246E-03
            2247     1.77580E-03     11.7329E-03    -9.86401E+06    -79.1434E+06    -8.77114E+06     933.066E+03    -13.9102E-03     27.5933E-03    -13.6830E-03     1.21453E-03    -13.8322E-03     27.2246E-03    -13.5978E-03     1.22571E-03
            2248     887.976E-06     11.7307E-03    -9.57526E+06    -78.3493E+06    -9.32935E+06     497.863E+03    -13.6530E-03     27.2373E-03    -13.5843E-03     639.606E-06    -13.5738E-03     26.8730E-03    -13.5034E-03     645.595E-06
            2249     16.6733E-03     11.4699E-03    -4.48975E+06     152.507E+06     82.7493E+06     1.18044E+06    -64.1839E-03     89.7128E-03    -25.5288E-03     206.559E-03    -69.6913E-03     95.5065E-03    -25.3297E-03     207.342E-03
            2250     15.8214E-03     11.2446E-03    -8.83254E+06     109.328E+06     30.3413E+06     2.52239E+06    -56.0025E-03     79.7759E-03    -23.7734E-03     174.977E-03    -59.2054E-03     83.2492E-03    -23.7674E-03     174.260E-03
            2251     14.9606E-03     11.1168E-03    -10.6706E+06     64.2032E+06    -13.8339E+06     4.27402E+06    -43.7848E-03     66.1188E-03    -22.3339E-03     93.9663E-03    -44.4218E-03     66.9865E-03    -22.4807E-03     93.6070E-03
            2252     14.0954E-03     11.0503E-03    -10.1264E+06     21.5109E+06    -26.6048E+06     5.35221E+06    -38.6450E-03     59.8967E-03    -21.2518E-03     53.7478E-03    -38.8335E-03     60.2032E-03    -21.4013E-03     53.5798E-03
            2253     13.2277E-03     10.9979E-03    -9.32659E+06    -19.2975E+06    -23.8690E+06     5.15818E+06    -36.5629E-03     56.8472E-03    -20.2843E-03     44.2525E-03    -36.6295E-03     56.8817E-03    -20.3621E-03     44.1482E-03
            2254     12.3592E-03     10.9483E-03    -9.09318E+06    -39.6616E+06    -15.7459E+06     4.98671E+06    -33.9465E-03     53.2712E-03    -19.3247E-03     36.5672E-03    -33.9549E-03     53.1526E-03    -19.3328E-03     36.5227E-03
            2255     11.4876E-03     10.9098E-03    -9.49315E+06    -52.0037E+06    -9.51966E+06     5.04547E+06    -30.9041E-03     49.2980E-03    -18.3939E-03     27.0986E-03    -30.8837E-03     49.0871E-03    -18.3523E-03     27.0950E-03
            2256     10.6138E-03     10.8782E-03    -9.87907E+06    -64.0407E+06    -7.49195E+06     4.89750E+06    -28.1321E-03     45.6425E-03    -17.5104E-03     20.7115E-03    -28.0891E-03     45.3591E-03    -17.4407E-03     20.7299E-03
            2257     9.73750E-03     10.8525E-03    -10.1968E+06    -73.3544E+06    -5.21590E+06     4.73388E+06    -25.5129E-03     42.2109E-03    -16.6980E-03     15.9807E-03    -25.4561E-03     41.8727E-03    -16.6029E-03     16.0130E-03
            2258     8.85913E-03     10.8312E-03    -10.7480E+06    -78.6010E+06    -1.87433E+06     4.71345E+06    -23.0515E-03     39.0197E-03    -15.9682E-03     12.2978E-03    -22.9919E-03     38.6485E-03    -15.8480E-03     12.3400E-03
            2259     7.97855E-03     10.8139E-03    -11.5510E+06    -81.7552E+06    -584.205E+03     4.62513E+06    -20.8413E-03     36.1557E-03    -15.3145E-03     9.40141E-03    -20.7815E-03     35.7665E-03    -15.1821E-03     9.44889E-03
            2260     7.09622E-03     10.7999E-03    -12.0636E+06    -83.4244E+06    -1.04832E+06     4.29841E+06    -18.9373E-03     33.6755E-03    -14.7382E-03     7.16503E-03    -18.8763E-03     33.2785E-03    -14.6050E-03     7.21223E-03
            2261     6.21227E-03     10.7887E-03    -12.2289E+06    -83.2819E+06    -1.56591E+06     3.51722E+06    -17.3306E-03     31.5739E-03    -14.2432E-03     5.48031E-03    -17.2694E-03     31.1781E-03    -14.1126E-03     5.51991E-03
            2262     5.32703E-03     10.7797E-03    -12.4056E+06    -82.5155E+06    -2.83011E+06     2.46065E+06    -16.0115E-03     29.8341E-03    -13.8226E-03     4.19307E-03    -15.9501E-03     29.4440E-03    -13.6991E-03     4.22068E-03
            2263     4.44074E-03     10.7726E-03    -12.7204E+06    -81.7907E+06    -5.35373E+06     1.60069E+06    -14.9524E-03     28.4205E-03    -13.4680E-03     3.21248E-03    -14.8899E-03     28.0380E-03    -13.3577E-03     3.23015E-03
            2264     3.55359E-03     10.7669E-03    -12.9148E+06    -80.4410E+06    -7.94615E+06     921.302E+03    -14.1223E-03     27.2997E-03    -13.1774E-03     2.44451E-03    -14.0589E-03     26.9279E-03    -13.0818E-03     2.45426E-03
            2265     2.66579E-03     10.7626E-03    -13.0223E+06    -79.3077E+06    -10.1341E+06     399.690E+03    -13.4868E-03     26.4365E-03    -12.9496E-03     1.76964E-03    -13.4224E-03     26.0736E-03    -12.8664E-03     1.77331E-03
            2266     1.77747E-03     10.7595E-03    -13.0836E+06    -78.4871E+06    -11.7351E+06     125.847E+03    -13.0319E-03     25.8148E-03    -12.7830E-03     1.15978E-03    -12.9665E-03     25.4584E-03    -12.7089E-03     1.16047E-03
            2267     888.827E-06     10.7577E-03    -13.0505E+06    -77.8416E+06    -12.5767E+06     23.3941E+03    -12.7530E-03     25.4229E-03    -12.6699E-03     636.258E-06    -12.6872E-03     25.0710E-03    -12.6010E-03     636.070E-06
            2268     16.6761E-03     10.4334E-03    -5.44331E+06     150.629E+06     83.2022E+06     1.28066E+06    -66.0531E-03     91.3935E-03    -25.3404E-03     199.975E-03    -71.1769E-03     96.7925E-03    -25.1349E-03     200.445E-03
            2269     15.8269E-03     10.2261E-03    -8.73418E+06     107.342E+06     33.6077E+06     3.17716E+06    -57.0459E-03     80.5205E-03    -23.4746E-03     161.993E-03    -59.8295E-03     83.5584E-03    -23.4495E-03     161.197E-03
            2270     14.9675E-03     10.1065E-03    -10.3220E+06      63.341E+06    -10.8533E+06     4.77478E+06    -45.1451E-03     67.0553E-03    -21.9102E-03     86.5287E-03    -45.7167E-03     67.8475E-03    -22.0414E-03     86.1732E-03
            2271     14.1029E-03     10.0449E-03    -10.2622E+06     21.6228E+06    -25.2274E+06     5.50152E+06    -39.7120E-03     60.4171E-03    -20.7051E-03     49.9424E-03    -39.8867E-03     60.7056E-03    -20.8477E-03     49.7806E-03
            2272     13.2369E-03     9.99429E-03    -10.0392E+06    -18.2187E+06    -22.7175E+06     6.04378E+06    -37.1361E-03     56.7765E-03    -19.6404E-03     40.3827E-03    -37.1993E-03     56.8056E-03    -19.7130E-03     40.2968E-03
            2273     12.3682E-03     9.94950E-03    -10.3555E+06    -38.7721E+06    -14.7926E+06     5.72431E+06    -34.0009E-03     52.6086E-03    -18.6077E-03     32.0825E-03    -34.0117E-03     52.4883E-03    -18.6104E-03     32.0546E-03
            2274     11.4968E-03     9.91462E-03    -10.3918E+06    -51.0893E+06    -8.31895E+06     5.13640E+06    -30.5344E-03     48.1645E-03    -17.6301E-03     23.4776E-03    -30.5181E-03     47.9544E-03    -17.5826E-03     23.4811E-03
            2275     10.6224E-03     9.88715E-03    -10.3048E+06    -63.0479E+06    -5.77997E+06     4.66350E+06    -27.4453E-03     44.1712E-03    -16.7259E-03     17.8087E-03    -27.4066E-03     43.8891E-03    -16.6484E-03     17.8285E-03
            2276     9.74558E-03     9.86463E-03    -10.4261E+06    -72.8397E+06    -2.98869E+06     4.44943E+06    -24.5964E-03     40.5124E-03    -15.9160E-03     13.7309E-03    -24.5438E-03     40.1731E-03    -15.8103E-03     13.7624E-03
            2277     8.86621E-03     9.84676E-03    -10.8862E+06    -77.9605E+06     259.820E+03     4.37052E+06    -22.0094E-03     37.2131E-03    -15.2037E-03     10.7112E-03    -21.9541E-03     36.8417E-03    -15.0735E-03     10.7508E-03
            2278     7.98475E-03     9.83220E-03    -11.5526E+06    -80.7083E+06     2.07592E+06     3.91880E+06    -19.7689E-03     34.3520E-03    -14.5832E-03     8.45708E-03    -19.7143E-03     33.9640E-03    -14.4390E-03     8.49644E-03
            2279     7.10142E-03     9.82069E-03    -12.2128E+06    -82.0645E+06     1.62596E+06     3.02912E+06    -17.9042E-03     31.9497E-03    -14.0455E-03     6.76721E-03    -17.8497E-03     31.5558E-03    -13.9007E-03     6.79854E-03
            2280     6.21661E-03     9.81141E-03    -12.7522E+06    -81.6996E+06     90.2758E+03     1.95701E+06    -16.3896E-03     29.9756E-03    -13.5860E-03     5.50600E-03    -16.3357E-03     29.5862E-03    -13.4486E-03     5.52567E-03
            2281     5.33057E-03     9.80404E-03    -13.3950E+06    -81.3835E+06    -2.51514E+06     1.19721E+06    -15.1767E-03     28.3737E-03    -13.1971E-03     4.49918E-03    -15.1224E-03     27.9903E-03    -13.0722E-03     4.51053E-03
            2282     4.44355E-03     9.79820E-03    -14.1794E+06     -80.716E+06    -6.31893E+06     518.514E+03    -14.2186E-03     27.0862E-03    -12.8676E-03     3.69364E-03    -14.1636E-03     26.7127E-03    -12.7616E-03     3.69731E-03
            2283     3.55578E-03     9.79358E-03    -14.8380E+06    -79.7742E+06    -9.69133E+06    -151.570E+03    -13.4623E-03     26.0607E-03    -12.5984E-03     2.98795E-03    -13.4070E-03     25.6976E-03    -12.5096E-03     2.98381E-03
            2284     2.66738E-03     9.79010E-03    -15.2398E+06    -79.0763E+06    -12.2761E+06    -416.628E+03    -12.8832E-03     25.2705E-03    -12.3873E-03     2.27902E-03    -12.8270E-03     24.9151E-03    -12.3119E-03     2.27211E-03
            2285     1.77854E-03     9.78762E-03    -15.5356E+06    -78.5392E+06    -14.1342E+06    -460.882E+03    -12.4660E-03     24.6970E-03    -12.2310E-03     1.55262E-03    -12.4093E-03     24.3474E-03    -12.1653E-03     1.54570E-03
            2286     889.388E-06     9.78615E-03    -15.7285E+06    -78.1458E+06    -15.2145E+06    -362.497E+03    -12.2136E-03     24.3256E-03    -12.1120E-03     847.136E-06    -12.1569E-03     23.9799E-03    -12.0519E-03     841.946E-06
            2287     16.6792E-03     9.39654E-03    -5.21554E+06     148.383E+06     82.5790E+06     1.55452E+06    -67.8681E-03     93.0244E-03    -25.1564E-03     192.421E-03    -72.5777E-03     98.0039E-03    -24.9511E-03     192.581E-03
            2288     15.8310E-03     9.20353E-03    -8.67727E+06     105.250E+06     33.4067E+06     3.23848E+06    -58.3509E-03     81.5162E-03    -23.1653E-03     148.299E-03    -60.7322E-03     84.1454E-03    -23.1383E-03     147.424E-03
            2289     14.9743E-03     9.09580E-03    -9.71784E+06     62.6743E+06    -9.44205E+06     5.45426E+06    -46.5666E-03     68.0439E-03    -21.4774E-03     78.6561E-03    -47.0749E-03     68.7686E-03    -21.6014E-03     78.3077E-03
            2290     14.1114E-03     9.03828E-03    -10.4964E+06     21.7158E+06    -23.9689E+06     6.96653E+06    -40.7772E-03     60.9336E-03    -20.1563E-03     45.9725E-03    -40.9396E-03     61.2057E-03    -20.2925E-03     45.8346E-03
            2291     13.2455E-03     8.99122E-03    -11.0943E+06    -17.0417E+06    -21.3480E+06     7.02332E+06    -37.4695E-03     56.4746E-03    -19.0051E-03     36.5125E-03    -37.5323E-03     56.4999E-03    -19.0710E-03     36.4476E-03
            2292     12.3773E-03     8.95107E-03    -10.7627E+06    -36.9054E+06    -12.3210E+06     5.97840E+06    -33.5694E-03     51.5000E-03    -17.9306E-03     27.9115E-03    -33.5826E-03     51.3801E-03    -17.9230E-03     27.8956E-03
            2293     11.5051E-03     8.92118E-03    -10.7142E+06    -49.6539E+06    -6.03619E+06     4.78377E+06    -29.6403E-03     46.5883E-03    -16.9480E-03     20.5538E-03    -29.6282E-03     46.3797E-03    -16.8907E-03     20.5595E-03
            2294     10.6299E-03     8.89726E-03    -10.7781E+06    -62.1438E+06    -3.14849E+06     4.07814E+06    -26.3037E-03     42.3760E-03    -16.0724E-03     15.7806E-03    -26.2712E-03     42.0940E-03    -15.9824E-03     15.7972E-03
            2295     9.75188E-03     8.87884E-03    -10.9392E+06    -72.2662E+06     107.462E+03     3.81466E+06    -23.3216E-03     38.6358E-03    -15.3141E-03     12.5097E-03    -23.2764E-03     38.2950E-03    -15.1930E-03     12.5358E-03
            2296     8.87139E-03     8.86394E-03    -11.2629E+06    -77.1239E+06     2.88433E+06     3.46714E+06    -20.7307E-03     35.3954E-03    -14.6647E-03     10.2484E-03    -20.6822E-03     35.0249E-03    -14.5221E-03     10.2780E-03
            2297     7.98878E-03     8.85233E-03    -11.7354E+06      -79.41E+06     3.98798E+06     2.82297E+06    -18.5702E-03     32.6865E-03    -14.1163E-03     8.65175E-03    -18.5212E-03     32.3025E-03    -13.9642E-03     8.67788E-03
            2298     7.10441E-03     8.84294E-03    -12.4172E+06    -80.4068E+06     3.55112E+06     1.70492E+06    -16.8521E-03     30.5120E-03    -13.6599E-03     7.51241E-03    -16.8039E-03     30.1240E-03    -13.5076E-03     7.52713E-03
            2299     6.21871E-03     8.83551E-03    -13.3168E+06    -80.5514E+06     1.10533E+06     648.997E+03    -15.5244E-03     28.8025E-03    -13.2780E-03     6.59212E-03    -15.4766E-03     28.4182E-03    -13.1364E-03     6.59518E-03
            2300     5.33195E-03     8.82956E-03    -14.2040E+06    -80.7198E+06    -2.85761E+06     1.52255E+03    -14.5083E-03     27.4674E-03    -12.9590E-03     5.77753E-03    -14.4587E-03     27.0890E-03    -12.8357E-03     5.77361E-03
            2301     4.44441E-03     8.82484E-03    -14.8423E+06    -80.0062E+06    -6.82626E+06    -506.826E+03    -13.7314E-03     26.4279E-03    -12.6965E-03     4.99500E-03    -13.6800E-03     26.0596E-03    -12.5931E-03     4.98554E-03
            2302     3.55622E-03     8.82114E-03    -15.4278E+06    -79.5262E+06    -10.2375E+06    -912.067E+03    -13.1340E-03     25.6210E-03    -12.4870E-03     4.17765E-03    -13.0812E-03     25.2608E-03    -12.4005E-03     4.16377E-03
            2303     2.66757E-03     8.81833E-03    -15.9971E+06    -79.3692E+06    -13.0716E+06    -1.06575E+06    -12.6862E-03     25.0123E-03    -12.3261E-03     3.27100E-03    -12.6323E-03     24.6577E-03    -12.2531E-03     3.25579E-03
            2304     1.77858E-03     8.81637E-03    -16.3379E+06    -79.1449E+06    -14.9619E+06    -921.251E+03    -12.3719E-03     24.5840E-03    -12.2121E-03     2.27135E-03    -12.3172E-03     24.2337E-03    -12.1484E-03     2.25855E-03
            2305     889.324E-06     8.81522E-03    -16.5427E+06    -79.0150E+06    -16.0363E+06    -563.962E+03    -12.2017E-03     24.3269E-03    -12.1252E-03     1.27591E-03    -12.1466E-03     23.9792E-03    -12.0668E-03     1.26815E-03
            2306     16.6823E-03     8.35554E-03    -4.35018E+06     146.560E+06     83.1985E+06     1.88380E+06    -70.1115E-03     95.0747E-03    -24.9631E-03     183.439E-03    -74.4008E-03     99.6290E-03    -24.7533E-03     183.278E-03
            2307     15.8371E-03     8.18115E-03    -7.90356E+06     102.503E+06     31.3960E+06     4.21643E+06    -59.1036E-03     81.9390E-03    -22.8354E-03     133.799E-03    -61.1042E-03     84.1865E-03    -22.8156E-03     132.897E-03
            2308     14.9805E-03     8.08236E-03    -11.0340E+06     60.3362E+06    -10.2128E+06     6.75783E+06    -47.5143E-03     68.5717E-03    -21.0574E-03     70.8218E-03    -47.9659E-03     69.2289E-03    -21.1799E-03     70.4982E-03
            2309     14.1187E-03     8.03185E-03    -12.4095E+06     22.6393E+06    -21.3092E+06     8.45425E+06    -41.6247E-03     61.2822E-03    -19.6574E-03     41.9041E-03    -41.7875E-03     61.5436E-03    -19.7788E-03     41.7925E-03
            2310     13.2539E-03     7.98769E-03    -12.2529E+06    -14.7590E+06    -18.8973E+06     7.64961E+06    -37.2497E-03     55.6939E-03    -18.4442E-03     32.5308E-03    -37.3162E-03     55.7199E-03    -18.4995E-03     32.4850E-03
            2311     12.3847E-03     7.95467E-03    -12.1976E+06    -34.6191E+06    -9.17356E+06     5.73453E+06    -32.4598E-03     49.8373E-03    -17.3775E-03     24.5073E-03    -32.4829E-03     49.7213E-03    -17.3555E-03     24.4987E-03
            2312     11.5114E-03     7.92893E-03    -12.1784E+06    -47.5881E+06    -2.79907E+06     4.11988E+06    -28.2077E-03     44.6553E-03    -16.4476E-03     18.7575E-03    -28.2085E-03     44.4524E-03    -16.3749E-03     18.7616E-03
            2313     10.6349E-03     7.90970E-03    -11.9655E+06    -61.1818E+06     261.982E+03     2.97181E+06    -24.7053E-03     40.3616E-03    -15.6562E-03     14.9924E-03    -24.6842E-03     40.0803E-03    -15.5489E-03     14.9993E-03
            2314     9.75537E-03     7.89463E-03    -11.5469E+06    -71.4406E+06     3.69711E+06     2.30647E+06    -21.7469E-03     36.7494E-03    -15.0025E-03     12.6263E-03    -21.7108E-03     36.4082E-03    -14.8637E-03     12.6357E-03
            2315     8.87355E-03     7.88304E-03    -11.3077E+06    -76.4349E+06     6.71552E+06     1.88074E+06    -19.2975E-03     33.7685E-03    -14.4710E-03     11.1208E-03    -19.2557E-03     33.3958E-03    -14.3102E-03     11.1315E-03
            2316     7.98965E-03     7.87383E-03    -11.5954E+06    -78.1904E+06     6.88883E+06     1.29567E+06    -17.3751E-03     31.4144E-03    -14.0393E-03     10.1297E-03    -17.3315E-03     31.0321E-03    -13.8746E-03     10.1371E-03
            2317     7.10432E-03     7.86644E-03    -12.2576E+06    -78.9565E+06     4.99535E+06     307.770E+03    -15.9397E-03     29.6353E-03    -13.6956E-03     9.34679E-03    -15.8949E-03     29.2523E-03    -13.5384E-03     9.34409E-03
            2318     6.21782E-03     7.86044E-03    -13.1224E+06    -79.7353E+06     1.74191E+06    -604.418E+03    -14.9004E-03     28.3250E-03    -13.4246E-03     8.56468E-03    -14.8537E-03     27.9437E-03    -13.2813E-03     8.55202E-03
            2319     5.33059E-03     7.85560E-03    -13.8689E+06    -80.2055E+06    -2.41780E+06    -1.34179E+06    -14.1674E-03     27.3767E-03    -13.2092E-03     7.70282E-03    -14.1175E-03     26.9998E-03    -13.0849E-03     7.68190E-03
            2320     4.44279E-03     7.85172E-03    -14.3183E+06    -79.9236E+06    -6.19170E+06    -1.80546E+06    -13.6412E-03     26.6822E-03    -13.0409E-03     6.73486E-03    -13.5883E-03     26.3126E-03    -12.9352E-03     6.70893E-03
            2321     3.55462E-03     7.84863E-03    -14.5611E+06    -79.8582E+06    -9.30317E+06    -1.82901E+06    -13.2662E-03     26.1794E-03    -12.9132E-03     5.63574E-03    -13.2099E-03     25.8149E-03    -12.8228E-03     5.61026E-03
            2322     2.66617E-03     7.84631E-03    -14.7953E+06    -80.0344E+06    -11.9546E+06    -1.64889E+06    -12.9991E-03     25.8194E-03    -12.8203E-03     4.39354E-03    -12.9398E-03     25.4581E-03    -12.7425E-03     4.37099E-03
            2323     1.77751E-03     7.84466E-03    -15.0941E+06    -80.2219E+06    -13.7905E+06    -1.31649E+06    -12.8333E-03     25.5922E-03    -12.7589E-03     3.04427E-03    -12.7725E-03     25.2330E-03    -12.6897E-03     3.02649E-03
            2324     888.795E-06     7.84368E-03    -15.2826E+06    -80.3708E+06    -14.8421E+06    -824.927E+03    -12.7343E-03     25.4649E-03    -12.7307E-03     1.65519E-03    -12.6726E-03     25.1068E-03    -12.6662E-03     1.64413E-03
            2325     16.6873E-03     7.31405E-03    -4.94190E+06     143.266E+06     82.3642E+06     1.85689E+06    -71.9998E-03     96.8359E-03    -24.8362E-03     177.505E-03    -75.9463E-03     101.036E-03    -24.6249E-03     177.068E-03
            2326     15.8419E-03     7.15645E-03    -9.81770E+06     98.2002E+06     32.9803E+06     6.01761E+06    -60.8162E-03     83.4156E-03    -22.5994E-03     121.478E-03    -62.5265E-03     85.3464E-03    -22.5627E-03     120.558E-03
            2327     14.9863E-03     7.07036E-03    -12.6629E+06     58.9431E+06    -5.06506E+06     9.21517E+06    -48.5981E-03     69.3149E-03    -20.7168E-03     62.7707E-03    -49.0037E-03     69.9008E-03    -20.8092E-03     62.4930E-03
            2328     14.1252E-03     7.02271E-03    -14.2883E+06     23.8798E+06    -17.3060E+06     9.60660E+06    -41.4309E-03     60.6793E-03    -19.2484E-03     37.3155E-03    -41.5948E-03     60.9281E-03    -19.3488E-03     37.2361E-03
            2329     13.2601E-03     6.98678E-03    -15.3083E+06    -11.5537E+06    -16.0441E+06     8.06799E+06    -35.9884E-03     54.0326E-03    -18.0441E-03     28.8200E-03    -36.0702E-03     54.0661E-03    -18.0854E-03     28.7961E-03
            2330     12.3893E-03     6.95935E-03    -15.5665E+06    -31.0867E+06    -5.70337E+06     5.10882E+06    -30.6481E-03     47.7051E-03    -17.0570E-03     22.4884E-03    -30.6942E-03     47.6026E-03    -17.0179E-03     22.4835E-03
            2331     11.5145E-03     6.93914E-03    -14.9622E+06    -45.1745E+06     688.667E+03     2.31136E+06    -26.2484E-03     42.4927E-03    -16.2443E-03     18.3675E-03    -26.2702E-03     42.2992E-03    -16.1536E-03     18.3554E-03
            2332     10.6360E-03     6.92387E-03    -13.9184E+06    -59.8956E+06     3.72185E+06     691.565E+03    -22.7784E-03     38.3732E-03    -15.5948E-03     15.8394E-03    -22.7734E-03     38.0955E-03    -15.4691E-03     15.8216E-03
            2333     9.75495E-03     6.91237E-03    -12.9960E+06    -70.6756E+06     6.87064E+06    -235.271E+03    -20.0495E-03     35.1451E-03    -15.0956E-03     14.2903E-03    -20.0262E-03     34.8050E-03    -14.9399E-03     14.2698E-03
            2334     8.87152E-03     6.90349E-03    -12.3093E+06    -76.1220E+06     9.50194E+06    -687.043E+03    -17.9601E-03     32.6800E-03    -14.7199E-03     13.3615E-03    -17.9277E-03     32.3062E-03    -14.5442E-03     13.3409E-03
            2335     7.98660E-03     6.89631E-03    -11.8469E+06    -77.5543E+06     8.88121E+06    -978.942E+03    -16.4739E-03     30.9054E-03    -14.4315E-03     12.6359E-03    -16.4353E-03     30.5238E-03    -14.2575E-03     12.6150E-03
            2336     7.10050E-03     6.89038E-03    -11.8563E+06    -78.0757E+06     5.91577E+06    -1.48477E+06    -15.4528E-03     29.6674E-03    -14.2146E-03     11.8315E-03    -15.4086E-03     29.2868E-03    -14.0546E-03     11.8065E-03
            2337     6.21373E-03     6.88541E-03    -12.0817E+06    -79.0795E+06     2.66146E+06    -2.32207E+06    -14.7807E-03     28.8399E-03    -14.0592E-03     10.8554E-03    -14.7311E-03     28.4589E-03    -13.9137E-03     10.8211E-03
            2338     5.32647E-03     6.88123E-03    -12.1331E+06    -79.9622E+06    -943.291E+03    -3.09093E+06    -14.3531E-03     28.2989E-03    -13.9458E-03     9.66564E-03    -14.2969E-03     27.9185E-03    -13.8170E-03     9.62264E-03
            2339     4.43896E-03     6.87783E-03    -12.0902E+06    -80.4872E+06      -4.407E+06    -3.33131E+06    -14.0841E-03     27.9476E-03    -13.8634E-03     8.32062E-03    -14.0218E-03     27.5693E-03    -13.7512E-03     8.27538E-03
            2340     3.55126E-03     6.87506E-03    -12.1176E+06    -80.9236E+06    -7.23503E+06    -3.02664E+06    -13.9148E-03     27.7212E-03    -13.8064E-03     6.83649E-03    -13.8477E-03     27.3447E-03    -13.7077E-03     6.79585E-03
            2341     2.66348E-03     6.87295E-03    -12.1813E+06    -81.3361E+06    -9.43288E+06    -2.41181E+06    -13.8155E-03     27.5840E-03    -13.7685E-03     5.23687E-03    -13.7449E-03     27.2087E-03    -13.6801E-03     5.20467E-03
            2342     1.77567E-03     6.87144E-03    -12.2636E+06    -81.7394E+06    -11.0855E+06    -1.67875E+06    -13.7615E-03     27.5060E-03    -13.7445E-03     3.59455E-03    -13.6883E-03     27.1312E-03    -13.6636E-03     3.57222E-03
            2343     887.851E-06     6.87043E-03    -12.3667E+06    -82.1063E+06    -12.0966E+06    -1.02084E+06    -13.7209E-03     27.4668E-03    -13.7459E-03     1.93298E-03    -13.6462E-03     27.0918E-03    -13.6694E-03     1.91946E-03
            2344     16.6821E-03     6.26898E-03    -5.65378E+06     139.359E+06     81.4971E+06     3.75521E+06    -73.8026E-03     98.5660E-03    -24.7634E-03     168.559E-03    -77.3690E-03     102.372E-03    -24.5498E-03     167.898E-03
            2345     15.8422E-03     6.12623E-03    -12.5120E+06     93.5786E+06     35.5999E+06     6.44423E+06    -62.4621E-03     84.8842E-03    -22.4221E-03     104.348E-03    -63.8870E-03     86.4963E-03    -22.3617E-03     103.410E-03
            2346     14.9921E-03     6.05621E-03    -15.1873E+06     56.6661E+06     1.03765E+06     10.5810E+06    -48.5994E-03     69.0657E-03    -20.4662E-03     52.4319E-03    -48.9629E-03     69.5752E-03    -20.5212E-03     52.2007E-03
            2347     14.1303E-03     6.01634E-03    -17.6168E+06     25.3722E+06    -13.5731E+06     12.6069E+06    -39.5671E-03     58.5786E-03    -19.0115E-03     33.7251E-03    -39.7402E-03     58.8194E-03    -19.0906E-03     33.7131E-03
            2348     13.2621E-03     5.98733E-03    -20.0982E+06    -5.14749E+06    -12.4601E+06     8.74326E+06    -33.5337E-03     51.4564E-03    -17.9227E-03     26.7477E-03    -33.6462E-03     51.5160E-03    -17.9484E-03     26.7537E-03
            2349     12.3897E-03     5.96651E-03    -19.9492E+06    -25.7577E+06    -1.67818E+06     2.72466E+06    -28.1908E-03     45.2898E-03    -17.0990E-03     22.3050E-03    -28.2693E-03     45.2114E-03    -17.0411E-03     22.2813E-03
            2350     11.5124E-03     5.95142E-03    -18.2950E+06    -42.6786E+06     4.03428E+06    -1.00024E+06    -23.9442E-03     40.4103E-03    -16.4661E-03     19.9413E-03    -23.9899E-03     40.2281E-03    -16.3575E-03     19.8938E-03
            2351     10.6321E-03     5.93994E-03    -16.6344E+06    -58.7749E+06     6.68857E+06    -2.84839E+06    -20.8865E-03     36.8905E-03    -16.0040E-03     18.4186E-03    -20.9003E-03     36.6174E-03    -15.8612E-03     18.3596E-03
            2352     9.74924E-03     5.93142E-03    -15.1900E+06    -70.3239E+06     9.07575E+06    -3.66961E+06    -18.6904E-03     34.3717E-03    -15.6813E-03     17.2380E-03    -18.6814E-03     34.0329E-03    -15.5119E-03     17.1760E-03
            2353     8.86485E-03     5.92459E-03    -14.0312E+06    -76.0680E+06     10.1730E+06    -4.17192E+06    -17.2091E-03     32.6661E-03    -15.4570E-03     16.3825E-03    -17.1862E-03     32.2938E-03    -15.2755E-03     16.3186E-03
            2354     7.97936E-03     5.91875E-03    -12.8569E+06    -77.7792E+06     8.67883E+06    -4.42575E+06    -16.2795E-03     31.5740E-03    -15.2945E-03     15.3662E-03    -16.2452E-03     31.1927E-03    -15.1196E-03     15.3021E-03
            2355     7.09331E-03     5.91372E-03    -11.4844E+06    -78.0724E+06     6.01047E+06    -4.49255E+06    -15.7052E-03     30.8839E-03    -15.1787E-03     14.1094E-03    -15.6592E-03     30.5024E-03    -15.0187E-03     14.0464E-03
            2356     6.20690E-03     5.90925E-03    -10.4007E+06    -78.9335E+06     2.89338E+06    -4.79172E+06    -15.3607E-03     30.4599E-03    -15.0992E-03     12.6407E-03    -15.3032E-03     30.0767E-03    -14.9552E-03     12.5753E-03
            2357     5.32031E-03     5.90544E-03    -9.92541E+06    -80.4281E+06    -691.869E+03    -5.03818E+06    -15.1635E-03     30.2074E-03    -15.0440E-03     10.9874E-03    -15.0959E-03     29.8210E-03    -14.9164E-03     10.9197E-03
            2358     4.43360E-03     5.90218E-03    -9.82537E+06    -81.7981E+06    -3.88152E+06    -4.77626E+06    -15.0584E-03     30.0651E-03    -15.0067E-03     9.23799E-03    -14.9836E-03     29.6762E-03    -14.8933E-03     9.17445E-03
            2359     3.54690E-03     5.89955E-03    -9.84072E+06    -82.6880E+06    -6.26305E+06    -4.06081E+06    -15.0026E-03     29.9850E-03    -14.9823E-03     7.42455E-03    -14.9231E-03     29.5950E-03    -14.8795E-03     7.37080E-03
            2360     2.66017E-03     5.89747E-03    -9.93085E+06    -83.3057E+06    -7.90365E+06    -3.14427E+06    -14.9754E-03     29.9419E-03    -14.9666E-03     5.60209E-03    -14.8929E-03     29.5513E-03    -14.8709E-03     5.56060E-03
            2361     1.77347E-03     5.89595E-03    -9.99474E+06    -83.8015E+06    -9.12722E+06    -2.08993E+06    -14.9547E-03     29.9119E-03    -14.9572E-03     3.78295E-03    -14.8701E-03     29.5206E-03    -14.8668E-03     3.75541E-03
            2362     886.686E-06     5.89508E-03    -9.93706E+06    -84.1417E+06    -9.88581E+06    -1.09460E+06    -14.9326E-03     29.9062E-03    -14.9736E-03     2.06011E-03    -14.8460E-03     29.5143E-03    -14.8866E-03     2.04569E-03
            2363     16.6909E-03     5.22287E-03    -5.42354E+06     135.646E+06     82.8139E+06     5.73983E+06    -76.5801E-03     101.212E-03    -24.6322E-03     156.076E-03    -79.6916E-03     104.549E-03    -24.4069E-03     155.145E-03
            2364     15.8504E-03     5.09517E-03    -11.5604E+06     90.0346E+06     39.9647E+06     10.0138E+06    -60.3945E-03     82.6450E-03    -22.2506E-03     87.7025E-03    -61.5102E-03     83.9265E-03    -22.1645E-03     86.9261E-03
            2365     14.9946E-03     5.04389E-03    -18.8288E+06     51.3592E+06     4.37079E+06     14.7607E+06    -45.4784E-03     65.8908E-03    -20.4125E-03     44.3560E-03    -45.8007E-03     66.3177E-03    -20.4378E-03     44.2465E-03
            2366     14.1294E-03     5.01290E-03    -23.3483E+06     29.9186E+06    -8.46149E+06     14.9380E+06    -36.3885E-03     55.5230E-03    -19.1345E-03     32.9772E-03    -36.5924E-03     55.7756E-03    -19.1864E-03     33.0281E-03
            2367     13.2592E-03     4.99053E-03    -23.4772E+06     6.02553E+06    -6.52439E+06     7.15511E+06    -30.3420E-03     48.5904E-03    -18.2484E-03     27.7829E-03    -30.4900E-03     48.6960E-03    -18.2557E-03     27.7903E-03
            2368     12.3833E-03     4.97618E-03    -21.8850E+06    -20.1169E+06     2.46499E+06    -939.387E+03    -25.5114E-03     43.1579E-03    -17.6465E-03     24.7196E-03    -25.6111E-03     43.1017E-03    -17.5732E-03     24.6604E-03
            2369     11.5039E-03     4.96550E-03    -20.6675E+06    -40.3193E+06     6.60782E+06    -4.87838E+06    -22.0547E-03     39.2764E-03    -17.2217E-03     23.3970E-03    -22.1180E-03     39.1043E-03    -17.1002E-03     23.3060E-03
            2370     10.6219E-03     4.95701E-03    -19.2033E+06    -57.7431E+06     8.15855E+06    -7.17292E+06    -19.7865E-03     36.7238E-03    -16.9373E-03     21.9221E-03    -19.8160E-03     36.4566E-03    -16.7850E-03     21.8114E-03
            2371     9.73840E-03     4.95059E-03    -16.9457E+06    -70.5131E+06     9.13048E+06    -8.45778E+06    -18.3650E-03     35.1170E-03    -16.7521E-03     20.3938E-03    -18.3640E-03     34.7791E-03    -16.5796E-03     20.2725E-03
            2372     8.85388E-03     4.94493E-03    -14.3626E+06    -76.7707E+06     8.93893E+06    -8.64928E+06    -17.5558E-03     34.1779E-03    -16.6221E-03     18.9369E-03    -17.5314E-03     33.8039E-03    -16.4453E-03     18.8169E-03
            2373     7.96902E-03     4.93979E-03    -12.2434E+06    -78.5650E+06     7.14898E+06    -8.59682E+06    -17.0893E-03     33.6098E-03    -16.5205E-03     17.1927E-03    -17.0484E-03     33.2256E-03    -16.3531E-03     17.0758E-03
            2374     7.08388E-03     4.93516E-03    -10.4172E+06    -79.2497E+06     4.03076E+06    -8.43256E+06    -16.8045E-03     33.2409E-03    -16.4364E-03     15.3075E-03    -16.7484E-03     32.8547E-03    -16.2863E-03     15.1944E-03
            2375     6.19861E-03     4.93097E-03    -8.90118E+06     -80.405E+06     850.486E+03    -7.55374E+06    -16.6194E-03     32.9888E-03    -16.3694E-03     13.3067E-03    -16.5492E-03     32.5989E-03    -16.2356E-03     13.2061E-03
            2376     5.31322E-03     4.92730E-03    -8.37328E+06    -82.0630E+06    -2.39578E+06    -6.41602E+06    -16.4882E-03     32.8036E-03    -16.3154E-03     11.2658E-03    -16.4079E-03     32.4091E-03    -16.1963E-03     11.1808E-03
            2377     4.42779E-03     4.92415E-03    -8.62867E+06    -83.7475E+06    -5.36980E+06    -5.47135E+06    -16.3929E-03     32.6651E-03    -16.2721E-03     9.26712E-03    -16.3071E-03     32.2667E-03    -16.1650E-03     9.19488E-03
            2378     3.54229E-03     4.92155E-03    -9.06041E+06    -84.9474E+06    -7.36361E+06    -4.52243E+06    -16.3210E-03     32.5603E-03    -16.2393E-03     7.32804E-03    -16.2326E-03     32.1594E-03    -16.1398E-03     7.26851E-03
            2379     2.65677E-03     4.91952E-03    -9.38929E+06    -85.6950E+06    -8.55904E+06    -3.41506E+06    -16.2627E-03     32.4775E-03    -16.2149E-03     5.46078E-03    -16.1731E-03     32.0751E-03    -16.1198E-03     5.41590E-03
            2380     1.77117E-03     4.91804E-03    -9.64235E+06    -86.2109E+06    -9.36292E+06    -2.26596E+06    -16.2217E-03     32.4184E-03    -16.1967E-03     3.64740E-03    -16.1314E-03     32.0149E-03    -16.1046E-03     3.61765E-03
            2381     885.635E-06     4.91715E-03    -9.76681E+06    -86.4702E+06    -9.76832E+06    -1.11697E+06    -16.1888E-03     32.3777E-03    -16.1888E-03     1.97064E-03    -16.0981E-03     31.9737E-03    -16.0981E-03     1.95597E-03
            2382     16.6935E-03     4.17405E-03    -6.36766E+06     127.749E+06     78.6464E+06     7.14177E+06    -77.2505E-03     101.910E-03    -24.6591E-03     145.421E-03    -79.8530E-03     104.720E-03    -24.4419E-03     144.321E-03
            2383     15.8487E-03     4.07077E-03    -11.3003E+06     83.7506E+06     45.3359E+06     16.2827E+06    -56.1517E-03     78.5585E-03    -22.4068E-03     77.9411E-03    -57.0159E-03     79.5517E-03    -22.2852E-03     77.4386E-03
            2384     14.9892E-03     4.03518E-03    -16.9784E+06     51.1552E+06     19.5937E+06     19.8271E+06    -40.7721E-03     61.6322E-03    -20.8601E-03     41.1966E-03    -41.0609E-03     61.9870E-03    -20.8117E-03     41.2351E-03
            2385     14.1211E-03     4.01219E-03    -19.2333E+06     39.6055E+06     6.41178E+06     13.8032E+06    -32.4233E-03     52.2692E-03    -19.8459E-03     35.7088E-03    -32.6314E-03     52.5319E-03    -19.8434E-03     35.7796E-03
            2386     13.2467E-03     3.99678E-03    -19.0285E+06     17.5673E+06     2.25304E+06     4.13694E+06    -27.5313E-03     46.7186E-03    -19.1872E-03     31.7431E-03    -27.6805E-03     46.8565E-03    -19.1739E-03     31.7318E-03
            2387     12.3688E-03     3.98736E-03    -19.3012E+06    -14.6976E+06     5.40788E+06    -3.47298E+06    -23.9957E-03     42.7758E-03    -18.7800E-03     28.6026E-03    -24.0913E-03     42.7351E-03    -18.7037E-03     28.5211E-03
            2388     11.4883E-03     3.97973E-03    -19.0425E+06    -37.8003E+06     6.54992E+06    -8.35005E+06    -21.6592E-03     40.1594E-03    -18.5001E-03     26.8835E-03    -21.7163E-03     39.9956E-03    -18.3850E-03     26.7533E-03
            2389     10.6065E-03     3.97328E-03    -17.6651E+06    -56.3638E+06     5.66567E+06    -11.5532E+06    -20.2861E-03     38.5897E-03    -18.3036E-03     24.5565E-03    -20.3052E-03     38.3294E-03    -18.1679E-03     24.3927E-03
            2390     9.72362E-03     3.96802E-03    -15.5424E+06    -70.9486E+06     4.55852E+06    -13.5315E+06    -19.5497E-03     37.7070E-03    -18.1573E-03     22.1856E-03    -19.5338E-03     37.3705E-03    -18.0091E-03     22.0010E-03
            2391     8.84063E-03     3.96282E-03    -12.7102E+06    -78.5792E+06     3.48324E+06    -13.8737E+06    -19.1417E-03     37.1698E-03    -18.0281E-03     19.7936E-03    -19.0980E-03     36.7917E-03    -17.8783E-03     19.6075E-03
            2392     7.95733E-03     3.95816E-03    -9.85890E+06    -80.7644E+06     2.28667E+06    -12.8090E+06    -18.8193E-03     36.7242E-03    -17.9049E-03     17.3391E-03    -18.7559E-03     36.3322E-03    -17.7620E-03     17.1688E-03
            2393     7.07383E-03     3.95375E-03    -8.31362E+06    -81.8483E+06    -300.396E+03    -11.2042E+06    -18.5463E-03     36.3317E-03    -17.7854E-03     14.9551E-03    -18.4694E-03     35.9354E-03    -17.6562E-03     14.8069E-03
            2394     6.19016E-03     3.94985E-03    -8.04142E+06    -83.6947E+06    -3.29842E+06    -9.28760E+06    -18.2954E-03     35.9713E-03    -17.6758E-03     12.6822E-03    -18.2099E-03     35.5695E-03    -17.5593E-03     12.5598E-03
            2395     5.30631E-03     3.94637E-03    -7.98938E+06    -85.0419E+06    -5.28738E+06    -7.12363E+06    -18.0641E-03     35.6441E-03    -17.5800E-03     10.5163E-03    -17.9734E-03     35.2383E-03    -17.4716E-03     10.4225E-03
            2396     4.42224E-03     3.94344E-03    -8.25068E+06    -86.1998E+06    -7.07930E+06    -5.36237E+06    -17.8458E-03     35.3419E-03    -17.4961E-03     8.49654E-03    -17.7520E-03     34.9332E-03    -17.3946E-03     8.42594E-03
            2397     3.53801E-03     3.94100E-03    -8.92761E+06    -87.3303E+06    -8.77352E+06    -4.11097E+06    -17.6548E-03     35.0812E-03    -17.4264E-03     6.63446E-03    -17.5602E-03     34.6702E-03    -17.3306E-03     6.58041E-03
            2398     2.65363E-03     3.93910E-03    -9.65118E+06    -88.1149E+06    -9.83657E+06    -3.00973E+06    -17.5038E-03     34.8772E-03    -17.3734E-03     4.89887E-03    -17.4101E-03     34.4649E-03    -17.2809E-03     4.85935E-03
            2399     1.76918E-03     3.93773E-03    -10.1961E+06    -88.5651E+06    -10.3825E+06    -1.99221E+06    -17.3992E-03     34.7344E-03    -17.3353E-03     3.27149E-03    -17.3067E-03     34.3214E-03    -17.2440E-03     3.24535E-03
            2400     884.592E-06     3.93686E-03    -10.4357E+06    -88.6815E+06    -10.4743E+06    -1.09370E+06    -17.3391E-03     34.6401E-03    -17.3009E-03     1.76428E-03    -17.2475E-03     34.2270E-03    -17.2096E-03     1.74994E-03
            2401     16.6843E-03     3.12721E-03    -5.86659E+06     116.567E+06     71.6989E+06     10.5020E+06    -75.2183E-03     100.396E-03    -25.1775E-03     132.428E-03    -77.2416E-03     102.609E-03    -24.9795E-03     131.368E-03
            2402     15.8378E-03     3.04886E-03    -11.3975E+06     76.1416E+06     49.6022E+06     17.6098E+06    -51.4374E-03     74.6026E-03    -23.1652E-03     65.5130E-03    -52.0630E-03     75.3182E-03    -23.0110E-03     65.2039E-03
            2403     14.9750E-03     3.03069E-03    -10.5813E+06     57.3000E+06     38.5930E+06     17.4598E+06    -35.3224E-03     57.3027E-03    -21.9802E-03     42.1737E-03    -35.5816E-03     57.6172E-03    -21.8550E-03     42.2528E-03
            2404     14.1010E-03     3.01538E-03    -9.17815E+06     49.9557E+06     22.8090E+06     10.6990E+06    -29.8800E-03     51.1225E-03    -21.2425E-03     41.6862E-03    -30.0659E-03     51.3871E-03    -21.1876E-03     41.7461E-03
            2405     13.2249E-03     3.00299E-03    -9.33136E+06     26.5231E+06     8.90282E+06     3.21488E+06    -27.0530E-03     47.7723E-03    -20.7193E-03     34.9139E-03    -27.1685E-03     47.9230E-03    -20.6997E-03     34.9076E-03
            2406     12.3474E-03     2.99773E-03    -10.2257E+06    -8.08134E+06     3.43387E+06    -4.49451E+06    -24.7522E-03     45.1191E-03    -20.3669E-03     30.7408E-03    -24.8054E-03     45.0971E-03    -20.3232E-03     30.6545E-03
            2407     11.4683E-03     2.99145E-03    -10.2913E+06    -34.6858E+06    -809.386E+03    -10.6503E+06    -23.4546E-03     43.5445E-03    -20.0899E-03     27.7122E-03    -23.4598E-03     43.3919E-03    -20.0287E-03     27.5567E-03
            2408     10.5882E-03     2.98674E-03    -9.62251E+06    -54.9988E+06    -4.50033E+06    -14.1548E+06    -22.5560E-03     42.4076E-03    -19.8516E-03     24.3096E-03    -22.5208E-03     42.1556E-03    -19.7804E-03     24.1152E-03
            2409     9.70789E-03     2.98163E-03    -8.76553E+06    -71.1775E+06    -7.13845E+06    -16.3388E+06    -22.0247E-03     41.6605E-03    -19.6358E-03     21.2226E-03    -21.9568E-03     41.3292E-03    -19.5556E-03     21.0036E-03
            2410     8.82720E-03     2.97727E-03    -7.85789E+06    -80.9243E+06    -8.18122E+06    -16.9987E+06    -21.5523E-03     40.9796E-03    -19.4273E-03     18.2540E-03    -21.4635E-03     40.5991E-03    -19.3395E-03     18.0289E-03
            2411     7.94608E-03     2.97294E-03    -6.86333E+06    -85.2042E+06    -7.98015E+06    -15.3009E+06    -21.0434E-03     40.2695E-03    -19.2261E-03     15.5530E-03    -20.9433E-03     39.8655E-03    -19.1325E-03     15.3515E-03
            2412     7.06458E-03     2.96917E-03    -6.39690E+06    -86.3708E+06    -7.62611E+06    -11.8968E+06    -20.5351E-03     39.5703E-03    -19.0352E-03     13.0728E-03    -20.4313E-03     39.1591E-03    -18.9388E-03     12.9164E-03
            2413     6.18257E-03     2.96571E-03    -6.85395E+06    -87.6438E+06    -8.37900E+06    -8.97145E+06    -20.0502E-03     38.9067E-03    -18.8565E-03     10.8636E-03    -19.9456E-03     38.4908E-03    -18.7614E-03     10.7458E-03
            2414     5.30020E-03     2.96269E-03    -7.80640E+06    -88.6714E+06    -9.21786E+06    -6.74535E+06    -19.6006E-03     38.2971E-03    -18.6965E-03     8.87599E-03    -19.4979E-03     37.8785E-03    -18.6027E-03     8.78746E-03
            2415     4.41747E-03     2.96018E-03    -8.57302E+06    -89.1107E+06    -9.31129E+06    -4.74142E+06    -19.1989E-03     37.7592E-03    -18.5603E-03     7.09012E-03    -19.0992E-03     37.3396E-03    -18.4652E-03     7.02786E-03
            2416     3.53438E-03     2.95810E-03    -9.24392E+06    -89.6184E+06    -9.94727E+06    -3.17212E+06    -18.8572E-03     37.3020E-03    -18.4448E-03     5.48426E-03    -18.7591E-03     36.8818E-03    -18.3512E-03     5.44256E-03
            2417     2.65102E-03     2.95651E-03    -9.95443E+06    -90.0815E+06    -10.5447E+06    -2.14738E+06    -18.5882E-03     36.9428E-03    -18.3546E-03     4.01670E-03    -18.4921E-03     36.5221E-03    -18.2623E-03     3.98846E-03
            2418     1.76743E-03     2.95529E-03    -10.5482E+06    -90.3520E+06    -10.8200E+06    -1.46539E+06    -18.3927E-03     36.6843E-03    -18.2917E-03     2.66335E-03    -18.2987E-03     36.2635E-03    -18.1995E-03     2.64410E-03
            2419     883.758E-06     2.95460E-03    -10.9604E+06    -90.6190E+06    -11.1024E+06    -863.653E+03    -18.2780E-03     36.5343E-03    -18.2563E-03     1.43040E-03    -18.1853E-03     36.1132E-03    -18.1645E-03     1.41908E-03
            2420     16.6651E-03     2.07169E-03    -3.86981E+06     107.062E+06     71.3217E+06     12.2213E+06    -72.2116E-03     98.4694E-03    -26.2578E-03     107.653E-03    -73.5880E-03     100.014E-03    -26.0508E-03     106.701E-03
            2421     15.8194E-03     2.03463E-03    -2.82442E+06     76.1714E+06     59.0218E+06     14.4791E+06    -43.2894E-03     67.8830E-03    -24.5937E-03     54.7012E-03    -43.6805E-03     68.3669E-03    -24.4049E-03     54.5751E-03
            2422     14.9445E-03     2.03425E-03    -2.43042E+06     64.2401E+06     47.2624E+06     10.5046E+06    -33.5489E-03     57.2855E-03    -23.7366E-03     46.7908E-03    -33.7628E-03     57.5812E-03    -23.5899E-03     46.8331E-03
            2423     14.0711E-03     2.01251E-03    -296.986E+03     55.8048E+06     26.8711E+06     5.99752E+06    -31.6012E-03     54.6776E-03    -23.0765E-03     42.4540E-03    -31.7429E-03     54.9380E-03    -23.0226E-03     42.4771E-03
            2424     13.1995E-03     2.00867E-03     1.48751E+06     32.7060E+06     5.17532E+06     2.01293E+06    -29.4592E-03     51.9531E-03    -22.4939E-03     32.1779E-03    -29.5157E-03     52.1156E-03    -22.5176E-03     32.1712E-03
            2425     12.3235E-03     2.00286E-03     2.26432E+06    -627.925E+03    -6.79604E+06    -4.07129E+06    -27.8521E-03     49.8911E-03    -22.0390E-03     27.4445E-03    -27.8351E-03     49.8992E-03    -22.0754E-03     27.3711E-03
            2426     11.4480E-03     1.99917E-03     1.57319E+06    -31.2038E+06    -14.1668E+06    -9.91795E+06    -26.7570E-03     48.4034E-03    -21.6464E-03     23.4160E-03    -26.6862E-03     48.2680E-03    -21.6742E-03     23.2749E-03
            2427     10.5714E-03     1.99503E-03     544.498E+03    -54.0133E+06    -20.4014E+06    -13.2802E+06    -25.8343E-03     47.1050E-03    -21.2708E-03     19.9893E-03    -25.7253E-03     46.8650E-03    -21.2952E-03     19.8093E-03
            2428     9.69395E-03     1.99127E-03    -484.545E+03    -71.3897E+06    -24.1352E+06    -14.9652E+06    -24.9448E-03     45.8621E-03    -20.9174E-03     16.8337E-03    -24.8096E-03     45.5416E-03    -20.9338E-03     16.6347E-03
            2429     8.81571E-03     1.98754E-03    -1.95943E+06    -83.3911E+06    -23.5043E+06    -15.2245E+06    -24.0381E-03     44.6369E-03    -20.5988E-03     14.1162E-03    -23.8935E-03     44.2573E-03    -20.5925E-03     13.9157E-03
            2430     7.93680E-03     1.98443E-03    -3.89505E+06    -90.2846E+06    -21.1982E+06    -13.5515E+06    -23.1828E-03     43.4874E-03    -20.3046E-03     11.8024E-03    -23.0410E-03     43.0726E-03    -20.2740E-03     11.6247E-03
            2431     7.05698E-03     1.98141E-03    -5.39705E+06    -91.9953E+06    -16.9915E+06    -10.4185E+06    -22.3497E-03     42.3868E-03    -20.0371E-03     9.75366E-03    -22.2189E-03     41.9594E-03    -19.9808E-03     9.61725E-03
            2432     6.17659E-03     1.97888E-03    -6.46535E+06    -91.7057E+06    -13.3202E+06    -7.13194E+06    -21.5663E-03     41.3600E-03    -19.7937E-03     7.96888E-03    -21.4465E-03     40.9303E-03    -19.7180E-03     7.87544E-03
            2433     5.29544E-03     1.97664E-03    -7.69658E+06    -91.8608E+06    -12.4056E+06    -4.91440E+06    -20.8731E-03     40.4443E-03    -19.5713E-03     6.44550E-03    -20.7604E-03     40.0142E-03    -19.4890E-03     6.38108E-03
            2434     4.41373E-03     1.97476E-03    -8.96298E+06    -91.7660E+06    -11.4838E+06    -3.40263E+06    -20.2881E-03     39.6712E-03    -19.3831E-03     5.09989E-03    -20.1833E-03     39.2421E-03    -19.2945E-03     5.05526E-03
            2435     3.53156E-03     1.97327E-03    -9.82221E+06    -91.5784E+06    -10.8831E+06    -2.23067E+06    -19.8116E-03     39.0378E-03    -19.2262E-03     3.92113E-03    -19.7122E-03     38.6100E-03    -19.1336E-03     3.89184E-03
            2436     2.64903E-03     1.97205E-03    -10.3007E+06    -91.4847E+06    -10.7860E+06    -1.41493E+06    -19.4353E-03     38.5351E-03    -19.0998E-03     2.85638E-03    -19.3386E-03     38.1083E-03    -19.0061E-03     2.83778E-03
            2437     1.76621E-03     1.97122E-03    -10.6977E+06    -91.5793E+06    -10.9534E+06    -822.007E+03    -19.1578E-03     38.1650E-03    -19.0072E-03     1.87951E-03    -19.0626E-03     37.7385E-03    -18.9136E-03     1.86868E-03
            2438     883.133E-06     1.97064E-03    -11.1561E+06    -91.9154E+06    -11.3889E+06    -367.535E+03    -18.9806E-03     37.9396E-03    -18.9590E-03     1.01330E-03    -18.8865E-03     37.5128E-03    -18.8665E-03     1.00844E-03
            2439     16.6555E-03     1.04095E-03     521.148E+03     100.814E+06     75.6849E+06     8.34070E+06    -71.2787E-03     99.7433E-03    -28.4646E-03     95.7262E-03    -72.0353E-03     100.649E-03    -28.2331E-03     95.0104E-03
            2440     15.7748E-03     1.03463E-03     3.83880E+06     79.6176E+06     65.8312E+06     9.05216E+06    -46.9540E-03     73.7170E-03    -26.7630E-03     54.9287E-03    -47.2055E-03     74.0676E-03    -26.5548E-03     54.9317E-03
            2441     14.9104E-03     1.02069E-03     5.64533E+06     69.7701E+06     47.2594E+06     4.78342E+06    -41.1951E-03     66.8387E-03    -25.6437E-03     38.7342E-03    -41.3509E-03     67.1238E-03    -25.5167E-03     38.7535E-03
            2442     14.0473E-03     1.01040E-03     8.29446E+06     57.6886E+06     20.4264E+06     1.74248E+06    -36.4567E-03     61.1493E-03    -24.6926E-03     28.2216E-03    -36.5354E-03     61.4028E-03    -24.6861E-03     28.2135E-03
            2443     13.1751E-03     1.00559E-03     10.7104E+06     36.3132E+06    -4.80674E+06     487.983E+03    -32.9907E-03     56.9178E-03    -23.9271E-03     19.7399E-03    -32.9858E-03     57.0936E-03    -24.0193E-03     19.7296E-03
            2444     12.3060E-03     1.00369E-03     11.6417E+06     4.40909E+06    -19.7402E+06    -2.53316E+06    -31.3888E-03     54.7060E-03    -23.3172E-03     16.2012E-03    -31.3101E-03     54.7413E-03    -23.4392E-03     16.1574E-03
            2445     11.4329E-03     1.00127E-03     10.8593E+06    -28.1610E+06    -27.5592E+06    -5.77811E+06    -29.9354E-03     52.7154E-03    -22.7799E-03     13.5760E-03    -29.8012E-03     52.5995E-03    -22.8926E-03     13.4945E-03
            2446     10.5592E-03     998.861E-06     8.59193E+06    -52.9719E+06    -34.8590E+06    -8.14841E+06    -28.6098E-03     50.8747E-03    -22.2649E-03     11.3207E-03    -28.4400E-03     50.6484E-03    -22.3749E-03     11.2108E-03
            2447     9.68439E-03     996.727E-06     5.55088E+06    -72.0311E+06    -37.5722E+06    -9.13325E+06    -27.2471E-03     49.0435E-03    -21.7964E-03     9.38691E-03    -27.0607E-03     48.7300E-03    -21.8878E-03     9.26592E-03
            2448     8.80811E-03     994.854E-06     2.03972E+06    -85.6724E+06    -34.4345E+06    -8.75435E+06    -25.9292E-03     47.3165E-03    -21.3873E-03     7.76309E-03    -25.7450E-03     46.9353E-03    -21.4382E-03     7.64805E-03
            2449     7.93053E-03     992.923E-06    -1.52379E+06    -93.7478E+06    -29.6394E+06    -7.75905E+06    -24.7131E-03     45.7315E-03    -21.0184E-03     6.36648E-03    -24.5419E-03     45.3080E-03    -21.0284E-03     6.26491E-03
            2450     7.05219E-03     991.364E-06    -4.53588E+06    -96.3138E+06    -24.0366E+06    -6.17673E+06    -23.5943E-03     44.2803E-03    -20.6860E-03     5.20409E-03    -23.4425E-03     43.8402E-03    -20.6599E-03     5.12337E-03
            2451     6.17266E-03     989.968E-06    -6.73172E+06    -95.2795E+06    -18.1905E+06    -4.18220E+06    -22.5873E-03     42.9792E-03    -20.3920E-03     4.22892E-03    -22.4564E-03     42.5390E-03    -20.3350E-03     4.17424E-03
            2452     5.29241E-03     988.807E-06    -8.10300E+06    -94.1662E+06    -14.6249E+06    -2.48962E+06    -21.7247E-03     41.8543E-03    -20.1296E-03     3.39102E-03    -21.6075E-03     41.4164E-03    -20.0544E-03     3.35840E-03
            2453     4.41141E-03     987.799E-06    -9.16067E+06    -93.2893E+06    -12.5068E+06    -1.61592E+06    -21.0012E-03     40.9049E-03    -19.9037E-03     2.66345E-03    -20.8936E-03     40.4698E-03    -19.8176E-03     2.64224E-03
            2454     3.52984E-03     986.983E-06    -9.98209E+06    -92.7697E+06    -11.4471E+06    -1.23179E+06    -20.4182E-03     40.1335E-03    -19.7153E-03     2.03644E-03    -20.3170E-03     39.7007E-03    -19.6235E-03     2.02029E-03
            2455     2.64779E-03     986.357E-06    -10.5032E+06    -92.5330E+06    -11.1527E+06    -798.975E+03    -19.9655E-03     39.5300E-03    -19.5645E-03     1.48480E-03    -19.8677E-03     39.0987E-03    -19.4708E-03     1.47432E-03
            2456     1.76538E-03     985.902E-06    -10.8196E+06    -92.4007E+06    -11.0971E+06    -296.804E+03    -19.6396E-03     39.0922E-03    -19.4527E-03     980.730E-06    -19.5436E-03     38.6620E-03    -19.3585E-03     976.799E-06
            2457     882.787E-06     985.639E-06    -11.0264E+06    -92.3083E+06    -11.0619E+06     12.1622E+03    -19.4427E-03     38.8139E-03    -19.3713E-03     528.562E-06    -19.3478E-03     38.3845E-03    -19.2767E-03     528.682E-06


