********************************************************************************
Field Output Report, written Tue May 28 21:46:34 2024

Source 1
---------

   ODB: G:/Abaqus_calc_2019/1740/Vel_10/odb/zeides_2a_32_red_1000_cal_0_vel_10_fric_025.odb
   Step: Step-1
   Frame: Increment   8971855: Step Time =    1.042

Loc 1 : Nodal values from source 1

Output sorted by column "Nodal Label".

Field Output reported at nodes for region: DIE_2A_32_D0_36-1.Region_1
   Computation algorithm: EXTRAPOLATE_COMPUTE_AVERAGE
   Averaged at nodes
   Averaging regions: ODB_REGIONS

      Node Label     COORD.COOR1     COORD.COOR2
                          @Loc 1          @Loc 1
-------------------------------------------------
               1     20.6653E-03     137.938E-03


Field Output reported at nodes for region: DIE_2A_32_D0_36-1.Region_2
   Computation algorithm: EXTRAPOLATE_COMPUTE_AVERAGE
   Averaged at nodes
   Averaging regions: ODB_REGIONS

      Node Label     COORD.COOR1     COORD.COOR2
                          @Loc 1          @Loc 1
-------------------------------------------------
               1     20.6653E-03     137.938E-03


Field Output reported at nodes for part: WIRE-1
   Computation algorithm: EXTRAPOLATE_COMPUTE_AVERAGE
   Averaged at nodes
   Averaging regions: ODB_REGIONS

      Node Label     COORD.COOR1     COORD.COOR2           S.S11           S.S22           S.S33           S.S12         PE.PE11         PE.PE22         PE.PE33         PE.PE12         LE.LE11         LE.LE22         LE.LE33         LE.LE12
                          @Loc 1          @Loc 1          @Loc 1          @Loc 1          @Loc 1          @Loc 1          @Loc 1          @Loc 1          @Loc 1          @Loc 1          @Loc 1          @Loc 1          @Loc 1          @Loc 1
-------------------------------------------------------------------------------------------------------------------------------------------------------------------------------------------------------------------------------------------------
               1     94.4867E-09     67.0004E-03    -90.2611E+06    -239.136E+06    -90.2383E+06    -321.317E+03    -108.857E-03     217.472E-03    -108.614E-03     9.61154E-03    -108.835E-03     216.542E-03    -108.588E-03     9.41723E-03
               2     16.1525E-03     69.4892E-03    -2.60164E+06     116.317E+06     88.9876E+06     20.8374E+03    -107.186E-03     215.767E-03    -108.581E-03     39.2130E-03    -108.942E-03     217.669E-03    -108.301E-03     35.6616E-03
               3     15.4730E-03     139.002E-03     29.1412E+06    -16.5695E+06     45.1146E+06     34.4027E+06     75.1474E-03     60.6112E-03    -135.759E-03    -1.06110E-03     75.0648E-03     60.2336E-03    -135.551E-03    -617.169E-06
               4    -129.322E-09     133.875E-03     44.0288E+06    -5.23791E+06     47.1259E+06    -5.97992E+06    -103.977E-03     208.664E-03    -104.687E-03    -13.1101E-03    -103.886E-03     208.435E-03    -104.508E-03    -13.2738E-03
               5     444.473E-09     1.29063E-15    -46.5704E+06    -197.884E+06    -45.7326E+06     756.030E+03    -113.432E-03     226.490E-03    -113.058E-03     1.42887E-03    -113.310E-03     225.635E-03    -112.932E-03     1.42434E-03
               6     15.7294E-03     1.29063E-15     4.70629E+06     111.267E+06     95.7429E+06     9.37014E+06    -209.383E-03     335.569E-03    -126.186E-03     239.654E-03    -212.796E-03     339.019E-03    -125.875E-03     230.154E-03
               7     807.323E-06     67.0113E-03    -89.1475E+06    -237.168E+06    -87.2479E+06    -161.161E+03    -108.863E-03     217.545E-03    -108.682E-03     16.0477E-03    -108.850E-03     216.628E-03    -108.645E-03     15.7292E-03
               8     1.61461E-03     67.0362E-03    -86.4098E+06    -232.126E+06    -79.5374E+06     76.8236E+03    -108.980E-03     217.750E-03    -108.771E-03     29.4962E-03    -108.999E-03     216.869E-03    -108.706E-03     28.9056E-03
               9     2.42186E-03     67.0771E-03    -82.4178E+06    -224.114E+06    -67.9213E+06     93.3367E+03    -109.194E-03     218.005E-03    -108.811E-03     43.4521E-03    -109.268E-03     217.188E-03    -108.706E-03     42.5515E-03
              10     3.22916E-03     67.1332E-03    -77.0707E+06    -213.712E+06    -54.3595E+06     60.1079E+03    -109.469E-03     218.313E-03    -108.843E-03     57.3005E-03    -109.623E-03     217.591E-03    -108.694E-03     56.0589E-03
              11     4.03659E-03     67.2048E-03    -71.2003E+06    -202.990E+06    -41.7496E+06     162.611E+03    -109.827E-03     218.689E-03    -108.862E-03     70.8407E-03    -110.083E-03     218.093E-03    -108.673E-03     69.2227E-03
              12     4.84393E-03     67.2909E-03    -65.4032E+06    -186.682E+06    -31.0704E+06     182.595E+03    -110.202E-03     219.060E-03    -108.858E-03     83.9734E-03    -110.602E-03     218.655E-03    -108.648E-03     81.9352E-03
              13     5.65161E-03     67.3914E-03    -59.6206E+06    -168.246E+06    -21.7639E+06     262.541E+03    -110.655E-03     219.497E-03    -108.842E-03     96.7141E-03    -111.241E-03     219.337E-03    -108.620E-03     94.2049E-03
              14     6.45910E-03     67.5057E-03    -54.1243E+06    -148.537E+06    -14.0538E+06     428.365E+03    -111.181E-03     220.003E-03    -108.822E-03     109.003E-03    -112.006E-03     220.150E-03    -108.598E-03     105.964E-03
              15     7.26653E-03     67.6331E-03    -49.3314E+06    -135.245E+06    -7.72875E+06     674.005E+03    -111.657E-03     220.467E-03    -108.810E-03     121.050E-03    -112.781E-03     220.958E-03    -108.581E-03     117.420E-03
              16     8.07406E-03     67.7738E-03    -45.0053E+06    -116.853E+06    -3.07237E+06     719.344E+03    -112.053E-03     220.834E-03    -108.781E-03     132.608E-03    -113.565E-03     221.780E-03    -108.562E-03     128.315E-03
              17     8.88174E-03     67.9260E-03    -41.0993E+06    -90.6764E+06     921.871E+03     445.512E+03    -112.379E-03     221.117E-03    -108.739E-03     143.348E-03    -114.393E-03     222.661E-03    -108.543E-03     138.310E-03
              18     9.68929E-03     68.0896E-03    -37.4236E+06    -64.4009E+06     4.23167E+06     359.318E+03    -112.562E-03     221.256E-03    -108.694E-03     153.406E-03    -115.201E-03     223.521E-03    -108.525E-03     147.567E-03
              19     10.4967E-03     68.2636E-03    -34.1967E+06    -21.3134E+06     9.48296E+06     154.865E+03    -112.464E-03     221.095E-03    -108.631E-03     163.787E-03    -115.956E-03     224.363E-03    -108.503E-03     157.055E-03
              20     11.3054E-03     68.4492E-03    -31.0830E+06     41.7729E+06     17.0529E+06     720.920E+03    -112.450E-03     220.993E-03    -108.543E-03     177.667E-03    -117.173E-03     225.705E-03    -108.473E-03     169.931E-03
              21     12.1117E-03     68.6525E-03    -27.3454E+06     87.6972E+06     34.6485E+06     1.28295E+06    -112.484E-03     221.008E-03    -108.525E-03     194.687E-03    -118.870E-03     227.509E-03    -108.439E-03     185.910E-03
              22     12.9218E-03     68.8748E-03    -22.8008E+06     106.909E+06     65.8381E+06     557.274E+03    -111.932E-03     220.545E-03    -108.613E-03     203.401E-03    -119.855E-03     228.576E-03    -108.406E-03     194.071E-03
              23     13.7273E-03     69.0979E-03    -16.5246E+06     116.510E+06     88.1290E+06     301.043E+03    -109.882E-03     218.553E-03    -108.671E-03     185.294E-03    -117.838E-03     226.608E-03    -108.375E-03     176.720E-03
              24     14.5370E-03     69.2808E-03    -9.48968E+06     121.824E+06     96.9951E+06     261.054E+03    -107.322E-03     215.982E-03    -108.660E-03     158.898E-03    -114.827E-03     223.605E-03    -108.338E-03     151.480E-03
              25     15.3459E-03     69.4444E-03    -4.35808E+06     122.332E+06     94.6282E+06        -145.039    -106.769E-03     215.380E-03    -108.611E-03     94.9458E-03    -111.458E-03     220.213E-03    -108.309E-03     89.6434E-03
              26     16.1517E-03     70.6641E-03    -2.60689E+06     116.819E+06     89.0062E+06     705.366E+03    -106.296E-03     214.902E-03    -108.606E-03     39.3304E-03    -108.051E-03     216.805E-03    -108.327E-03     35.8236E-03
              27     16.1532E-03     71.8410E-03    -1.81382E+06     117.506E+06     89.4471E+06    -198.902E+03    -106.429E-03     214.999E-03    -108.570E-03     39.9895E-03    -108.187E-03     216.908E-03    -108.291E-03     36.4474E-03
              28     16.1531E-03     73.0213E-03    -2.69613E+06     116.676E+06     89.1068E+06    -540.255E+03    -107.339E-03     215.898E-03    -108.559E-03     40.2005E-03    -109.116E-03     217.822E-03    -108.279E-03     36.6230E-03
              29     16.1511E-03     74.2007E-03    -2.59233E+06     116.771E+06     89.3623E+06     115.136E+03    -106.264E-03     214.862E-03    -108.598E-03     40.4269E-03    -108.048E-03     216.792E-03    -108.317E-03     36.9048E-03
              30     16.1546E-03     75.3737E-03    -1.74701E+06     116.612E+06     89.9643E+06    -287.410E+03    -105.607E-03     214.210E-03    -108.603E-03     40.8605E-03    -107.385E-03     216.134E-03    -108.320E-03     37.3643E-03
              31     16.1506E-03     76.5544E-03    -1.98962E+06     117.098E+06     90.6056E+06     1.38818E+06    -106.971E-03     215.559E-03    -108.587E-03     41.1534E-03    -108.754E-03     217.487E-03    -108.301E-03     37.6223E-03
              32     16.1540E-03     77.7311E-03    -2.76083E+06     115.121E+06     88.7725E+06     869.084E+03    -106.834E-03     215.427E-03    -108.593E-03     40.1695E-03    -108.599E-03     217.333E-03    -108.312E-03     36.6274E-03
              33     16.1506E-03     78.9083E-03    -3.22927E+06     114.466E+06     88.2986E+06    -1.25579E+06    -106.125E-03     214.716E-03    -108.592E-03     39.7556E-03    -107.889E-03     216.619E-03    -108.311E-03     36.2125E-03
              34     16.1552E-03     80.0840E-03    -1.30635E+06     116.387E+06     90.7990E+06    -1.22419E+06    -106.407E-03     214.981E-03    -108.574E-03     39.5800E-03    -108.169E-03     216.888E-03    -108.287E-03     36.0366E-03
              35     16.1505E-03     81.2649E-03    -2.38420E+06     115.017E+06     89.5299E+06     95.3786E+03    -106.531E-03     215.098E-03    -108.567E-03     40.1650E-03    -108.296E-03     217.003E-03    -108.282E-03     36.6363E-03
              36     16.1554E-03     82.4401E-03    -2.01409E+06     115.564E+06     89.9964E+06    -51.1998E+03    -106.070E-03     214.639E-03    -108.569E-03     40.0604E-03    -107.831E-03     216.542E-03    -108.284E-03     36.5472E-03
              37     16.1510E-03     83.6171E-03    -3.05040E+06     114.604E+06     89.4193E+06    -390.595E+03    -107.201E-03     215.766E-03    -108.565E-03     40.0447E-03    -108.970E-03     217.672E-03    -108.280E-03     36.4808E-03
              38     16.1533E-03     84.7990E-03    -1.93297E+06     114.806E+06     89.6134E+06     161.139E+03    -106.736E-03     215.304E-03    -108.568E-03     40.8528E-03    -108.501E-03     217.210E-03    -108.284E-03     37.3012E-03
              39     16.1536E-03     85.9727E-03    -2.45496E+06     114.124E+06     89.2114E+06    -398.055E+03    -106.747E-03     215.322E-03    -108.575E-03     40.6164E-03    -108.520E-03     217.233E-03    -108.290E-03     37.0618E-03
              40     16.1502E-03     87.1541E-03    -2.68813E+06     115.017E+06     89.8794E+06     781.578E+03    -107.001E-03     215.602E-03    -108.601E-03     39.2353E-03    -108.754E-03     217.493E-03    -108.315E-03     35.7168E-03
              41     16.1547E-03     88.3283E-03    -1.82403E+06     116.012E+06     91.0443E+06     319.467E+03    -105.539E-03     214.146E-03    -108.607E-03     40.5344E-03    -107.305E-03     216.053E-03    -108.318E-03     37.0555E-03
              42     16.1513E-03     89.5073E-03    -1.29412E+06     116.547E+06     91.4509E+06     1.30031E+06    -106.867E-03     215.442E-03    -108.575E-03     40.4522E-03    -108.641E-03     217.360E-03    -108.285E-03     36.9210E-03
              43     16.1535E-03     90.6844E-03    -3.41406E+06     116.051E+06     89.4458E+06     1.26265E+06    -106.870E-03     215.448E-03    -108.578E-03     39.0613E-03    -108.629E-03     217.348E-03    -108.294E-03     35.5388E-03
              44     16.1519E-03     91.8631E-03    -2.68107E+06     117.976E+06     90.6927E+06     546.358E+03    -106.563E-03     215.153E-03    -108.590E-03     40.9151E-03    -108.355E-03     217.091E-03    -108.303E-03     37.3825E-03
              45     16.1529E-03     93.0411E-03    -1.54971E+06     120.227E+06     91.6432E+06     649.392E+03    -106.193E-03     214.781E-03    -108.588E-03     40.0238E-03    -107.966E-03     216.710E-03    -108.302E-03     36.5143E-03
              46     16.1531E-03     94.2164E-03    -3.44733E+06     119.963E+06     90.1403E+06    -445.381E+03    -106.079E-03     214.671E-03    -108.592E-03     39.9046E-03    -107.869E-03     216.613E-03    -108.310E-03     36.3783E-03
              47     16.1513E-03     95.3948E-03    -1.66904E+06     124.093E+06     92.9826E+06     76.3146E+03    -106.331E-03     214.918E-03    -108.588E-03     39.1759E-03    -108.107E-03     216.860E-03    -108.300E-03     35.6568E-03
              48     16.1550E-03     96.5704E-03    -2.48611E+06     124.509E+06     92.9645E+06    -663.312E+03    -105.827E-03     214.409E-03    -108.583E-03     39.2741E-03    -107.603E-03     216.350E-03    -108.295E-03     35.7749E-03
              49     16.1507E-03     97.7500E-03    -1.44815E+06     125.564E+06     93.8628E+06     1.70054E+06    -107.126E-03     215.695E-03    -108.569E-03     40.5703E-03    -108.922E-03     217.659E-03    -108.280E-03     37.0361E-03
              50     16.1545E-03     98.9275E-03    -2.21544E+06     125.536E+06     92.1983E+06     1.66947E+06    -106.679E-03     215.239E-03    -108.560E-03     39.4386E-03    -108.453E-03     217.184E-03    -108.278E-03     35.9119E-03
              51     16.1519E-03     100.105E-03    -3.56725E+06     125.840E+06     91.2968E+06    -1.30017E+06    -106.008E-03     214.565E-03    -108.557E-03     40.3831E-03    -107.810E-03     216.537E-03    -108.278E-03     36.8332E-03
              52     16.1543E-03     101.282E-03    -1.21484E+06     129.221E+06     94.1617E+06    -813.254E+03    -106.156E-03     214.698E-03    -108.543E-03     40.3854E-03    -107.960E-03     216.685E-03    -108.258E-03     36.8409E-03
              53     16.1532E-03     102.459E-03    -2.83516E+06     128.296E+06     92.8968E+06    -245.335E+03    -107.060E-03     215.594E-03    -108.533E-03     40.1975E-03    -108.866E-03     217.575E-03    -108.251E-03     36.6229E-03
              54     16.1519E-03     103.640E-03    -2.41134E+06     128.502E+06     92.4561E+06     603.001E+03    -107.006E-03     215.534E-03    -108.528E-03     40.5765E-03    -108.801E-03     217.509E-03    -108.249E-03     37.0153E-03
              55     16.1558E-03     104.815E-03    -2.84154E+06     129.332E+06     92.7557E+06     17.9198E+03    -105.765E-03     214.280E-03    -108.515E-03     41.5454E-03    -107.576E-03     216.271E-03    -108.235E-03     38.0275E-03
              56     16.1523E-03     105.995E-03    -2.98997E+06     128.797E+06     92.2916E+06     686.428E+03    -106.237E-03     214.723E-03    -108.486E-03     42.2408E-03    -108.057E-03     216.722E-03    -108.207E-03     38.7103E-03
              57     16.1564E-03     107.168E-03    -2.21805E+06     124.203E+06     91.5203E+06    -256.642E+03    -106.084E-03     214.517E-03    -108.433E-03     41.5479E-03    -107.877E-03     216.478E-03    -108.152E-03     38.0022E-03
              58     16.1554E-03     108.347E-03    -1.34787E+06     122.102E+06     92.7355E+06     309.260E+03    -106.080E-03     214.427E-03    -108.346E-03     41.4235E-03    -107.870E-03     216.376E-03    -108.058E-03     37.8830E-03
              59     16.1593E-03     109.523E-03    -2.99480E+06     121.203E+06     90.0792E+06    -512.581E+03    -105.772E-03     213.974E-03    -108.202E-03     41.7049E-03    -107.575E-03     215.935E-03    -107.923E-03     38.1329E-03
              60     16.1616E-03     110.697E-03    -2.25601E+06     117.550E+06     88.0040E+06    -2.48900E+06    -106.420E-03     214.434E-03    -108.015E-03     41.6514E-03    -108.221E-03     216.389E-03    -107.742E-03     37.9913E-03
              61     16.1634E-03     111.877E-03    -1.73813E+06     119.996E+06     89.8755E+06     911.379E+03    -107.217E-03     215.000E-03    -107.783E-03     43.0645E-03    -109.036E-03     216.978E-03    -107.505E-03     39.3957E-03
              62     16.1710E-03     113.052E-03    -2.41030E+06     121.727E+06     88.4033E+06     492.438E+03    -107.365E-03     214.802E-03    -107.438E-03     45.3939E-03    -109.208E-03     216.813E-03    -107.169E-03     41.6718E-03
              63     16.1750E-03     114.232E-03    -1.39329E+06     122.904E+06     87.1312E+06     1.90850E+06    -109.655E-03     216.665E-03    -107.010E-03     46.0171E-03    -111.509E-03     218.697E-03    -106.750E-03     42.1888E-03
              64     16.1822E-03     115.412E-03    -2.71350E+06     122.868E+06     80.4927E+06     2.90740E+06    -112.062E-03     218.552E-03    -106.491E-03     48.2342E-03    -113.956E-03     220.640E-03    -106.262E-03     44.2437E-03
              65     16.1907E-03     116.597E-03    -4.40254E+06     123.678E+06     76.1649E+06    -154.859E+03    -116.811E-03     222.689E-03    -105.878E-03     51.1472E-03    -118.784E-03     224.865E-03    -105.670E-03     46.7960E-03
              66     16.1963E-03     117.788E-03    -163.112E+03     121.070E+06     72.8280E+06     640.997E+03    -124.414E-03     229.648E-03    -105.234E-03     51.8568E-03    -126.423E-03     231.876E-03    -105.045E-03     47.0390E-03
              67     16.2039E-03     118.990E-03    -4.18042E+06     109.907E+06     60.4046E+06    -3.28426E+06    -133.282E-03     237.873E-03    -104.591E-03     55.3420E-03    -135.380E-03     240.173E-03    -104.443E-03     49.8659E-03
              68     16.2072E-03     120.204E-03     254.022E+03     102.253E+06     58.2577E+06    -4.18728E+06    -143.921E-03     247.952E-03    -104.031E-03     60.0134E-03    -146.098E-03     250.326E-03    -103.888E-03     53.8578E-03
              69     16.2116E-03     121.434E-03    -1.49344E+06     87.9642E+06     49.0555E+06    -5.02825E+06    -154.247E-03     257.805E-03    -103.557E-03     64.9822E-03    -156.524E-03     260.248E-03    -103.437E-03     58.0794E-03
              70     16.2123E-03     122.670E-03      51.835E+03     76.8028E+06     44.7098E+06    -1.81805E+06    -165.009E-03     268.173E-03    -103.164E-03     69.6369E-03    -167.371E-03     270.680E-03    -103.052E-03     61.9555E-03
              71     16.2145E-03     123.923E-03    -5.02738E+06     60.3269E+06     41.1698E+06    -6.80392E+06    -177.985E-03     280.736E-03    -102.751E-03     78.2758E-03    -180.552E-03     283.384E-03    -102.625E-03     69.4133E-03
              72     16.2169E-03     125.195E-03     3.37531E+06     34.2696E+06     37.8318E+06    -8.44093E+06    -192.489E-03     294.792E-03    -102.302E-03     86.4366E-03    -195.192E-03     297.523E-03    -102.168E-03     76.2585E-03
              73     16.2176E-03     126.484E-03    -3.49946E+06     7.37816E+06     28.4943E+06    -6.14511E+06    -205.239E-03     307.193E-03    -101.953E-03     91.2091E-03    -208.142E-03     310.030E-03    -101.817E-03     79.6623E-03
              74     16.2174E-03     127.784E-03     2.38531E+06    -17.4599E+06     29.4094E+06    -4.67389E+06    -218.994E-03     320.606E-03    -101.612E-03     103.308E-03    -222.192E-03     323.671E-03    -101.443E-03     90.1590E-03
              75     16.2213E-03     129.112E-03    -4.42007E+06    -46.9701E+06     33.6563E+06    -10.7095E+06    -234.439E-03     335.697E-03    -101.258E-03     117.781E-03    -237.995E-03     338.987E-03    -101.015E-03     102.921E-03
              76     16.2196E-03     130.469E-03     4.21562E+06    -74.1764E+06     41.3935E+06    -5.22624E+06    -244.350E-03     345.360E-03    -101.010E-03     136.607E-03    -248.407E-03     349.060E-03    -100.702E-03     120.081E-03
              77     16.2264E-03     131.812E-03    -1.09744E+06    -66.0871E+06     32.8039E+06     2.80404E+06    -251.704E-03     352.395E-03    -100.691E-03     153.862E-03    -256.404E-03     356.771E-03    -100.429E-03     135.588E-03
              78     16.2227E-03     133.180E-03    -3.79013E+06    -90.0594E+06     38.5316E+06    -12.6693E+06    -257.805E-03     358.234E-03    -100.428E-03     176.907E-03    -263.010E-03     363.011E-03    -100.100E-03     157.350E-03
              79     16.2388E-03     134.555E-03     15.5058E+06    -105.079E+06     43.3985E+06     5.98831E+06    -246.269E-03     346.707E-03    -100.438E-03     209.239E-03    -252.641E-03     352.664E-03    -100.091E-03     188.936E-03
              80     16.2310E-03     135.911E-03    -12.2959E+06    -27.8224E+06     45.7036E+06     31.4938E+06    -198.841E-03     300.552E-03    -101.711E-03     256.650E-03    -205.709E-03     307.187E-03    -101.424E-03     240.715E-03
              81     16.2240E-03     137.158E-03    -17.6136E+06     8.43063E+06     59.7385E+06    -6.43063E+06    -83.1308E-03     190.775E-03    -107.644E-03     248.122E-03    -86.5802E-03     194.122E-03    -107.332E-03     242.211E-03
              82     16.0323E-03     138.105E-03    -6.14572E+06    -14.1025E+06     41.0909E+06    -8.06796E+06     36.7439E-03     87.3070E-03    -124.051E-03     102.841E-03     36.3362E-03     87.4171E-03    -123.816E-03     102.634E-03
              83     14.6948E-03     138.541E-03     16.3716E+06     34.2102E+06     78.2391E+06    -12.1607E+06     62.3564E-03     75.6274E-03    -137.984E-03     16.0185E-03     62.2305E-03     75.6302E-03    -137.666E-03     15.8597E-03
              84     13.8020E-03     138.087E-03    -20.6692E+06    -18.6251E+06     65.5506E+06    -2.85848E+06     28.6467E-03     112.344E-03    -140.990E-03    -3.63030E-03     28.4969E-03     112.239E-03    -140.606E-03    -3.78987E-03
              85     13.0393E-03     137.588E-03    -16.1300E+06    -3.84808E+06     59.0357E+06    -7.41325E+06     4.97138E-03     136.444E-03    -141.416E-03    -40.2136E-03     4.75771E-03     136.341E-03    -141.092E-03    -40.5639E-03
              86     12.2738E-03     137.102E-03    -7.30085E+06    -2.72126E+06     60.4488E+06    -17.0058E+06    -4.61938E-03     145.205E-03    -140.586E-03    -57.3926E-03    -4.76599E-03     145.069E-03    -140.269E-03    -57.9776E-03
              87     11.5062E-03     136.658E-03    -14.4576E+06    -15.0534E+06     57.2033E+06    -2.07836E+06    -20.6354E-03     159.751E-03    -139.115E-03    -94.1539E-03    -20.7433E-03     159.487E-03    -138.787E-03    -94.7622E-03
              88     10.7632E-03     136.238E-03    -8.74383E+06     7.33838E+06     62.4457E+06    -14.1409E+06    -38.4654E-03     175.062E-03    -136.596E-03    -128.505E-03    -38.5249E-03     174.795E-03    -136.282E-03    -129.466E-03
              89     10.0221E-03     135.863E-03    -5.13168E+06    -15.3787E+06     58.9272E+06    -8.53552E+06    -55.1432E-03     188.436E-03    -133.293E-03    -151.886E-03    -55.1066E-03     187.984E-03    -132.969E-03    -152.896E-03
              90     9.29032E-03     135.523E-03     6.36203E+06    -3.41978E+06     71.8354E+06    -12.2969E+06    -70.0366E-03     199.632E-03    -129.595E-03    -161.259E-03    -69.9740E-03     199.174E-03    -129.240E-03    -162.365E-03
              91     8.55221E-03     135.226E-03     10.1705E+06    -17.3592E+06     68.4972E+06    -3.09565E+06    -82.5168E-03     208.297E-03    -125.780E-03    -158.955E-03    -82.4243E-03     207.786E-03    -125.427E-03    -159.922E-03
              92     7.80962E-03     134.963E-03     13.3237E+06    -1.52277E+06     71.7698E+06    -3.80404E+06    -92.2482E-03     214.312E-03    -122.063E-03    -149.145E-03    -92.1935E-03     213.907E-03    -121.722E-03    -150.062E-03
              93     7.05845E-03     134.738E-03     14.3561E+06     -3.4439E+06     69.1474E+06    -2.05617E+06    -99.0345E-03     217.596E-03    -118.561E-03    -134.637E-03    -98.9959E-03     217.228E-03    -118.231E-03    -135.447E-03
              94     6.29956E-03     134.543E-03     16.3299E+06     1.34410E+06     65.6142E+06    -4.00610E+06    -103.203E-03     218.542E-03    -115.340E-03    -118.124E-03    -103.182E-03     218.245E-03    -115.037E-03    -118.858E-03
              95     5.53159E-03     134.379E-03     21.0898E+06     881.904E+03     58.0397E+06    -7.24176E+06    -105.285E-03     217.725E-03    -112.440E-03    -101.331E-03    -105.248E-03     217.469E-03    -112.182E-03    -102.005E-03
              96     4.75578E-03     134.241E-03     29.4160E+06    -3.54245E+06     59.8217E+06    -8.25232E+06    -106.004E-03     215.935E-03    -109.932E-03    -85.5458E-03    -105.938E-03     215.674E-03    -109.670E-03    -86.1369E-03
              97     3.97334E-03     134.129E-03     35.7766E+06    -4.68405E+06     63.9729E+06    -4.43989E+06    -105.699E-03     213.481E-03    -107.782E-03    -70.1468E-03    -105.620E-03     213.222E-03    -107.508E-03    -70.5967E-03
              98     3.18578E-03     134.037E-03     38.7086E+06     1.13452E+06     58.4364E+06    -3.54149E+06    -104.553E-03     210.553E-03    -106.000E-03    -55.0945E-03    -104.470E-03     210.346E-03    -105.766E-03    -55.4438E-03
              99     2.39241E-03     133.969E-03     41.8928E+06    -396.881E+03     50.9877E+06    -4.29976E+06    -103.105E-03     207.888E-03    -104.784E-03    -41.8809E-03    -102.997E-03     207.695E-03    -104.589E-03    -42.1627E-03
             100     1.59368E-03     133.918E-03     46.2869E+06    -639.659E+03     50.2937E+06    -6.10044E+06    -102.359E-03     206.654E-03    -104.295E-03    -31.0764E-03    -102.235E-03     206.461E-03    -104.110E-03    -31.3165E-03
             101     794.063E-06     133.889E-03     46.3602E+06    -6.48567E+06     48.2865E+06    -6.47387E+06    -103.166E-03     207.632E-03    -104.466E-03    -19.6739E-03    -103.050E-03     207.401E-03    -104.282E-03    -19.8661E-03
             102    -141.707E-09     132.708E-03     27.9893E+06    -12.9751E+06     25.6173E+06    -3.37482E+06    -88.5433E-03     177.757E-03    -89.2138E-03    -6.58858E-03    -88.4642E-03     177.570E-03    -89.1075E-03    -6.69562E-03
             103    -343.014E-09     131.610E-03     358.913E+03    -22.5800E+06    -479.323E+03    -633.194E+03    -64.3703E-03     129.171E-03    -64.8003E-03     1.33319E-03    -64.3477E-03     129.046E-03    -64.7704E-03     1.29370E-03
             104     225.558E-09     130.551E-03    -31.9230E+06    -35.6454E+06    -30.1519E+06    -3.89260E+06    -49.9084E-03     99.8829E-03    -49.9744E-03     4.69882E-03    -49.9782E-03     99.7899E-03    -50.0272E-03     4.63219E-03
             105    -153.178E-09     129.515E-03    -78.7266E+06    -54.7826E+06    -78.6149E+06    -5.52147E+06    -41.4062E-03     82.6141E-03    -41.2079E-03     7.92882E-03    -41.6077E-03     82.5677E-03    -41.4074E-03     7.85054E-03
             106     410.788E-09     128.493E-03    -121.627E+06    -78.8228E+06    -119.586E+06    -7.80441E+06    -38.1249E-03     76.0832E-03    -37.9582E-03     10.0837E-03    -38.4451E-03     76.0394E-03    -38.2655E-03     9.98235E-03
             107    -402.647E-09     127.470E-03    -158.393E+06    -101.220E+06    -159.625E+06    -5.08002E+06    -39.3961E-03     78.6467E-03    -39.2505E-03     11.7871E-03    -39.8101E-03     78.6014E-03    -39.6722E-03     11.7259E-03
             108     573.569E-09     126.442E-03    -149.268E+06    -102.776E+06    -150.255E+06     4.03964E+06    -44.9996E-03     89.5499E-03    -44.5503E-03     13.1395E-03    -45.3807E-03     89.4684E-03    -44.9361E-03     13.1977E-03
             109    -44.6019E-09     125.397E-03    -95.1958E+06    -88.8099E+06    -93.1547E+06     4.71252E+06    -53.2539E-03     106.117E-03    -52.8627E-03     13.6241E-03    -53.4689E-03     105.943E-03    -53.0616E-03     13.6886E-03
             110     151.623E-09     124.334E-03    -62.3000E+06    -84.7347E+06    -60.7819E+06    -1.53958E+06    -62.2048E-03     124.312E-03    -62.1072E-03     13.4253E-03    -62.3087E-03     124.064E-03    -62.1979E-03     13.3978E-03
             111    -129.423E-09     123.249E-03    -51.8097E+06    -94.2998E+06    -52.8222E+06    -3.07327E+06    -71.0547E-03     141.636E-03    -70.5816E-03     13.1233E-03    -71.1038E-03     141.315E-03    -70.6338E-03     13.0578E-03
             112     831.331E-09     122.149E-03    -47.4425E+06    -104.322E+06    -46.6166E+06    -2.07985E+06    -79.1915E-03     157.537E-03    -78.3456E-03     13.0642E-03    -79.2135E-03     157.152E-03    -78.3586E-03     12.9873E-03
             113    -173.953E-09     121.030E-03    -36.6590E+06    -110.812E+06    -37.6645E+06    -1.66733E+06    -86.2610E-03     171.909E-03    -85.6478E-03     12.7128E-03    -86.2327E-03     171.463E-03    -85.6223E-03     12.6167E-03
             114     463.005E-09     119.896E-03    -34.3928E+06    -116.261E+06    -36.5335E+06    -2.47407E+06    -92.0820E-03     183.690E-03    -91.6077E-03     12.2369E-03    -92.0356E-03     183.213E-03    -91.5719E-03     12.1126E-03
             115    -55.3321E-09     118.752E-03    -47.6765E+06    -128.737E+06    -48.8777E+06    -2.93023E+06    -96.5941E-03     192.889E-03    -96.2951E-03     11.8143E-03    -96.5782E-03     192.388E-03    -96.2837E-03     11.6635E-03
             116     67.7091E-09     117.598E-03    -57.4459E+06    -141.554E+06    -56.6708E+06    -2.75211E+06    -100.198E-03     200.349E-03    -100.151E-03     11.1933E-03    -100.202E-03     199.810E-03    -100.146E-03     11.0216E-03
             117    -46.5045E-09     116.435E-03    -68.6770E+06    -158.727E+06    -68.3631E+06    -5.73060E+06    -103.116E-03     206.063E-03    -102.947E-03     10.8651E-03    -103.133E-03     205.472E-03    -102.959E-03     10.6417E-03
             118     252.041E-09     115.268E-03    -75.2054E+06    -177.151E+06    -76.9856E+06    -3.31395E+06    -105.223E-03     210.165E-03    -104.942E-03     10.7240E-03    -105.234E-03     209.504E-03    -104.961E-03     10.5251E-03
             119    -69.1937E-09     114.096E-03    -83.4713E+06    -188.031E+06    -83.3286E+06    -856.807E+03    -106.588E-03     212.913E-03    -106.325E-03     10.5710E-03    -106.615E-03     212.219E-03    -106.348E-03     10.3947E-03
             120     265.143E-09     112.923E-03    -91.5562E+06    -197.301E+06    -91.6529E+06    -1.52204E+06    -107.495E-03     214.686E-03    -107.190E-03     10.3745E-03    -107.537E-03     213.969E-03    -107.230E-03     10.1806E-03
             121    -16.2148E-09     111.747E-03    -87.1179E+06    -205.034E+06    -86.9804E+06    -2.28603E+06    -107.971E-03     215.929E-03    -107.958E-03     10.1484E-03    -107.987E-03     215.160E-03    -107.969E-03     9.93550E-03
             122    -253.455E-09     110.571E-03    -89.9521E+06    -215.334E+06    -89.7041E+06    -2.88759E+06    -108.329E-03     216.736E-03    -108.407E-03     9.71917E-03    -108.340E-03     215.924E-03    -108.413E-03     9.49151E-03
             123     359.135E-09     109.394E-03    -96.9203E+06    -226.101E+06    -97.3276E+06    -2.70468E+06    -108.821E-03     217.330E-03    -108.509E-03     9.73647E-03    -108.841E-03     216.486E-03    -108.527E-03     9.50998E-03
             124    -4.93434E-09     108.216E-03    -98.4135E+06    -232.158E+06    -99.1075E+06    -681.237E+03    -109.020E-03     217.634E-03    -108.614E-03     9.80382E-03    -109.035E-03     216.764E-03    -108.630E-03     9.60495E-03
             125     257.419E-09     107.038E-03    -97.9765E+06    -234.703E+06    -97.7854E+06     68.1864E+03    -108.986E-03     217.664E-03    -108.678E-03     9.73604E-03    -108.997E-03     216.779E-03    -108.685E-03     9.54466E-03
             126    -51.1436E-09     105.861E-03    -96.1700E+06    -235.483E+06    -96.0542E+06    -766.689E+03    -108.897E-03     217.745E-03    -108.848E-03     9.90490E-03    -108.901E-03     216.851E-03    -108.848E-03     9.70250E-03
             127    -117.682E-09     104.682E-03    -95.7679E+06    -238.211E+06    -95.7031E+06    -674.900E+03    -108.755E-03     217.674E-03    -108.920E-03     10.1775E-03    -108.753E-03     216.765E-03    -108.914E-03     9.98055E-03
             128    -23.3740E-09     103.504E-03    -95.6503E+06    -241.607E+06    -95.7217E+06    -753.617E+03    -108.799E-03     217.494E-03    -108.695E-03     10.2435E-03    -108.792E-03     216.568E-03    -108.684E-03     10.0464E-03
             129     287.151E-09     102.328E-03    -94.5904E+06    -243.686E+06    -94.8440E+06    -175.630E+03    -108.969E-03     217.572E-03    -108.603E-03     9.96528E-03    -108.954E-03     216.633E-03    -108.587E-03     9.77138E-03
             130    -6.13859E-09     101.150E-03    -94.0699E+06    -243.277E+06    -94.1064E+06     230.891E+03    -109.020E-03     217.723E-03    -108.703E-03     10.1147E-03    -109.005E-03     216.784E-03    -108.684E-03     9.92678E-03
             131     192.841E-09     99.9711E-03    -94.6576E+06    -244.026E+06    -94.6663E+06     80.9435E+03    -108.998E-03     217.605E-03    -108.606E-03     10.2485E-03    -108.984E-03     216.663E-03    -108.589E-03     10.0647E-03
             132     207.366E-09     98.7944E-03    -94.1651E+06    -243.926E+06    -94.1395E+06     281.838E+03    -108.839E-03     217.406E-03    -108.567E-03     10.0573E-03    -108.824E-03     216.464E-03    -108.547E-03     9.87379E-03
             133    -210.795E-09     97.6173E-03    -93.0524E+06    -242.615E+06    -92.6411E+06    -573.790E+03    -108.734E-03     217.448E-03    -108.714E-03     9.59453E-03    -108.717E-03     216.509E-03    -108.690E-03     9.39195E-03
             134     212.668E-09     96.4399E-03    -92.4562E+06    -242.506E+06    -92.9773E+06    -377.253E+03    -108.909E-03     217.606E-03    -108.697E-03     9.42888E-03    -108.888E-03     216.667E-03    -108.677E-03     9.22275E-03
             135     83.7319E-09     95.2619E-03    -91.9746E+06    -241.864E+06    -92.0575E+06     588.708E+03    -109.002E-03     217.714E-03    -108.713E-03     9.47261E-03    -108.981E-03     216.776E-03    -108.689E-03     9.28425E-03
             136     48.0811E-09     94.0843E-03    -91.9733E+06    -241.582E+06    -91.4356E+06     224.386E+03    -108.882E-03     217.661E-03    -108.779E-03     9.61800E-03    -108.862E-03     216.723E-03    -108.753E-03     9.43433E-03
             137    -47.6492E-09     92.9057E-03    -90.3697E+06    -240.173E+06    -90.5404E+06    -51.7803E+03    -108.730E-03     217.475E-03    -108.745E-03     10.0802E-03    -108.706E-03     216.541E-03    -108.719E-03     9.90044E-03
             138    -23.2391E-09     91.7286E-03    -90.6852E+06    -240.462E+06    -90.9505E+06     406.285E+03    -108.795E-03     217.447E-03    -108.651E-03     10.1024E-03    -108.772E-03     216.512E-03    -108.626E-03     9.92779E-03
             139     279.254E-09     90.5516E-03    -90.6011E+06    -240.026E+06    -90.2202E+06    -170.973E+03    -108.954E-03     217.592E-03    -108.638E-03     9.94261E-03    -108.932E-03     216.659E-03    -108.610E-03     9.74887E-03
             140    -64.0643E-09     89.3732E-03    -90.0017E+06    -239.776E+06    -90.6697E+06     453.431E+03    -108.948E-03     217.497E-03    -108.549E-03     9.88699E-03    -108.922E-03     216.565E-03    -108.524E-03     9.70399E-03
             141     443.416E-09     88.1962E-03    -90.5194E+06    -239.650E+06    -90.0774E+06     688.673E+03    -108.877E-03     217.335E-03    -108.458E-03     10.0267E-03    -108.855E-03     216.403E-03    -108.430E-03     9.84901E-03
             142    -185.057E-09     87.0188E-03    -89.9349E+06    -239.159E+06    -89.8360E+06    -809.443E+03    -108.677E-03     217.349E-03    -108.672E-03     9.96843E-03    -108.653E-03     216.418E-03    -108.644E-03     9.76604E-03
             143    -107.277E-09     85.8417E-03    -90.3633E+06    -239.613E+06    -90.3663E+06      25.805E+03    -108.675E-03     217.407E-03    -108.733E-03     9.69075E-03    -108.652E-03     216.476E-03    -108.706E-03     9.49945E-03
             144     266.003E-09     84.6640E-03    -90.4198E+06    -239.603E+06    -90.4519E+06    -75.3665E+03    -108.824E-03     217.455E-03    -108.631E-03     9.57409E-03    -108.801E-03     216.524E-03    -108.605E-03     9.38286E-03
             145    -151.363E-09     83.4872E-03    -90.4966E+06    -239.760E+06    -90.7175E+06     103.948E+03    -108.798E-03     217.517E-03    -108.719E-03     9.49978E-03    -108.775E-03     216.586E-03    -108.694E-03     9.31095E-03
             146     122.981E-09     82.3088E-03    -90.3785E+06    -239.095E+06    -89.6088E+06    -128.207E+03    -108.907E-03     217.554E-03    -108.647E-03     9.65279E-03    -108.885E-03     216.623E-03    -108.617E-03     9.46130E-03
             147     292.977E-09     81.1312E-03    -89.7744E+06    -239.010E+06    -90.1133E+06    -197.019E+03    -109.019E-03     217.528E-03    -108.509E-03     9.98687E-03    -108.994E-03     216.598E-03    -108.483E-03     9.79636E-03
             148     67.3454E-09     79.9537E-03    -90.4620E+06    -239.684E+06    -90.6915E+06    -123.565E+03    -108.928E-03     217.555E-03    -108.626E-03     9.98648E-03    -108.905E-03     216.623E-03    -108.601E-03     9.79596E-03
             149     14.5806E-09     78.7760E-03    -90.3473E+06    -239.295E+06    -90.1727E+06    -163.388E+03    -108.821E-03     217.639E-03    -108.818E-03     9.96371E-03    -108.799E-03     216.708E-03    -108.791E-03     9.76665E-03
             150    -132.071E-09     77.5983E-03    -90.1365E+06    -239.190E+06    -90.1286E+06    -1.71016E+03    -108.843E-03     217.657E-03    -108.814E-03     9.90719E-03    -108.820E-03     216.727E-03    -108.788E-03     9.71466E-03
             151     253.796E-09     76.4203E-03    -90.4849E+06    -239.740E+06    -90.9420E+06     396.701E+03    -108.824E-03     217.490E-03    -108.666E-03     9.92485E-03    -108.800E-03     216.558E-03    -108.642E-03     9.74901E-03
             152    -168.478E-09     75.2434E-03    -90.3695E+06    -239.044E+06    -89.7993E+06     537.836E+03    -108.672E-03     217.384E-03    -108.713E-03     9.90908E-03    -108.650E-03     216.455E-03    -108.684E-03     9.73332E-03
             153    -19.5329E-09     74.0658E-03    -90.1637E+06    -239.258E+06    -90.3721E+06    -370.122E+03    -108.806E-03     217.540E-03    -108.734E-03     9.99092E-03    -108.782E-03     216.609E-03    -108.708E-03     9.79769E-03
             154     279.061E-09     72.8875E-03    -90.2559E+06    -239.166E+06    -90.0893E+06    -560.966E+03    -109.021E-03     217.668E-03    -108.647E-03     10.3796E-03    -108.998E-03     216.738E-03    -108.620E-03     10.1837E-03
             155     19.7427E-09     71.7099E-03    -90.0964E+06    -239.195E+06    -90.3174E+06    -236.039E+03    -108.947E-03     217.507E-03    -108.560E-03     10.2229E-03    -108.923E-03     216.577E-03    -108.535E-03     10.0316E-03
             156     257.759E-09     70.5331E-03    -90.7435E+06    -239.790E+06    -90.9143E+06     1.13656E+06    -108.905E-03     217.437E-03    -108.532E-03     10.0627E-03    -108.883E-03     216.506E-03    -108.507E-03     9.88732E-03
             157     21.8739E-09     69.3552E-03    -90.4472E+06    -239.088E+06    -89.7593E+06     286.206E+03    -108.842E-03     217.542E-03    -108.700E-03     9.87647E-03    -108.822E-03     216.612E-03    -108.671E-03     9.68588E-03
             158    -105.318E-09     68.1783E-03    -89.8538E+06    -238.816E+06    -89.9476E+06    -402.731E+03    -108.729E-03     217.492E-03    -108.763E-03     9.50332E-03    -108.705E-03     216.563E-03    -108.736E-03     9.30136E-03
             159     269.393E-09     65.8227E-03    -89.6498E+06    -238.718E+06    -89.8696E+06    -479.898E+03    -108.960E-03     217.588E-03    -108.628E-03     10.0013E-03    -108.936E-03     216.659E-03    -108.601E-03     9.81383E-03
             160    -141.465E-09     64.6449E-03    -89.6374E+06    -238.548E+06    -89.7255E+06     210.492E+03    -108.834E-03     217.603E-03    -108.769E-03     9.94916E-03    -108.810E-03     216.674E-03    -108.742E-03     9.77096E-03
             161     75.0442E-09     63.4674E-03    -90.2737E+06    -239.161E+06    -90.3124E+06     993.098E+03    -108.765E-03     217.568E-03    -108.803E-03     9.91181E-03    -108.743E-03     216.638E-03    -108.776E-03     9.73841E-03
             162    -111.302E-09     62.2897E-03    -90.3533E+06    -238.967E+06    -89.8220E+06     323.226E+03    -108.783E-03     217.550E-03    -108.767E-03     9.88166E-03    -108.762E-03     216.621E-03    -108.739E-03     9.69995E-03
             163     137.094E-09     61.1122E-03    -90.0912E+06    -238.787E+06    -89.8053E+06    -330.293E+03    -108.794E-03     217.393E-03    -108.599E-03     9.79475E-03    -108.771E-03     216.464E-03    -108.571E-03     9.60343E-03
             164     113.431E-09     59.9349E-03    -89.7797E+06    -238.605E+06    -89.7584E+06    -149.303E+03    -108.808E-03     217.366E-03    -108.558E-03     10.0579E-03    -108.785E-03     216.438E-03    -108.531E-03     9.86035E-03
             165    -2.79080E-09     58.7572E-03    -89.0737E+06    -237.835E+06    -88.9368E+06    -883.409E+03    -108.803E-03     217.436E-03    -108.633E-03     10.1180E-03    -108.778E-03     216.510E-03    -108.604E-03     9.90637E-03
             166     123.712E-09     57.5798E-03    -89.0602E+06    -238.131E+06    -89.6286E+06    -335.551E+03    -108.807E-03     217.302E-03    -108.495E-03     9.92037E-03    -108.781E-03     216.375E-03    -108.468E-03     9.72193E-03
             167     212.378E-09     56.4031E-03    -89.3653E+06    -238.543E+06    -89.9810E+06     795.811E+03    -108.910E-03     217.292E-03    -108.381E-03     9.59030E-03    -108.884E-03     216.363E-03    -108.356E-03     9.40958E-03
             168     260.527E-09     55.2260E-03    -89.6245E+06    -238.421E+06    -89.1793E+06    -292.638E+03    -108.835E-03     217.382E-03    -108.547E-03     9.38286E-03    -108.812E-03     216.454E-03    -108.517E-03     9.18512E-03
             169    -300.071E-09     54.0482E-03    -88.8774E+06    -238.165E+06    -89.4650E+06    -400.077E+03    -108.603E-03     217.340E-03    -108.737E-03     9.60233E-03    -108.576E-03     216.413E-03    -108.710E-03     9.40498E-03
             170     78.0781E-09     52.8704E-03    -89.2790E+06    -238.096E+06    -89.2793E+06     104.209E+03    -108.590E-03     217.236E-03    -108.646E-03     9.92462E-03    -108.566E-03     216.309E-03    -108.618E-03     9.73538E-03
             171     11.7406E-09     51.6933E-03    -89.4836E+06    -238.215E+06    -89.3645E+06    -55.3376E+03    -108.631E-03     217.107E-03    -108.477E-03     9.99753E-03    -108.607E-03     216.180E-03    -108.448E-03     9.80901E-03
             172     105.663E-09     50.5167E-03    -89.6055E+06    -238.255E+06    -89.4174E+06     200.984E+03    -108.608E-03     217.069E-03    -108.461E-03     9.81726E-03    -108.584E-03     216.141E-03    -108.433E-03     9.62909E-03
             173    -25.3359E-09     49.3396E-03    -89.6599E+06    -238.228E+06    -89.3640E+06    -39.2307E+03    -108.639E-03     217.006E-03    -108.366E-03     9.42050E-03    -108.616E-03     216.079E-03    -108.338E-03     9.22962E-03
             174     351.025E-09     48.1633E-03    -88.9360E+06    -237.898E+06    -89.6207E+06     607.112E+03    -108.607E-03     216.870E-03    -108.263E-03     9.33058E-03    -108.581E-03     215.944E-03    -108.237E-03     9.14831E-03
             175    -164.538E-09     46.9859E-03    -89.5211E+06    -237.823E+06    -88.9168E+06    -35.6481E+03    -108.392E-03     216.744E-03    -108.352E-03     9.61587E-03    -108.370E-03     215.818E-03    -108.322E-03     9.42769E-03
             176     10.3164E-09     45.8092E-03    -89.8207E+06    -238.780E+06    -90.3279E+06    -324.921E+03    -108.097E-03     216.425E-03    -108.328E-03     9.73488E-03    -108.072E-03     215.496E-03    -108.303E-03     9.55056E-03
             177    -274.797E-09     44.6333E-03    -89.7399E+06    -238.332E+06    -89.6512E+06     708.598E+03    -108.033E-03     216.063E-03    -108.031E-03     9.63658E-03    -108.009E-03     215.136E-03    -108.003E-03     9.46696E-03
             178     503.320E-09     43.4576E-03    -89.7547E+06    -238.012E+06    -88.9888E+06    -371.050E+03    -108.096E-03     215.905E-03    -107.810E-03     9.80973E-03    -108.074E-03     214.979E-03    -107.779E-03     9.61841E-03
             179    -303.422E-09     42.2818E-03    -89.6548E+06    -238.555E+06    -90.0161E+06    -398.099E+03    -107.903E-03     215.567E-03    -107.663E-03     9.80797E-03    -107.879E-03     214.639E-03    -107.637E-03     9.61653E-03
             180     446.746E-09     41.1068E-03    -89.8186E+06    -238.303E+06    -89.6987E+06    -34.4713E+03    -107.548E-03     214.975E-03    -107.427E-03     9.72824E-03    -107.524E-03     214.048E-03    -107.400E-03     9.55046E-03
             181    -435.216E-09     39.9332E-03    -89.2184E+06    -237.999E+06    -89.8139E+06     297.416E+03    -107.156E-03     214.342E-03    -107.186E-03     9.36853E-03    -107.130E-03     213.416E-03    -107.161E-03     9.19539E-03
             182     331.846E-09     38.7596E-03    -89.8727E+06    -238.253E+06    -89.4517E+06     384.477E+03    -106.911E-03     213.694E-03    -106.783E-03     9.10052E-03    -106.888E-03     212.766E-03    -106.754E-03     8.92627E-03
             183    -52.8787E-09     37.5872E-03    -89.3248E+06    -237.840E+06    -89.3770E+06    -530.736E+03    -106.646E-03     213.232E-03    -106.586E-03     9.34890E-03    -106.621E-03     212.306E-03    -106.558E-03     9.16175E-03
             184    -167.172E-09     36.4145E-03    -88.5727E+06    -237.203E+06    -88.8965E+06     161.605E+03    -106.400E-03     212.617E-03    -106.217E-03     8.97695E-03    -106.373E-03     211.692E-03    -106.189E-03     8.80022E-03
             185     645.613E-09     35.2434E-03    -89.3830E+06    -237.783E+06    -89.3385E+06    -34.5482E+03    -105.984E-03     211.534E-03    -105.550E-03     8.90563E-03    -105.959E-03     210.608E-03    -105.523E-03     8.72951E-03
             186    -455.648E-09     34.0740E-03    -88.7027E+06    -237.172E+06    -88.9149E+06     30.8850E+03    -105.218E-03     210.404E-03    -105.186E-03     8.87470E-03    -105.192E-03     209.480E-03    -105.158E-03     8.70025E-03
             187     281.886E-09     32.9047E-03    -88.8865E+06    -236.860E+06    -88.7124E+06     103.172E+03    -104.542E-03     209.107E-03    -104.565E-03     8.90037E-03    -104.517E-03     208.184E-03    -104.536E-03     8.73308E-03
             188    -177.717E-09     31.7379E-03    -88.5481E+06    -236.647E+06    -88.9920E+06     270.955E+03    -103.872E-03     207.493E-03    -103.621E-03     8.87278E-03    -103.845E-03     206.571E-03    -103.595E-03     8.71473E-03
             189     441.617E-09     30.5738E-03    -89.2964E+06    -236.668E+06    -88.8060E+06     -80.525E+03    -103.098E-03     205.858E-03    -102.760E-03     8.36334E-03    -103.075E-03     204.936E-03    -102.731E-03     8.20229E-03
             190    -180.236E-09     29.4111E-03    -89.7105E+06    -236.963E+06    -89.9301E+06    -337.870E+03    -102.302E-03     204.288E-03    -101.986E-03     7.92266E-03    -102.279E-03     203.367E-03    -101.962E-03     7.75797E-03
             191     403.361E-09     28.2501E-03    -89.4867E+06    -236.521E+06    -89.6256E+06     72.8756E+03    -101.383E-03     202.671E-03    -101.289E-03     7.79666E-03    -101.360E-03     201.752E-03    -101.264E-03     7.63913E-03
             192    -499.555E-09     27.0905E-03    -88.4817E+06    -235.323E+06    -88.7059E+06    -42.4954E+03    -100.429E-03     200.938E-03    -100.508E-03     7.95938E-03    -100.405E-03     200.022E-03    -100.482E-03     7.80526E-03
             193     438.842E-09     25.9331E-03    -88.8920E+06    -235.176E+06    -88.8485E+06     188.029E+03    -99.6710E-03     199.177E-03    -99.5055E-03     8.13838E-03    -99.6481E-03     198.262E-03    -99.4798E-03     7.99288E-03
             194    -135.473E-09     24.7780E-03    -88.6611E+06    -234.534E+06    -88.7495E+06     276.349E+03    -98.6783E-03     197.253E-03    -98.5743E-03     7.92272E-03    -98.6553E-03     196.341E-03    -98.5494E-03     7.78329E-03
             195    -25.6408E-09     23.6260E-03    -87.7597E+06    -233.139E+06     -87.808E+06     412.593E+03    -97.7126E-03     195.367E-03    -97.6543E-03     7.25821E-03    -97.6883E-03     194.459E-03    -97.6281E-03     7.12219E-03
             196     260.148E-09     22.4754E-03    -86.8295E+06    -231.825E+06    -86.8095E+06     314.963E+03    -97.0391E-03     193.961E-03    -96.9217E-03     7.12655E-03    -97.0134E-03     193.057E-03    -96.8937E-03     6.99402E-03
             197    -323.519E-09     21.3260E-03    -86.1751E+06    -229.963E+06    -86.1756E+06     209.301E+03    -96.4623E-03     192.767E-03    -96.3048E-03     6.97968E-03    -96.4369E-03     191.870E-03    -96.2772E-03     6.84613E-03
             198     624.809E-09     20.1774E-03    -87.3458E+06    -229.005E+06    -87.0429E+06     522.566E+03    -95.9055E-03     191.142E-03    -95.2367E-03     6.53016E-03    -95.8858E-03     190.253E-03    -95.2132E-03     6.40552E-03
             199     154.439E-09     19.0330E-03    -85.6914E+06    -226.077E+06    -85.7489E+06     369.006E+03    -94.6801E-03     189.122E-03    -94.4420E-03     5.95252E-03    -94.6581E-03     188.243E-03    -94.4186E-03     5.83151E-03
             200    -559.026E-09     17.8897E-03    -84.4341E+06    -223.597E+06    -85.4370E+06    -129.940E+03    -93.0240E-03     186.447E-03    -93.4234E-03     4.81005E-03    -92.9996E-03     185.578E-03    -93.4040E-03     4.68667E-03
             201     290.756E-09     16.7496E-03    -85.7492E+06    -222.531E+06    -86.3317E+06     380.445E+03    -91.0190E-03     182.164E-03    -91.1452E-03     4.04686E-03    -91.0012E-03     181.303E-03    -91.1299E-03     3.94316E-03
             202    -238.783E-09     15.6166E-03    -84.2907E+06    -219.276E+06    -84.2013E+06     692.160E+03    -88.0410E-03     176.076E-03    -88.0348E-03     3.25110E-03    -88.0236E-03     175.225E-03    -88.0157E-03     3.16794E-03
             203     198.677E-09     14.4905E-03    -80.8299E+06    -215.010E+06    -80.9632E+06     1.25234E+06    -84.3126E-03     168.398E-03    -84.0856E-03     2.31969E-03    -84.2887E-03     167.558E-03    -84.0615E-03     2.26064E-03
             204     222.166E-09     13.3745E-03    -77.7527E+06    -209.724E+06    -77.6331E+06     1.55844E+06    -79.8258E-03     159.342E-03    -79.5161E-03     1.69963E-03    -79.7991E-03     158.519E-03    -79.4874E-03     1.65698E-03
             205    -119.696E-09     12.2690E-03    -75.5896E+06    -204.204E+06    -75.4550E+06     1.47970E+06    -74.7957E-03     149.316E-03    -74.5206E-03     608.387E-06    -74.7693E-03     148.514E-03    -74.4921E-03     573.510E-06
             206     489.955E-09     11.1757E-03    -73.5062E+06    -198.616E+06    -72.8602E+06     1.26734E+06    -69.8812E-03     139.247E-03    -69.3660E-03     131.903E-06    -69.8561E-03     138.467E-03    -69.3357E-03     100.903E-06
             207     22.0281E-09     10.0913E-03    -69.7147E+06    -192.615E+06    -69.5770E+06     1.28197E+06    -65.4807E-03     130.603E-03    -65.1224E-03     746.086E-06    -65.4498E-03     129.843E-03    -65.0899E-03     719.163E-06
             208     76.4167E-09     9.01623E-03    -66.7766E+06    -188.306E+06    -65.7819E+06     1.23199E+06    -62.9123E-03     125.556E-03    -62.6433E-03     1.67487E-03    -62.8781E-03     124.807E-03    -62.6023E-03     1.64943E-03
             209     291.529E-09     7.94407E-03    -64.3638E+06    -186.845E+06    -63.2406E+06    -115.732E+03    -63.5303E-03     126.821E-03    -63.2908E-03     3.21345E-03    -63.4902E-03     126.073E-03    -63.2427E-03     3.17083E-03
             210    -242.123E-09     6.86615E-03    -63.0928E+06    -188.917E+06    -62.4795E+06    -594.912E+03    -67.8435E-03     135.753E-03    -67.9097E-03     4.91081E-03    -67.7966E-03     134.991E-03    -67.8567E-03     4.86090E-03
             211     95.1243E-09     5.77395E-03    -61.3642E+06    -192.007E+06    -60.7498E+06    -911.337E+03    -75.5088E-03     151.142E-03    -75.6328E-03     6.06635E-03    -75.4528E-03     150.357E-03    -75.5691E-03     6.00984E-03
             212    -133.328E-09     4.66235E-03    -58.9684E+06    -195.923E+06    -59.7409E+06    -774.972E+03    -85.1582E-03     170.806E-03    -85.6477E-03     6.97365E-03    -85.0873E-03     169.995E-03    -85.5769E-03     6.91688E-03
             213    -618.203E-09     3.52601E-03    -56.0729E+06    -198.763E+06    -56.9548E+06    -254.010E+03    -95.6554E-03     191.857E-03    -96.2017E-03     6.54346E-03    -95.5694E-03     191.024E-03    -96.1169E-03     6.49226E-03
             214     484.327E-09     2.36614E-03    -52.0906E+06    -199.428E+06     -52.441E+06    -151.991E+03    -105.076E-03     210.024E-03    -104.948E-03     5.03017E-03    -104.973E-03     209.177E-03    -104.846E-03     4.98734E-03
             215    -140.301E-09     1.18812E-03    -48.3585E+06    -198.911E+06    -48.4313E+06     554.245E+03    -111.274E-03     222.146E-03    -110.872E-03     2.89337E-03    -111.157E-03     221.292E-03    -110.756E-03     2.87699E-03
             216     802.746E-06     1.29063E-15    -46.6819E+06    -198.151E+06    -46.1930E+06     599.292E+03    -113.425E-03     226.606E-03    -113.180E-03     2.56747E-03    -113.304E-03     225.750E-03    -113.056E-03     2.55048E-03
             217     1.60538E-03     1.29063E-15    -46.4153E+06    -198.127E+06    -46.5472E+06    -402.625E+03    -113.476E-03     226.814E-03    -113.338E-03     4.59865E-03    -113.354E-03     225.959E-03    -113.216E-03     4.54970E-03
             218     2.40820E-03     1.29063E-15    -46.0766E+06    -197.277E+06    -45.5003E+06    -116.799E+03    -113.603E-03     227.014E-03    -113.411E-03     6.49057E-03    -113.482E-03     226.161E-03    -113.286E-03     6.42369E-03
             219     3.21063E-03     1.29063E-15    -46.0592E+06    -196.488E+06    -44.4675E+06     325.273E+03    -113.738E-03     227.222E-03    -113.484E-03     8.64524E-03    -113.621E-03     226.372E-03    -113.355E-03     8.55827E-03
             220     4.01280E-03     1.29063E-15    -45.3177E+06    -196.251E+06    -45.7625E+06    -1.26755E+06    -113.883E-03     227.430E-03    -113.547E-03     11.1063E-03    -113.761E-03     226.583E-03    -113.426E-03     10.9749E-03
             221     4.81491E-03     1.29063E-15    -42.9481E+06    -195.321E+06    -49.9579E+06    -3.01357E+06    -114.087E-03     227.684E-03    -113.597E-03     13.6496E-03    -113.949E-03     226.845E-03    -113.502E-03     13.4726E-03
             222     5.61679E-03     1.29063E-15    -39.1824E+06    -186.156E+06    -56.7198E+06    -5.10622E+06    -114.398E-03     228.033E-03    -113.635E-03     15.9647E-03    -114.246E-03     227.245E-03    -113.592E-03     15.7310E-03
             223     6.41887E-03     1.29063E-15    -33.6293E+06    -164.162E+06    -63.1499E+06    -7.69118E+06    -114.882E-03     228.562E-03    -113.680E-03     18.3269E-03    -114.727E-03     227.887E-03    -113.709E-03     18.0224E-03
             224     7.21956E-03     1.29063E-15    -26.7120E+06    -133.880E+06    -69.1729E+06    -8.72353E+06    -115.551E-03     229.303E-03    -113.752E-03     21.1380E-03    -115.399E-03     228.781E-03    -113.865E-03     20.7804E-03
             225     8.02005E-03     1.29063E-15    -20.2528E+06    -100.811E+06    -73.1768E+06    -8.32419E+06    -116.459E-03     230.341E-03    -113.882E-03     24.2340E-03    -116.320E-03     229.984E-03    -114.072E-03     23.8356E-03
             226     8.81939E-03     1.29063E-15    -14.4773E+06    -60.6064E+06    -72.1245E+06    -8.25394E+06    -117.713E-03     231.804E-03    -114.091E-03     27.3142E-03    -117.610E-03     231.643E-03    -114.343E-03     26.8478E-03
             227     9.61780E-03     1.29063E-15    -9.93038E+06    -7.98987E+06    -63.7068E+06    -5.87172E+06    -119.405E-03     233.809E-03    -114.404E-03     30.5865E-03    -119.374E-03     233.899E-03    -114.696E-03     30.0671E-03
             228     10.4141E-03     1.29063E-15    -8.16091E+06     35.0658E+06    -37.4925E+06    -2.18357E+06    -121.763E-03     236.695E-03    -114.932E-03     34.8057E-03    -121.833E-03     236.968E-03    -115.159E-03     34.2310E-03
             229     11.2074E-03     1.29063E-15    -8.43677E+06     58.3899E+06    -534.969E+03     159.385E+03    -124.732E-03     240.411E-03    -115.679E-03     40.0803E-03    -124.906E-03     240.763E-03    -115.754E-03     39.3760E-03
             230     11.9979E-03     1.29063E-15    -7.23662E+06     74.2937E+06     36.3800E+06     765.575E+03    -129.093E-03     245.700E-03    -116.607E-03     48.5967E-03    -129.365E-03     246.103E-03    -116.522E-03     47.6742E-03
             231     12.7815E-03     1.29063E-15    -3.48403E+06     84.8156E+06     70.6881E+06    -1.62164E+06    -136.985E-03     254.800E-03    -117.815E-03     63.0550E-03    -137.365E-03     255.260E-03    -117.579E-03     61.6981E-03
             232     13.5546E-03     1.29063E-15     1.58266E+06     96.4180E+06     94.1942E+06    -1.66994E+06    -146.966E-03     266.339E-03    -119.374E-03     77.5196E-03    -147.468E-03     266.914E-03    -119.045E-03     75.5472E-03
             233     14.3226E-03     1.29063E-15     1.59331E+06     104.727E+06     98.4863E+06     3.65997E+06    -162.827E-03     284.229E-03    -121.402E-03     110.624E-03    -163.787E-03     285.270E-03    -121.064E-03     106.938E-03
             234     15.0545E-03     1.29063E-15     1.76824E+06     108.270E+06     95.0296E+06     8.23947E+06    -191.605E-03     315.978E-03    -124.373E-03     188.839E-03    -193.987E-03     318.418E-03    -124.058E-03     181.546E-03
             235     15.9442E-03     1.37672E-03    -617.491E+03     112.991E+06     88.1501E+06     8.14472E+06    -184.108E-03     305.977E-03    -121.869E-03     205.517E-03    -187.397E-03     309.364E-03    -121.591E-03     197.061E-03
             236     16.0370E-03     2.62042E-03    -2.48300E+06     114.976E+06     78.9125E+06     7.32146E+06    -166.066E-03     281.000E-03    -114.934E-03     137.223E-03    -168.797E-03     283.903E-03    -114.702E-03     129.541E-03
             237     16.0960E-03     3.87719E-03    -2.09135E+06     114.661E+06     78.0829E+06     4.72503E+06    -178.567E-03     289.478E-03    -110.911E-03     85.1418E-03    -180.687E-03     291.775E-03    -110.684E-03     76.8423E-03
             238     16.1186E-03     5.16734E-03    -4.30871E+06     114.927E+06     81.6795E+06     2.22374E+06    -184.214E-03     293.193E-03    -108.979E-03     59.8263E-03    -186.101E-03     295.241E-03    -108.731E-03     51.1179E-03
             239     16.1295E-03     6.43854E-03    -86.7168E+03     116.409E+06     85.1073E+06    -16.0746E+03    -177.737E-03     286.066E-03    -108.329E-03     47.3125E-03    -179.455E-03     287.948E-03    -108.072E-03     38.9558E-03
             240     16.1365E-03     7.69123E-03    -2.19582E+06     112.173E+06     83.6789E+06    -4.81193E+06    -168.866E-03     277.102E-03    -108.236E-03     37.2367E-03    -170.442E-03     278.824E-03    -107.977E-03     29.4658E-03
             241     16.1308E-03     8.93859E-03    -2.62444E+06     111.905E+06     86.1295E+06    -967.695E+03    -163.118E-03     271.512E-03    -108.394E-03     30.3198E-03    -164.595E-03     273.126E-03    -108.122E-03     23.2146E-03
             242     16.1348E-03     10.1810E-03    -1.62526E+06     111.273E+06     83.8706E+06     2.06320E+06    -152.081E-03     260.704E-03    -108.624E-03     29.3879E-03    -153.462E-03     262.232E-03    -108.363E-03     23.1714E-03
             243     16.1344E-03     11.4040E-03    -3.63956E+06     109.117E+06     80.9695E+06    -1.88491E+06    -142.394E-03     251.192E-03    -108.798E-03     29.1289E-03    -143.764E-03     252.701E-03    -108.546E-03     23.4383E-03
             244     16.1347E-03     12.6156E-03    -843.144E+03     112.804E+06     85.3740E+06     815.017E+03    -138.471E-03     247.330E-03    -108.859E-03     26.4632E-03    -139.817E-03     248.825E-03    -108.594E-03     21.1395E-03
             245     16.1375E-03     13.8308E-03    -3.22372E+06     110.697E+06     82.4352E+06     2.39859E+06    -133.037E-03     241.904E-03    -108.867E-03     24.4126E-03    -134.342E-03     243.351E-03    -108.611E-03     19.5090E-03
             246     16.1391E-03     15.0387E-03    -2.91206E+06     111.697E+06     82.9946E+06    -229.630E+03    -128.102E-03     236.926E-03    -108.824E-03     28.8524E-03    -129.490E-03     238.459E-03    -108.566E-03     24.0724E-03
             247     16.1436E-03     16.2353E-03    -104.455E+03     114.985E+06     86.2600E+06    -758.395E+03    -129.014E-03     237.629E-03    -108.615E-03     29.9758E-03    -130.439E-03     239.211E-03    -108.350E-03     25.1036E-03
             248     16.1452E-03     17.4463E-03    -3.06734E+06     113.326E+06     84.9050E+06    -141.815E+03    -130.345E-03     238.812E-03    -108.467E-03     27.7618E-03    -131.768E-03     240.381E-03    -108.202E-03     22.8883E-03
             249     16.1448E-03     18.6550E-03    -2.68280E+06     115.024E+06     86.3865E+06     2.08362E+06    -127.248E-03     235.732E-03    -108.485E-03     31.4675E-03    -128.747E-03     237.380E-03    -108.216E-03     26.7528E-03
             250     16.1480E-03     19.8526E-03    -3.42092E+06     114.616E+06     85.3813E+06     1.27074E+06    -124.299E-03     232.768E-03    -108.470E-03     34.0410E-03    -125.850E-03     234.467E-03    -108.204E-03     29.4283E-03
             251     16.1473E-03     21.0522E-03    -2.04158E+06     115.942E+06     86.6518E+06     711.619E+03    -123.722E-03     232.129E-03    -108.407E-03     34.5618E-03    -125.295E-03     233.856E-03    -108.139E-03     29.9591E-03
             252     16.1505E-03     22.2486E-03    -1.71036E+06     116.663E+06     86.4745E+06     63.1643E+03    -122.485E-03     230.836E-03    -108.350E-03     34.4472E-03    -124.079E-03     232.587E-03    -108.085E-03     29.8727E-03
             253     16.1502E-03     23.4455E-03    -4.16937E+06     115.257E+06     85.3661E+06    -1.93464E+06    -121.710E-03     230.054E-03    -108.344E-03     35.2543E-03    -123.348E-03     231.839E-03    -108.078E-03     30.6980E-03
             254     16.1492E-03     24.6428E-03    -1.55895E+06     118.045E+06     88.6417E+06    -245.922E+03    -119.961E-03     228.337E-03    -108.377E-03     36.6677E-03    -121.627E-03     230.160E-03    -108.102E-03     32.2493E-03
             255     16.1528E-03     25.8320E-03    -879.921E+03     118.798E+06     88.6501E+06     395.196E+03    -117.593E-03     225.958E-03    -108.365E-03     38.3945E-03    -119.283E-03     227.809E-03    -108.092E-03     34.0969E-03
             256     16.1511E-03     27.0249E-03    -1.67825E+06     118.484E+06     88.2304E+06    -341.059E+03    -117.381E-03     225.732E-03    -108.352E-03     38.5371E-03    -119.082E-03     227.593E-03    -108.080E-03     34.2736E-03
             257     16.1520E-03     28.2145E-03    -3.19281E+06     117.354E+06     87.8530E+06    -48.0050E+03    -115.934E-03     224.345E-03    -108.411E-03     38.4069E-03    -117.656E-03     226.218E-03    -108.138E-03     34.2594E-03
             258     16.1505E-03     29.4025E-03    -1.24054E+06     119.107E+06     89.3595E+06     1.70032E+06    -113.098E-03     221.577E-03    -108.479E-03     39.4798E-03    -114.840E-03     223.479E-03    -108.203E-03     35.5014E-03
             259     16.1530E-03     30.5845E-03    -3.52866E+06     116.784E+06     86.4358E+06     630.394E+03    -112.281E-03     220.760E-03    -108.479E-03     39.4747E-03    -114.031E-03     222.661E-03    -108.211E-03     35.5236E-03
             260     16.1504E-03     31.7691E-03    -2.92237E+06     117.770E+06     87.7133E+06     366.388E+03    -112.859E-03     221.317E-03    -108.458E-03     39.3946E-03    -114.607E-03     223.218E-03    -108.186E-03     35.4436E-03
             261     16.1538E-03     32.9561E-03    -1.92281E+06     118.694E+06     88.6465E+06     399.461E+03    -111.540E-03     220.021E-03    -108.480E-03     39.3303E-03    -113.280E-03     221.917E-03    -108.206E-03     35.4698E-03
             262     16.1504E-03     34.1381E-03    -3.39099E+06     117.205E+06     87.1133E+06    -742.485E+03    -109.574E-03     218.099E-03    -108.525E-03     39.9421E-03    -111.329E-03     220.005E-03    -108.254E-03     36.1666E-03
             263     16.1539E-03     35.3159E-03    -228.136E+03     119.983E+06     90.0238E+06    -830.438E+03    -108.341E-03     216.858E-03    -108.517E-03     39.4621E-03    -110.085E-03     218.766E-03    -108.240E-03     35.7546E-03
             264     16.1531E-03     36.4956E-03    -3.12154E+06     117.333E+06     88.0405E+06    -1.54631E+06    -109.560E-03     218.054E-03    -108.495E-03     38.3316E-03    -111.307E-03     219.952E-03    -108.220E-03     34.5815E-03
             265     16.1504E-03     37.6804E-03    -2.79662E+06     117.738E+06     88.6352E+06     646.247E+03    -109.635E-03     218.168E-03    -108.534E-03     38.6065E-03    -111.380E-03     220.065E-03    -108.257E-03     34.9122E-03
             266     16.1542E-03     38.8583E-03    -65.2273E+03     120.057E+06     89.7684E+06     493.744E+03    -107.364E-03     215.897E-03    -108.533E-03     40.7457E-03    -109.119E-03     217.818E-03    -108.258E-03     37.1247E-03
             267     16.1531E-03     40.0372E-03    -2.98496E+06     117.641E+06     87.6448E+06    -958.517E+03    -108.884E-03     217.393E-03    -108.508E-03     39.3585E-03    -110.640E-03     219.302E-03    -108.236E-03     35.6665E-03
             268     16.1504E-03     41.2192E-03    -3.48856E+06     117.721E+06     87.8127E+06     695.620E+03    -108.897E-03     217.454E-03    -108.557E-03     38.3010E-03    -110.647E-03     219.355E-03    -108.284E-03     34.6688E-03
             269     16.1538E-03     42.3980E-03    -1.11686E+06     119.557E+06     88.8412E+06     92.0609E+03    -106.093E-03     214.668E-03    -108.575E-03     40.8018E-03    -107.860E-03     216.597E-03    -108.303E-03     37.2577E-03
             270     16.1531E-03     43.5738E-03    -3.17152E+06     117.728E+06     87.7698E+06    -778.916E+03    -107.307E-03     215.869E-03    -108.562E-03     39.8786E-03    -109.075E-03     217.789E-03    -108.289E-03     36.2872E-03
             271     16.1500E-03     44.7551E-03    -2.77926E+06     117.966E+06     88.4455E+06     548.519E+03    -107.614E-03     216.198E-03    -108.584E-03     39.4856E-03    -109.372E-03     218.108E-03    -108.309E-03     35.9088E-03
             272     16.1552E-03     45.9310E-03    -1.79836E+06     118.309E+06     88.8877E+06    -396.610E+03    -106.139E-03     214.721E-03    -108.582E-03     40.4087E-03    -107.898E-03     216.636E-03    -108.307E-03     36.8709E-03
             273     16.1504E-03     47.1101E-03    -1.55136E+06     118.884E+06     89.8239E+06     1.02747E+06    -107.152E-03     215.734E-03    -108.581E-03     39.8762E-03    -108.916E-03     217.654E-03    -108.302E-03     36.3243E-03
             274     16.1534E-03     48.2877E-03    -2.84014E+06     117.458E+06     88.0284E+06     1.38403E+06    -107.212E-03     215.808E-03    -108.595E-03     39.3601E-03    -108.973E-03     217.720E-03    -108.321E-03     35.8034E-03
             275     16.1509E-03     49.4659E-03    -3.66396E+06     117.122E+06     87.2765E+06    -1.16964E+06    -106.809E-03     215.386E-03    -108.577E-03     40.0969E-03    -108.584E-03     217.311E-03    -108.305E-03     36.5084E-03
             276     16.1546E-03     50.6433E-03    -713.098E+03     119.624E+06     89.9138E+06    -1.28475E+06    -106.630E-03     215.174E-03    -108.545E-03     39.2996E-03    -108.387E-03     217.093E-03    -108.268E-03     35.7277E-03
             277     16.1523E-03     51.8214E-03    -2.40815E+06     118.123E+06     88.6964E+06    -175.705E+03    -107.458E-03     216.002E-03    -108.545E-03     39.2716E-03    -109.224E-03     217.922E-03    -108.269E-03     35.6831E-03
             278     16.1518E-03     53.0025E-03    -1.33549E+06     120.042E+06     90.1168E+06     2.08594E+06    -107.504E-03     216.089E-03    -108.585E-03     39.9499E-03    -109.278E-03     218.022E-03    -108.306E-03     36.3955E-03
             279     16.1527E-03     54.1799E-03    -2.38138E+06     118.600E+06     87.3902E+06     586.874E+03    -105.548E-03     214.149E-03    -108.601E-03     40.9381E-03    -107.332E-03     216.092E-03    -108.332E-03     37.4321E-03
             280     16.1529E-03     55.3545E-03    -4.64466E+06     116.841E+06     86.1872E+06    -1.89737E+06    -106.675E-03     215.265E-03    -108.590E-03     40.2745E-03    -108.473E-03     217.212E-03    -108.322E-03     36.6935E-03
             281     16.1504E-03     56.5342E-03    -1.36414E+06     119.125E+06     89.3492E+06    -579.737E+03    -107.019E-03     215.596E-03    -108.577E-03     39.9511E-03    -108.799E-03     217.535E-03    -108.301E-03     36.3752E-03
             282     16.1559E-03     57.7117E-03    -1.48818E+06     118.300E+06     88.8872E+06    -498.686E+03    -106.072E-03     214.637E-03    -108.564E-03     41.2314E-03    -107.865E-03     216.586E-03    -108.289E-03     37.6791E-03
             283     16.1496E-03     58.8912E-03    -1.33816E+06     119.253E+06     90.5025E+06     1.66017E+06    -107.066E-03     215.650E-03    -108.584E-03     42.2566E-03    -108.881E-03     217.621E-03    -108.302E-03     38.7056E-03
             284     16.1543E-03     60.0691E-03    -2.51803E+06     117.860E+06     88.3719E+06     1.66291E+06    -106.136E-03     214.727E-03    -108.590E-03     42.6016E-03    -107.942E-03     216.686E-03    -108.316E-03     39.0751E-03
             285     16.1519E-03     61.2439E-03    -2.86551E+06     117.005E+06     87.7070E+06    -1.66193E+06    -105.490E-03     214.068E-03    -108.578E-03     41.4100E-03    -107.285E-03     216.014E-03    -108.305E-03     37.8551E-03
             286     16.1537E-03     62.4200E-03    -2.51136E+06     117.985E+06     89.6798E+06    -1.31333E+06    -107.098E-03     215.673E-03    -108.575E-03     40.0374E-03    -108.885E-03     217.611E-03    -108.295E-03     36.4485E-03
             287     16.1506E-03     63.6003E-03    -2.82832E+06     117.444E+06     89.0392E+06     165.767E+03    -107.246E-03     215.835E-03    -108.589E-03     40.0221E-03    -109.018E-03     217.756E-03    -108.310E-03     36.4563E-03
             288     16.1538E-03     64.7786E-03    -2.19897E+06     117.532E+06     88.7158E+06     293.291E+03    -106.532E-03     215.125E-03    -108.593E-03     41.6542E-03    -108.309E-03     217.054E-03    -108.316E-03     38.1124E-03
             289     16.1512E-03     65.9554E-03    -2.35259E+06     117.283E+06     88.8247E+06    -31.6818E+03    -106.509E-03     215.098E-03    -108.590E-03     40.3549E-03    -108.274E-03     217.014E-03    -108.312E-03     36.8341E-03
             290     16.1535E-03     67.1323E-03    -1.22627E+06     118.041E+06     89.7950E+06    -123.395E+03    -105.714E-03     214.309E-03    -108.595E-03     39.3052E-03    -107.475E-03     216.224E-03    -108.315E-03     35.8150E-03
             291     16.1527E-03     68.3070E-03    -2.59516E+06     117.004E+06     88.8046E+06    -650.138E+03    -106.368E-03     214.937E-03    -108.569E-03     40.0609E-03    -108.143E-03     216.861E-03    -108.291E-03     36.5164E-03
             292     807.317E-06     68.1885E-03    -89.0533E+06    -237.133E+06    -87.1896E+06    -170.315E+03    -108.817E-03     217.582E-03    -108.765E-03     16.0499E-03    -108.804E-03     216.665E-03    -108.728E-03     15.7284E-03
             293     1.61455E-03     68.2141E-03    -86.4895E+06    -232.353E+06    -79.7934E+06     47.3292E+03    -108.984E-03     217.769E-03    -108.785E-03     29.5295E-03    -109.003E-03     216.887E-03    -108.722E-03     28.9391E-03
             294     2.42181E-03     68.2546E-03    -82.3952E+06    -224.151E+06    -68.0068E+06     43.2430E+03    -109.178E-03     217.997E-03    -108.819E-03     43.4755E-03    -109.253E-03     217.181E-03    -108.715E-03     42.5744E-03
             295     3.22924E-03     68.3109E-03    -77.3260E+06    -213.710E+06    -54.1855E+06     95.9577E+03    -109.447E-03     218.293E-03    -108.846E-03     57.3479E-03    -109.602E-03     217.572E-03    -108.695E-03     56.1076E-03
             296     4.03659E-03     68.3823E-03    -71.4912E+06    -203.016E+06    -41.6216E+06     171.796E+03    -109.799E-03     218.658E-03    -108.859E-03     70.8611E-03    -110.057E-03     218.062E-03    -108.669E-03     69.2446E-03
             297     4.84417E-03     68.4684E-03    -65.4337E+06    -186.618E+06    -30.8634E+06     31.7913E+03    -110.227E-03     219.082E-03    -108.855E-03     83.9833E-03    -110.627E-03     218.677E-03    -108.644E-03     81.9422E-03
             298     5.65150E-03     68.5689E-03    -59.8468E+06    -168.491E+06    -21.8311E+06     10.0360E+03    -110.697E-03     219.541E-03    -108.844E-03     96.7199E-03    -111.283E-03     219.380E-03    -108.622E-03     94.2063E-03
             299     6.45900E-03     68.6833E-03    -54.6934E+06    -149.284E+06    -14.5888E+06     147.938E+03    -111.173E-03     219.998E-03    -108.824E-03     109.073E-03    -112.000E-03     220.143E-03    -108.602E-03     106.031E-03
             300     7.26652E-03     68.8109E-03    -49.6442E+06    -135.805E+06    -8.14348E+06     472.399E+03    -111.617E-03     220.426E-03    -108.809E-03     120.989E-03    -112.741E-03     220.916E-03    -108.581E-03     117.355E-03
             301     8.07423E-03     68.9510E-03    -45.0428E+06    -117.020E+06    -3.06578E+06     707.923E+03    -112.028E-03     220.807E-03    -108.779E-03     132.599E-03    -113.538E-03     221.751E-03    -108.559E-03     128.308E-03
             302     8.88172E-03     69.1039E-03    -41.0635E+06    -90.5840E+06     1.16251E+06     507.828E+03    -112.415E-03     221.153E-03    -108.738E-03     143.392E-03    -114.430E-03     222.697E-03    -108.541E-03     138.354E-03
             303     9.68919E-03     69.2671E-03    -37.6553E+06    -63.8527E+06     4.74984E+06     634.192E+03    -112.552E-03     221.247E-03    -108.696E-03     153.422E-03    -115.195E-03     223.516E-03    -108.525E-03     147.584E-03
             304     10.4971E-03     69.4414E-03    -34.8239E+06    -21.3094E+06     9.60175E+06     945.863E+03    -112.454E-03     221.086E-03    -108.631E-03     163.823E-03    -115.956E-03     224.360E-03    -108.502E-03     157.095E-03
             305     11.3042E-03     69.6260E-03    -31.9714E+06     40.8891E+06     16.6289E+06     985.813E+03    -112.406E-03     220.948E-03    -108.541E-03     177.529E-03    -117.130E-03     225.655E-03    -108.471E-03     169.797E-03
             306     12.1139E-03     69.8308E-03    -27.9112E+06     87.2858E+06     33.9009E+06     593.054E+03    -112.469E-03     220.990E-03    -108.520E-03     194.387E-03    -118.859E-03     227.491E-03    -108.437E-03     185.591E-03
             307     12.9195E-03     70.0519E-03    -22.2234E+06     107.539E+06     65.9119E+06     375.075E+03    -112.031E-03     220.643E-03    -108.613E-03     203.678E-03    -119.962E-03     228.687E-03    -108.407E-03     194.328E-03
             308     13.7292E-03     70.2770E-03    -16.0816E+06     117.346E+06     88.9622E+06    -139.012E+03    -109.898E-03     218.574E-03    -108.676E-03     185.306E-03    -117.848E-03     226.626E-03    -108.378E-03     176.733E-03
             309     14.5363E-03     70.4562E-03    -10.2517E+06     121.631E+06     96.6272E+06    -331.688E+03    -107.792E-03     216.467E-03    -108.675E-03     159.503E-03    -115.345E-03     224.136E-03    -108.354E-03     152.020E-03
             310     15.3424E-03     70.6248E-03    -5.00674E+06     122.080E+06     94.1156E+06     410.756E+03    -106.807E-03     215.444E-03    -108.637E-03     96.0786E-03    -111.550E-03     220.329E-03    -108.336E-03     90.7376E-03
             311     807.219E-06     69.3665E-03    -89.4224E+06    -237.253E+06    -86.9896E+06     266.966E+03    -108.862E-03     217.600E-03    -108.739E-03     16.2495E-03    -108.851E-03     216.683E-03    -108.700E-03     15.9349E-03
             312     1.61451E-03     69.3915E-03    -86.5960E+06    -232.250E+06    -79.4626E+06     104.201E+03    -108.958E-03     217.746E-03    -108.788E-03     29.5745E-03    -108.978E-03     216.865E-03    -108.723E-03     28.9853E-03
             313     2.42193E-03     69.4323E-03    -82.4614E+06    -224.359E+06    -67.9898E+06     98.6679E+03    -109.161E-03     217.974E-03    -108.813E-03     43.4898E-03    -109.235E-03     217.156E-03    -108.708E-03     42.5899E-03
             314     3.22917E-03     69.4884E-03    -77.2374E+06    -213.679E+06    -54.0443E+06     207.368E+03    -109.437E-03     218.275E-03    -108.838E-03     57.3187E-03    -109.592E-03     217.553E-03    -108.686E-03     56.0801E-03
             315     4.03669E-03     69.5598E-03    -71.2133E+06    -203.026E+06    -41.2241E+06    -22.0641E+03    -109.809E-03     218.662E-03    -108.854E-03     70.8425E-03    -110.066E-03     218.065E-03    -108.662E-03     69.2231E-03
             316     4.84401E-03     69.6460E-03    -65.3114E+06    -186.802E+06    -30.9978E+06     42.8817E+03    -110.255E-03     219.106E-03    -108.852E-03     83.9869E-03    -110.654E-03     218.700E-03    -108.641E-03     81.9461E-03
             317     5.65155E-03     69.7466E-03    -59.9433E+06    -168.438E+06    -21.9007E+06     236.742E+03    -110.718E-03     219.562E-03    -108.844E-03     96.7474E-03    -111.305E-03     219.402E-03    -108.623E-03     94.2352E-03
             318     6.45902E-03     69.8608E-03    -54.8426E+06    -149.175E+06    -14.4819E+06     145.600E+03    -111.169E-03     219.996E-03    -108.827E-03     109.094E-03    -111.997E-03     220.141E-03    -108.603E-03     106.051E-03
             319     7.26661E-03     69.9885E-03    -50.0452E+06    -136.551E+06    -8.53094E+06     155.544E+03    -111.635E-03     220.447E-03    -108.812E-03     120.914E-03    -112.760E-03     220.935E-03    -108.584E-03     117.273E-03
             320     8.07400E-03     70.1285E-03    -45.5661E+06    -117.508E+06    -3.56082E+06     481.672E+03    -112.051E-03     220.834E-03    -108.783E-03     132.507E-03    -113.564E-03     221.779E-03    -108.565E-03     128.208E-03
             321     8.88175E-03     70.2815E-03    -41.5011E+06    -90.4324E+06     1.14590E+06     677.815E+03    -112.341E-03     221.082E-03    -108.741E-03     143.436E-03    -114.357E-03     222.626E-03    -108.544E-03     138.407E-03
             322     9.68931E-03     70.4451E-03    -37.9060E+06    -64.3024E+06     4.30054E+06     820.493E+03    -112.482E-03     221.174E-03    -108.691E-03     153.278E-03    -115.126E-03     223.442E-03    -108.522E-03     147.443E-03
             323     10.4971E-03     70.6183E-03    -34.2540E+06    -22.0475E+06     9.19155E+06     1.32009E+06    -112.495E-03     221.121E-03    -108.626E-03     163.791E-03    -115.990E-03     224.389E-03    -108.498E-03     157.068E-03
             324     11.3052E-03     70.8048E-03    -30.4615E+06     41.2755E+06     16.7608E+06     1.38935E+06    -112.469E-03     221.008E-03    -108.539E-03     177.529E-03    -117.186E-03     225.715E-03    -108.471E-03     169.802E-03
             325     12.1114E-03     71.0066E-03    -26.8525E+06     88.6300E+06     34.6050E+06     611.828E+03    -112.526E-03     221.049E-03    -108.523E-03     194.713E-03    -118.924E-03     227.566E-03    -108.440E-03     185.908E-03
             326     12.9215E-03     71.2313E-03    -22.6013E+06     107.326E+06     65.8004E+06    -10.9434E+03    -111.912E-03     220.524E-03    -108.612E-03     203.720E-03    -119.834E-03     228.556E-03    -108.406E-03     194.388E-03
             327     13.7281E-03     71.4528E-03    -16.8291E+06     117.912E+06     88.7709E+06     120.004E+03    -109.869E-03     218.539E-03    -108.671E-03     185.156E-03    -117.815E-03     226.587E-03    -108.373E-03     176.606E-03
             328     14.5366E-03     71.6359E-03    -11.3945E+06     121.635E+06     96.4285E+06     111.531E+03    -107.574E-03     216.237E-03    -108.663E-03     160.197E-03    -115.127E-03     223.902E-03    -108.341E-03     152.761E-03
             329     15.3458E-03     71.8022E-03    -5.52509E+06     121.297E+06     93.5083E+06    -129.791E+03    -106.526E-03     215.133E-03    -108.607E-03     96.7980E-03    -111.258E-03     220.005E-03    -108.308E-03     91.4863E-03
             330     807.343E-06     70.5439E-03    -89.5597E+06    -237.582E+06    -87.4940E+06     581.264E+03    -108.900E-03     217.541E-03    -108.640E-03     16.3399E-03    -108.889E-03     216.622E-03    -108.603E-03     16.0314E-03
             331     1.61464E-03     70.5692E-03    -86.6390E+06    -232.358E+06    -79.5634E+06     130.831E+03    -108.967E-03     217.733E-03    -108.766E-03     29.5586E-03    -108.987E-03     216.851E-03    -108.702E-03     28.9690E-03
             332     2.42183E-03     70.6098E-03    -82.4920E+06    -224.306E+06    -67.9126E+06     109.805E+03    -109.151E-03     217.950E-03    -108.800E-03     43.4840E-03    -109.225E-03     217.133E-03    -108.694E-03     42.5842E-03
             333     3.22934E-03     70.6660E-03    -76.9406E+06    -213.769E+06    -54.1401E+06    -50.6530E+03    -109.453E-03     218.280E-03    -108.827E-03     57.3191E-03    -109.606E-03     217.558E-03    -108.676E-03     56.0770E-03
             334     4.03663E-03     70.7374E-03    -71.1232E+06    -203.021E+06    -41.4341E+06     129.717E+03    -109.846E-03     218.695E-03    -108.850E-03     70.8355E-03    -110.102E-03     218.099E-03    -108.659E-03     69.2171E-03
             335     4.84413E-03     70.8236E-03    -65.5885E+06    -187.017E+06    -30.8727E+06     148.272E+03    -110.267E-03     219.121E-03    -108.855E-03     83.9828E-03    -110.667E-03     218.715E-03    -108.643E-03     81.9425E-03
             336     5.65154E-03     70.9241E-03    -59.8634E+06    -168.881E+06    -21.8960E+06     222.790E+03    -110.720E-03     219.568E-03    -108.848E-03     96.7050E-03    -111.306E-03     219.406E-03    -108.626E-03     94.1910E-03
             337     6.45900E-03     71.0385E-03    -54.6933E+06    -148.976E+06    -14.3731E+06     482.163E+03    -111.178E-03     220.009E-03    -108.831E-03     109.028E-03    -112.006E-03     220.155E-03    -108.607E-03     105.989E-03
             338     7.26645E-03     71.1660E-03    -50.1260E+06    -136.421E+06    -8.32167E+06     325.632E+03    -111.651E-03     220.469E-03    -108.818E-03     120.940E-03    -112.777E-03     220.957E-03    -108.589E-03     117.300E-03
             339     8.07404E-03     71.3063E-03    -45.6717E+06    -117.944E+06    -3.89452E+06     414.223E+03    -112.053E-03     220.841E-03    -108.788E-03     132.562E-03    -113.567E-03     221.785E-03    -108.570E-03     128.260E-03
             340     8.88150E-03     71.4588E-03    -41.5122E+06    -90.7194E+06     750.401E+03     552.811E+03    -112.290E-03     221.031E-03    -108.742E-03     143.485E-03    -114.303E-03     222.573E-03    -108.546E-03     138.459E-03
             341     9.68942E-03     71.6226E-03    -37.5207E+06    -64.9922E+06     4.05639E+06     619.437E+03    -112.465E-03     221.154E-03    -108.689E-03     153.375E-03    -115.104E-03     223.417E-03    -108.520E-03     147.542E-03
             342     10.4969E-03     71.7962E-03    -33.7387E+06    -22.8939E+06     9.03254E+06     800.241E+03    -112.463E-03     221.084E-03    -108.621E-03     163.843E-03    -115.950E-03     224.344E-03    -108.494E-03     157.122E-03
             343     11.3045E-03     71.9817E-03    -30.2143E+06     41.4480E+06     17.2953E+06     980.540E+03    -112.455E-03     220.989E-03    -108.534E-03     177.659E-03    -117.171E-03     225.696E-03    -108.464E-03     169.932E-03
             344     12.1139E-03     72.1854E-03    -26.0944E+06     90.0303E+06     35.6977E+06     1.08776E+06    -112.587E-03     221.107E-03    -108.520E-03     194.808E-03    -118.987E-03     227.630E-03    -108.434E-03     186.006E-03
             345     12.9196E-03     72.4079E-03    -21.6776E+06     107.582E+06     66.9824E+06     1.13286E+06    -111.972E-03     220.587E-03    -108.615E-03     203.608E-03    -119.885E-03     228.610E-03    -108.404E-03     194.295E-03
             346     13.7291E-03     72.6310E-03    -17.0056E+06     117.506E+06     88.8250E+06     1.00717E+06    -109.729E-03     218.397E-03    -108.667E-03     185.186E-03    -117.661E-03     226.427E-03    -108.369E-03     176.672E-03
             347     14.5366E-03     72.8132E-03    -10.3595E+06     122.765E+06     97.0843E+06     247.911E+03    -107.199E-03     215.844E-03    -108.645E-03     159.623E-03    -114.704E-03     223.466E-03    -108.322E-03     152.232E-03
             348     15.3451E-03     72.9777E-03    -4.50971E+06     121.469E+06     94.4235E+06    -413.451E+03    -106.794E-03     215.384E-03    -108.590E-03     96.2219E-03    -111.496E-03     220.227E-03    -108.287E-03     90.9109E-03
             349     807.360E-06     71.7216E-03    -89.1258E+06    -237.435E+06    -87.5893E+06    -135.062E+03    -108.915E-03     217.577E-03    -108.662E-03     16.3349E-03    -108.902E-03     216.659E-03    -108.626E-03     16.0166E-03
             350     1.61454E-03     71.7468E-03    -86.5287E+06    -232.536E+06    -80.0251E+06    -129.407E+03    -108.935E-03     217.708E-03    -108.773E-03     29.4134E-03    -108.954E-03     216.826E-03    -108.710E-03     28.8196E-03
             351     2.42201E-03     71.7873E-03    -82.2544E+06    -224.408E+06    -68.2249E+06    -3.17351E+03    -109.134E-03     217.928E-03    -108.794E-03     43.4214E-03    -109.207E-03     217.111E-03    -108.691E-03     42.5207E-03
             352     3.22926E-03     71.8436E-03    -77.1492E+06    -213.887E+06    -54.5193E+06     131.536E+03    -109.476E-03     218.299E-03    -108.823E-03     57.3178E-03    -109.629E-03     217.577E-03    -108.674E-03     56.0778E-03
             353     4.03667E-03     71.9150E-03    -71.6153E+06    -203.447E+06    -41.9593E+06     173.361E+03    -109.878E-03     218.731E-03    -108.852E-03     70.7990E-03    -110.136E-03     218.134E-03    -108.663E-03     69.1792E-03
             354     4.84399E-03     72.0012E-03    -65.7166E+06    -186.954E+06    -30.9279E+06     324.800E+03    -110.284E-03     219.146E-03    -108.863E-03     83.9357E-03    -110.685E-03     218.740E-03    -108.651E-03     81.8960E-03
             355     5.65144E-03     72.1018E-03    -60.2672E+06    -169.180E+06    -21.9514E+06     113.883E+03    -110.704E-03     219.560E-03    -108.856E-03     96.6901E-03    -111.292E-03     219.397E-03    -108.633E-03     94.1751E-03
             356     6.45894E-03     72.2160E-03    -54.7622E+06    -149.549E+06    -14.6381E+06     316.777E+03    -111.151E-03     219.985E-03    -108.834E-03     109.086E-03    -111.978E-03     220.129E-03    -108.611E-03     106.045E-03
             357     7.26652E-03     72.3437E-03    -49.5937E+06    -135.896E+06    -8.01292E+06     572.681E+03    -111.607E-03     220.423E-03    -108.816E-03     121.027E-03    -112.732E-03     220.913E-03    -108.588E-03     117.394E-03
             358     8.07402E-03     72.4838E-03    -45.2391E+06    -118.168E+06    -3.60138E+06     440.356E+03    -112.000E-03     220.782E-03    -108.782E-03     132.650E-03    -113.511E-03     221.723E-03    -108.563E-03     128.354E-03
             359     8.88181E-03     72.6365E-03    -41.2812E+06    -91.2968E+06     742.537E+03     478.915E+03    -112.306E-03     221.039E-03    -108.733E-03     143.608E-03    -114.318E-03     222.578E-03    -108.537E-03     138.582E-03
             360     9.68929E-03     72.7999E-03    -37.7882E+06    -64.8367E+06     4.35781E+06     502.098E+03    -112.472E-03     221.154E-03    -108.682E-03     153.553E-03    -115.112E-03     223.418E-03    -108.511E-03     147.722E-03
             361     10.4973E-03     72.9740E-03    -34.7233E+06    -23.1070E+06     9.01462E+06     544.001E+03    -112.471E-03     221.086E-03    -108.615E-03     163.794E-03    -115.964E-03     224.348E-03    -108.486E-03     157.066E-03
             362     11.3054E-03     73.1591E-03    -31.2359E+06     41.0755E+06     17.0963E+06     533.846E+03    -112.517E-03     221.049E-03    -108.532E-03     177.603E-03    -117.242E-03     225.759E-03    -108.461E-03     169.859E-03
             363     12.1116E-03     73.3629E-03    -27.4848E+06     89.4868E+06     34.6285E+06     421.557E+03    -112.577E-03     221.094E-03    -108.517E-03     194.656E-03    -118.976E-03     227.612E-03    -108.434E-03     185.847E-03
             364     12.9216E-03     73.5858E-03    -22.2574E+06     106.292E+06     65.1882E+06     1.19428E+06    -111.954E-03     220.562E-03    -108.608E-03     203.491E-03    -119.863E-03     228.581E-03    -108.404E-03     194.177E-03
             365     13.7280E-03     73.8088E-03    -15.6050E+06     118.692E+06     89.6561E+06     1.44659E+06    -109.798E-03     218.469E-03    -108.671E-03     184.652E-03    -117.722E-03     226.498E-03    -108.372E-03     176.121E-03
             366     14.5374E-03     73.9891E-03    -9.97170E+06     124.368E+06     98.0091E+06     117.767E+03    -107.723E-03     216.393E-03    -108.670E-03     158.486E-03    -115.235E-03     224.027E-03    -108.346E-03     151.014E-03
             367     15.3453E-03     74.1566E-03    -5.04266E+06     121.183E+06     94.1581E+06    -241.158E+03    -106.727E-03     215.356E-03    -108.629E-03     95.8782E-03    -111.448E-03     220.216E-03    -108.327E-03     90.5304E-03
             368     807.094E-06     72.8994E-03    -89.2159E+06    -237.311E+06    -87.2798E+06    -373.081E+03    -108.922E-03     217.645E-03    -108.723E-03     16.3970E-03    -108.910E-03     216.727E-03    -108.686E-03     16.0752E-03
             369     1.61454E-03     72.9242E-03    -86.4691E+06    -232.433E+06    -79.8849E+06    -17.0258E+03    -108.915E-03     217.711E-03    -108.796E-03     29.4003E-03    -108.934E-03     216.830E-03    -108.733E-03     28.8078E-03
             370     2.42183E-03     72.9648E-03    -82.7316E+06    -224.756E+06    -68.5341E+06     41.6951E+03    -109.153E-03     217.960E-03    -108.808E-03     43.4119E-03    -109.227E-03     217.142E-03    -108.704E-03     42.5111E-03
             371     3.22930E-03     73.0211E-03    -77.4657E+06    -214.148E+06    -54.7651E+06     65.3730E+03    -109.478E-03     218.314E-03    -108.836E-03     57.3032E-03    -109.632E-03     217.591E-03    -108.687E-03     56.0622E-03
             372     4.03659E-03     73.0927E-03    -71.3853E+06    -203.439E+06    -41.8624E+06     34.8382E+03    -109.865E-03     218.726E-03    -108.862E-03     70.8174E-03    -110.121E-03     218.129E-03    -108.673E-03     69.1964E-03
             373     4.84396E-03     73.1788E-03    -65.4995E+06    -187.405E+06    -31.0776E+06     250.175E+03    -110.255E-03     219.121E-03    -108.866E-03     83.9979E-03    -110.654E-03     218.712E-03    -108.655E-03     81.9585E-03
             374     5.65145E-03     73.2794E-03    -59.7213E+06    -168.680E+06    -21.4961E+06     419.736E+03    -110.673E-03     219.528E-03    -108.855E-03     96.8020E-03    -111.260E-03     219.366E-03    -108.631E-03     94.2933E-03
             375     6.45898E-03     73.3935E-03    -54.6537E+06    -149.782E+06    -14.3541E+06     93.7103E+03    -111.117E-03     219.946E-03    -108.829E-03     109.178E-03    -111.944E-03     220.088E-03    -108.604E-03     106.136E-03
             376     7.26655E-03     73.5212E-03    -49.9690E+06    -136.572E+06    -8.40082E+06     416.627E+03    -111.568E-03     220.374E-03    -108.805E-03     121.080E-03    -112.692E-03     220.860E-03    -108.577E-03     117.450E-03
             377     8.07426E-03     73.6613E-03    -45.6769E+06    -118.135E+06    -3.50041E+06     472.088E+03    -112.008E-03     220.780E-03    -108.772E-03     132.588E-03    -113.522E-03     221.722E-03    -108.552E-03     128.290E-03
             378     8.88186E-03     73.8139E-03    -41.6915E+06    -91.6604E+06     710.667E+03     466.736E+03    -112.324E-03     221.050E-03    -108.726E-03     143.431E-03    -114.336E-03     222.587E-03    -108.529E-03     138.402E-03
             379     9.68966E-03     73.9777E-03    -37.9894E+06    -65.1216E+06     4.34211E+06     772.026E+03    -112.461E-03     221.138E-03    -108.677E-03     153.352E-03    -115.100E-03     223.399E-03    -108.506E-03     147.525E-03
             380     10.4971E-03     74.1512E-03    -34.5632E+06    -22.9060E+06     9.33944E+06     918.490E+03    -112.553E-03     221.167E-03    -108.615E-03     163.781E-03    -116.045E-03     224.429E-03    -108.485E-03     157.054E-03
             381     11.3044E-03     74.3370E-03    -31.6082E+06     41.2114E+06     16.5512E+06     590.281E+03    -112.573E-03     221.107E-03    -108.533E-03     177.553E-03    -117.305E-03     225.824E-03    -108.465E-03     169.797E-03
             382     12.1137E-03     74.5407E-03    -28.1365E+06     88.7007E+06     34.1846E+06     483.812E+03    -112.573E-03     221.095E-03    -108.522E-03     194.687E-03    -118.973E-03     227.611E-03    -108.439E-03     185.877E-03
             383     12.9196E-03     74.7633E-03    -23.1814E+06     106.216E+06     64.7739E+06     177.398E+03    -111.913E-03     220.525E-03    -108.612E-03     203.384E-03    -119.825E-03     228.544E-03    -108.408E-03     194.062E-03
             384     13.7292E-03     74.9862E-03    -16.7359E+06     118.838E+06     88.6861E+06    -156.696E+03    -110.096E-03     218.776E-03    -108.679E-03     184.921E-03    -118.053E-03     226.838E-03    -108.384E-03     176.324E-03
             385     14.5351E-03     75.1678E-03    -9.84935E+06     124.784E+06     98.3212E+06     862.388E+03    -107.968E-03     216.665E-03    -108.696E-03     159.557E-03    -115.516E-03     224.335E-03    -108.371E-03     152.072E-03
             386     15.3414E-03     75.3346E-03    -4.24430E+06     121.695E+06     94.9963E+06     590.068E+03    -106.276E-03     214.924E-03    -108.648E-03     96.6040E-03    -111.004E-03     219.793E-03    -108.343E-03     91.3031E-03
             387     807.351E-06     74.0768E-03    -89.2976E+06    -237.386E+06    -87.3661E+06    -103.775E+03    -108.813E-03     217.559E-03    -108.745E-03     16.2806E-03    -108.801E-03     216.641E-03    -108.708E-03     15.9630E-03
             388     1.61457E-03     74.1018E-03    -86.8438E+06    -232.592E+06    -79.8521E+06     23.2043E+03    -108.959E-03     217.730E-03    -108.771E-03     29.5466E-03    -108.979E-03     216.848E-03    -108.707E-03     28.9539E-03
             389     2.42189E-03     74.1424E-03    -82.5892E+06    -224.573E+06    -68.2633E+06    -70.6360E+03    -109.222E-03     218.032E-03    -108.810E-03     43.5223E-03    -109.296E-03     217.214E-03    -108.706E-03     42.6191E-03
             390     3.22910E-03     74.1988E-03    -77.2618E+06    -214.155E+06    -54.6507E+06    -111.213E+03    -109.482E-03     218.330E-03    -108.848E-03     57.3611E-03    -109.636E-03     217.607E-03    -108.699E-03     56.1183E-03
             391     4.03656E-03     74.2702E-03    -71.5533E+06    -203.684E+06    -42.0953E+06     73.8445E+03    -109.797E-03     218.662E-03    -108.864E-03     70.8663E-03    -110.054E-03     218.063E-03    -108.676E-03     69.2484E-03
             392     4.84406E-03     74.3565E-03    -65.7107E+06    -187.615E+06    -31.2093E+06     89.5924E+03    -110.197E-03     219.055E-03    -108.858E-03     84.0269E-03    -110.596E-03     218.645E-03    -108.647E-03     81.9875E-03
             393     5.65159E-03     74.4568E-03    -60.1232E+06    -169.065E+06    -21.9599E+06     296.865E+03    -110.659E-03     219.500E-03    -108.841E-03     96.8146E-03    -111.246E-03     219.337E-03    -108.618E-03     94.3062E-03
             394     6.45910E-03     74.5713E-03    -54.9188E+06    -149.319E+06    -14.2007E+06     504.637E+03    -111.121E-03     219.939E-03    -108.818E-03     109.108E-03    -111.949E-03     220.084E-03    -108.593E-03     106.072E-03
             395     7.26675E-03     74.6985E-03    -50.2141E+06    -137.074E+06    -8.21530E+06     330.007E+03    -111.602E-03     220.402E-03    -108.800E-03     120.959E-03    -112.727E-03     220.886E-03    -108.570E-03     117.323E-03
             396     8.07422E-03     74.8391E-03    -45.7829E+06    -118.324E+06    -3.73750E+06     568.317E+03    -112.065E-03     220.835E-03    -108.770E-03     132.505E-03    -113.579E-03     221.777E-03    -108.551E-03     128.205E-03
             397     8.88169E-03     74.9914E-03    -41.7587E+06    -91.5535E+06     792.011E+03     517.234E+03    -112.352E-03     221.082E-03    -108.730E-03     143.318E-03    -114.366E-03     222.620E-03    -108.533E-03     138.285E-03
             398     9.68926E-03     75.1551E-03    -37.9527E+06    -65.8285E+06     3.89896E+06     606.484E+03    -112.483E-03     221.165E-03    -108.682E-03     153.284E-03    -115.120E-03     223.422E-03    -108.512E-03     147.452E-03
             399     10.4973E-03     75.3289E-03    -34.3487E+06    -23.7319E+06     8.74011E+06     943.378E+03    -112.534E-03     221.152E-03    -108.618E-03     163.892E-03    -116.025E-03     224.411E-03    -108.490E-03     157.165E-03
             400     11.3052E-03     75.5152E-03    -30.9424E+06     41.3062E+06     16.5438E+06     1.13272E+06    -112.579E-03     221.115E-03    -108.536E-03     177.580E-03    -117.307E-03     225.832E-03    -108.468E-03     169.832E-03
             401     12.1116E-03     75.7173E-03    -27.4165E+06     89.4551E+06     34.6542E+06     999.748E+03    -112.591E-03     221.118E-03    -108.527E-03     194.607E-03    -118.986E-03     227.633E-03    -108.444E-03     185.809E-03
             402     12.9214E-03     75.9420E-03    -22.5776E+06     107.669E+06     66.5964E+06     398.401E+03    -111.975E-03     220.599E-03    -108.625E-03     203.396E-03    -119.893E-03     228.627E-03    -108.415E-03     194.066E-03
             403     13.7279E-03     76.1628E-03    -17.5943E+06     119.387E+06     89.0629E+06    -338.799E+03    -109.908E-03     218.591E-03    -108.683E-03     185.549E-03    -117.881E-03     226.667E-03    -108.386E-03     176.967E-03
             404     14.5367E-03     76.3483E-03    -11.8222E+06     123.254E+06     96.6055E+06    -839.797E+03    -107.354E-03     216.024E-03    -108.670E-03     159.854E-03    -114.906E-03     223.691E-03    -108.349E-03     152.406E-03
             405     15.3478E-03     76.5092E-03    -4.99376E+06     121.542E+06     94.7619E+06     233.511E+03    -106.625E-03     215.244E-03    -108.619E-03     96.4243E-03    -111.350E-03     220.108E-03    -108.314E-03     91.1163E-03
             406     807.306E-06     75.2541E-03    -89.5494E+06    -237.462E+06    -87.2690E+06     249.387E+03    -108.773E-03     217.491E-03    -108.717E-03     16.2355E-03    -108.763E-03     216.572E-03    -108.680E-03     15.9257E-03
             407     1.61473E-03     75.2794E-03    -86.7171E+06    -232.479E+06    -79.7270E+06    -29.4662E+03    -108.987E-03     217.737E-03    -108.750E-03     29.5306E-03    -109.007E-03     216.855E-03    -108.686E-03     28.9382E-03
             408     2.42188E-03     75.3202E-03    -82.4548E+06    -224.418E+06    -68.0612E+06    -126.076E+03    -109.219E-03     218.022E-03    -108.803E-03     43.5137E-03    -109.293E-03     217.204E-03    -108.698E-03     42.6104E-03
             409     3.22924E-03     75.3764E-03    -77.3027E+06    -214.224E+06    -54.6867E+06    -22.2954E+03    -109.466E-03     218.306E-03    -108.840E-03     57.3640E-03    -109.620E-03     217.583E-03    -108.690E-03     56.1220E-03
             410     4.03661E-03     75.4477E-03    -71.4993E+06    -203.931E+06    -42.1266E+06     12.9937E+03    -109.785E-03     218.640E-03    -108.855E-03     70.8631E-03    -110.041E-03     218.040E-03    -108.666E-03     69.2437E-03
             411     4.84413E-03     75.5339E-03    -65.6305E+06    -187.887E+06    -31.2711E+06     91.4923E+03    -110.203E-03     219.052E-03    -108.849E-03     84.0021E-03    -110.602E-03     218.642E-03    -108.638E-03     81.9623E-03
             412     5.65158E-03     75.6345E-03    -60.1145E+06    -169.568E+06    -21.8946E+06     326.787E+03    -110.669E-03     219.506E-03    -108.836E-03     96.7228E-03    -111.256E-03     219.340E-03    -108.613E-03     94.2136E-03
             413     6.45915E-03     75.7486E-03    -54.7741E+06    -149.540E+06    -14.2323E+06     481.933E+03    -111.158E-03     219.974E-03    -108.816E-03     109.025E-03    -111.985E-03     220.117E-03    -108.591E-03     105.988E-03
             414     7.26654E-03     75.8763E-03    -49.7604E+06    -136.719E+06    -8.01035E+06     497.561E+03    -111.659E-03     220.463E-03    -108.804E-03     120.894E-03    -112.784E-03     220.949E-03    -108.574E-03     117.256E-03
             415     8.07410E-03     76.0163E-03    -45.3441E+06    -118.780E+06    -3.81152E+06     552.702E+03    -112.049E-03     220.825E-03    -108.776E-03     132.501E-03    -113.559E-03     221.763E-03    -108.557E-03     128.203E-03
             416     8.88180E-03     76.1694E-03    -41.2577E+06    -91.3910E+06     888.659E+03     721.067E+03    -112.348E-03     221.081E-03    -108.734E-03     143.365E-03    -114.359E-03     222.619E-03    -108.537E-03     138.338E-03
             417     9.68948E-03     76.3324E-03    -37.7596E+06    -65.7784E+06     4.22791E+06     639.236E+03    -112.593E-03     221.283E-03    -108.691E-03     153.355E-03    -115.232E-03     223.544E-03    -108.520E-03     147.515E-03
             418     10.4968E-03     76.5067E-03    -34.4252E+06    -24.6048E+06     8.48602E+06     570.813E+03    -112.539E-03     221.170E-03    -108.630E-03     163.738E-03    -116.036E-03     224.432E-03    -108.502E-03     156.993E-03
             419     11.3045E-03     76.6920E-03    -30.6498E+06     40.6148E+06     16.6504E+06     860.349E+03    -112.470E-03     221.016E-03    -108.546E-03     177.556E-03    -117.187E-03     225.720E-03    -108.477E-03     169.819E-03
             420     12.1133E-03     76.8968E-03    -26.1450E+06     89.8576E+06     35.9020E+06     1.32720E+06    -112.559E-03     221.092E-03    -108.533E-03     194.623E-03    -118.950E-03     227.605E-03    -108.446E-03     185.835E-03
             421     12.9197E-03     77.1176E-03    -22.1705E+06     107.880E+06     67.1526E+06     1.49496E+06    -112.015E-03     220.644E-03    -108.628E-03     203.655E-03    -119.945E-03     228.683E-03    -108.417E-03     194.327E-03
             422     13.7286E-03     77.3430E-03    -16.7420E+06     120.889E+06     90.5987E+06     930.487E+03    -109.691E-03     218.376E-03    -108.684E-03     185.009E-03    -117.642E-03     226.433E-03    -108.382E-03     176.475E-03
             423     14.5373E-03     77.5216E-03    -10.4908E+06     125.396E+06     98.5879E+06    -731.887E+03    -107.406E-03     216.076E-03    -108.670E-03     158.717E-03    -114.931E-03     223.723E-03    -108.343E-03     151.277E-03
             424     15.3423E-03     77.6897E-03    -5.45605E+06     120.586E+06     93.8630E+06    -469.739E+03    -106.859E-03     215.480E-03    -108.621E-03     95.7812E-03    -111.570E-03     220.328E-03    -108.319E-03     90.4421E-03
             425     807.391E-06     76.4318E-03    -89.3404E+06    -237.519E+06    -87.5207E+06     236.786E+03    -108.854E-03     217.569E-03    -108.714E-03     16.2440E-03    -108.842E-03     216.650E-03    -108.678E-03     15.9349E-03
             426     1.61445E-03     76.4570E-03    -86.5947E+06    -232.430E+06    -79.7290E+06     33.4476E+03    -108.965E-03     217.741E-03    -108.777E-03     29.5313E-03    -108.984E-03     216.859E-03    -108.713E-03     28.9398E-03
             427     2.42191E-03     76.4978E-03    -82.5531E+06    -224.408E+06    -68.0243E+06     108.342E+03    -109.153E-03     217.959E-03    -108.806E-03     43.4712E-03    -109.227E-03     217.141E-03    -108.701E-03     42.5708E-03
             428     3.22924E-03     76.5539E-03    -77.3713E+06    -214.181E+06    -54.4182E+06    -53.2202E+03    -109.434E-03     218.265E-03    -108.831E-03     57.2704E-03    -109.588E-03     217.542E-03    -108.680E-03     56.0276E-03
             429     4.03672E-03     76.6252E-03    -71.5728E+06    -203.920E+06    -41.9764E+06    -90.9094E+03    -109.821E-03     218.669E-03    -108.848E-03     70.7806E-03    -110.077E-03     218.069E-03    -108.658E-03     69.1587E-03
             430     4.84407E-03     76.7115E-03    -65.7557E+06    -188.038E+06    -31.0676E+06     98.9102E+03    -110.238E-03     219.089E-03    -108.851E-03     83.9511E-03    -110.637E-03     218.677E-03    -108.638E-03     81.9102E-03
             431     5.65159E-03     76.8119E-03    -59.9606E+06    -169.845E+06    -21.9362E+06     189.820E+03    -110.691E-03     219.532E-03    -108.841E-03     96.6994E-03    -111.276E-03     219.365E-03    -108.617E-03     94.1871E-03
             432     6.45902E-03     76.9263E-03    -54.5829E+06    -150.068E+06    -14.6131E+06     305.996E+03    -111.175E-03     219.996E-03    -108.821E-03     109.058E-03    -112.000E-03     220.137E-03    -108.597E-03     106.018E-03
             433     7.26663E-03     77.0539E-03    -49.8162E+06    -137.030E+06    -8.33842E+06     458.412E+03    -111.665E-03     220.474E-03    -108.809E-03     120.951E-03    -112.789E-03     220.959E-03    -108.580E-03     117.314E-03
             434     8.07406E-03     77.1941E-03    -45.4548E+06    -118.968E+06    -3.72518E+06     566.211E+03    -112.059E-03     220.842E-03    -108.783E-03     132.408E-03    -113.569E-03     221.780E-03    -108.563E-03     128.108E-03
             435     8.88174E-03     77.3464E-03    -41.6380E+06    -91.5453E+06     844.501E+03     747.920E+03    -112.386E-03     221.128E-03    -108.743E-03     143.310E-03    -114.397E-03     222.665E-03    -108.546E-03     138.283E-03
             436     9.68919E-03     77.5106E-03    -37.8762E+06    -65.3877E+06     4.67249E+06     720.754E+03    -112.595E-03     221.298E-03    -108.703E-03     153.314E-03    -115.239E-03     223.562E-03    -108.530E-03     147.471E-03
             437     10.4969E-03     77.6842E-03    -34.2833E+06    -24.5822E+06     8.90840E+06     495.150E+03    -112.585E-03     221.229E-03    -108.644E-03     163.778E-03    -116.083E-03     224.492E-03    -108.514E-03     157.028E-03
             438     11.3045E-03     77.8699E-03    -31.3377E+06     40.2705E+06     16.4367E+06     796.436E+03    -112.476E-03     221.035E-03    -108.559E-03     177.500E-03    -117.196E-03     225.739E-03    -108.490E-03     169.760E-03
             439     12.1120E-03     78.0730E-03    -28.4526E+06     87.9625E+06     33.8244E+06     780.530E+03    -112.386E-03     220.922E-03    -108.536E-03     194.520E-03    -118.780E-03     227.429E-03    -108.453E-03     185.731E-03
             440     12.9211E-03     78.2972E-03    -22.6032E+06     107.415E+06     66.0076E+06     928.576E+03    -111.914E-03     220.536E-03    -108.622E-03     203.807E-03    -119.837E-03     228.568E-03    -108.415E-03     194.494E-03
             441     13.7284E-03     78.5187E-03    -15.7721E+06     122.445E+06     91.4537E+06     973.782E+03    -109.900E-03     218.586E-03    -108.686E-03     184.701E-03    -117.845E-03     226.644E-03    -108.383E-03     176.155E-03
             442     14.5356E-03     78.7009E-03    -10.1040E+06     126.628E+06     99.3312E+06     962.365E+03    -107.684E-03     216.368E-03    -108.684E-03     159.452E-03    -115.218E-03     224.028E-03    -108.357E-03     152.012E-03
             443     15.3459E-03     78.8671E-03    -5.14834E+06     121.046E+06     94.3382E+06     30.0978E+03    -106.574E-03     215.206E-03    -108.631E-03     96.6755E-03    -111.297E-03     220.067E-03    -108.328E-03     91.3584E-03
             444     807.091E-06     77.6093E-03    -89.1365E+06    -237.364E+06    -87.3477E+06    -9.73036E+03    -108.843E-03     217.651E-03    -108.808E-03     16.2521E-03    -108.831E-03     216.733E-03    -108.771E-03     15.9341E-03
             445     1.61464E-03     77.6347E-03    -86.6264E+06    -232.518E+06    -79.8758E+06     51.2848E+03    -108.925E-03     217.726E-03    -108.801E-03     29.5551E-03    -108.945E-03     216.844E-03    -108.737E-03     28.9634E-03
             446     2.42183E-03     77.6753E-03    -82.6329E+06    -224.570E+06    -68.2396E+06     52.3134E+03    -109.131E-03     217.941E-03    -108.810E-03     43.4616E-03    -109.206E-03     217.123E-03    -108.706E-03     42.5600E-03
             447     3.22931E-03     77.7315E-03    -77.4585E+06    -214.039E+06    -54.3278E+06     146.630E+03    -109.439E-03     218.271E-03    -108.832E-03     57.2555E-03    -109.594E-03     217.549E-03    -108.681E-03     56.0154E-03
             448     4.03660E-03     77.8029E-03    -71.7707E+06    -203.900E+06    -41.6727E+06     43.9415E+03    -109.840E-03     218.693E-03    -108.853E-03     70.7675E-03    -110.098E-03     218.093E-03    -108.662E-03     69.1470E-03
             449     4.84408E-03     77.8890E-03    -65.6811E+06    -187.998E+06    -31.1176E+06    -16.3061E+03    -110.263E-03     219.120E-03    -108.857E-03     83.9219E-03    -110.662E-03     218.708E-03    -108.645E-03     81.8789E-03
             450     5.65149E-03     77.9895E-03    -60.1168E+06    -170.154E+06    -22.3624E+06     41.9920E+03    -110.707E-03     219.555E-03    -108.848E-03     96.6940E-03    -111.291E-03     219.387E-03    -108.626E-03     94.1796E-03
             451     6.45904E-03     78.1039E-03    -55.0109E+06    -150.350E+06    -14.8860E+06     248.667E+03    -111.180E-03     220.010E-03    -108.830E-03     109.052E-03    -112.006E-03     220.150E-03    -108.606E-03     106.011E-03
             452     7.26649E-03     78.2315E-03    -50.1672E+06    -137.615E+06    -8.47574E+06     401.529E+03    -111.646E-03     220.464E-03    -108.818E-03     120.896E-03    -112.771E-03     220.947E-03    -108.588E-03     117.258E-03
             453     8.07407E-03     78.3717E-03    -45.7334E+06    -119.326E+06    -3.89056E+06     530.369E+03    -112.108E-03     220.900E-03    -108.792E-03     132.396E-03    -113.620E-03     221.837E-03    -108.572E-03     128.093E-03
             454     8.88145E-03     78.5242E-03    -41.6807E+06    -91.4472E+06     891.316E+03     826.691E+03    -112.429E-03     221.184E-03    -108.755E-03     143.395E-03    -114.443E-03     222.723E-03    -108.558E-03     138.364E-03
             455     9.68909E-03     78.6883E-03    -38.1853E+06    -65.8123E+06     4.17377E+06     682.886E+03    -112.523E-03     221.234E-03    -108.711E-03     153.440E-03    -115.168E-03     223.498E-03    -108.539E-03     147.599E-03
             456     10.4968E-03     78.8617E-03    -34.9813E+06    -24.2281E+06     8.59543E+06     747.665E+03    -112.544E-03     221.190E-03    -108.646E-03     163.881E-03    -116.039E-03     224.450E-03    -108.517E-03     157.149E-03
             457     11.3044E-03     79.0479E-03    -31.4113E+06     39.7747E+06     15.8105E+06     829.433E+03    -112.498E-03     221.056E-03    -108.558E-03     177.626E-03    -117.221E-03     225.763E-03    -108.491E-03     169.886E-03
             458     12.1124E-03     79.2507E-03    -26.8583E+06     88.6143E+06     34.4205E+06     802.057E+03    -112.474E-03     221.014E-03    -108.540E-03     194.713E-03    -118.862E-03     227.521E-03    -108.457E-03     185.923E-03
             459     12.9203E-03     79.4732E-03    -22.6054E+06     107.554E+06     65.8250E+06     569.802E+03    -111.775E-03     220.396E-03    -108.621E-03     203.844E-03    -119.679E-03     228.411E-03    -108.415E-03     194.553E-03
             460     13.7284E-03     79.6985E-03    -16.9937E+06     121.131E+06     89.7528E+06     777.951E+03    -109.726E-03     218.396E-03    -108.670E-03     185.290E-03    -117.664E-03     226.443E-03    -108.372E-03     176.773E-03
             461     14.5371E-03     79.8769E-03    -10.6109E+06     126.279E+06     98.5798E+06     1.22917E+06    -107.569E-03     216.229E-03    -108.660E-03     160.079E-03    -115.112E-03     223.896E-03    -108.335E-03     152.656E-03
             462     15.3431E-03     80.0456E-03    -4.70665E+06     121.696E+06     95.0646E+06    -25.4296E+03    -106.565E-03     215.173E-03    -108.608E-03     96.5604E-03    -111.296E-03     220.043E-03    -108.302E-03     91.2435E-03
             463     807.338E-06     78.7871E-03    -89.4484E+06    -237.479E+06    -87.2919E+06    -32.8939E+03    -108.841E-03     217.652E-03    -108.811E-03     16.2416E-03    -108.830E-03     216.733E-03    -108.773E-03     15.9222E-03
             464     1.61441E-03     78.8121E-03    -86.7078E+06    -232.590E+06    -79.8810E+06     19.8457E+03    -108.931E-03     217.733E-03    -108.803E-03     29.5106E-03    -108.950E-03     216.851E-03    -108.739E-03     28.9194E-03
             465     2.42195E-03     78.8529E-03    -82.6948E+06    -224.708E+06    -68.4623E+06     91.7135E+03    -109.141E-03     217.953E-03    -108.813E-03     43.4427E-03    -109.215E-03     217.135E-03    -108.709E-03     42.5420E-03
             466     3.22919E-03     78.9090E-03    -77.4602E+06    -214.311E+06    -54.6374E+06     180.210E+03    -109.455E-03     218.291E-03    -108.836E-03     57.2637E-03    -109.608E-03     217.568E-03    -108.687E-03     56.0239E-03
             467     4.03668E-03     78.9805E-03    -71.4419E+06    -203.693E+06    -41.6658E+06     251.771E+03    -109.847E-03     218.706E-03    -108.859E-03     70.7937E-03    -110.104E-03     218.107E-03    -108.668E-03     69.1762E-03
             468     4.84399E-03     79.0666E-03    -65.9162E+06    -188.103E+06    -31.2063E+06     83.7922E+03    -110.278E-03     219.142E-03    -108.864E-03     83.9319E-03    -110.678E-03     218.731E-03    -108.652E-03     81.8895E-03
             469     5.65147E-03     79.1671E-03    -60.4262E+06    -170.356E+06    -22.2716E+06     46.1101E+03    -110.729E-03     219.587E-03    -108.858E-03     96.7007E-03    -111.316E-03     219.419E-03    -108.635E-03     94.1856E-03
             470     6.45889E-03     79.2814E-03    -55.1871E+06    -150.644E+06    -14.8800E+06     381.572E+03    -111.176E-03     220.015E-03    -108.840E-03     109.088E-03    -112.003E-03     220.155E-03    -108.615E-03     106.049E-03
             471     7.26642E-03     79.4092E-03    -50.4973E+06    -137.601E+06    -8.53856E+06     487.034E+03    -111.647E-03     220.472E-03    -108.825E-03     120.962E-03    -112.773E-03     220.955E-03    -108.595E-03     117.326E-03
             472     8.07395E-03     79.5491E-03    -46.1216E+06    -119.478E+06    -4.06852E+06     468.528E+03    -112.084E-03     220.880E-03    -108.797E-03     132.562E-03    -113.596E-03     221.816E-03    -108.577E-03     128.263E-03
             473     8.88150E-03     79.7024E-03    -41.9452E+06    -92.3094E+06     199.621E+03     516.849E+03    -112.380E-03     221.133E-03    -108.753E-03     143.548E-03    -114.394E-03     222.670E-03    -108.557E-03     138.515E-03
             474     9.68919E-03     79.8652E-03    -38.0401E+06    -65.8024E+06     4.15841E+06     797.945E+03    -112.561E-03     221.270E-03    -108.709E-03     153.559E-03    -115.204E-03     223.532E-03    -108.537E-03     147.723E-03
             475     10.4968E-03     80.0400E-03    -34.4873E+06    -24.1739E+06     8.88807E+06     777.371E+03    -112.475E-03     221.118E-03    -108.643E-03     163.946E-03    -115.965E-03     224.374E-03    -108.513E-03     157.225E-03
             476     11.3046E-03     80.2250E-03    -30.7820E+06     39.9981E+06     16.4068E+06     379.197E+03    -112.337E-03     220.885E-03    -108.547E-03     177.686E-03    -117.056E-03     225.588E-03    -108.479E-03     169.955E-03
             477     12.1128E-03     80.4284E-03    -27.1451E+06     88.1514E+06     34.2833E+06     562.228E+03    -112.468E-03     220.989E-03    -108.521E-03     195.155E-03    -118.860E-03     227.498E-03    -108.438E-03     186.370E-03
             478     12.9201E-03     80.6520E-03    -22.1791E+06     107.700E+06     66.0287E+06     1.28645E+06    -111.869E-03     220.473E-03    -108.603E-03     204.169E-03    -119.784E-03     228.500E-03    -108.397E-03     194.877E-03
             479     13.7295E-03     80.8729E-03    -16.8865E+06     121.188E+06     89.7320E+06     1.17722E+06    -109.754E-03     218.409E-03    -108.655E-03     185.217E-03    -117.698E-03     226.463E-03    -108.358E-03     176.691E-03
             480     14.5369E-03     81.0578E-03    -10.6511E+06     126.895E+06     98.8233E+06     323.589E+03    -107.492E-03     216.141E-03    -108.649E-03     158.953E-03    -115.031E-03     223.806E-03    -108.324E-03     151.510E-03
             481     15.3472E-03     81.2204E-03    -4.43831E+06     122.507E+06     95.5498E+06     9.72216E+03    -106.577E-03     215.179E-03    -108.602E-03     95.7814E-03    -111.304E-03     220.048E-03    -108.295E-03     90.4570E-03
             482     807.174E-06     79.9647E-03    -89.3725E+06    -237.655E+06    -87.6476E+06    -58.2294E+03    -108.904E-03     217.608E-03    -108.703E-03     16.2235E-03    -108.892E-03     216.689E-03    -108.668E-03     15.9064E-03
             483     1.61465E-03     79.9898E-03    -86.6918E+06    -232.563E+06    -79.8539E+06     48.7759E+03    -108.961E-03     217.752E-03    -108.791E-03     29.4867E-03    -108.980E-03     216.870E-03    -108.728E-03     28.8954E-03
             484     2.42178E-03     80.0304E-03    -82.6785E+06    -224.899E+06    -68.4455E+06     15.1221E+03    -109.165E-03     217.981E-03    -108.816E-03     43.4669E-03    -109.239E-03     217.162E-03    -108.712E-03     42.5654E-03
             485     3.22927E-03     80.0866E-03    -77.3398E+06    -214.543E+06    -54.8942E+06      81.552E+03    -109.468E-03     218.310E-03    -108.842E-03     57.2847E-03    -109.620E-03     217.585E-03    -108.693E-03     56.0441E-03
             486     4.03654E-03     80.1580E-03    -71.5207E+06    -203.997E+06    -42.0919E+06     273.709E+03    -109.855E-03     218.719E-03    -108.864E-03     70.8069E-03    -110.111E-03     218.119E-03    -108.675E-03     69.1902E-03
             487     4.84404E-03     80.2443E-03    -65.6326E+06    -187.914E+06    -30.9215E+06     359.238E+03    -110.278E-03     219.149E-03    -108.871E-03     83.9378E-03    -110.677E-03     218.738E-03    -108.658E-03     81.8995E-03
             488     5.65141E-03     80.3447E-03    -60.1659E+06    -170.160E+06    -21.7254E+06     287.439E+03    -110.718E-03     219.583E-03    -108.865E-03     96.7347E-03    -111.304E-03     219.414E-03    -108.639E-03     94.2229E-03
             489     6.45889E-03     80.4592E-03    -54.9482E+06    -151.356E+06    -14.8738E+06     305.506E+03    -111.162E-03     220.004E-03    -108.842E-03     109.141E-03    -111.986E-03     220.139E-03    -108.617E-03     106.101E-03
             490     7.26653E-03     80.5866E-03    -49.9726E+06    -137.617E+06    -8.36760E+06     741.162E+03    -111.626E-03     220.450E-03    -108.824E-03     121.068E-03    -112.748E-03     220.931E-03    -108.594E-03     117.441E-03
             491     8.07393E-03     80.7272E-03     -45.736E+06    -119.224E+06    -3.66077E+06     685.234E+03    -112.027E-03     220.819E-03    -108.792E-03     132.637E-03    -113.539E-03     221.755E-03    -108.571E-03     128.344E-03
             492     8.88177E-03     80.8792E-03    -41.8992E+06    -92.7213E+06     298.469E+03     434.224E+03    -112.354E-03     221.098E-03    -108.744E-03     143.612E-03    -114.366E-03     222.632E-03    -108.548E-03     138.582E-03
             493     9.68922E-03     81.0438E-03    -38.2246E+06    -66.3444E+06     3.88470E+06     554.653E+03    -112.503E-03     221.198E-03    -108.695E-03     153.693E-03    -115.143E-03     223.456E-03    -108.524E-03     147.862E-03
             494     10.4968E-03     81.2169E-03    -34.9365E+06    -24.0098E+06     8.82608E+06     573.410E+03    -112.371E-03     220.995E-03    -108.624E-03     164.076E-03    -115.864E-03     224.252E-03    -108.494E-03     157.360E-03
             495     11.3050E-03     81.4026E-03    -31.9313E+06     40.2570E+06     16.0255E+06     566.649E+03    -112.318E-03     220.841E-03    -108.523E-03     177.907E-03    -117.042E-03     225.548E-03    -108.455E-03     170.183E-03
             496     12.1127E-03     81.6059E-03    -28.3940E+06     87.7022E+06     33.8411E+06     489.218E+03    -112.449E-03     220.947E-03    -108.498E-03     195.023E-03    -118.846E-03     227.456E-03    -108.415E-03     186.236E-03
             497     12.9222E-03     81.8287E-03    -23.5147E+06     106.621E+06     65.1644E+06     444.357E+03    -112.028E-03     220.616E-03    -108.588E-03     203.572E-03    -119.948E-03     228.642E-03    -108.383E-03     194.242E-03
             498     13.7279E-03     82.0529E-03    -16.4899E+06     121.592E+06     90.2035E+06     717.797E+03    -109.976E-03     218.634E-03    -108.658E-03     184.952E-03    -117.932E-03     226.701E-03    -108.359E-03     176.383E-03
             499     14.5366E-03     82.2326E-03    -10.4892E+06     127.807E+06     99.3989E+06     586.649E+03    -107.573E-03     216.234E-03    -108.661E-03     159.198E-03    -115.119E-03     223.909E-03    -108.334E-03     151.748E-03
             500     15.3423E-03     82.3998E-03    -5.31662E+06     122.446E+06     95.0305E+06     71.3794E+03    -106.398E-03     215.005E-03    -108.607E-03     95.9162E-03    -111.121E-03     219.868E-03    -108.302E-03     90.6054E-03
             501     807.390E-06     81.1424E-03    -89.0779E+06    -237.396E+06    -87.3974E+06    -170.467E+03    -108.943E-03     217.581E-03    -108.638E-03     16.1959E-03    -108.930E-03     216.663E-03    -108.602E-03     15.8779E-03
             502     1.61449E-03     81.1673E-03    -86.6763E+06    -232.760E+06    -80.1281E+06     37.9005E+03    -108.960E-03     217.738E-03    -108.779E-03     29.4655E-03    -108.978E-03     216.856E-03    -108.716E-03     28.8742E-03
             503     2.42194E-03     81.2080E-03    -82.6146E+06    -224.731E+06    -68.3873E+06     64.3241E+03    -109.188E-03     217.999E-03    -108.811E-03     43.4893E-03    -109.262E-03     217.181E-03    -108.708E-03     42.5888E-03
             504     3.22915E-03     81.2641E-03    -77.4868E+06    -214.687E+06    -54.7845E+06    -11.1289E+03    -109.489E-03     218.334E-03    -108.845E-03     57.3153E-03    -109.642E-03     217.609E-03    -108.695E-03     56.0733E-03
             505     4.03661E-03     81.3357E-03    -71.6683E+06    -204.321E+06    -42.2284E+06     98.1257E+03    -109.850E-03     218.718E-03    -108.868E-03     70.8491E-03    -110.106E-03     218.117E-03    -108.679E-03     69.2301E-03
             506     4.84392E-03     81.4218E-03    -65.6952E+06     -188.22E+06    -31.0657E+06     295.122E+03    -110.244E-03     219.114E-03    -108.870E-03     84.0194E-03    -110.643E-03     218.702E-03    -108.658E-03     81.9827E-03
             507     5.65144E-03     81.5225E-03    -59.9779E+06    -170.223E+06    -21.5828E+06     544.805E+03    -110.693E-03     219.553E-03    -108.860E-03     96.8129E-03    -111.279E-03     219.384E-03    -108.634E-03     94.3059E-03
             508     6.45901E-03     81.6365E-03    -54.9775E+06    -151.283E+06    -14.4611E+06     427.671E+03    -111.164E-03     220.001E-03    -108.837E-03     109.173E-03    -111.990E-03     220.136E-03    -108.610E-03     106.135E-03
             509     7.26639E-03     81.7645E-03    -50.2257E+06    -138.510E+06    -8.64844E+06     434.469E+03    -111.574E-03     220.389E-03    -108.816E-03     121.064E-03    -112.695E-03     220.866E-03    -108.585E-03     117.434E-03
             510     8.07428E-03     81.9043E-03    -45.5245E+06    -119.257E+06    -3.53077E+06     838.899E+03    -111.997E-03     220.777E-03    -108.780E-03     132.695E-03    -113.508E-03     221.713E-03    -108.559E-03     128.405E-03
             511     8.88160E-03     82.0574E-03    -41.5792E+06    -92.5158E+06     846.426E+03     744.672E+03    -112.312E-03     221.043E-03    -108.731E-03     143.688E-03    -114.324E-03     222.577E-03    -108.533E-03     138.665E-03
             512     9.68946E-03     82.2207E-03    -38.2389E+06    -66.8343E+06     3.95194E+06     693.672E+03    -112.334E-03     221.007E-03    -108.673E-03     153.661E-03    -114.972E-03     223.261E-03    -108.501E-03     147.843E-03
             513     10.4977E-03     82.3947E-03    -35.0433E+06    -24.0453E+06     8.99600E+06     1.04335E+06    -112.372E-03     220.969E-03    -108.597E-03     164.050E-03    -115.865E-03     224.226E-03    -108.466E-03     157.339E-03
             514     11.3052E-03     82.5799E-03    -32.1067E+06     40.4109E+06     16.2094E+06     1.14349E+06    -112.540E-03     221.048E-03    -108.508E-03     177.539E-03    -117.269E-03     225.759E-03    -108.439E-03     169.798E-03
             515     12.1136E-03     82.7833E-03    -28.8090E+06     88.2088E+06     33.4049E+06     723.011E+03    -112.668E-03     221.166E-03    -108.499E-03     194.538E-03    -119.070E-03     227.683E-03    -108.418E-03     185.726E-03
             516     12.9192E-03     83.0070E-03    -23.6955E+06     107.059E+06     65.2435E+06    -75.2016E+03    -111.975E-03     220.573E-03    -108.599E-03     203.602E-03    -119.895E-03     228.600E-03    -108.393E-03     194.271E-03
             517     13.7296E-03     83.2293E-03    -17.7974E+06     120.192E+06     89.5878E+06    -189.810E+03    -109.681E-03     218.339E-03    -108.658E-03     185.134E-03    -117.629E-03     226.390E-03    -108.358E-03     176.589E-03
             518     14.5368E-03     83.4121E-03    -10.9709E+06     128.168E+06     99.3955E+06     377.703E+03    -107.320E-03     215.963E-03    -108.643E-03     159.896E-03    -114.879E-03     223.649E-03    -108.316E-03     152.468E-03
             519     15.3472E-03     83.5765E-03    -4.99125E+06     123.735E+06     95.8922E+06     141.840E+03    -106.852E-03     215.446E-03    -108.594E-03     96.5597E-03    -111.596E-03     220.334E-03    -108.287E-03     91.2336E-03
             520     807.169E-06     82.3199E-03    -89.4429E+06    -237.480E+06    -87.1475E+06     3.10480E+03    -108.870E-03     217.575E-03    -108.706E-03     16.0735E-03    -108.858E-03     216.657E-03    -108.667E-03     15.7577E-03
             521     1.61466E-03     82.3449E-03    -86.7244E+06    -232.732E+06    -79.9782E+06     1.83355E+03    -108.947E-03     217.722E-03    -108.775E-03     29.4946E-03    -108.966E-03     216.839E-03    -108.712E-03     28.9036E-03
             522     2.42185E-03     82.3856E-03    -82.6269E+06    -224.914E+06    -68.5295E+06     94.2965E+03    -109.181E-03     217.985E-03    -108.804E-03     43.4985E-03    -109.254E-03     217.165E-03    -108.701E-03     42.5985E-03
             523     3.22925E-03     82.4419E-03    -77.3880E+06    -214.588E+06    -54.5576E+06     150.904E+03    -109.473E-03     218.311E-03    -108.838E-03     57.3787E-03    -109.626E-03     217.586E-03    -108.687E-03     56.1395E-03
             524     4.03653E-03     82.5132E-03    -71.7059E+06    -204.499E+06    -42.0596E+06     35.7037E+03    -109.826E-03     218.684E-03    -108.858E-03     70.9141E-03    -110.082E-03     218.082E-03    -108.668E-03     69.2954E-03
             525     4.84409E-03     82.5995E-03    -66.0278E+06    -188.692E+06    -31.4014E+06     277.703E+03    -110.224E-03     219.080E-03    -108.857E-03     84.0728E-03    -110.623E-03     218.666E-03    -108.644E-03     82.0365E-03
             526     5.65161E-03     82.6998E-03    -60.3542E+06    -170.874E+06    -21.8538E+06     441.087E+03    -110.688E-03     219.534E-03    -108.846E-03     96.8599E-03    -111.274E-03     219.362E-03    -108.620E-03     94.3533E-03
             527     6.45895E-03     82.8145E-03    -54.9036E+06    -150.986E+06    -14.2392E+06     604.515E+03    -111.125E-03     219.948E-03    -108.823E-03     109.215E-03    -111.951E-03     220.084E-03    -108.596E-03     106.183E-03
             528     7.26673E-03     82.9416E-03    -50.0631E+06    -138.426E+06    -8.24794E+06     470.531E+03    -111.570E-03     220.371E-03    -108.801E-03     121.091E-03    -112.693E-03     220.849E-03    -108.569E-03     117.458E-03
             529     8.07411E-03     83.0820E-03    -45.6588E+06    -120.386E+06    -4.02566E+06     524.701E+03    -111.983E-03     220.747E-03    -108.764E-03     132.774E-03    -113.492E-03     221.678E-03    -108.543E-03     128.480E-03
             530     8.88207E-03     83.2347E-03    -41.6002E+06    -92.3322E+06     896.117E+03     989.623E+03    -112.265E-03     220.979E-03    -108.714E-03     143.614E-03    -114.277E-03     222.513E-03    -108.516E-03     138.598E-03
             531     9.68978E-03     83.3982E-03    -37.8662E+06    -66.3344E+06     4.67614E+06     973.156E+03    -112.460E-03     221.125E-03    -108.665E-03     153.235E-03    -115.099E-03     223.381E-03    -108.491E-03     147.406E-03
             532     10.4974E-03     83.5716E-03    -34.1717E+06    -25.2818E+06     9.02083E+06     1.06715E+06    -112.505E-03     221.106E-03    -108.601E-03     163.494E-03    -115.992E-03     224.357E-03    -108.470E-03     156.765E-03
             533     11.3053E-03     83.7582E-03    -30.4682E+06     39.3615E+06     16.2682E+06     1.52268E+06    -112.573E-03     221.092E-03    -108.518E-03     177.401E-03    -117.289E-03     225.792E-03    -108.450E-03     169.664E-03
             534     12.1116E-03     83.9610E-03    -26.5270E+06     89.6607E+06     35.4704E+06     1.48337E+06    -112.622E-03     221.135E-03    -108.513E-03     194.832E-03    -119.025E-03     227.659E-03    -108.427E-03     186.033E-03
             535     12.9222E-03     84.1844E-03    -22.3513E+06     108.397E+06     66.9315E+06     742.190E+03    -111.801E-03     220.404E-03    -108.603E-03     203.746E-03    -119.724E-03     228.439E-03    -108.393E-03     194.437E-03
             536     13.7279E-03     84.4073E-03    -16.9147E+06     120.003E+06     89.8139E+06     257.316E+03    -109.597E-03     218.247E-03    -108.650E-03     184.982E-03    -117.540E-03     226.295E-03    -108.350E-03     176.450E-03
             537     14.5378E-03     84.5876E-03    -11.0638E+06     127.992E+06     99.1734E+06    -186.620E+03    -107.498E-03     216.138E-03    -108.640E-03     158.755E-03    -115.034E-03     223.802E-03    -108.313E-03     151.305E-03
             538     15.3444E-03     84.7544E-03    -5.20118E+06     124.033E+06     95.4866E+06    -214.661E+03    -106.783E-03     215.379E-03    -108.597E-03     95.9661E-03    -111.503E-03     220.245E-03    -108.291E-03     90.6270E-03
             539     807.350E-06     83.4972E-03    -89.4544E+06    -237.704E+06    -87.5176E+06     147.435E+03    -108.820E-03     217.559E-03    -108.739E-03     16.0579E-03    -108.808E-03     216.640E-03    -108.702E-03     15.7437E-03
             540     1.61454E-03     83.5226E-03    -86.8447E+06    -232.761E+06    -79.8544E+06     169.095E+03    -108.935E-03     217.703E-03    -108.767E-03     29.5495E-03    -108.955E-03     216.820E-03    -108.703E-03     28.9610E-03
             541     2.42191E-03     83.5632E-03    -82.6620E+06    -224.932E+06    -68.2961E+06     3.14377E+03    -109.151E-03     217.944E-03    -108.793E-03     43.5220E-03    -109.225E-03     217.124E-03    -108.688E-03     42.6213E-03
             542     3.22929E-03     83.6194E-03    -77.3963E+06    -214.788E+06    -54.6184E+06     181.663E+03    -109.429E-03     218.248E-03    -108.819E-03     57.3999E-03    -109.582E-03     217.522E-03    -108.669E-03     56.1621E-03
             543     4.03677E-03     83.6909E-03    -71.7070E+06    -204.392E+06    -41.7458E+06     325.498E+03    -109.804E-03     218.642E-03    -108.838E-03     70.9036E-03    -110.061E-03     218.040E-03    -108.646E-03     69.2893E-03
             544     4.84415E-03     83.7768E-03    -65.6907E+06    -188.917E+06    -30.8571E+06     172.001E+03    -110.234E-03     219.074E-03    -108.840E-03     84.0855E-03    -110.632E-03     218.658E-03    -108.625E-03     82.0468E-03
             545     5.65153E-03     83.8777E-03    -59.9505E+06    -171.336E+06    -21.6778E+06     353.038E+03    -110.651E-03     219.480E-03    -108.828E-03     96.8863E-03    -111.235E-03     219.305E-03    -108.601E-03     94.3800E-03
             546     6.45930E-03     83.9915E-03    -54.6749E+06    -151.391E+06    -14.1707E+06     621.253E+03    -111.094E-03     219.897E-03    -108.803E-03     109.218E-03    -111.918E-03     220.030E-03    -108.575E-03     106.187E-03
             547     7.26675E-03     84.1195E-03    -49.8534E+06    -138.093E+06    -7.82522E+06     693.664E+03    -111.611E-03     220.395E-03    -108.785E-03     121.076E-03    -112.735E-03     220.875E-03    -108.551E-03     117.442E-03
             548     8.07447E-03     84.2593E-03    -45.6285E+06    -120.629E+06    -3.80807E+06     465.490E+03    -112.048E-03     220.803E-03    -108.755E-03     132.566E-03    -113.559E-03     221.735E-03    -108.533E-03     128.263E-03
             549     8.88200E-03     84.4122E-03    -41.4072E+06    -92.9552E+06     824.107E+03     769.349E+03    -112.361E-03     221.076E-03    -108.714E-03     143.329E-03    -114.371E-03     222.606E-03    -108.516E-03     138.303E-03
             550     9.68953E-03     84.5758E-03    -37.5096E+06    -66.4157E+06     4.86506E+06     1.02223E+06    -112.612E-03     221.289E-03    -108.677E-03     153.193E-03    -115.253E-03     223.547E-03    -108.502E-03     147.353E-03
             551     10.4968E-03     84.7498E-03    -34.0499E+06    -25.7498E+06     9.08961E+06     750.823E+03    -112.604E-03     221.227E-03    -108.622E-03     163.685E-03    -116.097E-03     224.480E-03    -108.490E-03     156.940E-03
             552     11.3044E-03     84.9348E-03    -30.2019E+06     38.8657E+06     16.6535E+06     594.130E+03    -112.424E-03     220.961E-03    -108.537E-03     177.602E-03    -117.137E-03     225.656E-03    -108.466E-03     169.867E-03
             553     12.1141E-03     85.1394E-03    -25.7494E+06     88.7182E+06     35.4833E+06     1.24090E+06    -112.358E-03     220.870E-03    -108.513E-03     194.765E-03    -118.742E-03     227.376E-03    -108.427E-03     185.994E-03
             554     12.9193E-03     85.3616E-03    -20.6025E+06     109.166E+06     68.1772E+06     1.91145E+06    -111.794E-03     220.391E-03    -108.597E-03     203.545E-03    -119.702E-03     228.416E-03    -108.385E-03     194.260E-03
             555     13.7302E-03     85.5840E-03    -15.1453E+06     120.901E+06     91.3351E+06     1.60612E+06    -109.806E-03     218.458E-03    -108.651E-03     184.867E-03    -117.732E-03     226.494E-03    -108.348E-03     176.352E-03
             556     14.5360E-03     85.7667E-03    -9.28533E+06     128.989E+06     100.185E+06     1.09285E+06    -107.682E-03     216.328E-03    -108.646E-03     159.952E-03    -115.222E-03     224.002E-03    -108.319E-03     152.520E-03
             557     15.3440E-03     85.9322E-03    -4.33113E+06     124.842E+06     96.1494E+06     193.134E+03    -106.858E-03     215.462E-03    -108.604E-03     97.0788E-03    -111.602E-03     220.355E-03    -108.298E-03     91.7411E-03
             558     807.263E-06     84.6750E-03    -89.5001E+06    -237.852E+06    -87.6864E+06     38.1127E+03    -108.831E-03     217.513E-03    -108.682E-03     16.0756E-03    -108.819E-03     216.594E-03    -108.646E-03     15.7600E-03
             559     1.61462E-03     84.7000E-03    -86.7202E+06    -232.839E+06    -80.0305E+06     19.2174E+03    -108.914E-03     217.658E-03    -108.744E-03     29.5698E-03    -108.933E-03     216.775E-03    -108.681E-03     28.9788E-03
             560     2.42201E-03     84.7407E-03    -82.6297E+06    -224.937E+06    -68.2974E+06     71.5934E+03    -109.124E-03     217.893E-03    -108.770E-03     43.5511E-03    -109.198E-03     217.073E-03    -108.665E-03     42.6513E-03
             561     3.22933E-03     84.7970E-03    -77.4959E+06    -215.070E+06    -54.6064E+06     96.0444E+03    -109.422E-03     218.220E-03    -108.798E-03     57.3792E-03    -109.575E-03     217.493E-03    -108.646E-03     56.1401E-03
             562     4.03680E-03     84.8681E-03    -71.5050E+06    -204.526E+06    -41.6944E+06     308.780E+03    -109.796E-03     218.615E-03    -108.819E-03     70.8966E-03    -110.052E-03     218.011E-03    -108.627E-03     69.2824E-03
             563     4.84421E-03     84.9547E-03    -65.7609E+06    -188.798E+06    -30.6091E+06     376.708E+03    -110.203E-03     219.025E-03    -108.822E-03     84.0635E-03    -110.602E-03     218.609E-03    -108.606E-03     82.0280E-03
             564     5.65189E-03     85.0547E-03    -60.2957E+06    -171.535E+06    -21.5205E+06     286.370E+03    -110.648E-03     219.460E-03    -108.812E-03     96.8125E-03    -111.233E-03     219.285E-03    -108.583E-03     94.3035E-03
             565     6.45928E-03     85.1694E-03    -54.8751E+06    -152.061E+06    -14.2414E+06     480.063E+03    -111.137E-03     219.928E-03    -108.791E-03     109.110E-03    -111.961E-03     220.059E-03    -108.562E-03     106.073E-03
             566     7.26694E-03     85.2966E-03    -49.8857E+06    -138.550E+06    -7.97592E+06     603.327E+03    -111.675E-03     220.455E-03    -108.780E-03     120.975E-03    -112.798E-03     220.933E-03    -108.547E-03     117.338E-03
             567     8.07425E-03     85.4373E-03    -45.3663E+06    -120.019E+06    -3.20628E+06     714.871E+03    -112.154E-03     220.916E-03    -108.762E-03     132.405E-03    -113.666E-03     221.850E-03    -108.538E-03     128.099E-03
             568     8.88170E-03     85.5895E-03    -41.5839E+06    -93.8429E+06     764.082E+03     685.556E+03    -112.406E-03     221.134E-03    -108.728E-03     143.350E-03    -114.416E-03     222.662E-03    -108.528E-03     138.317E-03
             569     9.68928E-03     85.7537E-03    -38.0129E+06    -67.0604E+06     4.34822E+06     793.752E+03    -112.547E-03     221.232E-03    -108.686E-03     153.542E-03    -115.187E-03     223.487E-03    -108.512E-03     147.707E-03
             570     10.4973E-03     85.9271E-03    -34.5525E+06    -24.7785E+06     9.48970E+06     609.363E+03    -112.540E-03     221.166E-03    -108.626E-03     163.770E-03    -116.036E-03     224.424E-03    -108.492E-03     157.030E-03
             571     11.3051E-03     86.1131E-03    -31.7347E+06     39.2913E+06     16.5882E+06     571.808E+03    -112.425E-03     220.962E-03    -108.538E-03     177.630E-03    -117.148E-03     225.665E-03    -108.466E-03     169.893E-03
             572     12.1113E-03     86.3155E-03    -28.4150E+06     87.7483E+06     33.7583E+06    -23.9199E+03    -112.350E-03     220.860E-03    -108.510E-03     194.803E-03    -118.744E-03     227.367E-03    -108.427E-03     186.012E-03
             573     12.9229E-03     86.5395E-03    -22.7288E+06     107.164E+06     65.8054E+06     283.255E+03    -111.811E-03     220.403E-03    -108.592E-03     203.563E-03    -119.720E-03     228.421E-03    -108.385E-03     194.252E-03
             574     13.7274E-03     86.7623E-03    -15.9749E+06     121.048E+06     90.9163E+06     1.55430E+06    -109.829E-03     218.482E-03    -108.652E-03     184.844E-03    -117.766E-03     226.528E-03    -108.350E-03     176.313E-03
             575     14.5380E-03     86.9428E-03    -10.1367E+06     129.917E+06     100.531E+06     1.29565E+06    -107.734E-03     216.389E-03    -108.655E-03     159.161E-03    -115.287E-03     224.076E-03    -108.326E-03     151.694E-03
             576     15.3472E-03     87.1107E-03    -5.04287E+06     125.456E+06      96.539E+06     851.000E+03    -107.060E-03     215.684E-03    -108.624E-03     95.7481E-03    -111.795E-03     220.567E-03    -108.316E-03     90.4074E-03
             577     807.358E-06     85.8524E-03    -89.1947E+06    -237.637E+06    -87.4264E+06    -188.847E+03    -108.741E-03     217.461E-03    -108.720E-03     16.0813E-03    -108.728E-03     216.542E-03    -108.683E-03     15.7614E-03
             578     1.61470E-03     85.8774E-03    -86.5310E+06    -232.852E+06    -80.1458E+06    -180.920E+03    -108.896E-03     217.614E-03    -108.718E-03     29.5260E-03    -108.914E-03     216.730E-03    -108.656E-03     28.9324E-03
             579     2.42199E-03     85.9182E-03    -82.7193E+06    -225.246E+06    -68.7136E+06    -2.34563E+03    -109.111E-03     217.857E-03    -108.746E-03     43.5274E-03    -109.184E-03     217.036E-03    -108.643E-03     42.6269E-03
             580     3.22951E-03     85.9743E-03    -77.5000E+06    -215.075E+06    -54.6000E+06     138.943E+03    -109.419E-03     218.199E-03    -108.779E-03     57.3694E-03    -109.572E-03     217.471E-03    -108.628E-03     56.1305E-03
             581     4.03679E-03     86.0460E-03    -71.6209E+06    -205.012E+06    -41.8175E+06     148.133E+03    -109.798E-03     218.602E-03    -108.804E-03     70.8907E-03    -110.053E-03     217.997E-03    -108.612E-03     69.2733E-03
             582     4.84439E-03     86.1317E-03    -65.6453E+06    -189.186E+06    -30.7811E+06     489.710E+03    -110.219E-03     219.030E-03    -108.811E-03     83.9789E-03    -110.617E-03     218.612E-03    -108.595E-03     81.9441E-03
             583     5.65172E-03     86.2327E-03    -60.0430E+06    -171.302E+06    -21.0786E+06     660.474E+03    -110.708E-03     219.518E-03    -108.810E-03     96.6892E-03    -111.293E-03     219.343E-03    -108.580E-03     94.1823E-03
             584     6.45931E-03     86.3465E-03    -54.8936E+06    -152.175E+06    -14.0231E+06     344.658E+03    -111.216E-03     220.015E-03    -108.799E-03     108.997E-03    -112.041E-03     220.145E-03    -108.569E-03     105.953E-03
             585     7.26669E-03     86.4746E-03    -50.1064E+06    -139.201E+06    -8.25328E+06     606.201E+03    -111.692E-03     220.484E-03    -108.792E-03     120.918E-03    -112.814E-03     220.958E-03    -108.559E-03     117.281E-03
             586     8.07420E-03     86.6147E-03    -45.8812E+06    -120.663E+06    -3.61322E+06     831.791E+03    -112.081E-03     220.850E-03    -108.770E-03     132.533E-03    -113.592E-03     221.781E-03    -108.546E-03     128.236E-03
             587     8.88175E-03     86.7675E-03    -41.9681E+06    -93.5533E+06     938.519E+03     864.910E+03    -112.387E-03     221.119E-03    -108.732E-03     143.451E-03    -114.403E-03     222.651E-03    -108.530E-03     138.418E-03
             588     9.68963E-03     86.9306E-03    -38.2120E+06    -67.0844E+06     4.37905E+06     742.517E+03    -112.516E-03     221.202E-03    -108.686E-03     153.549E-03    -115.157E-03     223.457E-03    -108.511E-03     147.716E-03
             589     10.4968E-03     87.1056E-03    -34.9315E+06    -25.1162E+06     8.93570E+06     784.697E+03    -112.463E-03     221.083E-03    -108.620E-03     163.806E-03    -115.955E-03     224.336E-03    -108.488E-03     157.081E-03
             590     11.3046E-03     87.2895E-03    -31.1244E+06     39.5376E+06     16.5373E+06     696.253E+03    -112.400E-03     220.928E-03    -108.529E-03     177.443E-03    -117.118E-03     225.629E-03    -108.458E-03     169.708E-03
             591     12.1145E-03     87.4945E-03    -27.0036E+06     88.9527E+06     35.6169E+06     808.859E+03    -112.512E-03     221.025E-03    -108.513E-03     194.817E-03    -118.908E-03     227.537E-03    -108.425E-03     186.022E-03
             592     12.9186E-03     87.7157E-03    -23.8039E+06     106.617E+06     65.9722E+06     469.675E+03    -111.819E-03     220.417E-03    -108.598E-03     203.583E-03    -119.738E-03     228.440E-03    -108.389E-03     194.273E-03
             593     13.7306E-03     87.9401E-03    -18.4429E+06     119.332E+06     88.9222E+06     210.149E+03    -110.015E-03     218.672E-03    -108.658E-03     185.182E-03    -117.983E-03     226.741E-03    -108.359E-03     176.600E-03
             594     14.5356E-03     88.1210E-03    -11.2194E+06     130.234E+06     100.328E+06     1.20131E+06    -108.191E-03     216.872E-03    -108.681E-03     159.683E-03    -115.774E-03     224.586E-03    -108.352E-03     152.172E-03
             595     15.3401E-03     88.2892E-03    -4.87390E+06     126.336E+06     97.2681E+06     1.01434E+06    -106.438E-03     215.084E-03    -108.646E-03     96.4125E-03    -111.180E-03     219.976E-03    -108.336E-03     91.0968E-03
             596     807.333E-06     87.0299E-03    -89.0966E+06    -237.509E+06    -87.1893E+06    -316.141E+03    -108.750E-03     217.433E-03    -108.682E-03     16.2213E-03    -108.737E-03     216.514E-03    -108.645E-03     15.8984E-03
             597     1.61465E-03     87.0549E-03    -86.7039E+06    -232.921E+06    -79.9954E+06     36.1300E+03    -108.904E-03     217.613E-03    -108.709E-03     29.4807E-03    -108.923E-03     216.729E-03    -108.646E-03     28.8895E-03
             598     2.42213E-03     87.0955E-03    -82.7139E+06    -225.277E+06    -68.6472E+06     11.9121E+03    -109.115E-03     217.858E-03    -108.743E-03     43.4625E-03    -109.189E-03     217.037E-03    -108.640E-03     42.5625E-03
             599     3.22936E-03     87.1519E-03    -77.3890E+06    -215.342E+06    -54.8404E+06     88.1925E+03    -109.415E-03     218.191E-03    -108.776E-03     57.2904E-03    -109.566E-03     217.463E-03    -108.626E-03     56.0502E-03
             600     4.03699E-03     87.2231E-03    -71.6059E+06    -205.116E+06    -41.7580E+06     282.533E+03    -109.818E-03     218.623E-03    -108.805E-03     70.7833E-03    -110.073E-03     218.017E-03    -108.613E-03     69.1664E-03
             601     4.84421E-03     87.3096E-03    -65.9245E+06    -189.958E+06    -30.9333E+06     360.087E+03    -110.270E-03     219.089E-03    -108.819E-03     83.8948E-03    -110.668E-03     218.668E-03    -108.602E-03     81.8558E-03
             602     5.65179E-03     87.4098E-03    -60.2408E+06    -171.803E+06    -21.6429E+06     638.612E+03    -110.744E-03     219.564E-03    -108.821E-03     96.6871E-03    -111.328E-03     219.388E-03    -108.593E-03     94.1798E-03
             603     6.45908E-03     87.5246E-03    -55.1234E+06    -151.768E+06    -13.9799E+06     883.138E+03    -111.225E-03     220.037E-03    -108.812E-03     109.081E-03    -112.052E-03     220.170E-03    -108.582E-03     106.045E-03
             604     7.26654E-03     87.6519E-03    -50.5931E+06    -139.610E+06    -8.12747E+06     707.767E+03    -111.633E-03     220.436E-03    -108.803E-03     121.000E-03    -112.757E-03     220.908E-03    -108.568E-03     117.367E-03
             605     8.07421E-03     87.7924E-03    -46.1490E+06    -121.192E+06    -3.82673E+06     896.513E+03    -112.015E-03     220.786E-03    -108.771E-03     132.576E-03    -113.526E-03     221.715E-03    -108.548E-03     128.283E-03
             606     8.88203E-03     87.9448E-03    -41.9163E+06    -93.2536E+06     1.14002E+06     884.002E+03    -112.381E-03     221.111E-03    -108.730E-03     143.472E-03    -114.397E-03     222.643E-03    -108.528E-03     138.441E-03
             607     9.68901E-03     88.1090E-03    -38.3432E+06    -67.2826E+06     4.37892E+06     850.710E+03    -112.471E-03     221.153E-03    -108.683E-03     153.454E-03    -115.110E-03     223.405E-03    -108.507E-03     147.626E-03
             608     10.4976E-03     88.2818E-03    -34.6870E+06    -25.3004E+06     9.09063E+06     880.929E+03    -112.435E-03     221.048E-03    -108.613E-03     163.971E-03    -115.920E-03     224.294E-03    -108.481E-03     157.259E-03
             609     11.3052E-03     88.4688E-03    -31.6015E+06     39.8260E+06     16.9036E+06     551.553E+03    -112.507E-03     221.033E-03    -108.526E-03     177.378E-03    -117.234E-03     225.740E-03    -108.454E-03     169.630E-03
             610     12.1113E-03     88.6696E-03    -28.5545E+06     88.0144E+06     34.5490E+06     809.444E+03    -112.468E-03     220.979E-03    -108.510E-03     194.715E-03    -118.867E-03     227.489E-03    -108.424E-03     185.925E-03
             611     12.9229E-03     88.8962E-03    -22.6416E+06     107.541E+06     67.3040E+06     1.61838E+06    -112.033E-03     220.640E-03    -108.607E-03     203.525E-03    -119.949E-03     228.662E-03    -108.394E-03     194.211E-03
             612     13.7273E-03     89.1146E-03    -17.2064E+06     120.422E+06     90.7849E+06     1.23302E+06    -110.092E-03     218.768E-03    -108.676E-03     185.431E-03    -118.062E-03     226.841E-03    -108.372E-03     176.856E-03
             613     14.5366E-03     89.3036E-03    -11.6542E+06     129.461E+06     99.5072E+06    -61.5733E+03    -107.347E-03     216.014E-03    -108.667E-03     160.457E-03    -114.911E-03     223.707E-03    -108.340E-03     153.034E-03
             614     15.3485E-03     89.4635E-03    -4.53036E+06     126.492E+06     97.1256E+06     336.493E+03    -106.523E-03     215.133E-03    -108.609E-03     96.6029E-03    -111.256E-03     220.017E-03    -108.301E-03     91.3117E-03
             615     807.388E-06     88.2072E-03    -89.5924E+06    -237.821E+06    -87.2048E+06     258.079E+03    -108.861E-03     217.438E-03    -108.578E-03     16.2603E-03    -108.850E-03     216.518E-03    -108.539E-03     15.9470E-03
             616     1.61472E-03     88.2324E-03    -86.7583E+06    -232.853E+06    -79.6977E+06     66.1812E+03    -108.932E-03     217.651E-03    -108.719E-03     29.4550E-03    -108.952E-03     216.767E-03    -108.654E-03     28.8631E-03
             617     2.42191E-03     88.2730E-03    -82.6709E+06    -225.264E+06    -68.4345E+06     80.3787E+03    -109.139E-03     217.899E-03    -108.759E-03     43.4201E-03    -109.213E-03     217.077E-03    -108.655E-03     42.5203E-03
             618     3.22948E-03     88.3292E-03    -77.4682E+06    -215.550E+06    -54.9138E+06     68.2139E+03    -109.445E-03     218.240E-03    -108.795E-03     57.2532E-03    -109.597E-03     217.511E-03    -108.645E-03     56.0122E-03
             619     4.03665E-03     88.4008E-03    -71.6718E+06    -205.726E+06    -42.1936E+06     389.256E+03    -109.838E-03     218.662E-03    -108.824E-03     70.7687E-03    -110.092E-03     218.053E-03    -108.633E-03     69.1534E-03
             620     4.84424E-03     88.4870E-03    -65.8689E+06    -190.193E+06    -30.9598E+06     588.818E+03    -110.277E-03     219.115E-03    -108.838E-03     83.9125E-03    -110.674E-03     218.693E-03    -108.621E-03     81.8766E-03
             621     5.65152E-03     88.5876E-03    -60.4063E+06    -172.491E+06    -21.6494E+06     721.398E+03    -110.720E-03     219.557E-03    -108.837E-03     96.7090E-03    -111.304E-03     219.377E-03    -108.607E-03     94.2036E-03
             622     6.45913E-03     88.7020E-03    -55.2247E+06    -152.303E+06    -14.0993E+06     1.08066E+06    -111.130E-03     219.948E-03    -108.818E-03     109.151E-03    -111.956E-03     220.078E-03    -108.588E-03     106.123E-03
             623     7.26676E-03     88.8297E-03    -50.2169E+06    -139.150E+06    -7.58483E+06     1.02116E+06    -111.614E-03     220.417E-03    -108.802E-03     121.000E-03    -112.739E-03     220.891E-03    -108.566E-03     117.371E-03
             624     8.07428E-03     88.9696E-03    -45.6151E+06    -121.224E+06    -3.29701E+06     745.778E+03    -112.075E-03     220.848E-03    -108.773E-03     132.589E-03    -113.585E-03     221.775E-03    -108.547E-03     128.291E-03
             625     8.88152E-03     89.1228E-03    -41.6885E+06    -93.7367E+06     1.07370E+06     1.15569E+06    -112.298E-03     221.026E-03    -108.728E-03     143.502E-03    -114.309E-03     222.553E-03    -108.527E-03     138.483E-03
             626     9.68998E-03     89.2859E-03    -38.3427E+06    -67.4236E+06     4.70265E+06     1.34280E+06    -112.448E-03     221.127E-03    -108.678E-03     153.373E-03    -115.086E-03     223.376E-03    -108.502E-03     147.554E-03
             627     10.4969E-03     89.4599E-03    -35.4854E+06    -25.0824E+06     9.13544E+06     1.10147E+06    -112.467E-03     221.077E-03    -108.610E-03     163.850E-03    -115.960E-03     224.328E-03    -108.477E-03     157.132E-03
             628     11.3049E-03     89.6455E-03    -32.5058E+06      40.105E+06     16.8731E+06     1.13559E+06    -112.472E-03     220.994E-03    -108.523E-03     177.611E-03    -117.199E-03     225.700E-03    -108.450E-03     169.883E-03
             629     12.1140E-03     89.8494E-03    -28.3908E+06     88.4451E+06     35.6664E+06     906.820E+03    -112.697E-03     221.214E-03    -108.517E-03     194.533E-03    -119.104E-03     227.732E-03    -108.426E-03     185.719E-03
             630     12.9191E-03     90.0700E-03    -23.9303E+06     106.080E+06     66.1792E+06     599.179E+03    -112.124E-03     220.743E-03    -108.619E-03     203.693E-03    -120.062E-03     228.781E-03    -108.407E-03     194.335E-03
             631     13.7288E-03     90.2982E-03    -16.7761E+06     120.660E+06     90.5482E+06     779.509E+03    -109.696E-03     218.374E-03    -108.678E-03     185.339E-03    -117.655E-03     226.439E-03    -108.376E-03     176.791E-03
             632     14.5372E-03     90.4735E-03    -9.60917E+06     131.301E+06     101.269E+06     394.997E+03    -107.315E-03     215.978E-03    -108.663E-03     159.183E-03    -114.846E-03     223.647E-03    -108.333E-03     151.766E-03
             633     15.3430E-03     90.6452E-03    -5.39064E+06     126.308E+06     96.3843E+06     584.119E+03    -106.761E-03     215.370E-03    -108.610E-03     95.3818E-03    -111.473E-03     220.233E-03    -108.303E-03     90.0788E-03
             634     807.325E-06     89.3847E-03    -89.1797E+06    -237.902E+06    -87.5498E+06     342.628E+03    -108.883E-03     217.529E-03    -108.646E-03     16.1813E-03    -108.870E-03     216.609E-03    -108.609E-03     15.8694E-03
             635     1.61457E-03     89.4099E-03    -86.8035E+06    -233.171E+06    -80.0667E+06     184.463E+03    -108.924E-03     217.676E-03    -108.752E-03     29.4344E-03    -108.942E-03     216.791E-03    -108.688E-03     28.8443E-03
             636     2.42204E-03     89.4505E-03    -82.6345E+06    -225.177E+06    -68.2460E+06     254.929E+03    -109.165E-03     217.949E-03    -108.784E-03     43.4125E-03    -109.238E-03     217.127E-03    -108.679E-03     42.5142E-03
             637     3.22918E-03     89.5068E-03    -77.6347E+06    -215.764E+06    -54.8608E+06     233.680E+03    -109.465E-03     218.284E-03    -108.819E-03     57.2822E-03    -109.617E-03     217.554E-03    -108.668E-03     56.0435E-03
             638     4.03677E-03     89.5783E-03    -72.1052E+06    -206.288E+06    -42.6532E+06     361.485E+03    -109.831E-03     218.675E-03    -108.843E-03     70.8239E-03    -110.086E-03     218.065E-03    -108.653E-03     69.2083E-03
             639     4.84403E-03     89.6646E-03    -66.2045E+06    -190.663E+06    -31.0563E+06     647.755E+03    -110.251E-03     219.103E-03    -108.852E-03     84.0302E-03    -110.649E-03     218.679E-03    -108.635E-03     81.9970E-03
             640     5.65159E-03     89.7653E-03    -60.4338E+06    -172.842E+06    -21.2321E+06     889.910E+03    -110.681E-03     219.527E-03    -108.846E-03     96.7500E-03    -111.265E-03     219.344E-03    -108.614E-03     94.2478E-03
             641     6.45909E-03     89.8793E-03      -55.02E+06    -153.122E+06    -14.0208E+06     1.08248E+06    -111.110E-03     219.931E-03    -108.821E-03     109.092E-03    -111.933E-03     220.056E-03    -108.589E-03     106.064E-03
             642     7.26672E-03     90.0072E-03    -50.1985E+06    -138.991E+06    -7.61104E+06     1.15246E+06    -111.607E-03     220.409E-03    -108.802E-03     121.021E-03    -112.731E-03     220.883E-03    -108.566E-03     117.397E-03
             643     8.07408E-03     90.1475E-03    -46.1182E+06    -120.904E+06    -3.09905E+06     1.03581E+06    -112.051E-03     220.823E-03    -108.773E-03     132.590E-03    -113.564E-03     221.753E-03    -108.546E-03     128.297E-03
             644     8.88214E-03     90.2999E-03    -42.3678E+06    -94.9031E+06     755.435E+03     1.21780E+06    -112.345E-03     221.075E-03    -108.730E-03     143.351E-03    -114.358E-03     222.598E-03    -108.527E-03     138.327E-03
             645     9.68919E-03     90.4635E-03    -38.5823E+06    -67.8018E+06     4.52049E+06     1.69841E+06    -112.492E-03     221.175E-03    -108.684E-03     153.195E-03    -115.131E-03     223.424E-03    -108.507E-03     147.374E-03
             646     10.4975E-03     90.6376E-03    -35.1081E+06    -24.6615E+06     9.54146E+06     1.74142E+06    -112.455E-03     221.074E-03    -108.619E-03     163.628E-03    -115.946E-03     224.324E-03    -108.484E-03     156.918E-03
             647     11.3051E-03     90.8228E-03    -31.6897E+06     40.5409E+06     17.5889E+06     1.51290E+06    -112.488E-03     221.021E-03    -108.533E-03     177.356E-03    -117.209E-03     225.723E-03    -108.458E-03     169.629E-03
             648     12.1121E-03     91.0263E-03    -28.3678E+06     88.3327E+06     34.8604E+06     1.13925E+06    -112.654E-03     221.175E-03    -108.521E-03     194.680E-03    -119.062E-03     227.694E-03    -108.434E-03     185.869E-03
             649     12.9208E-03     91.2511E-03    -22.8728E+06     107.213E+06     66.6372E+06     405.734E+03    -112.072E-03     220.692E-03    -108.620E-03     203.979E-03    -120.012E-03     228.739E-03    -108.409E-03     194.632E-03
             650     13.7289E-03     91.4705E-03    -16.8876E+06     120.361E+06     90.5634E+06    -283.923E+03    -109.873E-03     218.558E-03    -108.685E-03     184.692E-03    -117.829E-03     226.619E-03    -108.382E-03     176.112E-03
             651     14.5361E-03     91.6566E-03    -11.0685E+06     129.730E+06     99.6517E+06     690.490E+03    -107.490E-03     216.167E-03    -108.677E-03     159.435E-03    -115.037E-03     223.846E-03    -108.351E-03     151.991E-03
             652     15.3451E-03     91.8197E-03    -5.05244E+06     127.230E+06     96.8776E+06     1.17566E+06    -106.602E-03     215.228E-03    -108.626E-03     97.2536E-03    -111.350E-03     220.128E-03    -108.318E-03     91.9516E-03
             653     807.133E-06     90.5622E-03    -89.6003E+06    -238.339E+06    -87.7571E+06     74.5376E+03    -108.894E-03     217.600E-03    -108.707E-03     16.2378E-03    -108.881E-03     216.678E-03    -108.670E-03     15.9220E-03
             654     1.61462E-03     90.5874E-03    -86.8139E+06    -233.312E+06    -80.1897E+06     262.109E+03    -108.928E-03     217.709E-03    -108.781E-03     29.5037E-03    -108.947E-03     216.824E-03    -108.718E-03     28.9156E-03
             655     2.42179E-03     90.6281E-03    -83.0028E+06    -225.778E+06    -68.8001E+06     387.372E+03    -109.162E-03     217.963E-03    -108.801E-03     43.4790E-03    -109.236E-03     217.141E-03    -108.698E-03     42.5824E-03
             656     3.22932E-03     90.6844E-03    -77.9868E+06    -215.998E+06    -55.0185E+06     613.400E+03    -109.466E-03     218.299E-03    -108.833E-03     57.3245E-03    -109.620E-03     217.569E-03    -108.682E-03     56.0911E-03
             657     4.03655E-03     90.7558E-03    -72.1386E+06    -206.271E+06    -42.1928E+06      433.28E+03    -109.829E-03     218.685E-03    -108.856E-03     70.8441E-03    -110.084E-03     218.075E-03    -108.664E-03     69.2288E-03
             658     4.84413E-03     90.8422E-03    -66.2610E+06    -191.168E+06    -31.2835E+06     599.812E+03    -110.217E-03     219.074E-03    -108.857E-03     84.0248E-03    -110.614E-03     218.648E-03    -108.641E-03     81.9915E-03
             659     5.65159E-03     90.9427E-03    -60.5557E+06    -173.425E+06    -21.5165E+06     832.443E+03    -110.671E-03     219.518E-03    -108.847E-03     96.7319E-03    -111.255E-03     219.334E-03    -108.616E-03     94.2289E-03
             660     6.45910E-03     91.0570E-03    -55.0109E+06    -153.720E+06    -14.0441E+06     894.266E+03    -111.162E-03     219.988E-03    -108.826E-03     109.055E-03    -111.985E-03     220.111E-03    -108.593E-03     106.022E-03
             661     7.26658E-03     91.1846E-03    -49.9271E+06    -139.608E+06    -7.67932E+06     1.33460E+06    -111.599E-03     220.408E-03    -108.809E-03     120.981E-03    -112.720E-03     220.878E-03    -108.572E-03     117.359E-03
             662     8.07445E-03     91.3250E-03    -45.6450E+06    -120.842E+06    -2.56938E+06     1.83450E+06    -112.064E-03     220.845E-03    -108.781E-03     132.468E-03    -113.575E-03     221.772E-03    -108.552E-03     128.185E-03
             663     8.88155E-03     91.4776E-03    -41.8781E+06    -95.2671E+06     1.16373E+06     1.63205E+06    -112.423E-03     221.165E-03    -108.742E-03     143.203E-03    -114.435E-03     222.687E-03    -108.537E-03     138.176E-03
             664     9.68944E-03     91.6414E-03    -38.0683E+06    -68.3796E+06     4.04635E+06     1.31411E+06    -112.536E-03     221.233E-03    -108.697E-03     153.151E-03    -115.172E-03     223.480E-03    -108.522E-03     147.319E-03
             665     10.4967E-03     91.8145E-03    -34.0452E+06    -24.5824E+06     9.81653E+06     1.71803E+06    -112.503E-03     221.140E-03    -108.636E-03     163.505E-03    -115.986E-03     224.386E-03    -108.502E-03     156.795E-03
             666     11.3045E-03     92.0008E-03    -30.6350E+06     40.1026E+06     17.6195E+06     2.13739E+06    -112.502E-03     221.053E-03    -108.551E-03     177.569E-03    -117.222E-03     225.756E-03    -108.477E-03     169.845E-03
             667     12.1127E-03     92.2045E-03    -26.6174E+06     90.0436E+06     36.1642E+06     1.32552E+06    -112.566E-03     221.101E-03    -108.536E-03     194.699E-03    -118.960E-03     227.617E-03    -108.447E-03     185.903E-03
             668     12.9212E-03     92.4264E-03    -22.1525E+06     108.130E+06     67.1730E+06     553.222E+03    -112.028E-03     220.658E-03    -108.630E-03     203.331E-03    -119.944E-03     228.685E-03    -108.419E-03     193.998E-03
             669     13.7273E-03     92.6528E-03    -16.9341E+06     119.895E+06     90.2999E+06     1.11172E+06    -109.847E-03     218.540E-03    -108.693E-03     184.831E-03    -117.797E-03     226.594E-03    -108.391E-03     176.280E-03
             670     14.5362E-03     92.8292E-03    -11.5849E+06     128.963E+06     99.2021E+06     699.371E+03    -107.469E-03     216.152E-03    -108.683E-03     159.412E-03    -115.009E-03     223.820E-03    -108.357E-03     151.979E-03
             671     15.3454E-03     92.9993E-03    -5.53458E+06     127.210E+06     96.1488E+06     297.832E+03    -106.454E-03     215.078E-03    -108.625E-03     96.3089E-03    -111.181E-03     219.959E-03    -108.320E-03     91.0032E-03
             672     807.427E-06     91.7400E-03    -89.6691E+06    -238.526E+06    -87.9436E+06     72.7982E+03    -108.843E-03     217.542E-03    -108.700E-03     16.2967E-03    -108.830E-03     216.620E-03    -108.663E-03     15.9854E-03
             673     1.61448E-03     91.7649E-03    -87.2103E+06    -233.913E+06    -80.7847E+06     113.023E+03    -108.966E-03     217.730E-03    -108.764E-03     29.5717E-03    -108.985E-03     216.843E-03    -108.702E-03     28.9809E-03
             674     2.42199E-03     91.8057E-03    -83.3679E+06    -226.251E+06    -69.2576E+06     456.347E+03    -109.180E-03     217.981E-03    -108.801E-03     43.5605E-03    -109.255E-03     217.157E-03    -108.698E-03     42.6645E-03
             675     3.22917E-03     91.8619E-03    -78.1981E+06    -216.316E+06    -55.2616E+06     641.648E+03    -109.477E-03     218.313E-03    -108.836E-03     57.3280E-03    -109.630E-03     217.581E-03    -108.686E-03     56.0941E-03
             676     4.03668E-03     91.9335E-03    -72.3685E+06    -206.247E+06    -42.2530E+06     647.730E+03    -109.832E-03     218.693E-03    -108.861E-03     70.8419E-03    -110.089E-03     218.083E-03    -108.668E-03     69.2293E-03
             677     4.84399E-03     92.0195E-03    -66.3499E+06    -191.501E+06    -31.1078E+06     516.808E+03    -110.231E-03     219.095E-03    -108.864E-03     83.9802E-03    -110.628E-03     218.667E-03    -108.646E-03     81.9443E-03
             678     5.65156E-03     92.1203E-03    -60.5298E+06    -173.911E+06    -21.7116E+06     771.471E+03    -110.691E-03     219.545E-03    -108.854E-03     96.7349E-03    -111.274E-03     219.359E-03    -108.623E-03     94.2300E-03
             679     6.45902E-03     92.2345E-03    -55.3666E+06    -153.785E+06    -14.1825E+06     915.446E+03    -111.185E-03     220.020E-03    -108.835E-03     109.017E-03    -112.010E-03     220.143E-03    -108.603E-03     105.983E-03
             680     7.26659E-03     92.3622E-03    -50.5697E+06    -140.706E+06    -8.19869E+06     1.13184E+06    -111.671E-03     220.493E-03    -108.823E-03     120.847E-03    -112.793E-03     220.961E-03    -108.586E-03     117.216E-03
             681     8.07387E-03     92.5023E-03    -45.7745E+06    -121.972E+06    -3.23730E+06     1.74301E+06    -112.094E-03     220.891E-03    -108.798E-03     132.490E-03    -113.602E-03     221.813E-03    -108.571E-03     128.206E-03
             682     8.88167E-03     92.6557E-03    -41.2190E+06    -94.6055E+06     1.52428E+06     1.59371E+06    -112.404E-03     221.163E-03    -108.759E-03     143.239E-03    -114.414E-03     222.686E-03    -108.554E-03     138.215E-03
             683     9.68911E-03     92.8182E-03    -37.2938E+06    -67.9143E+06     4.48784E+06     1.13943E+06    -112.551E-03     221.263E-03    -108.712E-03     153.097E-03    -115.183E-03     223.509E-03    -108.537E-03     147.265E-03
             684     10.4969E-03     92.9932E-03    -33.9702E+06    -25.8064E+06     9.22709E+06     1.36500E+06    -112.502E-03     221.151E-03    -108.649E-03     163.714E-03    -115.985E-03     224.395E-03    -108.516E-03     156.997E-03
             685     11.3045E-03     93.1775E-03    -29.8628E+06     39.4399E+06     17.8023E+06     1.44010E+06    -112.522E-03     221.086E-03    -108.564E-03     177.623E-03    -117.239E-03     225.786E-03    -108.489E-03     169.886E-03
             686     12.1128E-03     93.3821E-03    -25.7965E+06     89.9873E+06     36.7366E+06     2.17688E+06    -112.684E-03     221.237E-03    -108.553E-03     194.803E-03    -119.077E-03     227.751E-03    -108.462E-03     186.014E-03
             687     12.9185E-03     93.6058E-03    -22.3062E+06     109.000E+06     67.7713E+06     2.29395E+06    -111.830E-03     220.472E-03    -108.642E-03     203.772E-03    -119.753E-03     228.506E-03    -108.429E-03     194.487E-03
             688     13.7297E-03     93.8268E-03    -17.1839E+06     120.160E+06     90.2571E+06     1.32352E+06    -109.598E-03     218.284E-03    -108.686E-03     185.070E-03    -117.544E-03     226.334E-03    -108.384E-03     176.553E-03
             689     14.5370E-03     94.0107E-03    -9.98649E+06     129.798E+06     100.335E+06     1.39063E+06    -107.743E-03     216.421E-03    -108.677E-03     159.892E-03    -115.293E-03     224.105E-03    -108.349E-03     152.447E-03
             690     15.3421E-03     94.1753E-03    -4.74045E+06     128.493E+06     97.0364E+06     635.193E+03    -106.631E-03     215.260E-03    -108.630E-03     96.6667E-03    -111.382E-03     220.170E-03    -108.324E-03     91.3435E-03
             691     807.265E-06     92.9175E-03    -89.8562E+06    -238.790E+06    -88.1229E+06     159.252E+03    -108.782E-03     217.523E-03    -108.741E-03     16.2591E-03    -108.770E-03     216.600E-03    -108.705E-03     15.9495E-03
             692     1.61475E-03     92.9425E-03    -87.6883E+06    -234.372E+06    -81.0977E+06     262.977E+03    -108.960E-03     217.715E-03    -108.755E-03     29.5079E-03    -108.980E-03     216.827E-03    -108.694E-03     28.9181E-03
             693     2.42184E-03     92.9833E-03    -83.6478E+06    -226.617E+06    -69.5650E+06     440.525E+03    -109.198E-03     217.995E-03    -108.797E-03     43.5339E-03    -109.273E-03     217.170E-03    -108.695E-03     42.6372E-03
             694     3.22927E-03     93.0396E-03    -78.4281E+06    -216.788E+06    -55.7565E+06     538.397E+03    -109.480E-03     218.315E-03    -108.836E-03     57.3309E-03    -109.633E-03     217.583E-03    -108.686E-03     56.0951E-03
             695     4.03656E-03     93.1109E-03    -72.6834E+06    -206.792E+06    -42.8943E+06     750.583E+03    -109.848E-03     218.710E-03    -108.861E-03     70.8273E-03    -110.105E-03     218.099E-03    -108.671E-03     69.2154E-03
             696     4.84408E-03     93.1973E-03    -67.0399E+06    -191.383E+06    -31.3872E+06     787.055E+03    -110.275E-03     219.146E-03    -108.871E-03     83.9555E-03    -110.676E-03     218.720E-03    -108.653E-03     81.9211E-03
             697     5.65145E-03     93.2976E-03    -61.5004E+06    -174.237E+06    -22.1404E+06     572.153E+03    -110.729E-03     219.596E-03    -108.867E-03     96.7116E-03    -111.316E-03     219.410E-03    -108.636E-03     94.2024E-03
             698     6.45895E-03     93.4124E-03    -55.9677E+06    -154.334E+06    -14.9110E+06     932.542E+03    -111.190E-03     220.038E-03    -108.848E-03     109.026E-03    -112.015E-03     220.160E-03    -108.617E-03     105.992E-03
             699     7.26635E-03     93.5397E-03    -50.9610E+06    -141.057E+06    -8.68487E+06     991.964E+03    -111.706E-03     220.542E-03    -108.836E-03     120.963E-03    -112.829E-03     221.009E-03    -108.601E-03     117.332E-03
             700     8.07390E-03     93.6804E-03    -46.2876E+06    -122.961E+06    -4.25750E+06     921.170E+03    -112.094E-03     220.904E-03    -108.809E-03     132.548E-03    -113.604E-03     221.825E-03    -108.585E-03     128.251E-03
             701     8.88150E-03     93.8326E-03    -41.8561E+06    -94.7563E+06     899.119E+03     1.03514E+06    -112.347E-03     221.113E-03    -108.767E-03     143.443E-03    -114.355E-03     222.634E-03    -108.564E-03     138.423E-03
             702     9.68893E-03     93.9971E-03    -38.2022E+06    -67.6589E+06     4.48160E+06     1.13112E+06    -112.524E-03     221.242E-03    -108.717E-03     153.318E-03    -115.161E-03     223.490E-03    -108.541E-03     147.493E-03
             703     10.4967E-03     94.1692E-03    -34.6598E+06    -25.9533E+06     9.10109E+06     963.290E+03    -112.555E-03     221.209E-03    -108.653E-03     163.723E-03    -116.046E-03     224.458E-03    -108.520E-03     156.991E-03
             704     11.3047E-03     94.3565E-03    -31.7614E+06     38.5155E+06     16.5973E+06     1.09486E+06    -112.635E-03     221.207E-03    -108.572E-03     177.767E-03    -117.360E-03     225.908E-03    -108.499E-03     170.020E-03
             705     12.1113E-03     94.5594E-03    -28.3686E+06     88.2334E+06     34.2486E+06     1.46269E+06    -112.398E-03     220.948E-03    -108.550E-03     194.943E-03    -118.794E-03     227.457E-03    -108.465E-03     186.171E-03
             706     12.9225E-03     94.7830E-03    -21.7100E+06     109.132E+06     67.1812E+06     1.99094E+06    -111.729E-03     220.357E-03    -108.629E-03     203.697E-03    -119.643E-03     228.387E-03    -108.419E-03     194.414E-03
             707     13.7274E-03     95.0052E-03    -15.1325E+06     121.790E+06     91.6014E+06     2.23940E+06    -109.932E-03     218.618E-03    -108.686E-03     184.841E-03    -117.887E-03     226.687E-03    -108.383E-03     176.295E-03
             708     14.5360E-03     95.1869E-03    -10.7083E+06     128.663E+06     99.5504E+06     1.76455E+06    -107.513E-03     216.193E-03    -108.680E-03     159.253E-03    -115.050E-03     223.860E-03    -108.353E-03     151.830E-03
             709     15.3476E-03     95.3542E-03    -5.14721E+06     128.954E+06     97.1789E+06     820.875E+03    -106.434E-03     215.059E-03    -108.625E-03     95.7844E-03    -111.154E-03     219.936E-03    -108.319E-03     90.4978E-03
             710     807.251E-06     94.0946E-03    -90.7740E+06    -239.533E+06    -88.4989E+06     368.566E+03    -108.854E-03     217.643E-03    -108.789E-03     16.0675E-03    -108.844E-03     216.718E-03    -108.753E-03     15.7569E-03
             711     1.61448E-03     94.1202E-03    -87.9327E+06    -234.491E+06    -80.9974E+06     495.966E+03    -108.928E-03     217.727E-03    -108.799E-03     29.4890E-03    -108.949E-03     216.839E-03    -108.737E-03     28.9031E-03
             712     2.42192E-03     94.1609E-03    -83.9569E+06    -227.012E+06    -69.8925E+06     335.730E+03    -109.162E-03     217.974E-03    -108.812E-03     43.4688E-03    -109.237E-03     217.149E-03    -108.711E-03     42.5707E-03
             713     3.22924E-03     94.2171E-03    -78.8927E+06    -217.314E+06    -56.3067E+06     599.421E+03    -109.476E-03     218.318E-03    -108.841E-03     57.2981E-03    -109.631E-03     217.584E-03    -108.693E-03     56.0630E-03
             714     4.03663E-03     94.2887E-03    -73.1156E+06    -207.328E+06    -43.2611E+06     770.696E+03    -109.876E-03     218.744E-03    -108.869E-03     70.7847E-03    -110.133E-03     218.132E-03    -108.679E-03     69.1725E-03
             715     4.84394E-03     94.3747E-03     -66.997E+06    -191.538E+06    -31.8205E+06     934.693E+03    -110.302E-03     219.183E-03    -108.881E-03     83.9472E-03    -110.702E-03     218.757E-03    -108.665E-03     81.9150E-03
             716     5.65135E-03     94.4756E-03    -61.2980E+06    -173.897E+06    -22.0706E+06     882.015E+03    -110.742E-03     219.622E-03    -108.879E-03     96.7222E-03    -111.329E-03     219.437E-03    -108.648E-03     94.2170E-03
             717     6.45879E-03     94.5896E-03    -55.9819E+06    -155.148E+06    -15.3110E+06     474.018E+03    -111.196E-03     220.055E-03    -108.859E-03     109.106E-03    -112.020E-03     220.174E-03    -108.629E-03     106.066E-03
             718     7.26643E-03     94.7177E-03    -50.8113E+06    -141.302E+06    -9.04402E+06     801.464E+03    -111.663E-03     220.505E-03    -108.842E-03     121.043E-03    -112.784E-03     220.970E-03    -108.609E-03     117.412E-03
             719     8.07386E-03     94.8577E-03    -46.2104E+06    -123.051E+06    -4.18704E+06     603.688E+03    -112.065E-03     220.877E-03    -108.813E-03     132.577E-03    -113.574E-03     221.798E-03    -108.588E-03     128.276E-03
             720     8.88134E-03     95.0106E-03    -42.2989E+06    -95.6194E+06     223.603E+03     847.699E+03    -112.294E-03     221.057E-03    -108.764E-03     143.504E-03    -114.301E-03     222.574E-03    -108.563E-03     138.485E-03
             721     9.68956E-03     95.1738E-03    -38.6542E+06    -67.6231E+06     4.40024E+06     1.34166E+06    -112.511E-03     221.224E-03    -108.713E-03     153.441E-03    -115.149E-03     223.472E-03    -108.536E-03     147.623E-03
             722     10.4968E-03     95.3483E-03    -35.7738E+06    -26.2437E+06     8.47162E+06     1.17273E+06    -112.697E-03     221.348E-03    -108.652E-03     163.890E-03    -116.199E-03     224.606E-03    -108.520E-03     157.145E-03
             723     11.3039E-03     95.5331E-03    -32.2657E+06     38.5236E+06     15.9622E+06     1.10438E+06    -112.488E-03     221.057E-03    -108.569E-03     177.812E-03    -117.212E-03     225.757E-03    -108.498E-03     170.080E-03
             724     12.1134E-03     95.7379E-03    -27.8037E+06     88.4238E+06     35.0213E+06     1.02306E+06    -112.323E-03     220.868E-03    -108.545E-03     194.687E-03    -118.712E-03     227.371E-03    -108.458E-03     185.917E-03
             725     12.9186E-03     95.9585E-03    -23.8952E+06     108.081E+06     65.7473E+06     909.778E+03    -111.764E-03     220.382E-03    -108.618E-03     203.959E-03    -119.695E-03     228.422E-03    -108.412E-03     194.652E-03
             726     13.7294E-03     96.1850E-03    -18.0495E+06     120.004E+06     88.8041E+06     1.65550E+06    -109.923E-03     218.592E-03    -108.670E-03     185.808E-03    -117.897E-03     226.671E-03    -108.373E-03     177.260E-03
             727     14.5364E-03     96.3637E-03    -10.7219E+06     129.704E+06     100.201E+06     2.57568E+06    -107.762E-03     216.438E-03    -108.676E-03     159.832E-03    -115.323E-03     224.131E-03    -108.347E-03     152.402E-03
             728     15.3409E-03     96.5311E-03    -4.89977E+06     131.114E+06     98.6989E+06     962.365E+03    -106.315E-03     214.941E-03    -108.626E-03     95.9322E-03    -111.053E-03     219.841E-03    -108.316E-03     90.6482E-03
             729     807.129E-06     95.2726E-03    -91.0867E+06    -240.069E+06    -89.2047E+06     402.539E+03    -108.945E-03     217.719E-03    -108.775E-03     16.0216E-03    -108.935E-03     216.793E-03    -108.741E-03     15.7068E-03
             730     1.61447E-03     95.2976E-03    -88.3321E+06    -235.096E+06    -81.6883E+06     360.886E+03    -108.951E-03     217.784E-03    -108.833E-03     29.5241E-03    -108.972E-03     216.894E-03    -108.773E-03     28.9367E-03
             731     2.42180E-03     95.3384E-03    -84.3144E+06    -227.291E+06    -70.1002E+06     593.497E+03    -109.151E-03     217.990E-03    -108.839E-03     43.4618E-03    -109.228E-03     217.164E-03    -108.737E-03     42.5680E-03
             732     3.22914E-03     95.3948E-03    -79.2107E+06    -217.676E+06    -56.5018E+06     634.986E+03    -109.465E-03     218.323E-03    -108.858E-03     57.2962E-03    -109.620E-03     217.588E-03    -108.710E-03     56.0620E-03
             733     4.03651E-03     95.4662E-03    -73.4185E+06    -207.478E+06    -43.6406E+06     815.696E+03    -109.862E-03     218.741E-03    -108.879E-03     70.8468E-03    -110.121E-03     218.129E-03    -108.689E-03     69.2365E-03
             734     4.84387E-03     95.5526E-03    -67.6264E+06    -191.906E+06    -32.3663E+06     655.577E+03    -110.287E-03     219.173E-03    -108.886E-03     84.0353E-03    -110.688E-03     218.747E-03    -108.671E-03     82.0010E-03
             735     5.65138E-03     95.6529E-03    -61.5807E+06    -173.981E+06    -22.6967E+06     648.961E+03    -110.739E-03     219.619E-03    -108.880E-03     96.8135E-03    -111.326E-03     219.435E-03    -108.652E-03     94.3069E-03
             736     6.45886E-03     95.7676E-03    -56.1681E+06    -154.620E+06    -15.2026E+06     521.053E+03    -111.215E-03     220.077E-03    -108.862E-03     109.159E-03    -112.041E-03     220.199E-03    -108.633E-03     106.120E-03
             737     7.26623E-03     95.8949E-03    -51.3207E+06    -141.787E+06    -9.32375E+06     304.363E+03    -111.641E-03     220.486E-03    -108.845E-03     121.047E-03    -112.764E-03     220.950E-03    -108.612E-03     117.409E-03
             738     8.07392E-03     96.0356E-03    -46.9347E+06    -123.170E+06    -4.88082E+06     635.682E+03    -112.028E-03     220.838E-03    -108.810E-03     132.533E-03    -113.538E-03     221.759E-03    -108.588E-03     128.236E-03
             739     8.88176E-03     96.1878E-03    -42.9101E+06    -95.9992E+06    -384.779E+03     725.215E+03    -112.336E-03     221.099E-03    -108.764E-03     143.259E-03    -114.345E-03     222.617E-03    -108.564E-03     138.233E-03
             740     9.68886E-03     96.3517E-03    -39.1554E+06    -68.7320E+06     3.23484E+06     1.13106E+06    -112.493E-03     221.206E-03    -108.713E-03     153.423E-03    -115.131E-03     223.451E-03    -108.540E-03     147.599E-03
             741     10.4968E-03     96.5256E-03    -35.2773E+06    -26.1189E+06     8.41313E+06     1.44940E+06    -112.501E-03     221.146E-03    -108.645E-03     164.076E-03    -115.996E-03     224.398E-03    -108.514E-03     157.356E-03
             742     11.3048E-03     96.7119E-03    -32.1097E+06     38.9509E+06     15.8380E+06     1.38622E+06    -112.351E-03     220.901E-03    -108.550E-03     177.660E-03    -117.076E-03     225.604E-03    -108.481E-03     169.939E-03
             743     12.1117E-03     96.9133E-03    -29.6436E+06     87.5494E+06     33.3079E+06     1.53999E+06    -112.324E-03     220.843E-03    -108.518E-03     195.214E-03    -118.729E-03     227.357E-03    -108.436E-03     186.448E-03
             744     12.9221E-03     97.1390E-03    -24.9231E+06     108.292E+06     66.0154E+06     1.76646E+06    -111.946E-03     220.549E-03    -108.603E-03     204.302E-03    -119.896E-03     228.604E-03    -108.394E-03     194.992E-03
             745     13.7286E-03     97.3586E-03    -19.0428E+06     120.038E+06     89.1492E+06     645.865E+03    -109.791E-03     218.450E-03    -108.659E-03     185.414E-03    -117.776E-03     226.534E-03    -108.360E-03     176.849E-03
             746     14.5371E-03     97.5458E-03    -11.5593E+06     129.018E+06     99.1272E+06    -334.306E+03    -107.253E-03     215.898E-03    -108.645E-03     159.618E-03    -114.816E-03     223.590E-03    -108.319E-03     152.178E-03
             747     15.3484E-03     97.7064E-03    -4.13599E+06     132.047E+06     98.9589E+06     776.713E+03    -106.761E-03     215.359E-03    -108.597E-03     96.4188E-03    -111.511E-03     220.276E-03    -108.288E-03     91.1090E-03
             748     807.297E-06     96.4502E-03    -91.4267E+06    -240.528E+06    -89.8960E+06    -74.7723E+03    -108.905E-03     217.656E-03    -108.751E-03     15.9907E-03    -108.895E-03     216.729E-03    -108.720E-03     15.6673E-03
             749     1.61447E-03     96.4753E-03    -88.9420E+06    -235.677E+06    -82.2719E+06     341.077E+03    -108.993E-03     217.810E-03    -108.817E-03     29.5742E-03    -109.016E-03     216.919E-03    -108.757E-03     28.9862E-03
             750     2.42172E-03     96.5160E-03    -84.8985E+06    -227.953E+06    -70.7382E+06     552.793E+03    -109.189E-03     218.031E-03    -108.842E-03     43.5521E-03    -109.267E-03     217.203E-03    -108.742E-03     42.6574E-03
             751     3.22914E-03     96.5723E-03    -79.5675E+06    -217.875E+06    -56.7831E+06     638.542E+03    -109.471E-03     218.338E-03    -108.867E-03     57.3778E-03    -109.628E-03     217.603E-03    -108.719E-03     56.1441E-03
             752     4.03652E-03     96.6439E-03    -73.5975E+06    -207.829E+06    -44.0589E+06     536.226E+03    -109.847E-03     218.730E-03    -108.884E-03     70.8763E-03    -110.105E-03     218.117E-03    -108.696E-03     69.2631E-03
             753     4.84402E-03     96.7301E-03    -67.4574E+06    -191.727E+06    -32.9010E+06     573.228E+03    -110.274E-03     219.159E-03    -108.885E-03     84.0014E-03    -110.674E-03     218.735E-03    -108.674E-03     81.9664E-03
             754     5.65137E-03     96.8307E-03    -61.9101E+06    -174.236E+06    -23.2064E+06     377.098E+03    -110.742E-03     219.622E-03    -108.880E-03     96.7666E-03    -111.329E-03     219.438E-03    -108.654E-03     94.2551E-03
             755     6.45881E-03     96.9450E-03    -56.3960E+06    -154.487E+06    -15.6503E+06     265.807E+03    -111.192E-03     220.052E-03    -108.861E-03     109.143E-03    -112.018E-03     220.175E-03    -108.633E-03     106.102E-03
             756     7.26639E-03     97.0729E-03    -51.3658E+06    -141.884E+06    -9.88417E+06     284.286E+03    -111.642E-03     220.484E-03    -108.842E-03     121.002E-03    -112.764E-03     220.949E-03    -108.611E-03     117.363E-03
             757     8.07390E-03     97.2127E-03    -46.7975E+06    -123.758E+06    -5.62242E+06     482.591E+03    -112.062E-03     220.870E-03    -108.808E-03     132.569E-03    -113.569E-03     221.788E-03    -108.589E-03     128.272E-03
             758     8.88113E-03     97.3659E-03    -42.7302E+06    -95.7492E+06    -864.464E+03     866.766E+03    -112.364E-03     221.128E-03    -108.764E-03     143.397E-03    -114.374E-03     222.649E-03    -108.567E-03     138.371E-03
             759     9.68926E-03     97.5288E-03    -38.9291E+06    -69.4993E+06     2.74176E+06     873.665E+03    -112.457E-03     221.169E-03    -108.713E-03     153.530E-03    -115.094E-03     223.414E-03    -108.542E-03     147.701E-03
             760     10.4968E-03     97.7035E-03    -35.5890E+06    -26.5948E+06     7.70712E+06     1.24929E+06    -112.250E-03     220.883E-03    -108.633E-03     164.085E-03    -115.736E-03     224.125E-03    -108.504E-03     157.390E-03
             761     11.3048E-03     97.8885E-03    -32.5234E+06     37.8690E+06     15.2508E+06     2.05483E+06    -112.201E-03     220.726E-03    -108.525E-03     177.644E-03    -116.921E-03     225.421E-03    -108.456E-03     169.945E-03
             762     12.1139E-03     98.0920E-03    -28.2113E+06     87.8623E+06     34.0253E+06     2.41378E+06    -112.562E-03     221.063E-03    -108.501E-03     194.805E-03    -118.963E-03     227.577E-03    -108.417E-03     186.023E-03
             763     12.9204E-03     98.3140E-03    -23.1059E+06     108.606E+06     66.3778E+06     1.78343E+06    -112.131E-03     220.732E-03    -108.601E-03     203.728E-03    -120.070E-03     228.782E-03    -108.393E-03     194.394E-03
             764     13.7281E-03     98.5408E-03    -16.3144E+06     121.824E+06     91.0308E+06     901.373E+03    -109.676E-03     218.342E-03    -108.666E-03     184.733E-03    -117.631E-03     226.408E-03    -108.364E-03     176.196E-03
             765     14.5371E-03     98.7167E-03    -10.8828E+06     130.571E+06     100.110E+06    -449.245E+03    -107.260E-03     215.909E-03    -108.649E-03     158.900E-03    -114.786E-03     223.570E-03    -108.322E-03     151.485E-03
             766     15.3432E-03     98.8875E-03    -5.89406E+06     130.625E+06     96.7469E+06     103.203E+03    -106.658E-03     215.250E-03    -108.592E-03     95.6933E-03    -111.382E-03     220.136E-03    -108.289E-03     90.3772E-03
             767     807.252E-06     97.6279E-03    -92.2531E+06    -241.050E+06    -90.1654E+06    -125.854E+03    -108.831E-03     217.568E-03    -108.737E-03     16.0892E-03    -108.824E-03     216.640E-03    -108.705E-03     15.7676E-03
             768     1.61460E-03     97.6530E-03    -89.6345E+06    -236.294E+06    -82.9327E+06     411.489E+03    -109.010E-03     217.794E-03    -108.784E-03     29.5510E-03    -109.034E-03     216.902E-03    -108.726E-03     28.9641E-03
             769     2.42189E-03     97.6937E-03    -85.5190E+06    -228.223E+06    -71.1689E+06     433.391E+03    -109.220E-03     218.050E-03    -108.830E-03     43.4999E-03    -109.300E-03     217.223E-03    -108.731E-03     42.6039E-03
             770     3.22912E-03     97.7499E-03    -80.0312E+06    -218.165E+06    -57.4211E+06     261.451E+03    -109.511E-03     218.377E-03    -108.866E-03     57.3515E-03    -109.668E-03     217.642E-03    -108.721E-03     56.1125E-03
             771     4.03648E-03     97.8215E-03    -74.0013E+06    -207.608E+06    -44.6029E+06     128.390E+03    -109.866E-03     218.756E-03    -108.889E-03     70.8280E-03    -110.126E-03     218.145E-03    -108.704E-03     69.2079E-03
             772     4.84379E-03     97.9076E-03    -67.9940E+06    -192.034E+06    -33.6929E+06    -3.95538E+03    -110.275E-03     219.166E-03    -108.892E-03     84.0037E-03    -110.676E-03     218.742E-03    -108.683E-03     81.9598E-03
             773     5.65130E-03     98.0084E-03    -61.7793E+06    -174.194E+06    -24.0802E+06     6.75048E+03    -110.712E-03     219.593E-03    -108.881E-03     96.7826E-03    -111.297E-03     219.411E-03    -108.660E-03     94.2672E-03
             774     6.45879E-03     98.1226E-03    -56.3514E+06    -154.608E+06    -16.6116E+06    -5.75530E+03    -111.151E-03     220.008E-03    -108.857E-03     109.146E-03    -111.975E-03     220.131E-03    -108.634E-03     106.104E-03
             775     7.26636E-03     98.2503E-03    -51.3224E+06    -142.096E+06    -10.5189E+06     -71.247E+03    -111.641E-03     220.477E-03    -108.837E-03     121.049E-03    -112.761E-03     220.941E-03    -108.609E-03     117.407E-03
             776     8.07380E-03     98.3906E-03    -46.6868E+06    -124.121E+06    -6.06284E+06     119.910E+03    -112.029E-03     220.832E-03    -108.802E-03     132.589E-03    -113.535E-03     221.748E-03    -108.585E-03     128.288E-03
             777     8.88189E-03     98.5432E-03    -42.2362E+06    -96.3339E+06    -1.24252E+06     465.560E+03    -112.310E-03     221.063E-03    -108.753E-03     143.577E-03    -114.316E-03     222.581E-03    -108.558E-03     138.550E-03
             778     9.68897E-03     98.7068E-03    -38.3761E+06    -69.9106E+06     2.74666E+06     979.618E+03    -112.416E-03     221.115E-03    -108.699E-03     153.491E-03    -115.049E-03     223.356E-03    -108.529E-03     147.668E-03
             779     10.4970E-03     98.8802E-03    -35.1253E+06    -27.9449E+06     7.24848E+06     1.53930E+06    -112.276E-03     220.895E-03    -108.620E-03     163.846E-03    -115.755E-03     224.130E-03    -108.492E-03     157.152E-03
             780     11.3054E-03     99.0658E-03    -31.4683E+06     37.0193E+06     15.3352E+06     1.87336E+06    -112.428E-03     220.952E-03    -108.524E-03     177.376E-03    -117.141E-03     225.641E-03    -108.455E-03     169.657E-03
             781     12.1124E-03     99.2690E-03    -27.5424E+06     88.0413E+06     33.2552E+06     1.86175E+06    -112.743E-03     221.253E-03    -108.510E-03     194.620E-03    -119.141E-03     227.769E-03    -108.431E-03     185.813E-03
             782     12.9201E-03     99.4943E-03    -21.9142E+06     109.463E+06     65.5166E+06     1.25562E+06    -111.897E-03     220.502E-03    -108.605E-03     203.904E-03    -119.815E-03     228.540E-03    -108.404E-03     194.601E-03
             783     13.7295E-03     99.7144E-03    -16.1455E+06     122.060E+06     90.4943E+06     961.669E+03    -109.687E-03     218.351E-03    -108.664E-03     184.809E-03    -117.617E-03     226.395E-03    -108.365E-03     176.295E-03
             784     14.5365E-03     99.8985E-03    -10.6950E+06     131.293E+06     100.234E+06     1.89827E+06    -107.610E-03     216.267E-03    -108.657E-03     159.513E-03    -115.137E-03     223.931E-03    -108.331E-03     152.106E-03
             785     15.3455E-03     100.063E-03    -5.53682E+06     131.603E+06     97.2200E+06     653.322E+03    -106.412E-03     215.012E-03    -108.601E-03     96.8138E-03    -111.155E-03     219.921E-03    -108.297E-03     91.5100E-03
             786     807.429E-06     98.8054E-03    -93.0944E+06    -241.859E+06    -91.0253E+06     313.114E+03    -108.899E-03     217.562E-03    -108.663E-03     16.2949E-03    -108.894E-03     216.632E-03    -108.632E-03     15.9830E-03
             787     1.61450E-03     98.8307E-03    -90.3037E+06    -236.583E+06    -83.2067E+06     300.813E+03    -109.021E-03     217.807E-03    -108.786E-03     29.4766E-03    -109.048E-03     216.915E-03    -108.728E-03     28.8881E-03
             788     2.42177E-03     98.8713E-03    -86.0009E+06    -228.344E+06    -71.6130E+06     276.225E+03    -109.218E-03     218.051E-03    -108.833E-03     43.4717E-03    -109.299E-03     217.224E-03    -108.735E-03     42.5735E-03
             789     3.22910E-03     98.9277E-03    -80.5933E+06    -217.906E+06    -57.9620E+06    -8.06878E+03    -109.511E-03     218.378E-03    -108.867E-03     57.3653E-03    -109.670E-03     217.646E-03    -108.724E-03     56.1229E-03
             790     4.03641E-03     98.9991E-03    -74.5961E+06    -207.385E+06    -45.3828E+06    -355.391E+03    -109.870E-03     218.760E-03    -108.889E-03     70.9008E-03    -110.132E-03     218.152E-03    -108.707E-03     69.2746E-03
             791     4.84389E-03     99.0854E-03    -68.4126E+06    -191.533E+06    -34.6529E+06    -766.821E+03    -110.275E-03     219.164E-03    -108.889E-03     84.0979E-03    -110.678E-03     218.745E-03    -108.686E-03     82.0443E-03
             792     5.65131E-03     99.1859E-03    -62.4645E+06    -174.307E+06    -25.7143E+06    -1.11027E+06    -110.697E-03     219.573E-03    -108.875E-03     96.8068E-03    -111.283E-03     219.393E-03    -108.661E-03     94.2782E-03
             793     6.45887E-03     99.3003E-03    -56.4426E+06    -154.792E+06    -17.6883E+06    -737.921E+03    -111.146E-03     219.997E-03    -108.851E-03     109.130E-03    -111.969E-03     220.121E-03    -108.633E-03     106.078E-03
             794     7.26639E-03     99.4279E-03    -51.2361E+06    -142.249E+06    -11.1196E+06    -507.372E+03    -111.591E-03     220.421E-03    -108.831E-03     121.049E-03    -112.708E-03     220.884E-03    -108.606E-03     117.406E-03
             795     8.07405E-03     99.5682E-03    -46.5964E+06    -124.094E+06    -6.57139E+06    -503.034E+03    -112.007E-03     220.800E-03    -108.793E-03     132.532E-03    -113.511E-03     221.717E-03    -108.578E-03     128.223E-03
             796     8.88136E-03     99.7204E-03    -42.3808E+06    -97.8323E+06    -2.35307E+06    -209.586E+03    -112.236E-03     220.976E-03    -108.740E-03     143.429E-03    -114.237E-03     222.487E-03    -108.549E-03     138.395E-03
             797     9.68966E-03     99.8847E-03    -38.4839E+06    -71.3227E+06     1.29210E+06      411.87E+03    -112.354E-03     221.034E-03    -108.680E-03     153.390E-03    -114.978E-03     223.265E-03    -108.515E-03     147.571E-03
             798     10.4972E-03     100.057E-03    -34.2433E+06    -28.4918E+06     6.83089E+06     951.203E+03    -112.531E-03     221.143E-03    -108.612E-03     163.719E-03    -116.010E-03     224.379E-03    -108.487E-03     156.995E-03
             799     11.3045E-03     100.244E-03    -30.4582E+06     35.8407E+06     14.3541E+06     1.56596E+06    -112.664E-03     221.194E-03    -108.530E-03     177.842E-03    -117.374E-03     225.882E-03    -108.466E-03     170.105E-03
             800     12.1122E-03     100.448E-03    -26.4905E+06     88.5841E+06     33.5066E+06     1.70572E+06    -112.523E-03     221.039E-03    -108.516E-03     195.144E-03    -118.914E-03     227.553E-03    -108.438E-03     186.367E-03
             801     12.9214E-03     100.670E-03    -22.7534E+06     109.810E+06     65.0487E+06     1.62358E+06    -111.705E-03     220.300E-03    -108.595E-03     203.804E-03    -119.613E-03     228.328E-03    -108.396E-03     194.530E-03
             802     13.7280E-03     100.894E-03    -17.7565E+06     121.581E+06     88.7124E+06     1.83683E+06    -109.719E-03     218.363E-03    -108.644E-03     185.405E-03    -117.659E-03     226.415E-03    -108.351E-03     176.896E-03
             803     14.5368E-03     101.074E-03    -11.5903E+06     130.372E+06     99.1207E+06     1.36950E+06    -107.465E-03     216.101E-03    -108.636E-03     159.726E-03    -115.010E-03     223.781E-03    -108.313E-03     152.300E-03
             804     15.3450E-03     101.241E-03    -5.06122E+06     132.740E+06     97.9035E+06     89.7057E+03    -106.361E-03     214.941E-03    -108.581E-03     96.3648E-03    -111.105E-03     219.855E-03    -108.276E-03     91.0522E-03
             805     807.184E-06     99.9832E-03    -93.4798E+06    -242.093E+06    -91.7362E+06     36.0343E+03    -108.942E-03     217.645E-03    -108.702E-03     16.3544E-03    -108.938E-03     216.715E-03    -108.674E-03     16.0406E-03
             806     1.61453E-03     100.008E-03    -90.5845E+06    -236.963E+06    -83.9802E+06     143.781E+03    -108.980E-03     217.789E-03    -108.809E-03     29.4817E-03    -109.007E-03     216.896E-03    -108.754E-03     28.8910E-03
             807     2.42181E-03     100.049E-03    -86.4270E+06    -228.191E+06    -72.1144E+06     76.3918E+03    -109.200E-03     218.036E-03    -108.836E-03     43.5308E-03    -109.283E-03     217.211E-03    -108.740E-03     42.6298E-03
             808     3.22912E-03     100.105E-03    -81.1830E+06    -217.119E+06    -58.4403E+06    -334.644E+03    -109.486E-03     218.350E-03    -108.864E-03     57.3711E-03    -109.649E-03     217.623E-03    -108.723E-03     56.1251E-03
             809     4.03654E-03     100.177E-03    -74.9599E+06    -206.218E+06    -46.0515E+06    -1.28271E+06    -109.864E-03     218.745E-03    -108.881E-03     70.8985E-03    -110.129E-03     218.145E-03    -108.704E-03     69.2611E-03
             810     4.84386E-03     100.263E-03    -68.1987E+06    -190.813E+06    -35.6901E+06    -1.99126E+06    -110.283E-03     219.164E-03    -108.880E-03     84.0496E-03    -110.685E-03     218.749E-03    -108.683E-03     81.9805E-03
             811     5.65133E-03     100.364E-03    -62.0956E+06    -174.157E+06    -26.4727E+06    -1.84780E+06    -110.710E-03     219.580E-03    -108.870E-03     96.7542E-03    -111.293E-03     219.401E-03    -108.660E-03     94.2149E-03
             812     6.45875E-03     100.478E-03    -57.1009E+06    -155.599E+06    -19.1930E+06    -1.55098E+06    -111.127E-03     219.973E-03    -108.845E-03     109.128E-03    -111.950E-03     220.096E-03    -108.633E-03     106.066E-03
             813     7.26636E-03     100.606E-03    -52.1620E+06    -141.985E+06    -12.4706E+06    -1.32409E+06    -111.557E-03     220.379E-03    -108.822E-03     121.020E-03    -112.677E-03     220.846E-03    -108.603E-03     117.369E-03
             814     8.07401E-03     100.745E-03    -47.2611E+06    -124.196E+06    -7.63077E+06    -1.50473E+06    -111.965E-03     220.748E-03    -108.782E-03     132.600E-03    -113.469E-03     221.665E-03    -108.572E-03     128.282E-03
             815     8.88177E-03     100.899E-03    -42.6181E+06    -98.9084E+06    -3.54230E+06    -1.30654E+06    -112.237E-03     220.966E-03    -108.728E-03     143.362E-03    -114.235E-03     222.472E-03    -108.541E-03     138.317E-03
             816     9.68935E-03     101.061E-03    -38.0344E+06    -72.1818E+06     357.012E+03    -661.969E+03    -112.412E-03     221.084E-03    -108.672E-03     153.363E-03    -115.032E-03     223.311E-03    -108.510E-03     147.527E-03
             817     10.4971E-03     101.236E-03    -34.3045E+06    -29.8792E+06     5.58416E+06    -151.823E+03    -112.552E-03     221.157E-03    -108.605E-03     164.068E-03    -116.028E-03     224.389E-03    -108.484E-03     157.332E-03
             818     11.3048E-03     101.421E-03    -30.4766E+06     34.4488E+06     13.8208E+06     413.873E+03    -112.505E-03     221.026E-03    -108.521E-03     178.028E-03    -117.212E-03     225.706E-03    -108.457E-03     170.289E-03
             819     12.1135E-03     101.625E-03    -26.7009E+06     86.5165E+06     32.6450E+06     2.10937E+06    -112.344E-03     220.839E-03    -108.494E-03     195.170E-03    -118.726E-03     227.338E-03    -108.418E-03     186.419E-03
             820     12.9199E-03     101.848E-03    -23.0077E+06     110.365E+06     65.1430E+06     3.62528E+06    -111.685E-03     220.253E-03    -108.568E-03     204.162E-03    -119.611E-03     228.300E-03    -108.369E-03     194.911E-03
             821     13.7302E-03     102.070E-03    -18.1777E+06     123.254E+06     89.0617E+06     2.47810E+06    -109.576E-03     218.189E-03    -108.612E-03     185.766E-03    -117.536E-03     226.263E-03    -108.320E-03     177.268E-03
             822     14.5378E-03     102.253E-03    -11.1719E+06     131.857E+06     99.6861E+06     367.492E+03    -107.423E-03     216.023E-03    -108.600E-03     160.212E-03    -114.998E-03     223.737E-03    -108.277E-03     152.772E-03
             823     15.3453E-03     102.418E-03    -4.83964E+06     133.596E+06     98.2847E+06    -362.295E+03    -106.913E-03     215.472E-03    -108.559E-03     96.6916E-03    -111.691E-03     220.422E-03    -108.255E-03     91.3364E-03
             824     807.174E-06     101.161E-03    -93.4048E+06    -241.693E+06    -91.4623E+06     4.98063E+03    -108.933E-03     217.697E-03    -108.764E-03     16.3414E-03    -108.929E-03     216.769E-03    -108.735E-03     16.0252E-03
             825     1.61449E-03     101.186E-03    -90.7837E+06    -236.928E+06    -84.2223E+06    -398.400E+03    -108.960E-03     217.784E-03    -108.825E-03     29.5233E-03    -108.987E-03     216.892E-03    -108.771E-03     28.9273E-03
             826     2.42179E-03     101.227E-03    -86.2377E+06    -228.065E+06    -72.6509E+06    -398.699E+03    -109.192E-03     218.030E-03    -108.838E-03     43.4878E-03    -109.273E-03     217.206E-03    -108.746E-03     42.5815E-03
             827     3.22912E-03     101.283E-03    -80.6712E+06    -216.067E+06    -58.9089E+06    -693.628E+03    -109.488E-03     218.350E-03    -108.862E-03     57.3303E-03    -109.649E-03     217.628E-03    -108.726E-03     56.0794E-03
             828     4.03644E-03     101.354E-03    -75.0812E+06    -203.889E+06    -47.0874E+06    -1.76563E+06    -109.864E-03     218.739E-03    -108.875E-03     70.8742E-03    -110.131E-03     218.153E-03    -108.706E-03     69.2301E-03
             829     4.84386E-03     101.441E-03    -69.8534E+06    -189.514E+06    -37.2097E+06    -2.95992E+06    -110.260E-03     219.135E-03    -108.875E-03     84.0266E-03    -110.669E-03     218.731E-03    -108.685E-03     81.9455E-03
             830     5.65129E-03     101.541E-03    -64.2413E+06    -174.728E+06    -28.4555E+06    -3.04310E+06    -110.674E-03     219.537E-03    -108.863E-03     96.7751E-03    -111.264E-03     219.361E-03    -108.659E-03     94.2226E-03
             831     6.45887E-03     101.656E-03    -58.1153E+06    -155.393E+06    -20.7329E+06    -2.70454E+06    -111.095E-03     219.929E-03    -108.834E-03     109.131E-03    -111.920E-03     220.056E-03    -108.628E-03     106.058E-03
             832     7.26652E-03     101.783E-03    -52.2239E+06    -141.833E+06    -13.6059E+06    -2.81185E+06    -111.534E-03     220.342E-03    -108.808E-03     121.092E-03    -112.652E-03     220.810E-03    -108.595E-03     117.425E-03
             833     8.07398E-03     101.923E-03    -47.0159E+06    -124.222E+06    -8.59656E+06    -2.73515E+06    -111.933E-03     220.700E-03    -108.767E-03     132.626E-03    -113.433E-03     221.617E-03    -108.562E-03     128.297E-03
             834     8.88191E-03     102.075E-03    -42.3604E+06    -99.1787E+06    -4.16970E+06    -2.64306E+06    -112.274E-03     220.990E-03    -108.716E-03     143.379E-03    -114.269E-03     222.494E-03    -108.531E-03     138.317E-03
             835     9.68939E-03     102.240E-03    -38.4681E+06    -73.5759E+06    -1.04428E+06    -1.96668E+06    -112.500E-03     221.163E-03    -108.663E-03     153.494E-03    -115.122E-03     223.391E-03    -108.506E-03     147.631E-03
             836     10.4972E-03     102.412E-03    -34.8879E+06    -31.2517E+06     4.24978E+06    -932.374E+03    -112.409E-03     221.004E-03    -108.595E-03     164.124E-03    -115.881E-03     224.229E-03    -108.478E-03     157.387E-03
             837     11.3054E-03     102.600E-03    -32.2698E+06     32.5708E+06     12.1820E+06     539.373E+03    -112.268E-03     220.767E-03    -108.498E-03     177.916E-03    -116.972E-03     225.436E-03    -108.438E-03     170.202E-03
             838     12.1124E-03     102.801E-03    -29.7141E+06     83.8485E+06     29.3003E+06     1.76224E+06    -112.247E-03     220.704E-03    -108.457E-03     195.122E-03    -118.634E-03     227.198E-03    -108.389E-03     186.371E-03
             839     12.9230E-03     103.026E-03    -23.2868E+06     109.369E+06     62.4402E+06     1.99591E+06    -111.755E-03     220.284E-03    -108.529E-03     203.976E-03    -119.678E-03     228.332E-03    -108.342E-03     194.690E-03
             840     13.7289E-03     103.248E-03    -14.7500E+06     125.664E+06     90.3812E+06     1.79650E+06    -109.724E-03     218.319E-03    -108.595E-03     184.798E-03    -117.671E-03     226.398E-03    -108.304E-03     176.264E-03
             841     14.5380E-03     103.429E-03    -8.76975E+06     133.605E+06     101.281E+06     1.22950E+06    -107.473E-03     216.071E-03    -108.598E-03     159.029E-03    -115.006E-03     223.753E-03    -108.272E-03     151.596E-03
             842     15.3471E-03     103.596E-03    -4.57350E+06     133.583E+06     97.8641E+06     754.402E+03    -106.893E-03     215.448E-03    -108.555E-03     96.4049E-03    -111.634E-03     220.363E-03    -108.253E-03     91.0722E-03
             843     807.250E-06     102.338E-03    -93.3381E+06    -241.325E+06    -91.3298E+06    -116.454E+03    -108.945E-03     217.648E-03    -108.703E-03     16.2995E-03    -108.942E-03     216.722E-03    -108.674E-03     15.9811E-03
             844     1.61448E-03     102.364E-03    -90.4602E+06    -235.881E+06    -83.1252E+06    -445.228E+03    -109.001E-03     217.819E-03    -108.817E-03     29.5909E-03    -109.030E-03     216.930E-03    -108.760E-03     28.9943E-03
             845     2.42172E-03     102.404E-03    -86.2957E+06    -227.315E+06    -72.5246E+06    -1.27108E+06    -109.207E-03     218.049E-03    -108.842E-03     43.5309E-03    -109.290E-03     217.229E-03    -108.750E-03     42.6130E-03
             846     3.22910E-03     102.461E-03    -80.7987E+06    -215.140E+06    -60.0477E+06    -1.57459E+06    -109.500E-03     218.361E-03    -108.862E-03     57.3655E-03    -109.661E-03     217.647E-03    -108.733E-03     56.1029E-03
             847     4.03645E-03     102.532E-03    -74.4534E+06    -201.341E+06    -47.2606E+06    -2.44024E+06    -109.852E-03     218.727E-03    -108.876E-03     70.8800E-03    -110.119E-03     218.152E-03    -108.712E-03     69.2278E-03
             848     4.84386E-03     102.618E-03    -67.9400E+06    -188.100E+06    -36.1675E+06    -3.17705E+06    -110.230E-03     219.107E-03    -108.876E-03     83.9809E-03    -110.633E-03     218.705E-03    -108.686E-03     81.8976E-03
             849     5.65137E-03     102.719E-03    -62.2862E+06    -173.995E+06    -27.7987E+06    -3.54695E+06    -110.640E-03     219.498E-03    -108.858E-03     96.7193E-03    -111.221E-03     219.321E-03    -108.654E-03     94.1617E-03
             850     6.45892E-03     102.833E-03    -57.0520E+06    -154.211E+06    -21.3672E+06    -4.34959E+06    -111.067E-03     219.886E-03    -108.819E-03     109.104E-03    -111.886E-03     220.017E-03    -108.620E-03     106.012E-03
             851     7.26643E-03     102.960E-03    -51.7767E+06    -142.000E+06    -14.9966E+06    -4.48844E+06    -111.494E-03     220.284E-03    -108.790E-03     121.037E-03    -112.607E-03     220.752E-03    -108.584E-03     117.349E-03
             852     8.07444E-03     103.100E-03    -46.7211E+06    -124.277E+06    -9.87875E+06    -4.23979E+06    -111.947E-03     220.696E-03    -108.748E-03     132.659E-03    -113.442E-03     221.612E-03    -108.550E-03     128.314E-03
             853     8.88166E-03     103.253E-03    -42.3485E+06    -99.5432E+06    -5.45976E+06    -3.84456E+06    -112.314E-03     221.015E-03    -108.701E-03     143.451E-03    -114.307E-03     222.520E-03    -108.522E-03     138.371E-03
             854     9.68977E-03     103.416E-03    -38.3770E+06    -75.2235E+06    -2.44319E+06    -2.98555E+06    -112.437E-03     221.086E-03    -108.649E-03     153.489E-03    -115.054E-03     223.307E-03    -108.497E-03     147.615E-03
             855     10.4971E-03     103.591E-03    -34.9476E+06    -33.1376E+06     2.54872E+06    -1.20954E+06    -112.314E-03     220.888E-03    -108.574E-03     164.152E-03    -115.780E-03     224.105E-03    -108.463E-03     157.422E-03
             856     11.3050E-03     103.775E-03    -31.2604E+06     29.6048E+06     10.7371E+06     880.826E+03    -112.173E-03     220.646E-03    -108.473E-03     177.925E-03    -116.863E-03     225.299E-03    -108.416E-03     170.225E-03
             857     12.1147E-03     103.980E-03    -26.9642E+06     83.2490E+06     29.4578E+06     2.13397E+06    -112.359E-03     220.793E-03    -108.434E-03     194.996E-03    -118.726E-03     227.275E-03    -108.369E-03     186.246E-03
             858     12.9200E-03     104.201E-03    -23.3151E+06     110.918E+06     62.1815E+06     880.829E+03    -111.918E-03     220.433E-03    -108.515E-03     204.059E-03    -119.840E-03     228.486E-03    -108.331E-03     194.751E-03
             859     13.7301E-03     104.427E-03    -18.5057E+06     124.579E+06     87.7951E+06    -6.13906E+03    -110.049E-03     218.640E-03    -108.592E-03     185.194E-03    -118.006E-03     226.720E-03    -108.307E-03     176.625E-03
             860     14.5367E-03     104.606E-03    -11.8967E+06     133.324E+06     99.9151E+06     1.34722E+06    -107.735E-03     216.348E-03    -108.613E-03     159.435E-03    -115.282E-03     224.036E-03    -108.289E-03     151.987E-03
             861     15.3431E-03     104.775E-03    -5.62111E+06     134.667E+06     98.3285E+06     1.04765E+06    -106.201E-03     214.763E-03    -108.562E-03     97.1029E-03    -110.957E-03     219.693E-03    -108.258E-03     91.7998E-03
             862     807.345E-06     103.516E-03    -94.4143E+06    -239.919E+06    -92.6297E+06    -1.00272E+06    -108.873E-03     217.612E-03    -108.739E-03     16.3632E-03    -108.875E-03     216.697E-03    -108.717E-03     16.0349E-03
             863     1.61452E-03     103.541E-03    -90.5809E+06    -234.690E+06    -83.7484E+06    -1.34600E+06    -109.023E-03     217.832E-03    -108.808E-03     29.5135E-03    -109.053E-03     216.950E-03    -108.755E-03     28.9041E-03
             864     2.42184E-03     103.582E-03    -85.6167E+06    -225.914E+06    -71.7338E+06    -1.50305E+06    -109.228E-03     218.076E-03    -108.849E-03     43.4880E-03    -109.310E-03     217.261E-03    -108.756E-03     42.5668E-03
             865     3.22903E-03     103.638E-03    -80.4135E+06    -213.209E+06    -59.8151E+06    -2.53322E+06    -109.498E-03     218.365E-03    -108.867E-03     57.3338E-03    -109.661E-03     217.659E-03    -108.740E-03     56.0586E-03
             866     4.03643E-03     103.710E-03    -74.8364E+06    -198.984E+06    -48.4896E+06    -3.66640E+06    -109.811E-03     218.681E-03    -108.869E-03     70.8751E-03    -110.082E-03     218.120E-03    -108.715E-03     69.2078E-03
             867     4.84383E-03     103.796E-03    -69.1567E+06    -186.707E+06    -38.1226E+06    -4.50068E+06    -110.194E-03     219.057E-03    -108.863E-03     83.9792E-03    -110.601E-03     218.666E-03    -108.682E-03     81.8802E-03
             868     5.65136E-03     103.896E-03    -62.8496E+06    -172.254E+06    -29.2717E+06    -5.09088E+06    -110.618E-03     219.460E-03    -108.842E-03     96.7274E-03    -111.202E-03     219.295E-03    -108.648E-03     94.1510E-03
             869     6.45892E-03     104.010E-03    -57.0728E+06    -152.814E+06    -22.6488E+06    -5.48470E+06    -111.039E-03     219.841E-03    -108.802E-03     109.076E-03    -111.858E-03     219.981E-03    -108.611E-03     105.970E-03
             870     7.26676E-03     104.138E-03    -52.1894E+06    -141.422E+06    -16.6700E+06    -6.05043E+06    -111.495E-03     220.267E-03    -108.772E-03     120.996E-03    -112.608E-03     220.741E-03    -108.575E-03     117.288E-03
             871     8.07402E-03     104.278E-03    -47.5146E+06    -124.248E+06    -11.8015E+06    -6.02400E+06    -111.891E-03     220.621E-03    -108.730E-03     132.686E-03    -113.386E-03     221.540E-03    -108.540E-03     128.322E-03
             872     8.88228E-03     104.430E-03    -42.7668E+06    -100.621E+06    -7.26803E+06    -5.50078E+06    -112.241E-03     220.919E-03    -108.678E-03     143.735E-03    -114.231E-03     222.420E-03    -108.506E-03     138.645E-03
             873     9.68922E-03     104.594E-03    -38.5014E+06    -76.8502E+06    -4.13896E+06    -4.32066E+06    -112.353E-03     220.973E-03    -108.620E-03     153.651E-03    -114.966E-03     223.188E-03    -108.473E-03     147.768E-03
             874     10.4980E-03     104.767E-03    -34.2581E+06    -36.1765E+06     885.125E+03    -2.22916E+06    -112.252E-03     220.792E-03    -108.541E-03     164.207E-03    -115.703E-03     223.991E-03    -108.434E-03     157.476E-03
             875     11.3060E-03     104.954E-03    -30.7070E+06      25.821E+06     9.37616E+06     34.0433E+03    -112.354E-03     220.801E-03    -108.447E-03     177.947E-03    -117.036E-03     225.438E-03    -108.393E-03     170.225E-03
             876     12.1125E-03     105.155E-03    -27.6547E+06     81.9523E+06     27.3263E+06     1.63078E+06    -112.427E-03     220.839E-03    -108.412E-03     195.209E-03    -118.798E-03     227.323E-03    -108.354E-03     186.445E-03
             877     12.9231E-03     105.382E-03    -23.3129E+06     112.698E+06     61.6380E+06     2.84145E+06    -111.979E-03     220.476E-03    -108.498E-03     204.383E-03    -119.903E-03     228.539E-03    -108.319E-03     195.099E-03
             878     13.7293E-03     105.602E-03    -19.7654E+06     126.422E+06     88.0385E+06     1.90358E+06    -109.982E-03     218.561E-03    -108.579E-03     185.628E-03    -117.964E-03     226.666E-03    -108.294E-03     177.078E-03
             879     14.5375E-03     105.788E-03    -14.2426E+06     133.677E+06     98.5960E+06    -1.20884E+06    -107.354E-03     215.938E-03    -108.584E-03     159.808E-03    -114.943E-03     223.665E-03    -108.264E-03     152.333E-03
             880     15.3481E-03     105.948E-03    -6.47093E+06     134.188E+06     97.4327E+06    -1.06714E+06    -106.276E-03     214.804E-03    -108.529E-03     97.3910E-03    -111.059E-03     219.758E-03    -108.227E-03     92.0449E-03
             881     807.186E-06     104.694E-03    -94.6357E+06    -236.670E+06    -92.2964E+06    -1.33447E+06    -108.817E-03     217.689E-03    -108.873E-03     16.3543E-03    -108.825E-03     216.790E-03    -108.854E-03     16.0212E-03
             882     1.61445E-03     104.719E-03    -91.8303E+06    -232.618E+06    -84.4743E+06    -2.36734E+06    -109.000E-03     217.835E-03    -108.835E-03     29.5242E-03    -109.038E-03     216.966E-03    -108.787E-03     28.9012E-03
             883     2.42162E-03     104.760E-03    -87.2355E+06    -224.590E+06    -74.1521E+06    -2.95377E+06    -109.215E-03     218.068E-03    -108.853E-03     43.4720E-03    -109.304E-03     217.265E-03    -108.772E-03     42.5315E-03
             884     3.22905E-03     104.816E-03    -81.5347E+06    -210.750E+06    -62.0130E+06    -3.41421E+06    -109.449E-03     218.310E-03    -108.861E-03     57.3250E-03    -109.618E-03     217.621E-03    -108.747E-03     56.0391E-03
             885     4.03640E-03     104.887E-03    -75.8052E+06    -196.154E+06    -50.6119E+06    -4.49489E+06    -109.769E-03     218.622E-03    -108.853E-03     70.8603E-03    -110.045E-03     218.080E-03    -108.712E-03     69.1836E-03
             886     4.84399E-03     104.973E-03    -69.8642E+06    -183.567E+06    -40.0459E+06    -5.86744E+06    -110.161E-03     219.003E-03    -108.842E-03     83.9600E-03    -110.574E-03     218.632E-03    -108.675E-03     81.8453E-03
             887     5.65144E-03     105.074E-03    -64.0160E+06    -170.397E+06    -30.9215E+06    -7.29794E+06    -110.578E-03     219.401E-03    -108.822E-03     96.7052E-03    -111.168E-03     219.248E-03    -108.637E-03     94.1012E-03
             888     6.45909E-03     105.188E-03    -57.8342E+06    -152.064E+06    -24.1203E+06    -7.73872E+06    -111.017E-03     219.800E-03    -108.782E-03     109.118E-03    -111.839E-03     219.946E-03    -108.599E-03     105.984E-03
             889     7.26649E-03     105.315E-03    -52.1909E+06    -140.084E+06    -17.8638E+06    -7.47723E+06    -111.454E-03     220.203E-03    -108.750E-03     121.085E-03    -112.566E-03     220.685E-03    -108.560E-03     117.364E-03
             890     8.07459E-03     105.455E-03    -47.3221E+06    -123.480E+06    -12.9579E+06    -7.81255E+06    -111.809E-03     220.511E-03    -108.702E-03     132.814E-03    -113.302E-03     221.436E-03    -108.519E-03     128.433E-03
             891     8.88195E-03     105.608E-03    -42.8201E+06    -101.561E+06    -8.73517E+06    -7.43208E+06    -112.055E-03     220.695E-03    -108.640E-03     143.961E-03    -114.037E-03     222.190E-03    -108.474E-03     138.864E-03
             892     9.69077E-03     105.771E-03    -38.4268E+06    -78.5234E+06    -5.83870E+06    -6.23319E+06    -112.260E-03     220.830E-03    -108.570E-03     153.816E-03    -114.861E-03     223.033E-03    -108.430E-03     147.928E-03
             893     10.4977E-03     105.944E-03    -34.6398E+06    -40.2306E+06    -1.40729E+06    -4.13575E+06    -112.344E-03     220.838E-03    -108.494E-03     164.339E-03    -115.792E-03     224.024E-03    -108.392E-03     157.576E-03
             894     11.3058E-03     106.130E-03    -31.3644E+06     20.9315E+06     6.68663E+06    -509.251E+03    -112.439E-03     220.845E-03    -108.406E-03     178.493E-03    -117.112E-03     225.462E-03    -108.358E-03     170.771E-03
             895     12.1148E-03     106.335E-03    -27.8636E+06     80.6460E+06     25.6899E+06     2.26819E+06    -112.642E-03     221.022E-03    -108.380E-03     195.412E-03    -119.021E-03     227.514E-03    -108.328E-03     186.637E-03
             896     12.9210E-03     106.556E-03    -23.7517E+06     111.563E+06     58.7069E+06     2.81048E+06    -111.923E-03     220.389E-03    -108.465E-03     204.624E-03    -119.851E-03     228.458E-03    -108.299E-03     195.335E-03
             897     13.7297E-03     106.784E-03    -15.8701E+06     128.842E+06     88.4217E+06     2.29488E+06    -109.440E-03     217.973E-03    -108.533E-03     186.101E-03    -117.396E-03     226.074E-03    -108.254E-03     177.617E-03
             898     14.5389E-03     106.959E-03    -8.55790E+06     138.843E+06     102.550E+06     59.7536E+03    -107.255E-03     215.784E-03    -108.529E-03     160.303E-03    -114.821E-03     223.515E-03    -108.205E-03     152.871E-03
             899     15.3446E-03     107.130E-03    -4.40222E+06     133.530E+06     98.2785E+06     -975.17E+03    -106.418E-03     214.890E-03    -108.472E-03     97.5497E-03    -111.176E-03     219.821E-03    -108.168E-03     92.2031E-03
             900     807.100E-06     105.871E-03    -95.2700E+06    -233.736E+06    -92.9238E+06    -913.774E+03    -108.886E-03     217.733E-03    -108.847E-03     16.3130E-03    -108.901E-03     216.850E-03    -108.835E-03     15.9829E-03
             901     1.61445E-03     105.897E-03    -92.4881E+06    -228.866E+06    -85.1398E+06    -2.21026E+06    -108.965E-03     217.809E-03    -108.844E-03     29.6401E-03    -109.011E-03     216.961E-03    -108.803E-03     29.0197E-03
             902     2.42174E-03     105.937E-03    -88.5543E+06    -221.616E+06    -75.0829E+06    -3.94199E+06    -109.170E-03     218.015E-03    -108.845E-03     43.5271E-03    -109.268E-03     217.230E-03    -108.771E-03     42.5745E-03
             903     3.22900E-03     105.993E-03    -83.4438E+06    -208.397E+06    -64.0624E+06    -5.12751E+06    -109.414E-03     218.255E-03    -108.841E-03     57.3601E-03    -109.592E-03     217.583E-03    -108.738E-03     56.0530E-03
             904     4.03654E-03     106.065E-03    -76.8911E+06    -192.188E+06    -52.0617E+06    -6.43328E+06    -109.731E-03     218.560E-03    -108.829E-03     70.8935E-03    -110.016E-03     218.041E-03    -108.699E-03     69.1944E-03
             905     4.84385E-03     106.151E-03    -70.0188E+06    -180.344E+06    -41.0117E+06    -7.98012E+06    -110.113E-03     218.929E-03    -108.816E-03     84.0245E-03    -110.529E-03     218.575E-03    -108.658E-03     81.8852E-03
             906     5.65152E-03     106.251E-03    -63.7083E+06    -167.351E+06    -31.8996E+06    -9.07046E+06    -110.530E-03     219.321E-03    -108.791E-03     96.7993E-03    -111.121E-03     219.184E-03    -108.616E-03     94.1772E-03
             907     6.45910E-03     106.365E-03    -58.5656E+06    -150.460E+06    -25.3519E+06    -9.69506E+06    -110.944E-03     219.692E-03    -108.748E-03     109.251E-03    -111.768E-03     219.848E-03    -108.572E-03     106.100E-03
             908     7.26706E-03     106.492E-03    -53.1559E+06    -138.845E+06    -19.3864E+06    -10.1325E+06    -111.354E-03     220.061E-03    -108.707E-03     121.259E-03    -112.468E-03     220.550E-03    -108.526E-03     117.513E-03
             909     8.07453E-03     106.632E-03    -47.5891E+06    -122.283E+06    -14.1854E+06    -10.1030E+06    -111.705E-03     220.358E-03    -108.653E-03     132.948E-03    -113.198E-03     221.289E-03    -108.478E-03     128.545E-03
             910     8.88295E-03     106.785E-03    -42.7197E+06    -102.195E+06    -9.78746E+06    -9.60830E+06    -111.922E-03     220.508E-03    -108.586E-03     144.072E-03    -113.898E-03     221.997E-03    -108.424E-03     138.960E-03
             911     9.69023E-03     106.948E-03    -38.4833E+06    -80.3685E+06    -7.29835E+06    -8.30572E+06    -112.119E-03     220.625E-03    -108.506E-03     154.266E-03    -114.708E-03     222.814E-03    -108.370E-03     148.376E-03
             912     10.4991E-03     107.122E-03    -34.6394E+06    -44.5078E+06    -3.39559E+06    -5.97657E+06    -112.313E-03     220.737E-03    -108.424E-03     164.880E-03    -115.753E-03     223.906E-03    -108.326E-03     158.105E-03
             913     11.3068E-03     107.307E-03    -30.8763E+06     14.0679E+06     4.41862E+06    -1.50334E+06    -112.554E-03     220.895E-03    -108.340E-03     179.090E-03    -117.214E-03     225.482E-03    -108.294E-03     171.358E-03
             914     12.1141E-03     107.511E-03    -27.7726E+06     76.3922E+06     21.6334E+06     2.79391E+06    -112.654E-03     220.958E-03    -108.304E-03     196.415E-03    -119.023E-03     227.437E-03    -108.266E-03     187.667E-03
             915     12.9224E-03     107.736E-03    -23.1664E+06     114.149E+06     56.7625E+06     2.47787E+06    -111.588E-03     219.964E-03    -108.375E-03     205.567E-03    -119.512E-03     228.046E-03    -108.223E-03     196.332E-03
             916     13.7319E-03     107.956E-03    -17.6229E+06     130.795E+06     87.5826E+06    -259.373E+03    -109.291E-03     217.726E-03    -108.436E-03     187.302E-03    -117.254E-03     225.837E-03    -108.162E-03     178.828E-03
             917     14.5395E-03     108.141E-03    -10.7658E+06     139.712E+06     101.973E+06    -575.676E+03    -107.327E-03     215.759E-03    -108.432E-03     161.524E-03    -114.904E-03     223.498E-03    -108.109E-03     154.097E-03
             918     15.3499E-03     108.304E-03    -3.82198E+06     133.772E+06     99.7666E+06     290.776E+03    -106.366E-03     214.750E-03    -108.384E-03     97.8721E-03    -111.119E-03     219.675E-03    -108.073E-03     92.5549E-03
             919     807.297E-06     107.049E-03    -96.7700E+06    -231.569E+06    -94.9218E+06    -716.979E+03    -108.944E-03     217.694E-03    -108.750E-03     16.1735E-03    -108.967E-03     216.827E-03    -108.748E-03     15.8461E-03
             920     1.61439E-03     107.074E-03    -93.5466E+06    -223.950E+06    -86.1456E+06    -2.63457E+06    -108.932E-03     217.754E-03    -108.821E-03     29.5680E-03    -108.989E-03     216.933E-03    -108.792E-03     28.9432E-03
             921     2.42178E-03     107.115E-03    -88.4478E+06    -217.441E+06    -73.7339E+06    -4.54875E+06    -109.093E-03     217.917E-03    -108.824E-03     43.5080E-03    -109.199E-03     217.151E-03    -108.749E-03     42.5490E-03
             922     3.22918E-03     107.171E-03    -82.5364E+06    -204.142E+06    -62.5708E+06    -6.38864E+06    -109.358E-03     218.167E-03    -108.809E-03     57.4041E-03    -109.540E-03     217.512E-03    -108.706E-03     56.0832E-03
             923     4.03650E-03     107.242E-03    -77.1173E+06    -187.908E+06    -53.1298E+06    -8.24226E+06    -109.645E-03     218.424E-03    -108.778E-03     71.0325E-03    -109.935E-03     217.927E-03    -108.660E-03     69.3150E-03
             924     4.84426E-03     107.328E-03    -71.9242E+06    -176.371E+06    -43.1542E+06    -9.84896E+06    -110.023E-03     218.778E-03    -108.755E-03     84.2435E-03    -110.451E-03     218.449E-03    -108.610E-03     82.0866E-03
             925     5.65179E-03     107.428E-03    -66.2620E+06    -163.671E+06    -33.8582E+06    -11.3838E+06    -110.449E-03     219.176E-03    -108.727E-03     97.0415E-03    -111.054E-03     219.063E-03    -108.563E-03     94.3978E-03
             926     6.45954E-03     107.542E-03    -59.5917E+06    -147.842E+06    -26.5336E+06    -12.4167E+06    -110.829E-03     219.510E-03    -108.681E-03     109.474E-03    -111.659E-03     219.681E-03    -108.513E-03     106.297E-03
             927     7.26722E-03     107.669E-03    -53.4607E+06    -136.910E+06    -20.4824E+06    -12.9668E+06    -111.217E-03     219.849E-03    -108.632E-03     121.578E-03    -112.332E-03     220.348E-03    -108.458E-03     117.809E-03
             928     8.07540E-03     107.810E-03    -48.1306E+06    -121.488E+06    -15.7083E+06    -13.0312E+06    -111.564E-03     220.132E-03    -108.568E-03     133.318E-03    -113.056E-03     221.067E-03    -108.401E-03     128.895E-03
             929     8.88304E-03     107.961E-03    -43.0761E+06    -102.532E+06    -10.8245E+06    -12.1697E+06    -111.748E-03     220.242E-03    -108.494E-03     144.489E-03    -113.720E-03     221.728E-03    -108.337E-03     139.364E-03
             930     9.69203E-03     108.125E-03    -38.4175E+06    -82.2630E+06    -8.40689E+06    -10.7223E+06    -111.919E-03     220.321E-03    -108.403E-03     155.129E-03    -114.500E-03     222.499E-03    -108.270E-03     149.237E-03
             931     10.4995E-03     108.298E-03    -34.1275E+06    -48.5224E+06    -4.91751E+06    -8.30433E+06    -112.193E-03     220.501E-03    -108.308E-03     165.954E-03    -115.617E-03     223.646E-03    -108.213E-03     159.183E-03
             932     11.3079E-03     108.485E-03    -30.5141E+06     3.85569E+06     1.36924E+06    -2.89347E+06    -112.364E-03     220.577E-03    -108.213E-03     180.435E-03    -117.007E-03     225.121E-03    -108.168E-03     172.720E-03
             933     12.1159E-03     108.689E-03    -26.4432E+06     71.4602E+06     17.9482E+06     2.18911E+06    -112.259E-03     220.399E-03    -108.140E-03     198.231E-03    -118.598E-03     226.846E-03    -108.116E-03     189.552E-03
             934     12.9253E-03     108.911E-03    -22.1594E+06     118.282E+06     53.7045E+06     2.63069E+06    -111.605E-03     219.793E-03    -108.188E-03     206.508E-03    -119.524E-03     227.897E-03    -108.059E-03     197.308E-03
             935     13.7329E-03     109.135E-03    -17.6099E+06     134.010E+06     86.2187E+06     999.739E+03    -109.637E-03     217.911E-03    -108.275E-03     188.031E-03    -117.633E-03     226.071E-03    -108.012E-03     179.540E-03
             936     14.5422E-03     109.316E-03    -13.2995E+06     140.004E+06     100.808E+06    -899.355E+03    -107.336E-03     215.632E-03    -108.296E-03     162.164E-03    -114.933E-03     223.387E-03    -107.976E-03     154.729E-03
             937     15.3487E-03     109.483E-03    -7.29131E+06     132.418E+06     97.2100E+06    -1.28286E+06    -106.125E-03     214.370E-03    -108.245E-03     97.9249E-03    -110.891E-03     219.298E-03    -107.941E-03     92.5810E-03
             938     807.095E-06     108.227E-03    -97.2919E+06    -227.880E+06    -95.7897E+06    -1.63823E+06    -108.900E-03     217.593E-03    -108.692E-03     16.1706E-03    -108.930E-03     216.746E-03    -108.700E-03     15.8324E-03
             939     1.61449E-03     108.252E-03    -94.1657E+06    -219.205E+06    -86.9149E+06    -3.25450E+06    -108.842E-03     217.603E-03    -108.761E-03     29.6119E-03    -108.908E-03     216.809E-03    -108.741E-03     28.9803E-03
             940     2.42182E-03     108.293E-03    -89.5779E+06    -211.306E+06    -75.1349E+06    -5.80107E+06    -109.006E-03     217.755E-03    -108.749E-03     43.6554E-03    -109.124E-03     217.023E-03    -108.688E-03     42.6838E-03
             941     3.22931E-03     108.349E-03    -83.5594E+06    -198.962E+06    -63.6183E+06    -8.32379E+06    -109.221E-03     217.947E-03    -108.726E-03     57.5394E-03    -109.414E-03     217.321E-03    -108.634E-03     56.1989E-03
             942     4.03702E-03     108.420E-03    -76.7739E+06    -183.142E+06    -52.5963E+06    -9.75679E+06    -109.523E-03     218.213E-03    -108.691E-03     71.1702E-03    -109.818E-03     217.739E-03    -108.577E-03     69.4390E-03
             943     4.84456E-03     108.505E-03    -70.3634E+06    -171.730E+06    -42.2021E+06    -11.0373E+06    -109.897E-03     218.557E-03    -108.660E-03     84.4356E-03    -110.324E-03     218.247E-03    -108.520E-03     82.2730E-03
             944     5.65232E-03     108.606E-03    -64.5838E+06    -158.599E+06    -33.0851E+06    -12.8843E+06    -110.261E-03     218.880E-03    -108.619E-03     97.3349E-03    -110.864E-03     218.787E-03    -108.461E-03     94.6855E-03
             945     6.46015E-03     108.719E-03    -59.6527E+06    -144.208E+06    -26.6932E+06    -14.9074E+06    -110.612E-03     219.170E-03    -108.558E-03     109.936E-03    -111.445E-03     219.357E-03    -108.396E-03     106.745E-03
             946     7.26826E-03     108.847E-03    -54.5509E+06    -134.418E+06    -21.3094E+06    -15.7535E+06    -110.962E-03     219.454E-03    -108.492E-03     122.271E-03    -112.082E-03     219.965E-03    -108.324E-03     118.492E-03
             947     8.07623E-03     108.986E-03    -49.0167E+06    -119.852E+06    -17.0222E+06    -16.2048E+06    -111.276E-03     219.683E-03    -108.407E-03     134.243E-03    -112.768E-03     220.625E-03    -108.247E-03     129.813E-03
             948     8.88488E-03     109.138E-03    -43.5462E+06    -103.582E+06    -12.6429E+06    -15.5152E+06    -111.545E-03     219.863E-03    -108.318E-03     145.511E-03    -113.513E-03     221.345E-03    -108.168E-03     140.374E-03
             949     9.69285E-03     109.300E-03    -38.5931E+06    -83.7233E+06    -9.78314E+06    -13.6292E+06    -111.737E-03     219.956E-03    -108.219E-03     156.279E-03    -114.313E-03     222.126E-03    -108.090E-03     150.381E-03
             950     10.5021E-03     109.476E-03    -34.2822E+06    -52.7758E+06    -6.98565E+06    -11.1708E+06    -111.810E-03     219.916E-03    -108.107E-03     167.606E-03    -115.218E-03     223.035E-03    -108.015E-03     160.861E-03
             951     11.3101E-03     109.661E-03    -29.0800E+06    -6.31614E+06    -1.27863E+06    -6.50217E+06    -111.872E-03     219.857E-03    -107.985E-03     181.976E-03    -116.485E-03     224.349E-03    -107.940E-03     174.282E-03
             952     12.1201E-03     109.865E-03    -23.5552E+06     63.9916E+06     12.9825E+06     108.999E+03    -112.056E-03     219.930E-03    -107.873E-03     199.522E-03    -118.351E-03     226.330E-03    -107.867E-03     190.876E-03
             953     12.9276E-03     110.090E-03    -18.7958E+06     119.321E+06     49.2159E+06     3.57290E+06    -111.870E-03     219.784E-03    -107.914E-03     208.394E-03    -119.780E-03     227.908E-03    -107.814E-03     199.221E-03
             954     13.7365E-03     110.312E-03    -14.0143E+06     136.107E+06     84.2647E+06     3.52155E+06    -110.054E-03     218.087E-03    -108.034E-03     189.486E-03    -118.068E-03     226.291E-03    -107.790E-03     180.997E-03
             955     14.5438E-03     110.495E-03    -8.51613E+06     143.798E+06     101.859E+06     2.13447E+06    -107.435E-03     215.520E-03    -108.085E-03     163.724E-03    -115.051E-03     223.321E-03    -107.772E-03     156.333E-03
             956     15.3538E-03     110.660E-03    -3.90135E+06     133.423E+06     98.3077E+06    -847.560E+03    -106.367E-03     214.421E-03    -108.055E-03     99.1397E-03    -111.150E-03     219.380E-03    -107.751E-03     93.7837E-03
             957     807.329E-06     109.405E-03    -95.8451E+06    -221.607E+06    -95.4980E+06    -3.59382E+06    -108.739E-03     217.299E-03    -108.561E-03     16.1609E-03    -108.770E-03     216.481E-03    -108.578E-03     15.7986E-03
             958     1.61473E-03     109.429E-03    -92.7194E+06    -214.200E+06    -88.5576E+06    -4.96077E+06    -108.711E-03     217.315E-03    -108.604E-03     29.7076E-03    -108.774E-03     216.546E-03    -108.602E-03     29.0580E-03
             959     2.42226E-03     109.470E-03    -88.1565E+06    -204.190E+06    -76.1898E+06    -6.72068E+06    -108.856E-03     217.446E-03    -108.590E-03     43.8365E-03    -108.975E-03     216.749E-03    -108.547E-03     42.8590E-03
             960     3.22976E-03     109.526E-03    -82.6744E+06    -191.331E+06    -62.2626E+06    -10.1666E+06    -109.075E-03     217.652E-03    -108.577E-03     57.7776E-03    -109.276E-03     217.061E-03    -108.491E-03     56.4200E-03
             961     4.03743E-03     109.597E-03    -76.1778E+06    -178.914E+06    -51.3454E+06    -12.5205E+06    -109.350E-03     217.893E-03    -108.543E-03     71.5059E-03    -109.649E-03     217.436E-03    -108.430E-03     69.7495E-03
             962     4.84522E-03     109.683E-03    -69.4224E+06    -167.079E+06    -42.3200E+06    -13.4598E+06    -109.627E-03     218.117E-03    -108.490E-03     84.8772E-03    -110.053E-03     217.827E-03    -108.359E-03     82.7005E-03
             963     5.65328E-03     109.782E-03    -63.1081E+06    -153.179E+06    -33.1337E+06    -14.7481E+06    -109.902E-03     218.324E-03    -108.422E-03     97.9681E-03    -110.503E-03     218.253E-03    -108.274E-03     95.3211E-03
             964     6.46150E-03     109.896E-03    -57.5846E+06    -140.208E+06    -25.4465E+06    -15.4782E+06    -110.216E-03     218.555E-03    -108.339E-03     110.722E-03    -111.042E-03     218.753E-03    -108.179E-03     107.557E-03
             965     7.26986E-03     110.022E-03    -53.2058E+06    -129.842E+06    -20.4936E+06    -17.0808E+06    -110.531E-03     218.772E-03    -108.241E-03     123.249E-03    -111.646E-03     219.297E-03    -108.078E-03     119.496E-03
             966     8.07864E-03     110.162E-03    -49.0542E+06    -116.619E+06    -17.5614E+06    -18.7430E+06    -110.839E-03     218.965E-03    -108.126E-03     135.450E-03    -112.327E-03     219.916E-03    -107.974E-03     131.039E-03
             967     8.88726E-03     110.313E-03    -44.9612E+06    -103.923E+06    -14.7269E+06    -18.5447E+06    -111.217E-03     219.233E-03    -108.016E-03     147.061E-03    -113.182E-03     220.713E-03    -107.874E-03     141.935E-03
             968     9.69623E-03     110.478E-03    -40.6148E+06    -85.5672E+06    -12.3228E+06    -17.2215E+06    -111.439E-03     219.343E-03    -107.904E-03     158.083E-03    -114.016E-03     221.508E-03    -107.783E-03     152.192E-03
             969     10.5045E-03     110.650E-03    -35.7914E+06    -55.6488E+06    -8.99513E+06    -15.1577E+06    -111.408E-03     219.188E-03    -107.779E-03     169.385E-03    -114.810E-03     222.291E-03    -107.691E-03     162.657E-03
             970     11.3149E-03     110.838E-03    -31.0381E+06    -13.9188E+06    -3.62924E+06    -11.5324E+06    -111.715E-03     219.368E-03    -107.653E-03     183.683E-03    -116.316E-03     223.820E-03    -107.606E-03     175.985E-03
             971     12.1224E-03     111.041E-03    -25.9693E+06     53.4608E+06     4.10212E+06    -5.45280E+06    -112.104E-03     219.624E-03    -107.520E-03     201.052E-03    -118.386E-03     225.992E-03    -107.539E-03     192.368E-03
             972     12.9331E-03     111.266E-03    -20.3104E+06     112.554E+06     36.3350E+06     1.39548E+06    -111.761E-03     219.299E-03    -107.539E-03     210.392E-03    -119.650E-03     227.411E-03    -107.491E-03     201.236E-03
             973     13.7405E-03     111.491E-03    -14.1516E+06     137.207E+06     78.8616E+06     3.50332E+06    -110.014E-03     217.697E-03    -107.683E-03     191.326E-03    -118.018E-03     225.909E-03    -107.467E-03     182.885E-03
             974     14.5492E-03     111.671E-03    -7.99534E+06     146.451E+06     101.242E+06     1.98665E+06    -107.815E-03     215.588E-03    -107.773E-03     164.827E-03    -115.453E-03     223.425E-03    -107.468E-03     157.398E-03
             975     15.3573E-03     111.836E-03    -3.37628E+06     133.667E+06     99.1693E+06     1.23923E+06    -107.096E-03     214.892E-03    -107.796E-03     100.374E-03    -111.907E-03     219.878E-03    -107.489E-03     94.9691E-03
             976     807.543E-06     110.582E-03    -89.6835E+06    -212.109E+06    -88.3535E+06    -4.20896E+06    -108.412E-03     216.799E-03    -108.387E-03     16.2205E-03    -108.437E-03     216.009E-03    -108.391E-03     15.8530E-03
             977     1.61504E-03     110.607E-03    -87.8179E+06    -207.634E+06    -82.8996E+06    -6.57095E+06    -108.530E-03     216.899E-03    -108.369E-03     29.8316E-03    -108.586E-03     216.147E-03    -108.355E-03     29.1650E-03
             978     2.42269E-03     110.647E-03    -83.4414E+06    -197.128E+06    -73.5973E+06     -8.8774E+06    -108.616E-03     216.967E-03    -108.351E-03     44.0317E-03    -108.726E-03     216.294E-03    -108.312E-03     43.0340E-03
             979     3.23060E-03     110.703E-03    -78.0567E+06    -182.652E+06    -61.2083E+06    -11.0567E+06    -108.787E-03     217.104E-03    -108.317E-03     58.1465E-03    -108.978E-03     216.546E-03    -108.245E-03     56.7928E-03
             980     4.03838E-03     110.773E-03    -73.4323E+06    -173.115E+06    -49.7839E+06    -13.4280E+06    -108.985E-03     217.257E-03    -108.272E-03     72.0547E-03    -109.280E-03     216.821E-03    -108.163E-03     70.3077E-03
             981     4.84665E-03     110.859E-03    -68.4286E+06    -161.472E+06    -41.8070E+06    -15.6534E+06    -109.169E-03     217.356E-03    -108.187E-03     85.6295E-03    -109.597E-03     217.090E-03    -108.063E-03     83.4527E-03
             982     5.65500E-03     110.958E-03    -62.5000E+06    -147.853E+06    -33.7092E+06    -17.4242E+06    -109.384E-03     217.466E-03    -108.081E-03     98.8877E-03    -109.984E-03     217.417E-03    -107.945E-03     96.2438E-03
             983     6.46380E-03     111.071E-03    -56.2689E+06    -138.144E+06    -26.1616E+06    -17.8485E+06    -109.643E-03     217.609E-03    -107.966E-03     111.860E-03    -110.458E-03     217.810E-03    -107.815E-03     108.714E-03
             984     7.27273E-03     111.198E-03     -50.553E+06    -124.054E+06    -19.6537E+06    -18.0379E+06    -109.936E-03     217.769E-03    -107.834E-03     124.567E-03    -111.038E-03     218.309E-03    -107.679E-03     120.861E-03
             985     8.08187E-03     111.337E-03    -46.5590E+06    -113.098E+06    -16.0286E+06    -19.0952E+06    -110.279E-03     217.974E-03    -107.695E-03     137.052E-03    -111.753E-03     218.928E-03    -107.544E-03     132.704E-03
             986     8.89121E-03     111.489E-03    -43.3069E+06    -101.811E+06    -14.5591E+06    -19.6689E+06    -110.642E-03     218.197E-03    -107.554E-03     149.109E-03    -112.592E-03     219.674E-03    -107.417E-03     144.049E-03
             987     9.70051E-03     111.652E-03    -39.8229E+06    -84.8020E+06    -12.7802E+06    -19.9551E+06    -110.908E-03     218.325E-03    -107.417E-03     160.257E-03    -113.469E-03     220.481E-03    -107.301E-03     154.419E-03
             988     10.5107E-03     111.827E-03    -36.7065E+06    -58.7414E+06    -11.3848E+06    -17.7853E+06    -111.284E-03     218.569E-03    -107.285E-03     171.899E-03    -114.682E-03     221.661E-03    -107.203E-03     165.200E-03
             989     11.3186E-03     112.012E-03    -33.9267E+06    -17.7407E+06    -5.85261E+06    -14.8375E+06    -111.774E-03     218.951E-03    -107.177E-03     186.551E-03    -116.379E-03     223.389E-03    -107.131E-03     178.877E-03
             990     12.1294E-03     112.218E-03    -30.5706E+06     43.7019E+06    -1.07109E+06    -10.3414E+06    -112.258E-03     219.316E-03    -107.057E-03     204.047E-03    -118.556E-03     225.663E-03    -107.082E-03     195.351E-03
             991     12.9362E-03     112.441E-03    -25.8295E+06     102.679E+06     24.6940E+06    -4.33250E+06    -111.809E-03     218.868E-03    -107.059E-03     213.362E-03    -119.709E-03     226.970E-03    -107.047E-03     204.190E-03
             992     13.7470E-03     112.668E-03    -18.5439E+06     134.392E+06     69.7992E+06    -77.7617E+03    -110.019E-03     217.231E-03    -107.212E-03     194.222E-03    -118.012E-03     225.433E-03    -107.031E-03     185.819E-03
             993     14.5549E-03     112.849E-03    -11.5901E+06     147.158E+06     99.0340E+06     2.22964E+06    -108.485E-03     215.844E-03    -107.359E-03     167.260E-03    -116.155E-03     223.708E-03    -107.060E-03     159.818E-03
             994     15.3614E-03     113.015E-03    -5.74339E+06     134.207E+06     98.6532E+06     1.53184E+06    -107.692E-03     215.128E-03    -107.436E-03     102.468E-03    -112.551E-03     220.157E-03    -107.129E-03     96.9945E-03
             995     807.873E-06     111.758E-03    -86.3502E+06    -203.391E+06    -83.6469E+06    -2.79894E+06    -108.027E-03     215.995E-03    -107.968E-03     16.5453E-03    -108.054E-03     215.237E-03    -107.966E-03     16.2034E-03
             996     1.61572E-03     111.783E-03    -84.6633E+06    -199.122E+06    -77.0113E+06    -5.35781E+06    -108.133E-03     216.111E-03    -107.978E-03     30.1279E-03    -108.194E-03     215.388E-03    -107.952E-03     29.4872E-03
             997     2.42360E-03     111.823E-03    -82.4148E+06    -187.561E+06    -71.5769E+06    -9.66023E+06    -108.203E-03     216.145E-03    -107.942E-03     44.5225E-03    -108.323E-03     215.514E-03    -107.908E-03     43.5306E-03
             998     3.23164E-03     111.879E-03    -78.4507E+06    -175.494E+06    -63.5541E+06    -12.8723E+06    -108.248E-03     216.121E-03    -107.873E-03     58.8253E-03    -108.446E-03     215.602E-03    -107.823E-03     57.4719E-03
             999     4.04029E-03     111.949E-03    -72.7947E+06    -166.589E+06    -50.6799E+06    -14.1930E+06    -108.346E-03     216.143E-03    -107.797E-03     72.8697E-03    -108.643E-03     215.737E-03    -107.703E-03     71.1465E-03
            1000     4.84884E-03     112.034E-03    -67.5208E+06    -153.787E+06    -40.1661E+06    -16.4846E+06    -108.493E-03     216.177E-03    -107.684E-03     86.6860E-03    -108.925E-03     215.940E-03    -107.564E-03     84.5421E-03
            1001     5.65801E-03     112.133E-03    -62.9779E+06    -141.973E+06    -34.2318E+06    -19.0924E+06    -108.670E-03     216.205E-03    -107.535E-03     100.218E-03    -109.274E-03     216.181E-03    -107.409E-03     97.6064E-03
            1002     6.46722E-03     112.246E-03    -58.5226E+06    -134.284E+06    -28.4024E+06    -20.6980E+06    -108.869E-03     216.249E-03    -107.380E-03     113.448E-03    -109.689E-03     216.467E-03    -107.243E-03     110.333E-03
            1003     7.27705E-03     112.372E-03    -53.1233E+06    -120.128E+06    -21.7084E+06    -21.5375E+06    -109.110E-03     216.322E-03    -107.212E-03     126.559E-03    -110.216E-03     216.876E-03    -107.069E-03     122.893E-03
            1004     8.08691E-03     112.512E-03    -46.9827E+06    -110.537E+06    -16.5152E+06    -21.4450E+06    -109.483E-03     216.527E-03    -107.044E-03     139.469E-03    -110.949E-03     217.481E-03    -106.898E-03     135.186E-03
            1005     8.89711E-03     112.662E-03    -41.5081E+06    -98.6782E+06    -14.2119E+06    -21.5965E+06    -109.875E-03     216.745E-03    -106.870E-03     151.897E-03    -111.804E-03     218.217E-03    -106.738E-03     146.925E-03
            1006     9.70742E-03     112.827E-03    -37.8269E+06    -83.4489E+06    -12.1597E+06    -20.8422E+06    -110.337E-03     217.050E-03    -106.714E-03     163.427E-03    -112.875E-03     219.193E-03    -106.599E-03     157.694E-03
            1007     10.5170E-03     113.000E-03    -35.4117E+06    -62.1762E+06    -12.0179E+06    -18.3845E+06    -110.912E-03     217.486E-03    -106.573E-03     175.651E-03    -114.285E-03     220.547E-03    -106.492E-03     169.062E-03
            1008     11.3277E-03     113.189E-03    -32.7540E+06    -18.9184E+06    -4.21992E+06    -15.9070E+06    -111.630E-03     218.104E-03    -106.474E-03     191.031E-03    -116.225E-03     222.528E-03    -106.420E-03     183.459E-03
            1009     12.1356E-03     113.392E-03    -28.6391E+06     37.3000E+06     3.56311E+06    -13.2198E+06    -112.405E-03     218.793E-03    -106.388E-03     209.159E-03    -118.717E-03     225.126E-03    -106.383E-03     200.514E-03
            1010     12.9469E-03     113.620E-03    -22.6203E+06     94.2316E+06     28.1518E+06    -7.56334E+06    -112.486E-03     218.905E-03    -106.419E-03     217.967E-03    -120.405E-03     226.997E-03    -106.382E-03     208.790E-03
            1011     13.7544E-03     113.842E-03    -17.6533E+06     129.610E+06     68.2277E+06    -1.89880E+06    -111.078E-03     217.684E-03    -106.607E-03     198.259E-03    -119.100E-03     225.907E-03    -106.428E-03     189.823E-03
            1012     14.5626E-03     114.030E-03    -10.8160E+06     144.022E+06     94.4666E+06     453.714E+03    -109.228E-03     216.028E-03    -106.800E-03     170.491E-03    -116.926E-03     223.924E-03    -106.521E-03     163.007E-03
            1013     15.3711E-03     114.192E-03    -3.53987E+06     135.183E+06     96.9480E+06     1.47635E+06    -109.093E-03     216.051E-03    -106.957E-03     103.876E-03    -113.964E-03     221.108E-03    -106.664E-03     98.3287E-03
            1014     808.291E-06     112.934E-03    -90.0240E+06    -196.311E+06    -88.6794E+06    -2.88120E+06    -107.447E-03     214.705E-03    -107.258E-03     16.7938E-03    -107.496E-03     213.995E-03    -107.286E-03     16.4611E-03
            1015     1.61669E-03     112.958E-03    -85.4622E+06    -189.578E+06    -79.5692E+06    -6.23548E+06    -107.408E-03     214.721E-03    -107.312E-03     30.5629E-03    -107.483E-03     214.050E-03    -107.311E-03     29.9278E-03
            1016     2.42521E-03     112.998E-03    -79.7006E+06    -176.908E+06    -67.6019E+06    -9.89118E+06    -107.435E-03     214.700E-03    -107.265E-03     45.2105E-03    -107.562E-03     214.112E-03    -107.231E-03     44.2407E-03
            1017     3.23404E-03     113.053E-03     -75.476E+06    -167.690E+06    -57.8309E+06    -12.6959E+06    -107.462E-03     214.641E-03    -107.179E-03     59.7451E-03    -107.663E-03     214.146E-03    -107.115E-03     58.4270E-03
            1018     4.04296E-03     113.123E-03    -71.6156E+06    -159.572E+06    -50.0468E+06    -15.4454E+06    -107.477E-03     214.528E-03    -107.050E-03     74.0736E-03    -107.775E-03     214.150E-03    -106.965E-03     72.3810E-03
            1019     4.85269E-03     113.208E-03    -66.0558E+06    -145.829E+06    -40.2591E+06    -17.8384E+06    -107.533E-03     214.425E-03    -106.892E-03     88.1724E-03    -107.963E-03     214.219E-03    -106.786E-03     86.0734E-03
            1020     5.66239E-03     113.307E-03    -60.3603E+06    -135.537E+06    -31.5351E+06    -19.6954E+06    -107.653E-03     214.368E-03    -106.715E-03     102.044E-03    -108.248E-03     214.359E-03    -106.589E-03     99.5013E-03
            1021     6.47280E-03     113.419E-03    -55.3436E+06    -127.776E+06    -26.0879E+06    -21.6207E+06    -107.800E-03     214.313E-03    -106.513E-03     115.727E-03    -108.604E-03     214.543E-03    -106.378E-03     112.695E-03
            1022     7.28327E-03     113.545E-03    -51.4557E+06    -115.932E+06    -21.9735E+06    -23.0732E+06    -108.001E-03     214.293E-03    -106.292E-03     129.410E-03    -109.088E-03     214.849E-03    -106.159E-03     125.838E-03
            1023     8.09454E-03     113.683E-03    -48.3550E+06    -107.271E+06    -17.2329E+06    -23.8814E+06    -108.360E-03     214.442E-03    -106.082E-03     142.970E-03    -109.815E-03     215.394E-03    -105.943E-03     138.796E-03
            1024     8.90549E-03     113.835E-03    -45.3564E+06    -95.3865E+06    -15.0257E+06    -24.4209E+06    -108.854E-03     214.727E-03    -105.873E-03     155.983E-03    -110.781E-03     216.198E-03    -105.744E-03     151.129E-03
            1025     9.71686E-03     113.998E-03    -41.4737E+06    -84.3635E+06    -13.0601E+06    -23.4954E+06    -109.513E-03     215.208E-03    -105.695E-03     168.447E-03    -112.045E-03     217.331E-03    -105.577E-03     162.844E-03
            1026     10.5280E-03     114.174E-03    -36.4877E+06    -64.4800E+06    -12.3720E+06    -21.1855E+06    -110.313E-03     215.853E-03    -105.540E-03     181.218E-03    -113.669E-03     218.886E-03    -105.455E-03     174.762E-03
            1027     11.3383E-03     114.360E-03    -30.9413E+06    -19.4108E+06    -2.90521E+06    -19.1272E+06    -111.359E-03     216.802E-03    -105.442E-03     197.018E-03    -115.938E-03     221.209E-03    -105.384E-03     189.566E-03
            1028     12.1501E-03     114.570E-03    -25.5997E+06     33.1357E+06     10.4148E+06    -16.2247E+06    -112.745E-03     218.159E-03    -105.414E-03     214.999E-03    -119.057E-03     224.468E-03    -105.373E-03     206.423E-03
            1029     12.9578E-03     114.794E-03    -21.4748E+06     83.9939E+06     28.9969E+06    -10.1622E+06    -113.498E-03     218.987E-03    -105.489E-03     223.669E-03    -121.449E-03     227.076E-03    -105.434E-03     214.487E-03
            1030     13.7662E-03     115.024E-03    -15.5823E+06     123.527E+06     61.2375E+06    -3.31490E+06    -112.723E-03     218.449E-03    -105.726E-03     203.924E-03    -120.796E-03     226.728E-03    -105.576E-03     195.430E-03
            1031     14.5727E-03     115.204E-03    -10.1494E+06     142.132E+06     90.1381E+06    -558.481E+03    -111.576E-03     217.635E-03    -106.060E-03     175.017E-03    -119.368E-03     225.635E-03    -105.800E-03     167.366E-03
            1032     15.3777E-03     115.375E-03    -5.68418E+06     134.454E+06     92.1916E+06     1.20989E+06    -111.640E-03     218.012E-03    -106.372E-03     106.977E-03    -116.602E-03     223.164E-03    -106.097E-03     101.226E-03
            1033     809.049E-06     114.107E-03    -82.7325E+06    -186.440E+06    -81.6528E+06    -3.68859E+06    -106.499E-03     212.858E-03    -106.359E-03     17.0956E-03    -106.535E-03     212.176E-03    -106.377E-03     16.7642E-03
            1034     1.61816E-03     114.132E-03    -80.7249E+06    -178.122E+06    -77.1132E+06    -8.88341E+06    -106.351E-03     212.689E-03    -106.338E-03     31.0901E-03    -106.421E-03     212.064E-03    -106.349E-03     30.4418E-03
            1035     2.42765E-03     114.171E-03    -77.2239E+06    -168.215E+06    -67.4041E+06    -11.6775E+06    -106.269E-03     212.501E-03    -106.232E-03     46.0136E-03    -106.394E-03     211.951E-03    -106.213E-03     45.0561E-03
            1036     3.23733E-03     114.226E-03    -71.2528E+06    -159.798E+06    -54.0952E+06    -13.3820E+06    -106.259E-03     212.370E-03    -106.112E-03     60.8845E-03    -106.451E-03     211.900E-03    -106.047E-03     59.6073E-03
            1037     4.04755E-03     114.296E-03    -64.7059E+06    -149.991E+06    -43.9776E+06    -16.2195E+06    -106.248E-03     212.195E-03    -105.947E-03     75.6100E-03    -106.529E-03     211.840E-03    -105.855E-03     73.9715E-03
            1038     4.85786E-03     114.379E-03    -60.2678E+06    -139.594E+06    -37.4176E+06    -18.4397E+06    -106.190E-03     211.924E-03    -105.734E-03     90.2245E-03    -106.595E-03     211.728E-03    -105.631E-03     88.2028E-03
            1039     5.66914E-03     114.478E-03    -56.6158E+06    -128.297E+06    -29.7477E+06    -19.9017E+06    -106.171E-03     211.668E-03    -105.497E-03     104.681E-03    -106.746E-03     211.673E-03    -105.377E-03     102.247E-03
            1040     6.48057E-03     114.589E-03    -52.3629E+06    -119.970E+06    -23.1541E+06    -22.7638E+06    -106.267E-03     211.507E-03    -105.241E-03     118.986E-03    -107.053E-03     211.749E-03    -105.107E-03     116.073E-03
            1041     7.29296E-03     114.714E-03    -47.3268E+06    -112.804E+06    -19.4571E+06    -23.8745E+06    -106.503E-03     211.470E-03    -104.967E-03     133.340E-03    -107.555E-03     212.009E-03    -104.832E-03     129.914E-03
            1042     8.10516E-03     114.853E-03    -42.9531E+06    -102.918E+06    -13.8788E+06    -23.2085E+06    -106.863E-03     211.569E-03    -104.706E-03     147.637E-03    -108.272E-03     212.500E-03    -104.564E-03     143.654E-03
            1043     8.91836E-03     115.004E-03    -40.1374E+06    -91.9954E+06    -10.5083E+06    -23.1425E+06    -107.516E-03     211.975E-03    -104.459E-03     161.544E-03    -109.397E-03     213.417E-03    -104.320E-03     156.910E-03
            1044     9.73079E-03     115.169E-03    -38.5651E+06    -81.3983E+06    -9.78554E+06    -23.8998E+06    -108.371E-03     212.619E-03    -104.248E-03     174.691E-03    -110.865E-03     214.716E-03    -104.123E-03     169.296E-03
            1045     10.5434E-03     115.344E-03    -35.4986E+06    -62.6529E+06    -10.7211E+06    -25.4881E+06    -109.582E-03     213.660E-03    -104.079E-03     188.333E-03    -112.907E-03     216.668E-03    -103.990E-03     182.042E-03
            1046     11.3552E-03     115.535E-03    -30.6533E+06    -21.5892E+06    -3.86485E+06    -23.8807E+06    -111.443E-03     215.444E-03    -104.000E-03     204.753E-03    -116.015E-03     219.841E-03    -103.944E-03     197.405E-03
            1047     12.1647E-03     115.742E-03    -27.7790E+06     25.9541E+06     9.16085E+06    -17.7676E+06    -113.516E-03     217.563E-03    -104.047E-03     222.918E-03    -119.851E-03     223.864E-03    -103.998E-03     214.440E-03
            1048     12.9747E-03     115.974E-03    -25.3365E+06     76.9321E+06     25.1743E+06    -11.5976E+06    -114.790E-03     218.995E-03    -104.204E-03     231.252E-03    -122.802E-03     227.117E-03    -104.153E-03     222.112E-03
            1049     13.7828E-03     116.199E-03    -20.9903E+06     118.012E+06     50.1790E+06    -8.13863E+06    -114.963E-03     219.499E-03    -104.537E-03     211.046E-03    -123.140E-03     227.876E-03    -104.426E-03     202.422E-03
            1050     14.5874E-03     116.391E-03    -13.0843E+06     135.237E+06     79.7151E+06    -2.78302E+06    -115.104E-03     220.164E-03    -105.060E-03     181.496E-03    -123.024E-03     228.287E-03    -104.839E-03     173.582E-03
            1051     15.3894E-03     116.555E-03    -6.12743E+06     133.033E+06     86.1272E+06     554.357E+03    -116.070E-03     221.692E-03    -105.622E-03     111.291E-03    -121.146E-03     226.969E-03    -105.375E-03     105.204E-03
            1052     810.036E-06     115.278E-03    -74.5295E+06    -173.911E+06    -74.9575E+06    -5.30321E+06    -105.082E-03     210.042E-03    -104.960E-03     17.4833E-03    -105.105E-03     209.401E-03    -104.974E-03     17.1462E-03
            1053     1.62041E-03     115.303E-03    -73.1868E+06    -165.521E+06    -69.9525E+06    -8.96323E+06    -104.861E-03     209.770E-03    -104.908E-03     31.8433E-03    -104.922E-03     209.185E-03    -104.912E-03     31.2241E-03
            1054     2.43100E-03     115.341E-03    -70.6533E+06    -158.613E+06    -62.5905E+06    -12.7564E+06    -104.705E-03     209.461E-03    -104.756E-03     47.1697E-03    -104.815E-03     208.939E-03    -104.737E-03     46.2460E-03
            1055     3.24220E-03     115.396E-03    -66.2035E+06    -151.081E+06    -53.8624E+06    -16.2999E+06    -104.542E-03     209.105E-03    -104.563E-03     62.5367E-03    -104.717E-03     208.664E-03    -104.518E-03     61.2903E-03
            1056     4.05362E-03     115.465E-03    -61.4434E+06    -142.278E+06    -43.9776E+06    -18.0067E+06    -104.391E-03     208.725E-03    -104.334E-03     77.7873E-03    -104.657E-03     208.395E-03    -104.259E-03     76.2175E-03
            1057     4.86597E-03     115.548E-03    -56.9354E+06    -134.095E+06    -34.7738E+06    -18.4042E+06    -104.254E-03     208.323E-03    -104.068E-03     92.9968E-03    -104.641E-03     208.131E-03    -103.965E-03     91.0933E-03
            1058     5.67865E-03     115.645E-03    -51.9324E+06    -119.898E+06    -27.2813E+06    -20.6019E+06    -104.145E-03     207.900E-03    -103.755E-03     108.163E-03    -104.693E-03     207.917E-03    -103.642E-03     105.867E-03
            1059     6.49240E-03     115.756E-03    -47.6993E+06    -113.125E+06    -19.5573E+06    -22.5120E+06    -104.196E-03     207.634E-03    -103.437E-03     123.209E-03    -104.949E-03     207.871E-03    -103.302E-03     120.474E-03
            1060     7.30607E-03     115.880E-03    -46.1434E+06    -108.810E+06    -16.0738E+06    -23.0429E+06    -104.410E-03     207.515E-03    -103.105E-03     138.396E-03    -105.433E-03     208.034E-03    -102.961E-03     135.188E-03
            1061     8.12089E-03     116.019E-03    -43.9085E+06    -97.9812E+06    -14.3311E+06    -24.8314E+06    -104.893E-03     207.662E-03    -102.769E-03     153.741E-03    -106.274E-03     208.580E-03    -102.635E-03     149.971E-03
            1062     8.93523E-03     116.170E-03    -38.9951E+06    -91.4463E+06    -10.7251E+06    -24.5178E+06    -105.759E-03     208.241E-03    -102.483E-03     168.729E-03    -107.590E-03     209.640E-03    -102.347E-03     164.334E-03
            1063     9.75007E-03     116.336E-03    -33.6510E+06    -75.3129E+06    -6.62748E+06    -24.0384E+06    -107.074E-03     209.327E-03    -102.253E-03     182.840E-03    -109.513E-03     211.398E-03    -102.128E-03     177.710E-03
            1064     10.5638E-03     116.512E-03    -30.7918E+06    -56.3767E+06    -5.36460E+06    -25.8565E+06    -109.019E-03     211.130E-03    -102.111E-03     197.248E-03    -112.310E-03     214.127E-03    -102.012E-03     191.190E-03
            1065     11.3769E-03     116.705E-03    -30.7976E+06    -25.5524E+06    -3.71263E+06    -24.0626E+06    -111.649E-03     213.736E-03    -102.086E-03     214.456E-03    -116.211E-03     218.108E-03    -102.023E-03     207.305E-03
            1066     12.1881E-03     116.918E-03    -29.0093E+06     18.9683E+06     7.26491E+06    -18.5592E+06    -114.770E-03     217.000E-03    -102.229E-03     232.846E-03    -121.136E-03     223.309E-03    -102.179E-03     224.477E-03
            1067     12.9969E-03     117.149E-03    -23.7558E+06     72.7686E+06     25.4566E+06    -13.3528E+06    -117.311E-03     219.862E-03    -102.551E-03     240.001E-03    -125.425E-03     228.076E-03    -102.495E-03     230.778E-03
            1068     13.8022E-03     117.383E-03    -17.5040E+06     114.063E+06     49.7207E+06    -9.18493E+06    -118.602E-03     221.701E-03    -103.099E-03     218.482E-03    -126.896E-03     230.195E-03    -102.991E-03     209.651E-03
            1069     14.6050E-03     117.573E-03    -12.5359E+06     128.176E+06     75.6386E+06    -7.15923E+06    -120.004E-03     223.896E-03    -103.892E-03     187.359E-03    -128.073E-03     232.157E-03    -103.681E-03     178.988E-03
            1070     15.4045E-03     117.748E-03    -5.35581E+06     128.538E+06     80.1840E+06    -3.13072E+06    -122.722E-03     227.505E-03    -104.783E-03     113.969E-03    -127.917E-03     232.905E-03    -104.561E-03     107.300E-03
            1071     811.788E-06     116.446E-03    -68.1602E+06    -159.150E+06    -67.5196E+06    -6.93692E+06    -102.984E-03     205.916E-03    -102.932E-03     17.9018E-03    -103.007E-03     205.328E-03    -102.940E-03     17.5621E-03
            1072     1.62374E-03     116.469E-03    -66.0045E+06    -153.888E+06    -63.7002E+06    -9.87342E+06    -102.758E-03     205.590E-03    -102.832E-03     32.8540E-03    -102.807E-03     205.042E-03    -102.832E-03     32.2636E-03
            1073     2.43614E-03     116.508E-03    -62.4984E+06    -146.278E+06    -56.8087E+06    -13.7292E+06    -102.527E-03     205.171E-03    -102.644E-03     48.7383E-03    -102.619E-03     204.686E-03    -102.625E-03     47.8649E-03
            1074     3.24887E-03     116.561E-03    -60.0937E+06    -141.443E+06    -50.0361E+06    -16.7776E+06    -102.204E-03     204.601E-03    -102.397E-03     64.6797E-03    -102.361E-03     204.187E-03    -102.355E-03     63.5162E-03
            1075     4.06272E-03     116.629E-03    -57.7253E+06    -135.806E+06    -42.1818E+06    -18.5807E+06    -101.879E-03     203.973E-03    -102.095E-03     80.5900E-03    -102.126E-03     203.655E-03    -102.025E-03     79.1316E-03
            1076     4.87694E-03     116.711E-03    -52.4911E+06    -126.820E+06    -32.3996E+06    -20.9769E+06    -101.620E-03     203.370E-03    -101.750E-03     96.4869E-03    -101.980E-03     203.186E-03    -101.652E-03     94.7001E-03
            1077     5.69219E-03     116.807E-03    -47.4819E+06    -114.116E+06    -24.9138E+06    -21.5939E+06    -101.433E-03     202.791E-03    -101.358E-03     112.512E-03    -101.944E-03     202.800E-03    -101.248E-03     110.388E-03
            1078     6.50782E-03     116.918E-03    -45.2026E+06    -109.374E+06    -18.7317E+06    -20.3777E+06    -101.410E-03     202.368E-03    -100.957E-03     128.597E-03    -102.121E-03     202.583E-03    -100.827E-03     126.113E-03
            1079     7.32474E-03     117.042E-03    -41.4249E+06    -100.909E+06    -12.0251E+06    -22.0477E+06    -101.686E-03     202.243E-03    -100.556E-03     144.877E-03    -102.657E-03     202.742E-03    -100.410E-03     141.939E-03
            1080     8.14160E-03     117.179E-03    -37.3549E+06    -92.5661E+06    -9.92126E+06    -24.1604E+06    -102.424E-03     202.588E-03    -100.164E-03     161.448E-03    -103.733E-03     203.464E-03    -100.025E-03     157.971E-03
            1081     8.95907E-03     117.332E-03    -35.6875E+06    -88.5177E+06    -9.38230E+06    -25.2961E+06    -103.749E-03     203.590E-03    -99.8408E-03     177.542E-03    -105.513E-03     204.940E-03    -99.7077E-03     173.438E-03
            1082     9.77589E-03     117.498E-03    -33.6059E+06    -70.6128E+06    -5.94196E+06    -26.3972E+06    -105.833E-03     205.457E-03    -99.6232E-03     192.691E-03    -108.227E-03     207.497E-03    -99.5018E-03     187.826E-03
            1083     10.5916E-03     117.679E-03    -31.2084E+06    -53.9826E+06    -2.48865E+06    -25.0898E+06    -108.837E-03     208.403E-03    -99.5661E-03     207.744E-03    -112.113E-03     211.383E-03    -99.4550E-03     201.934E-03
            1084     11.4045E-03     117.874E-03    -28.8940E+06    -26.6508E+06     1.27729E+06    -22.2634E+06    -112.507E-03     212.186E-03    -99.6794E-03     224.804E-03    -117.074E-03     216.553E-03    -99.5925E-03     217.838E-03
            1085     12.2162E-03     118.091E-03    -25.1082E+06     16.1895E+06     12.9568E+06    -19.8964E+06    -116.951E-03     216.957E-03    -100.006E-03     243.018E-03    -123.363E-03     223.300E-03    -99.9285E-03     234.666E-03
            1086     13.0230E-03     118.331E-03    -19.2525E+06     69.4888E+06     27.8005E+06    -17.5321E+06    -121.286E-03     221.852E-03    -100.565E-03     249.319E-03    -129.549E-03     230.213E-03    -100.499E-03     239.822E-03
            1087     13.8267E-03     118.566E-03    -13.9064E+06     104.699E+06     49.6049E+06    -11.1109E+06    -124.187E-03     225.636E-03    -101.449E-03     225.765E-03    -132.669E-03     234.299E-03    -101.333E-03     216.473E-03
            1088     14.6241E-03     118.765E-03    -9.25261E+06     125.423E+06     82.1688E+06    -5.33612E+06    -126.912E-03     229.574E-03    -102.662E-03     194.022E-03    -135.216E-03     238.053E-03    -102.419E-03     185.054E-03
            1089     15.4143E-03     118.945E-03    -5.37932E+06     127.018E+06     79.2946E+06    -3.92067E+06    -130.921E-03     234.874E-03    -103.952E-03     119.317E-03    -136.311E-03     240.467E-03    -103.732E-03     111.961E-03
            1090     813.953E-06     117.607E-03    -56.9268E+06    -143.456E+06    -55.1496E+06    -5.73787E+06    -100.131E-03     200.252E-03    -100.121E-03     18.5215E-03    -100.138E-03     199.707E-03    -100.106E-03     18.2240E-03
            1091     1.62831E-03     117.630E-03    -55.8075E+06    -140.711E+06    -53.5066E+06    -10.8880E+06    -99.9154E-03     199.906E-03    -99.9905E-03     34.0611E-03    -99.9444E-03     199.392E-03    -99.9731E-03     33.5096E-03
            1092     2.44300E-03     117.668E-03    -54.6966E+06    -134.823E+06    -49.6070E+06    -14.2681E+06    -99.5405E-03     199.304E-03    -99.7639E-03     50.4919E-03    -99.6152E-03     198.849E-03    -99.7371E-03     49.6901E-03
            1093     3.25861E-03     117.720E-03    -51.8481E+06    -132.409E+06    -41.1130E+06    -16.5801E+06    -99.0825E-03     198.554E-03    -99.4717E-03     67.1017E-03    -99.2139E-03     198.150E-03    -99.4101E-03     66.0492E-03
            1094     4.07462E-03     117.787E-03    -47.1705E+06    -127.102E+06    -34.0396E+06    -19.2700E+06    -98.6090E-03     197.699E-03    -99.0905E-03     83.9080E-03    -98.8115E-03     197.381E-03    -99.0080E-03     82.5841E-03
            1095     4.89193E-03     117.868E-03    -44.5312E+06    -118.608E+06    -29.0712E+06    -21.3587E+06    -98.1540E-03     196.792E-03    -98.6384E-03     100.796E-03    -98.4655E-03     196.608E-03    -98.5472E-03     99.1876E-03
            1096     5.71001E-03     117.963E-03    -43.6789E+06    -113.396E+06    -23.7463E+06    -19.7805E+06    -97.8392E-03     195.995E-03    -98.1559E-03     117.900E-03    -98.2982E-03     195.964E-03    -98.0468E-03     116.025E-03
            1097     6.52944E-03     118.073E-03    -40.6969E+06    -103.659E+06    -17.7125E+06    -19.7391E+06    -97.8563E-03     195.512E-03    -97.6559E-03     135.242E-03    -98.5061E-03     195.700E-03    -97.5352E-03     133.034E-03
            1098     7.34907E-03     118.196E-03    -37.2997E+06    -92.3187E+06    -11.2760E+06    -22.9139E+06    -98.3925E-03     195.574E-03    -97.1818E-03     152.773E-03    -99.2983E-03     196.051E-03    -97.0502E-03     150.122E-03
            1099     8.16949E-03     118.335E-03    -35.0140E+06    -89.7550E+06    -7.20152E+06    -23.1961E+06    -99.6542E-03     196.435E-03    -96.7803E-03     170.370E-03    -100.895E-03     197.253E-03    -96.6354E-03     167.222E-03
            1100     8.98945E-03     118.488E-03    -33.6291E+06    -82.3529E+06    -5.35917E+06    -22.5436E+06    -101.843E-03     198.326E-03    -96.4828E-03     187.398E-03    -103.545E-03     199.631E-03    -96.3414E-03     183.645E-03
            1101     9.80812E-03     118.657E-03    -35.2237E+06    -65.9199E+06    -3.52052E+06    -23.0871E+06    -105.040E-03     201.393E-03    -96.3526E-03     203.399E-03    -107.402E-03     203.406E-03    -96.2235E-03     198.854E-03
            1102     10.6247E-03     118.840E-03    -36.1694E+06    -50.4078E+06    -197.814E+03    -25.2600E+06    -109.282E-03     205.736E-03    -96.4540E-03     218.989E-03    -112.571E-03     208.718E-03    -96.3294E-03     213.389E-03
            1103     11.4388E-03     119.043E-03    -33.1830E+06    -27.9025E+06     4.03616E+06    -25.0103E+06    -114.559E-03     211.357E-03    -96.7985E-03     235.977E-03    -119.193E-03     215.763E-03    -96.6897E-03     229.050E-03
            1104     12.2475E-03     119.265E-03    -29.3202E+06     17.0437E+06     17.8021E+06    -22.7928E+06    -120.728E-03     218.157E-03    -97.4285E-03     254.221E-03    -127.301E-03     224.635E-03    -97.3217E-03     245.704E-03
            1105     13.0540E-03     119.513E-03    -27.2624E+06     68.3447E+06     35.8624E+06    -21.1222E+06    -126.905E-03     225.286E-03    -98.3811E-03     259.390E-03    -135.449E-03     233.874E-03    -98.2614E-03     249.441E-03
            1106     13.8511E-03     119.758E-03    -23.3721E+06     94.1799E+06     50.5430E+06    -16.7472E+06    -131.427E-03     231.115E-03    -99.6879E-03     233.357E-03    -140.245E-03     240.040E-03    -99.5378E-03     223.314E-03
            1107     14.6428E-03     119.962E-03    -13.8936E+06     117.814E+06     73.1009E+06    -10.8579E+06    -135.131E-03     236.452E-03    -101.321E-03     201.060E-03    -143.751E-03     245.231E-03    -101.106E-03     191.140E-03
            1108     15.4317E-03     120.153E-03    -3.79291E+06     120.177E+06     72.6979E+06    -5.99515E+06    -140.563E-03     243.678E-03    -103.115E-03     125.442E-03    -146.146E-03     249.465E-03    -102.920E-03     117.230E-03
            1109     817.218E-06     118.761E-03    -46.7928E+06    -128.224E+06    -46.4637E+06    -5.63549E+06    -96.4836E-03     192.813E-03    -96.3296E-03     19.3433E-03    -96.4738E-03     192.316E-03    -96.3081E-03     19.0819E-03
            1110     1.63434E-03     118.784E-03    -44.8103E+06    -126.859E+06    -40.9154E+06    -10.2133E+06    -96.1476E-03     192.418E-03    -96.2702E-03     35.3739E-03    -96.1571E-03     191.935E-03    -96.2259E-03     34.8917E-03
            1111     2.45222E-03     118.821E-03    -42.8468E+06    -125.151E+06    -36.6266E+06    -13.2054E+06    -95.6315E-03     191.638E-03    -96.0068E-03     52.5312E-03    -95.6730E-03     191.188E-03    -95.9463E-03     51.8351E-03
            1112     3.27074E-03     118.872E-03    -41.4687E+06    -122.156E+06    -33.9262E+06    -16.5228E+06    -95.0057E-03     190.623E-03    -95.6171E-03     70.0456E-03    -95.0976E-03     190.231E-03    -95.5495E-03     69.1235E-03
            1113     4.09069E-03     118.937E-03    -40.5717E+06    -117.969E+06    -29.9089E+06    -19.3697E+06    -94.3312E-03     189.473E-03    -95.1413E-03     87.8285E-03    -94.4987E-03     189.162E-03    -95.0610E-03     86.6735E-03
            1114     4.91154E-03     119.017E-03    -39.3873E+06    -114.710E+06    -24.9288E+06    -18.7953E+06    -93.7480E-03     188.352E-03    -94.6042E-03     105.750E-03    -94.0136E-03     188.141E-03    -94.5054E-03     104.387E-03
            1115     5.73379E-03     119.111E-03    -36.3839E+06    -110.062E+06    -20.4285E+06    -19.0142E+06    -93.4547E-03     187.481E-03    -94.0265E-03     123.963E-03    -93.8425E-03     187.406E-03    -93.9163E-03     122.351E-03
            1116     6.55673E-03     119.219E-03    -33.6159E+06    -98.1103E+06    -16.6411E+06    -19.6869E+06    -93.6976E-03     187.144E-03    -93.4460E-03     142.572E-03    -94.2630E-03     187.288E-03    -93.3382E-03     140.657E-03
            1117     7.38061E-03     119.343E-03    -34.0115E+06    -86.5948E+06    -10.0149E+06    -18.6537E+06    -94.8151E-03     187.771E-03    -92.9555E-03     161.257E-03    -95.6458E-03     188.201E-03    -92.8307E-03     158.978E-03
            1118     8.20406E-03     119.482E-03    -35.6266E+06    -84.5194E+06    -3.79993E+06    -20.1964E+06    -97.0249E-03     189.639E-03    -92.6145E-03     179.841E-03    -98.2092E-03     190.407E-03    -92.4593E-03     177.048E-03
            1119     9.02641E-03     119.638E-03    -35.8540E+06    -81.1865E+06    -2.46258E+06    -19.9605E+06    -100.402E-03     192.841E-03    -92.4393E-03     197.842E-03    -102.057E-03     194.087E-03    -92.2819E-03     194.414E-03
            1120     9.84701E-03     119.810E-03    -33.3887E+06    -59.0053E+06     1.59611E+06    -19.1324E+06    -105.041E-03     197.536E-03    -92.4949E-03     214.611E-03    -107.369E-03     199.532E-03    -92.3530E-03     210.354E-03
            1121     10.6641E-03     120.001E-03    -31.1738E+06    -42.5078E+06     6.69945E+06    -21.4792E+06    -110.892E-03     203.753E-03    -92.8607E-03     230.465E-03    -114.177E-03     206.758E-03    -92.7204E-03     225.050E-03
            1122     11.4764E-03     120.209E-03    -31.0183E+06    -24.7339E+06     8.91999E+06    -23.9246E+06    -117.959E-03     211.499E-03    -93.5401E-03     247.357E-03    -122.671E-03     215.989E-03    -93.4147E-03     240.403E-03
            1123     12.2852E-03     120.441E-03    -28.8190E+06     18.6111E+06     22.8716E+06    -23.4913E+06    -126.178E-03     220.764E-03    -94.5854E-03     265.209E-03    -132.954E-03     227.439E-03    -94.4563E-03     256.363E-03
            1124     13.0843E-03     120.699E-03    -23.6003E+06     66.9805E+06     44.9350E+06    -18.7477E+06    -133.917E-03     229.942E-03    -96.0253E-03     270.369E-03    -142.788E-03     238.839E-03    -95.8635E-03     259.836E-03
            1125     13.8780E-03     120.957E-03    -16.8700E+06     93.6766E+06     58.5682E+06    -18.2912E+06    -139.849E-03     237.676E-03    -97.8276E-03     243.142E-03    -149.039E-03     246.973E-03    -97.6461E-03     232.233E-03
            1126     14.6634E-03     121.168E-03    -9.20079E+06     111.147E+06     71.0104E+06    -16.9043E+06    -145.695E-03     245.680E-03    -99.9851E-03     209.603E-03    -154.749E-03     254.894E-03    -99.7778E-03     198.346E-03
            1127     15.4386E-03     121.370E-03    -3.37816E+06     107.056E+06     64.1047E+06    -9.00216E+06    -151.618E-03     253.969E-03    -102.351E-03     132.340E-03    -157.508E-03     260.044E-03    -102.181E-03     122.938E-03
            1128     820.742E-06     119.906E-03    -35.7505E+06    -115.179E+06    -35.7024E+06    -4.39059E+06    -91.7843E-03     183.417E-03    -91.6325E-03     20.1031E-03    -91.7530E-03     182.951E-03    -91.5921E-03     19.8937E-03
            1129     1.64205E-03     119.928E-03    -37.5792E+06    -115.296E+06    -34.4632E+06    -7.94021E+06    -91.2158E-03     182.724E-03    -91.5078E-03     36.8726E-03    -91.2116E-03     182.274E-03    -91.4585E-03     36.4889E-03
            1130     2.46396E-03     119.964E-03    -37.9631E+06    -114.856E+06    -33.4322E+06    -11.7280E+06    -90.6019E-03     181.751E-03    -91.1493E-03     54.9606E-03    -90.6300E-03     181.331E-03    -91.0949E-03     54.3900E-03
            1131     3.28705E-03     120.013E-03    -37.9068E+06    -111.692E+06    -31.0307E+06    -15.0440E+06    -89.8635E-03     180.551E-03    -90.6873E-03     73.3851E-03    -89.9410E-03     180.185E-03    -90.6255E-03     72.6270E-03
            1132     4.11102E-03     120.077E-03    -38.3821E+06    -111.855E+06    -26.6702E+06    -16.0134E+06    -89.0918E-03     179.242E-03    -90.1498E-03     92.0283E-03    -89.2360E-03     178.927E-03    -90.0653E-03     91.1013E-03
            1133     4.93657E-03     120.155E-03    -38.0908E+06    -109.834E+06    -23.6335E+06    -17.4253E+06    -88.5268E-03     178.068E-03    -89.5411E-03     111.040E-03    -88.7566E-03     177.839E-03    -89.4448E-03     109.919E-03
            1134     5.76305E-03     120.248E-03    -36.9922E+06    -103.088E+06    -20.9811E+06    -19.7955E+06    -88.5110E-03     177.427E-03    -88.9156E-03     130.449E-03    -88.8594E-03     177.336E-03    -88.8174E-03     129.088E-03
            1135     6.59063E-03     120.356E-03    -36.1638E+06    -97.8806E+06    -15.7921E+06    -18.2711E+06    -89.3713E-03     177.738E-03    -88.3666E-03     150.107E-03    -89.8870E-03     177.821E-03    -88.2512E-03     148.497E-03
            1136     7.41812E-03     120.480E-03    -34.2270E+06    -84.5603E+06    -7.46173E+06    -15.3273E+06    -91.4119E-03     179.367E-03    -87.9549E-03     169.889E-03    -92.1765E-03     179.730E-03    -87.8200E-03     167.953E-03
            1137     8.24452E-03     120.622E-03    -32.9947E+06    -78.8174E+06    -47.9658E+03    -14.4299E+06    -94.9035E-03     182.665E-03    -87.7612E-03     189.404E-03    -96.0152E-03     183.379E-03    -87.5993E-03     186.974E-03
            1138     9.06918E-03     120.781E-03    -32.1747E+06    -76.7367E+06     2.71835E+06    -16.8078E+06    -99.8482E-03     187.675E-03    -87.8265E-03     208.134E-03    -101.442E-03     188.874E-03    -87.6550E-03     204.989E-03
            1139     9.89013E-03     120.961E-03    -29.7249E+06    -53.3656E+06     4.89453E+06    -19.5746E+06    -106.076E-03     194.254E-03    -88.1779E-03     225.561E-03    -108.366E-03     196.235E-03    -88.0329E-03     221.476E-03
            1140     10.7068E-03     121.158E-03    -26.6895E+06    -38.8459E+06     9.96282E+06    -19.0464E+06    -113.711E-03     202.627E-03    -88.9161E-03     241.832E-03    -117.002E-03     205.658E-03    -88.7712E-03     236.506E-03
            1141     11.5181E-03     121.377E-03    -24.2648E+06    -15.8275E+06     16.7057E+06    -19.6057E+06    -122.834E-03     212.879E-03    -90.0453E-03     259.202E-03    -127.660E-03     217.517E-03    -89.9037E-03     252.131E-03
            1142     12.3206E-03     121.620E-03    -22.1882E+06     22.1261E+06     28.7437E+06    -21.4516E+06    -132.621E-03     224.198E-03    -91.5769E-03     277.397E-03    -139.648E-03     231.145E-03    -91.4330E-03     268.120E-03
            1143     13.1184E-03     121.891E-03    -16.6758E+06     63.1847E+06     45.2733E+06    -21.0508E+06    -141.778E-03     235.289E-03    -93.5110E-03     282.761E-03    -151.009E-03     244.558E-03    -93.3520E-03     271.439E-03
            1144     13.9062E-03     122.161E-03    -9.07050E+06     98.3630E+06     62.7428E+06    -20.3547E+06    -149.945E-03     245.826E-03    -95.8811E-03     254.588E-03    -159.617E-03     255.638E-03    -95.6969E-03     242.516E-03
            1145     14.6829E-03     122.388E-03    -3.71441E+06     103.833E+06     74.9568E+06    -18.1842E+06    -157.757E-03     256.449E-03    -98.6917E-03     219.565E-03    -167.358E-03     266.192E-03    -98.4621E-03     206.759E-03
            1146     15.4518E-03     122.604E-03    -848.004E+03     89.2062E+06     61.0308E+06     -8.7566E+06    -163.345E-03     265.018E-03    -101.673E-03     139.454E-03    -169.545E-03     271.358E-03    -101.496E-03     128.789E-03
            1147     825.597E-06     121.039E-03    -37.3585E+06    -107.668E+06    -37.9554E+06    -2.19045E+06    -85.8646E-03     171.542E-03    -85.6774E-03     21.0011E-03    -85.8480E-03     171.117E-03    -85.6569E-03     20.8577E-03
            1148     1.65185E-03     121.060E-03    -38.6151E+06    -105.827E+06    -36.6560E+06    -4.80650E+06    -85.1727E-03     170.713E-03    -85.5402E-03     38.5020E-03    -85.1799E-03     170.310E-03    -85.5141E-03     38.2336E-03
            1149     2.47894E-03     121.094E-03    -40.0893E+06    -104.418E+06    -33.7059E+06    -8.63303E+06    -84.4893E-03     169.636E-03    -85.1471E-03     57.3088E-03    -84.5326E-03     169.261E-03    -85.1061E-03     56.8887E-03
            1150     3.30685E-03     121.143E-03    -41.7419E+06    -103.696E+06    -31.4691E+06    -11.4373E+06    -83.7013E-03     168.351E-03    -84.6498E-03     76.5583E-03    -83.7906E-03     168.012E-03    -84.5963E-03     75.9939E-03
            1151     4.13623E-03     121.205E-03    -41.4544E+06    -106.520E+06    -29.0144E+06    -13.5762E+06    -83.0232E-03     167.100E-03    -84.0769E-03     96.1955E-03    -83.1576E-03     166.790E-03    -84.0074E-03     95.4852E-03
            1152     4.96669E-03     121.281E-03    -41.0762E+06    -102.934E+06    -24.6924E+06    -14.8253E+06    -82.7990E-03     166.276E-03    -83.4767E-03     116.333E-03    -83.0097E-03     166.044E-03    -83.3914E-03     115.467E-03
            1153     5.79834E-03     121.373E-03    -43.4352E+06    -97.9525E+06    -18.9085E+06    -14.9434E+06    -83.4796E-03     166.417E-03    -82.9378E-03     136.778E-03    -83.8158E-03     166.304E-03    -82.8274E-03     135.724E-03
            1154     6.62984E-03     121.481E-03    -44.5640E+06    -95.3121E+06    -14.4378E+06    -16.3242E+06    -85.3672E-03     167.898E-03    -82.5313E-03     157.438E-03    -85.8661E-03     167.941E-03    -82.4006E-03     156.110E-03
            1155     7.46052E-03     121.608E-03    -43.2580E+06    -85.0746E+06    -11.7505E+06    -15.6664E+06    -88.6179E-03     170.927E-03    -82.3094E-03     178.260E-03    -89.3490E-03     171.235E-03    -82.1821E-03     176.582E-03
            1156     8.28988E-03     121.753E-03    -41.0525E+06    -78.3116E+06    -7.23368E+06    -12.7264E+06    -93.5798E-03     175.958E-03    -82.3780E-03     198.817E-03    -94.6519E-03     176.627E-03    -82.2411E-03     196.660E-03
            1157     9.11508E-03     121.920E-03    -39.0676E+06    -63.9956E+06     536.588E+03    -16.3335E+06    -100.201E-03     182.998E-03    -82.7971E-03     218.482E-03    -101.793E-03     184.223E-03    -82.6449E-03     215.544E-03
            1158     9.93636E-03     122.106E-03    -36.3831E+06    -48.3266E+06     3.85583E+06    -22.1297E+06    -108.171E-03     191.747E-03    -83.5759E-03     236.643E-03    -110.485E-03     193.751E-03    -83.4338E-03     232.639E-03
            1159     10.7520E-03     122.315E-03    -31.8198E+06    -40.5605E+06     6.82264E+06    -21.9133E+06    -117.499E-03     202.266E-03    -84.7674E-03     253.912E-03    -120.850E-03     205.343E-03    -84.6283E-03     248.539E-03
            1160     11.5597E-03     122.545E-03    -27.8183E+06    -9.91620E+06     17.4608E+06    -20.1052E+06    -128.153E-03     214.536E-03    -86.3831E-03     272.829E-03    -133.147E-03     219.348E-03    -86.2410E-03     265.558E-03
            1161     12.3613E-03     122.804E-03    -23.8888E+06     29.2316E+06     32.4444E+06    -21.4624E+06    -139.837E-03     228.271E-03    -88.4339E-03     291.570E-03    -147.191E-03     235.554E-03    -88.2794E-03     281.760E-03
            1162     13.1525E-03     123.086E-03    -20.1933E+06     69.0295E+06     48.4963E+06    -25.7455E+06    -151.405E-03     242.347E-03    -90.9415E-03     296.495E-03    -161.174E-03     252.154E-03    -90.7698E-03     284.077E-03
            1163     13.9334E-03     123.377E-03    -14.9946E+06     93.5489E+06     62.0434E+06    -25.1566E+06    -161.137E-03     255.075E-03    -93.9379E-03     268.301E-03    -171.476E-03     265.519E-03    -93.7416E-03     254.742E-03
            1164     14.7011E-03     123.620E-03    -11.0588E+06     92.2123E+06     69.0689E+06    -18.7858E+06    -169.248E-03     266.605E-03    -97.3569E-03     232.908E-03    -179.490E-03     276.940E-03    -97.1293E-03     218.546E-03
            1165     15.4593E-03     123.849E-03    -7.98014E+06     75.0834E+06     55.6329E+06    -11.2463E+06    -175.571E-03     276.519E-03    -100.948E-03     150.212E-03    -182.173E-03     283.202E-03    -100.767E-03     138.174E-03
            1166     831.725E-06     122.157E-03    -46.5429E+06    -102.580E+06    -46.4124E+06    -2.68157E+06    -78.8274E-03     157.294E-03    -78.4668E-03     21.5963E-03    -78.8507E-03     156.918E-03    -78.4826E-03     21.4845E-03
            1167     1.66372E-03     122.177E-03    -45.3919E+06    -100.008E+06    -43.4278E+06    -3.51165E+06    -78.1456E-03     156.586E-03    -78.4403E-03     39.7736E-03    -78.1806E-03     156.226E-03    -78.4466E-03     39.5909E-03
            1168     2.49643E-03     122.210E-03    -45.3592E+06    -97.5469E+06    -38.4718E+06    -4.53792E+06    -77.4359E-03     155.508E-03    -78.0725E-03     59.3326E-03    -77.4975E-03     155.170E-03    -78.0577E-03     59.0694E-03
            1169     3.33048E-03     122.257E-03    -45.5429E+06    -96.7174E+06    -33.8868E+06    -7.04002E+06    -76.7380E-03     154.332E-03    -77.5942E-03     79.4125E-03    -76.8327E-03     154.016E-03    -77.5574E-03     79.0442E-03
            1170     4.16557E-03     122.317E-03    -46.6468E+06    -99.4792E+06    -29.5024E+06    -10.2542E+06    -76.4875E-03     153.568E-03    -77.0803E-03     100.013E-03    -76.6263E-03     153.269E-03    -77.0159E-03     99.5162E-03
            1171     5.00168E-03     122.393E-03    -48.5720E+06    -101.987E+06    -25.0656E+06    -9.33385E+06    -77.1085E-03     153.727E-03    -76.6182E-03     121.034E-03    -77.3147E-03     153.468E-03    -76.5252E-03     120.432E-03
            1172     5.83763E-03     122.485E-03    -49.5380E+06    -93.6774E+06    -19.6161E+06    -7.86307E+06    -78.8406E-03     155.121E-03    -76.2801E-03     142.444E-03    -79.1584E-03     154.984E-03    -76.1705E-03     141.694E-03
            1173     6.67291E-03     122.596E-03    -51.2327E+06    -87.1955E+06    -16.6179E+06    -11.0551E+06    -81.9627E-03     158.104E-03    -76.1417E-03     164.149E-03    -82.4412E-03     158.138E-03    -76.0240E-03     163.110E-03
            1174     7.50667E-03     122.726E-03    -52.7740E+06    -84.7752E+06    -16.3404E+06    -12.9962E+06    -86.7151E-03     162.985E-03    -76.2704E-03     186.035E-03    -87.4228E-03     163.251E-03    -76.1526E-03     184.608E-03
            1175     8.33681E-03     122.878E-03    -50.1812E+06    -75.0052E+06    -12.8027E+06    -15.2522E+06    -93.1398E-03     169.869E-03    -76.7290E-03     207.888E-03    -94.1926E-03     170.514E-03    -76.6115E-03     205.900E-03
            1176     9.16363E-03     123.052E-03    -43.1040E+06    -51.7929E+06    -1.65326E+06    -19.3866E+06    -101.253E-03     178.830E-03    -77.5766E-03     228.860E-03    -102.831E-03     180.076E-03    -77.4473E-03     226.053E-03
            1177     9.98402E-03     123.250E-03    -37.1597E+06    -41.8229E+06     5.68493E+06    -22.5849E+06    -110.926E-03     189.768E-03    -78.8423E-03     248.196E-03    -113.249E-03     191.797E-03    -78.6993E-03     244.268E-03
            1178     10.7974E-03     123.469E-03    -34.6298E+06    -41.1508E+06     6.93536E+06    -23.6503E+06    -121.797E-03     202.323E-03    -80.5267E-03     266.935E-03    -125.214E-03     205.455E-03    -80.3821E-03     261.499E-03
            1179     11.6044E-03     123.714E-03    -29.6553E+06     -6.1758E+06     18.7407E+06    -23.4577E+06    -133.992E-03     216.632E-03    -82.6407E-03     286.949E-03    -139.144E-03     221.608E-03    -82.4951E-03     279.398E-03
            1180     12.4015E-03     123.988E-03    -22.7247E+06     36.0538E+06     37.2670E+06    -24.2821E+06    -148.090E-03     233.327E-03    -85.2378E-03     306.550E-03    -155.775E-03     240.958E-03    -85.0708E-03     296.059E-03
            1181     13.1874E-03     124.293E-03    -17.0514E+06     78.1768E+06     55.6948E+06    -24.1670E+06    -162.126E-03     250.481E-03    -88.3549E-03     312.337E-03    -172.491E-03     260.909E-03    -88.1650E-03     298.715E-03
            1182     13.9599E-03     124.601E-03    -14.4933E+06     90.4446E+06     66.3932E+06    -23.7744E+06    -172.113E-03     264.092E-03    -91.9797E-03     283.742E-03    -183.177E-03     275.240E-03    -91.7579E-03     268.677E-03
            1183     14.7231E-03     124.864E-03    -8.92730E+06     81.4558E+06     68.6366E+06    -20.7997E+06    -180.634E-03     276.607E-03    -95.9736E-03     247.569E-03    -191.501E-03     287.540E-03    -95.7356E-03     231.538E-03
            1184     15.4775E-03     125.109E-03     64.4995E+03     60.1978E+06     53.9646E+06    -13.0362E+06    -189.054E-03     289.222E-03    -100.168E-03     161.550E-03    -195.998E-03     296.230E-03    -99.9857E-03     147.959E-03
            1185     838.296E-06     123.259E-03    -51.7293E+06    -95.5868E+06    -52.1462E+06    -3.73070E+06    -70.7685E-03     141.378E-03    -70.6093E-03     21.9368E-03    -70.8183E-03     141.051E-03    -70.6564E-03     21.8450E-03
            1186     1.67700E-03     123.278E-03    -51.8903E+06    -98.7494E+06    -51.0728E+06    -3.22326E+06    -70.2088E-03     140.694E-03    -70.4853E-03     40.6690E-03    -70.2623E-03     140.355E-03    -70.5223E-03     40.5493E-03
            1187     2.51662E-03     123.310E-03    -53.0367E+06    -96.1024E+06    -49.2401E+06    -1.23928E+06    -69.6604E-03     139.791E-03    -70.1303E-03     60.8256E-03    -69.7357E-03     139.474E-03    -70.1602E-03     60.6952E-03
            1188     3.35701E-03     123.355E-03    -56.1580E+06    -91.6671E+06    -42.6195E+06    -1.07972E+06    -69.4440E-03     139.194E-03    -69.7503E-03     81.6355E-03    -69.5666E-03     138.911E-03    -69.7490E-03     81.4619E-03
            1189     4.19827E-03     123.415E-03    -60.8017E+06    -95.5342E+06    -35.8293E+06    -1.51988E+06    -70.0994E-03     139.540E-03    -69.4402E-03     103.036E-03    -70.2757E-03     139.261E-03    -69.3926E-03     102.792E-03
            1190     5.03911E-03     123.491E-03    -63.4978E+06    -100.612E+06    -33.8052E+06    -3.43093E+06    -71.8663E-03     141.119E-03    -69.2531E-03     124.935E-03    -72.0970E-03     140.862E-03    -69.1842E-03     124.566E-03
            1191     5.87929E-03     123.586E-03    -62.2096E+06    -89.7653E+06    -29.8845E+06    -5.57194E+06    -74.8317E-03     144.085E-03    -69.2537E-03     147.291E-03    -75.1544E-03     143.953E-03    -69.1828E-03     146.742E-03
            1192     6.71797E-03     123.700E-03    -59.4411E+06    -81.5628E+06    -23.3534E+06    -6.20172E+06    -79.3577E-03     148.888E-03    -69.5301E-03     170.004E-03    -79.8189E-03     148.915E-03    -69.4424E-03     169.207E-03
            1193     7.55329E-03     123.836E-03      -55.84E+06    -76.9941E+06    -16.6139E+06    -11.0296E+06    -85.5716E-03     155.700E-03    -70.1285E-03     193.067E-03    -86.2474E-03     155.952E-03    -70.0190E-03     191.841E-03
            1194     8.38527E-03     123.995E-03    -48.5494E+06    -63.0600E+06    -9.34707E+06    -20.3158E+06    -93.3793E-03     164.444E-03    -71.0643E-03     216.313E-03    -94.3910E-03     165.087E-03    -70.9492E-03     214.423E-03
            1195     9.21136E-03     124.180E-03    -40.0782E+06    -46.7256E+06    -763.497E+03    -24.7222E+06    -102.764E-03     175.144E-03    -72.3800E-03     238.888E-03    -104.287E-03     176.362E-03    -72.2580E-03     236.158E-03
            1196     10.0319E-03     124.389E-03    -34.5043E+06    -40.3437E+06     6.61747E+06    -22.2465E+06    -113.766E-03     187.884E-03    -74.1182E-03     259.867E-03    -116.053E-03     189.889E-03    -73.9766E-03     256.040E-03
            1197     10.8447E-03     124.623E-03    -29.1874E+06    -33.6196E+06     13.1954E+06    -23.6932E+06    -126.449E-03     202.747E-03    -76.2981E-03     279.965E-03    -129.903E-03     205.944E-03    -76.1411E-03     274.475E-03
            1198     11.6477E-03     124.883E-03    -21.9515E+06    -930.576E+03     24.6411E+06    -27.6604E+06    -141.054E-03     219.994E-03    -78.9401E-03     301.283E-03    -146.347E-03     225.140E-03    -78.7837E-03     293.335E-03
            1199     12.4409E-03     125.178E-03    -15.2841E+06     36.6242E+06     40.6167E+06    -24.7533E+06    -157.244E-03     239.350E-03    -82.1066E-03     322.174E-03    -165.229E-03     247.301E-03    -81.9345E-03     310.922E-03
            1200     13.2217E-03     125.506E-03    -11.6555E+06     80.3214E+06     56.4663E+06    -20.5340E+06    -171.745E-03     257.521E-03    -85.7760E-03     328.927E-03    -182.629E-03     268.493E-03    -85.5933E-03     314.198E-03
            1201     13.9894E-03     125.838E-03    -6.56929E+06     95.4182E+06     70.1710E+06    -21.4846E+06    -182.951E-03     272.911E-03    -89.9601E-03     300.441E-03    -194.710E-03     284.791E-03    -89.7380E-03     283.809E-03
            1202     14.7440E-03     126.113E-03    -1.99785E+06     77.2771E+06     70.4798E+06    -21.6586E+06    -194.840E-03     289.432E-03    -94.5917E-03     262.981E-03    -206.509E-03     301.174E-03    -94.3484E-03     244.607E-03
            1203     15.4838E-03     126.388E-03    -2.56389E+06     39.4977E+06     46.3371E+06    -13.2153E+06    -203.468E-03     302.938E-03    -99.4697E-03     171.154E-03    -210.937E-03     310.410E-03    -99.2915E-03     155.469E-03
            1204     845.475E-06     124.341E-03    -65.0397E+06    -91.2246E+06    -63.5925E+06    -721.392E+03    -62.0623E-03     124.121E-03    -62.0584E-03     22.3826E-03    -62.1673E-03     123.849E-03    -62.1498E-03     22.3578E-03
            1205     1.69159E-03     124.360E-03    -70.1811E+06    -99.8008E+06    -67.3114E+06     660.596E+03    -61.7914E-03     123.692E-03    -61.9005E-03     41.2929E-03    -61.9066E-03     123.393E-03    -61.9906E-03     41.2713E-03
            1206     2.53812E-03     124.391E-03    -74.2082E+06    -99.4690E+06    -67.0635E+06     3.26801E+06    -61.8000E-03     123.489E-03    -61.6892E-03     61.7194E-03    -61.9403E-03     123.202E-03    -61.7727E-03     61.7152E-03
            1207     3.38528E-03     124.436E-03    -76.9248E+06    -92.7386E+06    -60.3596E+06     6.55951E+06    -62.5521E-03     124.114E-03    -61.5616E-03     82.9818E-03    -62.7341E-03     123.864E-03    -61.6174E-03     82.9934E-03
            1208     4.23172E-03     124.497E-03    -76.5275E+06    -92.2846E+06    -51.5977E+06     4.92712E+06    -64.3491E-03     125.950E-03    -61.6011E-03     104.976E-03    -64.5607E-03     125.709E-03    -61.6143E-03     104.918E-03
            1209     5.07733E-03     124.576E-03    -72.5186E+06    -93.4158E+06    -43.5841E+06    -1.07780E+06    -67.3245E-03     129.167E-03    -61.8426E-03     127.663E-03    -67.5631E-03     128.941E-03    -61.8199E-03     127.442E-03
            1210     5.92102E-03     124.674E-03    -67.3135E+06    -85.5262E+06    -34.9640E+06    -5.76487E+06    -71.6683E-03     133.992E-03    -62.3241E-03     150.910E-03    -71.9742E-03     133.856E-03    -62.2773E-03     150.486E-03
            1211     6.76177E-03     124.794E-03    -59.1609E+06    -78.0476E+06    -26.0995E+06    -9.11399E+06    -77.5196E-03     140.613E-03    -63.0935E-03     174.737E-03    -77.9314E-03     140.613E-03    -63.0251E-03     174.042E-03
            1212     7.59917E-03     124.937E-03    -47.9869E+06    -63.7954E+06    -13.3962E+06    -15.1944E+06    -84.8998E-03     149.086E-03    -64.1866E-03     199.106E-03    -85.5040E-03     149.333E-03    -64.0915E-03     197.976E-03
            1213     8.43123E-03     125.106E-03    -40.6015E+06    -48.3064E+06    -2.45720E+06    -23.0011E+06    -93.8769E-03     159.493E-03    -65.6163E-03     223.856E-03    -94.8211E-03     160.130E-03    -65.4997E-03     222.083E-03
            1214     9.25824E-03     125.302E-03    -37.5589E+06    -44.7313E+06     2.28386E+06    -26.2420E+06    -104.540E-03     171.948E-03    -67.4085E-03     247.982E-03    -106.003E-03     173.115E-03    -67.2778E-03     245.364E-03
            1215     10.0781E-03     125.524E-03    -31.1725E+06    -40.8997E+06     8.26300E+06    -26.1822E+06    -116.917E-03     186.525E-03    -69.6087E-03     270.333E-03    -119.149E-03     188.481E-03    -69.4629E-03     266.539E-03
            1216     10.8892E-03     125.775E-03    -21.4560E+06    -23.5813E+06     19.0382E+06    -28.9955E+06    -131.398E-03     203.664E-03    -72.2655E-03     292.134E-03    -134.839E-03     206.894E-03    -72.1050E-03     286.535E-03
            1217     11.6902E-03     126.055E-03    -14.5896E+06     1.64521E+06     29.0247E+06    -29.7356E+06    -148.537E-03     223.966E-03    -75.4295E-03     315.659E-03    -153.915E-03     229.222E-03    -75.2656E-03     307.350E-03
            1218     12.4781E-03     126.373E-03    -11.1460E+06     29.4650E+06     40.1013E+06    -23.7696E+06    -165.807E-03     244.930E-03    -79.1222E-03     338.012E-03    -174.008E-03     253.086E-03    -78.9482E-03     326.124E-03
            1219     13.2532E-03     126.723E-03    -7.70171E+06     82.3024E+06     58.6105E+06    -18.5072E+06    -180.680E-03     263.960E-03    -83.2806E-03     346.444E-03    -192.023E-03     275.408E-03    -83.0957E-03     330.666E-03
            1220     14.0192E-03     127.075E-03    -6.05809E+06     104.564E+06     74.5713E+06    -20.1627E+06    -194.886E-03     282.875E-03    -87.9896E-03     320.064E-03    -207.519E-03     295.655E-03    -87.7596E-03     301.475E-03
            1221     14.7645E-03     127.389E-03    -4.82442E+06     72.4085E+06     71.4120E+06    -20.1703E+06    -209.434E-03     302.688E-03    -93.2536E-03     282.748E-03    -222.100E-03     315.399E-03    -92.9945E-03     261.853E-03
            1222     15.4940E-03     127.682E-03    -338.019E+03     18.6333E+06     46.4315E+06    -11.0193E+06    -217.820E-03     316.622E-03    -98.8016E-03     186.797E-03    -225.879E-03     324.619E-03    -98.5959E-03     169.068E-03
            1223     853.568E-06     125.406E-03    -95.6021E+06    -96.0833E+06    -91.7827E+06     5.57773E+06    -53.2978E-03     106.289E-03    -52.9911E-03     22.4441E-03    -53.5062E-03     106.077E-03    -53.1721E-03     22.5192E-03
            1224     1.70680E-03     125.423E-03    -95.3652E+06    -101.562E+06    -88.0599E+06     5.55880E+06    -53.6637E-03     106.836E-03    -53.1719E-03     41.3399E-03    -53.8680E-03     106.591E-03    -53.3267E-03     41.4135E-03
            1225     2.56024E-03     125.455E-03    -91.8754E+06    -103.235E+06    -81.1743E+06     4.94536E+06    -54.7633E-03     108.119E-03    -53.3553E-03     61.9472E-03    -54.9579E-03     107.852E-03    -53.4782E-03     62.0081E-03
            1226     3.41249E-03     125.501E-03    -83.6535E+06    -97.2245E+06    -70.3505E+06     5.77934E+06    -56.7044E-03     110.393E-03    -53.6882E-03     83.4023E-03    -56.8862E-03     110.133E-03    -53.7777E-03     83.4583E-03
            1227     4.26380E-03     125.565E-03    -74.1637E+06    -86.0780E+06    -57.3811E+06     3.14971E+06    -59.6000E-03     113.805E-03    -54.2049E-03     105.700E-03    -59.7817E-03     113.582E-03    -54.2595E-03     105.685E-03
            1228     5.11302E-03     125.647E-03    -65.8120E+06    -84.2667E+06    -44.0713E+06    -3.74731E+06    -63.7370E-03     118.694E-03    -54.9566E-03     128.911E-03    -63.9289E-03     118.479E-03    -54.9593E-03     128.736E-03
            1229     5.95954E-03     125.752E-03    -56.5934E+06    -80.2062E+06    -31.8522E+06    -8.88687E+06    -69.2462E-03     125.201E-03    -55.9551E-03     153.020E-03    -69.4766E-03     125.038E-03    -55.9160E-03     152.651E-03
            1230     6.80241E-03     125.878E-03    -47.7051E+06    -68.8260E+06    -20.8210E+06    -14.9363E+06    -76.1125E-03     133.330E-03    -57.2178E-03     177.944E-03    -76.4440E-03     133.309E-03    -57.1529E-03     177.288E-03
            1231     7.64072E-03     126.031E-03    -40.4926E+06    -52.9852E+06    -9.61093E+06    -21.3555E+06    -84.4194E-03     143.191E-03    -58.7715E-03     203.673E-03    -84.9495E-03     143.418E-03    -58.6840E-03     202.598E-03
            1232     8.47437E-03     126.210E-03    -34.7197E+06    -40.7881E+06     1.76366E+06    -22.6492E+06    -94.5145E-03     155.170E-03    -60.6558E-03     229.723E-03    -95.3772E-03     155.762E-03    -60.5375E-03     228.100E-03
            1233     9.30111E-03     126.418E-03    -29.6010E+06    -38.0553E+06     8.98831E+06    -24.5837E+06    -106.548E-03     169.451E-03    -62.9032E-03     255.146E-03    -107.918E-03     170.558E-03    -62.7601E-03     252.682E-03
            1234     10.1196E-03     126.657E-03    -24.4762E+06    -33.9220E+06     13.2783E+06    -30.6779E+06    -120.415E-03     185.965E-03    -65.5496E-03     279.189E-03    -122.563E-03     187.871E-03    -65.3985E-03     275.426E-03
            1235     10.9292E-03     126.924E-03    -20.1720E+06    -17.0169E+06     21.0864E+06    -33.8483E+06    -136.718E-03     205.385E-03    -68.6669E-03     303.136E-03    -140.112E-03     208.592E-03    -68.5075E-03     297.461E-03
            1236     11.7273E-03     127.228E-03    -17.7649E+06    -2.46818E+06     27.6187E+06    -30.5561E+06    -154.893E-03     227.184E-03    -72.2901E-03     328.938E-03    -160.246E-03     232.392E-03    -72.1227E-03     320.486E-03
            1237     12.5120E-03     127.571E-03    -15.3209E+06     22.6757E+06     37.7415E+06    -25.3815E+06    -172.526E-03     248.912E-03    -76.3863E-03     352.475E-03    -180.741E-03     257.052E-03    -76.2082E-03     340.257E-03
            1238     13.2886E-03     127.940E-03    -12.1181E+06     78.9225E+06     55.9298E+06    -19.7622E+06    -190.344E-03     271.300E-03    -80.9554E-03     363.567E-03    -201.964E-03     283.007E-03    -80.7727E-03     346.762E-03
            1239     14.0444E-03     128.329E-03    -9.61893E+06     112.966E+06     77.2243E+06    -16.6558E+06    -207.447E-03     293.631E-03    -86.1840E-03     341.095E-03    -221.003E-03     307.345E-03    -85.9477E-03     320.341E-03
            1240     14.7826E-03     128.671E-03    -8.65273E+06      74.591E+06     77.1339E+06    -18.1732E+06    -221.290E-03     313.304E-03    -92.0138E-03     300.524E-03    -234.875E-03     326.912E-03    -91.7237E-03     277.386E-03
            1241     15.5105E-03     128.991E-03    -6.63526E+06    -5.41552E+06     49.4333E+06    -15.1236E+06    -230.956E-03     329.097E-03    -98.1412E-03     200.605E-03    -239.438E-03     337.405E-03    -97.8766E-03     181.156E-03
            1242     860.746E-06     126.450E-03    -143.558E+06    -102.374E+06    -142.607E+06     2.21170E+06    -45.3636E-03     90.1681E-03    -44.8045E-03     21.6838E-03    -45.7272E-03     90.0685E-03    -45.1610E-03     21.7222E-03
            1243     1.72115E-03     126.470E-03    -130.333E+06    -99.7726E+06    -124.579E+06    -1.30795E+06    -46.6389E-03     91.9756E-03    -45.3366E-03     40.2146E-03    -46.9648E-03     91.8423E-03    -45.6259E-03     40.2135E-03
            1244     2.57970E-03     126.503E-03    -114.384E+06    -100.871E+06    -106.751E+06    -5.74425E+06    -48.8805E-03     94.8695E-03    -45.9890E-03     60.7517E-03    -49.1492E-03     94.6809E-03    -46.2106E-03     60.6950E-03
            1245     3.43679E-03     126.553E-03    -97.3330E+06    -96.6542E+06    -90.2863E+06    -9.31576E+06    -51.9228E-03     98.7462E-03    -46.8234E-03     82.2938E-03    -52.1373E-03     98.5320E-03    -46.9935E-03     82.1824E-03
            1246     4.29156E-03     126.620E-03    -79.8490E+06    -82.3746E+06    -70.4162E+06    -10.3638E+06    -55.8738E-03     103.724E-03    -47.8503E-03     104.779E-03    -56.0586E-03     103.536E-03    -47.9672E-03     104.627E-03
            1247     5.14368E-03     126.709E-03    -65.0503E+06    -76.0046E+06    -50.5352E+06    -12.8699E+06    -60.9768E-03     110.078E-03    -49.1015E-03     128.406E-03    -61.1489E-03     109.896E-03    -49.1497E-03     128.165E-03
            1248     5.99222E-03     126.819E-03    -54.1534E+06    -74.1028E+06    -36.0361E+06    -17.4241E+06    -67.2924E-03     117.861E-03    -50.5691E-03     153.142E-03    -67.4850E-03     117.704E-03    -50.5633E-03     152.734E-03
            1249     6.83680E-03     126.955E-03    -44.6357E+06    -57.9941E+06    -21.3990E+06    -21.6057E+06    -74.9004E-03     127.166E-03    -52.2657E-03     178.876E-03    -75.1890E-03     127.153E-03    -52.2239E-03     178.229E-03
            1250     7.67664E-03     127.116E-03    -37.0518E+06    -45.5973E+06    -6.92878E+06    -24.9802E+06    -84.1689E-03     138.414E-03    -54.2446E-03     205.475E-03    -84.6376E-03     138.611E-03    -54.1594E-03     204.472E-03
            1251     8.51029E-03     127.308E-03    -29.6715E+06    -39.7946E+06     3.86580E+06    -25.6511E+06    -95.3499E-03     151.883E-03    -56.5335E-03     232.678E-03    -96.1098E-03     152.388E-03    -56.4134E-03     231.161E-03
            1252     9.33658E-03     127.530E-03    -22.3033E+06    -31.0584E+06     13.0161E+06    -26.2196E+06    -108.438E-03     167.610E-03    -59.1725E-03     259.557E-03    -109.676E-03     168.625E-03    -59.0300E-03     257.241E-03
            1253     10.1549E-03     127.784E-03    -18.9021E+06    -22.3834E+06     20.5199E+06    -28.6082E+06    -123.851E-03     186.081E-03    -62.2295E-03     285.406E-03    -125.860E-03     187.888E-03    -62.0671E-03     281.829E-03
            1254     10.9623E-03     128.073E-03    -19.1871E+06    -10.9868E+06     26.0609E+06    -30.4792E+06    -141.590E-03     207.346E-03    -65.7564E-03     311.769E-03    -144.835E-03     210.415E-03    -65.5823E-03     306.251E-03
            1255     11.7569E-03     128.400E-03    -18.1805E+06    -4.85140E+06     29.5230E+06    -29.2610E+06    -159.981E-03     229.728E-03    -69.7474E-03     338.304E-03    -165.095E-03     234.682E-03    -69.5664E-03     329.993E-03
            1256     12.5440E-03     128.762E-03    -15.1388E+06     17.9955E+06     37.9895E+06    -24.9697E+06    -179.040E-03     253.222E-03    -74.1814E-03     361.722E-03    -186.924E-03     261.015E-03    -73.9956E-03     349.462E-03
            1257     13.3125E-03     129.163E-03    -11.4121E+06     74.3759E+06     55.1061E+06    -20.2000E+06    -199.436E-03     278.559E-03    -79.1235E-03     376.406E-03    -210.906E-03     290.106E-03    -78.9393E-03     358.920E-03
            1258     14.0665E-03     129.585E-03    -3.31353E+06     110.567E+06     81.1548E+06    -15.4063E+06    -217.447E-03     302.206E-03    -84.7590E-03     360.189E-03    -231.518E-03     316.438E-03    -84.5087E-03     337.735E-03
            1259     14.7998E-03     129.968E-03     2.57610E+06     78.3230E+06     92.4747E+06    -10.0307E+06    -232.304E-03     323.355E-03    -91.0508E-03     317.497E-03    -246.900E-03     337.987E-03    -90.7057E-03     291.871E-03
            1260     15.5157E-03     130.303E-03     3.47098E+06    -14.4294E+06     64.7774E+06    -6.06819E+06    -241.942E-03     339.607E-03    -97.6655E-03     215.886E-03    -251.195E-03     348.646E-03    -97.3257E-03     194.265E-03
            1261     866.072E-06     127.480E-03    -155.574E+06    -95.3147E+06    -156.057E+06    -7.97884E+06    -39.9771E-03     79.4349E-03    -39.4579E-03     19.7552E-03    -40.3903E-03     79.4092E-03    -39.8744E-03     19.6597E-03
            1262     1.73061E-03     127.502E-03    -147.683E+06    -89.1472E+06    -145.188E+06    -14.2271E+06    -41.7042E-03     81.7298E-03    -40.0256E-03     37.1840E-03    -42.1014E-03     81.7062E-03    -40.4081E-03     37.0136E-03
            1263     2.59379E-03     127.539E-03    -136.832E+06    -88.7042E+06    -130.892E+06    -21.3605E+06    -44.4623E-03     85.3377E-03    -40.8754E-03     56.8620E-03    -44.8250E-03     85.2785E-03    -41.2028E-03     56.6031E-03
            1264     3.45431E-03     127.593E-03    -124.156E+06    -87.5466E+06    -116.090E+06    -27.6978E+06    -48.1570E-03     90.1287E-03    -41.9717E-03     78.0387E-03    -48.4795E-03     90.0359E-03    -42.2452E-03     77.6942E-03
            1265     4.31193E-03     127.666E-03    -108.896E+06    -76.8308E+06    -99.5133E+06    -31.9376E+06    -52.8473E-03     96.1355E-03    -43.2882E-03     100.740E-03    -53.1382E-03     96.0556E-03    -43.5165E-03     100.323E-03
            1266     5.16606E-03     127.761E-03    -89.9190E+06    -70.6568E+06    -79.6109E+06    -33.8414E+06    -58.6638E-03     103.514E-03    -44.8499E-03     124.796E-03    -58.9143E-03     103.425E-03    -45.0152E-03     124.313E-03
            1267     6.01632E-03     127.879E-03    -70.1221E+06    -68.2737E+06    -55.3411E+06    -34.8480E+06    -65.7058E-03     112.379E-03    -46.6735E-03     149.920E-03    -65.9366E-03     112.280E-03    -46.7495E-03     149.337E-03
            1268     6.86195E-03     128.023E-03    -53.3671E+06    -53.2149E+06    -29.8128E+06    -35.1533E+06    -74.0934E-03     122.835E-03    -48.7413E-03     175.919E-03    -74.3825E-03     122.833E-03    -48.7358E-03     175.172E-03
            1269     7.70220E-03     128.196E-03    -40.3336E+06    -44.3189E+06    -10.3423E+06    -32.2510E+06    -84.1496E-03     135.222E-03    -51.0720E-03     202.968E-03    -84.5681E-03     135.372E-03    -51.0010E-03     201.981E-03
            1270     8.53554E-03     128.399E-03    -33.0210E+06    -37.9497E+06     2.16374E+06    -30.4942E+06    -96.0564E-03     149.750E-03    -53.6935E-03     231.039E-03    -96.7297E-03     150.168E-03    -53.5798E-03     229.618E-03
            1271     9.36199E-03     128.637E-03    -29.3294E+06    -27.7247E+06     13.2575E+06    -30.5456E+06    -110.155E-03     166.826E-03    -56.6709E-03     258.858E-03    -111.271E-03     167.705E-03    -56.5219E-03     256.703E-03
            1272     10.1786E-03     128.908E-03    -24.9679E+06    -18.0169E+06     23.4680E+06    -29.5621E+06    -126.636E-03     186.706E-03    -60.0698E-03     286.085E-03    -128.447E-03     188.302E-03    -59.8901E-03     282.774E-03
            1273     10.9839E-03     129.218E-03    -20.1281E+06    -6.82730E+06     30.8333E+06    -28.4996E+06    -144.886E-03     208.795E-03    -63.9092E-03     313.486E-03    -147.795E-03     211.526E-03    -63.7160E-03     308.360E-03
            1274     11.7799E-03     129.566E-03    -15.8526E+06    -3.47406E+06     36.7004E+06    -28.0838E+06    -164.509E-03     232.724E-03    -68.2152E-03     339.453E-03    -169.104E-03     237.153E-03    -68.0037E-03     331.559E-03
            1275     12.5587E-03     129.953E-03    -10.5069E+06     13.1392E+06     45.4721E+06    -25.8916E+06    -185.346E-03     258.333E-03    -72.9877E-03     363.993E-03    -192.508E-03     265.383E-03    -72.7641E-03     352.051E-03
            1276     13.3270E-03     130.383E-03    -3.58743E+06     70.0826E+06     62.2887E+06    -19.4063E+06    -205.800E-03     284.018E-03    -78.2180E-03     383.029E-03    -216.503E-03     294.789E-03    -78.0030E-03     365.721E-03
            1277     14.0778E-03     130.841E-03    -428.324E+03     106.196E+06     84.9757E+06    -15.0084E+06    -223.048E-03     307.075E-03    -84.0271E-03     374.613E-03    -236.882E-03     321.054E-03    -83.7555E-03     351.741E-03
            1278     14.8105E-03     131.265E-03     2.58462E+06     60.6901E+06     94.0398E+06    -7.47613E+06    -238.753E-03     329.223E-03    -90.4696E-03     339.496E-03    -254.337E-03     344.776E-03    -90.0911E-03     311.711E-03
            1279     15.5212E-03     131.643E-03     2.43598E+06    -24.2281E+06     62.1549E+06     1.24080E+06    -249.347E-03     346.610E-03    -97.2635E-03     236.670E-03    -259.793E-03     356.813E-03    -96.9211E-03     212.473E-03
            1280     866.912E-06     128.502E-03    -120.662E+06    -75.7069E+06    -118.587E+06    -11.2942E+06    -38.6199E-03     76.7742E-03    -38.1543E-03     16.8332E-03    -38.9414E-03     76.7427E-03    -38.4625E-03     16.6870E-03
            1281     1.73357E-03     128.527E-03    -119.004E+06    -71.3789E+06    -114.741E+06    -18.4723E+06    -40.1465E-03     78.8145E-03    -38.6680E-03     31.8227E-03    -40.4718E-03     78.7964E-03    -38.9657E-03     31.5836E-03
            1282     2.59823E-03     128.567E-03    -116.655E+06    -69.9844E+06    -108.442E+06    -26.4202E+06    -42.7044E-03     82.1474E-03    -39.4430E-03     49.1824E-03    -43.0294E-03     82.1242E-03    -39.7146E-03     48.8391E-03
            1283     3.46072E-03     128.626E-03    -111.751E+06    -69.5841E+06    -100.558E+06    -35.6778E+06    -46.2645E-03     86.7530E-03    -40.4885E-03     68.5667E-03    -46.5785E-03     86.7149E-03    -40.7283E-03     68.0987E-03
            1284     4.32028E-03     128.704E-03    -104.138E+06    -62.4574E+06    -92.5034E+06    -44.0389E+06    -50.9200E-03     92.6972E-03    -41.7772E-03     90.2417E-03    -51.2223E-03     92.6767E-03    -41.9981E-03     89.6532E-03
            1285     5.17606E-03     128.807E-03    -96.3659E+06    -60.8626E+06    -84.2875E+06    -49.7075E+06    -56.8932E-03     100.234E-03    -43.3405E-03     113.857E-03    -57.1831E-03     100.211E-03    -43.5340E-03     113.166E-03
            1286     6.02727E-03     128.932E-03    -87.1190E+06    -60.9025E+06    -68.5894E+06    -53.2493E+06    -64.2928E-03     109.520E-03    -45.2274E-03     138.977E-03    -64.5888E-03     109.491E-03    -45.3557E-03     138.174E-03
            1287     6.87307E-03     129.087E-03    -74.4162E+06    -51.3134E+06    -47.8046E+06    -53.5255E+06    -73.2010E-03     120.623E-03    -47.4218E-03     165.359E-03    -73.5395E-03     120.655E-03    -47.4785E-03     164.427E-03
            1288     7.71246E-03     129.269E-03    -59.3764E+06    -49.1350E+06    -27.8014E+06    -50.0084E+06    -83.8367E-03     133.774E-03    -49.9368E-03     192.925E-03    -84.2488E-03     133.883E-03    -49.9185E-03     191.816E-03
            1289     8.54580E-03     129.486E-03    -42.6023E+06    -42.4828E+06    -4.43735E+06    -42.2299E+06    -96.5531E-03     149.364E-03    -52.8113E-03     221.100E-03    -97.1324E-03     149.658E-03    -52.7101E-03     219.704E-03
            1290     9.37002E-03     129.737E-03    -28.7172E+06    -29.4818E+06     16.5127E+06    -34.1190E+06    -111.421E-03     167.488E-03    -56.0662E-03     249.125E-03    -112.327E-03     168.143E-03    -55.8993E-03     247.193E-03
            1291     10.1843E-03     130.028E-03    -21.6583E+06    -18.2282E+06     29.4698E+06    -28.9624E+06    -128.202E-03     187.924E-03    -59.7219E-03     276.740E-03    -129.664E-03     189.164E-03    -59.5167E-03     273.849E-03
            1292     10.9892E-03     130.356E-03    -19.2418E+06    -4.53057E+06     38.9480E+06    -26.3855E+06    -146.940E-03     210.753E-03    -63.8133E-03     303.564E-03    -149.311E-03     212.933E-03    -63.5841E-03     299.082E-03
            1293     11.7792E-03     130.728E-03    -16.7116E+06     3.67215E+06     47.9726E+06    -28.8505E+06    -167.308E-03     235.687E-03    -68.3793E-03     329.413E-03    -171.090E-03     239.292E-03    -68.1205E-03     322.371E-03
            1294     12.5589E-03     131.140E-03    -9.79545E+06     10.5812E+06     53.5834E+06    -32.9643E+06    -188.248E-03     261.622E-03    -73.3747E-03     355.035E-03    -194.169E-03     267.400E-03    -73.1079E-03     344.193E-03
            1295     13.3220E-03     131.597E-03    -1.10147E+06     44.6467E+06     62.2949E+06    -22.7474E+06    -207.370E-03     286.087E-03    -78.7171E-03     377.168E-03    -216.365E-03     295.066E-03    -78.4687E-03     361.425E-03
            1296     14.0743E-03     132.084E-03    -4.08560E+06     96.2570E+06     86.3240E+06      73.427E+03    -220.953E-03     305.352E-03    -84.3991E-03     380.029E-03    -233.228E-03     317.716E-03    -84.1011E-03     359.322E-03
            1297     14.8108E-03     132.555E-03    -19.6387E+06     72.8719E+06     97.4450E+06    -459.300E+03    -235.475E-03     325.960E-03    -90.4851E-03     364.048E-03    -251.076E-03     341.486E-03    -90.0751E-03     337.020E-03
            1298     15.5314E-03     132.977E-03    -16.1680E+06    -31.7399E+06     65.3824E+06    -12.4631E+06    -251.441E-03     348.476E-03    -97.0346E-03     265.657E-03    -262.763E-03     359.458E-03    -96.6382E-03     240.352E-03
            1299     864.685E-06     129.527E-03    -78.5361E+06    -53.6025E+06    -76.1730E+06    -9.76154E+06    -41.8815E-03     83.3172E-03    -41.4357E-03     12.9313E-03    -42.0881E-03     83.2731E-03    -41.6250E-03     12.7927E-03
            1300     1.72812E-03     129.552E-03    -76.5634E+06    -52.3220E+06    -71.0131E+06    -17.4103E+06    -43.1551E-03     85.1146E-03    -41.9594E-03     24.1584E-03    -43.3631E-03     85.0678E-03    -42.1276E-03     23.9087E-03
            1301     2.59070E-03     129.596E-03    -73.0213E+06    -49.7846E+06    -65.9349E+06    -25.0922E+06    -45.1536E-03     87.8010E-03    -42.6473E-03     37.4860E-03    -45.3580E-03     87.7576E-03    -42.7989E-03     37.1231E-03
            1302     3.45139E-03     129.657E-03    -70.2615E+06    -47.4115E+06    -59.8018E+06    -34.1977E+06    -48.0434E-03     91.6055E-03    -43.5621E-03     52.8065E-03    -48.2513E-03     91.5664E-03    -43.6905E-03     52.3087E-03
            1303     4.30952E-03     129.742E-03    -69.2132E+06    -43.7020E+06    -52.7213E+06    -42.3600E+06    -51.9088E-03     96.6353E-03    -44.7265E-03     70.4930E-03    -52.1351E-03     96.6111E-03    -44.8264E-03     69.8672E-03
            1304     5.16462E-03     129.848E-03    -69.1910E+06    -46.1644E+06    -49.8784E+06    -46.8434E+06    -56.9221E-03     103.059E-03    -46.1370E-03     90.7568E-03    -57.1617E-03     103.032E-03    -46.2192E-03     90.0414E-03
            1305     6.01518E-03     129.983E-03    -70.2082E+06    -44.9751E+06    -47.8826E+06    -52.3962E+06    -63.3499E-03     111.165E-03    -47.8152E-03     113.839E-03    -63.6206E-03     111.165E-03    -47.8876E-03     113.004E-03
            1306     6.86060E-03     130.145E-03    -69.5226E+06    -42.0563E+06    -42.6645E+06    -58.7637E+06    -71.5973E-03     121.414E-03    -49.8168E-03     139.410E-03    -71.9160E-03     121.461E-03    -49.8683E-03     138.409E-03
            1307     7.70003E-03     130.340E-03    -64.1289E+06    -46.3392E+06    -31.8190E+06    -61.7496E+06    -82.2279E-03     134.452E-03    -52.2241E-03     166.836E-03    -82.6045E-03     134.530E-03    -52.2230E-03     165.637E-03
            1308     8.53045E-03     130.568E-03    -53.8586E+06    -50.3817E+06    -16.5313E+06    -60.2151E+06    -95.2441E-03     150.324E-03    -55.0798E-03     195.447E-03    -95.7201E-03     150.480E-03    -55.0114E-03     193.989E-03
            1309     9.35194E-03     130.835E-03    -40.4608E+06    -44.6839E+06     2.02221E+06    -50.0039E+06    -110.287E-03     168.680E-03    -58.3930E-03     223.838E-03    -110.961E-03     169.049E-03    -58.2594E-03     222.036E-03
            1310     10.1643E-03     131.140E-03    -26.7794E+06    -28.8237E+06     27.2451E+06    -37.5396E+06    -127.437E-03     189.641E-03    -62.2033E-03     250.974E-03    -128.486E-03     190.417E-03    -61.9864E-03     248.531E-03
            1311     10.9634E-03     131.489E-03    -14.3503E+06    -10.3779E+06     50.6800E+06    -27.0690E+06    -146.371E-03     212.870E-03    -66.4988E-03     276.707E-03    -148.034E-03     214.303E-03    -66.2095E-03     273.111E-03
            1312     11.7522E-03     131.879E-03    -6.40118E+06     13.8598E+06     64.1965E+06    -22.6458E+06    -165.938E-03     237.149E-03    -71.2103E-03     301.335E-03    -168.592E-03     239.648E-03    -70.9002E-03     295.798E-03
            1313     12.5255E-03     132.315E-03    -7.66770E+06     23.4315E+06     66.1816E+06    -26.4285E+06    -185.110E-03     261.392E-03    -76.2818E-03     325.958E-03    -189.315E-03     265.468E-03    -75.9737E-03     317.386E-03
            1314     13.2898E-03     132.794E-03    -13.6539E+06     17.7722E+06     67.0943E+06    -25.0795E+06    -199.755E-03     281.314E-03    -81.5589E-03     349.427E-03    -206.175E-03     287.561E-03    -81.2294E-03     337.069E-03
            1315     14.0443E-03     133.305E-03    -5.94797E+06     43.8047E+06     87.4679E+06    -1.06930E+06    -206.307E-03     293.055E-03    -86.7475E-03     362.075E-03    -215.269E-03     301.905E-03    -86.3650E-03     346.246E-03
            1316     14.8017E-03     133.803E-03     20.1139E+06     102.883E+06     135.686E+06     25.2090E+06    -218.724E-03     310.666E-03    -91.9417E-03     370.866E-03    -231.793E-03     323.796E-03    -91.4417E-03     348.894E-03
            1317     15.5320E-03     134.306E-03     25.8063E+06     13.6535E+06     104.904E+06     18.6776E+06    -238.057E-03     335.580E-03    -97.5225E-03     293.602E-03    -249.197E-03     346.583E-03    -97.0552E-03     270.138E-03
            1318     857.379E-06     130.562E-03    -32.6734E+06    -35.2416E+06    -31.0495E+06    -6.62382E+06    -50.3474E-03     100.472E-03    -50.1250E-03     7.60218E-03    -50.4212E-03     100.384E-03    -50.1818E-03     7.48498E-03
            1319     1.71401E-03     130.590E-03    -34.8397E+06    -33.1595E+06    -32.1663E+06    -14.0086E+06    -51.5574E-03     102.136E-03    -50.5789E-03     14.0721E-03    -51.6463E-03     102.065E-03    -50.6411E-03     13.8277E-03
            1320     2.56917E-03     130.634E-03    -36.1750E+06    -30.3920E+06    -30.0346E+06    -22.5414E+06    -53.3266E-03     104.640E-03    -51.3138E-03     21.6679E-03    -53.4344E-03     104.587E-03    -51.3675E-03     21.2769E-03
            1321     3.42269E-03     130.700E-03    -36.1430E+06    -28.1471E+06    -23.2571E+06    -29.2465E+06    -55.5067E-03     107.790E-03    -52.2830E-03     30.4978E-03    -55.6350E-03     107.744E-03    -52.3061E-03     29.9778E-03
            1322     4.27384E-03     130.785E-03    -37.0826E+06    -27.8284E+06    -16.6181E+06    -33.3671E+06    -58.1140E-03     111.551E-03    -53.4374E-03     41.4617E-03    -58.2678E-03     111.511E-03    -53.4263E-03     40.8419E-03
            1323     5.12188E-03     130.897E-03    -38.0113E+06    -31.2214E+06    -13.7813E+06    -37.5682E+06    -61.3094E-03     116.061E-03    -54.7518E-03     55.2101E-03    -61.4821E-03     116.016E-03    -54.7203E-03     54.4861E-03
            1324     5.96747E-03     131.034E-03    -37.1427E+06    -27.8940E+06    -11.1373E+06    -42.2781E+06    -65.5018E-03     121.753E-03    -56.2509E-03     72.0017E-03    -65.6991E-03     121.740E-03    -56.2123E-03     71.1615E-03
            1325     6.80916E-03     131.204E-03    -37.0317E+06    -23.9405E+06    -7.39263E+06    -47.9384E+06    -71.4147E-03     129.440E-03    -58.0250E-03     91.8134E-03    -71.6516E-03     129.471E-03    -57.9735E-03     90.8259E-03
            1326     7.64459E-03     131.405E-03    -38.6676E+06    -32.0810E+06    -6.09507E+06    -53.4703E+06    -79.5504E-03     139.717E-03    -60.1662E-03     114.878E-03    -79.8296E-03     139.754E-03    -60.0940E-03     113.713E-03
            1327     8.47287E-03     131.646E-03    -43.4204E+06    -43.0564E+06    -8.43378E+06    -55.9590E+06    -90.0689E-03     152.794E-03    -62.7252E-03     140.688E-03    -90.4211E-03     152.858E-03    -62.6420E-03     139.330E-03
            1328     9.29233E-03     131.923E-03    -47.5793E+06    -51.3326E+06    -7.23627E+06    -56.2310E+06    -103.346E-03     169.129E-03    -65.7830E-03     167.766E-03    -103.821E-03     169.271E-03    -65.6758E-03     166.134E-03
            1329     10.0991E-03     132.246E-03    -44.0131E+06    -42.3991E+06     10.0954E+06    -53.2931E+06    -119.290E-03     188.712E-03    -69.4228E-03     194.826E-03    -119.975E-03     189.062E-03    -69.2471E-03     192.766E-03
            1330     10.8948E-03     132.609E-03    -32.5598E+06    -29.4668E+06     31.4143E+06    -47.7146E+06    -136.955E-03     210.560E-03    -73.6054E-03     220.803E-03    -137.947E-03     211.244E-03    -73.3583E-03     218.043E-03
            1331     11.6755E-03     133.019E-03    -19.9832E+06    -6.47454E+06     54.6992E+06    -34.9300E+06    -155.208E-03     233.472E-03    -78.2636E-03     245.116E-03    -156.715E-03     234.729E-03    -77.9517E-03     241.287E-03
            1332     12.4471E-03     133.470E-03    -10.8638E+06     22.9705E+06     82.0755E+06    -19.3371E+06    -171.039E-03     254.292E-03    -83.2533E-03     269.009E-03    -173.409E-03     256.471E-03    -82.8605E-03     263.525E-03
            1333     13.2064E-03     133.965E-03    -8.97544E+06     18.7325E+06     89.0415E+06    -8.83767E+06    -179.121E-03     267.267E-03    -88.1462E-03     291.325E-03    -182.675E-03     270.601E-03    -87.7152E-03     283.729E-03
            1334     13.9724E-03     134.476E-03    -4.30440E+06     16.6653E+06     85.8983E+06    -16.0028E+06    -178.309E-03     270.794E-03    -92.4853E-03     308.020E-03    -183.319E-03     275.605E-03    -92.0737E-03     298.138E-03
            1335     14.7369E-03     134.997E-03    -67.6565E+03     41.0536E+06     95.1046E+06    -10.4850E+06    -183.604E-03     279.869E-03    -96.2659E-03     341.898E-03    -191.764E-03     287.917E-03    -95.8498E-03     327.934E-03
            1336     15.5010E-03     135.559E-03    -7.54622E+06     14.2544E+06     74.4681E+06     19.1004E+06    -194.965E-03     294.850E-03    -99.8848E-03     312.912E-03    -203.661E-03     303.387E-03    -99.5222E-03     296.518E-03
            1337     844.992E-06     131.623E-03    -630.087E+03    -21.6986E+06    -264.832E+03    -3.59199E+06    -65.1929E-03     130.204E-03    -65.0114E-03     1.30103E-03    -65.1789E-03     130.084E-03    -64.9804E-03     1.19670E-03
            1338     1.68943E-03     131.651E-03    -1.35600E+06    -16.7862E+06     3.02402E+06    -9.82471E+06    -66.8131E-03     132.515E-03    -65.7018E-03     651.616E-06    -66.8176E-03     132.414E-03    -65.6604E-03     406.629E-06
            1339     2.53163E-03     131.698E-03    -1.32509E+06    -12.6704E+06     9.87812E+06    -16.3782E+06    -68.2959E-03     135.036E-03    -66.7398E-03     155.762E-06    -68.3181E-03     134.947E-03    -66.6702E-03    -244.891E-06
            1340     3.37111E-03     131.764E-03    -1.92117E+06    -14.0298E+06     14.8178E+06    -20.9834E+06    -69.6820E-03     137.580E-03    -67.8981E-03     1.19418E-03    -69.7158E-03     137.482E-03    -67.8009E-03     658.983E-06
            1341     4.20841E-03     131.853E-03    -2.53810E+06    -16.6241E+06     17.8966E+06    -23.0526E+06    -71.1563E-03     140.324E-03    -69.1673E-03     3.89539E-03    -71.2006E-03     140.214E-03    -69.0500E-03     3.25586E-03
            1342     5.04387E-03     131.964E-03    -3.94651E+06    -16.9046E+06     22.2558E+06    -25.8422E+06    -72.8042E-03     143.398E-03    -70.5937E-03     8.21320E-03    -72.8712E-03     143.290E-03    -70.4522E-03     7.45311E-03
            1343     5.87569E-03     132.103E-03    -5.89282E+06    -13.5975E+06     24.2862E+06    -31.0750E+06    -74.7286E-03     146.923E-03    -72.1941E-03     14.5881E-03    -74.8268E-03     146.843E-03    -72.0444E-03     13.6714E-03
            1344     6.70351E-03     132.272E-03    -8.37725E+06    -10.6050E+06     24.1351E+06    -33.5625E+06    -77.2092E-03     151.225E-03    -74.0155E-03     23.8201E-03    -77.3432E-03     151.182E-03    -73.8673E-03     22.7795E-03
            1345     7.52678E-03     132.477E-03    -14.6656E+06    -15.1252E+06     23.9350E+06    -34.6342E+06    -80.5813E-03     156.715E-03    -76.1342E-03     36.0293E-03    -80.7653E-03     156.685E-03    -75.9713E-03     34.8764E-03
            1346     8.34473E-03     132.718E-03    -22.6141E+06    -29.4669E+06     19.7006E+06    -35.0870E+06    -85.3715E-03     163.966E-03    -78.5949E-03     51.1323E-03    -85.6017E-03     163.915E-03    -78.4209E-03     49.8586E-03
            1347     9.15460E-03     133.005E-03    -28.0456E+06    -34.6579E+06     17.1734E+06    -39.1582E+06    -91.9967E-03     173.460E-03    -81.4631E-03     69.0829E-03    -92.2885E-03     173.442E-03    -81.2863E-03     67.6135E-03
            1348     9.95659E-03     133.333E-03    -31.7160E+06    -35.6539E+06     18.3973E+06    -44.4666E+06    -100.532E-03     185.334E-03    -84.8018E-03     89.3808E-03    -100.908E-03     185.385E-03    -84.6121E-03     87.6488E-03
            1349     10.7461E-03     133.710E-03    -35.6843E+06    -28.7552E+06     25.4865E+06    -49.0123E+06    -110.770E-03     199.393E-03    -88.6233E-03     110.776E-03    -111.288E-03     199.583E-03    -88.4024E-03     108.682E-03
            1350     11.5263E-03     134.130E-03    -34.8577E+06    -29.1127E+06     36.7986E+06    -47.2633E+06    -121.506E-03     214.356E-03    -92.8502E-03     133.707E-03    -122.199E-03     214.701E-03    -92.5735E-03     131.188E-03
            1351     12.2906E-03     134.597E-03    -30.4265E+06    -13.9886E+06     59.3391E+06    -33.3471E+06    -129.248E-03     226.456E-03    -97.2080E-03     158.922E-03    -130.231E-03     227.106E-03    -96.8469E-03     155.990E-03
            1352     13.0569E-03     135.089E-03    -21.0259E+06     2.28529E+06     73.9825E+06    -16.5440E+06    -130.949E-03     232.119E-03    -101.170E-03     183.935E-03    -132.332E-03     233.228E-03    -100.773E-03     180.438E-03
            1353     13.8200E-03     135.604E-03    -17.5051E+06     35.7801E+06     84.4043E+06    -18.9879E+06    -126.844E-03     231.207E-03    -104.363E-03     204.306E-03    -128.856E-03     233.048E-03    -103.968E-03     199.906E-03
            1354     14.6027E-03     136.112E-03    -34.7204E+06     10.0864E+06     71.1901E+06    -15.8794E+06    -122.481E-03     229.166E-03    -106.685E-03     239.979E-03    -125.779E-03     232.165E-03    -106.293E-03     234.354E-03
            1355     15.3996E-03     136.688E-03    -32.4491E+06    -25.9247E+06     51.7970E+06    -3.74739E+06    -102.285E-03     209.915E-03    -107.629E-03     257.684E-03    -106.079E-03     213.395E-03    -107.286E-03     251.592E-03
            1356     827.591E-06     132.721E-03     28.1003E+06    -11.1626E+06     28.5427E+06    -4.71088E+06    -88.7895E-03     178.065E-03    -89.2759E-03    -10.7986E-03    -88.7114E-03     177.887E-03    -89.1577E-03    -10.9500E-03
            1357     1.65101E-03     132.755E-03     29.2468E+06    -5.51310E+06     35.3163E+06    -7.28994E+06    -89.4001E-03     179.087E-03    -89.6869E-03    -19.0889E-03    -89.3260E-03     178.929E-03    -89.5447E-03    -19.3382E-03
            1358     2.47261E-03     132.802E-03     29.5421E+06    -2.26795E+06     41.4844E+06    -8.40144E+06    -90.3330E-03     180.897E-03    -90.5640E-03    -27.1292E-03    -90.2670E-03     180.742E-03    -90.3962E-03    -27.4710E-03
            1359     3.29312E-03     132.870E-03     27.1720E+06    -3.61948E+06     45.6763E+06    -9.77790E+06    -91.5066E-03     183.300E-03    -91.7934E-03    -35.1797E-03    -91.4539E-03     183.128E-03    -91.5992E-03    -35.6238E-03
            1360     4.11091E-03     132.958E-03     23.8871E+06    -8.21797E+06     48.5617E+06    -11.6145E+06    -92.6107E-03     185.967E-03    -93.3568E-03    -43.5483E-03    -92.5680E-03     185.763E-03    -93.1367E-03    -44.1078E-03
            1361     4.92414E-03     133.071E-03     21.9513E+06    -7.18103E+06     50.5969E+06    -13.5003E+06    -93.3169E-03     188.528E-03    -95.2110E-03    -51.8838E-03    -93.2831E-03     188.316E-03    -94.9795E-03    -52.5668E-03
            1362     5.73338E-03     133.208E-03     18.2258E+06    -2.23945E+06     51.2717E+06    -15.0197E+06    -93.4266E-03     190.766E-03    -97.3393E-03    -59.5960E-03    -93.4144E-03     190.569E-03    -97.1062E-03    -60.4014E-03
            1363     6.53797E-03     133.376E-03     10.5332E+06    -2.98676E+06     51.4147E+06    -15.1525E+06    -92.7091E-03     192.470E-03    -99.7604E-03    -66.3899E-03    -92.7302E-03     192.264E-03    -99.5143E-03    -67.2989E-03
            1364     7.33750E-03     133.575E-03     3.02423E+06    -5.11681E+06     52.6853E+06    -13.1410E+06    -91.0141E-03     193.494E-03    -102.480E-03    -72.0179E-03    -91.0670E-03     193.271E-03    -102.214E-03    -73.0053E-03
            1365     8.12985E-03     133.813E-03    -1.02997E+06    -13.0794E+06     52.6557E+06    -14.6695E+06    -88.2876E-03     193.787E-03    -105.499E-03    -75.4195E-03    -88.3470E-03     193.518E-03    -105.215E-03    -76.5281E-03
            1366     8.91565E-03     134.090E-03    -5.06445E+06    -20.4403E+06     51.1584E+06    -16.5775E+06    -84.2933E-03     193.089E-03    -108.796E-03    -75.0762E-03    -84.3619E-03     192.789E-03    -108.503E-03    -76.2976E-03
            1367     9.69253E-03     134.413E-03    -6.92395E+06    -15.0176E+06     52.8876E+06    -22.8172E+06    -79.3602E-03     191.689E-03    -112.329E-03    -69.5201E-03    -79.4591E-03     191.428E-03    -112.033E-03    -70.8924E-03
            1368     10.4635E-03     134.779E-03    -11.7378E+06    -15.8991E+06     51.0861E+06    -21.1196E+06    -73.8829E-03     189.889E-03    -116.006E-03    -56.9553E-03    -74.0269E-03     189.674E-03    -115.710E-03    -58.3555E-03
            1369     11.2233E-03     135.195E-03    -16.5687E+06    -10.1531E+06     50.0092E+06    -27.2545E+06    -67.4850E-03     187.087E-03    -119.602E-03    -34.9641E-03    -67.7029E-03     186.979E-03    -119.314E-03    -36.4344E-03
            1370     11.9883E-03     135.646E-03    -28.3079E+06    -26.1679E+06     44.7913E+06    -22.4200E+06    -59.4241E-03     182.200E-03    -122.776E-03    -4.50926E-03    -59.7227E-03     182.120E-03    -122.473E-03    -5.81527E-03
            1371     12.7523E-03     136.136E-03    -27.2515E+06    -11.2083E+06     52.9641E+06    -27.2345E+06    -50.5866E-03     175.763E-03    -125.177E-03     28.3008E-03    -50.9756E-03     175.832E-03    -124.856E-03     27.0335E-03
            1372     13.5357E-03     136.637E-03    -24.3163E+06     17.3138E+06     70.7854E+06    -15.2225E+06    -43.7737E-03     170.639E-03    -126.865E-03     48.3690E-03    -44.3017E-03     170.906E-03    -126.501E-03     47.2331E-03
            1373     14.3143E-03     137.152E-03    -8.44879E+06     13.0792E+06     90.4623E+06     14.4373E+06    -27.6936E-03     155.202E-03    -127.509E-03     79.1634E-03    -28.3740E-03     155.660E-03    -127.063E-03     78.2014E-03
            1374     15.1009E-03     137.663E-03     6.24914E+06     4.97991E+06     74.9703E+06    -753.311E+03     11.3024E-03     114.438E-03    -125.741E-03     104.406E-03     10.7253E-03     114.827E-03    -125.382E-03     103.692E-03
            1375     15.3454E-03     68.2685E-03    -5.12548E+06     122.049E+06     93.8682E+06    -469.368E+03    -106.474E-03     215.082E-03    -108.608E-03     96.3043E-03    -111.192E-03     219.943E-03    -108.308E-03     90.9956E-03
            1376     14.5361E-03     68.1043E-03    -10.5354E+06     121.148E+06     96.2965E+06     238.161E+03    -107.709E-03     216.369E-03    -108.660E-03     160.241E-03    -115.253E-03     224.027E-03    -108.339E-03     152.790E-03
            1377     13.7301E-03     67.9193E-03    -16.0669E+06     116.180E+06     87.7636E+06     816.860E+03    -109.881E-03     218.542E-03    -108.661E-03     185.369E-03    -117.832E-03     226.595E-03    -108.368E-03     176.814E-03
            1378     12.9196E-03     67.6984E-03    -21.7978E+06     106.723E+06     65.6892E+06     1.30136E+06    -111.673E-03     220.286E-03    -108.613E-03     203.475E-03    -119.567E-03     228.291E-03    -108.408E-03     194.204E-03
            1379     12.1133E-03     67.4744E-03    -27.0093E+06     88.2940E+06     34.6672E+06     803.802E+03    -112.508E-03     221.043E-03    -108.535E-03     194.881E-03    -118.894E-03     227.546E-03    -108.451E-03     186.097E-03
            1380     11.3040E-03     67.2717E-03    -30.0238E+06     42.1815E+06     17.2188E+06     154.473E+03    -112.600E-03     221.148E-03    -108.548E-03     177.509E-03    -117.322E-03     225.864E-03    -108.480E-03     169.752E-03
            1381     10.4972E-03     67.0858E-03    -33.1686E+06    -21.6111E+06     9.85031E+06     665.860E+03    -112.565E-03     221.194E-03    -108.629E-03     163.763E-03    -116.053E-03     224.458E-03    -108.500E-03     157.034E-03
            1382     9.68935E-03     66.9122E-03    -37.3133E+06    -64.1627E+06     4.50227E+06     854.192E+03    -112.469E-03     221.161E-03    -108.692E-03     153.400E-03    -115.107E-03     223.426E-03    -108.522E-03     147.572E-03
            1383     8.88157E-03     66.7483E-03    -41.3255E+06    -90.4968E+06     854.971E+03     538.468E+03    -112.349E-03     221.090E-03    -108.741E-03     143.372E-03    -114.363E-03     222.633E-03    -108.545E-03     138.340E-03
            1384     8.07409E-03     66.5961E-03    -45.3521E+06    -117.224E+06    -3.37158E+06     391.906E+03    -112.119E-03     220.899E-03    -108.781E-03     132.465E-03    -113.634E-03     221.847E-03    -108.562E-03     128.157E-03
            1385     7.26660E-03     66.4555E-03    -49.6167E+06    -134.948E+06    -7.94559E+06     554.355E+03    -111.643E-03     220.447E-03    -108.804E-03     120.983E-03    -112.768E-03     220.940E-03    -108.577E-03     117.351E-03
            1386     6.45905E-03     66.3280E-03    -54.4841E+06    -148.235E+06    -14.3495E+06     552.614E+03    -111.130E-03     219.950E-03    -108.820E-03     109.023E-03    -111.957E-03     220.098E-03    -108.597E-03     105.988E-03
            1387     5.65151E-03     66.2140E-03    -59.7787E+06    -167.782E+06    -21.8225E+06     597.649E+03    -110.681E-03     219.522E-03    -108.841E-03     96.6774E-03    -111.268E-03     219.365E-03    -108.620E-03     94.1710E-03
            1388     4.84411E-03     66.1134E-03    -65.4788E+06    -186.395E+06    -31.2986E+06     388.582E+03    -110.233E-03     219.085E-03    -108.851E-03     83.9196E-03    -110.633E-03     218.681E-03    -108.643E-03     81.8834E-03
            1389     4.03661E-03     66.0271E-03    -71.2942E+06    -203.122E+06    -41.8956E+06     109.689E+03    -109.837E-03     218.688E-03    -108.851E-03     70.7762E-03    -110.093E-03     218.091E-03    -108.663E-03     69.1568E-03
            1390     3.22929E-03     65.9556E-03    -76.9494E+06    -213.498E+06    -54.2946E+06     113.052E+03    -109.472E-03     218.300E-03    -108.828E-03     57.2470E-03    -109.625E-03     217.579E-03    -108.678E-03     56.0063E-03
            1391     2.42193E-03     65.8994E-03    -82.2111E+06    -224.069E+06    -68.0211E+06     61.8985E+03    -109.164E-03     217.959E-03    -108.795E-03     43.4641E-03    -109.238E-03     217.143E-03    -108.691E-03     42.5640E-03
            1392     1.61460E-03     65.8586E-03    -86.4150E+06    -232.118E+06    -79.5827E+06    -7.91473E+03    -108.919E-03     217.692E-03    -108.773E-03     29.4918E-03    -108.938E-03     216.811E-03    -108.709E-03     28.8994E-03
            1393     807.243E-06     65.8338E-03    -88.8757E+06    -236.931E+06    -87.0423E+06    -257.806E+03    -108.887E-03     217.585E-03    -108.698E-03     16.2114E-03    -108.873E-03     216.668E-03    -108.661E-03     15.8945E-03
            1394     15.3423E-03     67.0915E-03    -4.82269E+06     121.926E+06     93.5942E+06    -243.719E+03    -106.465E-03     215.096E-03    -108.631E-03     95.9112E-03    -111.189E-03     219.965E-03    -108.333E-03     90.5837E-03
            1395     14.5368E-03     66.9236E-03    -10.8963E+06     120.047E+06     95.0507E+06    -304.476E+03    -107.858E-03     216.534E-03    -108.676E-03     159.924E-03    -115.407E-03     224.195E-03    -108.359E-03     152.435E-03
            1396     13.7277E-03     66.7432E-03    -16.3023E+06     115.464E+06     87.8163E+06     353.317E+03    -109.860E-03     218.541E-03    -108.681E-03     185.575E-03    -117.808E-03     226.586E-03    -108.386E-03     177.026E-03
            1397     12.9213E-03     66.5205E-03    -21.8103E+06     106.956E+06     66.9103E+06     867.976E+03    -112.010E-03     220.639E-03    -108.629E-03     203.730E-03    -119.920E-03     228.657E-03    -108.418E-03     194.420E-03
            1398     12.1116E-03     66.2972E-03    -26.0091E+06     89.2351E+06     35.6721E+06     504.188E+03    -112.613E-03     221.146E-03    -108.533E-03     194.475E-03    -118.999E-03     227.653E-03    -108.446E-03     185.670E-03
            1399     11.3051E-03     66.0934E-03    -30.2564E+06     41.5712E+06     16.5798E+06     533.013E+03    -112.442E-03     220.983E-03    -108.542E-03     177.311E-03    -117.155E-03     225.689E-03    -108.475E-03     169.573E-03
            1400     10.4969E-03     65.9083E-03    -34.3853E+06    -22.2667E+06     9.21522E+06     899.997E+03    -112.518E-03     221.149E-03    -108.630E-03     163.815E-03    -116.013E-03     224.415E-03    -108.502E-03     157.088E-03
            1401     9.68930E-03     65.7346E-03    -37.4942E+06    -63.2574E+06     4.72894E+06     1.02143E+06    -112.542E-03     221.235E-03    -108.693E-03     153.417E-03    -115.186E-03     223.507E-03    -108.523E-03     147.584E-03
            1402     8.88167E-03     65.5710E-03    -40.9861E+06    -90.0466E+06     757.738E+03     777.463E+03    -112.401E-03     221.134E-03    -108.734E-03     143.353E-03    -114.414E-03     222.681E-03    -108.540E-03     138.320E-03
            1403     8.07417E-03     65.4180E-03    -45.0958E+06    -117.328E+06    -3.61672E+06     478.150E+03    -112.098E-03     220.870E-03    -108.772E-03     132.412E-03    -113.611E-03     221.817E-03    -108.554E-03     128.106E-03
            1404     7.26675E-03     65.2782E-03    -49.7472E+06    -135.021E+06    -8.17429E+06     721.478E+03    -111.600E-03     220.399E-03    -108.799E-03     120.907E-03    -112.726E-03     220.892E-03    -108.572E-03     117.277E-03
            1405     6.45898E-03     65.1505E-03    -54.8343E+06    -147.917E+06    -14.6539E+06     746.601E+03    -111.112E-03     219.928E-03    -108.816E-03     109.035E-03    -111.939E-03     220.078E-03    -108.595E-03     106.007E-03
            1406     5.65157E-03     65.0362E-03    -60.0329E+06    -167.611E+06    -22.0707E+06     401.425E+03    -110.711E-03     219.547E-03    -108.836E-03     96.6271E-03    -111.300E-03     219.392E-03    -108.617E-03     94.1167E-03
            1407     4.84410E-03     64.9359E-03    -65.3394E+06    -186.009E+06    -30.8615E+06     331.327E+03    -110.279E-03     219.120E-03    -108.841E-03     83.9164E-03    -110.680E-03     218.718E-03    -108.631E-03     81.8771E-03
            1408     4.03676E-03     64.8495E-03    -71.2222E+06    -202.640E+06    -41.6164E+06     275.059E+03    -109.828E-03     218.662E-03    -108.834E-03     70.7809E-03    -110.085E-03     218.067E-03    -108.645E-03     69.1650E-03
            1409     3.22931E-03     64.7781E-03    -77.1786E+06    -213.580E+06    -54.3921E+06     65.9263E+03    -109.423E-03     218.237E-03    -108.814E-03     57.3009E-03    -109.576E-03     217.516E-03    -108.664E-03     56.0608E-03
            1410     2.42196E-03     64.7219E-03    -82.3264E+06    -224.038E+06    -68.0060E+06     5.96544E+03    -109.119E-03     217.912E-03    -108.794E-03     43.5181E-03    -109.193E-03     217.096E-03    -108.689E-03     42.6167E-03
            1411     1.61455E-03     64.6813E-03    -86.2552E+06    -232.143E+06    -79.7196E+06    -57.3195E+03    -108.915E-03     217.697E-03    -108.782E-03     29.5236E-03    -108.933E-03     216.816E-03    -108.719E-03     28.9303E-03
            1412     807.218E-06     64.6561E-03    -88.7580E+06    -236.914E+06    -87.1275E+06     31.0031E+03    -108.837E-03     217.612E-03    -108.775E-03     16.2351E-03    -108.823E-03     216.695E-03    -108.738E-03     15.9227E-03
            1413     15.3464E-03     65.9133E-03    -4.83600E+06     122.429E+06     93.7677E+06    -23.0675E+03    -106.634E-03     215.258E-03    -108.624E-03     96.3911E-03    -111.348E-03     220.118E-03    -108.326E-03     91.0753E-03
            1414     14.5359E-03     65.7471E-03    -10.7430E+06     120.248E+06     95.3644E+06         376.789    -107.491E-03     216.167E-03    -108.676E-03     159.363E-03    -115.002E-03     223.790E-03    -108.358E-03     151.930E-03
            1415     13.7283E-03     65.5654E-03    -17.0880E+06     114.637E+06     87.4777E+06    -86.9504E+03    -109.892E-03     218.579E-03    -108.687E-03     184.765E-03    -117.821E-03     226.601E-03    -108.391E-03     176.213E-03
            1416     12.9193E-03     65.3417E-03    -22.3534E+06     106.413E+06     65.9081E+06    -383.381E+03    -112.165E-03     220.786E-03    -108.621E-03     203.257E-03    -120.083E-03     228.812E-03    -108.414E-03     193.901E-03
            1417     12.1141E-03     65.1195E-03    -27.1166E+06     88.6930E+06     34.1013E+06     366.212E+03    -112.594E-03     221.110E-03    -108.515E-03     194.344E-03    -118.989E-03     227.624E-03    -108.434E-03     185.532E-03
            1418     11.3046E-03     64.9166E-03    -31.1587E+06     41.7963E+06     16.1663E+06     1.25179E+06    -112.347E-03     220.878E-03    -108.531E-03     177.411E-03    -117.065E-03     225.586E-03    -108.465E-03     169.693E-03
            1419     10.4967E-03     64.7305E-03    -34.3948E+06    -22.1237E+06     8.79041E+06     798.570E+03    -112.416E-03     221.041E-03    -108.625E-03     163.771E-03    -115.906E-03     224.305E-03    -108.500E-03     157.051E-03
            1420     9.68926E-03     64.5568E-03    -37.6864E+06    -63.3180E+06     4.35444E+06     574.984E+03    -112.577E-03     221.268E-03    -108.690E-03     153.353E-03    -115.224E-03     223.543E-03    -108.522E-03     147.507E-03
            1421     8.88190E-03     64.3933E-03    -41.3025E+06    -89.3916E+06     699.553E+03     821.183E+03    -112.432E-03     221.161E-03    -108.729E-03     143.440E-03    -114.449E-03     222.713E-03    -108.536E-03     138.405E-03
            1422     8.07424E-03     64.2406E-03    -45.4017E+06    -117.330E+06    -4.07130E+06     732.953E+03    -112.053E-03     220.820E-03    -108.767E-03     132.470E-03    -113.565E-03     221.766E-03    -108.551E-03     128.172E-03
            1423     7.26653E-03     64.1006E-03    -49.7491E+06    -135.064E+06    -8.09331E+06     764.431E+03    -111.623E-03     220.420E-03    -108.797E-03     120.881E-03    -112.749E-03     220.913E-03    -108.570E-03     117.251E-03
            1424     6.45920E-03     63.9730E-03    -54.3406E+06    -147.041E+06    -13.9760E+06     855.559E+03    -111.160E-03     219.970E-03    -108.810E-03     109.031E-03    -111.987E-03     220.123E-03    -108.588E-03     106.002E-03
            1425     5.65157E-03     63.8587E-03    -59.5865E+06    -167.318E+06    -21.8715E+06     435.047E+03    -110.692E-03     219.519E-03    -108.827E-03     96.6503E-03    -111.279E-03     219.363E-03    -108.607E-03     94.1426E-03
            1426     4.84420E-03     63.7582E-03    -65.2407E+06    -186.129E+06    -30.8612E+06     147.518E+03    -110.258E-03     219.092E-03    -108.834E-03     83.9263E-03    -110.658E-03     218.689E-03    -108.624E-03     81.8851E-03
            1427     4.03677E-03     63.6720E-03    -71.0245E+06    -202.256E+06    -41.1379E+06     313.854E+03    -109.813E-03     218.644E-03    -108.831E-03     70.8074E-03    -110.070E-03     218.050E-03    -108.640E-03     69.1921E-03
            1428     3.22934E-03     63.6007E-03    -76.9212E+06    -213.197E+06    -54.1132E+06     204.735E+03    -109.398E-03     218.211E-03    -108.814E-03     57.3269E-03    -109.551E-03     217.492E-03    -108.663E-03     56.0892E-03
            1429     2.42184E-03     63.5443E-03    -82.2360E+06    -223.990E+06    -67.9377E+06    -25.9518E+03    -109.103E-03     217.903E-03    -108.800E-03     43.5305E-03    -109.177E-03     217.087E-03    -108.695E-03     42.6288E-03
            1430     1.61455E-03     63.5037E-03    -86.3546E+06    -231.993E+06    -79.3750E+06     18.5612E+03    -108.935E-03     217.725E-03    -108.790E-03     29.5840E-03    -108.954E-03     216.844E-03    -108.725E-03     28.9929E-03
            1431     807.324E-06     63.4784E-03    -89.1796E+06    -237.105E+06    -87.1436E+06     520.474E+03    -108.822E-03     217.617E-03    -108.794E-03     16.2738E-03    -108.810E-03     216.699E-03    -108.757E-03     15.9662E-03
            1432     15.3427E-03     64.7349E-03    -5.16129E+06     122.342E+06     93.5937E+06     92.4810E+03    -106.799E-03     215.423E-03    -108.623E-03     96.8429E-03    -111.527E-03     220.295E-03    -108.325E-03     91.5026E-03
            1433     14.5369E-03     64.5701E-03    -10.5503E+06     120.659E+06     96.2338E+06    -221.867E+03    -107.881E-03     216.542E-03    -108.662E-03     159.027E-03    -115.407E-03     224.180E-03    -108.340E-03     151.553E-03
            1434     13.7286E-03     64.3873E-03    -16.0804E+06     114.873E+06     87.5164E+06    -250.542E+03    -109.939E-03     218.591E-03    -108.652E-03     184.529E-03    -117.861E-03     226.609E-03    -108.358E-03     175.973E-03
            1435     12.9221E-03     64.1648E-03    -22.4231E+06     105.372E+06     64.0072E+06     410.008E+03    -111.752E-03     220.342E-03    -108.590E-03     203.278E-03    -119.654E-03     228.353E-03    -108.390E-03     193.975E-03
            1436     12.1114E-03     63.9413E-03    -27.7135E+06     87.9525E+06     33.2667E+06     724.843E+03    -112.374E-03     220.884E-03    -108.510E-03     194.421E-03    -118.768E-03     227.395E-03    -108.431E-03     185.631E-03
            1437     11.3052E-03     63.7391E-03    -31.0607E+06     42.3133E+06     16.6277E+06     609.862E+03    -112.455E-03     220.988E-03    -108.533E-03     177.456E-03    -117.176E-03     225.700E-03    -108.466E-03     169.720E-03
            1438     10.4974E-03     63.5533E-03    -34.1642E+06    -21.5877E+06     9.01703E+06     797.826E+03    -112.484E-03     221.104E-03    -108.620E-03     163.982E-03    -115.978E-03     224.374E-03    -108.494E-03     157.256E-03
            1439     9.68933E-03     63.3792E-03    -37.8785E+06    -63.8939E+06     4.07898E+06     757.207E+03    -112.504E-03     221.190E-03    -108.686E-03     153.489E-03    -115.149E-03     223.461E-03    -108.518E-03     147.651E-03
            1440     8.88159E-03     63.2153E-03    -41.7309E+06    -89.6000E+06     654.813E+03     694.566E+03    -112.394E-03     221.124E-03    -108.730E-03     143.351E-03    -114.411E-03     222.673E-03    -108.536E-03     138.317E-03
            1441     8.07414E-03     63.0631E-03    -45.7058E+06    -116.747E+06    -3.81902E+06     657.473E+03    -112.080E-03     220.847E-03    -108.768E-03     132.366E-03    -113.594E-03     221.796E-03    -108.551E-03     128.068E-03
            1442     7.26674E-03     62.9229E-03    -49.9195E+06    -134.847E+06    -8.21359E+06     451.759E+03    -111.645E-03     220.438E-03    -108.793E-03     120.863E-03    -112.771E-03     220.932E-03    -108.566E-03     117.228E-03
            1443     6.45909E-03     62.7954E-03    -54.4789E+06    -147.309E+06    -14.0858E+06     409.169E+03    -111.166E-03     219.970E-03    -108.805E-03     109.030E-03    -111.995E-03     220.124E-03    -108.582E-03     105.993E-03
            1444     5.65173E-03     62.6811E-03    -59.5090E+06    -166.744E+06    -21.3979E+06     594.881E+03    -110.675E-03     219.497E-03    -108.823E-03     96.7053E-03    -111.262E-03     219.344E-03    -108.601E-03     94.2016E-03
            1445     4.84414E-03     62.5806E-03    -65.2093E+06    -185.779E+06    -30.9716E+06     304.443E+03    -110.196E-03     219.030E-03    -108.834E-03     83.9724E-03    -110.596E-03     218.629E-03    -108.625E-03     81.9360E-03
            1446     4.03669E-03     62.4945E-03    -71.0062E+06    -202.428E+06    -41.2944E+06     64.8409E+03    -109.792E-03     218.632E-03    -108.840E-03     70.8583E-03    -110.049E-03     218.038E-03    -108.650E-03     69.2393E-03
            1447     3.22928E-03     62.4231E-03    -76.6219E+06    -212.784E+06    -53.6506E+06     262.341E+03    -109.447E-03     218.269E-03    -108.823E-03     57.3459E-03    -109.600E-03     217.551E-03    -108.671E-03     56.1075E-03
            1448     2.42196E-03     62.3670E-03    -82.0208E+06    -223.814E+06    -67.7631E+06     235.268E+03    -109.147E-03     217.942E-03    -108.794E-03     43.5058E-03    -109.221E-03     217.126E-03    -108.690E-03     42.6080E-03
            1449     1.61452E-03     62.3260E-03    -86.3954E+06    -231.969E+06    -79.3595E+06     164.858E+03    -108.925E-03     217.700E-03    -108.775E-03     29.5604E-03    -108.945E-03     216.820E-03    -108.710E-03     28.9722E-03
            1450     807.188E-06     62.3008E-03    -89.2944E+06    -237.003E+06    -86.8716E+06     255.829E+03    -108.814E-03     217.583E-03    -108.768E-03     16.2344E-03    -108.803E-03     216.666E-03    -108.730E-03     15.9233E-03
            1451     15.3458E-03     63.5579E-03    -4.53486E+06     122.919E+06     94.6217E+06     149.360E+03    -107.188E-03     215.797E-03    -108.609E-03     95.8172E-03    -111.922E-03     220.677E-03    -108.307E-03     90.4499E-03
            1452     14.5367E-03     63.3907E-03    -9.81993E+06     121.305E+06     96.5656E+06    -459.315E+03    -107.694E-03     216.328E-03    -108.635E-03     158.669E-03    -115.228E-03     223.979E-03    -108.313E-03     151.183E-03
            1453     13.7299E-03     63.2105E-03    -16.4461E+06     113.475E+06     87.0044E+06    -19.0854E+03    -109.670E-03     218.308E-03    -108.638E-03     185.135E-03    -117.596E-03     226.326E-03    -108.344E-03     176.604E-03
            1454     12.9197E-03     62.9872E-03    -22.3140E+06     104.463E+06     64.6864E+06     1.05922E+06    -111.730E-03     220.323E-03    -108.594E-03     204.039E-03    -119.643E-03     228.341E-03    -108.389E-03     194.747E-03
            1455     12.1140E-03     62.7648E-03    -26.7695E+06     88.7877E+06     34.7969E+06     858.788E+03    -112.359E-03     220.878E-03    -108.519E-03     194.668E-03    -118.749E-03     227.387E-03    -108.435E-03     185.887E-03
            1456     11.3043E-03     62.5610E-03    -30.5501E+06     42.1496E+06     17.1373E+06     741.851E+03    -112.452E-03     220.994E-03    -108.542E-03     177.656E-03    -117.168E-03     225.701E-03    -108.473E-03     169.928E-03
            1457     10.4968E-03     62.3757E-03    -34.3756E+06    -21.7335E+06     9.18174E+06     902.054E+03    -112.623E-03     221.247E-03    -108.624E-03     163.999E-03    -116.124E-03     224.523E-03    -108.497E-03     157.259E-03
            1458     9.68940E-03     62.2015E-03    -37.7736E+06    -63.5688E+06     4.48876E+06     906.322E+03    -112.591E-03     221.271E-03    -108.681E-03     153.423E-03    -115.235E-03     223.543E-03    -108.511E-03     147.585E-03
            1459     8.88189E-03     62.0379E-03    -41.4991E+06    -89.7068E+06     784.144E+03     774.935E+03    -112.346E-03     221.068E-03    -108.722E-03     143.189E-03    -114.359E-03     222.612E-03    -108.528E-03     138.163E-03
            1460     8.07425E-03     61.8853E-03    -45.4030E+06    -116.148E+06    -3.35214E+06     554.916E+03    -112.044E-03     220.806E-03    -108.763E-03     132.309E-03    -113.556E-03     221.755E-03    -108.545E-03     128.013E-03
            1461     7.26668E-03     61.7454E-03    -49.7264E+06    -134.505E+06    -8.10404E+06     257.338E+03    -111.636E-03     220.424E-03    -108.788E-03     120.853E-03    -112.762E-03     220.919E-03    -108.561E-03     117.215E-03
            1462     6.45921E-03     61.6178E-03    -54.6161E+06    -147.554E+06    -14.3493E+06     162.531E+03    -111.132E-03     219.933E-03    -108.801E-03     109.023E-03    -111.960E-03     220.085E-03    -108.580E-03     105.985E-03
            1463     5.65160E-03     61.5036E-03    -59.7177E+06    -166.687E+06    -21.3487E+06     312.366E+03    -110.637E-03     219.462E-03    -108.825E-03     96.7087E-03    -111.226E-03     219.309E-03    -108.603E-03     94.2018E-03
            1464     4.84415E-03     61.4032E-03    -65.1368E+06    -185.137E+06    -30.6146E+06     383.380E+03    -110.184E-03     219.025E-03    -108.841E-03     83.9797E-03    -110.585E-03     218.626E-03    -108.631E-03     81.9445E-03
            1465     4.03662E-03     61.3170E-03    -71.0858E+06    -202.358E+06    -41.8095E+06     99.5240E+03    -109.799E-03     218.644E-03    -108.845E-03     70.8387E-03    -110.056E-03     218.051E-03    -108.657E-03     69.2201E-03
            1466     3.22921E-03     61.2455E-03    -76.9040E+06    -213.176E+06    -54.0146E+06     83.7387E+03    -109.475E-03     218.302E-03    -108.826E-03     57.3191E-03    -109.629E-03     217.582E-03    -108.676E-03     56.0788E-03
            1467     2.42192E-03     61.1893E-03    -81.9345E+06    -223.416E+06    -67.2560E+06     337.154E+03    -109.206E-03     217.992E-03    -108.786E-03     43.4783E-03    -109.280E-03     217.177E-03    -108.680E-03     42.5820E-03
            1468     1.61471E-03     61.1486E-03    -86.0296E+06    -231.751E+06    -79.2592E+06     194.780E+03    -108.957E-03     217.691E-03    -108.735E-03     29.5361E-03    -108.975E-03     216.811E-03    -108.670E-03     28.9471E-03
            1469     807.383E-06     61.1232E-03    -88.9175E+06    -236.864E+06    -86.9655E+06    -127.272E+03    -108.814E-03     217.469E-03    -108.655E-03     16.1770E-03    -108.801E-03     216.552E-03    -108.617E-03     15.8601E-03
            1470     15.3449E-03     62.3797E-03    -4.52400E+06     122.750E+06     94.5573E+06    -484.993E+03    -106.942E-03     215.543E-03    -108.601E-03     96.6100E-03    -111.687E-03     220.433E-03    -108.299E-03     91.2507E-03
            1471     14.5381E-03     62.2136E-03    -9.75226E+06     121.185E+06     96.2722E+06     643.257E+03    -107.401E-03     216.045E-03    -108.645E-03     159.685E-03    -114.925E-03     223.686E-03    -108.325E-03     152.266E-03
            1472     13.7277E-03     62.0340E-03    -16.5459E+06     112.431E+06     87.0829E+06     559.123E+03    -109.640E-03     218.306E-03    -108.666E-03     185.509E-03    -117.565E-03     226.319E-03    -108.369E-03     176.999E-03
            1473     12.9214E-03     61.8091E-03    -22.1648E+06     103.965E+06     65.4250E+06     389.123E+03    -111.910E-03     220.532E-03    -108.622E-03     204.260E-03    -119.828E-03     228.550E-03    -108.414E-03     194.944E-03
            1474     12.1114E-03     61.5872E-03    -26.8696E+06     89.1520E+06     34.9731E+06     993.439E+03    -112.555E-03     221.089E-03    -108.534E-03     194.741E-03    -118.946E-03     227.599E-03    -108.449E-03     185.951E-03
            1475     11.3049E-03     61.3836E-03    -31.2093E+06     41.8813E+06     16.8262E+06     1.13871E+06    -112.596E-03     221.141E-03    -108.545E-03     177.682E-03    -117.320E-03     225.854E-03    -108.477E-03     169.944E-03
            1476     10.4971E-03     61.1978E-03    -34.3884E+06    -21.5537E+06     9.30439E+06     876.740E+03    -112.707E-03     221.326E-03    -108.619E-03     163.721E-03    -116.207E-03     224.600E-03    -108.491E-03     156.975E-03
            1477     9.68958E-03     61.0237E-03    -37.7009E+06    -62.9173E+06     4.64456E+06     747.951E+03    -112.601E-03     221.269E-03    -108.668E-03     153.102E-03    -115.244E-03     223.541E-03    -108.499E-03     147.262E-03
            1478     8.88196E-03     60.8605E-03    -41.1347E+06    -88.5616E+06     1.23127E+06     650.920E+03    -112.290E-03     220.999E-03    -108.709E-03     143.235E-03    -114.300E-03     222.545E-03    -108.515E-03     138.218E-03
            1479     8.07427E-03     60.7079E-03    -44.9688E+06    -116.195E+06    -3.44413E+06     466.566E+03    -111.997E-03     220.751E-03    -108.754E-03     132.415E-03    -113.506E-03     221.698E-03    -108.538E-03     128.123E-03
            1480     7.26675E-03     60.5677E-03    -49.3580E+06    -134.600E+06    -7.93442E+06     351.774E+03    -111.599E-03     220.385E-03    -108.785E-03     120.864E-03    -112.724E-03     220.879E-03    -108.558E-03     117.229E-03
            1481     6.45918E-03     60.4403E-03    -54.1178E+06    -147.022E+06    -14.0434E+06     319.707E+03    -111.107E-03     219.909E-03    -108.802E-03     109.007E-03    -111.934E-03     220.062E-03    -108.580E-03     105.970E-03
            1482     5.65164E-03     60.3261E-03    -59.4682E+06    -166.708E+06    -21.4664E+06     222.803E+03    -110.632E-03     219.459E-03    -108.827E-03     96.7057E-03    -111.219E-03     219.306E-03    -108.606E-03     94.1976E-03
            1483     4.84405E-03     60.2257E-03    -65.1419E+06    -185.136E+06    -30.5362E+06     315.983E+03    -110.217E-03     219.059E-03    -108.842E-03     83.9388E-03    -110.618E-03     218.660E-03    -108.632E-03     81.9027E-03
            1484     4.03670E-03     60.1394E-03    -70.8970E+06    -202.002E+06    -41.5284E+06     251.391E+03    -109.830E-03     218.670E-03    -108.840E-03     70.8049E-03    -110.087E-03     218.078E-03    -108.652E-03     69.1890E-03
            1485     3.22932E-03     60.0680E-03    -76.7142E+06    -213.178E+06    -54.0650E+06     27.9315E+03    -109.473E-03     218.288E-03    -108.815E-03     57.2924E-03    -109.625E-03     217.568E-03    -108.665E-03     56.0523E-03
            1486     2.42194E-03     60.0117E-03    -81.9191E+06    -223.475E+06    -67.3238E+06     48.5619E+03    -109.190E-03     217.965E-03    -108.775E-03     43.4414E-03    -109.264E-03     217.150E-03    -108.669E-03     42.5416E-03
            1487     1.61466E-03     59.9710E-03    -85.9317E+06    -231.473E+06    -78.8442E+06     142.711E+03    -108.949E-03     217.674E-03    -108.725E-03     29.5186E-03    -108.968E-03     216.795E-03    -108.659E-03     28.9290E-03
            1488     807.383E-06     59.9460E-03    -88.7425E+06    -236.632E+06    -86.7002E+06    -9.13909E+03    -108.817E-03     217.447E-03    -108.629E-03     16.3160E-03    -108.805E-03     216.531E-03    -108.591E-03     15.9965E-03
            1489     15.3444E-03     61.2010E-03    -5.54028E+06     121.663E+06     92.7597E+06    -636.780E+03    -106.150E-03     214.777E-03    -108.627E-03     97.0531E-03    -110.880E-03     219.651E-03    -108.332E-03     91.7393E-03
            1490     14.5348E-03     61.0369E-03    -10.6783E+06     121.137E+06     95.9273E+06     340.789E+03    -107.719E-03     216.409E-03    -108.691E-03     159.344E-03    -115.231E-03     224.035E-03    -108.371E-03     151.921E-03
            1491     13.7291E-03     60.8552E-03    -15.7185E+06     113.364E+06     87.8493E+06     399.417E+03    -110.029E-03     218.722E-03    -108.693E-03     185.056E-03    -117.958E-03     226.743E-03    -108.395E-03     176.499E-03
            1492     12.9192E-03     60.6326E-03    -21.7184E+06     103.717E+06     65.4946E+06     969.126E+03    -112.004E-03     220.635E-03    -108.632E-03     203.788E-03    -119.906E-03     228.639E-03    -108.423E-03     194.477E-03
            1493     12.1132E-03     60.4085E-03    -27.2232E+06     88.7549E+06     34.4142E+06     1.31471E+06    -112.674E-03     221.207E-03    -108.533E-03     194.334E-03    -119.058E-03     227.709E-03    -108.450E-03     185.538E-03
            1494     11.3046E-03     60.2065E-03    -30.7907E+06     42.0812E+06     16.5659E+06     1.17189E+06    -112.724E-03     221.256E-03    -108.532E-03     177.377E-03    -117.451E-03     225.976E-03    -108.466E-03     169.617E-03
            1495     10.4972E-03     60.0192E-03    -34.2225E+06    -20.9938E+06     9.33630E+06     972.011E+03    -112.611E-03     221.215E-03    -108.604E-03     163.803E-03    -116.106E-03     224.487E-03    -108.477E-03     157.071E-03
            1496     9.68981E-03     59.8467E-03    -37.7466E+06    -62.0666E+06     4.69797E+06     568.504E+03    -112.514E-03     221.175E-03    -108.661E-03     153.190E-03    -115.157E-03     223.450E-03    -108.493E-03     147.356E-03
            1497     8.88194E-03     59.6828E-03    -41.2798E+06    -88.4173E+06     1.08581E+06     406.788E+03    -112.308E-03     221.013E-03    -108.705E-03     143.268E-03    -114.320E-03     222.561E-03    -108.512E-03     138.245E-03
            1498     8.07437E-03     59.5305E-03    -45.2514E+06    -116.050E+06    -3.63400E+06     336.470E+03    -111.972E-03     220.723E-03    -108.750E-03     132.490E-03    -113.483E-03     221.671E-03    -108.534E-03     128.197E-03
            1499     7.26672E-03     59.3902E-03    -49.4990E+06    -134.490E+06    -8.04602E+06     186.176E+03    -111.557E-03     220.343E-03    -108.786E-03     120.920E-03    -112.682E-03     220.838E-03    -108.559E-03     117.285E-03
            1500     6.45913E-03     59.2628E-03    -54.1172E+06    -147.084E+06    -13.9883E+06     259.158E+03    -111.118E-03     219.923E-03    -108.805E-03     109.011E-03    -111.946E-03     220.077E-03    -108.583E-03     105.973E-03
            1501     5.65158E-03     59.1486E-03    -59.2516E+06    -166.637E+06    -21.3677E+06     314.431E+03    -110.698E-03     219.522E-03    -108.824E-03     96.6511E-03    -111.284E-03     219.368E-03    -108.603E-03     94.1424E-03
            1502     4.84420E-03     59.0481E-03    -64.7622E+06    -185.198E+06    -30.2355E+06     206.515E+03    -110.250E-03     219.081E-03    -108.831E-03     83.8701E-03    -110.649E-03     218.680E-03    -108.620E-03     81.8328E-03
            1503     4.03671E-03     58.9619E-03    -70.5516E+06    -201.645E+06    -40.6578E+06     263.364E+03    -109.835E-03     218.660E-03    -108.825E-03     70.7391E-03    -110.092E-03     218.068E-03    -108.633E-03     69.1238E-03
            1504     3.22934E-03     58.8904E-03    -76.4905E+06    -212.849E+06    -53.7627E+06     204.276E+03    -109.460E-03     218.254E-03    -108.794E-03     57.2518E-03    -109.612E-03     217.535E-03    -108.643E-03     56.0138E-03
            1505     2.42204E-03     58.8342E-03    -81.7968E+06    -223.648E+06    -67.6249E+06    -19.8233E+03    -109.147E-03     217.901E-03    -108.754E-03     43.3927E-03    -109.220E-03     217.085E-03    -108.649E-03     42.4923E-03
            1506     1.61464E-03     58.7935E-03    -85.9904E+06    -231.567E+06    -79.0406E+06     8.91356E+03    -108.894E-03     217.615E-03    -108.721E-03     29.3724E-03    -108.912E-03     216.735E-03    -108.656E-03     28.7821E-03
            1507     807.235E-06     58.7686E-03    -88.4319E+06    -236.246E+06    -86.3392E+06    -407.319E+03    -108.793E-03     217.464E-03    -108.671E-03     16.2423E-03    -108.779E-03     216.549E-03    -108.632E-03     15.9155E-03
            1508     15.3430E-03     60.0249E-03    -5.70686E+06     122.093E+06     92.7525E+06    -182.318E+03    -106.381E-03     215.011E-03    -108.630E-03     96.6222E-03    -111.108E-03     219.882E-03    -108.335E-03     91.2958E-03
            1509     14.5368E-03     59.8574E-03    -11.3682E+06     120.665E+06     95.0122E+06    -1.81380E+06    -107.505E-03     216.190E-03    -108.686E-03     158.212E-03    -115.013E-03     223.811E-03    -108.369E-03     150.735E-03
            1510     13.7274E-03     59.6782E-03    -16.6689E+06     111.775E+06     86.5808E+06    -608.766E+03    -110.045E-03     218.734E-03    -108.689E-03     184.632E-03    -117.984E-03     226.759E-03    -108.394E-03     176.033E-03
            1511     12.9217E-03     59.4541E-03    -22.0310E+06     102.531E+06     64.9932E+06     1.11555E+06    -112.202E-03     220.822E-03    -108.619E-03     203.395E-03    -120.110E-03     228.827E-03    -108.411E-03     194.061E-03
            1512     12.1120E-03     59.2319E-03    -26.4328E+06     88.7768E+06     34.7291E+06     1.72996E+06    -112.679E-03     221.191E-03    -108.512E-03     194.436E-03    -119.058E-03     227.691E-03    -108.429E-03     185.647E-03
            1513     11.3053E-03     59.0271E-03    -30.4954E+06     42.6849E+06     16.7096E+06     1.45308E+06    -112.578E-03     221.093E-03    -108.515E-03     177.368E-03    -117.302E-03     225.812E-03    -108.449E-03     169.622E-03
            1514     10.4975E-03     58.8432E-03    -33.9879E+06    -19.9428E+06     9.85661E+06     891.581E+03    -112.487E-03     221.084E-03    -108.598E-03     163.717E-03    -115.979E-03     224.356E-03    -108.470E-03     156.996E-03
            1515     9.68916E-03     58.6679E-03    -37.0889E+06    -62.0179E+06     5.20056E+06     496.075E+03    -112.448E-03     221.110E-03    -108.662E-03     153.137E-03    -115.085E-03     223.380E-03    -108.492E-03     147.310E-03
            1516     8.88212E-03     58.5059E-03    -40.9126E+06    -88.5004E+06     1.50909E+06     552.118E+03    -112.308E-03     221.017E-03    -108.709E-03     143.200E-03    -114.322E-03     222.567E-03    -108.514E-03     138.171E-03
            1517     8.07426E-03     58.3527E-03    -44.9752E+06    -115.329E+06    -3.07699E+06     422.670E+03    -111.993E-03     220.745E-03    -108.752E-03     132.533E-03    -113.504E-03     221.697E-03    -108.535E-03     128.241E-03
            1518     7.26672E-03     58.2129E-03    -49.4338E+06    -134.208E+06    -7.98042E+06     115.471E+03    -111.578E-03     220.362E-03    -108.784E-03     120.882E-03    -112.702E-03     220.858E-03    -108.558E-03     117.247E-03
            1519     6.45908E-03     58.0852E-03    -54.2680E+06    -147.464E+06    -13.9915E+06    -81.6444E+03    -111.169E-03     219.968E-03    -108.799E-03     108.947E-03    -111.995E-03     220.119E-03    -108.577E-03     105.905E-03
            1520     5.65176E-03     57.9710E-03    -59.2135E+06    -166.728E+06    -20.9423E+06     86.2973E+03    -110.737E-03     219.549E-03    -108.812E-03     96.5513E-03    -111.323E-03     219.394E-03    -108.589E-03     94.0387E-03
            1521     4.84425E-03     57.8706E-03    -64.7811E+06    -185.031E+06    -29.9609E+06     205.574E+03    -110.278E-03     219.087E-03    -108.809E-03     83.7985E-03    -110.678E-03     218.687E-03    -108.597E-03     81.7598E-03
            1522     4.03692E-03     57.7843E-03    -70.7001E+06    -201.746E+06    -40.6439E+06     125.838E+03    -109.826E-03     218.620E-03    -108.795E-03     70.6606E-03    -110.082E-03     218.028E-03    -108.603E-03     69.0432E-03
            1523     3.22950E-03     57.7129E-03    -76.3710E+06    -212.577E+06    -53.2986E+06     194.799E+03    -109.414E-03     218.179E-03    -108.764E-03     57.1886E-03    -109.567E-03     217.460E-03    -108.612E-03     55.9517E-03
            1524     2.42206E-03     57.6566E-03    -81.7076E+06    -223.436E+06    -67.3594E+06     116.911E+03    -109.097E-03     217.826E-03    -108.729E-03     43.3617E-03    -109.170E-03     217.010E-03    -108.623E-03     42.4642E-03
            1525     1.61476E-03     57.6162E-03    -85.7020E+06    -231.566E+06    -79.2096E+06    -129.241E+03    -108.890E-03     217.582E-03    -108.692E-03     29.3700E-03    -108.907E-03     216.702E-03    -108.628E-03     28.7776E-03
            1526     807.424E-06     57.5911E-03    -88.1058E+06    -236.322E+06    -86.7525E+06    -300.349E+03    -108.812E-03     217.396E-03    -108.584E-03     16.1480E-03    -108.796E-03     216.481E-03    -108.548E-03     15.8252E-03
            1527     15.3465E-03     58.8451E-03    -4.28273E+06     123.558E+06     94.4528E+06     634.674E+03    -106.688E-03     215.299E-03    -108.612E-03     96.4973E-03    -111.409E-03     220.170E-03    -108.313E-03     91.1795E-03
            1528     14.5364E-03     58.6832E-03    -10.7595E+06     120.788E+06     94.8553E+06    -797.504E+03    -107.395E-03     216.053E-03    -108.658E-03     159.115E-03    -114.902E-03     223.676E-03    -108.343E-03     151.661E-03
            1529     13.7290E-03     58.4984E-03    -17.7197E+06     109.634E+06     84.6921E+06    -1.15549E+06    -109.991E-03     218.656E-03    -108.665E-03     184.948E-03    -117.924E-03     226.670E-03    -108.375E-03     176.358E-03
            1530     12.9198E-03     58.2771E-03    -23.2834E+06     100.299E+06     63.3240E+06    -225.926E+03    -112.111E-03     220.712E-03    -108.601E-03     203.232E-03    -120.012E-03     228.702E-03    -108.396E-03     193.897E-03
            1531     12.1139E-03     58.0533E-03    -27.2679E+06     87.9993E+06     34.7314E+06     1.11428E+06    -112.651E-03     221.154E-03    -108.503E-03     194.775E-03    -119.041E-03     227.659E-03    -108.417E-03     185.979E-03
            1532     11.3049E-03     57.8508E-03    -30.4084E+06     43.8092E+06     18.0915E+06     1.08190E+06    -112.527E-03     221.038E-03    -108.511E-03     177.378E-03    -117.250E-03     225.757E-03    -108.440E-03     169.639E-03
            1533     10.4971E-03     57.6643E-03    -33.2308E+06    -18.8384E+06     11.0078E+06     778.710E+03    -112.456E-03     221.050E-03    -108.594E-03     163.566E-03    -115.944E-03     224.321E-03    -108.463E-03     156.848E-03
            1534     9.69020E-03     57.4917E-03    -36.8189E+06    -62.2435E+06     5.37842E+06     706.249E+03    -112.362E-03     221.022E-03    -108.660E-03     153.177E-03    -114.996E-03     223.289E-03    -108.490E-03     147.358E-03
            1535     8.88163E-03     57.3276E-03    -40.5424E+06    -88.5073E+06     1.84448E+06     522.219E+03    -112.279E-03     220.992E-03    -108.713E-03     143.329E-03    -114.290E-03     222.540E-03    -108.517E-03     138.304E-03
            1536     8.07440E-03     57.1756E-03    -44.4798E+06    -114.774E+06    -2.25907E+06     559.521E+03    -112.090E-03     220.844E-03    -108.755E-03     132.408E-03    -113.603E-03     221.799E-03    -108.535E-03     128.109E-03
            1537     7.26671E-03     57.0352E-03    -48.9808E+06    -133.808E+06    -7.37888E+06     256.908E+03    -111.679E-03     220.452E-03    -108.774E-03     120.793E-03    -112.802E-03     220.948E-03    -108.546E-03     117.157E-03
            1538     6.45941E-03     56.9077E-03    -53.8499E+06    -147.453E+06    -13.6952E+06    -30.9252E+03    -111.201E-03     219.979E-03    -108.778E-03     108.819E-03    -112.026E-03     220.129E-03    -108.554E-03     105.776E-03
            1539     5.65177E-03     56.7934E-03    -59.2801E+06    -166.844E+06    -20.9459E+06    -83.9209E+03    -110.706E-03     219.491E-03    -108.786E-03     96.4687E-03    -111.292E-03     219.336E-03    -108.563E-03     93.9549E-03
            1540     4.84447E-03     56.6929E-03    -64.7515E+06    -185.036E+06    -29.8612E+06     38.4567E+03    -110.251E-03     219.034E-03    -108.783E-03     83.7732E-03    -110.650E-03     218.633E-03    -108.570E-03     81.7330E-03
            1541     4.03702E-03     56.6069E-03    -70.4904E+06    -201.766E+06    -40.5330E+06     47.9587E+03    -109.818E-03     218.584E-03    -108.766E-03     70.6630E-03    -110.074E-03     217.991E-03    -108.574E-03     69.0446E-03
            1542     3.22960E-03     56.5355E-03    -76.3947E+06    -212.571E+06    -53.0799E+06     50.7145E+03    -109.377E-03     218.113E-03    -108.735E-03     57.1695E-03    -109.530E-03     217.394E-03    -108.582E-03     55.9313E-03
            1543     2.42216E-03     56.4794E-03    -81.5547E+06    -223.140E+06    -67.0046E+06     82.8139E+03    -109.027E-03     217.736E-03    -108.709E-03     43.3848E-03    -109.099E-03     216.921E-03    -108.602E-03     42.4865E-03
            1544     1.61466E-03     56.4387E-03    -85.6713E+06    -231.412E+06    -78.8683E+06    -46.5888E+03    -108.859E-03     217.547E-03    -108.687E-03     29.5042E-03    -108.877E-03     216.667E-03    -108.622E-03     28.9127E-03
            1545     807.407E-06     56.4137E-03    -88.4195E+06    -236.526E+06    -86.7198E+06     365.742E+03    -108.868E-03     217.397E-03    -108.529E-03     16.0742E-03    -108.854E-03     216.482E-03    -108.491E-03     15.7623E-03
            1546     15.3432E-03     57.6693E-03    -3.96273E+06     123.595E+06     94.0970E+06     245.663E+03    -106.435E-03     215.039E-03    -108.604E-03     96.5939E-03    -111.149E-03     219.906E-03    -108.307E-03     91.2751E-03
            1547     14.5365E-03     57.5043E-03    -9.53838E+06     121.875E+06     95.9653E+06     1.04597E+06    -107.734E-03     216.388E-03    -108.654E-03     159.318E-03    -115.239E-03     224.013E-03    -108.337E-03     151.885E-03
            1548     13.7285E-03     57.3211E-03    -15.8858E+06     110.124E+06     85.2706E+06     636.401E+03    -109.927E-03     218.579E-03    -108.652E-03     185.150E-03    -117.844E-03     226.584E-03    -108.363E-03     176.612E-03
            1549     12.9219E-03     57.0997E-03    -22.4702E+06     99.6509E+06     63.4216E+06     87.7968E+03    -112.043E-03     220.638E-03    -108.595E-03     203.676E-03    -119.947E-03     228.633E-03    -108.390E-03     194.343E-03
            1550     12.1119E-03     56.8754E-03    -27.3270E+06     87.3293E+06     34.9955E+06    -344.009E+03    -112.701E-03     221.201E-03    -108.500E-03     194.514E-03    -119.093E-03     227.705E-03    -108.412E-03     185.687E-03
            1551     11.3054E-03     56.6728E-03    -29.9585E+06     43.8723E+06     18.1742E+06     73.9886E+03    -112.443E-03     220.949E-03    -108.506E-03     177.308E-03    -117.154E-03     225.657E-03    -108.435E-03     169.575E-03
            1552     10.4978E-03     56.4873E-03    -33.1830E+06    -19.6357E+06     10.8890E+06     761.890E+03    -112.361E-03     220.957E-03    -108.596E-03     163.727E-03    -115.848E-03     224.226E-03    -108.465E-03     157.015E-03
            1553     9.68905E-03     56.3140E-03    -36.6609E+06    -61.4639E+06     6.18815E+06     964.494E+03    -112.430E-03     221.097E-03    -108.667E-03     153.356E-03    -115.069E-03     223.370E-03    -108.494E-03     147.535E-03
            1554     8.88209E-03     56.1504E-03    -40.3614E+06    -87.9569E+06     2.05958E+06     495.523E+03    -112.420E-03     221.129E-03    -108.709E-03     143.297E-03    -114.431E-03     222.679E-03    -108.513E-03     138.267E-03
            1555     8.07421E-03     55.9976E-03    -44.2556E+06    -115.527E+06    -2.18786E+06     116.822E+03    -112.165E-03     220.905E-03    -108.740E-03     132.187E-03    -113.676E-03     221.855E-03    -108.519E-03     127.876E-03
            1556     7.26710E-03     55.8576E-03    -48.3988E+06    -133.056E+06    -6.49275E+06     511.574E+03    -111.718E-03     220.468E-03    -108.750E-03     120.598E-03    -112.840E-03     220.965E-03    -108.519E-03     116.962E-03
            1557     6.45946E-03     55.7300E-03    -53.4967E+06    -147.056E+06    -13.3627E+06     228.520E+03    -111.173E-03     219.920E-03    -108.747E-03     108.755E-03    -111.996E-03     220.070E-03    -108.523E-03     105.717E-03
            1558     5.65218E-03     55.6160E-03    -58.6795E+06    -166.842E+06    -20.7004E+06    -55.9781E+03    -110.661E-03     219.417E-03    -108.756E-03     96.4503E-03    -111.244E-03     219.260E-03    -108.533E-03     93.9377E-03
            1559     4.84448E-03     55.5155E-03    -64.3102E+06    -185.202E+06    -29.6820E+06    -51.6784E+03    -110.182E-03     218.940E-03    -108.758E-03     83.7868E-03    -110.579E-03     218.538E-03    -108.545E-03     81.7479E-03
            1560     4.03707E-03     55.4294E-03    -70.2674E+06    -201.646E+06    -40.1831E+06     70.9349E+03    -109.761E-03     218.511E-03    -108.751E-03     70.6680E-03    -110.016E-03     217.918E-03    -108.557E-03     69.0512E-03
            1561     3.22968E-03     55.3582E-03    -76.1886E+06    -212.507E+06    -53.1213E+06     32.3656E+03    -109.359E-03     218.081E-03    -108.723E-03     57.1752E-03    -109.511E-03     217.362E-03    -108.570E-03     55.9359E-03
            1562     2.42216E-03     55.3021E-03    -81.5311E+06    -223.085E+06    -66.8544E+06    -49.4469E+03    -109.029E-03     217.725E-03    -108.696E-03     43.4050E-03    -109.102E-03     216.910E-03    -108.588E-03     42.5046E-03
            1563     1.61472E-03     55.2614E-03    -85.8919E+06    -231.287E+06    -78.4656E+06     236.357E+03    -108.815E-03     217.497E-03    -108.682E-03     29.5140E-03    -108.834E-03     216.618E-03    -108.614E-03     28.9269E-03
            1564     807.264E-06     55.2361E-03    -88.7307E+06    -236.532E+06    -86.2972E+06     66.4253E+03    -108.787E-03     217.400E-03    -108.613E-03     15.9783E-03    -108.775E-03     216.484E-03    -108.573E-03     15.6615E-03
            1565     15.3455E-03     56.4938E-03    -4.65206E+06     123.106E+06     93.3187E+06    -202.352E+03    -106.878E-03     215.481E-03    -108.603E-03     96.3717E-03    -111.606E-03     220.359E-03    -108.308E-03     91.0276E-03
            1566     14.5371E-03     56.3239E-03    -10.4019E+06     120.922E+06     94.9041E+06     255.272E+03    -107.427E-03     216.076E-03    -108.648E-03     159.498E-03    -114.952E-03     223.718E-03    -108.334E-03     152.062E-03
            1567     13.7291E-03     56.1465E-03    -15.6813E+06     110.134E+06     85.9750E+06     979.690E+03    -109.924E-03     218.586E-03    -108.662E-03     185.558E-03    -117.859E-03     226.607E-03    -108.369E-03     177.008E-03
            1568     12.9193E-03     55.9193E-03    -20.8042E+06     100.787E+06     64.8597E+06     755.273E+03    -112.252E-03     220.853E-03    -108.601E-03     203.881E-03    -120.164E-03     228.861E-03    -108.393E-03     194.524E-03
            1569     12.1145E-03     55.6991E-03    -25.3507E+06     88.5929E+06     36.1184E+06     25.3274E+03    -112.607E-03     221.107E-03    -108.500E-03     194.367E-03    -118.985E-03     227.605E-03    -108.412E-03     185.559E-03
            1570     11.3050E-03     55.4947E-03    -29.8997E+06     42.5551E+06     17.7944E+06     101.355E+03    -112.390E-03     220.901E-03    -108.511E-03     177.538E-03    -117.097E-03     225.602E-03    -108.441E-03     169.814E-03
            1571     10.4967E-03     55.3105E-03    -33.2738E+06    -20.6430E+06     10.7833E+06     315.425E+03    -112.480E-03     221.081E-03    -108.601E-03     163.538E-03    -115.968E-03     224.347E-03    -108.469E-03     156.808E-03
            1572     9.68984E-03     55.1360E-03    -36.3201E+06    -61.2663E+06     6.81487E+06     569.577E+03    -112.620E-03     221.278E-03    -108.658E-03     152.987E-03    -115.259E-03     223.551E-03    -108.482E-03     147.148E-03
            1573     8.88196E-03     54.9728E-03    -39.6957E+06    -87.1516E+06     2.77842E+06     461.448E+03    -112.487E-03     221.170E-03    -108.683E-03     142.956E-03    -114.497E-03     222.722E-03    -108.486E-03     137.919E-03
            1574     8.07490E-03     54.8199E-03    -43.8030E+06    -115.645E+06    -2.18374E+06     233.682E+03    -112.129E-03     220.836E-03    -108.706E-03     132.089E-03    -113.636E-03     221.783E-03    -108.486E-03     127.784E-03
            1575     7.26722E-03     54.6801E-03    -48.5054E+06    -133.490E+06    -6.48024E+06     451.865E+03    -111.636E-03     220.357E-03    -108.721E-03     120.568E-03    -112.758E-03     220.852E-03    -108.490E-03     116.934E-03
            1576     6.45982E-03     54.5526E-03    -53.2083E+06    -146.032E+06    -12.7787E+06     521.406E+03    -111.109E-03     219.832E-03    -108.724E-03     108.788E-03    -111.933E-03     219.986E-03    -108.499E-03     105.758E-03
            1577     5.65207E-03     54.4385E-03    -58.7499E+06    -166.738E+06    -20.7937E+06     22.4209E+03    -110.630E-03     219.364E-03    -108.735E-03     96.5211E-03    -111.213E-03     219.208E-03    -108.512E-03     94.0126E-03
            1578     4.84473E-03     54.3382E-03    -64.4479E+06    -185.080E+06    -29.6139E+06     80.4829E+03    -110.155E-03     218.894E-03    -108.739E-03     83.7890E-03    -110.553E-03     218.492E-03    -108.526E-03     81.7524E-03
            1579     4.03712E-03     54.2521E-03    -70.4081E+06    -201.528E+06    -40.3920E+06     106.559E+03    -109.687E-03     218.424E-03    -108.737E-03     70.6581E-03    -109.942E-03     217.831E-03    -108.545E-03     69.0448E-03
            1580     3.22954E-03     54.1809E-03    -76.2888E+06    -212.534E+06    -53.0591E+06    -101.521E+03    -109.336E-03     218.055E-03    -108.719E-03     57.1514E-03    -109.488E-03     217.336E-03    -108.565E-03     55.9110E-03
            1581     2.42220E-03     54.1248E-03    -81.6922E+06    -223.208E+06    -66.9114E+06    -6.30480E+03    -109.072E-03     217.756E-03    -108.684E-03     43.3779E-03    -109.145E-03     216.941E-03    -108.577E-03     42.4783E-03
            1582     1.61483E-03     54.0842E-03    -85.7535E+06    -231.348E+06    -78.6480E+06     55.2709E+03    -108.814E-03     217.468E-03    -108.654E-03     29.5132E-03    -108.833E-03     216.589E-03    -108.587E-03     28.9244E-03
            1583     807.420E-06     54.0589E-03    -88.0391E+06    -236.234E+06    -86.3648E+06    -173.188E+03    -108.644E-03     217.335E-03    -108.691E-03     16.0954E-03    -108.628E-03     216.419E-03    -108.653E-03     15.7760E-03
            1584     15.3451E-03     55.3136E-03    -5.24056E+06     123.025E+06     92.8674E+06    -250.766E+03    -106.686E-03     215.315E-03    -108.629E-03     96.9343E-03    -111.424E-03     220.202E-03    -108.335E-03     91.6246E-03
            1585     14.5363E-03     55.1505E-03    -9.55772E+06     121.774E+06     95.9191E+06     1.02606E+06    -107.746E-03     216.426E-03    -108.680E-03     160.600E-03    -115.282E-03     224.082E-03    -108.363E-03     153.168E-03
            1586     13.7273E-03     54.9654E-03    -16.1459E+06     110.081E+06     85.8059E+06     31.5289E+03    -110.356E-03     219.029E-03    -108.673E-03     185.641E-03    -118.295E-03     227.053E-03    -108.380E-03     177.031E-03
            1587     12.9226E-03     54.7437E-03    -21.1498E+06     101.080E+06     65.0311E+06    -132.123E+03    -112.143E-03     220.746E-03    -108.602E-03     203.506E-03    -120.035E-03     228.733E-03    -108.393E-03     194.164E-03
            1588     12.1114E-03     54.5197E-03    -25.8024E+06     88.3020E+06     36.1208E+06     691.663E+03    -112.498E-03     221.007E-03    -108.509E-03     194.346E-03    -118.870E-03     227.496E-03    -108.419E-03     185.565E-03
            1589     11.3050E-03     54.3185E-03    -29.8582E+06     42.9655E+06     18.4004E+06     589.656E+03    -112.653E-03     221.167E-03    -108.514E-03     177.113E-03    -117.369E-03     225.876E-03    -108.441E-03     169.364E-03
            1590     10.4978E-03     54.1316E-03    -33.3844E+06    -20.3317E+06     10.5589E+06    -160.469E+03    -112.717E-03     221.294E-03    -108.577E-03     163.170E-03    -116.208E-03     224.564E-03    -108.446E-03     156.413E-03
            1591     9.68998E-03     53.9590E-03    -36.4742E+06    -61.9191E+06     6.00415E+06    -266.007E+03    -112.660E-03     221.277E-03    -108.617E-03     152.818E-03    -115.299E-03     223.549E-03    -108.444E-03     146.962E-03
            1592     8.88278E-03     53.7946E-03    -39.9512E+06    -87.6091E+06     2.67576E+06     318.876E+03    -112.377E-03     221.022E-03    -108.645E-03     142.963E-03    -114.386E-03     222.570E-03    -108.447E-03     137.932E-03
            1593     8.07490E-03     53.6428E-03    -44.0505E+06    -114.953E+06    -2.20506E+06     645.019E+03    -111.993E-03     220.669E-03    -108.676E-03     132.144E-03    -113.499E-03     221.617E-03    -108.456E-03     127.856E-03
            1594     7.26740E-03     53.5023E-03    -48.2940E+06    -133.650E+06    -6.65540E+06     203.389E+03    -111.548E-03     220.249E-03    -108.700E-03     120.670E-03    -112.667E-03     220.741E-03    -108.470E-03     117.042E-03
            1595     6.45972E-03     53.3754E-03    -53.1073E+06    -146.051E+06    -12.4890E+06     495.299E+03    -111.079E-03     219.789E-03    -108.711E-03     108.793E-03    -111.902E-03     219.942E-03    -108.484E-03     105.764E-03
            1596     5.65227E-03     53.2611E-03    -58.4579E+06    -165.871E+06    -20.3943E+06     697.446E+03    -110.607E-03     219.329E-03    -108.722E-03     96.5151E-03    -111.190E-03     219.175E-03    -108.499E-03     94.0179E-03
            1597     4.84466E-03     53.1608E-03    -64.4437E+06    -185.156E+06    -29.8471E+06     151.463E+03    -110.133E-03     218.861E-03    -108.727E-03     83.7637E-03    -110.531E-03     218.458E-03    -108.514E-03     81.7292E-03
            1598     4.03718E-03     53.0750E-03    -70.2710E+06    -201.065E+06    -40.0945E+06     142.343E+03    -109.688E-03     218.414E-03    -108.726E-03     70.6441E-03    -109.944E-03     217.823E-03    -108.533E-03     69.0319E-03
            1599     3.22971E-03     53.0035E-03    -76.2690E+06    -212.563E+06    -53.2436E+06    -20.9482E+03    -109.319E-03     218.024E-03    -108.705E-03     57.1696E-03    -109.471E-03     217.305E-03    -108.553E-03     55.9326E-03
            1600     2.42221E-03     52.9475E-03    -81.5972E+06    -223.442E+06    -67.2931E+06    -160.250E+03    -109.062E-03     217.733E-03    -108.671E-03     43.3707E-03    -109.134E-03     216.917E-03    -108.565E-03     42.4698E-03
            1601     1.61481E-03     52.9068E-03    -85.4941E+06    -231.307E+06    -78.7485E+06    -123.348E+03    -108.827E-03     217.459E-03    -108.632E-03     29.4375E-03    -108.843E-03     216.579E-03    -108.566E-03     28.8458E-03
            1602     807.322E-06     52.8818E-03    -88.2218E+06    -236.198E+06    -86.3160E+06     -45.273E+03    -108.646E-03     217.277E-03    -108.631E-03     16.1896E-03    -108.632E-03     216.362E-03    -108.592E-03     15.8724E-03
            1603     15.3419E-03     54.1367E-03    -6.20693E+06     122.107E+06     91.4416E+06    -673.248E+03    -106.424E-03     215.064E-03    -108.640E-03     96.1164E-03    -111.133E-03     219.920E-03    -108.351E-03     90.7873E-03
            1604     14.5351E-03     53.9703E-03    -11.2586E+06     120.840E+06     94.8231E+06    -956.707E+03    -108.261E-03     216.943E-03    -108.682E-03     159.003E-03    -115.771E-03     224.567E-03    -108.366E-03     151.490E-03
            1605     13.7299E-03     53.7879E-03    -14.9845E+06     110.932E+06     86.7510E+06    -30.6311E+03    -110.330E-03     218.988E-03    -108.659E-03     184.744E-03    -118.240E-03     226.988E-03    -108.364E-03     176.144E-03
            1606     12.9192E-03     53.5651E-03    -21.2338E+06     100.102E+06     64.3646E+06    -5.36920E+03    -112.036E-03     220.619E-03    -108.583E-03     202.655E-03    -119.908E-03     228.584E-03    -108.375E-03     193.326E-03
            1607     12.1140E-03     53.3436E-03    -26.4548E+06     87.6051E+06     35.5769E+06     64.8045E+03    -112.603E-03     221.086E-03    -108.483E-03     193.581E-03    -118.973E-03     227.571E-03    -108.394E-03     184.775E-03
            1608     11.3053E-03     53.1391E-03    -29.4819E+06     43.6978E+06     18.5466E+06     161.680E+03    -112.602E-03     221.082E-03    -108.480E-03     176.723E-03    -117.311E-03     225.788E-03    -108.408E-03     168.973E-03
            1609     10.4978E-03     52.9549E-03    -32.4396E+06    -19.6621E+06     10.9299E+06     14.8834E+03    -112.649E-03     221.194E-03    -108.545E-03     163.319E-03    -116.137E-03     224.465E-03    -108.415E-03     156.570E-03
            1610     9.69058E-03     52.7805E-03    -36.2727E+06    -62.5453E+06     5.73626E+06     86.5325E+03    -112.568E-03     221.159E-03    -108.591E-03     153.053E-03    -115.205E-03     223.428E-03    -108.419E-03     147.209E-03
            1611     8.88272E-03     52.6180E-03    -40.3854E+06    -87.8501E+06     2.23269E+06     367.803E+03    -112.307E-03     220.933E-03    -108.625E-03     143.205E-03    -114.316E-03     222.480E-03    -108.428E-03     138.184E-03
            1612     8.07516E-03     52.4649E-03    -44.2811E+06    -114.573E+06    -2.20086E+06     395.603E+03    -111.963E-03     220.624E-03    -108.662E-03     132.298E-03    -113.470E-03     221.574E-03    -108.442E-03     128.013E-03
            1613     7.26746E-03     52.3255E-03    -48.7895E+06    -133.303E+06    -7.18759E+06     381.550E+03    -111.536E-03     220.221E-03    -108.685E-03     120.679E-03    -112.655E-03     220.715E-03    -108.457E-03     117.056E-03
            1614     6.45987E-03     52.1977E-03    -53.7513E+06    -146.806E+06    -13.2114E+06     176.471E+03    -111.069E-03     219.766E-03    -108.696E-03     108.781E-03    -111.893E-03     219.916E-03    -108.471E-03     105.749E-03
            1615     5.65233E-03     52.0840E-03    -58.7574E+06    -165.854E+06    -20.2370E+06     630.718E+03    -110.584E-03     219.294E-03    -108.711E-03     96.4495E-03    -111.169E-03     219.141E-03    -108.486E-03     93.9515E-03
            1616     4.84471E-03     51.9835E-03    -64.1738E+06    -184.194E+06    -29.7805E+06     522.525E+03    -110.112E-03     218.826E-03    -108.714E-03     83.7133E-03    -110.508E-03     218.427E-03    -108.503E-03     81.6873E-03
            1617     4.03723E-03     51.8976E-03    -70.1836E+06    -201.244E+06    -40.3309E+06    -94.9792E+03    -109.700E-03     218.411E-03    -108.711E-03     70.5887E-03    -109.955E-03     217.819E-03    -108.519E-03     68.9732E-03
            1618     3.22969E-03     51.8264E-03    -75.9232E+06    -212.172E+06    -52.8918E+06     195.201E+03    -109.317E-03     218.005E-03    -108.688E-03     57.1678E-03    -109.468E-03     217.287E-03    -108.535E-03     55.9345E-03
            1619     2.42224E-03     51.7701E-03    -81.3481E+06    -223.280E+06    -67.2582E+06     121.533E+03    -109.032E-03     217.684E-03    -108.652E-03     43.3638E-03    -109.103E-03     216.869E-03    -108.547E-03     42.4680E-03
            1620     1.61485E-03     51.7296E-03    -85.6270E+06    -231.406E+06    -78.9396E+06    -132.454E+03    -108.831E-03     217.439E-03    -108.609E-03     29.3541E-03    -108.848E-03     216.560E-03    -108.544E-03     28.7616E-03
            1621     807.532E-06     51.7046E-03    -88.3859E+06    -236.312E+06    -86.4592E+06    -73.1833E+03    -108.685E-03     217.215E-03    -108.531E-03     16.1709E-03    -108.671E-03     216.300E-03    -108.492E-03     15.8545E-03
            1622     15.3462E-03     52.9596E-03    -4.54959E+06     123.838E+06     93.7711E+06     637.478E+03    -107.312E-03     215.908E-03    -108.595E-03     95.5138E-03    -112.024E-03     220.771E-03    -108.300E-03     90.1463E-03
            1623     14.5383E-03     52.7918E-03    -11.4407E+06     120.507E+06     93.7680E+06    -1.91072E+06    -107.809E-03     216.418E-03    -108.609E-03     158.528E-03    -115.326E-03     224.051E-03    -108.298E-03     151.003E-03
            1624     13.7282E-03     52.6105E-03    -17.9264E+06     108.918E+06     84.0107E+06    -1.90865E+06    -109.962E-03     218.562E-03    -108.600E-03     184.039E-03    -117.866E-03     226.546E-03    -108.312E-03     175.444E-03
            1625     12.9230E-03     52.3880E-03    -22.3961E+06     99.3109E+06     64.3111E+06    -628.831E+03    -111.976E-03     220.516E-03    -108.540E-03     202.284E-03    -119.837E-03     228.463E-03    -108.330E-03     192.964E-03
            1626     12.1134E-03     52.1650E-03    -26.1593E+06     87.5599E+06     36.0404E+06    -550.098E+03    -112.486E-03     220.929E-03    -108.443E-03     193.967E-03    -118.852E-03     227.409E-03    -108.352E-03     185.171E-03
            1627     11.3062E-03     51.9630E-03    -29.7033E+06     43.2260E+06     18.0467E+06    -467.856E+03    -112.409E-03     220.858E-03    -108.449E-03     177.352E-03    -117.115E-03     225.560E-03    -108.378E-03     169.618E-03
            1628     10.4981E-03     51.7763E-03    -33.3104E+06    -20.1664E+06     10.4743E+06     269.691E+03    -112.432E-03     220.964E-03    -108.532E-03     163.626E-03    -115.918E-03     224.230E-03    -108.402E-03     156.902E-03
            1629     9.69022E-03     51.6037E-03    -36.9197E+06    -62.2913E+06     5.32896E+06     528.534E+03    -112.498E-03     221.088E-03    -108.589E-03     153.193E-03    -115.135E-03     223.357E-03    -108.419E-03     147.364E-03
            1630     8.88267E-03     51.4399E-03    -40.5640E+06    -87.8182E+06     1.87707E+06     334.169E+03    -112.372E-03     220.996E-03    -108.624E-03     143.186E-03    -114.380E-03     222.543E-03    -108.429E-03     138.164E-03
            1631     8.07503E-03     51.2880E-03    -44.9824E+06    -114.439E+06    -2.53035E+06     392.316E+03    -112.024E-03     220.679E-03    -108.655E-03     132.207E-03    -113.535E-03     221.631E-03    -108.436E-03     127.918E-03
            1632     7.26753E-03     51.1477E-03    -49.4775E+06    -133.025E+06    -7.40958E+06     380.012E+03    -111.554E-03     220.227E-03    -108.673E-03     120.634E-03    -112.677E-03     220.723E-03    -108.445E-03     117.012E-03
            1633     6.45999E-03     51.0207E-03    -54.2994E+06    -146.741E+06    -13.8559E+06     207.606E+03    -111.059E-03     219.738E-03    -108.679E-03     108.756E-03    -111.885E-03     219.890E-03    -108.457E-03     105.726E-03
            1634     5.65233E-03     50.9064E-03    -59.5972E+06    -166.326E+06    -21.0932E+06     12.0638E+03    -110.580E-03     219.271E-03    -108.692E-03     96.3762E-03    -111.166E-03     219.117E-03    -108.470E-03     93.8718E-03
            1635     4.84488E-03     50.8064E-03    -64.9649E+06    -183.585E+06    -30.7486E+06     323.721E+03    -110.109E-03     218.798E-03    -108.690E-03     83.6365E-03    -110.508E-03     218.405E-03    -108.483E-03     81.6085E-03
            1636     4.03726E-03     50.7203E-03    -70.6730E+06    -200.976E+06    -42.0652E+06     57.8077E+03    -109.689E-03     218.369E-03    -108.679E-03     70.5250E-03    -109.944E-03     217.781E-03    -108.496E-03     68.9129E-03
            1637     3.22985E-03     50.6491E-03    -76.4504E+06    -212.750E+06    -53.4099E+06    -113.455E+03    -109.319E-03     217.977E-03    -108.657E-03     57.0655E-03    -109.471E-03     217.257E-03    -108.505E-03     55.8280E-03
            1638     2.42233E-03     50.5929E-03    -81.4220E+06    -222.779E+06    -66.6963E+06     265.801E+03    -108.996E-03     217.616E-03    -108.620E-03     43.2959E-03    -109.069E-03     216.802E-03    -108.512E-03     42.4026E-03
            1639     1.61487E-03     50.5523E-03    -85.6032E+06    -231.318E+06    -78.9646E+06     77.0734E+03    -108.779E-03     217.358E-03    -108.579E-03     29.3198E-03    -108.796E-03     216.479E-03    -108.514E-03     28.7318E-03
            1640     807.418E-06     50.5274E-03    -88.5509E+06    -236.412E+06    -86.6142E+06     53.5723E+03    -108.655E-03     217.166E-03    -108.511E-03     16.0628E-03    -108.642E-03     216.250E-03    -108.472E-03     15.7473E-03
            1641     15.3456E-03     51.7802E-03    -3.59535E+06     124.536E+06     94.8135E+06     259.095E+03    -107.260E-03     215.823E-03    -108.563E-03     96.2110E-03    -112.007E-03     220.724E-03    -108.264E-03     90.8307E-03
            1642     14.5375E-03     51.6158E-03    -9.02836E+06     122.591E+06     96.1739E+06     1.05125E+06    -107.890E-03     216.471E-03    -108.581E-03     160.046E-03    -115.441E-03     224.147E-03    -108.265E-03     152.562E-03
            1643     13.7314E-03     51.4324E-03    -17.3401E+06     109.649E+06     83.8865E+06    -88.6847E+03    -109.947E-03     218.514E-03    -108.567E-03     184.981E-03    -117.850E-03     226.501E-03    -108.281E-03     176.433E-03
            1644     12.9213E-03     51.2105E-03    -24.4168E+06     99.2793E+06     60.6647E+06    -1.92665E+06    -111.725E-03     220.233E-03    -108.508E-03     203.421E-03    -119.593E-03     228.191E-03    -108.313E-03     194.123E-03
            1645     12.1142E-03     50.9885E-03    -28.6891E+06     86.6524E+06     31.9879E+06    -2.00884E+06    -112.403E-03     220.831E-03    -108.429E-03     194.944E-03    -118.779E-03     227.321E-03    -108.353E-03     186.149E-03
            1646     11.3056E-03     50.7845E-03    -31.9124E+06     41.8694E+06     16.0121E+06    -1.04470E+06    -112.517E-03     220.965E-03    -108.448E-03     177.696E-03    -117.240E-03     225.677E-03    -108.383E-03     169.941E-03
            1647     10.4979E-03     50.5999E-03    -35.1524E+06    -21.1974E+06     9.00515E+06    -366.989E+03    -112.502E-03     221.029E-03    -108.527E-03     163.605E-03    -115.994E-03     224.295E-03    -108.401E-03     156.871E-03
            1648     9.69018E-03     50.4256E-03    -38.0832E+06    -62.2499E+06     4.63561E+06    -101.439E+03    -112.503E-03     221.085E-03    -108.582E-03     152.944E-03    -115.140E-03     223.352E-03    -108.413E-03     147.111E-03
            1649     8.88273E-03     50.2627E-03    -41.5471E+06    -87.9628E+06     1.12476E+06     60.5882E+03    -112.375E-03     220.988E-03    -108.613E-03     142.894E-03    -114.387E-03     222.537E-03    -108.419E-03     137.866E-03
            1650     8.07529E-03     50.1102E-03    -45.1151E+06    -114.617E+06    -2.85745E+06     132.807E+03    -112.041E-03     220.681E-03    -108.640E-03     132.024E-03    -113.550E-03     221.631E-03    -108.423E-03     127.731E-03
            1651     7.26770E-03     49.9707E-03    -49.3267E+06    -132.866E+06    -7.47836E+06     355.432E+03    -111.572E-03     220.226E-03    -108.654E-03     120.491E-03    -112.694E-03     220.723E-03    -108.427E-03     116.868E-03
            1652     6.46002E-03     49.8432E-03    -54.1544E+06    -146.261E+06    -14.0905E+06     193.732E+03    -111.072E-03     219.725E-03    -108.653E-03     108.600E-03    -111.895E-03     219.878E-03    -108.433E-03     105.572E-03
            1653     5.65259E-03     49.7293E-03    -59.2810E+06    -166.130E+06    -21.4333E+06     23.7107E+03    -110.577E-03     219.237E-03    -108.661E-03     96.2226E-03    -111.161E-03     219.083E-03    -108.441E-03     93.7195E-03
            1654     4.84493E-03     49.6290E-03    -64.9072E+06    -183.961E+06    -30.9559E+06     80.3067E+03    -110.106E-03     218.761E-03    -108.655E-03     83.5054E-03    -110.504E-03     218.366E-03    -108.449E-03     81.4745E-03
            1655     4.03749E-03     49.5432E-03    -70.5999E+06    -200.436E+06    -41.7218E+06     338.553E+03    -109.684E-03     218.323E-03    -108.639E-03     70.4134E-03    -109.940E-03     217.737E-03    -108.454E-03     68.8058E-03
            1656     3.22992E-03     49.4718E-03    -76.4641E+06    -212.841E+06    -54.2463E+06    -69.4403E+03    -109.290E-03     217.895E-03    -108.605E-03     56.9590E-03    -109.440E-03     217.176E-03    -108.457E-03     55.7232E-03
            1657     2.42251E-03     49.4159E-03    -81.8022E+06    -223.284E+06    -67.2155E+06    -266.068E+03    -108.948E-03     217.515E-03    -108.567E-03     43.2191E-03    -109.021E-03     216.700E-03    -108.460E-03     42.3198E-03
            1658     1.61496E-03     49.3752E-03    -85.7203E+06    -230.997E+06    -78.4006E+06     217.002E+03    -108.711E-03     217.244E-03    -108.533E-03     29.2840E-03    -108.729E-03     216.365E-03    -108.466E-03     28.6992E-03
            1659     807.496E-06     49.3504E-03    -88.5022E+06    -236.201E+06    -86.3672E+06     118.610E+03    -108.635E-03     217.077E-03    -108.442E-03     15.8429E-03    -108.622E-03     216.162E-03    -108.403E-03     15.5293E-03
            1660     15.3448E-03     50.6040E-03    -4.64673E+06     123.002E+06     93.4341E+06    -338.548E+03    -106.855E-03     215.426E-03    -108.570E-03     96.1017E-03    -111.565E-03     220.284E-03    -108.275E-03     90.7495E-03
            1661     14.5376E-03     50.4356E-03    -10.6220E+06     121.200E+06     95.2757E+06     1.17089E+06    -107.887E-03     216.492E-03    -108.605E-03     160.166E-03    -115.404E-03     224.125E-03    -108.289E-03     152.717E-03
            1662     13.7288E-03     50.2555E-03    -15.5359E+06     112.263E+06     86.6314E+06     1.52458E+06    -109.878E-03     218.483E-03    -108.605E-03     185.303E-03    -117.780E-03     226.477E-03    -108.312E-03     176.800E-03
            1663     12.9218E-03     50.0335E-03    -21.3916E+06     102.174E+06     62.7540E+06     296.306E+03    -111.866E-03     220.408E-03    -108.542E-03     203.692E-03    -119.741E-03     228.388E-03    -108.345E-03     194.406E-03
            1664     12.1128E-03     49.8105E-03    -27.7825E+06     86.9407E+06     31.4914E+06    -1.14173E+06    -112.709E-03     221.153E-03    -108.444E-03     194.843E-03    -119.095E-03     227.658E-03    -108.372E-03     186.018E-03
            1665     11.3056E-03     49.6072E-03    -32.1871E+06     40.0309E+06     14.8304E+06    -1.62957E+06    -112.687E-03     221.134E-03    -108.447E-03     177.205E-03    -117.404E-03     225.836E-03    -108.384E-03     169.426E-03
            1666     10.4981E-03     49.4218E-03    -34.6375E+06    -21.8747E+06     8.96877E+06    -1.05803E+06    -112.638E-03     221.152E-03    -108.514E-03     163.228E-03    -116.123E-03     224.411E-03    -108.388E-03     156.476E-03
            1667     9.69082E-03     49.2486E-03    -38.0442E+06    -62.6464E+06     4.38862E+06    -471.134E+03    -112.538E-03     221.096E-03    -108.558E-03     152.827E-03    -115.175E-03     223.362E-03    -108.390E-03     146.986E-03
            1668     8.88300E-03     49.0851E-03    -41.4678E+06    -87.9594E+06     888.515E+03    -279.099E+03    -112.325E-03     220.912E-03    -108.587E-03     142.868E-03    -114.332E-03     222.457E-03    -108.395E-03     137.843E-03
            1669     8.07532E-03     48.9329E-03    -45.3410E+06    -115.216E+06    -3.53934E+06    -171.842E+03    -112.046E-03     220.658E-03    -108.613E-03     131.869E-03    -113.552E-03     221.605E-03    -108.398E-03     127.574E-03
            1670     7.26784E-03     48.7932E-03    -49.6555E+06    -133.105E+06    -7.94399E+06    -2.03395E+03    -111.609E-03     220.229E-03    -108.620E-03     120.295E-03    -112.730E-03     220.725E-03    -108.395E-03     116.666E-03
            1671     6.46043E-03     48.6660E-03    -54.2517E+06    -145.660E+06    -14.1168E+06     220.430E+03    -111.076E-03     219.688E-03    -108.613E-03     108.391E-03    -111.899E-03     219.843E-03    -108.393E-03     105.365E-03
            1672     5.65275E-03     48.5521E-03    -59.6043E+06    -165.960E+06    -21.8709E+06    -3.94167E+03    -110.565E-03     219.177E-03    -108.612E-03     96.0658E-03    -111.149E-03     219.024E-03    -108.394E-03     93.5648E-03
            1673     4.84529E-03     48.4520E-03    -64.9947E+06    -184.220E+06    -30.5657E+06    -65.6179E+03    -110.111E-03     218.712E-03    -108.602E-03     83.3430E-03    -110.509E-03     218.314E-03    -108.393E-03     81.3116E-03
            1674     4.03770E-03     48.3660E-03    -70.6216E+06    -200.714E+06    -40.7603E+06     77.4325E+03    -109.651E-03     218.230E-03    -108.579E-03     70.2224E-03    -109.907E-03     217.641E-03    -108.389E-03     68.6133E-03
            1675     3.23023E-03     48.2949E-03    -76.2575E+06    -211.980E+06    -53.4626E+06     219.757E+03    -109.217E-03     217.755E-03    -108.537E-03     56.7949E-03    -109.368E-03     217.038E-03    -108.387E-03     55.5655E-03
            1676     2.42259E-03     48.2388E-03    -81.6880E+06    -223.452E+06    -67.7185E+06    -103.963E+03    -108.888E-03     217.379E-03    -108.491E-03     43.0825E-03    -108.959E-03     216.563E-03    -108.388E-03     42.1867E-03
            1677     1.61508E-03     48.1984E-03    -85.9431E+06    -231.367E+06    -78.8920E+06    -264.526E+03    -108.640E-03     217.094E-03    -108.454E-03     29.2320E-03    -108.658E-03     216.215E-03    -108.389E-03     28.6417E-03
            1678     807.552E-06     48.1732E-03    -88.2175E+06    -235.964E+06    -86.3018E+06     291.205E+03    -108.568E-03     216.920E-03    -108.352E-03     15.8250E-03    -108.554E-03     216.005E-03    -108.313E-03     15.5143E-03
            1679     15.3457E-03     49.4247E-03    -5.20371E+06     122.797E+06     93.2384E+06     439.458E+03    -107.159E-03     215.760E-03    -108.601E-03     96.8464E-03    -111.875E-03     220.623E-03    -108.305E-03     91.4985E-03
            1680     14.5368E-03     49.2600E-03    -10.4868E+06     121.840E+06     95.7023E+06     820.738E+03    -107.826E-03     216.458E-03    -108.632E-03     159.603E-03    -115.331E-03     224.081E-03    -108.315E-03     152.164E-03
            1681     13.7291E-03     49.0766E-03    -16.4065E+06     112.386E+06     86.4108E+06    -153.906E+03    -109.727E-03     218.361E-03    -108.634E-03     184.461E-03    -117.636E-03     226.361E-03    -108.341E-03     175.923E-03
            1682     12.9204E-03     48.8566E-03    -21.5162E+06     102.860E+06     63.7342E+06     701.926E+03    -112.282E-03     220.846E-03    -108.564E-03     203.346E-03    -120.180E-03     228.848E-03    -108.363E-03     194.005E-03
            1683     12.1138E-03     48.6318E-03    -25.9198E+06     88.5069E+06     33.1592E+06     485.328E+03    -112.986E-03     221.425E-03    -108.438E-03     194.081E-03    -119.367E-03     227.931E-03    -108.363E-03     185.240E-03
            1684     11.3062E-03     48.4300E-03    -29.7151E+06     41.0160E+06     16.1312E+06    -561.165E+03    -112.644E-03     221.071E-03    -108.427E-03     176.862E-03    -117.343E-03     225.763E-03    -108.363E-03     169.106E-03
            1685     10.4984E-03     48.2438E-03    -34.1609E+06    -22.8544E+06     8.43078E+06    -736.057E+03    -112.577E-03     221.070E-03    -108.494E-03     163.319E-03    -116.056E-03     224.323E-03    -108.369E-03     156.578E-03
            1686     9.69068E-03     48.0713E-03    -37.7069E+06    -62.6731E+06     4.03369E+06    -548.250E+03    -112.610E-03     221.145E-03    -108.535E-03     152.854E-03    -115.244E-03     223.411E-03    -108.370E-03     147.010E-03
            1687     8.88320E-03     47.9076E-03    -41.3466E+06    -88.5170E+06     683.619E+03    -355.475E+03    -112.440E-03     220.996E-03    -108.556E-03     142.716E-03    -114.444E-03     222.537E-03    -108.364E-03     137.687E-03
            1688     8.07576E-03     47.7557E-03    -45.4015E+06    -115.358E+06    -3.73330E+06    -173.433E+03    -112.078E-03     220.647E-03    -108.569E-03     131.637E-03    -113.583E-03     221.592E-03    -108.355E-03     127.342E-03
            1689     7.26828E-03     47.6157E-03    -49.7202E+06    -133.309E+06    -8.06496E+06    -246.057E+03    -111.608E-03     220.178E-03    -108.569E-03     120.016E-03    -112.727E-03     220.670E-03    -108.344E-03     116.388E-03
            1690     6.46067E-03     47.4888E-03    -54.5056E+06    -145.832E+06    -14.0874E+06     41.3625E+03    -111.063E-03     219.618E-03    -108.555E-03     108.144E-03    -111.886E-03     219.771E-03    -108.335E-03     105.118E-03
            1691     5.65318E-03     47.3749E-03    -59.5478E+06    -165.477E+06    -21.6471E+06     72.6153E+03    -110.569E-03     219.113E-03    -108.544E-03     95.8586E-03    -111.152E-03     218.960E-03    -108.326E-03     93.3613E-03
            1692     4.84560E-03     47.2748E-03    -65.1404E+06    -184.611E+06    -30.8626E+06    -384.461E+03    -110.077E-03     218.599E-03    -108.522E-03     83.1585E-03    -110.474E-03     218.199E-03    -108.314E-03     81.1249E-03
            1693     4.03816E-03     47.1891E-03    -70.8323E+06    -200.800E+06    -40.9445E+06    -221.948E+03    -109.594E-03     218.085E-03    -108.491E-03     70.0569E-03    -109.850E-03     217.495E-03    -108.302E-03     68.4462E-03
            1694     3.23047E-03     47.1180E-03    -76.6345E+06    -211.982E+06    -53.2796E+06     46.6593E+03    -109.159E-03     217.601E-03    -108.442E-03     56.6316E-03    -109.311E-03     216.884E-03    -108.290E-03     55.4015E-03
            1695     2.42292E-03     47.0621E-03    -81.5631E+06    -222.958E+06    -67.2054E+06     93.3794E+03    -108.799E-03     217.186E-03    -108.387E-03     42.9113E-03    -108.871E-03     216.372E-03    -108.282E-03     42.0199E-03
            1696     1.61529E-03     47.0216E-03    -85.7807E+06    -231.564E+06    -79.3913E+06    -152.010E+03    -108.505E-03     216.855E-03    -108.350E-03     29.1204E-03    -108.521E-03     215.975E-03    -108.287E-03     28.5338E-03
            1697     807.581E-06     46.9968E-03    -88.7792E+06    -236.428E+06    -86.6337E+06    -188.617E+03    -108.385E-03     216.732E-03    -108.347E-03     15.9467E-03    -108.372E-03     215.817E-03    -108.309E-03     15.6318E-03
            1698     15.3426E-03     48.2476E-03    -5.89379E+06     121.914E+06     92.4006E+06    -179.901E+03    -107.280E-03     215.891E-03    -108.611E-03     95.6673E-03    -112.004E-03     220.758E-03    -108.317E-03     90.2922E-03
            1699     14.5374E-03     48.0785E-03    -10.3598E+06     122.069E+06     95.8282E+06    -624.855E+03    -107.793E-03     216.428E-03    -108.635E-03     158.264E-03    -115.300E-03     224.054E-03    -108.318E-03     150.788E-03
            1700     13.7289E-03     47.9034E-03    -15.8408E+06     112.333E+06      86.425E+06     389.120E+03    -110.059E-03     218.683E-03    -108.624E-03     184.302E-03    -117.957E-03     226.674E-03    -108.332E-03     175.741E-03
            1701     12.9214E-03     47.6752E-03    -22.0355E+06     101.678E+06     62.5181E+06    -94.9020E+03    -112.368E-03     220.904E-03    -108.537E-03     203.139E-03    -120.259E-03     228.897E-03    -108.340E-03     193.769E-03
            1702     12.1141E-03     47.4556E-03    -26.0330E+06     89.3439E+06     33.4191E+06     107.503E+03    -112.748E-03     221.166E-03    -108.418E-03     193.937E-03    -119.115E-03     227.661E-03    -108.343E-03     185.125E-03
            1703     11.3061E-03     47.2512E-03    -30.0663E+06     41.9637E+06     16.2424E+06     747.305E+03    -112.653E-03     221.067E-03    -108.414E-03     177.203E-03    -117.355E-03     225.765E-03    -108.350E-03     169.470E-03
            1704     10.4985E-03     47.0676E-03    -33.9179E+06    -22.0020E+06     8.66841E+06     217.637E+03    -112.731E-03     221.205E-03    -108.474E-03     163.125E-03    -116.212E-03     224.462E-03    -108.349E-03     156.385E-03
            1705     9.69087E-03     46.8927E-03    -37.6328E+06    -62.9603E+06     4.11312E+06    -352.861E+03    -112.714E-03     221.216E-03    -108.502E-03     152.397E-03    -115.341E-03     223.474E-03    -108.336E-03     146.555E-03
            1706     8.88377E-03     46.7306E-03    -41.4659E+06    -88.7596E+06     699.304E+03    -404.179E+03    -112.501E-03     221.010E-03    -108.509E-03     142.326E-03    -114.503E-03     222.548E-03    -108.316E-03     137.292E-03
            1707     8.07620E-03     46.5779E-03    -45.3715E+06    -115.252E+06    -3.46506E+06    -345.629E+03    -112.121E-03     220.632E-03    -108.511E-03     131.433E-03    -113.623E-03     221.574E-03    -108.295E-03     127.140E-03
            1708     7.26880E-03     46.4387E-03    -49.7253E+06    -133.393E+06    -8.05620E+06    -216.927E+03    -111.601E-03     220.100E-03    -108.499E-03     119.764E-03    -112.717E-03     220.589E-03    -108.274E-03     116.140E-03
            1709     6.46124E-03     46.3116E-03    -54.3950E+06    -146.342E+06    -14.1089E+06    -393.933E+03    -111.086E-03     219.559E-03    -108.473E-03     107.886E-03    -111.906E-03     219.707E-03    -108.253E-03     104.857E-03
            1710     5.65373E-03     46.1979E-03    -59.2229E+06    -165.453E+06    -21.1548E+06    -203.137E+03    -110.541E-03     218.991E-03    -108.450E-03     95.5592E-03    -111.122E-03     218.836E-03    -108.230E-03     93.0603E-03
            1711     4.84617E-03     46.0979E-03    -64.6712E+06    -184.158E+06    -30.4914E+06    -171.507E+03    -109.984E-03     218.404E-03    -108.420E-03     82.9098E-03    -110.379E-03     218.004E-03    -108.211E-03     80.8838E-03
            1712     4.03844E-03     46.0123E-03    -70.6677E+06    -201.263E+06    -41.0940E+06    -253.232E+03    -109.500E-03     217.884E-03    -108.384E-03     69.8675E-03    -109.753E-03     217.291E-03    -108.195E-03     68.2598E-03
            1713     3.23093E-03     45.9413E-03    -76.4661E+06    -212.117E+06    -53.5527E+06    -146.691E+03    -109.069E-03     217.398E-03    -108.329E-03     56.5174E-03    -109.219E-03     216.680E-03    -108.179E-03     55.2876E-03
            1714     2.42325E-03     45.8855E-03    -81.9467E+06    -223.227E+06    -67.1953E+06    -82.2729E+03    -108.689E-03     216.961E-03    -108.272E-03     42.8461E-03    -108.762E-03     216.146E-03    -108.165E-03     41.9550E-03
            1715     1.61545E-03     45.8453E-03    -85.9555E+06    -231.311E+06    -78.9303E+06     132.276E+03    -108.406E-03     216.633E-03    -108.228E-03     29.0488E-03    -108.424E-03     215.754E-03    -108.162E-03     28.4664E-03
            1716     807.673E-06     45.8203E-03    -88.5701E+06    -236.584E+06    -87.1083E+06    -95.8513E+03    -108.198E-03     216.467E-03    -108.269E-03     15.9523E-03    -108.183E-03     215.551E-03    -108.233E-03     15.6422E-03
            1717     15.3475E-03     47.0667E-03    -4.28148E+06     122.969E+06     93.8951E+06     160.342E+03    -106.874E-03     215.480E-03    -108.606E-03     95.7669E-03    -111.582E-03     220.336E-03    -108.308E-03     90.4283E-03
            1718     14.5367E-03     46.9052E-03    -11.0582E+06     120.435E+06     94.3869E+06    -725.384E+03    -107.855E-03     216.489E-03    -108.634E-03     158.969E-03    -115.359E-03     224.108E-03    -108.321E-03     151.485E-03
            1719     13.7293E-03     46.7212E-03    -16.9699E+06     111.954E+06     85.8552E+06    -350.424E+03    -110.628E-03     219.238E-03    -108.610E-03     184.695E-03    -118.540E-03     227.238E-03    -108.318E-03     176.080E-03
            1720     12.9226E-03     46.5003E-03    -21.4558E+06     102.433E+06     63.4602E+06     166.725E+03    -112.275E-03     220.786E-03    -108.512E-03     202.981E-03    -120.144E-03     228.759E-03    -108.312E-03     193.647E-03
            1721     12.1134E-03     46.2765E-03    -26.8395E+06     87.6305E+06     32.5594E+06     678.635E+03    -112.550E-03     220.948E-03    -108.398E-03     193.825E-03    -118.900E-03     227.419E-03    -108.323E-03     185.052E-03
            1722     11.3060E-03     46.0747E-03    -31.1259E+06     42.1423E+06     16.3940E+06     689.249E+03    -112.824E-03     221.218E-03    -108.394E-03     176.695E-03    -117.527E-03     225.913E-03    -108.328E-03     168.947E-03
            1723     10.4988E-03     45.8882E-03    -34.1532E+06    -20.3341E+06     9.59878E+06     385.419E+03    -112.932E-03     221.365E-03    -108.434E-03     162.583E-03    -116.412E-03     224.625E-03    -108.307E-03     155.835E-03
            1724     9.69207E-03     45.7162E-03    -37.6245E+06    -62.7032E+06     4.37782E+06    -58.2774E+03    -112.758E-03     221.201E-03    -108.443E-03     151.995E-03    -115.383E-03     223.457E-03    -108.276E-03     146.155E-03
            1725     8.88406E-03     45.5525E-03    -41.3673E+06    -89.0426E+06     774.871E+03    -436.191E+03    -112.487E-03     220.927E-03    -108.441E-03     142.122E-03    -114.484E-03     222.459E-03    -108.248E-03     137.095E-03
            1726     8.07693E-03     45.4009E-03    -45.1730E+06    -115.293E+06    -3.25123E+06    -447.345E+03    -112.125E-03     220.559E-03    -108.434E-03     131.059E-03    -113.623E-03     221.497E-03    -108.218E-03     126.767E-03
            1727     7.26932E-03     45.2614E-03    -49.4160E+06    -133.427E+06    -7.71075E+06    -493.535E+03    -111.632E-03     220.043E-03    -108.410E-03     119.489E-03    -112.745E-03     220.529E-03    -108.184E-03     115.864E-03
            1728     6.46196E-03     45.1346E-03    -54.1024E+06    -146.279E+06    -14.0906E+06    -414.572E+03    -111.078E-03     219.446E-03    -108.368E-03     107.591E-03    -111.895E-03     219.593E-03    -108.148E-03     104.564E-03
            1729     5.65444E-03     45.0211E-03    -59.5399E+06    -166.001E+06    -21.5101E+06    -492.077E+03    -110.473E-03     218.806E-03    -108.334E-03     95.3045E-03    -111.052E-03     218.647E-03    -108.114E-03     92.8075E-03
            1730     4.84675E-03     44.9213E-03    -65.0997E+06    -184.042E+06    -30.4643E+06    -164.751E+03    -109.893E-03     218.189E-03    -108.295E-03     82.6695E-03    -110.289E-03     217.788E-03    -108.087E-03     80.6490E-03
            1731     4.03911E-03     44.8358E-03    -70.7742E+06    -201.273E+06    -41.4614E+06    -180.106E+03    -109.365E-03     217.618E-03    -108.254E-03     69.6691E-03    -109.616E-03     217.024E-03    -108.066E-03     68.0691E-03
            1732     3.23123E-03     44.7649E-03    -76.6153E+06    -212.584E+06    -53.7025E+06    -234.246E+03    -108.902E-03     217.108E-03    -108.205E-03     56.3443E-03    -109.052E-03     216.387E-03    -108.055E-03     55.1187E-03
            1733     2.42339E-03     44.7093E-03    -81.8887E+06    -223.242E+06    -67.3638E+06    -22.6715E+03    -108.562E-03     216.714E-03    -108.153E-03     42.7139E-03    -108.634E-03     215.898E-03    -108.047E-03     41.8261E-03
            1734     1.61569E-03     44.6691E-03    -86.1330E+06    -231.486E+06    -79.0286E+06    -70.6245E+03    -108.327E-03     216.424E-03    -108.097E-03     28.9962E-03    -108.345E-03     215.544E-03    -108.031E-03     28.4121E-03
            1735     807.972E-06     44.6442E-03    -88.8031E+06    -236.335E+06    -86.4694E+06     359.418E+03    -108.128E-03     216.179E-03    -108.051E-03     15.8870E-03    -108.116E-03     215.264E-03    -108.011E-03     15.5831E-03
            1736     15.3419E-03     45.8909E-03    -4.52276E+06     122.900E+06     93.6726E+06     398.002E+03    -106.724E-03     215.338E-03    -108.614E-03     95.8980E-03    -111.418E-03     220.181E-03    -108.317E-03     90.5590E-03
            1737     14.5361E-03     45.7251E-03    -9.91473E+06     121.387E+06     95.6659E+06     492.430E+03    -108.306E-03     216.943E-03    -108.638E-03     158.787E-03    -115.810E-03     224.566E-03    -108.321E-03     151.272E-03
            1738     13.7297E-03     45.5430E-03    -16.1884E+06     111.867E+06     85.7065E+06    -390.210E+03    -110.496E-03     219.093E-03    -108.598E-03     184.332E-03    -118.405E-03     227.094E-03    -108.308E-03     175.710E-03
            1739     12.9214E-03     45.3219E-03    -22.9273E+06     101.433E+06     62.2940E+06     78.2357E+03    -112.369E-03     220.865E-03    -108.496E-03     202.567E-03    -120.244E-03     228.838E-03    -108.298E-03     193.216E-03
            1740     12.1149E-03     45.0998E-03    -27.6409E+06     87.5688E+06     33.1766E+06     612.694E+03    -113.040E-03     221.405E-03    -108.365E-03     193.586E-03    -119.409E-03     227.890E-03    -108.286E-03     184.759E-03
            1741     11.3071E-03     44.8963E-03    -30.4645E+06     43.0516E+06     17.2104E+06     534.603E+03    -112.924E-03     221.256E-03    -108.332E-03     176.260E-03    -117.618E-03     225.944E-03    -108.264E-03     168.507E-03
            1742     10.4999E-03     44.7107E-03    -33.7149E+06    -20.4696E+06     9.64219E+06     173.839E+03    -112.795E-03     221.159E-03    -108.365E-03     162.281E-03    -116.261E-03     224.405E-03    -108.238E-03     155.550E-03
            1743     9.69199E-03     44.5384E-03    -37.0276E+06    -62.2276E+06     4.92581E+06    -60.8557E+03    -112.819E-03     221.190E-03    -108.371E-03     151.717E-03    -115.439E-03     223.444E-03    -108.203E-03     145.876E-03
            1744     8.88528E-03     44.3754E-03    -40.4529E+06    -88.2476E+06     1.37651E+06    -227.199E+03    -112.566E-03     220.919E-03    -108.352E-03     141.645E-03    -114.557E-03     222.448E-03    -108.159E-03     136.620E-03
            1745     8.07751E-03     44.2236E-03    -44.6047E+06    -115.532E+06    -3.10335E+06    -437.666E+03    -112.101E-03     220.432E-03    -108.332E-03     130.675E-03    -113.591E-03     221.363E-03    -108.115E-03     126.391E-03
            1746     7.27033E-03     44.0843E-03    -49.1023E+06    -133.553E+06    -7.69721E+06    -382.408E+03    -111.608E-03     219.904E-03    -108.296E-03     119.126E-03    -112.716E-03     220.386E-03    -108.069E-03     115.508E-03
            1747     6.46275E-03     43.9577E-03    -54.0294E+06    -146.394E+06    -13.9777E+06    -357.586E+03    -110.981E-03     219.226E-03    -108.245E-03     107.261E-03    -111.794E-03     219.368E-03    -108.024E-03     104.244E-03
            1748     5.65510E-03     43.8445E-03    -59.1158E+06    -166.016E+06    -21.5055E+06    -282.539E+03    -110.381E-03     218.584E-03    -108.203E-03     95.0375E-03    -110.956E-03     218.422E-03    -107.984E-03     92.5510E-03
            1749     4.84747E-03     43.7449E-03    -64.7235E+06    -184.628E+06    -30.5665E+06    -325.930E+03    -109.799E-03     217.957E-03    -108.158E-03     82.4491E-03    -110.190E-03     217.551E-03    -107.949E-03     80.4327E-03
            1750     4.03961E-03     43.6597E-03    -70.6423E+06    -201.118E+06    -40.9634E+06    -7.03371E+03    -109.249E-03     217.359E-03    -108.110E-03     69.4637E-03    -109.500E-03     216.764E-03    -107.921E-03     67.8719E-03
            1751     3.23178E-03     43.5890E-03    -76.6302E+06    -212.635E+06    -53.9962E+06    -35.3187E+03    -108.769E-03     216.821E-03    -108.052E-03     56.1173E-03    -108.918E-03     216.099E-03    -107.902E-03     54.8989E-03
            1752     2.42386E-03     43.5334E-03    -81.9212E+06    -223.431E+06    -67.5843E+06    -155.063E+03    -108.398E-03     216.395E-03    -107.997E-03     42.5131E-03    -108.470E-03     215.578E-03    -107.892E-03     41.6276E-03
            1753     1.61587E-03     43.4931E-03    -85.8766E+06    -231.449E+06    -79.0780E+06    -10.8492E+03    -108.126E-03     216.083E-03    -107.957E-03     28.8750E-03    -108.143E-03     215.203E-03    -107.892E-03     28.2960E-03
            1754     807.868E-06     43.4685E-03    -88.6735E+06    -236.344E+06    -86.5004E+06    -246.849E+03    -108.054E-03     215.931E-03    -107.876E-03     15.9352E-03    -108.042E-03     215.015E-03    -107.838E-03     15.6219E-03
            1755     15.3463E-03     44.7131E-03    -5.08317E+06     122.642E+06     93.2932E+06    -78.7737E+03    -107.530E-03     216.121E-03    -108.592E-03     94.9844E-03    -112.228E-03     220.967E-03    -108.296E-03     89.5864E-03
            1756     14.5383E-03     44.5458E-03    -9.80462E+06     121.544E+06     95.8139E+06    -250.470E+03    -107.973E-03     216.573E-03    -108.600E-03     158.049E-03    -115.463E-03     224.182E-03    -108.283E-03     150.531E-03
            1757     13.7295E-03     44.3664E-03    -15.9423E+06     111.608E+06     86.2778E+06     792.774E+03    -110.201E-03     218.778E-03    -108.577E-03     184.133E-03    -118.096E-03     226.762E-03    -108.284E-03     175.547E-03
            1758     12.9224E-03     44.1429E-03    -22.0715E+06     101.051E+06     64.2321E+06     549.750E+03    -112.693E-03     221.169E-03    -108.477E-03     202.188E-03    -120.569E-03     229.140E-03    -108.270E-03     192.801E-03
            1759     12.1147E-03     43.9216E-03    -26.1159E+06     88.2740E+06     35.9087E+06     101.818E+03    -113.320E-03     221.641E-03    -108.322E-03     193.119E-03    -119.680E-03     228.118E-03    -108.232E-03     184.262E-03
            1760     11.3082E-03     43.7178E-03    -30.0441E+06     43.1772E+06     17.7859E+06     447.822E+03    -112.978E-03     221.241E-03    -108.263E-03     176.204E-03    -117.666E-03     225.924E-03    -108.194E-03     168.455E-03
            1761     10.5003E-03     43.5344E-03    -33.5744E+06    -20.1398E+06     9.59656E+06     203.474E+03    -112.895E-03     221.176E-03    -108.281E-03     162.130E-03    -116.353E-03     224.416E-03    -108.156E-03     155.404E-03
            1762     9.69342E-03     43.3598E-03    -36.5716E+06    -61.9291E+06     5.16725E+06    -299.498E+03    -112.850E-03     221.125E-03    -108.275E-03     151.266E-03    -115.460E-03     223.370E-03    -108.107E-03     145.429E-03
            1763     8.88601E-03     43.1984E-03    -40.1226E+06    -87.7666E+06     1.76327E+06    -212.246E+03    -112.556E-03     220.801E-03    -108.244E-03     141.188E-03    -114.542E-03     222.327E-03    -108.050E-03     136.168E-03
            1764     8.07883E-03     43.0465E-03    -44.2871E+06    -115.309E+06    -2.98457E+06    -62.5279E+03    -112.123E-03     220.332E-03    -108.209E-03     130.436E-03    -113.608E-03     221.258E-03    -107.992E-03     126.165E-03
            1765     7.27123E-03     42.9075E-03    -48.8460E+06    -133.798E+06    -7.58110E+06    -158.690E+03    -111.517E-03     219.679E-03    -108.162E-03     118.805E-03    -112.619E-03     220.155E-03    -107.936E-03     115.201E-03
            1766     6.46364E-03     42.7812E-03    -53.7369E+06    -146.362E+06    -13.6407E+06    -139.820E+03    -110.882E-03     218.987E-03    -108.105E-03     106.920E-03    -111.690E-03     219.125E-03    -107.883E-03     103.916E-03
            1767     5.65599E-03     42.6681E-03    -59.1766E+06    -166.096E+06    -21.6169E+06    -241.964E+03    -110.264E-03     218.318E-03    -108.055E-03     94.6906E-03    -110.836E-03     218.153E-03    -107.836E-03     92.2140E-03
            1768     4.84811E-03     42.5689E-03    -64.8317E+06    -184.657E+06    -30.6838E+06    -114.350E+03    -109.665E-03     217.668E-03    -108.003E-03     82.1088E-03    -110.054E-03     217.260E-03    -107.795E-03     80.1040E-03
            1769     4.04031E-03     42.4837E-03    -70.7715E+06    -201.554E+06    -41.0476E+06    -39.4929E+03    -109.132E-03     217.080E-03    -107.947E-03     69.2024E-03    -109.382E-03     216.481E-03    -107.758E-03     67.6162E-03
            1770     3.23234E-03     42.4133E-03    -76.4662E+06    -212.410E+06    -53.5157E+06     83.3178E+03    -108.648E-03     216.525E-03    -107.877E-03     55.9128E-03    -108.796E-03     215.802E-03    -107.726E-03     54.7013E-03
            1771     2.42433E-03     42.3579E-03    -81.7062E+06    -223.336E+06    -67.5045E+06    -2.35101E+03    -108.217E-03     216.028E-03    -107.811E-03     42.3731E-03    -108.286E-03     215.211E-03    -107.707E-03     41.4948E-03
            1772     1.61622E-03     42.3179E-03    -85.9273E+06    -231.458E+06    -79.1360E+06    -100.495E+03    -107.922E-03     215.698E-03    -107.776E-03     28.7747E-03    -107.939E-03     214.817E-03    -107.711E-03     28.1976E-03
            1773     808.036E-06     42.2930E-03    -88.6193E+06    -236.482E+06    -86.8363E+06    -175.608E+03    -107.862E-03     215.578E-03    -107.716E-03     15.8805E-03    -107.848E-03     214.663E-03    -107.679E-03     15.5693E-03
            1774     15.3454E-03     43.5325E-03    -4.87183E+06     123.048E+06     93.2802E+06    -414.742E+03    -107.267E-03     215.847E-03    -108.580E-03     96.0560E-03    -111.976E-03     220.705E-03    -108.285E-03     90.6737E-03
            1775     14.5376E-03     43.3707E-03    -10.5864E+06     121.034E+06     95.0367E+06     507.178E+03    -108.269E-03     216.860E-03    -108.591E-03     159.538E-03    -115.767E-03     224.475E-03    -108.276E-03     152.033E-03
            1776     13.7300E-03     43.1871E-03    -16.4186E+06     110.977E+06     86.2499E+06     368.919E+03    -110.833E-03     219.381E-03    -108.548E-03     184.393E-03    -118.724E-03     227.358E-03    -108.254E-03     175.761E-03
            1777     12.9228E-03     42.9653E-03    -20.7059E+06     102.052E+06     65.7086E+06     323.599E+03    -112.849E-03     221.274E-03    -108.425E-03     201.894E-03    -120.693E-03     229.217E-03    -108.215E-03     192.512E-03
            1778     12.1165E-03     42.7422E-03    -26.1727E+06     87.5073E+06     35.2786E+06     695.941E+03    -113.243E-03     221.500E-03    -108.258E-03     192.748E-03    -119.584E-03     227.957E-03    -108.170E-03     183.914E-03
            1779     11.3082E-03     42.5417E-03    -30.2712E+06     43.4618E+06     17.7516E+06     315.106E+03    -113.170E-03     221.359E-03    -108.189E-03     175.628E-03    -117.857E-03     226.041E-03    -108.120E-03     167.862E-03
            1780     10.5017E-03     42.3548E-03    -33.1143E+06    -18.6356E+06     10.3586E+06    -57.2309E+03    -113.054E-03     221.239E-03    -108.185E-03     161.663E-03    -116.505E-03     224.476E-03    -108.059E-03     154.934E-03
            1781     9.69460E-03     42.1838E-03    -36.8496E+06    -61.9255E+06     4.94068E+06    -172.645E+03    -112.796E-03     220.959E-03    -108.163E-03     151.053E-03    -115.400E-03     223.198E-03    -107.995E-03     145.231E-03
            1782     8.88699E-03     42.0205E-03    -40.7185E+06    -88.5679E+06     1.20713E+06    -155.955E+03    -112.548E-03     220.672E-03    -108.124E-03     141.010E-03    -114.527E-03     222.188E-03    -107.931E-03     136.004E-03
            1783     8.07974E-03     41.8698E-03    -44.5222E+06    -115.317E+06    -3.00769E+06    -55.4468E+03    -112.106E-03     220.182E-03    -108.077E-03     130.008E-03    -113.588E-03     221.106E-03    -107.860E-03     125.741E-03
            1784     7.27231E-03     41.7308E-03    -48.8199E+06    -133.568E+06    -7.69342E+06    -105.898E+03    -111.457E-03     219.473E-03    -108.016E-03     118.485E-03    -112.553E-03     219.944E-03    -107.790E-03     114.895E-03
            1785     6.46472E-03     41.6049E-03    -53.5611E+06    -146.772E+06    -13.8715E+06    -119.817E+03    -110.807E-03     218.754E-03    -107.947E-03     106.570E-03    -111.609E-03     218.886E-03    -107.726E-03     103.577E-03
            1786     5.65691E-03     41.4921E-03    -58.8421E+06    -165.863E+06    -21.0370E+06     212.052E+03    -110.159E-03     218.046E-03    -107.887E-03     94.3257E-03    -110.727E-03     217.878E-03    -107.667E-03     91.8651E-03
            1787     4.84911E-03     41.3931E-03    -64.6482E+06    -184.464E+06    -30.4597E+06     156.833E+03    -109.537E-03     217.360E-03    -107.823E-03     81.7545E-03    -109.923E-03     216.950E-03    -107.614E-03     79.7623E-03
            1788     4.04101E-03     41.3083E-03    -70.5424E+06    -201.584E+06    -41.2130E+06     12.1383E+03    -108.976E-03     216.732E-03    -107.755E-03     68.8847E-03    -109.222E-03     216.131E-03    -107.567E-03     67.3071E-03
            1789     3.23298E-03     41.2379E-03    -76.4800E+06    -212.576E+06    -53.5085E+06    -2.89444E+03    -108.461E-03     216.140E-03    -107.679E-03     55.6241E-03    -108.607E-03     215.416E-03    -107.527E-03     54.4181E-03
            1790     2.42478E-03     41.1830E-03    -81.7364E+06    -223.097E+06    -67.1753E+06     129.045E+03    -108.048E-03     215.652E-03    -107.604E-03     42.1228E-03    -108.118E-03     214.835E-03    -107.498E-03     41.2506E-03
            1791     1.61650E-03     41.1428E-03    -85.8753E+06    -231.438E+06    -79.1873E+06     105.925E+03    -107.761E-03     215.300E-03    -107.540E-03     28.6404E-03    -107.777E-03     214.420E-03    -107.476E-03     28.0689E-03
            1792     808.349E-06     41.1181E-03    -88.7585E+06    -236.449E+06    -86.8172E+06    -33.1225E+03    -107.598E-03     215.069E-03    -107.470E-03     15.8263E-03    -107.585E-03     214.153E-03    -107.433E-03     15.5226E-03
            1793     15.3435E-03     42.3560E-03    -5.46443E+06     122.469E+06     92.2083E+06     106.770E+03    -107.109E-03     215.704E-03    -108.594E-03     96.3461E-03    -111.821E-03     220.563E-03    -108.303E-03     90.9367E-03
            1794     14.5364E-03     42.1897E-03    -11.3052E+06     120.351E+06     94.2924E+06    -456.430E+03    -109.161E-03     217.743E-03    -108.583E-03     158.067E-03    -116.658E-03     225.354E-03    -108.269E-03     150.438E-03
            1795     13.7309E-03     42.0086E-03    -15.7091E+06     111.278E+06     86.1187E+06    -490.964E+03    -111.220E-03     219.715E-03    -108.495E-03     183.099E-03    -119.081E-03     227.665E-03    -108.203E-03     174.421E-03
            1796     12.9244E-03     41.7865E-03    -22.2038E+06     100.782E+06     64.1566E+06     207.406E+03    -112.818E-03     221.170E-03    -108.352E-03     201.585E-03    -120.647E-03     229.092E-03    -108.145E-03     192.209E-03
            1797     12.1159E-03     41.5653E-03    -26.6935E+06     87.7613E+06     35.7459E+06     60.3136E+03    -113.384E-03     221.564E-03    -108.180E-03     192.218E-03    -119.723E-03     228.015E-03    -108.089E-03     183.365E-03
            1798     11.3103E-03     41.3620E-03    -29.2721E+06     44.4944E+06     18.5132E+06     46.3141E+03    -113.228E-03     221.321E-03    -108.093E-03     175.116E-03    -117.896E-03     225.990E-03    -108.023E-03     167.355E-03
            1799     10.5029E-03     41.1786E-03    -32.9405E+06    -18.9964E+06     10.0662E+06     157.511E+03    -112.976E-03     221.055E-03    -108.079E-03     161.351E-03    -116.417E-03     224.282E-03    -107.953E-03     154.637E-03
            1800     9.69515E-03     41.0057E-03    -36.5177E+06    -61.7321E+06     5.20374E+06     307.394E+03    -112.855E-03     220.904E-03    -108.048E-03     150.744E-03    -115.449E-03     223.134E-03    -107.880E-03     144.939E-03
            1801     8.88844E-03     40.8439E-03    -40.3755E+06    -88.2503E+06     1.20097E+06     153.343E+03    -112.577E-03     220.568E-03    -107.991E-03     140.588E-03    -114.547E-03     222.078E-03    -107.799E-03     135.596E-03
            1802     8.08093E-03     40.6929E-03    -44.6216E+06    -115.745E+06    -3.38286E+06    -123.600E+03    -112.063E-03     219.991E-03    -107.928E-03     129.540E-03    -113.536E-03     220.905E-03    -107.713E-03     125.286E-03
            1803     7.27349E-03     40.5546E-03    -49.0745E+06    -133.269E+06    -7.84061E+06     71.1410E+03    -111.419E-03     219.272E-03    -107.853E-03     117.951E-03    -112.511E-03     219.739E-03    -107.628E-03     114.374E-03
            1804     6.46574E-03     40.4288E-03    -54.2576E+06    -146.837E+06    -14.2879E+06    -8.24765E+03    -110.706E-03     218.474E-03    -107.769E-03     106.121E-03    -111.506E-03     218.602E-03    -107.548E-03     103.143E-03
            1805     5.65805E-03     40.3164E-03    -59.4513E+06    -165.969E+06    -21.4427E+06     92.9774E+03    -110.043E-03     217.738E-03    -107.695E-03     93.8848E-03    -110.610E-03     217.567E-03    -107.475E-03     91.4344E-03
            1806     4.84996E-03     40.2178E-03    -64.8177E+06    -184.247E+06    -30.6461E+06     214.909E+03    -109.409E-03     217.024E-03    -107.615E-03     81.3786E-03    -109.794E-03     216.613E-03    -107.407E-03     79.3975E-03
            1807     4.04204E-03     40.1331E-03    -70.6427E+06    -201.495E+06    -41.2653E+06     177.923E+03    -108.795E-03     216.330E-03    -107.535E-03     68.5127E-03    -109.040E-03     215.728E-03    -107.347E-03     66.9461E-03
            1808     3.23370E-03     40.0633E-03    -76.4669E+06    -212.469E+06    -53.8042E+06     148.061E+03    -108.260E-03     215.707E-03    -107.448E-03     55.3445E-03    -108.405E-03     214.982E-03    -107.298E-03     54.1479E-03
            1809     2.42539E-03     40.0081E-03    -81.7840E+06    -223.189E+06    -67.2998E+06     94.8001E+03    -107.873E-03     215.230E-03    -107.356E-03     41.8609E-03    -107.942E-03     214.411E-03    -107.251E-03     40.9934E-03
            1810     1.61711E-03     39.9686E-03    -85.8492E+06    -231.257E+06    -78.9196E+06     108.717E+03    -107.548E-03     214.811E-03    -107.263E-03     28.4416E-03    -107.565E-03     213.931E-03    -107.198E-03     27.8742E-03
            1811     808.510E-06     39.9435E-03    -88.3440E+06    -236.219E+06    -86.8528E+06     215.446E+03    -107.275E-03     214.477E-03    -107.202E-03     15.6106E-03    -107.260E-03     213.562E-03    -107.165E-03     15.3127E-03
            1812     15.3454E-03     41.1786E-03    -4.35354E+06     123.658E+06     93.9050E+06     499.752E+03    -108.551E-03     217.091E-03    -108.539E-03     94.2151E-03    -113.220E-03     221.911E-03    -108.243E-03     88.7585E-03
            1813     14.5397E-03     41.0082E-03    -9.23235E+06     121.965E+06     95.7747E+06    -374.005E+03    -108.699E-03     217.192E-03    -108.492E-03     156.908E-03    -116.137E-03     224.752E-03    -108.177E-03     149.319E-03
            1814     13.7325E-03     40.8314E-03    -17.2058E+06     109.645E+06     84.5673E+06    -270.662E+03    -110.832E-03     219.249E-03    -108.416E-03     182.718E-03    -118.670E-03     227.170E-03    -108.128E-03     174.081E-03
            1815     12.9240E-03     40.6078E-03    -22.4486E+06     100.606E+06     63.8013E+06    -299.674E+03    -113.041E-03     221.316E-03    -108.275E-03     201.440E-03    -120.866E-03     229.234E-03    -108.069E-03     192.040E-03
            1816     12.1192E-03     40.3868E-03    -26.0058E+06     88.4067E+06     35.2338E+06    -892.490E+03    -113.510E-03     221.592E-03    -108.082E-03     192.111E-03    -119.828E-03     228.030E-03    -107.997E-03     183.252E-03
            1817     11.3108E-03     40.1847E-03    -30.2933E+06     42.9360E+06     17.2004E+06    -344.464E+03    -113.198E-03     221.186E-03    -107.987E-03     174.814E-03    -117.849E-03     225.831E-03    -107.920E-03     167.070E-03
            1818     10.5035E-03     40.0010E-03    -33.5609E+06    -18.7991E+06     10.0632E+06     433.979E+03    -113.041E-03     221.006E-03    -107.965E-03     160.867E-03    -116.473E-03     224.223E-03    -107.839E-03     154.165E-03
            1819     9.69713E-03     39.8284E-03    -36.9709E+06    -61.3519E+06     4.81705E+06     319.872E+03    -112.926E-03     220.840E-03    -107.914E-03     150.236E-03    -115.511E-03     223.062E-03    -107.747E-03     144.441E-03
            1820     8.88947E-03     39.6671E-03    -40.7068E+06    -88.1337E+06     928.014E+03     194.691E+03    -112.561E-03     220.400E-03    -107.840E-03     140.086E-03    -114.523E-03     221.903E-03    -107.648E-03     135.108E-03
            1821     8.08226E-03     39.5162E-03    -44.7414E+06    -115.299E+06    -3.60972E+06     263.695E+03    -112.058E-03     219.818E-03    -107.759E-03     129.008E-03    -113.523E-03     220.725E-03    -107.545E-03     124.776E-03
            1822     7.27485E-03     39.3786E-03    -49.4102E+06    -133.638E+06    -7.91852E+06     271.186E+03    -111.377E-03     219.042E-03    -107.666E-03     117.341E-03    -112.463E-03     219.502E-03    -107.440E-03     113.778E-03
            1823     6.46722E-03     39.2531E-03    -54.2358E+06    -146.046E+06    -14.1292E+06     419.820E+03    -110.615E-03     218.175E-03    -107.561E-03     105.507E-03    -111.411E-03     218.301E-03    -107.341E-03     102.549E-03
            1824     5.65918E-03     39.1413E-03    -59.6584E+06    -166.073E+06    -22.2068E+06    -31.0074E+03    -109.898E-03     217.366E-03    -107.467E-03     93.3385E-03    -110.460E-03     217.190E-03    -107.251E-03     90.9006E-03
            1825     4.85128E-03     39.0427E-03    -65.2369E+06    -184.506E+06    -31.0323E+06    -29.9471E+03    -109.232E-03     216.607E-03    -107.375E-03     80.8583E-03    -109.614E-03     216.192E-03    -107.168E-03     78.8859E-03
            1826     4.04289E-03     38.9587E-03    -70.8171E+06    -201.297E+06    -41.4015E+06     135.659E+03    -108.595E-03     215.876E-03    -107.281E-03     68.0340E-03    -108.839E-03     215.273E-03    -107.093E-03     66.4771E-03
            1827     3.23457E-03     38.8889E-03    -76.4902E+06    -212.351E+06    -53.6714E+06     147.632E+03    -108.037E-03     215.216E-03    -107.180E-03     54.9801E-03    -108.181E-03     214.491E-03    -107.029E-03     53.7918E-03
            1828     2.42609E-03     38.8341E-03    -81.5765E+06    -223.015E+06    -67.3268E+06     96.8889E+03    -107.606E-03     214.683E-03    -107.078E-03     41.6407E-03    -107.673E-03     213.865E-03    -106.973E-03     40.7798E-03
            1829     1.61745E-03     38.7946E-03    -85.8032E+06    -231.181E+06    -78.8666E+06     65.9416E+03    -107.289E-03     214.263E-03    -106.974E-03     28.2526E-03    -107.305E-03     213.383E-03    -106.909E-03     27.6882E-03
            1830     808.896E-06     38.7702E-03    -88.8384E+06    -236.247E+06    -86.3791E+06     270.923E+03    -107.028E-03     213.881E-03    -106.853E-03     15.3549E-03    -107.015E-03     212.966E-03    -106.814E-03     15.0575E-03
            1831     15.3492E-03     39.9954E-03    -4.94230E+06     123.175E+06     93.1819E+06    -736.894E+03    -108.482E-03     216.974E-03    -108.492E-03     95.7808E-03    -113.182E-03     221.824E-03    -108.198E-03     90.3055E-03
            1832     14.5406E-03     39.8352E-03    -10.0717E+06     121.520E+06     95.5967E+06     970.402E+03    -108.858E-03     217.309E-03    -108.451E-03     159.304E-03    -116.321E-03     224.891E-03    -108.135E-03     151.767E-03
            1833     13.7316E-03     39.6500E-03    -15.7582E+06     111.245E+06     86.3495E+06     776.024E+03    -111.213E-03     219.582E-03    -108.369E-03     183.640E-03    -119.047E-03     227.505E-03    -108.076E-03     175.006E-03
            1834     12.9271E-03     39.4310E-03    -21.3358E+06     101.730E+06     64.6601E+06    -861.855E+03    -113.254E-03     221.459E-03    -108.205E-03     201.288E-03    -121.063E-03     229.366E-03    -107.998E-03     191.876E-03
            1835     12.1178E-03     39.2073E-03    -26.8247E+06     87.3933E+06     33.7438E+06    -259.301E+03    -113.604E-03     221.596E-03    -107.992E-03     192.009E-03    -119.903E-03     228.013E-03    -107.911E-03     183.172E-03
            1836     11.3124E-03     39.0077E-03    -30.8322E+06     42.4120E+06     16.2925E+06     66.8768E+03    -113.408E-03     221.288E-03    -107.881E-03     174.261E-03    -118.049E-03     225.924E-03    -107.816E-03     166.513E-03
            1837     10.5057E-03     38.8228E-03    -34.3765E+06    -18.9732E+06     9.44446E+06    -18.6799E+03    -113.205E-03     221.039E-03    -107.834E-03     160.474E-03    -116.629E-03     224.246E-03    -107.710E-03     153.769E-03
            1838     9.69799E-03     38.6519E-03    -37.8324E+06    -60.9774E+06     4.34031E+06     191.394E+03    -112.993E-03     220.753E-03    -107.760E-03     149.746E-03    -115.572E-03     222.969E-03    -107.595E-03     143.959E-03
            1839     8.89119E-03     38.4899E-03    -41.5444E+06    -88.0853E+06     431.035E+03     156.334E+03    -112.618E-03     220.281E-03    -107.663E-03     139.395E-03    -114.573E-03     221.774E-03    -107.473E-03     134.429E-03
            1840     8.08390E-03     38.3403E-03    -45.5372E+06    -115.396E+06    -4.20169E+06     177.582E+03    -112.027E-03     219.585E-03    -107.558E-03     128.252E-03    -113.484E-03     220.483E-03    -107.346E-03     124.035E-03
            1841     7.27636E-03     38.2024E-03    -49.4583E+06    -133.788E+06    -8.45688E+06     61.5422E+03    -111.313E-03     218.754E-03    -107.442E-03     116.586E-03    -112.390E-03     219.205E-03    -107.218E-03     113.036E-03
            1842     6.46869E-03     38.0780E-03    -53.8564E+06    -146.170E+06    -14.1286E+06     207.932E+03    -110.525E-03     217.840E-03    -107.315E-03     104.755E-03    -111.313E-03     217.959E-03    -107.096E-03     101.807E-03
            1843     5.66084E-03     37.9663E-03    -58.9183E+06    -165.433E+06    -21.4981E+06     425.498E+03    -109.752E-03     216.952E-03    -107.200E-03     92.6680E-03    -110.307E-03     216.773E-03    -106.982E-03     90.2505E-03
            1844     4.85250E-03     37.8684E-03    -64.5966E+06    -184.457E+06    -30.8962E+06     109.444E+03    -109.018E-03     216.104E-03    -107.087E-03     80.1914E-03    -109.393E-03     215.685E-03    -106.880E-03     78.2347E-03
            1845     4.04423E-03     37.7846E-03    -70.4490E+06    -201.372E+06    -41.2314E+06      35.348E+03    -108.349E-03     215.326E-03    -106.977E-03     67.4570E-03    -108.588E-03     214.720E-03    -106.789E-03     65.9108E-03
            1846     3.23565E-03     37.7153E-03    -76.2000E+06    -212.180E+06    -53.5882E+06     68.2889E+03    -107.735E-03     214.599E-03    -106.864E-03     54.5137E-03    -107.876E-03     213.872E-03    -106.714E-03     53.3338E-03
            1847     2.42679E-03     37.6608E-03    -81.5901E+06    -222.887E+06    -67.1210E+06     109.273E+03    -107.257E-03     214.021E-03    -106.764E-03     41.3397E-03    -107.324E-03     213.202E-03    -106.658E-03     40.4866E-03
            1848     1.61798E-03     37.6213E-03    -85.8086E+06    -231.099E+06    -78.8098E+06     258.908E+03    -106.923E-03     213.605E-03    -106.682E-03     28.0069E-03    -106.939E-03     212.725E-03    -106.616E-03     27.4496E-03
            1849     809.009E-06     37.5973E-03    -88.3641E+06    -235.991E+06    -86.4443E+06    -104.798E+03    -106.713E-03     213.330E-03    -106.616E-03     15.3244E-03    -106.699E-03     212.415E-03    -106.578E-03     15.0225E-03
            1850     15.3426E-03     38.8182E-03    -5.33108E+06     122.484E+06     92.3910E+06     16.9695E+03    -108.154E-03     216.674E-03    -108.520E-03     95.8114E-03    -112.848E-03     221.516E-03    -108.228E-03     90.3119E-03
            1851     14.5376E-03     38.6520E-03    -12.0580E+06     120.073E+06     93.9873E+06    -965.332E+03    -109.845E-03     218.300E-03    -108.455E-03     157.788E-03    -117.311E-03     225.877E-03    -108.142E-03     150.096E-03
            1852     13.7344E-03     38.4730E-03    -15.7832E+06     111.811E+06     86.8505E+06    -822.497E+03    -111.771E-03     220.097E-03    -108.326E-03     182.753E-03    -119.597E-03     228.012E-03    -108.031E-03     174.031E-03
            1853     12.9253E-03     38.2504E-03    -21.5378E+06     101.672E+06     64.1306E+06     307.017E+03    -113.374E-03     221.505E-03    -108.130E-03     200.640E-03    -121.162E-03     229.391E-03    -107.926E-03     191.227E-03
            1854     12.1212E-03     38.0309E-03    -27.0379E+06     87.4446E+06     33.6215E+06     386.615E+03    -113.808E-03     221.708E-03    -107.900E-03     191.372E-03    -120.089E-03     228.106E-03    -107.819E-03     182.534E-03
            1855     11.3132E-03     37.8281E-03    -30.5651E+06     42.8250E+06     16.3575E+06     64.6695E+03    -113.567E-03     221.332E-03    -107.765E-03     173.796E-03    -118.193E-03     225.954E-03    -107.701E-03     166.048E-03
            1856     10.5064E-03     37.6465E-03    -33.8297E+06    -19.4477E+06     9.20362E+06     221.578E+03    -113.440E-03     221.131E-03    -107.691E-03     159.824E-03    -116.850E-03     224.326E-03    -107.568E-03     153.115E-03
            1857     9.70005E-03     37.4739E-03    -37.5255E+06    -61.0891E+06     4.63640E+06     455.161E+03    -113.203E-03     220.788E-03    -107.585E-03     148.976E-03    -115.766E-03     222.988E-03    -107.419E-03     143.198E-03
            1858     8.89305E-03     37.3139E-03    -41.3537E+06    -87.2367E+06     687.392E+03     349.835E+03    -112.683E-03     220.136E-03    -107.453E-03     138.485E-03    -114.625E-03     221.619E-03    -107.263E-03     133.535E-03
            1859     8.08575E-03     37.1638E-03    -45.3082E+06    -115.194E+06    -4.10946E+06     18.0564E+03    -112.012E-03     219.330E-03    -107.319E-03     127.429E-03    -113.458E-03     220.219E-03    -107.106E-03     123.227E-03
            1860     7.27846E-03     37.0273E-03    -49.7905E+06    -133.683E+06    -8.87454E+06    -110.184E+03    -111.217E-03     218.391E-03    -107.174E-03     115.709E-03    -112.285E-03     218.834E-03    -106.953E-03     112.177E-03
            1861     6.47060E-03     36.9029E-03    -54.6912E+06    -146.774E+06    -14.7843E+06    -185.053E+03    -110.396E-03     217.419E-03    -107.023E-03     103.929E-03    -111.178E-03     217.528E-03    -106.805E-03     100.995E-03
            1862     5.66256E-03     36.7921E-03    -59.5912E+06    -165.429E+06    -21.7320E+06     104.885E+03    -109.580E-03     216.462E-03    -106.882E-03     91.8526E-03    -110.132E-03     216.279E-03    -106.665E-03     89.4466E-03
            1863     4.85433E-03     36.6946E-03    -64.8223E+06    -183.868E+06    -30.8912E+06     286.754E+03    -108.765E-03     215.509E-03    -106.744E-03     79.4868E-03    -109.137E-03     215.089E-03    -106.538E-03     77.5491E-03
            1864     4.04565E-03     36.6114E-03    -70.5436E+06    -201.472E+06    -41.4310E+06     80.9992E+03    -108.032E-03     214.650E-03    -106.618E-03     66.8604E-03    -108.268E-03     214.040E-03    -106.431E-03     65.3286E-03
            1865     3.23675E-03     36.5425E-03    -76.3916E+06    -212.158E+06    -53.6306E+06     46.8666E+03    -107.393E-03     213.887E-03    -106.494E-03     53.9852E-03    -107.533E-03     213.158E-03    -106.344E-03     52.8155E-03
            1866     2.42778E-03     36.4883E-03    -81.6579E+06    -222.924E+06    -67.2097E+06     123.618E+03    -106.871E-03     213.259E-03    -106.388E-03     40.9161E-03    -106.937E-03     212.439E-03    -106.282E-03     40.0707E-03
            1867     1.61850E-03     36.4491E-03    -85.6267E+06    -230.907E+06    -78.7593E+06    -30.8816E+03    -106.497E-03     212.818E-03    -106.321E-03     27.6986E-03    -106.512E-03     211.938E-03    -106.256E-03     27.1430E-03
            1868     809.148E-06     36.4251E-03    -87.9266E+06    -235.540E+06    -86.1340E+06    -26.8860E+03    -106.379E-03     212.638E-03    -106.259E-03     15.0073E-03    -106.363E-03     211.724E-03    -106.221E-03     14.7094E-03
            1869     15.3482E-03     37.6379E-03    -3.90324E+06     123.791E+06     94.7145E+06     749.723E+03    -109.390E-03     217.882E-03    -108.492E-03     93.7076E-03    -114.031E-03     222.674E-03    -108.192E-03     88.1732E-03
            1870     14.5420E-03     37.4724E-03    -8.88835E+06     122.279E+06     96.2968E+06    -244.807E+03    -109.653E-03     218.042E-03    -108.389E-03     156.061E-03    -117.045E-03     225.557E-03    -108.072E-03     148.382E-03
            1871     13.7331E-03     37.2929E-03    -16.8748E+06     110.114E+06     84.5731E+06    -1.17775E+06    -111.646E-03     219.896E-03    -108.250E-03     181.984E-03    -119.449E-03     227.784E-03    -107.962E-03     173.251E-03
            1872     12.9292E-03     37.0727E-03    -22.8440E+06     100.595E+06     63.4785E+06    -158.619E+03    -113.650E-03     221.700E-03    -108.050E-03     200.345E-03    -121.419E-03     229.560E-03    -107.845E-03     190.916E-03
            1873     12.1204E-03     36.8512E-03    -26.7096E+06     87.9147E+06     34.2472E+06     470.484E+03    -114.048E-03     221.846E-03    -107.797E-03     190.930E-03    -120.303E-03     228.218E-03    -107.715E-03     182.093E-03
            1874     11.3151E-03     36.6513E-03    -30.9578E+06     42.6557E+06     15.9223E+06     102.990E+03    -113.883E-03     221.513E-03    -107.630E-03     173.189E-03    -118.492E-03     226.117E-03    -107.567E-03     165.437E-03
            1875     10.5086E-03     36.4679E-03    -34.6321E+06    -19.2767E+06     9.22046E+06     273.650E+03    -113.727E-03     221.247E-03    -107.519E-03     158.781E-03    -117.124E-03     224.425E-03    -107.395E-03     152.071E-03
            1876     9.70201E-03     36.2973E-03    -37.6674E+06    -60.8954E+06     4.36573E+06     314.257E+03    -113.339E-03     220.711E-03    -107.372E-03     147.968E-03    -115.887E-03     222.897E-03    -107.208E-03     142.198E-03
            1877     8.89514E-03     36.1371E-03     -40.932E+06    -87.2699E+06     853.093E+03     201.154E+03    -112.751E-03     219.958E-03    -107.207E-03     137.561E-03    -114.676E-03     221.426E-03    -107.017E-03     132.626E-03
            1878     8.08820E-03     35.9884E-03    -44.9049E+06    -114.526E+06    -3.63764E+06     337.728E+03    -112.000E-03     219.040E-03    -107.040E-03     126.419E-03    -113.435E-03     219.920E-03    -106.827E-03     122.236E-03
            1879     7.28053E-03     35.8521E-03    -49.5192E+06    -133.412E+06    -8.61538E+06     194.926E+03    -111.138E-03     218.001E-03    -106.863E-03     114.778E-03    -112.195E-03     218.433E-03    -106.641E-03     111.273E-03
            1880     6.47284E-03     35.7287E-03    -54.3583E+06    -146.652E+06    -14.8695E+06    -37.9505E+03    -110.259E-03     216.937E-03    -106.678E-03     102.948E-03    -111.031E-03     217.038E-03    -106.460E-03     100.035E-03
            1881     5.66470E-03     35.6183E-03    -59.6197E+06    -165.644E+06    -22.1414E+06    -158.033E+03    -109.339E-03     215.846E-03    -106.507E-03     90.9017E-03    -109.884E-03     215.656E-03    -106.291E-03     88.5122E-03
            1882     4.85614E-03     35.5217E-03    -65.0132E+06    -183.835E+06    -30.8442E+06    -13.0884E+03    -108.464E-03     214.812E-03    -106.348E-03     78.6414E-03    -108.833E-03     214.387E-03    -106.141E-03     76.7170E-03
            1883     4.04730E-03     35.4389E-03    -70.6367E+06    -201.203E+06    -41.4529E+06     117.956E+03    -107.688E-03     213.886E-03    -106.199E-03     66.1129E-03    -107.921E-03     213.275E-03    -106.012E-03     64.5964E-03
            1884     3.23826E-03     35.3705E-03    -76.3532E+06    -212.292E+06    -53.7580E+06     59.4900E+03    -107.006E-03     213.061E-03    -106.055E-03     53.3386E-03    -107.143E-03     212.330E-03    -105.906E-03     52.1813E-03
            1885     2.42883E-03     35.3168E-03    -81.4526E+06    -222.768E+06    -67.3408E+06    -75.8996E+03    -106.449E-03     212.381E-03    -105.932E-03     40.4023E-03    -106.513E-03     211.561E-03    -105.828E-03     39.5635E-03
            1886     1.61929E-03     35.2779E-03    -85.3695E+06    -230.800E+06    -78.8668E+06    -36.5062E+03    -106.081E-03     211.922E-03    -105.842E-03     27.3845E-03    -106.094E-03     211.042E-03    -105.778E-03     26.8355E-03
            1887     809.753E-06     35.2538E-03    -88.1667E+06    -235.738E+06    -86.3224E+06     33.1367E+03    -105.968E-03     211.646E-03    -105.678E-03     14.8913E-03    -105.953E-03     210.732E-03    -105.640E-03     14.5988E-03
            1888     15.3474E-03     36.4561E-03    -4.58742E+06     123.129E+06     93.8551E+06    -873.649E+03    -109.337E-03     217.793E-03    -108.456E-03     95.0605E-03    -114.009E-03     222.613E-03    -108.158E-03     89.4876E-03
            1889     14.5409E-03     36.2943E-03    -9.25128E+06     121.996E+06     96.2887E+06     999.792E+03    -109.972E-03     218.326E-03    -108.354E-03     158.150E-03    -117.389E-03     225.864E-03    -108.036E-03     150.473E-03
            1890     13.7360E-03     36.1138E-03    -15.6615E+06     111.711E+06     86.0687E+06     1.55135E+06    -112.144E-03     220.342E-03    -108.198E-03     182.338E-03    -119.919E-03     228.208E-03    -107.907E-03     173.628E-03
            1891     12.9275E-03     35.8929E-03    -22.4445E+06     101.304E+06     63.7400E+06     98.0386E+03    -114.048E-03     222.013E-03    -107.964E-03     199.824E-03    -121.779E-03     229.838E-03    -107.760E-03     190.391E-03
            1892     12.1236E-03     35.6733E-03    -27.9014E+06     86.8821E+06     33.6037E+06    -234.979E+03    -114.536E-03     222.210E-03    -107.674E-03     190.009E-03    -120.769E-03     228.554E-03    -107.591E-03     181.138E-03
            1893     11.3164E-03     35.4724E-03    -31.1994E+06     43.0693E+06     16.1490E+06     425.821E+03    -114.302E-03     221.762E-03    -107.460E-03     172.168E-03    -118.891E-03     226.346E-03    -107.396E-03     164.403E-03
            1894     10.5108E-03     35.2900E-03    -34.3257E+06    -18.9667E+06     9.15124E+06     28.9829E+03    -113.933E-03     221.237E-03    -107.304E-03     157.667E-03    -117.305E-03     224.394E-03    -107.181E-03     150.962E-03
            1895     9.70438E-03     35.1207E-03    -37.5488E+06    -60.6189E+06     4.43193E+06    -22.0041E+03    -113.426E-03     220.547E-03    -107.121E-03     146.735E-03    -115.954E-03     222.713E-03    -106.957E-03     140.978E-03
            1896     8.89777E-03     34.9606E-03    -41.2082E+06    -87.4561E+06     347.021E+03     21.6468E+03    -112.786E-03     219.704E-03    -106.918E-03     136.439E-03    -114.694E-03     221.155E-03    -106.730E-03     131.521E-03
            1897     8.09062E-03     34.8132E-03    -44.9687E+06    -114.972E+06    -3.81398E+06     123.066E+03    -112.004E-03     218.718E-03    -106.714E-03     125.197E-03    -113.423E-03     219.581E-03    -106.501E-03     121.032E-03
            1898     7.28332E-03     34.6775E-03    -48.8930E+06    -132.800E+06    -8.26809E+06     406.531E+03    -111.069E-03     217.566E-03    -106.497E-03     113.595E-03    -112.112E-03     217.987E-03    -106.274E-03     110.114E-03
            1899     6.47546E-03     34.5549E-03    -53.6683E+06    -146.257E+06    -14.6223E+06     173.193E+03    -110.064E-03     216.337E-03    -106.274E-03     101.782E-03    -110.823E-03     216.429E-03    -106.057E-03     98.8954E-03
            1900     5.66718E-03     34.4455E-03    -58.7759E+06    -165.335E+06    -21.5841E+06     122.357E+03    -109.068E-03     215.141E-03    -106.073E-03     89.7971E-03    -109.602E-03     214.942E-03    -105.856E-03     87.4342E-03
            1901     4.85844E-03     34.3495E-03    -64.4145E+06    -184.045E+06    -30.8081E+06     34.3894E+03    -108.127E-03     214.009E-03    -105.882E-03     77.6363E-03    -108.487E-03     213.577E-03    -105.676E-03     75.7313E-03
            1902     4.04938E-03     34.2674E-03    -70.3112E+06    -201.211E+06    -41.5563E+06     185.132E+03    -107.283E-03     212.990E-03    -105.707E-03     65.2676E-03    -107.511E-03     212.374E-03    -105.521E-03     63.7695E-03
            1903     3.23985E-03     34.1996E-03    -76.0009E+06    -211.990E+06    -54.0289E+06     147.543E+03    -106.550E-03     212.091E-03    -105.541E-03     52.6713E-03    -106.684E-03     211.359E-03    -105.394E-03     51.5298E-03
            1904     2.43016E-03     34.1463E-03    -81.2158E+06    -222.724E+06    -67.5488E+06     116.286E+03    -105.990E-03     211.385E-03    -105.395E-03     39.8695E-03    -106.051E-03     210.563E-03    -105.292E-03     39.0442E-03
            1905     1.62025E-03     34.1077E-03    -85.3431E+06    -230.799E+06    -79.0526E+06     230.183E+03    -105.557E-03     210.836E-03    -105.279E-03     27.0817E-03    -105.569E-03     209.955E-03    -105.216E-03     26.5446E-03
            1906     810.151E-06     34.0837E-03    -87.8715E+06    -235.461E+06    -86.2218E+06     128.654E+03    -105.292E-03     210.501E-03    -105.209E-03     14.8062E-03    -105.275E-03     209.587E-03    -105.172E-03     14.5188E-03
            1907     15.3456E-03     35.2780E-03    -5.21412E+06     122.116E+06     92.4168E+06    -563.820E+03    -109.095E-03     217.572E-03    -108.478E-03     95.1868E-03    -113.755E-03     222.380E-03    -108.185E-03     89.5770E-03
            1908     14.5402E-03     35.1112E-03    -12.0898E+06     119.804E+06     93.7432E+06    -392.547E+03    -110.858E-03     219.212E-03    -108.355E-03     157.054E-03    -118.268E-03     226.733E-03    -108.042E-03     149.230E-03
            1909     13.7347E-03     34.9338E-03    -16.4072E+06     111.850E+06     86.7505E+06     549.594E+03    -113.079E-03     221.227E-03    -108.148E-03     180.913E-03    -120.833E-03     229.069E-03    -107.853E-03     172.089E-03
            1910     12.9313E-03     34.7139E-03    -21.6388E+06     102.226E+06     64.9200E+06     1.52065E+06    -114.722E-03     222.574E-03    -107.852E-03     198.446E-03    -122.417E-03     230.367E-03    -107.645E-03     188.975E-03
            1911     12.1239E-03     34.4934E-03    -26.7982E+06     88.1595E+06     34.3326E+06     638.423E+03    -115.012E-03     222.517E-03    -107.505E-03     188.791E-03    -121.215E-03     228.838E-03    -107.422E-03     179.901E-03
            1912     11.3197E-03     34.2941E-03    -30.7383E+06     43.3925E+06     16.1255E+06    -237.665E+03    -114.568E-03     221.812E-03    -107.244E-03     170.931E-03    -119.125E-03     226.367E-03    -107.182E-03     163.161E-03
            1913     10.5133E-03     34.1124E-03    -33.6014E+06    -19.1733E+06     9.08011E+06    -78.8618E+03    -114.074E-03     221.124E-03    -107.050E-03     156.453E-03    -117.414E-03     224.250E-03    -106.928E-03     149.766E-03
            1914     9.70743E-03     33.9435E-03    -36.9092E+06    -61.1237E+06     4.62047E+06     130.670E+03    -113.575E-03     220.403E-03    -106.828E-03     145.427E-03    -116.079E-03     222.546E-03    -106.663E-03     139.684E-03
            1915     8.90069E-03     33.7853E-03    -40.5909E+06    -86.8093E+06     738.388E+03     206.592E+03    -112.850E-03     219.430E-03    -106.580E-03     135.101E-03    -114.739E-03     220.865E-03    -106.391E-03     130.206E-03
            1916     8.09379E-03     33.6378E-03    -44.5633E+06    -115.069E+06    -3.88103E+06     120.929E+03    -111.984E-03     218.314E-03    -106.330E-03     123.817E-03    -113.383E-03     219.157E-03    -106.118E-03     119.680E-03
            1917     7.28647E-03     33.5037E-03    -49.0734E+06    -132.925E+06    -8.37906E+06     339.193E+03    -110.937E-03     217.007E-03    -106.070E-03     112.232E-03    -111.967E-03     217.415E-03    -105.848E-03     108.775E-03
            1918     6.47844E-03     33.3818E-03    -53.9407E+06    -145.451E+06    -14.5456E+06     468.387E+03    -109.812E-03     215.620E-03    -105.808E-03     100.534E-03    -110.563E-03     215.705E-03    -105.591E-03     97.6802E-03
            1919     5.67003E-03     33.2735E-03    -59.2942E+06    -165.329E+06    -22.1370E+06     167.113E+03    -108.758E-03     214.328E-03    -105.569E-03     88.5984E-03    -109.286E-03     214.122E-03    -105.354E-03     86.2607E-03
            1920     4.86108E-03     33.1783E-03    -64.7803E+06    -184.131E+06    -31.3214E+06     176.905E+03    -107.738E-03     213.083E-03    -105.345E-03     76.5734E-03    -108.093E-03     212.645E-03    -105.140E-03     74.6928E-03
            1921     4.05159E-03     33.0972E-03    -70.3529E+06    -201.217E+06    -41.9175E+06     208.799E+03    -106.814E-03     211.955E-03    -105.141E-03     64.3410E-03    -107.037E-03     211.336E-03    -104.957E-03     62.8626E-03
            1922     3.24178E-03     33.0299E-03    -75.9232E+06    -211.831E+06    -54.3316E+06     345.421E+03    -106.045E-03     210.994E-03    -104.948E-03     51.8980E-03    -106.176E-03     210.260E-03    -104.803E-03     50.7746E-03
            1923     2.43165E-03     32.9771E-03    -81.1552E+06    -222.661E+06    -67.6819E+06     515.167E+03    -105.440E-03     210.216E-03    -104.776E-03     39.2613E-03    -105.500E-03     209.393E-03    -104.674E-03     38.4528E-03
            1924     1.62127E-03     32.9389E-03    -85.1312E+06    -230.381E+06    -78.6414E+06     397.653E+03    -104.942E-03     209.583E-03    -104.640E-03     26.5689E-03    -104.954E-03     208.702E-03    -104.576E-03     26.0415E-03
            1925     810.584E-06     32.9154E-03    -87.7850E+06    -235.014E+06    -85.8592E+06     184.565E+03    -104.626E-03     209.201E-03    -104.575E-03     14.5542E-03    -104.610E-03     208.289E-03    -104.537E-03     14.2734E-03
            1926     15.3466E-03     34.0947E-03    -4.57489E+06     123.018E+06     93.3313E+06     244.978E+03    -110.223E-03     218.686E-03    -108.462E-03     94.6168E-03    -114.862E-03     223.474E-03    -108.167E-03     88.9298E-03
            1927     14.5420E-03     33.9318E-03    -10.0273E+06     121.528E+06     95.4323E+06     558.846E+03    -111.445E-03     219.734E-03    -108.288E-03     155.351E-03    -118.785E-03     227.193E-03    -107.973E-03     147.482E-03
            1928     13.7375E-03     33.7512E-03    -17.4219E+06     110.286E+06     84.7965E+06    -281.582E+03    -113.453E-03     221.487E-03    -108.035E-03     179.391E-03    -121.153E-03     229.271E-03    -107.745E-03     170.520E-03
            1929     12.9316E-03     33.5340E-03    -22.4530E+06     101.398E+06     64.5735E+06     244.263E+03    -115.376E-03     223.076E-03    -107.700E-03     197.330E-03    -123.048E-03     230.840E-03    -107.491E-03     187.783E-03
            1930     12.1284E-03     33.3141E-03    -25.9617E+06     89.0953E+06     35.6434E+06     732.545E+03    -115.452E-03     222.754E-03    -107.303E-03     187.712E-03    -121.620E-03     229.043E-03    -107.216E-03     178.805E-03
            1931     11.3217E-03     33.1155E-03    -29.3328E+06     44.3435E+06     17.3284E+06     280.282E+03    -114.778E-03     221.775E-03    -106.997E-03     169.690E-03    -119.293E-03     226.293E-03    -106.932E-03     161.947E-03
            1932     10.5166E-03     32.9348E-03    -33.2273E+06    -19.0955E+06     9.13295E+06     151.225E+03    -114.265E-03     221.024E-03    -106.759E-03     155.233E-03    -117.575E-03     224.121E-03    -106.637E-03     148.569E-03
            1933     9.71036E-03     32.7669E-03    -36.8039E+06    -61.4794E+06     4.00623E+06     83.1046E+03    -113.744E-03     220.232E-03    -106.488E-03     144.087E-03    -116.224E-03     222.351E-03    -106.325E-03     138.359E-03
            1934     8.90435E-03     32.6095E-03    -40.2969E+06    -86.5188E+06     1.11297E+06     431.284E+03    -112.976E-03     219.166E-03    -106.191E-03     133.597E-03    -114.844E-03     220.581E-03    -106.001E-03     128.726E-03
            1935     8.09744E-03     32.4635E-03    -44.5524E+06    -114.451E+06    -3.75296E+06     683.899E+03    -111.909E-03     217.798E-03    -105.889E-03     122.370E-03    -113.291E-03     218.626E-03    -105.677E-03     118.269E-03
            1936     7.28993E-03     32.3302E-03    -49.1106E+06    -133.198E+06    -8.73275E+06     448.457E+03    -110.746E-03     216.329E-03    -105.583E-03     110.762E-03    -111.760E-03     216.722E-03    -105.363E-03     107.337E-03
            1937     6.48196E-03     32.2098E-03    -53.7070E+06    -145.179E+06    -14.7117E+06     646.963E+03    -109.550E-03     214.829E-03    -105.279E-03     99.1235E-03    -110.287E-03     214.903E-03    -105.064E-03     96.3015E-03
            1938     5.67323E-03     32.1023E-03    -58.8842E+06    -165.031E+06    -22.2342E+06     539.996E+03    -108.382E-03     213.384E-03    -105.002E-03     87.3005E-03    -108.899E-03     213.170E-03    -104.788E-03     84.9954E-03
            1939     4.86400E-03     32.0084E-03    -64.5650E+06    -184.094E+06    -31.2414E+06     267.189E+03    -107.305E-03     212.048E-03    -104.742E-03     75.3722E-03    -107.653E-03     211.603E-03    -104.538E-03     73.5170E-03
            1940     4.05424E-03     31.9280E-03    -70.3998E+06    -201.128E+06    -41.7025E+06     401.704E+03    -106.328E-03     210.829E-03    -104.502E-03     63.2929E-03    -106.547E-03     210.206E-03    -104.317E-03     61.8371E-03
            1941     3.24401E-03     31.8616E-03    -76.4017E+06    -211.894E+06    -54.2509E+06     611.115E+03    -105.474E-03     209.748E-03    -104.274E-03     51.0350E-03    -105.604E-03     209.011E-03    -104.127E-03     49.9328E-03
            1942     2.43337E-03     31.8094E-03    -81.4450E+06    -222.071E+06    -67.2475E+06     483.232E+03    -104.791E-03     208.864E-03    -104.073E-03     38.5688E-03    -104.852E-03     208.042E-03    -103.969E-03     37.7745E-03
            1943     1.62248E-03     31.7716E-03    -85.3460E+06    -229.956E+06    -78.2680E+06     158.925E+03    -104.271E-03     208.177E-03    -103.906E-03     26.0354E-03    -104.284E-03     207.298E-03    -103.840E-03     25.5134E-03
            1944     811.422E-06     31.7486E-03    -87.8365E+06    -234.862E+06    -85.9243E+06     146.984E+03    -103.961E-03     207.688E-03    -103.727E-03     14.3275E-03    -103.946E-03     206.776E-03    -103.688E-03     14.0522E-03
            1945     15.3475E-03     32.9132E-03    -5.36074E+06     122.401E+06     92.4448E+06    -331.305E+03    -111.281E-03     219.663E-03    -108.382E-03     93.7396E-03    -115.877E-03     224.406E-03    -108.089E-03     87.9849E-03
            1946     14.5437E-03     32.7479E-03    -10.8561E+06     120.637E+06     94.5338E+06     89.8323E+03    -111.625E-03     219.794E-03    -108.169E-03     154.522E-03    -118.904E-03     227.188E-03    -107.856E-03     146.644E-03
            1947     13.7387E-03     32.5723E-03    -16.0396E+06     111.046E+06     85.7648E+06     1.00007E+06    -113.789E-03     221.687E-03    -107.898E-03     179.206E-03    -121.433E-03     229.420E-03    -107.607E-03     170.349E-03
            1948     12.9350E-03     32.3516E-03    -22.0375E+06     101.389E+06     63.8618E+06    -274.376E+03    -115.867E-03     223.390E-03    -107.522E-03     196.570E-03    -123.499E-03     231.118E-03    -107.318E-03     186.976E-03
            1949     12.1295E-03     32.1349E-03    -26.8422E+06     88.1921E+06     34.1848E+06    -692.555E+03    -115.984E-03     223.057E-03    -107.073E-03     186.283E-03    -122.119E-03     229.311E-03    -106.991E-03     177.331E-03
            1950     11.3256E-03     31.9367E-03    -30.1222E+06     44.1505E+06     16.6969E+06     478.886E+03    -115.154E-03     221.868E-03    -106.714E-03     168.218E-03    -119.632E-03     226.348E-03    -106.651E-03     160.482E-03
            1951     10.5198E-03     31.7575E-03    -33.3135E+06    -18.0588E+06     9.14380E+06     618.586E+03    -114.489E-03     220.911E-03    -106.423E-03     153.644E-03    -117.771E-03     223.985E-03    -106.302E-03     146.997E-03
            1952     9.71441E-03     31.5903E-03    -37.1150E+06    -61.0639E+06     3.61168E+06     272.252E+03    -113.896E-03     219.994E-03    -106.098E-03     142.532E-03    -116.349E-03     222.088E-03    -105.938E-03     136.834E-03
            1953     8.90810E-03     31.4341E-03    -40.8727E+06    -87.1366E+06     429.011E+03     453.356E+03    -112.988E-03     218.737E-03    -105.749E-03     131.902E-03    -114.833E-03     220.127E-03    -105.561E-03     127.061E-03
            1954     8.10141E-03     31.2897E-03    -44.6818E+06    -114.091E+06    -3.62372E+06     768.926E+03    -111.834E-03     217.231E-03    -105.397E-03     120.724E-03    -113.199E-03     218.043E-03    -105.185E-03     116.655E-03
            1955     7.29397E-03     31.1578E-03    -48.9737E+06    -132.415E+06    -8.86637E+06     701.497E+03    -110.535E-03     215.575E-03    -105.040E-03     109.162E-03    -111.533E-03     215.955E-03    -104.821E-03     105.775E-03
            1956     6.48571E-03     31.0385E-03    -53.7280E+06    -145.728E+06    -15.3317E+06     574.715E+03    -109.212E-03     213.904E-03    -104.692E-03     97.6307E-03    -109.935E-03     213.963E-03    -104.479E-03     94.8406E-03
            1957     5.67687E-03     30.9325E-03    -58.6842E+06    -164.547E+06    -22.0629E+06     859.668E+03    -107.978E-03     212.353E-03    -104.376E-03     85.9614E-03    -108.485E-03     212.132E-03    -104.162E-03     83.6910E-03
            1958     4.86725E-03     30.8396E-03    -64.3617E+06    -183.503E+06    -30.9315E+06     849.684E+03    -106.846E-03     210.921E-03    -104.075E-03     74.1345E-03    -107.187E-03     210.472E-03    -103.870E-03     72.3136E-03
            1959     4.05715E-03     30.7603E-03    -70.5832E+06    -201.287E+06    -41.3174E+06     739.577E+03    -105.802E-03     209.594E-03    -103.792E-03     62.1584E-03    -106.018E-03     208.965E-03    -103.604E-03     60.7302E-03
            1960     3.24644E-03     30.6948E-03    -76.2692E+06    -211.214E+06    -53.3660E+06     588.454E+03    -104.834E-03     208.358E-03    -103.524E-03     50.0784E-03    -104.962E-03     207.620E-03    -103.374E-03     48.9954E-03
            1961     2.43533E-03     30.6432E-03    -81.4254E+06    -221.447E+06    -66.6284E+06     186.184E+03    -104.042E-03     207.339E-03    -103.297E-03     37.8620E-03    -104.103E-03     206.517E-03    -103.191E-03     37.0794E-03
            1962     1.62377E-03     30.6063E-03    -85.5536E+06    -229.719E+06    -78.4449E+06    -170.733E+03    -103.494E-03     206.607E-03    -103.113E-03     25.6018E-03    -103.507E-03     205.729E-03    -103.048E-03     25.0857E-03
            1963     811.930E-06     30.5834E-03    -88.2395E+06    -234.877E+06    -86.1656E+06    -197.971E+03    -103.193E-03     206.088E-03    -102.896E-03     13.9399E-03    -103.178E-03     205.177E-03    -102.858E-03     13.6644E-03
            1964     15.3510E-03     31.7302E-03    -4.71267E+06     122.965E+06     92.9860E+06     766.195E+03    -112.314E-03     220.649E-03    -108.335E-03     94.0222E-03    -116.892E-03     225.377E-03    -108.042E-03     88.2086E-03
            1965     14.5452E-03     31.5683E-03    -10.2855E+06     120.904E+06     94.7211E+06     232.052E+03    -112.323E-03     220.396E-03    -108.073E-03     154.695E-03    -119.575E-03     227.766E-03    -107.760E-03     146.745E-03
            1966     13.7410E-03     31.3893E-03    -16.3999E+06     110.365E+06     85.5309E+06    -415.868E+03    -114.522E-03     222.278E-03    -107.756E-03     178.933E-03    -122.150E-03     229.992E-03    -107.465E-03     169.971E-03
            1967     12.9365E-03     31.1712E-03    -21.1101E+06     101.862E+06     64.6817E+06     1.69297E+03    -116.507E-03     223.835E-03    -107.327E-03     195.472E-03    -124.090E-03     231.517E-03    -107.121E-03     185.837E-03
            1968     12.1337E-03     30.9539E-03    -25.9955E+06     88.5892E+06     34.1976E+06     266.457E+03    -116.425E-03     223.244E-03    -106.818E-03     184.414E-03    -122.500E-03     229.441E-03    -106.738E-03     175.468E-03
            1969     11.3288E-03     30.7583E-03    -30.6089E+06     43.5236E+06     15.6615E+06     167.700E+03    -115.613E-03     222.010E-03    -106.397E-03     166.608E-03    -120.057E-03     226.455E-03    -106.338E-03     158.858E-03
            1970     10.5242E-03     30.5801E-03    -33.9797E+06    -17.9456E+06     8.72697E+06     553.376E+03    -114.886E-03     220.928E-03    -106.042E-03     152.105E-03    -118.141E-03     223.974E-03    -105.923E-03     145.464E-03
            1971     9.71853E-03     30.4140E-03    -37.0570E+06    -60.1284E+06     3.79555E+06     820.069E+03    -114.002E-03     219.658E-03    -105.657E-03     140.707E-03    -116.424E-03     221.725E-03    -105.497E-03     135.046E-03
            1972     8.91265E-03     30.2595E-03    -40.8687E+06    -87.3402E+06    -160.614E+03     439.520E+03    -112.906E-03     218.159E-03    -105.253E-03     130.107E-03    -114.724E-03     219.522E-03    -105.068E-03     125.302E-03
            1973     8.10579E-03     30.1164E-03    -44.7844E+06    -114.568E+06    -4.03842E+06     588.077E+03    -111.694E-03     216.548E-03    -104.853E-03     118.936E-03    -113.036E-03     217.335E-03    -104.643E-03     114.903E-03
            1974     7.29835E-03     29.9861E-03    -48.9525E+06    -131.894E+06    -8.40497E+06     799.332E+03    -110.270E-03     214.720E-03    -104.450E-03     107.440E-03    -111.252E-03     215.085E-03    -104.230E-03     104.092E-03
            1975     6.48990E-03     29.8686E-03    -53.7240E+06    -145.252E+06    -15.0456E+06     749.042E+03    -108.847E-03     212.902E-03    -104.055E-03     96.0460E-03    -109.558E-03     212.950E-03    -103.842E-03     93.2956E-03
            1976     5.68063E-03     29.7637E-03    -58.9446E+06    -164.818E+06    -22.3827E+06     931.183E+03    -107.543E-03     211.236E-03    -103.693E-03     84.4787E-03    -108.039E-03     211.003E-03    -103.480E-03     82.2440E-03
            1977     4.87083E-03     29.6722E-03    -64.4697E+06    -182.972E+06    -30.6496E+06     1.29961E+06    -106.317E-03     209.667E-03    -103.351E-03     72.8043E-03    -106.651E-03     209.212E-03    -103.145E-03     71.0200E-03
            1978     4.06028E-03     29.5940E-03    -70.1581E+06    -200.277E+06    -40.6161E+06     841.702E+03    -105.174E-03     208.204E-03    -103.030E-03     61.0308E-03    -105.385E-03     207.572E-03    -102.841E-03     59.6299E-03
            1979     3.24921E-03     29.5296E-03    -75.8361E+06    -210.776E+06    -53.0131E+06     278.408E+03    -104.123E-03     206.854E-03    -102.730E-03     49.1781E-03    -104.247E-03     206.113E-03    -102.580E-03     48.1119E-03
            1980     2.43732E-03     29.4792E-03    -81.0569E+06    -221.028E+06    -66.3103E+06     232.124E+03    -103.248E-03     205.732E-03    -102.484E-03     37.1927E-03    -103.306E-03     204.910E-03    -102.378E-03     36.4268E-03
            1981     1.62509E-03     29.4426E-03    -85.5282E+06    -229.500E+06    -78.4392E+06     95.5184E+03    -102.648E-03     204.949E-03    -102.301E-03     25.1918E-03    -102.661E-03     204.071E-03    -102.236E-03     24.6907E-03
            1982     812.724E-06     29.4203E-03    -88.6518E+06    -235.120E+06    -87.0012E+06    -167.598E+03    -102.367E-03     204.472E-03    -102.105E-03     13.5728E-03    -102.352E-03     203.561E-03    -102.071E-03     13.3020E-03
            1983     15.3465E-03     30.5450E-03    -5.16729E+06     122.474E+06     92.3839E+06     443.750E+03    -112.791E-03     221.137E-03    -108.346E-03     93.7598E-03    -117.370E-03     225.864E-03    -108.054E-03     87.8490E-03
            1984     14.5460E-03     30.3842E-03    -9.55836E+06     121.870E+06     95.8965E+06     486.238E+03    -114.123E-03     222.148E-03    -108.024E-03     154.411E-03    -121.378E-03     229.523E-03    -107.708E-03     146.268E-03
            1985     13.7429E-03     30.2081E-03    -15.6147E+06     111.322E+06     86.1828E+06    -336.669E+03    -115.981E-03     223.584E-03    -107.602E-03     177.845E-03    -123.585E-03     231.277E-03    -107.310E-03     168.731E-03
            1986     12.9404E-03     29.9882E-03    -21.6372E+06     100.999E+06     63.9872E+06    -468.587E+03    -117.080E-03     224.172E-03    -107.092E-03     193.708E-03    -124.584E-03     231.773E-03    -106.887E-03     184.049E-03
            1987     12.1365E-03     29.7740E-03    -26.3577E+06     87.7185E+06     33.9313E+06     701.177E+03    -116.829E-03     223.358E-03    -106.529E-03     182.809E-03    -122.841E-03     229.490E-03    -106.449E-03     173.874E-03
            1988     11.3327E-03     29.5792E-03    -30.0971E+06     44.2029E+06     15.9008E+06     887.699E+03    -116.122E-03     222.167E-03    -106.045E-03     164.657E-03    -120.527E-03     226.576E-03    -105.986E-03     156.906E-03
            1989     10.5283E-03     29.4021E-03    -33.6732E+06    -17.6795E+06     8.69756E+06     646.816E+03    -115.161E-03     220.782E-03    -105.621E-03     150.048E-03    -118.373E-03     223.787E-03    -105.503E-03     143.432E-03
            1990     9.72365E-03     29.2385E-03    -37.2254E+06    -59.9073E+06     3.75902E+06     771.399E+03    -114.040E-03     219.217E-03    -105.178E-03     138.942E-03    -116.432E-03     221.254E-03    -105.018E-03     133.314E-03
            1991     8.91735E-03     29.0855E-03    -40.8409E+06    -86.3794E+06     105.424E+03     810.177E+03    -112.868E-03     217.590E-03    -104.721E-03     128.493E-03    -114.660E-03     218.929E-03    -104.536E-03     123.736E-03
            1992     8.11070E-03     28.9439E-03    -44.9422E+06    -114.842E+06    -4.28626E+06     593.376E+03    -111.492E-03     215.762E-03    -104.270E-03     117.146E-03    -112.810E-03     216.526E-03    -104.060E-03     113.157E-03
            1993     7.30290E-03     28.8156E-03    -49.3916E+06    -132.321E+06    -8.53584E+06     731.059E+03    -109.986E-03     213.804E-03    -103.819E-03     105.692E-03    -110.950E-03     214.149E-03    -103.598E-03     102.385E-03
            1994     6.49434E-03     28.6995E-03    -54.0429E+06    -144.582E+06    -14.6524E+06     933.753E+03    -108.502E-03     211.876E-03    -103.374E-03     94.3475E-03    -109.201E-03     211.912E-03    -103.159E-03     91.6377E-03
            1995     5.68499E-03     28.5964E-03    -59.4411E+06    -165.110E+06    -22.4316E+06     1.31994E+06    -107.047E-03     210.009E-03    -102.962E-03     82.9290E-03    -107.534E-03     209.764E-03    -102.749E-03     80.7374E-03
            1996     4.87461E-03     28.5062E-03    -65.0581E+06    -182.216E+06    -31.6605E+06     1.16341E+06    -105.663E-03     208.241E-03    -102.578E-03     71.4530E-03    -105.991E-03     207.783E-03    -102.378E-03     69.7016E-03
            1997     4.06356E-03     28.4295E-03    -70.3462E+06    -198.879E+06    -41.6317E+06     448.791E+03    -104.415E-03     206.650E-03    -102.235E-03     59.9232E-03    -104.621E-03     206.021E-03    -102.053E-03     58.5459E-03
            1998     3.25162E-03     28.3663E-03    -75.8458E+06    -210.906E+06    -53.5572E+06     265.190E+03    -103.356E-03     205.282E-03    -101.926E-03     48.2686E-03    -103.475E-03     204.538E-03    -101.778E-03     47.2243E-03
            1999     2.43937E-03     28.3168E-03    -81.3241E+06    -220.850E+06    -66.5885E+06     433.166E+03    -102.480E-03     204.142E-03    -101.662E-03     36.4556E-03    -102.537E-03     203.320E-03    -101.557E-03     35.7081E-03
            2000     1.62647E-03     28.2811E-03    -85.6789E+06    -229.053E+06    -78.3179E+06     447.768E+03    -101.811E-03     203.279E-03    -101.468E-03     24.6978E-03    -101.824E-03     202.401E-03    -101.403E-03     24.2123E-03
            2001     813.168E-06     28.2589E-03    -88.4369E+06    -234.598E+06    -86.6389E+06     233.671E+03    -101.462E-03     202.802E-03    -101.340E-03     13.3130E-03    -101.448E-03     201.893E-03    -101.305E-03     13.0528E-03
            2002     15.3494E-03     29.3595E-03    -5.19462E+06     122.339E+06     92.4392E+06     215.922E+03    -113.727E-03     222.038E-03    -108.311E-03     92.3304E-03    -118.261E-03     226.720E-03    -108.019E-03     86.3086E-03
            2003     14.5455E-03     29.1990E-03    -10.9498E+06     120.371E+06     94.2821E+06    -1.13845E+06    -115.262E-03     223.180E-03    -107.918E-03     151.735E-03    -122.436E-03     230.470E-03    -107.606E-03     143.420E-03
            2004     13.7460E-03     29.0211E-03    -15.4346E+06     111.681E+06     87.1205E+06    -139.386E+03    -117.008E-03     224.433E-03    -107.425E-03     175.567E-03    -124.531E-03     232.045E-03    -107.129E-03     166.374E-03
            2005     12.9438E-03     28.8085E-03    -21.7894E+06     100.977E+06     64.7359E+06     664.929E+03    -117.884E-03     224.722E-03    -106.838E-03     191.866E-03    -125.315E-03     232.247E-03    -106.629E-03     182.191E-03
            2006     12.1404E-03     28.5924E-03    -27.2034E+06     86.8315E+06     33.8047E+06     331.508E+03    -117.428E-03     223.629E-03    -106.201E-03     180.875E-03    -123.378E-03     229.692E-03    -106.118E-03     171.927E-03
            2007     11.3376E-03     28.4000E-03    -30.4394E+06     44.7327E+06     16.1974E+06     791.024E+03    -116.341E-03     221.993E-03    -105.653E-03     162.616E-03    -120.689E-03     226.346E-03    -105.593E-03     154.899E-03
            2008     10.5337E-03     28.2249E-03    -33.8490E+06    -17.3543E+06     8.61216E+06     1.10680E+06    -115.192E-03     220.370E-03    -105.178E-03     148.386E-03    -118.362E-03     223.333E-03    -105.061E-03     141.822E-03
            2009     9.72792E-03     28.0635E-03    -37.4422E+06    -59.9067E+06     3.63611E+06     904.183E+03    -114.136E-03     218.821E-03    -104.685E-03     137.331E-03    -116.498E-03     220.827E-03    -104.525E-03     131.742E-03
            2010     8.92242E-03     27.9115E-03    -41.0834E+06    -85.8055E+06     253.725E+03     984.388E+03    -112.859E-03     217.030E-03    -104.170E-03     126.676E-03    -114.624E-03     218.343E-03    -103.985E-03     121.966E-03
            2011     8.11554E-03     27.7726E-03    -45.1080E+06    -114.387E+06    -4.29789E+06     851.773E+03    -111.327E-03     214.989E-03    -103.661E-03     115.274E-03    -112.623E-03     215.731E-03    -103.452E-03     111.333E-03
            2012     7.30781E-03     27.6458E-03    -49.5475E+06    -132.228E+06    -8.83487E+06     880.751E+03    -109.720E-03     212.874E-03    -103.154E-03     103.854E-03    -110.665E-03     213.200E-03    -102.935E-03     100.593E-03
            2013     6.49910E-03     27.5318E-03    -54.6701E+06    -145.057E+06    -14.8691E+06     1.20404E+06    -108.074E-03     210.735E-03    -102.660E-03     92.6131E-03    -108.760E-03     210.755E-03    -102.445E-03     89.9489E-03
            2014     5.68924E-03     27.4305E-03    -59.8632E+06    -165.064E+06    -22.2680E+06      1.4118E+06    -106.479E-03     208.688E-03    -102.209E-03     81.3862E-03    -106.958E-03     208.432E-03    -101.994E-03     79.2338E-03
            2015     4.87854E-03     27.3420E-03    -65.0158E+06    -180.509E+06    -32.0940E+06     924.045E+03    -104.971E-03     206.759E-03    -101.787E-03     70.0832E-03    -105.293E-03     206.302E-03    -101.592E-03     68.3638E-03
            2016     4.06673E-03     27.2669E-03    -70.5449E+06    -198.112E+06    -42.9544E+06     263.732E+03    -103.665E-03     205.085E-03    -101.419E-03     58.6669E-03    -103.866E-03     204.456E-03    -101.245E-03     57.3160E-03
            2017     3.25443E-03     27.2047E-03    -76.1046E+06    -211.386E+06    -54.3206E+06     348.162E+03    -102.561E-03     203.658E-03    -101.098E-03     47.1657E-03    -102.676E-03     202.911E-03    -100.952E-03     46.1436E-03
            2018     2.44130E-03     27.1563E-03    -81.2269E+06    -220.358E+06    -66.7024E+06     507.491E+03    -101.676E-03     202.493E-03    -100.818E-03     35.5681E-03    -101.731E-03     201.671E-03    -100.714E-03     34.8366E-03
            2019     1.62790E-03     27.1214E-03    -85.4462E+06    -228.568E+06    -78.2184E+06     349.707E+03    -100.978E-03     201.583E-03    -100.606E-03     24.0749E-03    -100.990E-03     200.707E-03    -100.541E-03     23.5977E-03
            2020     814.114E-06     27.0999E-03    -87.8790E+06    -233.770E+06    -86.0922E+06     165.323E+03    -100.545E-03     201.059E-03    -100.514E-03     13.1703E-03    -100.529E-03     200.152E-03    -100.478E-03     12.9155E-03
            2021     15.3499E-03     28.1740E-03    -4.14134E+06     123.485E+06     93.9134E+06     292.848E+03    -115.649E-03     223.845E-03    -108.196E-03     90.9039E-03    -120.112E-03     228.459E-03    -107.899E-03     84.7633E-03
            2022     14.5515E-03     28.0117E-03    -9.07499E+06     121.972E+06     95.7830E+06     223.239E+03    -115.684E-03     223.414E-03    -107.730E-03     150.034E-03    -122.729E-03     230.582E-03    -107.415E-03     141.714E-03
            2023     13.7481E-03     27.8385E-03    -16.9886E+06     109.705E+06     85.1188E+06    -43.6108E+03    -117.214E-03     224.411E-03    -107.197E-03     173.595E-03    -124.619E-03     231.898E-03    -106.905E-03     164.426E-03
            2024     12.9466E-03     27.6231E-03    -22.5242E+06     100.656E+06     65.4236E+06     293.172E+03    -118.575E-03     225.144E-03    -106.569E-03     189.800E-03    -125.934E-03     232.591E-03    -106.355E-03     180.090E-03
            2025     12.1460E-03     27.4126E-03    -26.4485E+06     87.8510E+06     35.4015E+06     802.466E+03    -117.945E-03     223.810E-03    -105.866E-03     179.489E-03    -123.833E-03     229.814E-03    -105.778E-03     170.559E-03
            2026     11.3420E-03     27.2205E-03    -30.8111E+06     43.9747E+06     15.2708E+06     1.07263E+06    -116.526E-03     221.781E-03    -105.256E-03     161.233E-03    -120.817E-03     226.075E-03    -105.198E-03     153.568E-03
            2027     10.5374E-03     27.0487E-03    -34.3668E+06    -17.2255E+06     7.98925E+06     1.14116E+06    -115.430E-03     220.157E-03    -104.728E-03     146.540E-03    -118.562E-03     223.083E-03    -104.613E-03     140.004E-03
            2028     9.73329E-03     26.8876E-03    -37.6247E+06    -59.0771E+06     3.28245E+06     1.16796E+06    -114.275E-03     218.445E-03    -104.170E-03     135.202E-03    -116.602E-03     220.420E-03    -104.013E-03     129.656E-03
            2029     8.92744E-03     26.7391E-03    -41.2961E+06    -85.6471E+06    -363.484E+03     922.073E+03    -112.765E-03     216.360E-03    -103.595E-03     124.494E-03    -114.499E-03     217.645E-03    -103.413E-03     119.827E-03
            2030     8.12065E-03     26.6015E-03    -45.1361E+06    -114.229E+06    -4.37292E+06     947.552E+03    -111.125E-03     214.159E-03    -103.034E-03     113.306E-03    -112.396E-03     214.877E-03    -102.825E-03     109.412E-03
            2031     7.31295E-03     26.4773E-03    -49.4615E+06    -132.075E+06    -8.61618E+06     1.22000E+06    -109.382E-03     211.860E-03    -102.477E-03     101.994E-03    -110.308E-03     212.166E-03    -102.257E-03     98.7826E-03
            2032     6.50376E-03     26.3653E-03    -53.9903E+06    -145.076E+06    -14.7652E+06     1.22418E+06    -107.597E-03     209.535E-03    -101.938E-03     90.8880E-03    -108.264E-03     209.538E-03    -101.723E-03     88.2680E-03
            2033     5.69368E-03     26.2660E-03    -58.7400E+06    -164.701E+06    -22.1074E+06     1.20207E+06    -105.897E-03     207.345E-03    -101.448E-03     79.7355E-03    -106.359E-03     207.078E-03    -101.235E-03     77.6179E-03
            2034     4.88229E-03     26.1796E-03    -64.1417E+06    -179.312E+06    -31.3361E+06     1.07200E+06    -104.333E-03     205.327E-03    -100.994E-03     68.5870E-03    -104.645E-03     204.866E-03    -100.798E-03     66.9014E-03
            2035     4.07028E-03     26.1057E-03    -69.9520E+06    -197.391E+06    -42.3209E+06     820.430E+03    -102.965E-03     203.558E-03    -100.593E-03     57.3572E-03    -103.160E-03     202.926E-03    -100.417E-03     56.0398E-03
            2036     3.25719E-03     26.0453E-03    -75.8190E+06    -211.384E+06    -54.4841E+06     575.235E+03    -101.773E-03     202.012E-03    -100.240E-03     46.0644E-03    -101.883E-03     201.261E-03    -100.096E-03     45.0665E-03
            2037     2.44358E-03     25.9977E-03    -80.9854E+06    -219.988E+06    -66.7227E+06     444.447E+03    -100.791E-03     200.739E-03    -99.9485E-03     34.7380E-03    -100.843E-03     199.917E-03    -99.8457E-03     34.0222E-03
            2038     1.62933E-03     25.9638E-03    -85.0176E+06    -227.951E+06    -78.1085E+06     277.407E+03    -100.096E-03     199.835E-03    -99.7385E-03     23.5142E-03    -100.106E-03     198.960E-03    -99.6753E-03     23.0462E-03
            2039     814.605E-06     25.9428E-03    -87.8020E+06    -233.350E+06    -86.0971E+06     121.496E+03    -99.7481E-03     199.328E-03    -99.5803E-03     13.0538E-03    -99.7329E-03     198.423E-03    -99.5451E-03     12.8043E-03
            2040     15.3547E-03     26.9833E-03    -5.05539E+06     122.352E+06     92.3473E+06    -637.962E+03    -116.868E-03     224.968E-03    -108.100E-03     91.2951E-03    -121.317E-03     229.566E-03    -107.808E-03     85.0194E-03
            2041     14.5521E-03     26.8282E-03    -10.5781E+06     120.723E+06     94.7390E+06     416.050E+03    -116.814E-03     224.386E-03    -107.571E-03     150.394E-03    -123.830E-03     231.518E-03    -107.257E-03     141.975E-03
            2042     13.7524E-03     26.6519E-03    -15.3764E+06     111.214E+06     86.4967E+06     1.34600E+06    -118.133E-03     225.109E-03    -106.976E-03     173.057E-03    -125.451E-03     232.516E-03    -106.682E-03     163.872E-03
            2043     12.9516E-03     26.4413E-03    -21.6800E+06     100.856E+06     64.3114E+06     528.394E+03    -118.947E-03     225.232E-03    -106.285E-03     188.423E-03    -126.212E-03     232.591E-03    -106.078E-03     178.725E-03
            2044     12.1479E-03     26.2298E-03    -27.3782E+06     86.6420E+06     32.8923E+06     852.652E+03    -118.328E-03     223.857E-03    -105.529E-03     177.448E-03    -124.147E-03     229.791E-03    -105.450E-03     168.532E-03
            2045     11.3461E-03     26.0424E-03    -30.9601E+06     44.1348E+06     14.6571E+06     1.58073E+06    -117.095E-03     221.951E-03    -104.856E-03     158.760E-03    -121.330E-03     226.191E-03    -104.802E-03     151.106E-03
            2046     10.5433E-03     25.8709E-03    -34.3252E+06    -15.9235E+06     7.97868E+06     1.33424E+06    -115.706E-03     219.960E-03    -104.254E-03     144.150E-03    -118.797E-03     222.850E-03    -104.141E-03     137.641E-03
            2047     9.73843E-03     25.7135E-03    -37.8974E+06    -58.3698E+06     2.98010E+06     933.820E+03    -114.222E-03     217.858E-03    -103.636E-03     133.077E-03    -116.512E-03     219.797E-03    -103.481E-03     127.577E-03
            2048     8.93280E-03     25.5665E-03    -41.1192E+06    -85.3352E+06    -346.358E+03     865.968E+03    -112.615E-03     215.627E-03    -103.012E-03     122.514E-03    -114.320E-03     216.884E-03    -102.831E-03     117.894E-03
            2049     8.12601E-03     25.4319E-03    -44.9454E+06    -114.397E+06    -4.45563E+06     1.08217E+06    -110.844E-03     213.248E-03    -102.404E-03     111.373E-03    -112.090E-03     213.941E-03    -102.195E-03     107.529E-03
            2050     7.31766E-03     25.3096E-03    -49.2425E+06    -131.990E+06    -9.00918E+06     1.16586E+06    -108.977E-03     210.780E-03    -101.803E-03     100.110E-03    -109.881E-03     211.067E-03    -101.585E-03     96.9465E-03
            2051     6.50854E-03     25.2001E-03    -53.8878E+06    -144.605E+06    -15.2009E+06     1.14522E+06    -107.111E-03     208.335E-03    -101.224E-03     89.0543E-03    -107.763E-03     208.326E-03    -101.012E-03     86.4744E-03
            2052     5.69785E-03     25.1031E-03    -59.1928E+06    -164.325E+06    -22.4064E+06     1.15482E+06    -105.333E-03     206.031E-03    -100.698E-03     78.0964E-03    -105.787E-03     205.757E-03    -100.486E-03     76.0145E-03
            2053     4.88637E-03     25.0184E-03    -64.5307E+06    -178.762E+06    -31.4106E+06     1.12642E+06    -103.702E-03     203.911E-03    -100.209E-03     67.1478E-03    -104.009E-03     203.446E-03    -100.014E-03     65.4936E-03
            2054     4.07352E-03     24.9466E-03    -69.9137E+06    -196.856E+06    -42.0646E+06     1.07361E+06    -102.259E-03     202.035E-03    -99.7766E-03     56.1332E-03    -102.449E-03     201.401E-03    -99.6001E-03     54.8454E-03
            2055     3.26009E-03     24.8874E-03    -75.2952E+06    -210.639E+06    -54.0663E+06     928.154E+03    -101.000E-03     200.396E-03    -99.3967E-03     45.0350E-03    -101.106E-03     199.644E-03    -99.2524E-03     44.0631E-03
            2056     2.44566E-03     24.8414E-03    -80.5398E+06    -219.538E+06    -66.5783E+06     595.809E+03    -99.9660E-03     199.050E-03    -99.0840E-03     33.9187E-03    -100.015E-03     198.227E-03    -98.9818E-03     33.2203E-03
            2057     1.63061E-03     24.8080E-03    -84.8285E+06    -227.385E+06    -77.8554E+06     423.930E+03    -99.2677E-03     198.116E-03    -98.8481E-03     22.8722E-03    -99.2770E-03     197.243E-03    -98.7847E-03     22.4168E-03
            2058     815.542E-06     24.7875E-03    -87.6297E+06    -232.708E+06    -85.8710E+06     381.553E+03    -98.8470E-03     197.508E-03    -98.6609E-03     12.6425E-03    -98.8318E-03     196.605E-03    -98.6258E-03     12.4030E-03
            2059     15.3505E-03     25.7958E-03    -4.32659E+06     122.761E+06     92.5925E+06     367.550E+03    -117.896E-03     225.981E-03    -108.085E-03     91.0787E-03    -122.321E-03     230.558E-03    -107.794E-03     84.6792E-03
            2060     14.5538E-03     25.6372E-03    -11.2809E+06     119.934E+06     93.5406E+06    -272.762E+03    -118.462E-03     225.938E-03    -107.476E-03     148.972E-03    -125.425E-03     233.016E-03    -107.166E-03     140.353E-03
            2061     13.7544E-03     25.4671E-03    -17.0647E+06     109.661E+06     84.8986E+06    -104.880E+03    -119.354E-03     226.142E-03    -106.787E-03     171.433E-03    -126.602E-03     233.473E-03    -106.497E-03     162.125E-03
            2062     12.9533E-03     25.2562E-03    -21.7333E+06     100.635E+06     64.8170E+06     1.36363E+06    -119.881E-03     225.898E-03    -106.018E-03     186.418E-03    -127.069E-03     233.179E-03    -105.808E-03     176.678E-03
            2063     12.1540E-03     25.0496E-03    -26.7588E+06     86.8240E+06     33.7737E+06     1.89362E+06    -118.933E-03     224.115E-03    -105.182E-03     174.673E-03    -124.672E-03     229.970E-03    -105.100E-03     165.766E-03
            2064     11.3514E-03     24.8617E-03    -30.7975E+06     44.8692E+06     15.0781E+06     1.44063E+06    -117.321E-03     221.762E-03    -104.440E-03     156.601E-03    -121.498E-03     225.945E-03    -104.385E-03     148.978E-03
            2065     10.5481E-03     24.6949E-03    -33.4662E+06    -14.7455E+06     8.82520E+06     1.15341E+06    -115.768E-03     219.554E-03    -103.786E-03     142.263E-03    -118.816E-03     222.405E-03    -103.672E-03     135.793E-03
            2066     9.74359E-03     24.5392E-03    -36.2087E+06    -57.7892E+06     3.65766E+06     1.05331E+06    -114.174E-03     217.293E-03    -103.119E-03     131.316E-03    -116.420E-03     219.195E-03    -102.964E-03     125.870E-03
            2067     8.93789E-03     24.3950E-03    -39.9358E+06    -85.5401E+06    -669.141E+03     1.20997E+06    -112.475E-03     214.920E-03    -102.446E-03     120.649E-03    -114.144E-03     216.147E-03    -102.267E-03     116.080E-03
            2068     8.13078E-03     24.2628E-03    -44.0411E+06    -114.118E+06    -4.85733E+06     1.62357E+06    -110.611E-03     212.401E-03    -101.789E-03     109.374E-03    -111.829E-03     213.071E-03    -101.584E-03     105.583E-03
            2069     7.32279E-03     24.1433E-03    -48.5482E+06    -131.152E+06    -8.74323E+06     1.59128E+06    -108.574E-03     209.722E-03    -101.148E-03     98.1156E-03    -109.458E-03     209.993E-03    -100.931E-03     95.0030E-03
            2070     6.51289E-03     24.0362E-03    -53.5338E+06    -144.501E+06    -14.6777E+06     1.33987E+06    -106.591E-03     207.127E-03    -100.536E-03     87.2122E-03    -107.227E-03     207.103E-03    -100.323E-03     84.6762E-03
            2071     5.70216E-03     23.9414E-03    -58.3897E+06    -163.976E+06    -21.8481E+06     1.31345E+06    -104.768E-03     204.746E-03    -99.9785E-03     76.4331E-03    -105.208E-03     204.461E-03    -99.7653E-03     74.3880E-03
            2072     4.88983E-03     23.8590E-03    -63.7731E+06    -178.111E+06    -31.2585E+06     1.22639E+06    -103.068E-03     202.526E-03    -99.4585E-03     65.6942E-03    -103.365E-03     202.056E-03    -99.2640E-03     64.0721E-03
            2073     4.07684E-03     23.7889E-03    -69.4811E+06    -196.442E+06    -42.1755E+06     1.14457E+06    -101.565E-03     200.565E-03    -99.0001E-03     54.8629E-03    -101.748E-03     199.927E-03    -98.8254E-03     53.6012E-03
            2074     3.26256E-03     23.7316E-03    -75.0517E+06    -210.036E+06    -53.9763E+06     1.07191E+06    -100.268E-03     198.866E-03    -98.5983E-03     43.9689E-03    -100.370E-03     198.113E-03    -98.4548E-03     43.0191E-03
            2075     2.44770E-03     23.6867E-03    -80.0228E+06    -218.706E+06    -66.2021E+06     921.402E+03    -99.2503E-03     197.504E-03    -98.2534E-03     33.0985E-03    -99.2969E-03     196.682E-03    -98.1513E-03     32.4192E-03
            2076     1.63237E-03     23.6544E-03    -84.2958E+06    -226.738E+06    -77.6042E+06     794.766E+03    -98.4961E-03     196.463E-03    -97.9671E-03     22.3506E-03    -98.5032E-03     195.591E-03    -97.9042E-03     21.9106E-03
            2077     816.311E-06     23.6344E-03    -87.0418E+06    -231.711E+06    -85.3113E+06     554.855E+03    -97.9417E-03     195.688E-03    -97.7462E-03     12.1277E-03    -97.9256E-03     194.788E-03    -97.7106E-03     11.8963E-03
            2078     15.3537E-03     24.6034E-03    -4.16662E+06     122.729E+06     93.0967E+06     721.202E+03    -119.631E-03     227.681E-03    -108.050E-03     88.6401E-03    -123.961E-03     232.162E-03    -107.756E-03     82.1431E-03
            2079     14.5552E-03     24.4466E-03    -9.63435E+06     121.065E+06     94.6688E+06     1.17577E+06    -119.408E-03     226.767E-03    -107.360E-03     145.808E-03    -126.226E-03     233.707E-03    -107.048E-03     137.122E-03
            2080     13.7566E-03     24.2804E-03    -16.7159E+06     108.989E+06     84.1246E+06     437.385E+03    -120.366E-03     226.959E-03    -106.593E-03     168.558E-03    -127.512E-03     234.188E-03    -106.306E-03     159.165E-03
            2081     12.9587E-03     24.0705E-03    -23.4265E+06     98.5293E+06     63.4383E+06     367.491E+03    -120.708E-03     226.453E-03    -105.745E-03     184.035E-03    -127.805E-03     233.633E-03    -105.537E-03     174.255E-03
            2082     12.1575E-03     23.8672E-03    -26.9591E+06     86.9250E+06     35.3049E+06     1.30477E+06    -119.292E-03     224.145E-03    -104.853E-03     172.942E-03    -124.956E-03     229.920E-03    -104.764E-03     164.063E-03
            2083     11.3558E-03     23.6832E-03    -29.9906E+06     46.0764E+06     16.3560E+06     1.63120E+06    -117.477E-03     221.537E-03    -104.060E-03     155.146E-03    -121.598E-03     225.668E-03    -104.001E-03     147.574E-03
            2084     10.5525E-03     23.5180E-03    -33.7050E+06    -13.5799E+06     7.85065E+06     1.01399E+06    -115.850E-03     219.200E-03    -103.350E-03     140.341E-03    -118.850E-03     222.010E-03    -103.242E-03     133.921E-03
            2085     9.74830E-03     23.3656E-03    -37.0765E+06    -57.7353E+06     1.96221E+06     783.923E+03    -114.234E-03     216.864E-03    -102.631E-03     129.241E-03    -116.450E-03     218.738E-03    -102.483E-03     123.825E-03
            2086     8.94253E-03     23.2242E-03    -40.1122E+06    -86.2395E+06    -1.32679E+06     1.26289E+06    -112.379E-03     214.289E-03    -101.910E-03     118.591E-03    -114.019E-03     215.484E-03    -101.733E-03     114.066E-03
            2087     8.13579E-03     23.0944E-03    -43.7242E+06    -113.792E+06    -4.70747E+06     2.04894E+06    -110.338E-03     211.548E-03    -101.210E-03     107.235E-03    -111.531E-03     212.195E-03    -101.005E-03     103.495E-03
            2088     7.32714E-03     22.9782E-03    -47.8703E+06    -130.123E+06    -8.12649E+06     1.91489E+06    -108.177E-03     208.708E-03    -100.531E-03     96.1301E-03    -109.041E-03     208.963E-03    -100.313E-03     93.0654E-03
            2089     6.51735E-03     22.8734E-03    -52.3866E+06    -143.958E+06    -14.3206E+06     1.58881E+06    -106.121E-03     206.006E-03    -99.8849E-03     85.3760E-03    -106.737E-03     205.967E-03    -99.6718E-03     82.8849E-03
            2090     5.70586E-03     22.7813E-03    -57.8014E+06    -163.866E+06    -22.3234E+06     1.74872E+06    -104.225E-03     203.519E-03    -99.2940E-03     74.6729E-03    -104.650E-03     203.222E-03    -99.0842E-03     72.6706E-03
            2091     4.89351E-03     22.7010E-03    -63.4720E+06    -177.361E+06    -31.1864E+06     1.76281E+06    -102.458E-03     201.207E-03    -98.7491E-03     64.0615E-03    -102.746E-03     200.730E-03    -98.5558E-03     62.4784E-03
            2092     4.07964E-03     22.6330E-03    -69.1949E+06    -195.740E+06    -42.1874E+06     1.45034E+06    -100.881E-03     199.150E-03    -98.2692E-03     53.4353E-03    -101.058E-03     198.509E-03    -98.0959E-03     52.2046E-03
            2093     3.26511E-03     22.5773E-03    -74.6373E+06    -209.455E+06    -54.1438E+06     1.29977E+06    -99.5590E-03     197.409E-03    -97.8504E-03     42.8608E-03    -99.6563E-03     196.655E-03    -97.7092E-03     41.9350E-03
            2094     2.44961E-03     22.5338E-03    -79.7518E+06    -217.948E+06    -66.2548E+06     1.25028E+06    -98.4992E-03     195.995E-03    -97.4955E-03     32.3387E-03    -98.5435E-03     195.174E-03    -97.3951E-03     31.6792E-03
            2095     1.63340E-03     22.5024E-03    -83.7331E+06    -225.598E+06    -77.2373E+06     940.487E+03    -97.7005E-03     194.918E-03    -97.2179E-03     21.8788E-03    -97.7061E-03     194.050E-03    -97.1556E-03     21.4505E-03
            2096     816.913E-06     22.4835E-03    -85.9982E+06    -230.265E+06    -84.4121E+06     529.245E+03    -97.2021E-03     194.213E-03    -97.0109E-03     11.8907E-03    -97.1838E-03     193.317E-03    -96.9743E-03     11.6647E-03
            2097     15.3547E-03     23.4092E-03    -5.13527E+06     121.525E+06     91.7846E+06    -310.882E+03    -120.976E-03     228.962E-03    -107.986E-03     87.3503E-03    -125.238E-03     233.371E-03    -107.696E-03     80.7496E-03
            2098     14.5577E-03     23.2583E-03    -9.05558E+06     121.292E+06     95.5203E+06     2.17530E+06    -120.422E-03     227.657E-03    -107.235E-03     144.617E-03    -127.131E-03     234.488E-03    -106.920E-03     135.892E-03
            2099     13.7602E-03     23.0895E-03    -14.9584E+06     110.308E+06     85.9508E+06     2.85066E+06    -121.064E-03     227.476E-03    -106.412E-03     166.998E-03    -128.093E-03     234.594E-03    -106.120E-03     157.635E-03
            2100     12.9609E-03     22.8864E-03    -21.4562E+06     99.9704E+06     64.4976E+06     1.85570E+06    -121.094E-03     226.607E-03    -105.513E-03     182.440E-03    -128.079E-03     233.684E-03    -105.304E-03     172.716E-03
            2101     12.1609E-03     22.6841E-03    -27.5292E+06     85.9327E+06     33.3426E+06     539.879E+03    -119.749E-03     224.312E-03    -104.563E-03     170.813E-03    -125.336E-03     230.010E-03    -104.481E-03     161.936E-03
            2102     11.3594E-03     22.5043E-03    -31.0596E+06     46.5136E+06     14.9870E+06     882.738E+03    -117.837E-03     221.548E-03    -103.711E-03     152.570E-03    -121.903E-03     225.626E-03    -103.659E-03     145.008E-03
            2103     10.5568E-03     22.3412E-03    -33.9395E+06    -12.3285E+06     7.92684E+06     1.59090E+06    -115.997E-03     218.946E-03    -102.949E-03     138.059E-03    -118.951E-03     221.713E-03    -102.843E-03     131.689E-03
            2104     9.75259E-03     22.1925E-03    -37.8171E+06    -57.3468E+06     1.60764E+06     1.39890E+06    -114.271E-03     216.448E-03    -102.177E-03     126.901E-03    -116.456E-03     218.291E-03    -102.031E-03     121.527E-03
            2105     8.94731E-03     22.0533E-03    -42.3432E+06    -86.5614E+06    -2.75728E+06     1.44954E+06    -112.237E-03     213.643E-03    -101.406E-03     116.277E-03    -113.854E-03     214.810E-03    -101.233E-03     111.800E-03
            2106     8.13999E-03     21.9274E-03    -46.2543E+06    -113.548E+06    -6.71877E+06     1.07905E+06    -109.981E-03     210.645E-03    -100.665E-03     105.034E-03    -111.154E-03     211.271E-03    -100.467E-03     101.337E-03
            2107     7.33142E-03     21.8135E-03    -49.3870E+06    -129.703E+06    -10.2159E+06     763.174E+03    -107.809E-03     207.761E-03    -99.9522E-03     94.0602E-03    -108.655E-03     208.001E-03    -99.7436E-03     91.0288E-03
            2108     6.52112E-03     21.7121E-03    -53.3880E+06    -144.637E+06    -15.8815E+06     1.64441E+06    -105.747E-03     205.020E-03    -99.2734E-03     83.3408E-03    -106.349E-03     204.965E-03    -99.0657E-03     80.8915E-03
            2109     5.70970E-03     21.6222E-03    -58.3259E+06    -163.315E+06    -23.0765E+06     2.27990E+06    -103.756E-03     202.403E-03    -98.6464E-03     72.7031E-03    -104.171E-03     202.097E-03    -98.4404E-03     70.7462E-03
            2110     4.89663E-03     21.5445E-03    -63.6405E+06    -176.544E+06    -31.8324E+06     2.04979E+06    -101.869E-03     199.941E-03    -98.0712E-03     62.2376E-03    -102.149E-03     199.460E-03    -97.8821E-03     60.6921E-03
            2111     4.08264E-03     21.4786E-03    -69.0127E+06    -194.851E+06    -42.2651E+06     1.88520E+06    -100.209E-03     197.784E-03    -97.5751E-03     51.8706E-03    -100.379E-03     197.140E-03    -97.4038E-03     50.6748E-03
            2112     3.26728E-03     21.4246E-03    -74.6342E+06    -208.734E+06    -54.2398E+06     1.73929E+06    -98.8226E-03     195.975E-03    -97.1519E-03     41.6488E-03    -98.9166E-03     195.220E-03    -97.0123E-03     40.7523E-03
            2113     2.45121E-03     21.3825E-03    -79.6273E+06    -216.782E+06    -65.9390E+06     1.36644E+06    -97.7504E-03     194.557E-03    -96.8069E-03     31.3951E-03    -97.7940E-03     193.740E-03    -96.7068E-03     30.7542E-03
            2114     1.63452E-03     21.3523E-03    -83.4742E+06    -224.271E+06    -76.9410E+06     794.001E+03    -96.9553E-03     193.509E-03    -96.5540E-03     21.1062E-03    -96.9608E-03     192.645E-03    -96.4924E-03     20.6871E-03
            2115     817.241E-06     21.3338E-03    -85.6935E+06    -228.885E+06    -84.1569E+06     341.712E+03    -96.5384E-03     192.917E-03    -96.3789E-03     11.4855E-03    -96.5206E-03     192.027E-03    -96.3435E-03     11.2611E-03
            2116     15.3539E-03     22.2164E-03    -5.50913E+06     120.325E+06     90.2069E+06    -396.403E+03    -122.020E-03     229.979E-03    -107.959E-03     85.9867E-03    -126.206E-03     234.311E-03    -107.674E-03     79.2931E-03
            2117     14.5585E-03     22.0632E-03    -11.3465E+06     118.514E+06     92.7605E+06     288.663E+03    -121.429E-03     228.577E-03    -107.148E-03     143.052E-03    -128.039E-03     235.299E-03    -106.840E-03     134.217E-03
            2118     13.7616E-03     21.9026E-03    -15.9448E+06     109.803E+06     86.4480E+06     2.03010E+06    -121.753E-03     228.032E-03    -106.279E-03     165.111E-03    -128.679E-03     235.041E-03    -105.983E-03     155.717E-03
            2119     12.9630E-03     21.6988E-03    -20.6949E+06     101.342E+06     67.3163E+06     2.71979E+06    -121.785E-03     227.112E-03    -105.327E-03     179.632E-03    -128.664E-03     234.082E-03    -105.107E-03     169.901E-03
            2120     12.1641E-03     21.5016E-03    -25.3085E+06     87.6131E+06     35.4658E+06     2.32292E+06    -120.286E-03     224.591E-03    -104.305E-03     167.757E-03    -125.782E-03     230.205E-03    -104.218E-03     158.903E-03
            2121     11.3635E-03     21.3240E-03    -30.2872E+06     46.5687E+06     14.6246E+06     1.76450E+06    -118.082E-03     221.467E-03    -103.385E-03     149.729E-03    -122.076E-03     225.477E-03    -103.335E-03     142.211E-03
            2122     10.5608E-03     21.1658E-03    -34.3310E+06    -12.3369E+06     7.31839E+06     1.77405E+06    -116.092E-03     218.665E-03    -102.574E-03     135.748E-03    -118.997E-03     221.384E-03    -102.469E-03     129.423E-03
            2123     9.75688E-03     21.0184E-03    -37.5882E+06    -56.9126E+06     1.11422E+06     2.12695E+06    -114.233E-03     215.990E-03    -101.757E-03     124.646E-03    -116.376E-03     217.795E-03    -101.614E-03     119.330E-03
            2124     8.95130E-03     20.8840E-03    -40.5254E+06    -85.8604E+06    -3.41647E+06     1.99295E+06    -112.085E-03     213.027E-03    -100.942E-03     113.833E-03    -113.656E-03     214.159E-03    -100.776E-03     109.415E-03
            2125     8.14412E-03     20.7606E-03    -43.9955E+06    -112.152E+06    -6.80400E+06     1.32089E+06    -109.822E-03     209.983E-03    -100.161E-03     102.588E-03    -110.955E-03     210.582E-03    -99.9685E-03     98.9438E-03
            2126     7.33518E-03     20.6503E-03    -48.9969E+06    -129.687E+06    -10.6223E+06     964.362E+03    -107.584E-03     206.989E-03    -99.4052E-03     91.4593E-03    -108.402E-03     207.204E-03    -99.1993E-03     88.4770E-03
            2127     6.52492E-03     20.5512E-03    -53.7633E+06    -145.917E+06    -16.5252E+06     1.21907E+06    -105.392E-03     204.075E-03    -98.6831E-03     80.7721E-03    -105.972E-03     203.994E-03    -98.4762E-03     78.3632E-03
            2128     5.71313E-03     20.4645E-03    -57.9174E+06    -163.223E+06    -23.5600E+06     1.99033E+06    -103.293E-03     201.308E-03    -98.0149E-03     70.3059E-03    -103.689E-03     200.987E-03    -97.8120E-03     68.3881E-03
            2129     4.89997E-03     20.3892E-03    -62.7437E+06    -175.555E+06    -32.4803E+06     2.48834E+06    -101.310E-03     198.715E-03    -97.4054E-03     60.0654E-03    -101.574E-03     198.227E-03    -97.2223E-03     58.5636E-03
            2130     4.08521E-03     20.3256E-03    -68.4605E+06    -194.185E+06    -42.5710E+06     2.63544E+06    -99.5888E-03     196.476E-03    -96.8870E-03     49.9549E-03    -99.7492E-03     195.827E-03    -96.7190E-03     48.8006E-03
            2131     3.26955E-03     20.2737E-03    -73.9743E+06    -207.223E+06    -53.5096E+06     2.20720E+06    -98.1515E-03     194.599E-03    -96.4475E-03     39.9778E-03    -98.2403E-03     193.845E-03    -96.3073E-03     39.1115E-03
            2132     2.45285E-03     20.2327E-03    -78.9747E+06    -215.269E+06    -65.5162E+06     1.41366E+06    -97.0209E-03     193.112E-03    -96.0909E-03     30.0725E-03    -97.0613E-03     192.298E-03    -95.9918E-03     29.4508E-03
            2133     1.63563E-03     20.2036E-03    -83.0128E+06    -222.972E+06    -76.8685E+06     985.063E+03    -96.2697E-03     192.091E-03    -95.8216E-03     20.1512E-03    -96.2736E-03     191.232E-03    -95.7622E-03     19.7473E-03
            2134     817.931E-06     20.1860E-03    -85.9662E+06    -227.659E+06    -84.4093E+06     685.923E+03    -95.9473E-03     191.419E-03    -95.4722E-03     10.8741E-03    -95.9318E-03     190.536E-03    -95.4395E-03     10.6610E-03
            2135     15.3553E-03     21.0175E-03    -4.59764E+06     120.807E+06     91.1303E+06     992.540E+03    -123.214E-03     231.200E-03    -107.985E-03     85.1087E-03    -127.334E-03     235.468E-03    -107.698E-03     78.3553E-03
            2136     14.5595E-03     20.8733E-03    -11.0154E+06     117.986E+06     92.3170E+06     618.514E+03    -122.593E-03     229.697E-03    -107.105E-03     140.888E-03    -129.094E-03     236.311E-03    -106.798E-03     131.942E-03
            2137     13.7627E-03     20.7096E-03    -17.0195E+06     108.232E+06     85.1533E+06     220.160E+03    -122.857E-03     229.016E-03    -106.159E-03     162.326E-03    -129.674E-03     235.910E-03    -105.866E-03     152.818E-03
            2138     12.9667E-03     20.5132E-03    -21.6624E+06     100.622E+06     67.2006E+06     1.07070E+06    -122.544E-03     227.679E-03    -105.136E-03     176.688E-03    -129.312E-03     234.533E-03    -104.914E-03     166.917E-03
            2139     12.1673E-03     20.3168E-03    -25.8047E+06     86.8427E+06     35.1942E+06     2.53935E+06    -120.543E-03     224.597E-03    -104.054E-03     164.802E-03    -125.937E-03     230.106E-03    -103.966E-03     155.995E-03
            2140     11.3666E-03     20.1452E-03    -29.2878E+06     47.6157E+06     14.3618E+06     3.67171E+06    -118.185E-03     221.271E-03    -103.087E-03     146.939E-03    -122.098E-03     225.209E-03    -103.041E-03     139.498E-03
            2141     10.5643E-03     19.9889E-03    -33.5754E+06    -11.1440E+06     6.41943E+06     3.22006E+06    -116.195E-03     218.426E-03    -102.231E-03     133.336E-03    -119.041E-03     221.095E-03    -102.134E-03     127.073E-03
            2142     9.76040E-03     19.8461E-03    -37.2453E+06    -56.0859E+06     267.701E+03     1.80026E+06    -114.251E-03     215.624E-03    -101.373E-03     122.086E-03    -116.342E-03     217.382E-03    -101.236E-03     116.818E-03
            2143     8.95488E-03     19.7140E-03    -40.0768E+06    -85.5538E+06    -3.72946E+06     1.37640E+06    -112.175E-03     212.684E-03    -100.509E-03     110.855E-03    -113.698E-03     213.772E-03    -100.345E-03     106.479E-03
            2144     8.14784E-03     19.5948E-03    -43.4854E+06    -111.749E+06    -7.03507E+06     2.06347E+06    -109.918E-03     209.578E-03    -99.6603E-03     99.3004E-03    -111.011E-03     210.141E-03    -99.4704E-03     95.7122E-03
            2145     7.33941E-03     19.4870E-03    -47.3255E+06    -128.412E+06    -9.84891E+06     1.98041E+06    -107.504E-03     206.339E-03    -98.8345E-03     88.0605E-03    -108.284E-03     206.523E-03    -98.6289E-03     85.1454E-03
            2146     6.52902E-03     19.3919E-03    -52.0212E+06    -146.159E+06    -16.2126E+06     1.76172E+06    -105.096E-03     203.144E-03    -98.0482E-03     77.3704E-03    -105.640E-03     203.032E-03    -97.8419E-03     75.0243E-03
            2147     5.71684E-03     19.3076E-03    -57.4986E+06    -163.857E+06    -24.2593E+06     2.32710E+06    -102.818E-03     200.144E-03    -97.3255E-03     67.0240E-03    -103.188E-03     199.798E-03    -97.1258E-03     65.1647E-03
            2148     4.90319E-03     19.2355E-03    -63.1296E+06    -175.418E+06    -33.0774E+06     3.09145E+06    -100.784E-03     197.452E-03    -96.6681E-03     56.9689E-03    -101.033E-03     196.951E-03    -96.4876E-03     55.5217E-03
            2149     4.08826E-03     19.1741E-03    -68.4540E+06    -192.630E+06    -42.7297E+06     3.10514E+06    -99.0238E-03     195.118E-03    -96.0938E-03     47.1266E-03    -99.1752E-03     194.466E-03    -95.9289E-03     46.0170E-03
            2150     3.27213E-03     19.1240E-03    -73.5033E+06    -205.234E+06    -53.3990E+06     2.36015E+06    -97.4849E-03     193.079E-03    -95.5946E-03     37.4864E-03    -97.5673E-03     192.327E-03    -95.4574E-03     36.6538E-03
            2151     2.45502E-03     19.0850E-03    -78.3566E+06    -213.893E+06    -65.5318E+06     2.01541E+06    -96.2245E-03     191.410E-03    -95.1853E-03     28.0795E-03    -96.2594E-03     190.597E-03    -95.0892E-03     27.4914E-03
            2152     1.63695E-03     19.0567E-03    -82.6144E+06    -221.562E+06    -76.7940E+06     1.67922E+06    -95.3892E-03     190.263E-03    -94.8735E-03     18.8340E-03    -95.3913E-03     189.408E-03    -94.8164E-03     18.4575E-03
            2153     818.861E-06     19.0394E-03    -85.1225E+06    -225.443E+06    -83.7177E+06     880.912E+03    -94.8906E-03     189.481E-03    -94.5909E-03     10.1002E-03    -94.8745E-03     188.606E-03    -94.5591E-03     9.89941E-03
            2154     15.3517E-03     19.8212E-03    -5.45044E+06     119.912E+06     90.6827E+06     1.05451E+06    -124.389E-03     232.409E-03    -108.020E-03     83.3854E-03    -128.422E-03     236.586E-03    -107.733E-03     76.5485E-03
            2155     14.5591E-03     19.6751E-03    -9.67949E+06     119.267E+06     94.1871E+06     1.28589E+06    -124.215E-03     231.280E-03    -107.065E-03     137.228E-03    -130.552E-03     237.733E-03    -106.753E-03     128.172E-03
            2156     13.7655E-03     19.5202E-03    -15.7413E+06     108.836E+06     84.6663E+06     888.107E+03    -123.753E-03     229.778E-03    -106.025E-03     158.576E-03    -130.391E-03     236.501E-03    -105.737E-03     149.063E-03
            2157     12.9676E-03     19.3231E-03    -22.4383E+06     98.7856E+06     63.9953E+06     619.797E+03    -122.687E-03     227.631E-03    -104.944E-03     173.474E-03    -129.302E-03     234.332E-03    -104.735E-03     163.756E-03
            2158     12.1703E-03     19.1344E-03    -27.6892E+06     84.4243E+06     32.9116E+06     2.20221E+06    -120.653E-03     224.491E-03    -103.838E-03     162.036E-03    -125.940E-03     229.884E-03    -103.756E-03     153.286E-03
            2159     11.3695E-03     18.9647E-03    -31.6257E+06     47.2315E+06     12.4624E+06     3.60967E+06    -118.528E-03     221.356E-03    -102.829E-03     144.371E-03    -122.368E-03     225.216E-03    -102.789E-03     136.964E-03
            2160     10.5675E-03     18.8132E-03    -33.8994E+06    -8.80480E+06     6.17307E+06     3.34265E+06    -116.617E-03     218.531E-03    -101.914E-03     130.214E-03    -119.399E-03     221.144E-03    -101.821E-03     123.982E-03
            2161     9.76382E-03     18.6729E-03    -36.8831E+06    -53.6682E+06     526.083E+03     2.36101E+06    -114.723E-03     215.701E-03    -100.978E-03     118.413E-03    -116.746E-03     217.402E-03    -100.844E-03     113.199E-03
            2162     8.95894E-03     18.5449E-03    -41.2706E+06    -85.6603E+06    -4.96477E+06     1.90459E+06    -112.654E-03     212.670E-03    -100.016E-03     106.495E-03    -114.117E-03     213.697E-03    -99.8565E-03     102.179E-03
            2163     8.15258E-03     18.4284E-03    -44.9716E+06    -111.568E+06    -9.32271E+06     1.48323E+06    -110.226E-03     209.277E-03    -99.0518E-03     94.4105E-03    -111.265E-03     209.788E-03    -98.8714E-03     90.8793E-03
            2164     7.34403E-03     18.3252E-03    -48.3127E+06    -127.867E+06    -11.7794E+06     1.48969E+06    -107.572E-03     205.686E-03    -98.1145E-03     82.8827E-03    -108.304E-03     205.827E-03    -97.9179E-03     80.0366E-03
            2165     6.53375E-03     18.2328E-03    -52.4475E+06    -147.101E+06    -16.8336E+06     2.70649E+06    -104.940E-03     202.166E-03    -97.2266E-03     72.0221E-03    -105.442E-03     202.009E-03    -97.0214E-03     69.7641E-03
            2166     5.72174E-03     18.1527E-03    -57.6389E+06    -163.733E+06    -24.6489E+06     3.80387E+06    -102.448E-03     198.844E-03    -96.3963E-03     61.7609E-03    -102.786E-03     198.468E-03    -96.1985E-03     59.9947E-03
            2167     4.90778E-03     18.0828E-03    -63.0675E+06    -174.764E+06    -33.9826E+06     3.64413E+06    -100.208E-03     195.841E-03    -95.6324E-03     52.0112E-03    -100.433E-03     195.320E-03    -95.4575E-03     50.6396E-03
            2168     4.09255E-03     18.0243E-03    -68.2156E+06    -190.609E+06    -43.2547E+06     3.16622E+06    -98.2507E-03     193.211E-03    -94.9606E-03     42.6805E-03    -98.3863E-03     192.554E-03    -94.8016E-03     41.6304E-03
            2169     3.27587E-03     17.9764E-03    -73.4523E+06    -203.514E+06    -54.0249E+06     2.76495E+06    -96.5436E-03     190.914E-03    -94.3702E-03     33.7449E-03    -96.6164E-03     190.160E-03    -94.2388E-03     32.9677E-03
            2170     2.45801E-03     17.9392E-03    -78.3527E+06    -212.625E+06    -65.5332E+06     2.61080E+06    -95.1413E-03     189.016E-03    -93.8746E-03     25.1469E-03    -95.1718E-03     188.203E-03    -93.7804E-03     24.6050E-03
            2171     1.63937E-03     17.9123E-03    -82.2111E+06    -219.183E+06    -75.8188E+06     2.03920E+06    -94.0578E-03     187.562E-03    -93.5038E-03     16.8610E-03    -94.0598E-03     186.713E-03    -93.4459E-03     16.5168E-03
            2172     819.618E-06     17.8958E-03    -84.1333E+06    -222.877E+06    -83.0922E+06     622.119E+03    -93.3103E-03     186.699E-03    -93.3883E-03     8.78324E-03    -93.2931E-03     185.833E-03    -93.3586E-03     8.59268E-03
            2173     15.3543E-03     18.6204E-03    -4.85706E+06     119.443E+06     90.8077E+06     1.12232E+06    -126.318E-03     234.298E-03    -107.980E-03     79.5216E-03    -130.199E-03     238.322E-03    -107.692E-03     72.6029E-03
            2174     14.5617E-03     18.4786E-03    -9.63025E+06     118.235E+06     93.3301E+06     229.527E+03    -124.576E-03     231.526E-03    -106.950E-03     132.149E-03    -130.676E-03     237.741E-03    -106.641E-03     123.105E-03
            2175     13.7668E-03     18.3265E-03    -14.9757E+06     108.505E+06     85.0423E+06     1.64852E+06    -123.544E-03     229.439E-03    -105.895E-03     154.856E-03    -129.987E-03     235.969E-03    -105.606E-03     145.462E-03
            2176     12.9715E-03     18.1369E-03    -21.5154E+06     98.0455E+06     64.5122E+06     3.15761E+06    -122.662E-03     227.470E-03    -104.808E-03     171.075E-03    -129.126E-03     234.018E-03    -104.596E-03     161.469E-03
            2177     12.1712E-03     17.9499E-03    -27.7844E+06     83.5113E+06     33.4057E+06     3.36321E+06    -121.205E-03     224.874E-03    -103.669E-03     159.198E-03    -126.363E-03     230.133E-03    -103.583E-03     150.489E-03
            2178     11.3718E-03     17.7844E-03    -31.6392E+06     47.3324E+06     12.8965E+06     3.06181E+06    -119.538E-03     222.116E-03    -102.577E-03     140.593E-03    -123.268E-03     225.864E-03    -102.536E-03     133.181E-03
            2179     10.5708E-03     17.6360E-03    -34.7675E+06    -7.02750E+06     4.59011E+06     2.68336E+06    -117.863E-03     219.391E-03    -101.528E-03     125.390E-03    -120.546E-03     221.913E-03    -101.444E-03     119.159E-03
            2180     9.76855E-03     17.4998E-03    -37.7390E+06    -52.2884E+06    -1.25687E+06     2.54486E+06    -115.992E-03     216.425E-03    -100.433E-03     112.442E-03    -117.917E-03     218.034E-03    -100.308E-03     107.269E-03
            2181     8.96474E-03     17.3747E-03    -40.0100E+06    -85.0346E+06    -5.08772E+06     2.40927E+06    -113.627E-03     212.924E-03    -99.2976E-03     99.4357E-03    -114.986E-03     213.855E-03    -99.1417E-03     95.1967E-03
            2182     8.15901E-03     17.2630E-03    -43.2001E+06    -110.149E+06    -9.64304E+06     2.05910E+06    -110.866E-03     209.011E-03    -98.1454E-03     86.5172E-03    -111.808E-03     209.437E-03    -97.9712E-03     83.0915E-03
            2183     7.35156E-03     17.1633E-03    -47.7811E+06    -128.298E+06    -12.9111E+06     2.04633E+06    -107.856E-03     204.876E-03    -97.0199E-03     74.5719E-03    -108.507E-03     204.939E-03    -96.8292E-03     71.8420E-03
            2184     6.54173E-03     17.0757E-03    -52.7548E+06    -148.745E+06    -17.6410E+06     3.23304E+06    -104.866E-03     200.814E-03    -95.9477E-03     63.7368E-03    -105.306E-03     200.590E-03    -95.7437E-03     61.5967E-03
            2185     5.72957E-03     16.9987E-03    -57.3557E+06    -163.169E+06    -24.8977E+06     4.39991E+06    -102.017E-03     196.946E-03    -94.9292E-03     53.7991E-03    -102.307E-03     196.526E-03    -94.7339E-03     52.1490E-03
            2186     4.91569E-03     16.9328E-03    -62.0174E+06    -172.769E+06    -34.0169E+06     4.39486E+06    -99.3231E-03     193.314E-03    -93.9905E-03     44.7146E-03    -99.5108E-03     192.767E-03    -93.8202E-03     43.4553E-03
            2187     4.09949E-03     16.8770E-03    -67.3457E+06    -188.857E+06    -43.4438E+06     3.80474E+06    -96.9503E-03     190.125E-03    -93.1748E-03     36.2724E-03    -97.0602E-03     189.451E-03    -93.0205E-03     35.3208E-03
            2188     3.28183E-03     16.8318E-03    -72.7757E+06    -201.860E+06    -53.8808E+06     3.52588E+06    -94.9609E-03     187.431E-03    -92.4701E-03     28.4057E-03    -95.0183E-03     186.669E-03    -92.3413E-03     27.7113E-03
            2189     2.46280E-03     16.7967E-03    -77.6864E+06    -210.638E+06    -64.9229E+06     2.94356E+06    -93.3287E-03     185.212E-03    -91.8835E-03     21.0733E-03    -93.3516E-03     184.399E-03    -91.7900E-03     20.5904E-03
            2190     1.64247E-03     16.7716E-03    -81.5381E+06    -216.205E+06    -74.3930E+06     1.90221E+06    -92.0860E-03     183.530E-03    -91.4445E-03     14.0762E-03    -92.0875E-03     182.690E-03    -91.3847E-03     13.7667E-03
            2191     821.549E-06     16.7562E-03    -84.4624E+06    -220.591E+06     -82.648E+06     919.734E+03    -91.2946E-03     182.499E-03    -91.2047E-03     7.34838E-03    -91.2819E-03     181.643E-03    -91.1756E-03     7.18235E-03
            2192     15.3567E-03     17.4193E-03    -3.57608E+06     119.272E+06     90.9332E+06     566.906E+03    -127.659E-03     235.589E-03    -107.930E-03     76.8479E-03    -131.416E-03     239.494E-03    -107.643E-03     69.9138E-03
            2193     14.5642E-03     17.2823E-03    -8.31471E+06     117.946E+06     93.2684E+06     1.83339E+06    -123.958E-03     230.841E-03    -106.883E-03     131.224E-03    -129.900E-03     236.902E-03    -106.576E-03     122.334E-03
            2194     13.7687E-03     17.1361E-03    -16.1387E+06     106.302E+06     83.6314E+06     2.54030E+06    -123.505E-03     229.352E-03    -105.847E-03     154.236E-03    -129.822E-03     235.746E-03    -105.559E-03     144.910E-03
            2195     12.9697E-03     16.9482E-03    -21.6412E+06     97.1569E+06     66.2738E+06     3.56989E+06    -124.031E-03     228.756E-03    -104.726E-03     168.745E-03    -130.351E-03     235.153E-03    -104.504E-03     159.083E-03
            2196     12.1740E-03     16.7647E-03    -25.6112E+06     84.1580E+06     35.5874E+06     4.43222E+06    -123.247E-03     226.700E-03    -103.453E-03     154.401E-03    -128.226E-03     231.785E-03    -103.360E-03     145.623E-03
            2197     11.3756E-03     16.6026E-03    -29.8785E+06     48.8897E+06     13.0066E+06     4.10492E+06    -121.755E-03     223.918E-03    -102.162E-03     133.755E-03    -125.308E-03     227.500E-03    -102.125E-03     126.306E-03
            2198     10.5765E-03     16.4574E-03    -33.6982E+06    -4.90222E+06     4.63811E+06     3.37320E+06    -120.160E-03     221.037E-03    -100.877E-03     116.802E-03    -122.671E-03     223.398E-03    -100.798E-03     110.582E-03
            2199     9.77664E-03     16.3248E-03    -36.4961E+06    -51.0210E+06    -1.27494E+06     2.38511E+06    -118.034E-03     217.543E-03    -99.5094E-03     102.322E-03    -119.793E-03     218.996E-03    -99.3889E-03     97.2008E-03
            2200     8.97482E-03     16.2048E-03    -39.5530E+06    -84.7262E+06    -5.30107E+06     2.09566E+06    -115.132E-03     213.218E-03    -98.0858E-03     88.2176E-03    -116.342E-03     214.003E-03    -97.9321E-03     84.0857E-03
            2201     8.17088E-03     16.0974E-03    -42.8287E+06    -109.591E+06    -10.2279E+06     2.78762E+06    -111.692E-03     208.336E-03    -96.6439E-03     74.7242E-03    -112.505E-03     208.638E-03    -96.4740E-03     71.4592E-03
            2202     7.36407E-03     16.0031E-03    -46.4485E+06    -128.335E+06    -13.7794E+06     3.49044E+06    -108.080E-03     203.319E-03    -95.2396E-03     62.8803E-03    -108.621E-03     203.281E-03    -95.0551E-03     60.3307E-03
            2203     6.55461E-03     15.9201E-03    -50.9774E+06    -149.379E+06    -17.7919E+06     4.29058E+06    -104.514E-03     198.420E-03    -93.9060E-03     52.6184E-03    -104.867E-03     198.114E-03    -93.7044E-03     50.6493E-03
            2204     5.74278E-03     15.8479E-03    -56.0914E+06    -162.477E+06    -24.1758E+06     4.85774E+06    -100.994E-03     193.643E-03    -92.6489E-03     43.6283E-03    -101.225E-03     193.168E-03    -92.4528E-03     42.1304E-03
            2205     4.92779E-03     15.7862E-03    -61.1721E+06    -170.973E+06    -33.2083E+06     4.89116E+06    -97.7216E-03     189.225E-03    -91.5032E-03     35.8430E-03    -97.8710E-03     188.646E-03    -91.3326E-03     34.7191E-03
            2206     4.11071E-03     15.7343E-03    -66.1045E+06    -187.018E+06    -42.9879E+06     4.84044E+06    -94.8819E-03     185.397E-03    -90.5151E-03     28.8405E-03    -94.9644E-03     184.705E-03    -90.3630E-03     28.0118E-03
            2207     3.29123E-03     15.6922E-03    -71.3380E+06    -199.577E+06    -53.4297E+06     4.38451E+06    -92.5036E-03     182.182E-03    -89.6785E-03     22.4062E-03    -92.5428E-03     181.414E-03    -89.5528E-03     21.8107E-03
            2208     2.46997E-03     15.6596E-03    -76.0702E+06    -207.492E+06    -63.9232E+06     3.33739E+06    -90.6208E-03     179.619E-03    -88.9979E-03     16.4363E-03    -90.6335E-03     178.809E-03    -88.9064E-03     16.0235E-03
            2209     1.64745E-03     15.6364E-03    -80.1123E+06    -213.443E+06    -73.6803E+06     2.27760E+06    -89.2329E-03     177.718E-03    -88.4846E-03     10.8668E-03    -89.2288E-03     176.884E-03    -88.4273E-03     10.6049E-03
            2210     823.941E-06     15.6220E-03    -83.1460E+06    -217.747E+06    -81.3350E+06     1.26566E+06    -88.3554E-03     176.508E-03    -88.1526E-03     5.72062E-03    -88.3413E-03     175.661E-03    -88.1230E-03     5.58344E-03
            2211     15.3550E-03     16.2174E-03      -4.658E+06     117.190E+06     88.6034E+06     162.369E+03    -127.780E-03     235.852E-03    -108.073E-03     77.5071E-03    -131.467E-03     239.682E-03    -107.793E-03     70.5212E-03
            2212     14.5608E-03     16.0878E-03    -10.7635E+06     115.018E+06     90.6143E+06     2.18900E+06    -125.701E-03     232.685E-03    -106.984E-03     129.616E-03    -131.507E-03     238.599E-03    -106.682E-03     120.594E-03
            2213     13.7648E-03     15.9432E-03    -15.3244E+06     106.611E+06     84.4961E+06     3.27875E+06    -125.966E-03     231.802E-03    -105.836E-03     150.723E-03    -132.109E-03     238.025E-03    -105.546E-03     141.197E-03
            2214     12.9731E-03     15.7565E-03    -21.3148E+06     96.8463E+06     66.3317E+06     3.09374E+06    -127.279E-03     231.798E-03    -104.519E-03     162.509E-03    -133.371E-03     237.965E-03    -104.296E-03     152.593E-03
            2215     12.1779E-03     15.5765E-03    -26.1685E+06     82.8842E+06     36.2316E+06     4.03313E+06    -126.930E-03     229.908E-03    -102.979E-03     145.492E-03    -131.663E-03     234.739E-03    -102.880E-03     136.507E-03
            2216     11.3840E-03     15.4176E-03    -29.5447E+06     51.0032E+06     14.8121E+06     4.93088E+06    -125.466E-03     226.817E-03    -101.351E-03     122.712E-03    -128.768E-03     230.153E-03    -101.308E-03     115.181E-03
            2217     10.5889E-03     15.2767E-03    -32.1264E+06    -1.22790E+06     5.92222E+06     3.56906E+06    -123.391E-03     223.076E-03    -99.6844E-03     104.097E-03    -125.660E-03     225.210E-03    -99.6064E-03     97.8989E-03
            2218     9.79175E-03     15.1489E-03    -34.6944E+06    -49.7388E+06    -955.979E+03     2.59532E+06    -120.571E-03     218.495E-03    -97.9235E-03     88.2884E-03    -122.110E-03     219.738E-03    -97.8058E-03     83.2715E-03
            2219     8.99255E-03     15.0344E-03    -37.8022E+06    -84.2109E+06    -4.81505E+06     3.05429E+06    -116.748E-03     212.860E-03    -96.1119E-03     73.4546E-03    -117.771E-03     213.465E-03    -95.9591E-03     69.5006E-03
            2220     8.18999E-03     14.9335E-03    -41.4681E+06    -109.366E+06    -10.0905E+06     3.44221E+06    -112.294E-03     206.596E-03    -94.3021E-03     60.2046E-03    -112.957E-03     206.754E-03    -94.1338E-03     57.1490E-03
            2221     7.38400E-03     14.8454E-03    -45.1771E+06    -128.650E+06    -14.6346E+06     4.22621E+06    -107.757E-03     200.318E-03    -92.5606E-03     49.1896E-03    -108.184E-03     200.171E-03    -92.3817E-03     46.8540E-03
            2222     6.57467E-03     14.7681E-03    -49.3310E+06    -149.623E+06    -17.8085E+06     5.63675E+06    -103.291E-03     194.230E-03    -90.9392E-03     40.1018E-03    -103.559E-03     193.844E-03    -90.7398E-03     38.3427E-03
            2223     5.76133E-03     14.7021E-03    -54.1454E+06    -160.782E+06    -22.6441E+06     5.77244E+06    -99.0079E-03     188.452E-03    -89.4437E-03     32.6170E-03    -99.1806E-03     187.927E-03    -89.2453E-03     31.3008E-03
            2224     4.94496E-03     14.6453E-03    -59.0483E+06    -169.573E+06    -31.4875E+06     5.37344E+06    -95.1425E-03     183.245E-03    -88.1023E-03     26.4446E-03    -95.2509E-03     182.632E-03    -87.9282E-03     25.4700E-03
            2225     4.12530E-03     14.5981E-03    -64.2145E+06    -185.567E+06    -42.3992E+06     5.88367E+06    -91.8272E-03     178.783E-03    -86.9556E-03     21.1105E-03    -91.8812E-03     178.072E-03    -86.8054E-03     20.4121E-03
            2226     3.30335E-03     14.5596E-03    -69.1736E+06    -196.056E+06    -53.2354E+06     5.53757E+06    -89.1196E-03     175.120E-03    -86.0001E-03     16.3810E-03    -89.1406E-03     174.352E-03    -85.8817E-03     15.8909E-03
            2227     2.47943E-03     14.5300E-03    -73.7909E+06    -204.002E+06    -63.8823E+06     4.32280E+06    -87.0333E-03     172.268E-03    -85.2345E-03     11.9797E-03    -87.0332E-03     171.466E-03    -85.1512E-03     11.6447E-03
            2228     1.65390E-03     14.5088E-03    -77.5427E+06    -210.050E+06    -72.7441E+06     3.14103E+06    -85.4895E-03     170.156E-03    -84.6666E-03     7.85168E-03    -85.4760E-03     169.331E-03    -84.6133E-03     7.64342E-03
            2229     827.249E-06     14.4961E-03    -79.9410E+06    -213.796E+06    -78.7935E+06     1.88423E+06    -84.5758E-03     168.835E-03    -84.2596E-03     4.08610E-03    -84.5543E-03     167.999E-03    -84.2277E-03     3.98089E-03
            2230     15.3445E-03     15.0091E-03    -4.84626E+06     116.202E+06     87.9519E+06     1.25175E+06    -128.798E-03     237.061E-03    -108.263E-03     72.7655E-03    -132.304E-03     240.707E-03    -107.984E-03     65.7180E-03
            2231     14.5585E-03     14.8880E-03    -10.0599E+06     114.873E+06     90.8884E+06     2.00617E+06    -129.580E-03     236.618E-03    -107.038E-03     121.405E-03    -135.135E-03     242.282E-03    -106.736E-03     111.998E-03
            2232     13.7703E-03     14.7462E-03    -15.4225E+06     105.539E+06     84.2294E+06     1.98313E+06    -130.673E-03     236.294E-03    -105.621E-03     143.231E-03    -136.596E-03     242.293E-03    -105.330E-03     133.220E-03
            2233     12.9781E-03     14.5615E-03    -20.2777E+06     96.5600E+06     67.8094E+06     3.78274E+06    -132.281E-03     236.249E-03    -103.967E-03     153.709E-03    -138.080E-03     242.122E-03    -103.739E-03     143.402E-03
            2234     12.1901E-03     14.3836E-03    -25.4806E+06     82.6333E+06     38.2909E+06     4.35186E+06    -132.156E-03     234.173E-03    -102.017E-03     133.290E-03    -136.554E-03     238.664E-03    -101.908E-03     124.039E-03
            2235     11.4005E-03     14.2294E-03    -28.3741E+06     53.0896E+06     16.4813E+06     3.47336E+06    -130.094E-03     230.010E-03    -99.9161E-03     108.456E-03    -133.074E-03     233.032E-03    -99.8695E-03     100.826E-03
            2236     10.6091E-03     14.0937E-03    -30.1624E+06     1.72263E+06     6.57196E+06     3.43860E+06    -127.085E-03     224.846E-03    -97.7607E-03     88.8307E-03    -129.079E-03     226.721E-03    -97.6866E-03     82.6802E-03
            2237     9.81568E-03     13.9722E-03    -33.1501E+06    -48.4843E+06    -947.049E+03     3.59382E+06    -123.036E-03     218.565E-03    -95.5293E-03     72.3582E-03    -124.343E-03     219.588E-03    -95.4156E-03     67.5081E-03
            2238     9.01854E-03     13.8652E-03    -36.6896E+06    -83.7982E+06    -4.63383E+06     4.10581E+06    -117.872E-03     211.157E-03    -93.2850E-03     57.5561E-03    -118.712E-03     211.585E-03    -93.1335E-03     53.8263E-03
            2239     8.21706E-03     13.7726E-03    -40.3300E+06    -107.889E+06    -9.26744E+06     4.66630E+06    -112.222E-03     203.311E-03    -91.0882E-03     45.2538E-03    -112.753E-03     203.343E-03    -90.9196E-03     42.4407E-03
            2240     7.41108E-03     13.6917E-03    -44.4841E+06    -129.118E+06    -14.8570E+06     5.31559E+06    -106.534E-03     195.545E-03    -89.0111E-03     35.5754E-03    -106.863E-03     195.302E-03    -88.8336E-03     33.4754E-03
            2241     6.60013E-03     13.6225E-03    -48.5930E+06    -149.195E+06    -19.3940E+06     6.28994E+06    -101.078E-03     188.188E-03    -87.1097E-03     27.9711E-03    -101.275E-03     187.739E-03    -86.9199E-03     26.4223E-03
            2242     5.78525E-03     13.5628E-03    -52.3704E+06    -158.195E+06    -23.0717E+06     5.96696E+06    -96.0859E-03     181.484E-03    -85.3986E-03     22.0742E-03    -96.2090E-03     180.927E-03    -85.2087E-03     20.9335E-03
            2243     4.96616E-03     13.5125E-03    -57.0276E+06    -169.362E+06    -30.2484E+06     6.43785E+06    -91.6751E-03     175.571E-03    -83.8960E-03     17.4493E-03    -91.7472E-03     174.927E-03    -83.7190E-03     16.6289E-03
            2244     4.14379E-03     13.4702E-03    -62.3567E+06    -183.553E+06    -41.4716E+06     7.37008E+06    -87.9306E-03     170.544E-03    -82.6130E-03     13.7067E-03    -87.9619E-03     169.821E-03    -82.4638E-03     13.1397E-03
            2245     3.31834E-03     13.4361E-03    -67.3668E+06    -192.189E+06    -53.0484E+06     6.90027E+06    -84.8995E-03     166.458E-03    -81.5584E-03     10.5325E-03    -84.9071E-03     165.696E-03    -81.4473E-03     10.1460E-03
            2246     2.49060E-03     13.4094E-03    -71.6079E+06    -199.892E+06    -63.3018E+06     5.78810E+06    -82.5971E-03     163.339E-03    -80.7423E-03     7.66910E-03    -82.5876E-03     162.548E-03    -80.6651E-03     7.41491E-03
            2247     1.66134E-03     13.3907E-03    -74.9504E+06    -205.436E+06    -71.0250E+06     4.14525E+06    -80.9901E-03     161.147E-03    -80.1573E-03     4.96787E-03    -80.9707E-03     160.337E-03    -80.1059E-03     4.81188E-03
            2248     830.937E-06     13.3793E-03    -77.0416E+06    -208.589E+06    -75.7784E+06     2.38825E+06    -80.0887E-03     159.808E-03    -79.7191E-03     2.67978E-03    -80.0641E-03     158.988E-03    -79.6838E-03     2.60164E-03
            2249     15.3521E-03     13.8079E-03    -4.82874E+06     115.306E+06     87.5509E+06     837.957E+03    -132.594E-03     240.798E-03    -108.205E-03     67.0535E-03    -135.926E-03     244.269E-03    -107.927E-03     59.7649E-03
            2250     14.5616E-03     13.6788E-03    -8.73699E+06     114.235E+06     91.2370E+06     625.791E+03    -132.999E-03     239.770E-03    -106.771E-03     113.135E-03    -138.271E-03     245.152E-03    -106.468E-03     103.364E-03
            2251     13.7750E-03     13.5457E-03    -14.4868E+06     104.328E+06     84.2478E+06     2.62399E+06    -136.380E-03     241.433E-03    -105.053E-03     135.126E-03    -142.031E-03     247.158E-03    -104.762E-03     124.583E-03
            2252     12.9925E-03     13.3596E-03    -20.2753E+06     94.9783E+06     68.4803E+06     2.88034E+06    -139.339E-03     242.286E-03    -102.947E-03     143.753E-03    -144.817E-03     247.832E-03    -102.713E-03     132.872E-03
            2253     12.2091E-03     13.1856E-03    -23.0695E+06     83.2502E+06     40.7958E+06     2.90242E+06    -138.348E-03     238.804E-03    -100.456E-03     119.345E-03    -142.357E-03     242.910E-03    -100.339E-03     109.810E-03
            2254     11.4249E-03     13.0377E-03    -25.4446E+06     54.6611E+06     17.3585E+06     3.47023E+06    -135.021E-03     232.817E-03    -97.7959E-03     93.2578E-03    -137.666E-03     235.517E-03    -97.7515E-03     85.5819E-03
            2255     10.6382E-03     12.9090E-03    -29.1170E+06     3.54554E+06     6.45594E+06     4.03963E+06    -130.513E-03     225.624E-03    -95.1113E-03     72.9820E-03    -132.246E-03     227.251E-03    -95.0419E-03     66.9310E-03
            2256     9.84729E-03     12.7961E-03    -32.4075E+06    -46.6250E+06    -1.10101E+06     4.83170E+06    -124.758E-03     217.160E-03    -92.4025E-03     56.6353E-03    -125.860E-03     217.988E-03    -92.2934E-03     52.0018E-03
            2257     9.05140E-03     12.6990E-03    -35.7349E+06    -82.9071E+06    -5.10719E+06     5.35498E+06    -118.129E-03     207.874E-03    -89.7444E-03     42.5975E-03    -118.815E-03     208.155E-03    -89.5979E-03     39.1207E-03
            2258     8.25005E-03     12.6158E-03    -39.5977E+06    -106.741E+06    -9.40903E+06     6.02135E+06    -111.184E-03     198.384E-03    -87.2004E-03     31.6853E-03    -111.607E-03     198.317E-03    -87.0353E-03     29.1230E-03
            2259     7.44280E-03     12.5449E-03    -43.4568E+06    -128.693E+06    -14.8899E+06     6.75262E+06    -104.450E-03     189.288E-03    -84.8378E-03     23.5293E-03    -104.704E-03     188.974E-03    -84.6626E-03     21.6593E-03
            2260     6.63038E-03     12.4842E-03    -47.0063E+06    -146.958E+06    -20.6023E+06     6.49543E+06    -98.1796E-03     180.873E-03    -82.6939E-03     17.4512E-03    -98.3227E-03     180.388E-03    -82.5156E-03     16.0878E-03
            2261     5.81250E-03     12.4326E-03    -51.0012E+06    -156.712E+06    -25.1140E+06     6.43403E+06    -92.5306E-03     173.324E-03    -80.7930E-03     13.0805E-03    -92.6149E-03     172.743E-03    -80.6174E-03     12.0970E-03
            2262     4.99039E-03     12.3889E-03    -56.0238E+06    -169.767E+06    -30.7789E+06     7.89456E+06    -87.6468E-03     166.799E-03    -79.1526E-03     9.81357E-03    -87.6930E-03     166.132E-03    -78.9791E-03     9.13123E-03
            2263     4.16430E-03     12.3525E-03    -61.3150E+06    -180.861E+06    -40.3512E+06     8.99590E+06    -83.5247E-03     161.280E-03    -77.7557E-03     7.48807E-03    -83.5445E-03     160.556E-03    -77.6063E-03     7.03499E-03
            2264     3.33519E-03     12.3228E-03    -66.3191E+06    -187.820E+06    -51.0553E+06     8.29695E+06    -80.1826E-03     156.801E-03    -76.6182E-03     5.69085E-03    -80.1874E-03     156.050E-03    -76.5049E-03     5.39349E-03
            2265     2.50352E-03     12.2998E-03    -70.4060E+06    -194.852E+06    -61.1709E+06     6.64440E+06    -77.6543E-03     153.410E-03    -75.7559E-03     4.11664E-03    -77.6458E-03     152.635E-03    -75.6772E-03     3.92462E-03
            2266     1.66989E-03     12.2832E-03    -73.0380E+06    -199.631E+06    -68.7908E+06     4.62822E+06    -75.9783E-03     151.135E-03    -75.1568E-03     2.66848E-03    -75.9596E-03     150.346E-03    -75.1054E-03     2.55247E-03
            2267     835.285E-06     12.2734E-03    -74.8401E+06    -202.827E+06    -73.5888E+06     2.49779E+06    -75.0805E-03     149.801E-03    -74.7203E-03     1.28252E-03    -75.0561E-03     149.002E-03    -74.6857E-03     1.22311E-03
            2268     15.3524E-03     12.5948E-03    -3.80719E+06     115.353E+06     87.9211E+06     808.096E+03    -138.401E-03     246.436E-03    -108.036E-03     66.5957E-03    -141.676E-03     249.853E-03    -107.758E-03     58.7685E-03
            2269     14.5716E-03     12.4743E-03    -9.76154E+06     111.706E+06     88.9596E+06     818.870E+03    -139.409E-03     245.664E-03    -106.255E-03     109.829E-03    -144.485E-03     250.844E-03    -105.958E-03     99.4361E-03
            2270     13.7887E-03     12.3365E-03    -14.0486E+06     102.837E+06     85.0616E+06     1.44463E+06    -144.150E-03     248.253E-03    -104.103E-03     128.962E-03    -149.537E-03     253.709E-03    -103.806E-03     117.708E-03
            2271     13.0116E-03     12.1487E-03    -17.2593E+06     95.3299E+06     71.6131E+06     1.55490E+06    -147.273E-03     248.712E-03    -101.438E-03     132.300E-03    -152.392E-03     253.902E-03    -101.194E-03     120.816E-03
            2272     12.2362E-03     11.9835E-03    -21.7805E+06     82.1065E+06     41.0768E+06     2.09706E+06    -144.591E-03     242.930E-03    -98.3390E-03     105.060E-03    -148.225E-03     246.662E-03    -98.2211E-03     95.2932E-03
            2273     11.4568E-03     11.8422E-03    -25.5484E+06     55.0530E+06     16.1996E+06     3.75151E+06    -139.466E-03     234.577E-03    -95.1111E-03     78.6325E-03    -141.821E-03     236.993E-03    -95.0729E-03     70.9695E-03
            2274     10.6732E-03     11.7241E-03    -28.0103E+06     5.29815E+06     5.47739E+06     5.00471E+06    -132.968E-03     224.896E-03    -91.9282E-03     58.4802E-03    -134.476E-03     226.311E-03    -91.8678E-03     52.5942E-03
            2275     9.88394E-03     11.6225E-03    -31.1327E+06    -45.1601E+06    -2.50582E+06     6.26229E+06    -125.430E-03     214.233E-03    -88.8030E-03     42.9776E-03    -126.366E-03     214.909E-03    -88.7049E-03     38.5845E-03
            2276     9.08839E-03     11.5367E-03    -34.9501E+06    -81.1077E+06    -6.39510E+06     7.16075E+06    -117.271E-03     203.085E-03    -85.8140E-03     30.2266E-03    -117.841E-03     203.264E-03    -85.6777E-03     27.0132E-03
            2277     8.28577E-03     11.4658E-03    -38.8158E+06    -105.848E+06    -10.3218E+06     7.51319E+06    -109.209E-03     192.224E-03    -83.0149E-03     21.0337E-03    -109.556E-03     192.089E-03    -82.8567E-03     18.7022E-03
            2278     7.47678E-03     11.4052E-03    -42.4515E+06    -126.796E+06    -14.5273E+06     7.56145E+06    -101.685E-03     182.138E-03    -80.4532E-03     14.6113E-03    -101.891E-03     181.787E-03    -80.2805E-03     12.9284E-03
            2279     6.66150E-03     11.3547E-03    -46.3470E+06    -144.489E+06    -20.0689E+06     7.35263E+06    -94.8479E-03     172.992E-03    -78.1445E-03     10.0849E-03    -94.9642E-03     172.490E-03    -77.9681E-03     8.87486E-03
            2280     5.84095E-03     11.3116E-03    -50.7848E+06    -156.321E+06    -26.9443E+06     7.80873E+06    -88.7650E-03     164.862E-03    -76.0972E-03     7.07170E-03    -88.8293E-03     164.269E-03    -75.9316E-03     6.21830E-03
            2281     5.01537E-03     11.2754E-03    -55.5158E+06    -169.701E+06    -32.4944E+06     9.33945E+06    -83.5063E-03     157.848E-03    -74.3416E-03     4.94798E-03    -83.5373E-03     157.173E-03    -74.1775E-03     4.37203E-03
            2282     4.18575E-03     11.2453E-03    -60.3040E+06    -177.682E+06    -38.4367E+06     9.88778E+06    -79.0596E-03     151.924E-03    -72.8644E-03     3.60601E-03    -79.0758E-03     151.206E-03    -72.7115E-03     3.23008E-03
            2283     3.35245E-03     11.2206E-03    -64.4921E+06    -182.740E+06    -47.3402E+06     8.68674E+06    -75.4539E-03     147.117E-03    -71.6632E-03     2.78247E-03    -75.4591E-03     146.380E-03    -71.5414E-03     2.53840E-03
            2284     2.51649E-03     11.2013E-03    -67.9543E+06    -189.042E+06    -57.8062E+06     6.77254E+06    -72.7774E-03     143.526E-03    -70.7483E-03     2.11919E-03    -72.7682E-03     142.770E-03    -70.6647E-03     1.96360E-03
            2285     1.67864E-03     11.1874E-03    -70.8128E+06    -193.589E+06    -65.9134E+06     4.60361E+06    -70.9758E-03     141.092E-03    -70.1162E-03     1.47794E-03    -70.9581E-03     140.325E-03    -70.0624E-03     1.38519E-03
            2286     839.606E-06     11.1784E-03    -72.7688E+06    -196.992E+06    -71.0426E+06     2.37862E+06    -70.0797E-03     139.697E-03    -69.6172E-03     630.227E-06    -70.0568E-03     138.921E-03    -69.5813E-03     581.624E-06
            2287     15.3538E-03     11.3705E-03    -4.65553E+06     114.001E+06     86.5524E+06     401.711E+03    -144.600E-03     252.418E-03    -107.818E-03     64.4531E-03    -147.767E-03     255.722E-03    -107.544E-03     56.0601E-03
            2288     14.5775E-03     11.2591E-03    -8.06285E+06     113.912E+06     91.2822E+06     1.73434E+06    -149.448E-03     255.038E-03    -105.590E-03     105.447E-03    -154.382E-03     260.083E-03    -105.287E-03     94.0502E-03
            2289     13.8067E-03     11.1157E-03    -12.6294E+06     103.884E+06     85.6683E+06    -832.851E+03    -154.114E-03     256.928E-03    -102.814E-03     123.288E-03    -159.319E-03     262.210E-03    -102.518E-03     111.035E-03
            2290     13.0389E-03     10.9330E-03    -16.9712E+06     93.1116E+06     71.8935E+06    -276.496E+03    -154.748E-03     254.278E-03    -99.5302E-03     121.814E-03    -159.533E-03     259.127E-03    -99.2812E-03     109.830E-03
            2291     12.2673E-03     10.7749E-03    -20.9776E+06     80.8193E+06     43.1542E+06     2.82861E+06    -150.152E-03     246.020E-03    -95.8689E-03     92.4150E-03    -153.474E-03     249.434E-03    -95.7399E-03     82.5066E-03
            2292     11.4926E-03     10.6460E-03    -24.6257E+06     55.1049E+06     15.2797E+06     4.20136E+06    -142.652E-03     234.781E-03    -92.1291E-03     65.7948E-03    -144.765E-03     236.963E-03    -92.0969E-03     58.2117E-03
            2293     10.7105E-03     10.5404E-03    -28.1974E+06     5.78132E+06     2.69283E+06      5.9646E+06    -133.930E-03     222.479E-03    -88.5492E-03     46.8620E-03    -135.266E-03     223.731E-03    -88.5033E-03     41.1967E-03
            2294     9.92184E-03     10.4522E-03    -31.4838E+06    -43.9130E+06    -4.44239E+06     7.78027E+06    -124.558E-03     209.707E-03    -85.1493E-03     32.7742E-03    -125.383E-03     210.281E-03    -85.0622E-03     28.6378E-03
            2295     9.12471E-03     10.3810E-03    -34.6345E+06    -79.7685E+06    -7.55165E+06      8.8155E+06    -115.084E-03     197.068E-03    -81.9836E-03     22.5207E-03    -115.587E-03     197.188E-03    -81.8554E-03     19.5539E-03
            2296     8.32014E-03     10.3222E-03    -38.3024E+06    -103.691E+06    -10.4229E+06     9.16482E+06    -106.376E-03     185.451E-03    -79.0756E-03     15.4835E-03    -106.688E-03     185.292E-03    -78.9219E-03     13.3487E-03
            2297     7.50830E-03     10.2740E-03    -42.7974E+06    -124.523E+06    -14.0590E+06     8.98349E+06    -98.4118E-03     174.855E-03    -76.4428E-03     10.7962E-03    -98.6060E-03     174.497E-03    -76.2705E-03     9.26613E-03
            2298     6.69016E-03     10.2334E-03    -47.7600E+06    -142.177E+06    -18.5293E+06     8.76051E+06    -91.2947E-03     165.385E-03    -74.0907E-03     7.74474E-03    -91.4157E-03     164.886E-03    -73.9080E-03     6.65293E-03
            2299     5.86626E-03     10.1999E-03    -52.3647E+06    -155.445E+06    -25.3107E+06     8.81874E+06    -85.0605E-03     157.070E-03    -72.0094E-03     5.90377E-03    -85.1337E-03     156.479E-03    -71.8346E-03     5.13551E-03
            2300     5.03744E-03     10.1714E-03    -55.9831E+06    -168.567E+06    -31.2895E+06     9.18546E+06    -79.6946E-03     149.913E-03    -70.2184E-03     4.74193E-03    -79.7312E-03     149.243E-03    -70.0493E-03     4.21564E-03
            2301     4.20425E-03     10.1479E-03    -58.7205E+06    -174.091E+06    -36.4432E+06     8.81318E+06    -75.1900E-03     143.896E-03    -68.7056E-03     3.89759E-03    -75.2069E-03     143.191E-03    -68.5502E-03     3.54342E-03
            2302     3.36760E-03     10.1286E-03    -61.6362E+06    -178.059E+06    -43.9702E+06     7.84253E+06    -71.5256E-03     138.990E-03    -67.4646E-03     3.22724E-03    -71.5286E-03     138.269E-03    -67.3369E-03     2.99608E-03
            2303     2.52799E-03     10.1133E-03    -64.7742E+06    -183.353E+06    -53.4061E+06     6.27830E+06    -68.7349E-03     135.234E-03    -66.4992E-03     2.57663E-03    -68.7246E-03     134.497E-03    -66.4064E-03     2.43101E-03
            2304     1.68649E-03     10.1017E-03    -67.3614E+06    -187.973E+06    -61.7473E+06     4.26520E+06    -66.7694E-03     132.587E-03    -65.8176E-03     1.82100E-03    -66.7485E-03     131.838E-03    -65.7561E-03     1.73420E-03
            2305     843.480E-06     10.0949E-03    -69.1125E+06    -191.307E+06    -67.5471E+06     2.28523E+06    -65.7262E-03     131.062E-03    -65.3355E-03     1.07164E-03    -65.6981E-03     130.304E-03    -65.2956E-03     1.02760E-03
            2306     15.3598E-03     10.1468E-03    -4.77116E+06     113.695E+06      86.864E+06    -584.259E+03    -153.722E-03     261.115E-03    -107.393E-03     61.5100E-03    -156.816E-03     264.344E-03    -107.117E-03     52.3148E-03
            2307     14.5920E-03     10.0259E-03    -8.24521E+06     112.730E+06     90.8250E+06    -2.66261E+06    -158.476E-03     263.122E-03    -104.646E-03     100.337E-03    -163.298E-03     268.052E-03    -104.344E-03     87.8482E-03
            2308     13.8299E-03     9.88510E-03    -12.2364E+06     104.103E+06     85.1245E+06    -907.811E+03    -163.092E-03     264.384E-03    -101.292E-03     116.856E-03    -168.126E-03     269.499E-03    -101.000E-03     103.742E-03
            2309     13.0657E-03     9.71145E-03    -19.3592E+06     91.6499E+06     67.0104E+06     265.200E+03    -161.509E-03     258.927E-03    -97.4176E-03     111.957E-03    -166.001E-03     263.485E-03    -97.1874E-03     99.6092E-03
            2310     12.3008E-03     9.56130E-03    -24.3439E+06     77.1605E+06     37.4429E+06     1.44477E+06    -153.597E-03     246.884E-03    -93.2871E-03     81.4913E-03    -156.653E-03     250.024E-03    -93.1765E-03     71.6034E-03
            2311     11.5275E-03     9.45088E-03    -27.8948E+06     53.1482E+06     10.7399E+06     5.28039E+06    -143.530E-03     232.756E-03    -89.2260E-03     56.3891E-03    -145.471E-03     234.760E-03    -89.2089E-03     49.0319E-03
            2312     10.7461E-03     9.35873E-03    -32.1404E+06     7.28658E+06    -698.851E+03     8.02593E+06    -132.586E-03     218.050E-03    -85.4641E-03     40.1871E-03    -133.828E-03     219.210E-03    -85.4315E-03     34.8401E-03
            2313     9.95507E-03     9.28857E-03    -35.8926E+06    -42.3994E+06    -6.58032E+06     8.46187E+06    -121.589E-03     203.611E-03    -82.0217E-03     29.0324E-03    -122.376E-03     204.142E-03    -81.9411E-03     25.1874E-03
            2314     9.15487E-03     9.23157E-03    -38.5652E+06    -78.4399E+06    -9.26272E+06     8.83433E+06    -111.550E-03     190.450E-03    -78.9002E-03     21.8511E-03    -112.053E-03     190.567E-03    -78.7768E-03     19.0944E-03
            2315     8.34669E-03     9.18652E-03    -40.6970E+06    -102.191E+06    -10.2095E+06     9.23803E+06    -102.626E-03     178.716E-03    -76.0895E-03     17.0624E-03    -102.953E-03     178.566E-03    -75.9333E-03     15.0797E-03
            2316     7.53167E-03     9.14991E-03    -43.2954E+06    -122.612E+06    -11.8231E+06     9.93677E+06    -94.7453E-03     168.324E-03    -73.5783E-03     14.0882E-03    -94.9567E-03     167.982E-03    -73.3968E-03     12.6691E-03
            2317     6.71019E-03     9.12037E-03    -46.9043E+06    -139.167E+06    -13.6947E+06     9.61734E+06    -87.7899E-03     159.150E-03    -71.3597E-03     12.3311E-03    -87.9294E-03     158.669E-03    -71.1583E-03     11.3132E-03
            2318     5.88314E-03     9.09555E-03    -50.8042E+06    -153.284E+06    -18.8163E+06     8.52476E+06    -81.7933E-03     151.205E-03    -69.4114E-03     11.1927E-03    -81.8820E-03     150.624E-03    -69.2095E-03     10.4586E-03
            2319     5.05131E-03     9.07521E-03    -54.2730E+06    -166.101E+06    -26.6474E+06     7.52329E+06    -76.7541E-03     144.476E-03    -67.7214E-03     10.2933E-03    -76.8011E-03     143.818E-03    -67.5351E-03     9.76783E-03
            2320     4.21554E-03     9.05790E-03    -57.4470E+06    -170.920E+06    -33.8114E+06     6.52735E+06    -72.5845E-03     138.862E-03    -66.2775E-03     9.21371E-03    -72.6097E-03     138.175E-03    -66.1154E-03     8.84223E-03
            2321     3.37653E-03     9.04400E-03    -60.2018E+06    -174.458E+06    -40.3060E+06     5.58719E+06    -69.1859E-03     134.259E-03    -65.0732E-03     7.89083E-03    -69.1962E-03     133.553E-03    -64.9345E-03     7.63621E-03
            2322     2.53500E-03     9.03262E-03    -62.4550E+06    -178.816E+06    -48.5192E+06     4.36606E+06    -66.4458E-03     130.548E-03    -64.1021E-03     6.35520E-03    -66.4396E-03     129.826E-03    -63.9948E-03     6.18794E-03
            2323     1.69113E-03     9.02432E-03    -64.3906E+06    -183.411E+06    -56.9508E+06     2.91312E+06    -64.4398E-03     127.825E-03    -63.3852E-03     4.50459E-03    -64.4183E-03     127.089E-03    -63.3106E-03     4.40209E-03
            2324     845.968E-06     9.01887E-03    -66.0008E+06    -186.888E+06    -63.2690E+06     1.70353E+06    -63.2805E-03     126.149E-03    -62.8683E-03     2.58366E-03    -63.2493E-03     125.404E-03    -62.8180E-03     2.53365E-03
            2325     15.3729E-03     8.90689E-03    -2.71189E+06     116.422E+06      90.362E+06    -873.919E+03    -164.114E-03     271.004E-03    -106.890E-03     63.3915E-03    -167.271E-03     274.303E-03    -106.603E-03     53.2161E-03
            2326     14.6111E-03     8.78990E-03    -8.11627E+06     112.423E+06     90.2376E+06    -1.24372E+06    -167.523E-03     271.123E-03    -103.599E-03     102.714E-03    -172.342E-03     276.050E-03    -103.299E-03     89.3224E-03
            2327     13.8497E-03     8.64567E-03    -16.1336E+06     101.034E+06     82.1546E+06    -960.989E+03    -170.485E-03     270.223E-03    -99.7376E-03     114.053E-03    -175.363E-03     275.166E-03    -99.4499E-03     100.414E-03
            2328     13.0963E-03     8.47974E-03    -20.9595E+06     91.2837E+06     63.9734E+06     892.678E+03    -165.639E-03     261.067E-03    -95.4284E-03     103.749E-03    -169.848E-03     265.346E-03    -95.2105E-03     91.3807E-03
            2329     12.3310E-03     8.35278E-03    -27.1728E+06     73.0210E+06     30.5988E+06     3.98744E+06    -153.732E-03     244.769E-03    -91.0375E-03     75.0244E-03    -156.559E-03     247.676E-03    -90.9509E-03     65.5392E-03
            2330     11.5562E-03     8.25479E-03    -33.7100E+06     48.9850E+06     4.28435E+06     7.55294E+06    -140.744E-03     227.691E-03    -86.9469E-03     53.4791E-03    -142.569E-03     229.562E-03    -86.9476E-03     46.6320E-03
            2331     10.7715E-03     8.18554E-03    -37.9558E+06     8.92050E+06    -3.79188E+06     9.74341E+06    -128.036E-03     211.368E-03    -83.3317E-03     41.0326E-03    -129.251E-03     212.494E-03    -83.3086E-03     36.1393E-03
            2332     9.97536E-03     8.13067E-03    -41.9273E+06    -39.3254E+06    -6.49141E+06     9.51001E+06    -116.547E-03     196.702E-03    -80.1552E-03     34.0129E-03    -117.365E-03     197.254E-03    -80.0699E-03     30.5033E-03
            2333     9.17113E-03     8.08991E-03    -45.3054E+06    -75.4044E+06    -8.72471E+06     7.54692E+06    -106.658E-03     184.004E-03    -77.3452E-03     29.7088E-03    -107.221E-03     184.165E-03    -77.2138E-03     27.1455E-03
            2334     8.35885E-03     8.05729E-03    -46.9453E+06    -101.267E+06    -9.42650E+06     6.21824E+06    -98.0810E-03     172.958E-03    -74.8769E-03     27.2115E-03    -98.4707E-03     172.851E-03    -74.7091E-03     25.3260E-03
            2335     7.53972E-03     8.03254E-03    -47.2087E+06    -122.283E+06    -9.55660E+06     6.55037E+06    -90.8469E-03     163.570E-03    -72.7229E-03     25.6169E-03    -91.1113E-03     163.262E-03    -72.5249E-03     24.2335E-03
            2336     6.71504E-03     8.01235E-03    -47.4562E+06    -136.916E+06    -9.50911E+06     7.06555E+06    -84.7622E-03     155.608E-03    -70.8458E-03     24.4291E-03    -84.9397E-03     155.160E-03    -70.6260E-03     23.4186E-03
            2337     5.88550E-03     7.99640E-03    -49.6391E+06    -150.904E+06    -13.1875E+06     6.75085E+06    -79.6646E-03     148.871E-03    -69.2068E-03     23.1061E-03    -79.7794E-03     148.313E-03    -68.9820E-03     22.3660E-03
            2338     5.05194E-03     7.98260E-03    -53.3000E+06    -162.953E+06    -20.3536E+06     5.66190E+06    -75.4172E-03     143.197E-03    -67.7794E-03     21.3768E-03    -75.4876E-03     142.559E-03    -67.5676E-03     20.8321E-03
            2339     4.21515E-03     7.97135E-03    -56.4807E+06    -167.408E+06    -27.9189E+06     3.43956E+06    -71.8962E-03     138.444E-03    -66.5482E-03     19.1626E-03    -71.9398E-03     137.774E-03    -66.3632E-03     18.7520E-03
            2340     3.37569E-03     7.96178E-03    -58.5954E+06    -172.115E+06    -36.3289E+06     1.48073E+06    -69.0380E-03     134.544E-03    -65.5057E-03     16.3357E-03    -69.0554E-03     133.847E-03    -65.3528E-03     16.0269E-03
            2341     2.53390E-03     7.95463E-03    -60.3872E+06    -176.559E+06    -44.5446E+06     824.412E+03    -66.7226E-03     131.377E-03    -64.6541E-03     12.9753E-03    -66.7184E-03     130.660E-03    -64.5332E-03     12.7611E-03
            2342     1.69043E-03     7.94906E-03    -62.3375E+06    -181.133E+06    -52.9110E+06     307.268E+03    -64.9785E-03     128.980E-03    -64.0019E-03     9.22289E-03    -64.9575E-03     128.248E-03    -63.9134E-03     9.08695E-03
            2343     845.659E-06     7.94552E-03    -63.8466E+06    -185.327E+06    -60.4718E+06    -104.160E+03    -63.8984E-03     127.406E-03    -63.5076E-03     5.22734E-03    -63.8634E-03     126.662E-03    -63.4487E-03     5.15453E-03
            2344     15.3730E-03     7.65366E-03    -4.71952E+06     115.284E+06     87.3400E+06    -2.13690E+06    -172.016E-03     278.550E-03    -106.534E-03     69.0019E-03    -175.273E-03     281.946E-03    -106.258E-03     58.0090E-03
            2345     14.6201E-03     7.54068E-03    -9.58456E+06     113.025E+06     89.8414E+06     1.68959E+06    -176.860E-03     279.657E-03    -102.797E-03     106.480E-03    -181.718E-03     284.624E-03    -102.498E-03     92.3414E-03
            2346     13.8734E-03     7.39635E-03    -15.6881E+06     102.512E+06     82.2555E+06     2.05945E+06    -175.416E-03     273.938E-03    -98.5212E-03     114.305E-03    -180.132E-03     278.728E-03    -98.2358E-03     100.624E-03
            2347     13.1151E-03     7.25016E-03    -23.9825E+06     86.9775E+06     60.9246E+06     3.08247E+06    -164.998E-03     259.041E-03    -94.0430E-03     100.891E-03    -168.935E-03     263.031E-03    -93.8297E-03     89.1275E-03
            2348     12.3495E-03     7.14272E-03    -31.0279E+06     66.6647E+06     31.0610E+06     8.04823E+06    -149.362E-03     239.140E-03    -89.7783E-03     74.7409E-03    -152.005E-03     241.827E-03    -89.6747E-03     66.0901E-03
            2349     11.5703E-03     7.06979E-03    -37.0040E+06     46.5936E+06     7.75683E+06     12.3417E+06    -133.546E-03     219.585E-03    -86.0397E-03     58.7946E-03    -135.303E-03     221.359E-03    -86.0148E-03     52.7625E-03
            2350     10.7775E-03     7.01828E-03    -43.2985E+06     11.7194E+06    -1.03421E+06     12.0690E+06    -120.289E-03     203.218E-03    -82.9299E-03     51.5146E-03    -121.533E-03     204.358E-03    -82.8892E-03     47.2040E-03
            2351     9.97623E-03     6.98155E-03    -46.7915E+06    -33.8050E+06    -1.56837E+06     8.34615E+06    -109.566E-03     189.904E-03    -80.3383E-03     48.4714E-03    -110.456E-03     190.517E-03    -80.2293E-03     45.3047E-03
            2352     9.16572E-03     6.95359E-03    -47.7881E+06    -71.0165E+06    -2.48299E+06     4.42928E+06    -100.653E-03     178.783E-03    -78.1295E-03     46.7958E-03    -101.288E-03     179.005E-03    -77.9697E-03     44.4206E-03
            2353     8.34870E-03     6.93397E-03    -48.9610E+06    -99.9522E+06    -4.21300E+06     2.08982E+06    -93.4602E-03     169.711E-03    -76.2504E-03     45.6857E-03    -93.9128E-03     169.649E-03    -76.0555E-03     43.8808E-03
            2354     7.52607E-03     6.91811E-03    -50.2426E+06    -122.028E+06    -4.93927E+06     665.076E+03    -87.7122E-03     162.366E-03    -74.6539E-03     44.2649E-03    -88.0357E-03     162.094E-03    -74.4288E-03     42.8787E-03
            2355     6.69907E-03     6.90651E-03    -50.8196E+06    -137.661E+06    -5.57018E+06     684.754E+03    -83.1544E-03     156.435E-03    -73.2811E-03     42.2300E-03    -83.3823E-03     156.011E-03    -73.0356E-03     41.1706E-03
            2356     5.86871E-03     6.89647E-03    -51.1175E+06    -150.884E+06    -8.10918E+06     2.06745E+06    -79.4737E-03     151.559E-03    -72.0853E-03     39.4838E-03    -79.6245E-03     151.016E-03    -71.8330E-03     38.6943E-03
            2357     5.03574E-03     6.88873E-03    -52.1548E+06    -159.240E+06    -12.3140E+06     1.19102E+06    -76.3897E-03     147.432E-03    -71.0420E-03     36.0072E-03    -76.4861E-03     146.813E-03    -70.7971E-03     35.4066E-03
            2358     4.20013E-03     6.88177E-03    -53.8931E+06    -164.176E+06    -20.8973E+06    -1.56310E+06    -73.8078E-03     143.940E-03    -70.1318E-03     31.7951E-03    -73.8630E-03     143.280E-03    -69.9201E-03     31.3200E-03
            2359     3.36251E-03     6.87627E-03    -55.9443E+06    -171.599E+06    -33.2523E+06    -3.02877E+06    -71.7317E-03     141.093E-03    -69.3609E-03     26.6878E-03    -71.7471E-03     140.395E-03    -69.1972E-03     26.3210E-03
            2360     2.52340E-03     6.87191E-03    -58.1660E+06    -177.237E+06    -42.9405E+06    -3.18279E+06    -70.1181E-03     138.866E-03    -68.7475E-03     20.9094E-03    -70.1079E-03     138.142E-03    -68.6208E-03     20.6436E-03
            2361     1.68301E-03     6.86888E-03    -60.1858E+06    -182.302E+06    -51.6738E+06    -2.42800E+06    -68.9167E-03     137.200E-03    -68.2835E-03     14.6495E-03    -68.8874E-03     136.457E-03    -68.1903E-03     14.4781E-03
            2362     841.676E-06     6.86683E-03    -62.1311E+06    -187.173E+06    -59.7222E+06    -1.19039E+06    -68.1286E-03     136.126E-03    -67.9974E-03     8.15951E-03    -68.0851E-03     135.368E-03    -67.9345E-03     8.07199E-03
            2363     15.3775E-03     6.39562E-03    -6.10924E+06     115.014E+06     84.7597E+06    -213.160E+03    -179.352E-03     285.793E-03    -106.442E-03     75.9195E-03    -182.656E-03     289.239E-03    -106.176E-03     64.4695E-03
            2364     14.6307E-03     6.27355E-03    -13.4596E+06     109.539E+06     84.8419E+06     214.638E+03    -180.458E-03     282.890E-03    -102.432E-03     111.351E-03    -185.301E-03     287.831E-03    -102.147E-03     97.0951E-03
            2365     13.8788E-03     6.14778E-03    -18.7578E+06     98.6493E+06     78.6407E+06     3.70800E+06    -174.259E-03     272.365E-03    -98.1060E-03     117.537E-03    -178.810E-03     276.978E-03    -97.8286E-03     104.482E-03
            2366     13.1222E-03     6.02120E-03    -26.5079E+06     81.6926E+06     59.7413E+06     8.86701E+06    -158.172E-03     252.058E-03    -93.8862E-03     103.051E-03    -161.781E-03     255.699E-03    -93.6676E-03     92.6352E-03
            2367     12.3484E-03     5.94280E-03    -34.9231E+06     61.0336E+06     34.4223E+06     12.5638E+06    -138.489E-03     228.712E-03    -90.2231E-03     82.9928E-03    -140.940E-03     231.165E-03    -90.0888E-03     75.6905E-03
            2368     11.5585E-03     5.89427E-03    -41.3467E+06     46.0799E+06     17.5151E+06     14.3717E+06    -122.369E-03     209.671E-03    -87.3015E-03     75.2606E-03    -124.108E-03     211.382E-03    -87.2208E-03     70.1953E-03
            2369     10.7579E-03     5.86117E-03    -43.5056E+06     19.8165E+06     13.2719E+06     10.9875E+06    -110.580E-03     195.631E-03    -85.0511E-03     73.0432E-03    -111.866E-03     196.800E-03    -84.9504E-03     69.3474E-03
            2370     9.94773E-03     5.83784E-03    -44.1831E+06    -26.8854E+06     10.8296E+06     3.66013E+06    -101.859E-03     185.151E-03    -83.2921E-03     71.9269E-03    -102.789E-03     185.802E-03    -83.1349E-03     69.1046E-03
            2371     9.13198E-03     5.82254E-03    -44.9394E+06    -68.8296E+06     8.28669E+06    -859.426E+03    -95.3024E-03     177.180E-03    -81.8771E-03     70.7173E-03    -95.9705E-03     177.422E-03    -81.6708E-03     68.5233E-03
            2372     8.31114E-03     5.81064E-03    -45.7729E+06    -98.8725E+06     7.11135E+06    -2.77118E+06    -90.4912E-03     171.212E-03    -80.7207E-03     68.6749E-03    -90.9720E-03     171.159E-03    -80.4754E-03     66.9536E-03
            2373     7.48722E-03     5.80250E-03    -47.3826E+06    -121.330E+06     6.49932E+06    -4.54177E+06    -86.9501E-03     166.705E-03    -79.7549E-03     65.5295E-03    -87.2980E-03     166.434E-03    -79.4777E-03     64.1567E-03
            2374     6.66073E-03     5.79559E-03    -49.6495E+06    -139.174E+06     4.57231E+06    -5.96920E+06    -84.2265E-03     163.151E-03    -78.9247E-03     61.2866E-03    -84.4765E-03     162.716E-03    -78.6281E-03     60.1848E-03
            2375     5.83230E-03     5.79050E-03    -50.2821E+06    -152.278E+06    -1.47187E+06    -6.92034E+06    -82.0436E-03     160.229E-03    -78.1854E-03     56.1368E-03    -82.2088E-03     159.676E-03    -77.8990E-03     55.2542E-03
            2376     5.00191E-03     5.78608E-03    -49.3671E+06    -158.323E+06    -8.13260E+06    -7.10434E+06    -80.2660E-03     157.804E-03    -77.5375E-03     50.1996E-03    -80.3636E-03     157.183E-03    -77.2770E-03     49.5026E-03
            2377     4.17040E-03     5.78259E-03    -50.3292E+06    -164.324E+06    -17.8045E+06    -6.88363E+06    -78.8100E-03     155.788E-03    -76.9775E-03     43.4309E-03    -78.8572E-03     155.120E-03    -76.7552E-03     42.8899E-03
            2378     3.33763E-03     5.77957E-03    -53.1052E+06    -173.430E+06    -31.9376E+06    -6.72434E+06    -77.6433E-03     154.144E-03    -76.5005E-03     35.8188E-03    -77.6478E-03     153.431E-03    -76.3317E-03     35.4035E-03
            2379     2.50387E-03     5.77726E-03    -55.8480E+06    -180.891E+06    -43.6777E+06    -5.69340E+06    -76.7746E-03     152.901E-03    -76.1264E-03     27.5626E-03    -76.7494E-03     152.156E-03    -76.0016E-03     27.2611E-03
            2380     1.66955E-03     5.77556E-03    -58.8248E+06    -186.897E+06    -52.7281E+06    -3.61907E+06    -76.1696E-03     152.014E-03    -75.8440E-03     18.8420E-03    -76.1276E-03     151.246E-03    -75.7513E-03     18.6504E-03
            2381     834.924E-06     5.77452E-03    -60.8652E+06    -190.930E+06    -58.9346E+06    -1.68593E+06    -75.7161E-03     151.393E-03    -75.6770E-03     10.2311E-03    -75.6638E-03     150.612E-03    -75.6066E-03     10.1335E-03
            2382     15.3757E-03     5.12026E-03    -5.19514E+06     116.530E+06     84.6607E+06     3.41258E+06    -182.100E-03     289.157E-03    -107.057E-03     92.8007E-03    -185.571E-03     292.780E-03    -106.795E-03     81.5122E-03
            2383     14.6245E-03     5.01776E-03    -12.2787E+06     107.469E+06     82.0761E+06     4.27135E+06    -177.638E-03     280.750E-03    -103.111E-03     130.111E-03    -182.578E-03     285.793E-03    -102.839E-03     116.664E-03
            2384     13.8708E-03     4.89434E-03    -21.4254E+06     89.6699E+06     72.4444E+06     6.16872E+06    -165.206E-03     264.394E-03    -99.1880E-03     128.798E-03    -169.480E-03     268.711E-03    -98.9247E-03     117.332E-03
            2385     13.1028E-03     4.80633E-03    -27.7281E+06     74.4353E+06     60.0953E+06     12.1496E+06    -142.914E-03     238.707E-03    -95.7934E-03     115.274E-03    -146.057E-03     241.855E-03    -95.5607E-03     107.010E-03
            2386     12.3136E-03     4.75807E-03    -32.9678E+06     60.8190E+06     44.7103E+06     15.6506E+06    -123.000E-03     216.247E-03    -93.2475E-03     105.122E-03    -125.217E-03     218.443E-03    -93.0644E-03     99.4743E-03
            2387     11.5120E-03     4.72949E-03    -35.6526E+06     52.7162E+06     35.0999E+06     11.3157E+06    -110.492E-03     201.941E-03    -91.4493E-03     102.321E-03    -112.136E-03     203.550E-03    -91.2986E-03     98.2202E-03
            2388     10.7017E-03     4.70967E-03    -36.2059E+06     27.5988E+06     32.1507E+06     3.83938E+06    -102.416E-03     192.606E-03    -90.1907E-03     100.390E-03    -103.641E-03     193.711E-03    -90.0174E-03     97.2513E-03
            2389     9.88701E-03     4.69740E-03    -36.8214E+06    -23.2034E+06     27.3819E+06    -1.62302E+06    -97.0649E-03     186.356E-03    -89.2915E-03     97.2783E-03    -97.9442E-03     186.944E-03    -89.0675E-03     94.8105E-03
            2390     9.06831E-03     4.68814E-03    -39.1315E+06    -68.1482E+06     22.0891E+06    -5.41578E+06    -93.6599E-03     182.268E-03    -88.6085E-03     93.1718E-03    -94.2882E-03     182.451E-03    -88.3425E-03     91.1872E-03
            2391     8.24803E-03     4.68216E-03    -41.3013E+06    -97.6269E+06     20.2653E+06    -9.13820E+06    -91.4184E-03     179.486E-03    -88.0678E-03     87.9361E-03    -91.8743E-03     179.387E-03    -87.7650E-03     86.3031E-03
            2392     7.42605E-03     4.67683E-03    -41.5978E+06    -121.735E+06     18.5796E+06    -12.1814E+06    -89.8937E-03     177.510E-03    -87.6166E-03     81.7598E-03    -90.2124E-03     177.191E-03    -87.2869E-03     80.3985E-03
            2393     6.60332E-03     4.67342E-03    -41.1594E+06    -140.669E+06     13.1211E+06    -13.6053E+06    -88.8079E-03     176.016E-03    -87.2077E-03     74.6899E-03    -89.0141E-03     175.533E-03    -86.8785E-03     73.5568E-03
            2394     5.77948E-03     4.67053E-03    -42.4462E+06    -153.933E+06     385.160E+03    -14.5593E+06    -87.9468E-03     174.759E-03    -86.8118E-03     66.9341E-03    -88.0660E-03     174.173E-03    -86.5251E-03     65.9906E-03
            2395     4.95525E-03     4.66839E-03    -44.9229E+06    -162.750E+06    -12.1870E+06    -14.0823E+06    -87.2398E-03     173.703E-03    -86.4631E-03     58.6459E-03    -87.2989E-03     173.053E-03    -86.2229E-03     57.8771E-03
            2396     4.13012E-03     4.66633E-03    -47.0001E+06    -169.854E+06    -22.0824E+06    -11.2348E+06    -86.6838E-03     172.857E-03    -86.1728E-03     49.7897E-03    -86.6984E-03     172.158E-03    -85.9688E-03     49.1974E-03
            2397     3.30472E-03     4.66486E-03    -49.8309E+06    -178.451E+06    -34.1840E+06    -8.05015E+06    -86.2489E-03     172.168E-03    -85.9192E-03     40.4391E-03    -86.2263E-03     171.426E-03    -85.7591E-03     40.0023E-03
            2398     2.47898E-03     4.66356E-03    -53.8366E+06    -186.667E+06    -45.8086E+06    -5.38606E+06    -85.9097E-03     171.621E-03    -85.7116E-03     30.8319E-03    -85.8636E-03     170.846E-03    -85.5919E-03     30.5265E-03
            2399     1.65297E-03     4.66257E-03    -57.0504E+06    -192.191E+06    -53.7530E+06    -3.17695E+06    -85.6666E-03     171.222E-03    -85.5551E-03     20.9619E-03    -85.6075E-03     170.425E-03    -85.4625E-03     20.7690E-03
            2400     826.671E-06     4.66217E-03    -58.5779E+06    -195.050E+06    -58.2439E+06    -1.50871E+06    -85.3605E-03     170.929E-03    -85.5680E-03     11.4599E-03    -85.2930E-03     170.121E-03    -85.4915E-03     11.3607E-03
            2401     15.3432E-03     3.86145E-03    -5.56668E+06     112.821E+06     79.1681E+06     5.19926E+06    -177.063E-03     286.233E-03    -109.170E-03     122.441E-03    -180.832E-03     290.157E-03    -108.930E-03     111.812E-03
            2402     14.5886E-03     3.74623E-03    -10.7226E+06     102.778E+06     78.8734E+06     8.26755E+06    -167.895E-03     273.646E-03    -105.751E-03     156.165E-03    -172.747E-03     278.607E-03    -105.490E-03     144.431E-03
            2403     13.8274E-03     3.65970E-03    -17.4013E+06     85.0708E+06     72.2718E+06     12.5142E+06    -146.798E-03     249.564E-03    -102.766E-03     148.699E-03    -150.425E-03     253.240E-03    -102.503E-03     139.974E-03
            2404     13.0389E-03     3.61169E-03    -24.9029E+06     71.2369E+06     64.0107E+06     12.8189E+06    -124.820E-03     225.460E-03    -100.640E-03     139.686E-03    -127.373E-03     228.003E-03    -100.387E-03     133.754E-03
            2405     12.2360E-03     3.58554E-03    -26.2860E+06     65.6197E+06     57.6046E+06     9.19787E+06    -111.771E-03     211.065E-03    -99.2933E-03     131.538E-03    -113.619E-03     212.889E-03    -99.0623E-03     127.239E-03
            2406     11.4265E-03     3.56797E-03    -25.1549E+06     62.5957E+06     49.9051E+06     4.45710E+06    -104.790E-03     203.207E-03    -98.4164E-03     124.902E-03    -106.150E-03     204.554E-03    -98.2212E-03     121.638E-03
            2407     10.6145E-03     3.55663E-03    -27.5893E+06     30.8401E+06     41.3911E+06    -1.04104E+06    -100.875E-03     198.741E-03    -97.8662E-03     117.550E-03    -101.870E-03     199.626E-03    -97.6640E-03     114.976E-03
            2408     9.79998E-03     3.54877E-03    -31.5975E+06    -23.4288E+06     32.7950E+06    -5.89671E+06    -98.7589E-03     196.280E-03    -97.5212E-03     109.963E-03    -99.4675E-03     196.694E-03    -97.2775E-03     107.873E-03
            2409     8.98516E-03     3.54304E-03    -33.3194E+06    -65.3592E+06     24.8715E+06    -11.1394E+06    -97.7160E-03     194.972E-03    -97.2563E-03     101.906E-03    -98.2103E-03     195.039E-03    -96.9889E-03     100.154E-03
            2410     8.16948E-03     3.53848E-03    -33.1320E+06    -96.1251E+06     19.1788E+06    -16.7693E+06    -97.1225E-03     194.162E-03    -97.0392E-03     93.4516E-03    -97.4557E-03     193.974E-03    -96.7559E-03     91.9382E-03
            2411     7.35362E-03     3.53541E-03    -33.2274E+06    -123.017E+06     13.1293E+06    -20.4337E+06    -96.7474E-03     193.600E-03    -96.8530E-03     84.7928E-03    -96.9555E-03     193.209E-03    -96.5608E-03     83.4798E-03
            2412     6.53708E-03     3.53269E-03    -33.9975E+06    -145.898E+06     4.31769E+06    -21.0199E+06    -96.5235E-03     193.199E-03    -96.6758E-03     75.8220E-03    -96.6328E-03     192.651E-03    -96.3934E-03     74.6989E-03
            2413     5.72080E-03     3.53108E-03    -35.1588E+06    -160.076E+06    -7.04868E+06    -18.0855E+06    -96.3923E-03     192.885E-03    -96.4924E-03     66.7821E-03    -96.4284E-03     192.241E-03    -96.2446E-03     65.8606E-03
            2414     4.90393E-03     3.52974E-03    -38.4843E+06    -169.966E+06    -19.8544E+06    -14.7849E+06    -96.2848E-03     192.597E-03    -96.3124E-03     57.7148E-03    -96.2730E-03     191.895E-03    -96.1094E-03     56.9771E-03
            2415     4.08714E-03     3.52858E-03    -43.4533E+06    -179.230E+06    -31.5724E+06    -11.1469E+06    -96.1538E-03     192.308E-03    -96.1545E-03     48.4173E-03    -96.1130E-03     191.560E-03    -95.9894E-03     47.8465E-03
            2416     3.26996E-03     3.52762E-03    -47.7620E+06    -186.459E+06    -40.2141E+06    -6.43143E+06    -96.0081E-03     192.038E-03    -96.0296E-03     38.9637E-03    -95.9490E-03     191.256E-03    -95.8911E-03     38.5557E-03
            2417     2.45256E-03     3.52700E-03    -51.1915E+06    -191.874E+06    -47.3935E+06    -3.09349E+06    -95.8689E-03     191.810E-03    -95.9412E-03     29.5782E-03    -95.7966E-03     191.004E-03    -95.8257E-03     29.3048E-03
            2418     1.63497E-03     3.52633E-03    -53.9484E+06    -195.924E+06    -53.0643E+06    -1.47625E+06    -95.7898E-03     191.695E-03    -95.9051E-03     20.1394E-03    -95.7093E-03     190.873E-03    -95.8081E-03     19.9690E-03
            2419     817.312E-06     3.52628E-03    -55.5907E+06    -198.037E+06    -55.9097E+06    -570.666E+03    -95.7190E-03     191.772E-03    -96.0532E-03     10.9451E-03    -95.6348E-03     190.942E-03    -95.9650E-03     10.8568E-03
            2420     15.2795E-03     2.58455E-03    -4.49005E+06     108.299E+06     78.5095E+06     8.45156E+06    -165.276E-03     278.861E-03    -113.584E-03     166.251E-03    -169.153E-03     282.887E-03    -113.342E-03     156.964E-03
            2421     14.5195E-03     2.49096E-03    -9.64111E+06     95.1551E+06     77.1263E+06     11.1225E+06    -153.034E-03     264.090E-03    -111.056E-03     180.181E-03    -157.058E-03     268.208E-03    -110.794E-03     171.156E-03
            2422     13.7302E-03     2.45342E-03    -13.3878E+06     85.0728E+06     77.2852E+06     12.0615E+06    -131.943E-03     241.083E-03    -109.140E-03     160.498E-03    -134.479E-03     243.655E-03    -108.858E-03     154.559E-03
            2423     12.9295E-03     2.42353E-03    -14.1682E+06     79.6099E+06     76.3368E+06     7.28411E+06    -118.663E-03     226.628E-03    -107.965E-03     147.118E-03    -120.399E-03     228.374E-03    -107.678E-03     142.970E-03
            2424     12.1280E-03     2.40869E-03    -15.7025E+06     72.1632E+06     62.6292E+06     598.002E+03    -112.953E-03     220.133E-03    -107.180E-03     132.024E-03    -114.176E-03     221.370E-03    -106.948E-03     128.854E-03
            2425     11.3238E-03     2.39665E-03    -18.3985E+06     63.4011E+06     39.5031E+06    -678.902E+03    -109.511E-03     216.089E-03    -106.578E-03     119.361E-03    -110.392E-03     217.010E-03    -106.446E-03     116.927E-03
            2426     10.5172E-03     2.38948E-03    -21.1036E+06     31.9691E+06     20.8477E+06    -1.88510E+06    -107.567E-03     213.752E-03    -106.186E-03     107.723E-03    -108.190E-03     214.348E-03    -106.097E-03     105.810E-03
            2427     9.71006E-03     2.38346E-03    -23.2083E+06    -19.8732E+06     7.25835E+06    -8.99704E+06    -106.682E-03     212.621E-03    -105.939E-03     97.3743E-03    -107.091E-03     212.850E-03    -105.840E-03     95.7564E-03
            2428     8.90203E-03     2.37881E-03    -23.8364E+06    -61.5237E+06    -2.30846E+06    -16.7052E+06    -106.127E-03     211.875E-03    -105.749E-03     87.6682E-03    -106.376E-03     211.823E-03    -105.637E-03     86.2391E-03
            2429     8.09384E-03     2.37552E-03    -24.5511E+06    -96.6608E+06    -9.43620E+06    -20.9844E+06    -105.744E-03     211.346E-03    -105.602E-03     78.6569E-03    -105.874E-03     211.067E-03    -105.473E-03     77.3939E-03
            2430     7.28513E-03     2.37291E-03    -26.7141E+06    -126.724E+06    -17.9182E+06    -22.1142E+06    -105.497E-03     210.971E-03    -105.474E-03     70.1690E-03    -105.538E-03     210.514E-03    -105.341E-03     69.0692E-03
            2431     6.47652E-03     2.37116E-03    -30.2385E+06    -153.606E+06    -21.9253E+06    -21.3686E+06    -105.340E-03     210.729E-03    -105.389E-03     61.9691E-03    -105.322E-03     210.117E-03    -105.232E-03     61.0226E-03
            2432     5.66708E-03     2.36997E-03    -34.3027E+06    -171.699E+06    -23.0745E+06    -17.6738E+06    -105.258E-03     210.580E-03    -105.322E-03     53.9526E-03    -105.208E-03     209.860E-03    -105.139E-03     53.1721E-03
            2433     4.85797E-03     2.36888E-03    -38.2606E+06    -180.149E+06    -29.4508E+06    -11.3129E+06    -105.187E-03     210.412E-03    -105.225E-03     46.1540E-03    -105.117E-03     209.647E-03    -105.056E-03     45.5606E-03
            2434     4.04852E-03     2.36827E-03    -42.7791E+06    -187.942E+06    -38.7171E+06    -6.20295E+06    -105.096E-03     210.222E-03    -105.126E-03     38.4886E-03    -105.011E-03     209.425E-03    -104.985E-03     38.0535E-03
            2435     3.23900E-03     2.36776E-03    -46.8128E+06    -193.199E+06    -45.0107E+06    -3.25320E+06    -105.013E-03     210.067E-03    -105.055E-03     30.8932E-03    -104.921E-03     209.248E-03    -104.932E-03     30.5768E-03
            2436     2.42931E-03     2.36741E-03    -49.2431E+06    -195.671E+06    -47.5700E+06    -1.09217E+06    -104.954E-03     209.970E-03    -105.015E-03     23.2472E-03    -104.860E-03     209.138E-03    -104.898E-03     23.0324E-03
            2437     1.61945E-03     2.36707E-03    -50.8159E+06    -197.394E+06    -49.5864E+06    -12.6679E+03    -104.927E-03     209.928E-03    -105.001E-03     15.6526E-03    -104.830E-03     209.088E-03    -104.889E-03     15.5208E-03
            2438     809.719E-06     2.36643E-03    -51.8225E+06    -198.888E+06    -51.6323E+06    -54.1354E+03    -105.000E-03     209.975E-03    -104.974E-03     8.46569E-03    -104.900E-03     209.129E-03    -104.869E-03     8.39538E-03
            2439     15.1690E-03     1.30887E-03    -859.142E+03     107.413E+06     88.1494E+06     9.38531E+06    -174.487E-03     294.906E-03    -120.419E-03     190.645E-03    -177.596E-03     298.117E-03    -120.132E-03     182.823E-03
            2440     14.3906E-03     1.25287E-03    -3.19729E+06     98.1533E+06     88.4249E+06     8.76858E+06    -154.211E-03     272.136E-03    -117.925E-03     151.368E-03    -156.393E-03     274.398E-03    -117.620E-03     145.791E-03
            2441     13.6144E-03     1.24131E-03    -4.63250E+06     91.5498E+06     87.7067E+06     3.61954E+06    -137.952E-03     254.121E-03    -116.169E-03     119.400E-03    -139.151E-03     255.368E-03    -115.857E-03     116.019E-03
            2442     12.8274E-03     1.22320E-03    -5.10909E+06     85.6172E+06     77.1896E+06     23.3652E+03    -128.774E-03     243.698E-03    -114.924E-03     101.565E-03    -129.580E-03     244.560E-03    -114.655E-03     99.1815E-03
            2443     12.0343E-03     1.21181E-03    -8.37639E+06     74.5409E+06     49.2032E+06    -669.762E+03    -123.134E-03     237.086E-03    -113.952E-03     84.7176E-03    -123.688E-03     237.728E-03    -113.802E-03     82.9709E-03
            2444     11.2392E-03     1.20670E-03    -11.8713E+06     59.6345E+06     12.9470E+06    -677.351E+03    -119.613E-03     232.776E-03    -113.163E-03     73.3787E-03    -120.000E-03     233.292E-03    -113.168E-03     72.0372E-03
            2445     10.4415E-03     1.20182E-03    -13.2627E+06     33.7449E+06    -18.8119E+06    -2.16152E+06    -117.253E-03     229.810E-03    -112.557E-03     64.6133E-03    -117.493E-03     230.173E-03    -112.681E-03     63.5503E-03
            2446     9.64222E-03     1.19805E-03    -13.6326E+06    -12.0382E+06    -39.9024E+06    -8.10754E+06    -115.624E-03     227.763E-03    -112.138E-03     57.1790E-03    -115.724E-03     227.883E-03    -112.301E-03     56.2468E-03
            2447     8.84175E-03     1.19550E-03    -15.9468E+06    -60.2098E+06    -48.7199E+06    -13.2820E+06    -114.355E-03     226.226E-03    -111.871E-03     50.7505E-03    -114.353E-03     226.092E-03    -112.004E-03     49.9065E-03
            2448     8.03979E-03     1.19341E-03    -20.6319E+06    -99.3599E+06    -51.8884E+06    -14.6562E+06    -113.414E-03     225.105E-03    -111.690E-03     44.9857E-03    -113.354E-03     224.766E-03    -111.776E-03     44.2447E-03
            2449     7.23720E-03     1.19208E-03    -25.8894E+06    -131.704E+06    -53.8699E+06    -14.7141E+06    -112.735E-03     224.295E-03    -111.560E-03     39.6853E-03    -112.636E-03     223.791E-03    -111.601E-03     39.0382E-03
            2450     6.43358E-03     1.19098E-03    -30.8968E+06    -160.816E+06    -50.5574E+06    -13.3899E+06    -112.273E-03     223.765E-03    -111.491E-03     34.7747E-03    -112.151E-03     223.106E-03    -111.466E-03     34.2217E-03
            2451     5.63037E-03     1.19016E-03    -36.5781E+06    -182.189E+06    -44.9537E+06    -10.4759E+06    -111.949E-03     223.401E-03    -111.452E-03     30.1198E-03    -111.824E-03     222.628E-03    -111.360E-03     29.6689E-03
            2452     4.82634E-03     1.18979E-03    -41.6448E+06    -190.904E+06    -42.7471E+06    -6.14720E+06    -111.686E-03     223.085E-03    -111.399E-03     25.6340E-03    -111.571E-03     222.266E-03    -111.275E-03     25.2965E-03
            2453     4.02217E-03     1.18939E-03    -44.4518E+06    -193.850E+06    -43.2597E+06    -2.27014E+06    -111.512E-03     222.850E-03    -111.338E-03     21.1972E-03    -111.400E-03     222.016E-03    -111.209E-03     20.9602E-03
            2454     3.21780E-03     1.18925E-03    -46.2370E+06    -196.004E+06    -45.2659E+06    -556.745E+03    -111.412E-03     222.690E-03    -111.277E-03     16.8799E-03    -111.301E-03     221.847E-03    -111.152E-03     16.7101E-03
            2455     2.41347E-03     1.18887E-03    -47.4511E+06    -197.295E+06    -46.3877E+06    -291.354E+03    -111.344E-03     222.564E-03    -111.219E-03     12.6672E-03    -111.232E-03     221.715E-03    -111.097E-03     12.5437E-03
            2456     1.60928E-03     1.18873E-03    -47.8268E+06    -197.809E+06    -46.8514E+06    -76.5674E+03    -111.260E-03     222.417E-03    -111.158E-03     8.60104E-03    -111.147E-03     221.566E-03    -111.036E-03     8.52038E-03
            2457     804.730E-06     1.18839E-03    -48.0877E+06    -198.485E+06    -47.8481E+06     389.896E+03    -111.239E-03     222.237E-03    -110.998E-03     4.77437E-03    -111.123E-03     221.384E-03    -110.880E-03     4.73779E-03


