********************************************************************************
Field Output Report, written Tue May 28 22:13:02 2024

Source 1
---------

   ODB: G:/Abaqus_calc_2019/1740/Vel_10/odb/zeides_2a_40_red_1000_cal_100_vel_10_fric_0100.odb
   Step: Step-1
   Frame: Increment  10805545: Step Time =    1.178

Loc 1 : Nodal values from source 1

Output sorted by column "Nodal Label".

Field Output reported at nodes for region: DIE_2A_40_D0_36-1.Region_1
   Computation algorithm: EXTRAPOLATE_COMPUTE_AVERAGE
   Averaged at nodes
   Averaging regions: ODB_REGIONS

      Node Label     COORD.COOR1     COORD.COOR2
                          @Loc 1          @Loc 1
-------------------------------------------------
               1     21.7407E-03     122.215E-03


Field Output reported at nodes for region: DIE_2A_40_D0_36-1.Region_2
   Computation algorithm: EXTRAPOLATE_COMPUTE_AVERAGE
   Averaged at nodes
   Averaging regions: ODB_REGIONS

      Node Label     COORD.COOR1     COORD.COOR2
                          @Loc 1          @Loc 1
-------------------------------------------------
               1     21.7407E-03     122.215E-03


Field Output reported at nodes for part: WIRE-1
   Computation algorithm: EXTRAPOLATE_COMPUTE_AVERAGE
   Averaged at nodes
   Averaging regions: ODB_REGIONS

      Node Label     COORD.COOR1     COORD.COOR2           S.S11           S.S22           S.S33           S.S12         PE.PE11         PE.PE22         PE.PE33         PE.PE12         LE.LE11         LE.LE22         LE.LE33         LE.LE12
                          @Loc 1          @Loc 1          @Loc 1          @Loc 1          @Loc 1          @Loc 1          @Loc 1          @Loc 1          @Loc 1          @Loc 1          @Loc 1          @Loc 1          @Loc 1          @Loc 1
-------------------------------------------------------------------------------------------------------------------------------------------------------------------------------------------------------------------------------------------------
               1     251.010E-09     67.5478E-03    -87.9058E+06    -240.279E+06    -87.8794E+06     513.686E+03    -113.589E-03     226.822E-03    -113.233E-03     9.23535E-03    -113.556E-03     225.880E-03    -113.197E-03     9.03249E-03
               2     16.0776E-03     70.8093E-03    -3.46125E+06     115.620E+06     90.4081E+06     443.329E+03    -115.426E-03     228.749E-03    -113.323E-03     182.860E-03    -122.943E-03     236.403E-03    -113.034E-03     179.936E-03
               3     14.9153E-03     140.591E-03    -24.5632E+06    -22.9374E+06    -139.832E+06    -25.4482E+06     90.8326E-03     82.2561E-03    -173.089E-03     2.36681E-03     91.2341E-03     82.6680E-03    -173.719E-03     2.03850E-03
               4    -974.184E-09     134.714E-03    -37.3311E+06    -9.66049E+06    -35.2076E+06    -4.83168E+06    -106.925E-03     215.257E-03    -108.332E-03    -13.6232E-03    -107.110E-03     215.247E-03    -108.440E-03    -13.7626E-03
               5     528.430E-09     1.72085E-15    -47.6654E+06    -199.230E+06    -47.0814E+06     836.519E+03    -110.509E-03     220.692E-03    -110.184E-03     1.31903E-03    -110.389E-03     219.834E-03    -110.061E-03     1.31590E-03
               6     15.6564E-03     1.72085E-15     13.5879E+06     107.485E+06     97.0950E+06     4.81750E+06    -319.564E-03     447.874E-03    -128.310E-03     310.912E-03    -325.484E-03     453.907E-03    -128.000E-03     290.725E-03
               7     803.446E-06     67.5578E-03    -87.0822E+06    -238.789E+06    -85.5741E+06     285.081E+03    -113.542E-03     226.865E-03    -113.323E-03     14.9859E-03    -113.520E-03     225.935E-03    -113.278E-03     14.6366E-03
               8     1.60713E-03     67.5814E-03    -84.7228E+06    -234.255E+06    -78.6405E+06    -17.3694E+03    -113.589E-03     227.019E-03    -113.430E-03     27.2171E-03    -113.599E-03     226.124E-03    -113.361E-03     26.5575E-03
               9     2.41072E-03     67.6191E-03    -81.1442E+06    -227.738E+06    -68.9501E+06    -104.972E+03    -113.791E-03     227.254E-03    -113.463E-03     40.1609E-03    -113.854E-03     226.420E-03    -113.360E-03     39.1593E-03
              10     3.21415E-03     67.6716E-03    -76.7799E+06    -220.355E+06    -58.2851E+06     14.2289E+03    -114.017E-03     227.508E-03    -113.491E-03     53.0479E-03    -114.155E-03     226.761E-03    -113.352E-03     51.6751E-03
              11     4.01790E-03     67.7380E-03    -71.9191E+06    -206.045E+06    -46.9491E+06     262.062E+03    -114.299E-03     227.802E-03    -113.503E-03     65.8010E-03    -114.549E-03     227.202E-03    -113.335E-03     64.0227E-03
              12     4.82143E-03     67.8189E-03    -66.9377E+06    -186.974E+06    -36.7598E+06     261.349E+03    -114.646E-03     228.145E-03    -113.499E-03     78.3375E-03    -115.047E-03     227.751E-03    -113.314E-03     76.1051E-03
              13     5.62518E-03     67.9132E-03    -62.1086E+06    -170.156E+06    -28.4617E+06     197.033E+03    -115.038E-03     228.527E-03    -113.489E-03     90.7024E-03    -115.627E-03     228.374E-03    -113.294E-03     87.9600E-03
              14     6.42901E-03     68.0217E-03    -57.4052E+06    -151.425E+06    -21.0529E+06     279.438E+03    -115.466E-03     228.939E-03    -113.473E-03     102.955E-03    -116.299E-03     229.092E-03    -113.275E-03     99.6420E-03
              15     7.23256E-03     68.1430E-03    -52.9839E+06    -128.133E+06    -14.8276E+06     375.536E+03    -115.859E-03     229.303E-03    -113.444E-03     115.188E-03    -117.012E-03     229.855E-03    -113.255E-03     111.234E-03
              16     8.03665E-03     68.2782E-03    -48.7728E+06    -102.690E+06    -8.59244E+06     492.094E+03    -116.277E-03     229.687E-03    -113.411E-03     127.509E-03    -117.845E-03     230.743E-03    -113.234E-03     122.822E-03
              17     8.84016E-03     68.4266E-03    -44.5583E+06    -71.2308E+06    -2.94971E+06     574.061E+03    -116.772E-03     230.144E-03    -113.371E-03     140.126E-03    -118.890E-03     231.859E-03    -113.218E-03     134.596E-03
              18     9.64399E-03     68.5894E-03    -40.6964E+06    -26.6439E+06     2.76182E+06     457.701E+03    -117.131E-03     230.450E-03    -113.319E-03     153.580E-03    -119.993E-03     233.064E-03    -113.207E-03     147.085E-03
              19     10.4476E-03     68.7671E-03    -36.8719E+06     22.9596E+06     11.0112E+06     560.362E+03    -117.514E-03     230.778E-03    -113.264E-03     171.194E-03    -121.452E-03     234.635E-03    -113.189E-03     163.559E-03
              20     11.2521E-03     68.9686E-03    -32.3518E+06     54.8181E+06     27.8995E+06     621.538E+03    -118.790E-03     232.061E-03    -113.271E-03     199.573E-03    -124.505E-03     237.775E-03    -113.164E-03     190.401E-03
              21     12.0559E-03     69.2089E-03    -27.7872E+06     70.3911E+06     53.8197E+06     386.930E+03    -121.323E-03     234.667E-03    -113.343E-03     241.833E-03    -129.997E-03     243.335E-03    -113.136E-03     230.666E-03
              22     12.8602E-03     69.5050E-03    -22.3032E+06     84.0146E+06     76.4646E+06     31.6219E+03    -124.144E-03     237.542E-03    -113.398E-03     286.499E-03    -136.920E-03     250.316E-03    -113.106E-03     273.433E-03
              23     13.6632E-03     69.8491E-03    -15.3455E+06     100.502E+06     89.2957E+06     211.811E+03    -125.467E-03     238.870E-03    -113.403E-03     314.691E-03    -142.254E-03     255.701E-03    -113.080E-03     301.300E-03
              24     14.4699E-03     70.2159E-03    -9.05430E+06     118.252E+06     95.1323E+06     810.528E+03    -125.145E-03     238.524E-03    -113.379E-03     329.509E-03    -145.750E-03     259.241E-03    -113.062E-03     318.077E-03
              25     15.2688E-03     70.5969E-03    -4.90670E+06     120.652E+06     93.7776E+06     681.732E+03    -120.105E-03     233.450E-03    -113.345E-03     259.593E-03    -135.208E-03     248.692E-03    -113.044E-03     253.149E-03
              26     16.0755E-03     71.9936E-03    -1.63959E+06     116.062E+06     91.7892E+06    -374.042E+03    -115.554E-03     228.856E-03    -113.302E-03     182.806E-03    -123.084E-03     236.526E-03    -113.009E-03     179.816E-03
              27     16.0781E-03     73.1883E-03    -2.50643E+06     115.333E+06     90.8889E+06    -208.222E+03    -115.898E-03     229.194E-03    -113.297E-03     183.215E-03    -123.482E-03     236.915E-03    -113.006E-03     180.206E-03
              28     16.0746E-03     74.3746E-03    -3.36260E+06     114.933E+06     90.9751E+06     38.9793E+03    -115.203E-03     228.515E-03    -113.312E-03     184.199E-03    -122.807E-03     236.252E-03    -113.019E-03     181.272E-03
              29     16.0794E-03     75.5639E-03    -1.51979E+06     114.143E+06     91.5406E+06    -96.4548E+03    -115.042E-03     228.353E-03    -113.311E-03     182.939E-03    -122.607E-03     236.053E-03    -113.017E-03     180.038E-03
              30     16.0736E-03     76.7493E-03    -3.83551E+06     112.393E+06     89.4774E+06    -1.16193E+06    -115.208E-03     228.522E-03    -113.314E-03     182.260E-03    -122.778E-03     236.218E-03    -113.024E-03     179.323E-03
              31     16.0796E-03     77.9428E-03    -2.05442E+06     114.536E+06     91.9920E+06    -1.54313E+06    -114.876E-03     228.185E-03    -113.309E-03     184.259E-03    -122.509E-03     235.950E-03    -113.012E-03     181.333E-03
              32     16.0749E-03     79.1256E-03    -1.70889E+06     113.131E+06     91.9423E+06     74.6685E+03    -115.199E-03     228.492E-03    -113.293E-03     182.847E-03    -122.744E-03     236.166E-03    -112.994E-03     179.919E-03
              33     16.0788E-03     80.3192E-03    -1.64239E+06     114.000E+06     92.8145E+06    -347.107E+03    -115.098E-03     228.399E-03    -113.301E-03     181.161E-03    -122.601E-03     236.032E-03    -113.000E-03     178.203E-03
              34     16.0753E-03     81.4990E-03    -3.34352E+06     112.982E+06     90.6795E+06     343.099E+03    -115.819E-03     229.104E-03    -113.285E-03     181.453E-03    -123.281E-03     236.692E-03    -112.990E-03     178.496E-03
              35     16.0779E-03     82.7020E-03    -1.83046E+06     114.838E+06     91.7425E+06     506.368E+03    -114.799E-03     228.104E-03    -113.305E-03     182.306E-03    -122.283E-03     235.723E-03    -113.010E-03     179.375E-03
              36     16.0767E-03     83.8753E-03    -2.41207E+06     114.413E+06     91.5470E+06    -883.014E+03    -115.831E-03     229.097E-03    -113.267E-03     181.278E-03    -123.295E-03     236.694E-03    -112.971E-03     178.231E-03
              37     16.0772E-03     85.0710E-03    -2.59326E+06     115.517E+06     93.0391E+06     514.775E+03    -116.651E-03     229.884E-03    -113.232E-03     179.453E-03    -123.993E-03     237.356E-03    -112.931E-03     176.446E-03
              38     16.0785E-03     86.2705E-03    -263.183E+03     117.433E+06     94.8128E+06     565.624E+03    -114.873E-03     228.178E-03    -113.305E-03     183.608E-03    -122.488E-03     235.935E-03    -113.001E-03     180.706E-03
              39     16.0741E-03     87.4419E-03    -5.43186E+06     110.520E+06     88.9188E+06    -326.622E+03    -116.036E-03     229.346E-03    -113.310E-03     182.129E-03    -123.563E-03     236.989E-03    -113.018E-03     179.146E-03
              40     16.0785E-03     88.6461E-03    -1.77943E+06      115.83E+06     93.6481E+06     223.741E+03    -115.611E-03     228.921E-03    -113.310E-03     183.319E-03    -123.153E-03     236.596E-03    -113.007E-03     180.355E-03
              41     16.0756E-03     89.8294E-03    -1.45427E+06     117.060E+06     93.7087E+06     1.09494E+06    -114.715E-03     228.043E-03    -113.328E-03     182.958E-03    -122.274E-03     235.740E-03    -113.027E-03     180.070E-03
              42     16.0771E-03     91.0102E-03    -3.36145E+06     115.453E+06     92.6098E+06     1.43289E+06    -115.578E-03     228.880E-03    -113.302E-03     180.481E-03    -122.962E-03     236.393E-03    -113.002E-03     177.560E-03
              43     16.0771E-03     92.2115E-03    -1.16067E+06     121.028E+06     96.5706E+06     1.60303E+06    -115.285E-03     228.582E-03    -113.296E-03     183.231E-03    -122.854E-03     236.296E-03    -112.987E-03     180.293E-03
              44     16.0772E-03     93.3938E-03    -3.77803E+06     121.270E+06     93.7731E+06    -158.513E+03    -115.354E-03     228.662E-03    -113.308E-03     181.531E-03    -122.931E-03     236.384E-03    -113.009E-03     178.633E-03
              45     16.0752E-03     94.5781E-03    -3.09799E+06     120.271E+06     92.8649E+06    -646.552E+03    -114.945E-03     228.239E-03    -113.293E-03     180.683E-03    -122.342E-03     235.782E-03    -112.999E-03     177.819E-03
              46     16.0805E-03     95.7779E-03    -260.919E+03     126.193E+06     97.5992E+06     131.987E+03    -114.195E-03     227.495E-03    -113.300E-03     184.898E-03    -121.823E-03     235.286E-03    -112.994E-03     182.003E-03
              47     16.0738E-03     96.9566E-03    -2.65286E+06     127.262E+06     96.3180E+06     1.34440E+06    -115.439E-03     228.733E-03    -113.294E-03     182.144E-03    -123.030E-03     236.487E-03    -112.993E-03     179.183E-03
              48     16.0796E-03     98.1441E-03    -3.85377E+06     125.631E+06     94.7324E+06     1.04394E+06    -116.210E-03     229.474E-03    -113.263E-03     179.119E-03    -123.558E-03     236.979E-03    -112.966E-03     176.149E-03
              49     16.0750E-03     99.3419E-03    -1.41158E+06     124.961E+06     97.0451E+06    -969.867E+03    -114.796E-03     228.082E-03    -113.286E-03     182.097E-03    -122.287E-03     235.730E-03    -112.980E-03     179.193E-03
              50     16.0801E-03     100.525E-03    -2.14430E+06     122.947E+06     95.0820E+06     487.148E+03    -114.963E-03     228.241E-03    -113.277E-03     184.848E-03    -122.645E-03     236.076E-03    -112.977E-03     181.934E-03
              51     16.0746E-03     101.716E-03    -2.92690E+06     126.367E+06     95.6899E+06     1.08304E+06    -116.140E-03     229.381E-03    -113.241E-03     184.904E-03    -123.814E-03     237.216E-03    -112.941E-03     181.866E-03
              52     16.0808E-03     102.909E-03    -3.13627E+06     126.937E+06     96.8922E+06    -1.05634E+06    -114.323E-03     227.551E-03    -113.229E-03     185.971E-03    -122.015E-03     235.403E-03    -112.924E-03     183.028E-03
              53     16.0780E-03     104.085E-03    -1.31943E+06     130.281E+06     99.6629E+06    -918.779E+03    -114.328E-03     227.482E-03    -113.154E-03     184.407E-03    -121.950E-03     235.273E-03    -112.843E-03     181.506E-03
              54     16.0823E-03     105.282E-03    -2.17018E+06     131.527E+06     98.0862E+06     1.05476E+06    -116.078E-03     229.142E-03    -113.063E-03     181.937E-03    -123.548E-03     236.786E-03    -112.760E-03     178.909E-03
              55     16.0787E-03     106.467E-03    -3.73592E+06     131.494E+06     98.3571E+06     949.594E+03    -114.336E-03     227.371E-03    -113.036E-03     182.905E-03    -121.811E-03     235.016E-03    -112.729E-03     180.034E-03
              56     16.0865E-03     107.655E-03    -1.29347E+06     132.185E+06     101.902E+06     462.789E+03    -113.460E-03     226.399E-03    -112.939E-03     185.125E-03    -121.022E-03     234.130E-03    -112.619E-03     182.360E-03
              57     16.0831E-03     108.839E-03    -3.88989E+06     129.299E+06     99.3838E+06     209.955E+03    -113.323E-03     226.059E-03    -112.736E-03     185.989E-03    -120.887E-03     233.781E-03    -112.421E-03     183.158E-03
              58     16.0950E-03     110.029E-03     288.835E+03     135.745E+06     103.725E+06     1.86881E+06    -111.956E-03     224.441E-03    -112.485E-03     184.906E-03    -119.497E-03     232.165E-03    -112.164E-03     182.182E-03
              59     16.0928E-03     111.200E-03    -3.63115E+06     140.725E+06     104.079E+06     2.62078E+06    -113.200E-03     225.311E-03    -112.110E-03     182.638E-03    -120.643E-03     232.938E-03    -111.789E-03     179.849E-03
              60     16.1065E-03     112.400E-03    -2.95095E+06     145.534E+06     107.457E+06     1.53697E+06    -112.949E-03     224.605E-03    -111.656E-03     186.539E-03    -120.418E-03     232.269E-03    -111.325E-03     183.684E-03
              61     16.1114E-03     113.580E-03    -375.689E+03     146.398E+06     109.892E+06     1.09156E+06    -112.346E-03     223.423E-03    -111.077E-03     190.002E-03    -119.968E-03     231.245E-03    -110.739E-03     187.111E-03
              62     16.1260E-03     114.759E-03    -5.08033E+06     143.753E+06     108.648E+06    -114.624E+03    -116.302E-03     226.606E-03    -110.304E-03     189.204E-03    -123.947E-03     234.429E-03    -109.962E-03     185.977E-03
              63     16.1341E-03     115.959E-03    -2.58105E+06     144.719E+06     112.010E+06     3.05099E+06    -119.094E-03     228.590E-03    -109.496E-03     191.677E-03    -126.881E-03     236.558E-03    -109.142E-03     188.277E-03
              64     16.1507E-03     117.150E-03    -3.44583E+06     145.538E+06     113.962E+06     4.25769E+06    -122.098E-03     230.730E-03    -108.632E-03     195.723E-03    -130.160E-03     238.967E-03    -108.268E-03     192.038E-03
              65     16.1600E-03     118.340E-03    -3.67718E+06     148.035E+06     114.941E+06     1.31355E+06    -132.392E-03     239.971E-03    -107.579E-03     199.192E-03    -140.634E-03     248.395E-03    -107.213E-03     194.371E-03
              66     16.1753E-03     119.572E-03    -2.20121E+06     153.104E+06     118.403E+06     1.50294E+06    -144.101E-03     250.695E-03    -106.594E-03     204.177E-03    -152.711E-03     259.499E-03    -106.221E-03     198.017E-03
              67     16.1802E-03     120.790E-03    -3.50870E+06     155.165E+06     118.808E+06     2.33912E+06    -155.775E-03     261.567E-03    -105.792E-03     210.102E-03    -164.878E-03     270.866E-03    -105.417E-03     202.640E-03
              68     16.1883E-03     122.037E-03    -2.90884E+06     158.187E+06     117.879E+06     2.50125E+06    -170.185E-03     275.248E-03    -105.063E-03     214.812E-03    -179.635E-03     284.912E-03    -104.699E-03     205.565E-03
              69     16.1911E-03     123.295E-03    -5.32578E+06     159.279E+06     116.954E+06     334.056E+03    -185.647E-03     290.090E-03    -104.443E-03     222.331E-03    -195.540E-03     300.196E-03    -104.081E-03     211.018E-03
              70     16.1941E-03     124.579E-03    -2.31875E+06     157.771E+06     118.720E+06    -1.55825E+06    -200.331E-03     304.290E-03    -103.960E-03     227.810E-03    -210.650E-03     314.821E-03    -103.591E-03     214.197E-03
              71     16.1950E-03     125.863E-03    -2.97165E+06     154.575E+06     120.279E+06    -3.18194E+06    -216.311E-03     319.845E-03    -103.535E-03     233.673E-03    -227.000E-03     330.730E-03    -103.153E-03     217.486E-03
              72     16.1953E-03     127.189E-03    -2.23726E+06     155.206E+06     122.750E+06     2.30277E+06    -235.894E-03     338.972E-03    -103.078E-03     248.068E-03    -247.162E-03     350.442E-03    -102.686E-03     228.866E-03
              73     16.1979E-03     128.542E-03    -4.63229E+06     156.313E+06     121.264E+06     3.31274E+06    -258.544E-03     361.050E-03    -102.505E-03     273.396E-03    -270.997E-03     373.708E-03    -102.119E-03     250.159E-03
              74     16.2012E-03     129.921E-03    -4.29616E+06     152.615E+06     125.269E+06     700.430E+03    -281.192E-03     383.125E-03    -101.932E-03     295.052E-03    -294.701E-03     396.820E-03    -101.521E-03     267.438E-03
              75     16.2031E-03     131.330E-03    -2.86122E+06     145.661E+06     128.243E+06    -2.06537E+06    -291.424E-03     393.120E-03    -101.696E-03     307.270E-03    -305.757E-03     407.601E-03    -101.262E-03     276.478E-03
              76     16.2007E-03     132.708E-03    -3.59980E+06     136.361E+06     138.363E+06    -3.83613E+06    -294.760E-03     396.458E-03    -101.697E-03     316.982E-03    -309.913E-03     411.677E-03    -101.198E-03     284.418E-03
              77     16.2047E-03     134.091E-03    -3.66006E+06     108.353E+06     120.795E+06    -6.27519E+06    -299.977E-03     401.595E-03    -101.618E-03     329.212E-03    -315.581E-03     417.252E-03    -101.165E-03     295.441E-03
              78     16.1973E-03     135.541E-03     4.35634E+06     142.730E+06     143.008E+06     16.3951E+06    -276.439E-03     378.884E-03    -102.445E-03     369.673E-03    -294.582E-03     397.176E-03    -101.944E-03     336.056E-03
              79     16.2004E-03     136.847E-03    -49.2193E+06     100.579E+06     76.8797E+06    -28.2129E+06    -204.261E-03     308.498E-03    -104.236E-03     444.508E-03    -224.449E-03     328.666E-03    -103.926E-03     418.326E-03
              80     16.2041E-03     138.017E-03    -210.624E+06    -43.2854E+06    -118.553E+06    -36.5268E+06    -76.7563E-03     186.451E-03    -109.695E-03     429.975E-03    -89.1372E-03     198.364E-03    -109.920E-03     420.567E-03
              81     15.9951E-03     138.873E-03    -123.194E+06    -22.3827E+06    -66.4797E+06     56.9522E+06     38.1149E-03     88.3930E-03    -126.508E-03     228.105E-03     35.5355E-03     90.4364E-03    -126.629E-03     228.975E-03
              82     15.4135E-03     139.672E-03     13.8399E+06     7.97361E+06    -41.9436E+06     29.3805E+06     81.5446E-03     74.3697E-03    -155.914E-03     41.8316E-03     81.6644E-03     74.4504E-03    -156.156E-03     42.2105E-03
              83     14.0197E-03     139.998E-03    -29.6705E+06    -6.20735E+06    -125.849E+06     7.23950E+06     87.3260E-03     87.5808E-03    -174.907E-03     15.6008E-03     87.4642E-03     87.8731E-03    -175.484E-03     15.6944E-03
              84     13.2564E-03     139.398E-03    -62.0214E+06     33.3335E+06    -56.3319E+06    -6.94704E+06     63.2074E-03     113.935E-03    -177.143E-03     8.68449E-03     62.8964E-03     114.255E-03    -177.383E-03     8.55449E-03
              85     12.4968E-03     138.781E-03    -100.075E+06    -616.306E+03    -17.9006E+06    -58.4278E+06     28.5303E-03     147.001E-03    -175.531E-03    -60.8725E-03     28.0660E-03     147.102E-03    -175.474E-03    -61.8778E-03
              86     11.8236E-03     138.188E-03    -106.029E+06    -51.4725E+06    -57.4803E+06    -79.2167E+06     5.46954E-03     164.447E-03    -169.917E-03    -139.120E-03     5.14319E-03     164.136E-03    -169.976E-03    -140.736E-03
              87     11.1627E-03     137.647E-03    -101.036E+06    -66.9633E+06    -61.6916E+06    -86.3821E+06    -14.5080E-03     177.205E-03    -162.697E-03    -185.147E-03    -14.6768E-03     176.627E-03    -162.761E-03    -187.166E-03
              88     10.5029E-03     137.163E-03    -100.568E+06    -75.0020E+06    -41.9872E+06    -73.7062E+06    -36.4687E-03     191.789E-03    -155.320E-03    -212.252E-03    -36.5785E-03     191.030E-03    -155.276E-03    -214.313E-03
              89     9.83053E-03     136.738E-03    -93.6260E+06    -55.7277E+06    -30.0101E+06    -69.8228E+06    -56.6260E-03     204.823E-03    -148.197E-03    -224.345E-03    -56.7186E-03     204.098E-03    -148.130E-03    -226.472E-03
              90     9.14572E-03     136.372E-03    -85.8108E+06    -50.7785E+06    -15.1986E+06    -60.0918E+06    -74.6829E-03     216.495E-03    -141.812E-03    -221.546E-03    -74.7802E-03     215.808E-03    -141.690E-03    -223.562E-03
              91     8.44040E-03     136.060E-03    -78.8780E+06    -39.1917E+06    -7.47596E+06    -48.3812E+06    -90.5990E-03     226.652E-03    -136.053E-03    -208.777E-03    -90.7320E-03     226.094E-03    -135.919E-03    -210.571E-03
              92     7.72428E-03     135.791E-03    -69.2730E+06    -30.2458E+06    -5.88553E+06    -40.8672E+06    -102.345E-03     233.121E-03    -130.776E-03    -189.688E-03    -102.494E-03     232.677E-03    -130.661E-03    -191.292E-03
              93     6.99356E-03     135.562E-03    -61.8109E+06    -23.0201E+06    -3.12944E+06    -32.5027E+06    -109.760E-03     235.765E-03    -126.004E-03    -166.306E-03    -109.933E-03     235.427E-03    -125.897E-03    -167.679E-03
              94     6.25095E-03     135.368E-03    -56.4755E+06    -14.2732E+06    -1.59076E+06    -25.5755E+06    -113.479E-03     235.221E-03    -121.742E-03    -141.981E-03    -113.680E-03     234.993E-03    -121.648E-03    -143.122E-03
              95     5.49545E-03     135.205E-03    -52.8949E+06    -9.63443E+06    -6.19171E+06    -20.8680E+06    -114.411E-03     232.394E-03    -117.983E-03    -118.506E-03    -114.624E-03     232.251E-03    -117.923E-03    -119.445E-03
              96     4.72958E-03     135.070E-03    -49.3538E+06    -6.33109E+06    -10.5363E+06    -18.6739E+06    -113.629E-03     228.378E-03    -114.749E-03    -97.0851E-03    -113.845E-03     228.298E-03    -114.721E-03    -97.8684E-03
              97     3.95435E-03     134.959E-03    -45.3764E+06    -6.12018E+06    -14.4481E+06    -16.4012E+06    -111.857E-03     223.900E-03    -112.044E-03    -77.8452E-03    -112.064E-03     223.855E-03    -112.041E-03    -78.4870E-03
              98     3.17154E-03     134.870E-03    -40.8894E+06    -4.48786E+06    -19.3991E+06    -14.1445E+06    -109.666E-03     219.547E-03    -109.881E-03    -60.8066E-03    -109.857E-03     219.534E-03    -109.912E-03    -61.3184E-03
              99     2.38246E-03     134.803E-03    -36.4014E+06    -5.85304E+06    -25.4224E+06    -11.5718E+06    -107.449E-03     215.809E-03    -108.360E-03    -45.7487E-03    -107.616E-03     215.808E-03    -108.426E-03    -46.1390E-03
             100     1.58836E-03     134.754E-03    -32.4078E+06    -5.09587E+06    -28.3412E+06    -9.31955E+06    -106.019E-03     213.672E-03    -107.653E-03    -32.5813E-03    -106.169E-03     213.682E-03    -107.741E-03    -32.8698E-03
             101     791.784E-06     134.726E-03    -34.0068E+06    -7.31810E+06    -32.1515E+06    -6.56411E+06    -106.304E-03     214.233E-03    -107.929E-03    -20.0558E-03    -106.469E-03     214.234E-03    -108.030E-03    -20.2470E-03
             102     118.551E-09     133.537E-03    -40.4776E+06    -17.3268E+06    -42.1611E+06    -5.21413E+06    -91.5101E-03     184.103E-03    -92.5931E-03    -7.32568E-03    -91.6683E-03     184.093E-03    -92.7201E-03    -7.45264E-03
             103    -680.805E-09     132.433E-03    -61.0124E+06    -37.1744E+06    -62.2478E+06    -4.71289E+06    -66.5764E-03     133.674E-03    -67.0978E-03     91.0226E-06    -66.7524E-03     133.652E-03    -67.2667E-03    -3.86423E-06
             104     509.939E-09     131.371E-03    -91.9324E+06    -59.5086E+06    -91.2125E+06    -4.81673E+06    -50.8769E-03     101.734E-03    -50.8574E-03     3.06045E-03    -51.1247E-03     101.696E-03    -51.0939E-03     2.97919E-03
             105    -228.894E-09     130.335E-03    -121.685E+06    -80.7794E+06    -120.298E+06    -6.77878E+06    -40.8057E-03     81.5395E-03    -40.7338E-03     5.70911E-03    -41.1248E-03     81.4848E-03    -41.0417E-03     5.61326E-03
             106     94.3917E-09     129.315E-03    -154.040E+06    -107.452E+06    -152.890E+06    -8.28637E+06    -35.2605E-03     70.5257E-03    -35.2653E-03     7.55911E-03    -35.6535E-03     70.4335E-03    -35.6506E-03     7.45045E-03
             107     25.0505E-09     128.301E-03    -186.327E+06    -131.812E+06    -186.719E+06    -5.83560E+06    -33.8966E-03     67.7077E-03    -33.8111E-03     9.45799E-03    -34.3661E-03     67.5897E-03    -34.2834E-03     9.38583E-03
             108    -40.2043E-09     127.287E-03    -185.136E+06    -137.446E+06    -187.146E+06     2.54010E+06    -36.6966E-03     73.1914E-03    -36.4948E-03     10.8914E-03    -37.1521E-03     73.0431E-03    -36.9628E-03     10.9310E-03
             109     335.237E-09     126.261E-03    -129.190E+06    -118.177E+06    -128.547E+06     8.79417E+06    -43.4377E-03     86.3803E-03    -42.9425E-03     12.0875E-03    -43.7282E-03     86.1605E-03    -43.2266E-03     12.2080E-03
             110     186.338E-09     125.220E-03    -84.4348E+06    -100.571E+06    -80.4872E+06     1.71680E+06    -52.2961E-03     104.195E-03    -51.8986E-03     12.6472E-03    -52.4591E-03     103.928E-03    -52.0328E-03     12.6698E-03
             111    -23.2110E-09     124.157E-03    -70.6085E+06    -107.371E+06    -71.1234E+06    -4.70251E+06    -61.4822E-03     122.781E-03    -61.2992E-03     12.7008E-03    -61.5799E-03     122.447E-03    -61.3967E-03     12.6302E-03
             112     121.843E-09     123.076E-03    -62.6096E+06    -121.900E+06    -63.0607E+06    -2.94761E+06    -70.4749E-03     140.688E-03    -70.2127E-03     12.6278E-03    -70.5234E-03     140.258E-03    -70.2605E-03     12.5656E-03
             113     168.535E-09     121.974E-03    -52.4727E+06    -132.059E+06    -52.3493E+06    -2.26125E+06    -79.0336E-03     157.587E-03    -78.5529E-03     12.3646E-03    -79.0322E-03     157.077E-03    -78.5471E-03     12.2925E-03
             114     294.868E-09     120.856E-03    -50.6005E+06    -142.718E+06    -50.3649E+06    -3.15741E+06    -86.5243E-03     172.586E-03    -86.0618E-03     11.9983E-03    -86.5008E-03     172.019E-03    -86.0333E-03     11.8914E-03
             115    -39.2915E-09     119.721E-03    -58.2968E+06    -155.236E+06    -59.1561E+06    -2.84381E+06    -92.8601E-03     185.349E-03    -92.4888E-03     11.5180E-03    -92.8442E-03     184.744E-03    -92.4750E-03     11.3901E-03
             116     336.148E-09     118.574E-03    -59.3781E+06    -165.944E+06    -61.7370E+06    -2.14499E+06    -98.2535E-03     196.138E-03    -97.8846E-03     11.2867E-03    -98.2237E-03     195.486E-03    -97.8665E-03     11.1467E-03
             117    -104.319E-09     117.415E-03    -63.5209E+06    -175.301E+06    -64.0076E+06    -2.27801E+06    -102.540E-03     204.796E-03    -102.256E-03     10.9911E-03    -102.514E-03     204.107E-03    -102.230E-03     10.8290E-03
             118     278.917E-09     116.248E-03    -70.1827E+06    -185.545E+06    -70.1163E+06    -2.45173E+06    -105.867E-03     211.426E-03    -105.559E-03     10.3989E-03    -105.851E-03     210.705E-03    -105.539E-03     10.2108E-03
             119     1.31976E-09     115.073E-03    -72.9478E+06    -195.529E+06    -73.2706E+06    -2.40140E+06    -108.283E-03     216.365E-03    -108.082E-03     9.81292E-03    -108.261E-03     215.603E-03    -108.059E-03     9.60873E-03
             120    -185.158E-12     113.895E-03    -77.0887E+06    -204.662E+06    -77.2401E+06    -1.77858E+06    -110.021E-03     219.976E-03    -109.955E-03     9.51777E-03    -110.001E-03     219.180E-03    -109.933E-03     9.31309E-03
             121     65.1042E-09     112.712E-03    -82.4970E+06    -211.687E+06    -82.9259E+06    -1.38855E+06    -111.352E-03     222.615E-03    -111.263E-03     9.45439E-03    -111.341E-03     221.801E-03    -111.251E-03     9.24448E-03
             122    -29.0088E-09     111.527E-03    -83.4534E+06    -217.093E+06    -83.1729E+06    -1.19872E+06    -112.274E-03     224.442E-03    -112.168E-03     9.20471E-03    -112.260E-03     223.602E-03    -112.148E-03     8.98968E-03
             123     132.248E-09     110.340E-03    -81.0552E+06    -222.597E+06    -81.3262E+06    -1.58352E+06    -112.970E-03     225.650E-03    -112.681E-03     9.03938E-03    -112.938E-03     224.777E-03    -112.647E-03     8.81567E-03
             124     193.018E-09     109.152E-03    -81.3613E+06    -228.074E+06    -81.7978E+06    -832.125E+03    -113.364E-03     226.397E-03    -113.034E-03     9.13708E-03    -113.325E-03     225.498E-03    -112.994E-03     8.92188E-03
             125    -27.5842E-09     107.964E-03    -84.9832E+06    -232.751E+06    -84.4476E+06    -1.11167E+06    -113.439E-03     226.736E-03    -113.298E-03     9.12868E-03    -113.407E-03     225.822E-03    -113.259E-03     8.90859E-03
             126     59.5956E-09     106.775E-03    -87.5033E+06    -237.653E+06    -88.0564E+06    -873.237E+03    -113.413E-03     226.837E-03    -113.424E-03     9.28405E-03    -113.381E-03     225.907E-03    -113.393E-03     9.06662E-03
             127    -152.231E-09     105.586E-03    -88.5053E+06    -239.427E+06    -88.3660E+06     368.142E+03    -113.509E-03     227.016E-03    -113.507E-03     9.33370E-03    -113.480E-03     226.080E-03    -113.474E-03     9.13017E-03
             128     212.263E-09     104.398E-03    -88.7660E+06    -239.845E+06    -88.6197E+06    -516.029E+03    -113.666E-03     227.171E-03    -113.505E-03     9.15903E-03    -113.637E-03     226.233E-03    -113.472E-03     8.94222E-03
             129    -47.6783E-09     103.208E-03    -89.9436E+06    -241.463E+06    -90.4568E+06     264.270E+03    -113.609E-03     227.025E-03    -113.416E-03     9.12042E-03    -113.581E-03     226.083E-03    -113.388E-03     8.91683E-03
             130     153.128E-09     102.020E-03    -89.4015E+06    -240.680E+06    -89.0388E+06     174.128E+03    -113.553E-03     226.841E-03    -113.288E-03     9.06079E-03    -113.526E-03     225.901E-03    -113.254E-03     8.85576E-03
             131     137.865E-09     100.831E-03    -90.1345E+06    -242.065E+06    -90.2970E+06    -592.969E+03    -113.587E-03     226.829E-03    -113.243E-03     8.94197E-03    -113.559E-03     225.885E-03    -113.212E-03     8.72576E-03
             132     89.1298E-09     99.6436E-03    -90.8063E+06    -243.080E+06     -90.818E+06     19.1884E+03    -113.585E-03     226.989E-03    -113.404E-03     8.91886E-03    -113.558E-03     226.041E-03    -113.374E-03     8.70660E-03
             133    -58.1258E-09     98.4538E-03    -89.9022E+06    -242.550E+06    -90.0665E+06     68.2763E+03    -113.655E-03     227.087E-03    -113.432E-03     8.97349E-03    -113.625E-03     226.139E-03    -113.400E-03     8.76247E-03
             134     349.588E-09     97.2651E-03    -90.2550E+06    -242.929E+06    -90.0141E+06    -66.3287E+03    -113.649E-03     227.002E-03    -113.353E-03     9.20283E-03    -113.621E-03     226.053E-03    -113.320E-03     8.99170E-03
             135    -199.186E-09     96.0765E-03    -89.6118E+06    -242.571E+06    -89.7392E+06    -112.282E+03    -113.574E-03     226.963E-03    -113.389E-03     9.06893E-03    -113.544E-03     226.015E-03    -113.356E-03     8.85715E-03
             136     310.004E-09     94.8879E-03    -88.8666E+06    -241.758E+06    -88.8632E+06     349.741E+03    -113.549E-03     226.956E-03    -113.408E-03     8.94353E-03    -113.517E-03     226.009E-03    -113.373E-03     8.73639E-03
             137    -227.491E-09     93.6991E-03    -88.1890E+06    -241.035E+06    -88.1985E+06    -26.7614E+03    -113.496E-03     226.972E-03    -113.476E-03     9.04687E-03    -113.463E-03     226.027E-03    -113.440E-03     8.83574E-03
             138     142.174E-09     92.5103E-03    -87.8882E+06    -240.726E+06    -87.8964E+06     42.4897E+03    -113.531E-03     226.989E-03    -113.458E-03     9.07738E-03    -113.498E-03     226.045E-03    -113.421E-03     8.87154E-03
             139     25.8304E-09     91.3213E-03    -88.0697E+06    -240.794E+06    -88.0242E+06     69.8710E+03    -113.564E-03     226.894E-03    -113.330E-03     9.15054E-03    -113.531E-03     225.949E-03    -113.293E-03     8.94553E-03
             140     147.609E-09     90.1331E-03    -87.9115E+06    -240.708E+06    -88.0775E+06     33.6775E+03    -113.502E-03     226.830E-03    -113.328E-03     9.02525E-03    -113.469E-03     225.886E-03    -113.291E-03     8.81666E-03
             141    -75.4832E-09     88.9447E-03    -87.9965E+06    -240.557E+06    -87.7113E+06     12.5962E+03    -113.453E-03     226.810E-03    -113.357E-03     8.88268E-03    -113.421E-03     225.866E-03    -113.319E-03     8.67097E-03
             142     128.366E-09     87.7557E-03    -87.1476E+06    -239.951E+06     -87.404E+06     54.2331E+03    -113.518E-03     226.856E-03    -113.338E-03     8.96231E-03    -113.483E-03     225.913E-03    -113.300E-03     8.75080E-03
             143     72.4272E-09     86.5676E-03    -87.1198E+06    -239.708E+06    -86.9499E+06    -228.003E+03    -113.583E-03     226.988E-03    -113.404E-03     9.05601E-03    -113.549E-03     226.046E-03    -113.365E-03     8.84164E-03
             144    -18.1629E-09     85.3780E-03    -87.8716E+06    -240.308E+06    -87.4640E+06     351.150E+03    -113.565E-03     226.911E-03    -113.346E-03     8.98966E-03    -113.533E-03     225.968E-03    -113.307E-03     8.78648E-03
             145     286.647E-09     84.1901E-03    -87.3302E+06    -240.032E+06    -87.6299E+06     238.293E+03    -113.627E-03     226.837E-03    -113.210E-03     9.18179E-03    -113.592E-03     225.895E-03    -113.173E-03     8.97730E-03
             146     76.7548E-09     83.0008E-03    -86.6713E+06    -239.429E+06    -87.1046E+06    -165.487E+03    -113.610E-03     226.908E-03    -113.299E-03     9.25592E-03    -113.573E-03     225.968E-03    -113.261E-03     9.04164E-03
             147     19.2433E-09     81.8128E-03    -87.6419E+06    -240.168E+06    -87.5692E+06    -68.7527E+03    -113.571E-03     226.851E-03    -113.279E-03     9.09160E-03    -113.538E-03     225.908E-03    -113.242E-03     8.88172E-03
             148     319.957E-09     80.6237E-03    -87.3438E+06    -240.034E+06    -87.7442E+06     35.9087E+03    -113.668E-03     226.910E-03    -113.242E-03     9.06393E-03    -113.633E-03     225.968E-03    -113.206E-03     8.85394E-03
             149    -12.8763E-09     79.4360E-03    -87.6129E+06    -240.047E+06    -87.4613E+06     164.603E+03    -113.593E-03     227.035E-03    -113.442E-03     8.93583E-03    -113.560E-03     226.093E-03    -113.404E-03     8.72559E-03
             150    -81.9948E-09     78.2458E-03    -86.9039E+06    -239.350E+06    -86.7496E+06    -53.8010E+03    -113.527E-03     226.982E-03    -113.454E-03     8.88253E-03    -113.493E-03     226.041E-03    -113.415E-03     8.67216E-03
             151     263.055E-09     77.0584E-03    -87.4752E+06    -239.916E+06    -87.3194E+06    -461.378E+03    -113.625E-03     227.009E-03    -113.384E-03     9.01475E-03    -113.592E-03     226.067E-03    -113.346E-03     8.79420E-03
             152    -87.5247E-09     75.8684E-03    -87.3777E+06    -240.050E+06    -87.6375E+06     192.467E+03    -113.597E-03     227.065E-03    -113.468E-03     9.00175E-03    -113.562E-03     226.123E-03    -113.432E-03     8.79228E-03
             153     81.7714E-09     74.6804E-03    -86.8916E+06    -239.338E+06    -86.8178E+06     217.931E+03    -113.550E-03     226.993E-03    -113.443E-03     8.91678E-03    -113.515E-03     226.052E-03    -113.404E-03     8.71467E-03
             154     62.7015E-09     73.4911E-03    -87.1250E+06    -239.813E+06    -87.4537E+06    -288.754E+03    -113.579E-03     226.934E-03    -113.355E-03     8.87653E-03    -113.543E-03     225.992E-03    -113.318E-03     8.66580E-03
             155     115.670E-09     72.3031E-03     -87.624E+06    -240.132E+06    -87.5217E+06    -56.7507E+03    -113.539E-03     226.964E-03    -113.425E-03     8.96440E-03    -113.505E-03     226.021E-03    -113.387E-03     8.75270E-03
             156    -143.838E-09     71.1135E-03    -87.5414E+06    -239.943E+06    -87.2215E+06     131.595E+03    -113.550E-03     227.024E-03    -113.474E-03     9.08372E-03    -113.517E-03     226.082E-03    -113.435E-03     8.87523E-03
             157     263.801E-09     69.9250E-03    -87.0827E+06    -239.606E+06    -87.0918E+06    -103.141E+03    -113.669E-03     226.974E-03    -113.305E-03     9.17997E-03    -113.634E-03     226.033E-03    -113.267E-03     8.96966E-03
             158     166.009E-09     68.7360E-03    -87.3583E+06    -239.864E+06    -87.5246E+06    -35.5591E+03    -113.720E-03     226.889E-03    -113.169E-03     9.25370E-03    -113.685E-03     225.947E-03    -113.132E-03     9.04447E-03
             159    -132.202E-09     66.3589E-03    -87.4386E+06    -239.988E+06    -87.8268E+06     65.2285E+03    -113.433E-03     226.741E-03    -113.308E-03     9.08308E-03    -113.399E-03     225.799E-03    -113.272E-03     8.87492E-03
             160     176.827E-09     65.1713E-03    -87.7123E+06    -240.048E+06    -87.6870E+06    -205.049E+03    -113.424E-03     226.833E-03    -113.409E-03     8.95624E-03    -113.391E-03     225.891E-03    -113.372E-03     8.74311E-03
             161    -230.093E-09     63.9820E-03    -87.5638E+06    -239.796E+06    -87.2715E+06    -23.9321E+03    -113.493E-03     226.915E-03    -113.422E-03     8.70994E-03    -113.460E-03     225.974E-03    -113.384E-03     8.50066E-03
             162     369.256E-09     62.7939E-03    -87.2994E+06    -239.777E+06    -87.4352E+06    -181.722E+03    -113.549E-03     226.900E-03    -113.351E-03     8.82117E-03    -113.514E-03     225.959E-03    -113.314E-03     8.60846E-03
             163    -224.173E-09     61.6046E-03    -87.9009E+06    -240.127E+06    -87.4452E+06    -91.4857E+03    -113.526E-03     227.010E-03    -113.485E-03     9.10844E-03    -113.494E-03     226.068E-03    -113.446E-03     8.89634E-03
             164     115.211E-09     60.4158E-03    -87.3774E+06    -240.076E+06    -87.6872E+06     263.213E+03    -113.572E-03     226.990E-03    -113.418E-03     9.02736E-03    -113.537E-03     226.047E-03    -113.382E-03     8.82535E-03
             165     203.103E-09     59.2270E-03    -87.1452E+06    -239.775E+06     -87.298E+06     59.6282E+03    -113.643E-03     226.808E-03    -113.164E-03     8.97791E-03    -113.608E-03     225.866E-03    -113.127E-03     8.77294E-03
             166     212.961E-09     58.0392E-03    -86.7213E+06    -239.332E+06    -86.8079E+06    -129.883E+03    -113.546E-03     226.700E-03    -113.154E-03     8.83113E-03    -113.510E-03     225.759E-03    -113.115E-03     8.61911E-03
             167    -31.9705E-09     56.8505E-03    -87.1604E+06    -239.831E+06    -87.2897E+06    -351.332E+03    -113.415E-03     226.763E-03    -113.348E-03     8.74020E-03    -113.380E-03     225.821E-03    -113.310E-03     8.52198E-03
             168    -74.2051E-09     55.6625E-03    -86.9343E+06    -239.518E+06    -86.8325E+06    -204.121E+03    -113.388E-03     226.791E-03    -113.404E-03     8.53836E-03    -113.353E-03     225.850E-03    -113.365E-03     8.32005E-03
             169     125.798E-09     54.4731E-03    -86.8385E+06    -239.624E+06    -87.1969E+06     120.334E+03    -113.409E-03     226.636E-03    -113.227E-03     8.69184E-03    -113.373E-03     225.694E-03    -113.189E-03     8.47997E-03
             170     81.4324E-09     53.2856E-03    -86.4815E+06    -239.022E+06    -86.4903E+06    -27.7707E+03    -113.339E-03     226.540E-03    -113.202E-03     8.80042E-03    -113.303E-03     225.600E-03    -113.162E-03     8.58878E-03
             171    -100.502E-09     52.0969E-03    -86.9815E+06    -239.336E+06    -86.5510E+06    -160.422E+03    -113.216E-03     226.403E-03    -113.188E-03     8.74920E-03    -113.182E-03     225.462E-03    -113.147E-03     8.53655E-03
             172     137.476E-09     50.9090E-03    -86.7955E+06    -239.417E+06    -86.9336E+06     194.515E+03    -113.141E-03     226.249E-03    -113.109E-03     8.92274E-03    -113.105E-03     225.308E-03    -113.070E-03     8.72083E-03
             173    -157.828E-09     49.7213E-03    -86.1972E+06    -238.669E+06    -86.1302E+06     306.464E+03    -113.037E-03     226.109E-03    -113.072E-03     8.81628E-03    -113.001E-03     225.170E-03    -113.031E-03     8.61975E-03
             174     91.1270E-09     48.5335E-03    -86.8424E+06    -239.236E+06    -86.7730E+06    -74.9572E+03    -112.999E-03     225.877E-03    -112.878E-03     8.71506E-03    -112.964E-03     224.937E-03    -112.839E-03     8.50990E-03
             175     140.444E-09     47.3465E-03    -86.4917E+06    -239.046E+06    -86.6396E+06     153.759E+03    -112.909E-03     225.687E-03    -112.778E-03     8.83811E-03    -112.873E-03     224.747E-03    -112.739E-03     8.63317E-03
             176    -194.737E-09     46.1591E-03    -85.8577E+06    -238.662E+06    -86.1025E+06     38.5654E+03    -112.714E-03     225.485E-03    -112.771E-03     8.75077E-03    -112.675E-03     224.545E-03    -112.731E-03     8.54717E-03
             177     122.712E-09     44.9726E-03    -86.9794E+06    -239.216E+06    -87.2538E+06    -183.763E+03    -112.664E-03     225.156E-03    -112.491E-03     8.63252E-03    -112.629E-03     224.216E-03    -112.455E-03     8.42609E-03
             178     193.974E-09     43.7859E-03    -87.9234E+06    -239.322E+06    -87.4175E+06     111.680E+03    -112.562E-03     224.819E-03    -112.257E-03     8.83952E-03    -112.531E-03     223.881E-03    -112.219E-03     8.63606E-03
             179    -46.7939E-09     42.6000E-03    -86.9089E+06    -239.034E+06    -87.1200E+06     19.1345E+03    -112.256E-03     224.469E-03    -112.213E-03     8.88957E-03    -112.221E-03     223.531E-03    -112.176E-03     8.69046E-03
             180    -65.8421E-09     41.4143E-03    -86.3042E+06    -238.306E+06    -86.4083E+06     328.000E+03    -112.028E-03     224.070E-03    -112.043E-03     8.82034E-03    -111.992E-03     223.133E-03    -112.004E-03     8.62980E-03
             181     120.724E-09     40.2294E-03    -86.3109E+06    -238.193E+06    -86.2484E+06     193.809E+03    -111.851E-03     223.559E-03    -111.708E-03     8.83903E-03    -111.815E-03     222.622E-03    -111.669E-03     8.64872E-03
             182     22.3240E-09     39.0447E-03    -85.7594E+06    -237.913E+06    -86.0317E+06     441.450E+03    -111.506E-03     222.828E-03    -111.322E-03     8.74019E-03    -111.469E-03     221.892E-03    -111.283E-03     8.55109E-03
             183     96.0758E-09     37.8621E-03    -85.6625E+06    -237.464E+06    -85.5331E+06     155.487E+03    -111.105E-03     222.011E-03    -110.906E-03     8.60673E-03    -111.068E-03     221.076E-03    -110.866E-03     8.41325E-03
             184     75.5604E-09     36.6790E-03    -84.8237E+06    -236.762E+06    -84.9948E+06     165.319E+03    -110.707E-03     221.179E-03    -110.472E-03     8.61577E-03    -110.667E-03     220.245E-03    -110.431E-03     8.42746E-03
             185     97.8860E-09     35.4983E-03    -84.8870E+06    -236.650E+06    -84.8139E+06     177.912E+03    -110.212E-03     220.181E-03    -109.969E-03     8.31361E-03    -110.173E-03     219.247E-03    -109.927E-03     8.12599E-03
             186     92.6127E-09     34.3183E-03    -84.3261E+06    -236.142E+06    -84.5948E+06     84.1945E+03    -109.594E-03     219.056E-03    -109.462E-03     8.06945E-03    -109.553E-03     218.124E-03    -109.421E-03     7.88108E-03
             187    -100.187E-09     33.1397E-03    -84.0261E+06    -235.553E+06    -83.8919E+06    -106.637E+03    -108.954E-03     217.849E-03    -108.896E-03     7.88577E-03    -108.913E-03     216.919E-03    -108.852E-03     7.69943E-03
             188     177.597E-09     31.9625E-03    -83.9006E+06    -235.443E+06    -84.2899E+06     31.6494E+03    -108.323E-03     216.533E-03    -108.210E-03     7.67955E-03    -108.282E-03     215.603E-03    -108.168E-03     7.49565E-03
             189    -99.6211E-09     30.7875E-03    -83.7144E+06    -234.799E+06    -83.4403E+06     20.3849E+03    -107.584E-03     215.233E-03    -107.648E-03     7.65472E-03    -107.544E-03     214.305E-03    -107.604E-03     7.47218E-03
             190    -102.604E-09     29.6125E-03    -83.4138E+06    -234.836E+06    -83.7314E+06    -257.282E+03    -106.866E-03     213.761E-03    -106.894E-03     7.56667E-03    -106.824E-03     212.833E-03    -106.852E-03     7.38596E-03
             191     233.252E-09     28.4410E-03    -83.1590E+06    -234.122E+06    -83.5171E+06     220.334E+03    -105.949E-03     211.921E-03    -105.972E-03     7.40957E-03    -105.907E-03     210.996E-03    -105.929E-03     7.24032E-03
             192    -426.533E-09     27.2712E-03    -83.6048E+06    -233.644E+06    -83.7180E+06    -102.822E+03    -104.977E-03     210.056E-03    -105.079E-03     6.99124E-03    -104.937E-03     209.134E-03    -105.038E-03     6.81766E-03
             193     433.334E-09     26.1038E-03    -84.2893E+06    -233.430E+06    -84.4381E+06    -8.95614E+03    -104.326E-03     208.325E-03    -103.999E-03     6.62909E-03    -104.288E-03     207.406E-03    -103.961E-03     6.46074E-03
             194     70.6523E-09     24.9379E-03    -84.0434E+06    -232.516E+06    -83.8464E+06     427.537E+03    -103.340E-03     206.594E-03    -103.254E-03     6.87343E-03    -103.304E-03     205.678E-03    -103.215E-03     6.71910E-03
             195    -452.872E-09     23.7739E-03    -82.6393E+06    -230.997E+06    -82.5961E+06     361.023E+03    -102.437E-03     204.876E-03    -102.439E-03     6.35833E-03    -102.398E-03     203.964E-03    -102.397E-03     6.20671E-03
             196     817.985E-09     22.6133E-03    -82.5443E+06    -230.150E+06    -82.2500E+06    -13.6538E+03    -101.930E-03     203.210E-03    -101.280E-03     6.09380E-03    -101.892E-03     202.301E-03    -101.237E-03     5.93752E-03
             197    -135.633E-09     21.4524E-03    -82.5673E+06    -229.507E+06    -82.5631E+06     132.330E+03    -100.955E-03     201.621E-03    -100.665E-03     6.39548E-03    -100.918E-03     200.715E-03    -100.626E-03     6.24646E-03
             198    -91.3109E-09     20.2948E-03    -83.0573E+06    -229.254E+06    -83.0653E+06     183.310E+03    -99.9239E-03     199.792E-03    -99.8680E-03     5.42930E-03    -99.8880E-03     198.889E-03    -99.8305E-03     5.29077E-03
             199     398.288E-09     19.1404E-03    -82.3828E+06    -228.344E+06    -82.5574E+06    -12.4642E+03    -98.9129E-03     197.618E-03    -98.7047E-03     4.57887E-03    -98.8755E-03     196.717E-03    -98.6669E-03     4.43860E-03
             200    -374.786E-09     17.9870E-03    -80.9412E+06    -226.309E+06    -81.3523E+06     219.672E+03    -97.3092E-03     194.726E-03    -97.4168E-03     3.99481E-03    -97.2692E-03     193.832E-03    -97.3781E-03     3.86155E-03
             201     166.996E-09     16.8379E-03    -80.6083E+06    -223.821E+06    -81.2421E+06    -135.030E+03    -95.2314E-03     190.650E-03    -95.4190E-03     3.47733E-03    -95.1933E-03     189.768E-03    -95.3837E-03     3.35342E-03
             202    -274.464E-09     15.6949E-03    -82.5479E+06    -223.293E+06    -82.7102E+06    -313.120E+03    -92.7030E-03     185.526E-03    -92.8227E-03     2.64791E-03    -92.6731E-03     184.650E-03    -92.7928E-03     2.53405E-03
             203     184.775E-09     14.5575E-03    -81.6398E+06    -221.120E+06    -82.1666E+06     938.693E+03    -89.6110E-03     179.275E-03    -89.6641E-03     1.83864E-03    -89.5804E-03     178.408E-03    -89.6360E-03     1.75506E-03
             204    -183.977E-09     13.4282E-03    -78.0213E+06    -214.924E+06    -78.1356E+06     1.92540E+06    -85.8867E-03     171.581E-03    -85.6948E-03     1.23803E-03    -85.8528E-03     170.734E-03    -85.6607E-03     1.18145E-03
             205     507.079E-09     12.3078E-03    -77.4268E+06    -206.738E+06    -77.1599E+06     2.56814E+06    -81.5497E-03     162.614E-03    -81.0639E-03     808.931E-06    -81.5261E-03     161.804E-03    -81.0377E-03     774.852E-06
             206    -11.9682E-09     11.1992E-03    -75.0050E+06    -197.079E+06    -74.3708E+06     2.57059E+06    -76.9074E-03     153.395E-03    -76.4881E-03     551.937E-06    -76.8896E-03     152.627E-03    -76.4654E-03     528.456E-06
             207     229.872E-09     10.0992E-03    -70.0629E+06    -189.226E+06    -69.5509E+06     1.53899E+06    -72.5331E-03     144.596E-03    -72.0630E-03     213.916E-06    -72.5089E-03     143.853E-03    -72.0348E-03     179.637E-06
             208     353.342E-09     9.00966E-03    -69.0936E+06    -185.715E+06    -67.7333E+06     221.457E+03    -69.0466E-03     137.500E-03    -68.4537E-03     730.335E-06    -69.0249E-03     136.771E-03    -68.4229E-03     679.926E-06
             209     77.7413E-09     7.92574E-03    -66.1914E+06    -187.411E+06    -65.3107E+06    -999.184E+03    -67.5857E-03     134.834E-03    -67.2484E-03     1.86072E-03    -67.5505E-03     134.089E-03    -67.2072E-03     1.79341E-03
             210     68.0017E-09     6.84194E-03    -62.1410E+06    -190.066E+06    -61.9244E+06    -415.219E+03    -69.5385E-03     139.101E-03    -69.5621E-03     3.84158E-03    -69.4851E-03     138.331E-03    -69.5060E-03     3.78480E-03
             211    -248.208E-09     5.74830E-03    -61.7371E+06    -193.470E+06    -60.8014E+06    -905.686E+03    -75.2816E-03     150.808E-03    -75.5268E-03     5.52343E-03    -75.2244E-03     150.018E-03    -75.4608E-03     5.46180E-03
             212     38.7230E-09     4.63902E-03    -61.3421E+06    -199.518E+06    -62.5809E+06    -1.60231E+06    -83.7155E-03     167.840E-03    -84.1243E-03     6.11429E-03    -83.6462E-03     167.020E-03    -84.0589E-03     6.03949E-03
             213    -498.871E-09     3.50798E-03    -58.4941E+06    -201.887E+06    -59.2117E+06     433.625E+03    -93.4848E-03     187.323E-03    -93.8378E-03     5.95508E-03    -93.4028E-03     186.481E-03    -93.7563E-03     5.90559E-03
             214     392.746E-09     2.35343E-03    -52.1448E+06    -199.803E+06    -51.9972E+06     502.928E+03    -102.511E-03     205.015E-03    -102.505E-03     4.65377E-03    -102.408E-03     204.166E-03    -102.399E-03     4.61437E-03
             215    -264.129E-09     1.18137E-03    -48.2510E+06    -199.153E+06    -48.4246E+06     47.5392E+03    -108.464E-03     216.685E-03    -108.221E-03     2.52178E-03    -108.346E-03     215.829E-03    -108.104E-03     2.49652E-03
             216     805.041E-06     1.72085E-15    -47.2154E+06    -198.809E+06    -46.7147E+06    -141.601E+03    -110.487E-03     220.773E-03    -110.286E-03     2.41648E-03    -110.366E-03     219.916E-03    -110.163E-03     2.39083E-03
             217     1.61027E-03     1.72085E-15    -46.5444E+06    -197.465E+06    -44.9317E+06     71.6436E+03    -110.459E-03     220.870E-03    -110.410E-03     4.28829E-03    -110.341E-03     220.015E-03    -110.281E-03     4.24377E-03
             218     2.41543E-03     1.72085E-15    -46.5310E+06    -196.485E+06    -43.4385E+06     949.754E+03    -110.338E-03     220.761E-03    -110.423E-03     6.07597E-03    -110.224E-03     219.910E-03    -110.288E-03     6.01849E-03
             219     3.22058E-03     1.72085E-15    -45.8251E+06    -195.734E+06    -43.3350E+06    -782.316E+03    -110.085E-03     220.465E-03    -110.379E-03     8.18761E-03    -109.969E-03     219.617E-03    -110.246E-03     8.08150E-03
             220     4.02610E-03     1.72085E-15    -44.3709E+06    -189.762E+06    -45.1200E+06    -1.05617E+06    -109.856E-03     220.142E-03    -110.286E-03     10.2677E-03    -109.739E-03     219.324E-03    -110.172E-03     10.1345E-03
             221     4.83183E-03     1.72085E-15    -42.6209E+06    -177.031E+06    -48.9990E+06    -2.56519E+06    -109.789E-03     219.961E-03    -110.172E-03     12.3635E-03    -109.677E-03     219.211E-03    -110.098E-03     12.1881E-03
             222     5.63738E-03     1.72085E-15    -37.2519E+06    -153.875E+06    -53.3460E+06    -7.74099E+06    -109.805E-03     219.859E-03    -110.054E-03     14.5866E-03    -109.695E-03     219.226E-03    -110.044E-03     14.3165E-03
             223     6.44277E-03     1.72085E-15    -28.4207E+06    -121.218E+06    -57.9053E+06    -9.27261E+06    -109.837E-03     219.773E-03    -109.935E-03     17.1675E-03    -109.726E-03     219.298E-03    -110.008E-03     16.8480E-03
             224     7.24795E-03     1.72085E-15    -20.2325E+06    -82.5856E+06    -60.2731E+06    -8.54040E+06    -110.134E-03     219.981E-03    -109.847E-03     19.5504E-03    -110.036E-03     219.693E-03    -110.000E-03     19.2051E-03
             225     8.05376E-03     1.72085E-15    -13.7140E+06    -34.6196E+06    -56.5835E+06    -7.58020E+06    -110.847E-03     220.681E-03    -109.834E-03     21.5847E-03    -110.794E-03     220.620E-03    -110.047E-03     21.2056E-03
             226     8.85744E-03     1.72085E-15    -10.7891E+06     4.33155E+06    -35.1791E+06    -1.80614E+06    -112.081E-03     222.094E-03    -110.013E-03     24.7786E-03    -112.106E-03     222.198E-03    -110.180E-03     24.4187E-03
             227     9.65953E-03     1.72085E-15    -11.3737E+06     23.6174E+06    -4.30374E+06     1.50875E+06    -113.936E-03     224.324E-03    -110.388E-03     29.1354E-03    -114.044E-03     224.487E-03    -110.427E-03     28.7352E-03
             228     10.4596E-03     1.72085E-15    -10.8458E+06     34.9129E+06     17.8890E+06    -604.672E+03    -116.821E-03     227.701E-03    -110.880E-03     34.4905E-03    -116.985E-03     227.898E-03    -110.825E-03     33.9436E-03
             229     11.2567E-03     1.72085E-15    -8.02037E+06     44.9188E+06     43.1180E+06    -58.6511E+03    -120.719E-03     232.293E-03    -111.574E-03     36.8891E-03    -120.933E-03     232.513E-03    -111.411E-03     36.1808E-03
             230     12.0551E-03     1.72085E-15    -5.21126E+06     52.9048E+06     66.3082E+06     1.77137E+06    -126.902E-03     239.419E-03    -112.516E-03     43.3753E-03    -127.169E-03     239.660E-03    -112.254E-03     42.5067E-03
             231     12.8342E-03     1.72085E-15    -3.32825E+06     61.1908E+06     76.4337E+06     1.69574E+06    -139.736E-03     253.607E-03    -113.871E-03     63.0607E-03    -140.095E-03     253.948E-03    -113.573E-03     61.7064E-03
             232     13.6043E-03     1.72085E-15    -2.61601E+06     69.4933E+06     79.2841E+06     2.32504E+06    -161.318E-03     277.337E-03    -116.019E-03     84.1931E-03    -161.824E-03     277.853E-03    -115.719E-03     81.9386E-03
             233     14.3558E-03     1.72085E-15    -5.22538E+06     73.3005E+06     76.4760E+06     5.69922E+06    -195.471E-03     314.848E-03    -119.376E-03     112.436E-03    -196.363E-03     315.769E-03    -119.093E-03     108.159E-03
             234     15.0690E-03     1.72085E-15     2.95229E+06     90.9628E+06     85.5664E+06     6.38720E+06    -268.174E-03     393.036E-03    -124.862E-03     221.494E-03    -271.734E-03     396.671E-03    -124.570E-03     208.496E-03
             235     15.8841E-03     1.63525E-03     1.43738E+06     104.696E+06     82.5589E+06     1.54840E+06    -278.866E-03     403.295E-03    -124.429E-03     297.069E-03    -286.181E-03     410.724E-03    -124.170E-03     277.310E-03
             236     15.9545E-03     2.96656E-03    -8.54938E+06     96.6051E+06     65.4980E+06     2.70468E+06    -237.670E-03     356.203E-03    -118.532E-03     236.039E-03    -244.606E-03     363.242E-03    -118.332E-03     218.381E-03
             237     16.0043E-03     4.28934E-03    -3.50549E+06     93.9257E+06     66.0602E+06     4.85285E+06    -235.001E-03     350.457E-03    -115.457E-03     170.967E-03    -239.735E-03     355.317E-03    -115.257E-03     155.460E-03
             238     16.0229E-03     5.65667E-03    -2.00309E+06     97.1646E+06     69.8922E+06     1.39998E+06    -227.515E-03     341.486E-03    -113.970E-03     157.768E-03    -232.179E-03     346.296E-03    -113.759E-03     142.615E-03
             239     16.0394E-03     6.99253E-03    -1.69785E+06     99.0539E+06     75.1262E+06     289.643E+03    -214.520E-03     327.988E-03    -113.469E-03     161.366E-03    -219.659E-03     333.256E-03    -113.234E-03     146.672E-03
             240     16.0395E-03     8.28750E-03    -2.12533E+06     98.6472E+06     79.4212E+06     503.855E+03    -203.819E-03     317.267E-03    -113.448E-03     158.231E-03    -209.091E-03     322.651E-03    -113.191E-03     144.545E-03
             241     16.0404E-03     9.59045E-03    -1.78808E+06     98.8836E+06     81.5180E+06     1.07526E+06    -190.451E-03     304.112E-03    -113.661E-03     156.771E-03    -195.727E-03     309.496E-03    -113.394E-03     144.553E-03
             242     16.0454E-03     10.8538E-03    -1.96804E+06     99.5548E+06     81.8560E+06     709.072E+03    -172.961E-03     286.858E-03    -113.898E-03     157.592E-03    -178.349E-03     292.353E-03    -113.630E-03     147.126E-03
             243     16.0459E-03     12.0987E-03    -3.73911E+06     99.5176E+06     81.0958E+06     528.879E+03    -163.643E-03     277.581E-03    -113.937E-03     156.806E-03    -169.076E-03     283.117E-03    -113.671E-03     147.493E-03
             244     16.0513E-03     13.3500E-03    -440.437E+03     102.620E+06     84.8854E+06     1.20290E+06    -155.361E-03     269.249E-03    -113.889E-03     158.645E-03    -160.862E-03     274.868E-03    -113.612E-03     150.339E-03
             245     16.0566E-03     14.5844E-03    -455.872E+03     104.563E+06     85.8501E+06     680.396E+03    -146.807E-03     260.642E-03    -113.835E-03     163.364E-03    -152.652E-03     266.607E-03    -113.557E-03     155.895E-03
             246     16.0575E-03     15.8061E-03    -2.19125E+06     105.744E+06     84.6600E+06     236.320E+03    -143.906E-03     257.615E-03    -113.708E-03     165.225E-03    -149.948E-03     263.779E-03    -113.435E-03     158.197E-03
             247     16.0625E-03     17.0348E-03    -1.01510E+06     107.689E+06     85.9962E+06     560.446E+03    -141.107E-03     254.677E-03    -113.569E-03     167.953E-03    -147.280E-03     260.979E-03    -113.294E-03     161.298E-03
             248     16.0651E-03     18.2553E-03    -2.97237E+06     107.652E+06     85.3018E+06     430.382E+03    -139.429E-03     252.878E-03    -113.449E-03     170.359E-03    -145.839E-03     259.412E-03    -113.174E-03     163.914E-03
             249     16.0651E-03     19.4701E-03    -2.94701E+06     108.220E+06     85.6038E+06     761.798E+03    -138.951E-03     252.311E-03    -113.360E-03     167.685E-03    -145.352E-03     258.838E-03    -113.085E-03     161.466E-03
             250     16.0685E-03     20.6903E-03    -1.66220E+06     109.534E+06     87.6452E+06    -50.3836E+03    -135.240E-03     248.553E-03    -113.312E-03     170.989E-03    -141.771E-03     255.213E-03    -113.030E-03     165.148E-03
             251     16.0714E-03     21.9047E-03    -255.790E+03     109.237E+06     88.5775E+06    -419.818E+03    -133.269E-03     246.528E-03    -113.260E-03     176.409E-03    -140.113E-03     253.503E-03    -112.975E-03     170.735E-03
             252     16.0693E-03     23.1151E-03    -3.52613E+06     106.166E+06     85.1295E+06    -1.40600E+06    -133.149E-03     246.356E-03    -113.207E-03     176.529E-03    -140.077E-03     253.401E-03    -112.930E-03     170.950E-03
             253     16.0735E-03     24.3230E-03    -1.36069E+06     109.748E+06     88.4220E+06    -846.783E+03    -131.582E-03     244.749E-03    -113.167E-03     178.499E-03    -138.554E-03     251.850E-03    -112.882E-03     173.194E-03
             254     16.0730E-03     25.5366E-03    -642.922E+03     111.838E+06     90.1176E+06     1.86741E+06    -129.558E-03     242.740E-03    -113.183E-03     179.151E-03    -136.635E-03     249.952E-03    -112.893E-03     174.183E-03
             255     16.0722E-03     26.7364E-03    -4.91328E+06     109.027E+06     86.1186E+06     1.62944E+06    -128.133E-03     241.372E-03    -113.239E-03     178.771E-03    -135.304E-03     248.663E-03    -112.960E-03     174.049E-03
             256     16.0722E-03     27.9382E-03    -1.88779E+06     112.182E+06     88.5083E+06     1.03545E+06    -125.690E-03     238.952E-03    -113.262E-03     179.642E-03    -132.892E-03     246.289E-03    -112.979E-03     175.208E-03
             257     16.0758E-03     29.1441E-03    -2.12128E+06     112.767E+06     88.6839E+06     262.486E+03    -123.034E-03     236.301E-03    -113.267E-03     181.473E-03    -130.382E-03     243.784E-03    -112.984E-03     177.281E-03
             258     16.0726E-03     30.3323E-03    -2.10678E+06     112.694E+06     88.6458E+06     181.822E+03    -122.866E-03     236.105E-03    -113.240E-03     179.137E-03    -130.146E-03     243.521E-03    -112.957E-03     175.062E-03
             259     16.0770E-03     31.5333E-03    -1.59738E+06     113.049E+06     88.5384E+06     87.3174E+03    -122.740E-03     235.933E-03    -113.192E-03     179.121E-03    -129.972E-03     243.304E-03    -112.911E-03     175.101E-03
             260     16.0745E-03     32.7362E-03    -1.90757E+06     112.718E+06     88.2745E+06    -175.097E+03    -122.242E-03     235.445E-03    -113.203E-03     183.230E-03    -129.722E-03     243.062E-03    -112.922E-03     179.231E-03
             261     16.0755E-03     33.9301E-03    -3.01902E+06     112.413E+06     87.9228E+06    -290.209E+03    -121.382E-03     234.619E-03    -113.237E-03     183.178E-03    -128.913E-03     242.283E-03    -112.956E-03     179.354E-03
             262     16.0752E-03     35.1225E-03    -2.65298E+06     112.640E+06     88.0899E+06    -333.773E+03    -119.631E-03     232.871E-03    -113.241E-03     182.758E-03    -127.104E-03     240.480E-03    -112.960E-03     179.181E-03
             263     16.0774E-03     36.3200E-03    -2.12868E+06     113.470E+06     88.8028E+06     9.20637E+03    -118.582E-03     231.820E-03    -113.238E-03     184.353E-03    -126.124E-03     239.500E-03    -112.956E-03     180.926E-03
             264     16.0754E-03     37.5086E-03    -2.19469E+06     113.344E+06     88.6372E+06     275.034E+03    -118.376E-03     231.633E-03    -113.258E-03     183.654E-03    -125.904E-03     239.299E-03    -112.976E-03     180.315E-03
             265     16.0761E-03     38.7024E-03    -1.96203E+06     113.437E+06     88.7191E+06     263.776E+03    -116.795E-03     230.096E-03    -113.301E-03     182.604E-03    -124.275E-03     237.714E-03    -113.020E-03     179.438E-03
             266     16.0764E-03     39.8883E-03    -2.39601E+06     113.804E+06     88.9523E+06    -318.118E+03    -115.720E-03     229.019E-03    -113.299E-03     183.347E-03    -123.280E-03     236.717E-03    -113.016E-03     180.281E-03
             267     16.0772E-03     41.0786E-03    -2.21559E+06     114.385E+06     89.5619E+06     321.355E+03    -117.100E-03     230.347E-03    -113.247E-03     183.492E-03    -124.672E-03     238.058E-03    -112.962E-03     180.347E-03
             268     16.0765E-03     42.2737E-03    -1.06671E+06     115.072E+06     89.1945E+06     515.763E+03    -116.938E-03     230.190E-03    -113.251E-03     183.691E-03    -124.470E-03     237.867E-03    -112.971E-03     180.531E-03
             269     16.0768E-03     43.4604E-03    -2.99913E+06     112.881E+06     86.7943E+06    -2.15795E+06    -115.463E-03     228.716E-03    -113.252E-03     183.046E-03    -122.982E-03     236.372E-03    -112.977E-03     179.929E-03
             270     16.0786E-03     44.6430E-03    -2.90303E+06     113.734E+06     89.4957E+06    -1.54122E+06    -118.278E-03     231.481E-03    -113.203E-03     182.256E-03    -125.805E-03     239.142E-03    -112.916E-03     179.005E-03
             271     16.0739E-03     45.8526E-03    -1.66137E+06     115.061E+06     91.2661E+06     2.27141E+06    -118.741E-03     232.004E-03    -113.263E-03     183.696E-03    -126.323E-03     239.725E-03    -112.971E-03     180.470E-03
             272     16.0776E-03     47.0331E-03    -2.45701E+06     113.536E+06     88.7521E+06     1.45053E+06    -115.024E-03     228.384E-03    -113.360E-03     185.317E-03    -122.645E-03     236.142E-03    -113.077E-03     182.380E-03
             273     16.0744E-03     48.2189E-03    -3.01990E+06     113.182E+06     88.3047E+06    -1.54073E+06    -114.333E-03     227.667E-03    -113.333E-03     184.547E-03    -121.939E-03     235.408E-03    -113.052E-03     181.659E-03
             274     16.0797E-03     49.4113E-03    -1.03083E+06     115.623E+06     91.1182E+06    -1.50950E+06    -114.897E-03     228.175E-03    -113.278E-03     185.307E-03    -122.554E-03     235.975E-03    -112.989E-03     182.359E-03
             275     16.0755E-03     50.5962E-03    -2.11819E+06     114.581E+06     90.2689E+06     479.856E+03    -115.680E-03     228.938E-03    -113.257E-03     184.213E-03    -123.271E-03     236.665E-03    -112.969E-03     181.232E-03
             276     16.0786E-03     51.7875E-03    -3.43003E+06     112.903E+06     89.0715E+06     639.278E+03    -116.715E-03     229.978E-03    -113.263E-03     183.619E-03    -124.269E-03     237.663E-03    -112.976E-03     180.557E-03
             277     16.0744E-03     52.9777E-03    -1.55392E+06     114.480E+06     90.6178E+06     992.868E+03    -116.275E-03     229.581E-03    -113.306E-03     183.845E-03    -123.846E-03     237.290E-03    -113.017E-03     180.837E-03
             278     16.0778E-03     54.1675E-03    -2.81468E+06     113.467E+06     89.2738E+06     772.985E+03    -114.901E-03     228.243E-03    -113.342E-03     183.783E-03    -122.474E-03     235.950E-03    -113.056E-03     180.909E-03
             279     16.0749E-03     55.3500E-03    -2.34985E+06     114.104E+06     90.0775E+06    -171.505E+03    -115.221E-03     228.549E-03    -113.328E-03     183.749E-03    -122.834E-03     236.297E-03    -113.040E-03     180.817E-03
             280     16.0778E-03     56.5464E-03    -2.48726E+06     115.063E+06     90.1535E+06     438.534E+03    -115.904E-03     229.201E-03    -113.297E-03     184.884E-03    -123.561E-03     236.996E-03    -113.010E-03     181.868E-03
             281     16.0759E-03     57.7311E-03    -2.24745E+06     116.138E+06     90.4779E+06     309.080E+03    -115.040E-03     228.343E-03    -113.303E-03     183.413E-03    -122.643E-03     236.089E-03    -113.016E-03     180.476E-03
             282     16.0776E-03     58.9185E-03    -3.47948E+06     115.283E+06     89.6533E+06     142.157E+03    -115.771E-03     229.075E-03    -113.304E-03     182.338E-03    -123.356E-03     236.797E-03    -113.018E-03     179.378E-03
             283     16.0746E-03     60.1101E-03    -2.62935E+06     115.819E+06     90.2081E+06     89.4272E+03    -116.021E-03     229.324E-03    -113.303E-03     183.463E-03    -123.625E-03     237.069E-03    -113.016E-03     180.442E-03
             284     16.0787E-03     61.3016E-03    -1.56314E+06     116.241E+06     90.6367E+06    -51.1023E+03    -114.148E-03     227.463E-03    -113.314E-03     183.897E-03    -121.743E-03     235.202E-03    -113.027E-03     181.016E-03
             285     16.0759E-03     62.4797E-03    -2.72575E+06     114.987E+06     89.7642E+06    -1.18369E+06    -114.906E-03     228.159E-03    -113.254E-03     182.467E-03    -122.421E-03     235.813E-03    -112.968E-03     179.507E-03
             286     16.0798E-03     63.6755E-03    -1.04798E+06     117.354E+06     92.7923E+06    -1.55062E+06    -117.205E-03     230.426E-03    -113.221E-03     180.824E-03    -124.674E-03     238.038E-03    -112.925E-03     177.648E-03
             287     16.0735E-03     64.8682E-03    -2.50232E+06     116.285E+06     91.7786E+06     867.401E+03    -116.298E-03     229.588E-03    -113.291E-03     182.045E-03    -123.806E-03     237.235E-03    -112.997E-03     179.026E-03
             288     16.0794E-03     66.0534E-03    -2.81026E+06     115.081E+06     90.3153E+06     914.072E+03    -114.520E-03     227.830E-03    -113.309E-03     183.716E-03    -122.039E-03     235.485E-03    -113.020E-03     180.875E-03
             289     16.0756E-03     67.2414E-03    -1.45764E+06     116.102E+06     91.8570E+06     15.1797E+03    -115.134E-03     228.413E-03    -113.278E-03     183.927E-03    -122.688E-03     236.107E-03    -112.985E-03     181.009E-03
             290     16.0785E-03     68.4350E-03    -2.23746E+06     115.880E+06     91.6377E+06     64.0567E+03    -115.296E-03     228.599E-03    -113.302E-03     184.465E-03    -122.932E-03     236.372E-03    -113.009E-03     181.547E-03
             291     16.0747E-03     69.6173E-03    -2.29884E+06     116.116E+06     91.0464E+06     283.105E+03    -115.133E-03     228.465E-03    -113.331E-03     184.055E-03    -122.738E-03     236.209E-03    -113.041E-03     181.180E-03
             292     803.597E-06     68.7467E-03    -86.6803E+06    -238.630E+06    -85.5413E+06    -12.1356E+03    -113.634E-03     226.943E-03    -113.309E-03     15.0042E-03    -113.610E-03     226.012E-03    -113.265E-03     14.6507E-03
             293     1.60699E-03     68.7698E-03    -84.4794E+06    -234.245E+06    -78.7482E+06     60.6769E+03    -113.597E-03     227.058E-03    -113.461E-03     27.2201E-03    -113.606E-03     226.163E-03    -113.392E-03     26.5611E-03
             294     2.41053E-03     68.8079E-03    -81.1203E+06    -227.628E+06    -68.7239E+06     55.4999E+03    -113.749E-03     227.229E-03    -113.480E-03     40.1309E-03    -113.812E-03     226.395E-03    -113.376E-03     39.1314E-03
             295     3.21426E-03     68.8600E-03    -76.8667E+06    -220.492E+06    -58.2856E+06    -53.0027E+03    -114.001E-03     227.497E-03    -113.496E-03     52.9908E-03    -114.139E-03     226.749E-03    -113.356E-03     51.6160E-03
             296     4.01777E-03     68.9268E-03    -71.9546E+06    -206.458E+06    -47.3445E+06     67.0150E+03    -114.302E-03     227.806E-03    -113.504E-03     65.7802E-03    -114.551E-03     227.204E-03    -113.337E-03     63.9990E-03
             297     4.82155E-03     69.0074E-03    -66.9009E+06    -187.214E+06    -36.7080E+06     289.739E+03    -114.658E-03     228.160E-03    -113.502E-03     78.3443E-03    -115.058E-03     227.765E-03    -113.317E-03     76.1117E-03
             298     5.62517E-03     69.1021E-03    -61.9167E+06    -170.108E+06    -27.9554E+06     314.116E+03    -115.063E-03     228.559E-03    -113.496E-03     90.6705E-03    -115.652E-03     228.406E-03    -113.299E-03     87.9279E-03
             299     6.42882E-03     69.2101E-03    -57.2754E+06    -151.665E+06    -20.7274E+06     334.033E+03    -115.454E-03     228.935E-03    -113.480E-03     102.875E-03    -116.287E-03     229.085E-03    -113.281E-03     99.5619E-03
             300     7.23278E-03     69.3319E-03    -52.9255E+06    -128.041E+06    -14.5676E+06     325.115E+03    -115.894E-03     229.346E-03    -113.452E-03     115.080E-03    -117.047E-03     229.898E-03    -113.262E-03     111.123E-03
             301     8.03627E-03     69.4666E-03    -48.7166E+06    -103.022E+06    -8.39294E+06     332.970E+03    -116.352E-03     229.776E-03    -113.424E-03     127.455E-03    -117.920E-03     230.830E-03    -113.246E-03     122.761E-03
             302     8.84028E-03     69.6157E-03    -44.9213E+06    -71.8159E+06    -3.14649E+06     389.041E+03    -116.744E-03     230.129E-03    -113.385E-03     140.257E-03    -118.862E-03     231.842E-03    -113.231E-03     134.726E-03
             303     9.64385E-03     69.7782E-03    -41.1927E+06    -26.0712E+06     2.70348E+06     237.942E+03    -117.087E-03     230.414E-03    -113.326E-03     153.799E-03    -119.952E-03     233.031E-03    -113.215E-03     147.308E-03
             304     10.4479E-03     69.9561E-03    -37.2417E+06     23.0652E+06     10.8258E+06     10.6389E+03    -117.477E-03     230.745E-03    -113.268E-03     171.211E-03    -121.423E-03     234.609E-03    -113.193E-03     163.562E-03
             305     11.2517E-03     70.1566E-03    -33.1362E+06     53.8654E+06     26.7835E+06     188.142E+03    -118.636E-03     231.900E-03    -113.264E-03     199.594E-03    -124.342E-03     237.602E-03    -113.161E-03     190.434E-03
             306     12.0562E-03     70.3981E-03    -27.9324E+06     70.4185E+06     53.2601E+06     662.849E+03    -121.382E-03     234.717E-03    -113.335E-03     241.646E-03    -130.066E-03     243.398E-03    -113.130E-03     230.468E-03
             307     12.8598E-03     70.6937E-03    -22.2747E+06     85.7766E+06     77.1985E+06     281.036E+03    -124.356E-03     237.762E-03    -113.406E-03     286.291E-03    -137.170E-03     250.577E-03    -113.112E-03     273.184E-03
             308     13.6646E-03     71.0393E-03    -17.5588E+06     99.6995E+06     88.4968E+06    -289.876E+03    -125.278E-03     238.690E-03    -113.413E-03     314.812E-03    -142.075E-03     255.523E-03    -113.089E-03     301.450E-03
             309     14.4668E-03     71.4017E-03    -12.5311E+06     116.638E+06     92.5256E+06    -61.6584E+03    -124.819E-03     238.184E-03    -113.365E-03     329.751E-03    -145.368E-03     258.834E-03    -113.053E-03     318.383E-03
             310     15.2758E-03     71.7913E-03    -5.62113E+06     121.169E+06     93.1775E+06    -117.185E+03    -120.074E-03     233.393E-03    -113.320E-03     259.758E-03    -135.128E-03     248.588E-03    -113.021E-03     253.312E-03
             311     803.429E-06     69.9352E-03    -86.5071E+06    -238.482E+06     -85.293E+06    -110.159E+03    -113.611E-03     227.003E-03    -113.392E-03     14.9663E-03    -113.586E-03     226.073E-03    -113.347E-03     14.6112E-03
             312     1.60700E-03     69.9587E-03    -84.4926E+06    -234.379E+06    -78.8927E+06    -39.1343E+03    -113.593E-03     227.076E-03    -113.483E-03     27.2021E-03    -113.601E-03     226.181E-03    -113.415E-03     26.5411E-03
             313     2.41061E-03     69.9963E-03    -81.0497E+06    -227.713E+06    -68.8023E+06     90.8589E+03    -113.735E-03     227.226E-03    -113.491E-03     40.1464E-03    -113.797E-03     226.392E-03    -113.388E-03     39.1469E-03
             314     3.21412E-03     70.0488E-03    -76.6972E+06    -220.260E+06    -57.9070E+06     52.0973E+03    -114.010E-03     227.515E-03    -113.504E-03     53.0331E-03    -114.149E-03     226.767E-03    -113.363E-03     51.6598E-03
             315     4.01782E-03     70.1152E-03    -71.8520E+06    -206.681E+06    -47.1575E+06    -19.4487E+03    -114.332E-03     227.846E-03    -113.514E-03     65.7311E-03    -114.580E-03     227.243E-03    -113.346E-03     63.9467E-03
             316     4.82142E-03     70.1961E-03    -66.8310E+06    -187.770E+06    -36.8364E+06     228.271E+03    -114.667E-03     228.181E-03    -113.514E-03     78.2901E-03    -115.066E-03     227.783E-03    -113.329E-03     76.0561E-03
             317     5.62511E-03     70.2907E-03    -62.0216E+06    -170.366E+06    -27.9879E+06     444.300E+03    -115.073E-03     228.581E-03    -113.508E-03     90.6351E-03    -115.662E-03     228.426E-03    -113.311E-03     87.8943E-03
             318     6.42883E-03     70.3989E-03    -57.3204E+06    -151.442E+06    -20.3462E+06     343.593E+03    -115.507E-03     229.003E-03    -113.496E-03     102.815E-03    -116.340E-03     229.154E-03    -113.295E-03     99.4991E-03
             319     7.23242E-03     70.5202E-03    -52.7708E+06    -127.827E+06    -14.2132E+06     351.550E+03    -115.941E-03     229.413E-03    -113.471E-03     115.057E-03    -117.094E-03     229.965E-03    -113.281E-03     111.097E-03
             320     8.03631E-03     70.6558E-03    -48.7212E+06    -103.463E+06    -8.30496E+06     304.823E+03    -116.347E-03     229.791E-03    -113.444E-03     127.443E-03    -117.915E-03     230.844E-03    -113.265E-03     122.745E-03
             321     8.83984E-03     70.8039E-03    -44.7237E+06    -72.0737E+06    -3.02663E+06     389.994E+03    -116.687E-03     230.087E-03    -113.400E-03     140.211E-03    -118.804E-03     231.798E-03    -113.246E-03     134.681E-03
             322     9.64410E-03     70.9672E-03    -40.9201E+06    -25.9806E+06     2.70135E+06     343.153E+03    -116.950E-03     230.282E-03    -113.331E-03     153.720E-03    -119.810E-03     232.897E-03    -113.221E-03     147.240E-03
             323     10.4477E-03     71.1449E-03    -37.4837E+06     23.2355E+06     11.0525E+06    -80.4106E+03    -117.453E-03     230.721E-03    -113.269E-03     171.112E-03    -121.402E-03     234.588E-03    -113.193E-03     163.462E-03
             324     11.2520E-03     71.3454E-03    -33.5477E+06     53.9438E+06     27.0999E+06    -98.7006E+03    -118.783E-03     232.055E-03    -113.272E-03     199.342E-03    -124.496E-03     237.762E-03    -113.166E-03     190.160E-03
             325     12.0559E-03     71.5864E-03    -28.7582E+06     69.6658E+06     52.8577E+06     379.836E+03    -121.414E-03     234.762E-03    -113.347E-03     241.806E-03    -130.102E-03     243.441E-03    -113.142E-03     230.625E-03
             326     12.8597E-03     71.8842E-03    -23.5450E+06     85.7912E+06     76.4178E+06     1.16285E+06    -124.145E-03     237.554E-03    -113.409E-03     286.292E-03    -136.941E-03     250.349E-03    -113.117E-03     273.239E-03
             327     13.6633E-03     72.2256E-03    -17.3869E+06     101.245E+06     88.9656E+06     958.834E+03    -125.203E-03     238.609E-03    -113.406E-03     314.885E-03    -141.972E-03     255.418E-03    -113.083E-03     301.571E-03
             328     14.4697E-03     72.5933E-03    -10.1025E+06     117.460E+06     94.6696E+06    -254.768E+03    -124.861E-03     238.222E-03    -113.361E-03     329.835E-03    -145.344E-03     258.812E-03    -113.043E-03     318.482E-03
             329     15.2701E-03     72.9742E-03    -4.41863E+06     120.762E+06     94.1047E+06    -518.852E+03    -120.199E-03     233.515E-03    -113.316E-03     259.618E-03    -135.223E-03     248.679E-03    -113.014E-03     253.177E-03
             330     803.480E-06     71.1241E-03    -86.7065E+06    -238.508E+06    -85.0598E+06     59.8500E+03    -113.531E-03     227.011E-03    -113.480E-03     14.9419E-03    -113.508E-03     226.080E-03    -113.433E-03     14.5890E-03
             331     1.60698E-03     71.1472E-03    -84.5806E+06    -234.331E+06    -78.6294E+06    -52.4170E+03    -113.583E-03     227.069E-03    -113.486E-03     27.1957E-03    -113.592E-03     226.173E-03    -113.416E-03     26.5344E-03
             332     2.41052E-03     71.1851E-03    -81.1271E+06    -227.890E+06    -68.9811E+06    -28.0000E+03    -113.774E-03     227.269E-03    -113.495E-03     40.1153E-03    -113.836E-03     226.435E-03    -113.392E-03     39.1139E-03
             333     3.21423E-03     71.2372E-03     -76.622E+06    -220.266E+06    -57.9562E+06     144.887E+03    -114.046E-03     227.563E-03    -113.517E-03     53.0090E-03    -114.184E-03     226.815E-03    -113.377E-03     51.6367E-03
             334     4.01768E-03     71.3042E-03    -71.8677E+06    -206.554E+06    -46.7740E+06     129.235E+03    -114.366E-03     227.900E-03    -113.534E-03     65.6987E-03    -114.615E-03     227.296E-03    -113.364E-03     63.9149E-03
             335     4.82130E-03     71.3846E-03    -66.9545E+06    -188.203E+06    -36.7474E+06     166.605E+03    -114.697E-03     228.233E-03    -113.536E-03     78.2486E-03    -115.096E-03     227.833E-03    -113.350E-03     76.0114E-03
             336     5.62502E-03     71.4795E-03    -61.8844E+06    -170.734E+06    -27.9564E+06     465.827E+03    -115.077E-03     228.606E-03    -113.529E-03     90.6011E-03    -115.664E-03     228.448E-03    -113.331E-03     87.8606E-03
             337     6.42867E-03     71.5874E-03    -57.1955E+06    -151.242E+06    -20.1921E+06     480.088E+03    -115.529E-03     229.045E-03    -113.516E-03     102.829E-03    -116.363E-03     229.197E-03    -113.315E-03     99.5142E-03
             338     7.23233E-03     71.7094E-03    -52.9607E+06    -127.898E+06    -14.2158E+06     315.301E+03    -115.953E-03     229.444E-03    -113.491E-03     115.121E-03    -117.108E-03     229.998E-03    -113.300E-03     111.158E-03
             339     8.03597E-03     71.8440E-03    -48.6050E+06    -103.263E+06    -8.10048E+06     218.381E+03    -116.353E-03     229.816E-03    -113.463E-03     127.493E-03    -117.923E-03     230.870E-03    -113.283E-03     122.793E-03
             340     8.84002E-03     71.9932E-03    -44.3739E+06    -72.3458E+06    -2.84953E+06     180.144E+03    -116.685E-03     230.103E-03    -113.418E-03     140.145E-03    -118.801E-03     231.813E-03    -113.263E-03     134.609E-03
             341     9.64345E-03     72.1555E-03    -40.6714E+06    -26.0714E+06     2.78081E+06     495.789E+03    -116.917E-03     230.263E-03    -113.346E-03     153.629E-03    -119.776E-03     232.876E-03    -113.235E-03     147.153E-03
             342     10.4481E-03     72.3335E-03    -37.1633E+06     24.0568E+06     11.7526E+06     646.173E+03    -117.446E-03     230.728E-03    -113.282E-03     171.038E-03    -121.391E-03     234.593E-03    -113.205E-03     163.403E-03
             343     11.2515E-03     72.5346E-03    -33.7609E+06     53.9956E+06     28.0215E+06     370.609E+03    -118.829E-03     232.119E-03    -113.290E-03     199.312E-03    -124.549E-03     237.829E-03    -113.179E-03     190.131E-03
             344     12.0552E-03     72.7751E-03    -29.8102E+06     68.4580E+06     52.6113E+06     845.491E+03    -121.307E-03     234.666E-03    -113.359E-03     241.970E-03    -129.987E-03     243.330E-03    -113.152E-03     230.817E-03
             345     12.8601E-03     73.0723E-03    -23.5521E+06     85.4467E+06     76.3016E+06     781.457E+03    -123.999E-03     237.406E-03    -113.407E-03     286.337E-03    -136.764E-03     250.169E-03    -113.115E-03     273.317E-03
             346     13.6649E-03     73.4157E-03    -15.8366E+06     102.673E+06     89.7139E+06    -246.687E+03    -125.300E-03     238.704E-03    -113.404E-03     314.351E-03    -142.039E-03     255.491E-03    -113.081E-03     300.996E-03
             347     14.4676E-03     73.7797E-03    -9.54201E+06     117.960E+06     94.8047E+06    -285.091E+03    -125.025E-03     238.399E-03    -113.374E-03     328.880E-03    -145.528E-03     259.012E-03    -113.057E-03     317.453E-03
             348     15.2752E-03     74.1673E-03    -5.20560E+06     120.265E+06     93.9188E+06     38.2617E+03    -119.916E-03     233.252E-03    -113.336E-03     259.593E-03    -134.988E-03     248.460E-03    -113.033E-03     253.155E-03
             349     803.464E-06     72.3125E-03    -86.7850E+06    -238.684E+06    -85.3252E+06     48.3874E+03    -113.528E-03     226.974E-03    -113.446E-03     14.8572E-03    -113.504E-03     226.043E-03    -113.401E-03     14.5043E-03
             350     1.60706E-03     72.3361E-03    -84.5302E+06    -234.260E+06    -78.5301E+06     89.7228E+03    -113.618E-03     227.097E-03    -113.479E-03     27.1844E-03    -113.627E-03     226.202E-03    -113.409E-03     26.5255E-03
             351     2.41059E-03     72.3735E-03    -81.1510E+06    -227.831E+06    -68.8376E+06      1.1205E+03    -113.838E-03     227.346E-03    -113.508E-03     40.1070E-03    -113.901E-03     226.512E-03    -113.404E-03     39.1052E-03
             352     3.21394E-03     72.4262E-03    -76.7366E+06    -220.522E+06    -58.1990E+06     44.4217E+03    -114.081E-03     227.620E-03    -113.539E-03     52.9929E-03    -114.219E-03     226.872E-03    -113.399E-03     51.6182E-03
             353     4.01766E-03     72.4926E-03    -71.9537E+06    -206.844E+06    -47.0853E+06     153.458E+03    -114.368E-03     227.923E-03    -113.555E-03     65.7285E-03    -114.617E-03     227.319E-03    -113.386E-03     63.9450E-03
             354     4.82123E-03     72.5737E-03    -66.9248E+06    -188.136E+06    -36.5451E+06     219.385E+03    -114.728E-03     228.285E-03    -113.557E-03     78.2622E-03    -115.128E-03     227.886E-03    -113.370E-03     76.0247E-03
             355     5.62479E-03     72.6678E-03    -61.8110E+06    -170.916E+06    -27.8643E+06     329.386E+03    -115.111E-03     228.663E-03    -113.552E-03     90.6322E-03    -115.699E-03     228.505E-03    -113.354E-03     87.8884E-03
             356     6.42851E-03     72.7766E-03    -57.0046E+06    -151.481E+06    -20.2867E+06     579.708E+03    -115.511E-03     229.047E-03    -113.536E-03     102.897E-03    -116.343E-03     229.198E-03    -113.335E-03     99.5849E-03
             357     7.23226E-03     72.8977E-03    -52.4473E+06    -127.534E+06    -13.7472E+06     474.364E+03    -115.947E-03     229.456E-03    -113.508E-03     115.098E-03    -117.101E-03     230.010E-03    -113.316E-03     111.136E-03
             358     8.03607E-03     73.0333E-03    -48.4156E+06    -103.085E+06    -7.81786E+06     140.180E+03    -116.351E-03     229.829E-03    -113.478E-03     127.515E-03    -117.921E-03     230.884E-03    -113.297E-03     122.813E-03
             359     8.83946E-03     73.1816E-03    -44.7802E+06    -72.5788E+06    -2.78567E+06     242.289E+03    -116.686E-03     230.118E-03    -113.432E-03     140.147E-03    -118.805E-03     231.828E-03    -113.276E-03     134.611E-03
             360     9.64394E-03     73.3443E-03    -41.2030E+06    -26.4168E+06     2.74360E+06     555.708E+03    -116.989E-03     230.351E-03    -113.362E-03     153.628E-03    -119.852E-03     232.966E-03    -113.250E-03     147.144E-03
             361     10.4471E-03     73.5223E-03    -37.5255E+06     23.6458E+06     11.3479E+06     728.130E+03    -117.449E-03     230.747E-03    -113.298E-03     171.223E-03    -121.393E-03     234.608E-03    -113.221E-03     163.595E-03
             362     11.2516E-03     73.7232E-03    -33.4707E+06     53.7068E+06     27.9652E+06     1.23860E+06    -118.749E-03     232.049E-03    -113.300E-03     199.488E-03    -124.463E-03     237.754E-03    -113.190E-03     190.333E-03
             363     12.0561E-03     73.9643E-03    -28.0556E+06     68.7083E+06     53.6167E+06     1.24954E+06    -121.239E-03     234.605E-03    -113.367E-03     241.531E-03    -129.904E-03     243.260E-03    -113.158E-03     230.388E-03
             364     12.8598E-03     74.2605E-03    -21.6619E+06     87.1576E+06     77.8439E+06     309.744E+03    -124.017E-03     237.433E-03    -113.416E-03     286.157E-03    -136.774E-03     250.197E-03    -113.122E-03     273.122E-03
             365     13.6633E-03     74.6040E-03    -16.1414E+06     102.859E+06     89.9633E+06     14.7984E+03    -125.348E-03     238.760E-03    -113.412E-03     314.713E-03    -142.114E-03     255.573E-03    -113.088E-03     301.359E-03
             366     14.4681E-03     74.9698E-03    -11.4264E+06     117.327E+06     93.3488E+06    -253.348E+03    -125.130E-03     238.505E-03    -113.375E-03     330.024E-03    -145.707E-03     259.188E-03    -113.062E-03     318.596E-03
             367     15.2686E-03     75.3523E-03    -5.29485E+06     120.470E+06     93.2495E+06    -393.954E+03    -119.950E-03     233.282E-03    -113.333E-03     260.063E-03    -135.052E-03     248.523E-03    -113.033E-03     253.625E-03
             368     803.539E-06     73.5016E-03    -86.5783E+06    -238.608E+06    -85.4529E+06    -171.840E+03    -113.578E-03     226.993E-03    -113.415E-03     14.7668E-03    -113.553E-03     226.062E-03    -113.371E-03     14.4130E-03
             369     1.60699E-03     73.5244E-03    -84.5027E+06    -234.365E+06    -78.7731E+06    -2.89209E+03    -113.656E-03     227.149E-03    -113.493E-03     27.1706E-03    -113.664E-03     226.254E-03    -113.425E-03     26.5102E-03
             370     2.41041E-03     73.5627E-03    -80.9806E+06    -227.774E+06    -68.8239E+06     53.8649E+03    -113.848E-03     227.376E-03    -113.527E-03     40.1370E-03    -113.911E-03     226.541E-03    -113.424E-03     39.1356E-03
             371     3.21408E-03     73.6146E-03    -76.7943E+06    -220.576E+06    -58.2219E+06    -14.9731E+03    -114.097E-03     227.654E-03    -113.557E-03     53.0161E-03    -114.235E-03     226.905E-03    -113.416E-03     51.6397E-03
             372     4.01749E-03     73.6816E-03    -71.7441E+06    -207.009E+06    -46.9855E+06     9.08942E+03    -114.392E-03     227.965E-03    -113.573E-03     65.7775E-03    -114.640E-03     227.360E-03    -113.404E-03     63.9919E-03
             373     4.82115E-03     73.7621E-03    -66.5891E+06    -188.284E+06    -36.5171E+06       177.6E+03    -114.737E-03     228.311E-03    -113.574E-03     78.3073E-03    -115.134E-03     227.910E-03    -113.387E-03     76.0699E-03
             374     5.62478E-03     73.8572E-03    -61.7102E+06    -171.051E+06    -27.8019E+06     241.801E+03    -115.130E-03     228.699E-03    -113.568E-03     90.6607E-03    -115.718E-03     228.540E-03    -113.370E-03     87.9136E-03
             375     6.42843E-03     73.9648E-03    -56.6675E+06    -151.817E+06    -20.1115E+06     259.506E+03    -115.545E-03     229.099E-03    -113.554E-03     102.930E-03    -116.376E-03     229.247E-03    -113.352E-03     99.6130E-03
             376     7.23208E-03     74.0871E-03    -51.9839E+06    -127.476E+06    -13.5869E+06     424.286E+03    -115.956E-03     229.481E-03    -113.525E-03     115.139E-03    -117.107E-03     230.035E-03    -113.333E-03     111.177E-03
             377     8.03569E-03     74.2216E-03    -47.9454E+06    -103.156E+06    -7.16126E+06     697.472E+03    -116.325E-03     229.820E-03    -113.495E-03     127.424E-03    -117.893E-03     230.873E-03    -113.312E-03     122.729E-03
             378     8.84002E-03     74.3707E-03    -44.3659E+06    -72.4728E+06    -2.15568E+06     825.467E+03    -116.704E-03     230.152E-03    -113.447E-03     140.104E-03    -118.822E-03     231.860E-03    -113.289E-03     134.574E-03
             379     9.64306E-03     74.5329E-03    -40.7607E+06    -26.3663E+06     3.00687E+06     580.967E+03    -117.006E-03     230.382E-03    -113.376E-03     153.591E-03    -119.869E-03     232.998E-03    -113.264E-03     147.102E-03
             380     10.4478E-03     74.7111E-03    -37.3808E+06     22.6842E+06     11.0055E+06     822.126E+03    -117.426E-03     230.735E-03    -113.310E-03     171.144E-03    -121.366E-03     234.592E-03    -113.234E-03     163.515E-03
             381     11.2515E-03     74.9119E-03    -33.0649E+06     52.9617E+06     27.4845E+06     957.130E+03    -118.745E-03     232.054E-03    -113.309E-03     199.509E-03    -124.453E-03     237.753E-03    -113.200E-03     190.353E-03
             382     12.0549E-03     75.1531E-03    -27.6558E+06     69.2176E+06     53.5151E+06     607.875E+03    -121.227E-03     234.602E-03    -113.375E-03     241.396E-03    -129.894E-03     243.261E-03    -113.168E-03     230.243E-03
             383     12.8597E-03     75.4485E-03    -22.4299E+06     87.5322E+06     77.6630E+06     1.05244E+06    -123.888E-03     237.309E-03    -113.420E-03     286.391E-03    -136.656E-03     250.082E-03    -113.126E-03     273.385E-03
             384     13.6646E-03     75.7940E-03    -16.8456E+06     102.864E+06     90.0156E+06     1.05728E+06    -125.294E-03     238.702E-03    -113.409E-03     315.295E-03    -142.079E-03     255.532E-03    -113.083E-03     301.970E-03
             385     14.4687E-03     76.1573E-03    -9.88499E+06     119.295E+06     95.6049E+06     401.315E+03    -125.147E-03     238.522E-03    -113.375E-03     329.179E-03    -145.636E-03     259.123E-03    -113.056E-03     317.787E-03
             386     15.2768E-03     76.5462E-03    -4.87458E+06     121.141E+06     94.2569E+06    -486.731E+03    -119.985E-03     233.323E-03    -113.338E-03     258.667E-03    -134.988E-03     248.466E-03    -113.035E-03     252.249E-03
             387     803.454E-06     74.6900E-03    -86.5648E+06    -238.436E+06    -85.1359E+06     70.1212E+03    -113.581E-03     227.056E-03    -113.475E-03     14.8033E-03    -113.557E-03     226.126E-03    -113.430E-03     14.4525E-03
             388     1.60690E-03     74.7136E-03    -84.6561E+06    -234.433E+06    -78.7701E+06    -48.0332E+03    -113.663E-03     227.183E-03    -113.520E-03     27.1949E-03    -113.672E-03     226.288E-03    -113.451E-03     26.5332E-03
             389     2.41052E-03     74.7511E-03    -80.9859E+06    -227.775E+06    -68.8484E+06    -42.1354E+03    -113.831E-03     227.374E-03    -113.543E-03     40.1758E-03    -113.893E-03     226.540E-03    -113.439E-03     39.1736E-03
             390     3.21388E-03     74.8038E-03    -76.4129E+06    -220.372E+06    -58.1440E+06    -143.440E+03    -114.109E-03     227.675E-03    -113.566E-03     53.0362E-03    -114.246E-03     226.927E-03    -113.427E-03     51.6576E-03
             391     4.01756E-03     74.8700E-03    -71.7476E+06    -206.992E+06    -47.0241E+06    -75.3791E+03    -114.413E-03     227.997E-03    -113.584E-03     65.7962E-03    -114.661E-03     227.392E-03    -113.415E-03     64.0097E-03
             392     4.82103E-03     74.9514E-03    -66.7936E+06    -188.629E+06    -36.6449E+06     10.2331E+03    -114.750E-03     228.336E-03    -113.586E-03     78.3535E-03    -115.148E-03     227.933E-03    -113.399E-03     76.1140E-03
             393     5.62472E-03     75.0454E-03    -61.7328E+06    -171.232E+06    -27.9739E+06     67.8657E+03    -115.154E-03     228.735E-03    -113.580E-03     90.6786E-03    -115.741E-03     228.576E-03    -113.382E-03     87.9279E-03
             394     6.42829E-03     75.1543E-03    -57.1986E+06    -151.882E+06    -20.4359E+06     131.507E+03    -115.560E-03     229.126E-03    -113.566E-03     102.943E-03    -116.393E-03     229.276E-03    -113.365E-03     99.6217E-03
             395     7.23200E-03     75.2753E-03    -52.9296E+06    -128.087E+06    -14.2236E+06     287.895E+03    -115.949E-03     229.486E-03    -113.537E-03     115.203E-03    -117.103E-03     230.039E-03    -113.345E-03     111.240E-03
             396     8.03588E-03     75.4111E-03    -48.6736E+06    -103.793E+06    -7.78436E+06     711.992E+03    -116.372E-03     229.878E-03    -113.507E-03     127.465E-03    -117.942E-03     230.931E-03    -113.325E-03     122.768E-03
             397     8.83908E-03     75.5588E-03    -44.3014E+06    -72.2891E+06    -2.25881E+06     675.885E+03    -116.720E-03     230.181E-03    -113.461E-03     140.130E-03    -118.838E-03     231.892E-03    -113.303E-03     134.595E-03
             398     9.64374E-03     75.7225E-03    -40.5058E+06    -26.5992E+06     2.82720E+06     774.793E+03    -116.996E-03     230.385E-03    -113.389E-03     153.578E-03    -119.857E-03     232.999E-03    -113.277E-03     147.093E-03
             399     10.4468E-03     75.8991E-03    -36.8029E+06     22.6524E+06     10.9856E+06     1.18380E+06    -117.456E-03     230.779E-03    -113.322E-03     171.078E-03    -121.397E-03     234.637E-03    -113.247E-03     163.448E-03
             400     11.2512E-03     76.1011E-03    -33.2210E+06     53.2824E+06     27.0953E+06     870.396E+03    -118.622E-03     231.938E-03    -113.316E-03     199.638E-03    -124.324E-03     237.632E-03    -113.209E-03     190.498E-03
             401     12.0560E-03     76.3416E-03    -28.8852E+06     68.3954E+06     52.6485E+06     706.901E+03    -121.060E-03     234.430E-03    -113.369E-03     241.741E-03    -129.724E-03     243.081E-03    -113.163E-03     230.619E-03
             402     12.8596E-03     76.6378E-03    -23.0557E+06     86.5174E+06     77.0217E+06     1.07060E+06    -124.116E-03     237.533E-03    -113.417E-03     286.226E-03    -136.900E-03     250.319E-03    -113.124E-03     273.177E-03
             403     13.6643E-03     76.9803E-03    -16.2892E+06     104.256E+06     90.6860E+06     776.073E+03    -125.588E-03     239.016E-03    -113.428E-03     314.540E-03    -142.366E-03     255.843E-03    -113.102E-03     301.150E-03
             404     14.4674E-03     77.3495E-03    -10.7680E+06     119.471E+06     95.1737E+06     385.650E+03    -124.855E-03     238.253E-03    -113.398E-03     328.753E-03    -145.327E-03     258.835E-03    -113.079E-03     317.415E-03
             405     15.2670E-03     77.7276E-03    -5.51891E+06     120.668E+06     94.0703E+06    -549.938E+03    -119.501E-03     232.843E-03    -113.341E-03     259.630E-03    -134.538E-03     248.016E-03    -113.038E-03     253.286E-03
             406     803.458E-06     75.8792E-03    -86.6498E+06    -238.587E+06    -85.3201E+06     185.444E+03    -113.589E-03     227.085E-03    -113.496E-03     14.8600E-03    -113.566E-03     226.154E-03    -113.451E-03     14.5075E-03
             407     1.60695E-03     75.9021E-03    -84.4706E+06    -234.201E+06    -78.5051E+06     18.7077E+03    -113.659E-03     227.190E-03    -113.531E-03     27.2088E-03    -113.667E-03     226.295E-03    -113.462E-03     26.5482E-03
             408     2.41034E-03     75.9402E-03    -80.9249E+06    -227.658E+06    -68.7474E+06    -175.121E+03    -113.847E-03     227.399E-03    -113.551E-03     40.1962E-03    -113.910E-03     226.565E-03    -113.447E-03     39.1918E-03
             409     3.21405E-03     75.9923E-03    -76.6734E+06    -220.346E+06    -58.0985E+06    -47.8932E+03    -114.111E-03     227.687E-03    -113.575E-03     53.0712E-03    -114.249E-03     226.939E-03    -113.435E-03     51.6954E-03
             410     4.01738E-03     76.0593E-03    -71.9481E+06    -207.089E+06    -47.0483E+06     33.5342E+03    -114.414E-03     228.005E-03    -113.591E-03     65.7931E-03    -114.662E-03     227.399E-03    -113.422E-03     64.0082E-03
             411     4.82113E-03     76.1396E-03    -66.9843E+06    -188.579E+06    -36.7983E+06    -25.1426E+03    -114.758E-03     228.350E-03    -113.592E-03     78.4008E-03    -115.157E-03     227.949E-03    -113.406E-03     76.1607E-03
             412     5.62458E-03     76.2349E-03    -62.1879E+06    -171.500E+06    -28.3769E+06     60.6200E+03    -115.164E-03     228.749E-03    -113.586E-03     90.7790E-03    -115.752E-03     228.591E-03    -113.389E-03     88.0294E-03
             413     6.42829E-03     76.3424E-03    -57.5842E+06    -152.081E+06    -20.8202E+06     297.120E+03    -115.556E-03     229.127E-03    -113.571E-03     102.998E-03    -116.391E-03     229.278E-03    -113.371E-03     99.6778E-03
             414     7.23196E-03     76.4648E-03    -53.3367E+06    -128.483E+06    -14.6852E+06     508.042E+03    -115.938E-03     229.477E-03    -113.540E-03     115.261E-03    -117.093E-03     230.030E-03    -113.350E-03     111.301E-03
             415     8.03557E-03     76.5992E-03    -49.1803E+06    -104.008E+06    -8.39830E+06     351.100E+03    -116.359E-03     229.866E-03    -113.506E-03     127.695E-03    -117.931E-03     230.918E-03    -113.326E-03     122.999E-03
             416     8.83972E-03     76.7487E-03    -45.3416E+06    -72.3285E+06    -2.90270E+06     354.703E+03    -116.745E-03     230.205E-03    -113.460E-03     140.336E-03    -118.869E-03     231.920E-03    -113.304E-03     134.796E-03
             417     9.64286E-03     76.9100E-03    -41.7308E+06    -27.2253E+06     2.37994E+06     736.504E+03    -117.039E-03     230.431E-03    -113.391E-03     153.828E-03    -119.907E-03     233.047E-03    -113.280E-03     147.339E-03
             418     10.4475E-03     77.0893E-03    -37.9645E+06     22.1953E+06     10.0032E+06     852.872E+03    -117.383E-03     230.703E-03    -113.320E-03     171.274E-03    -121.331E-03     234.566E-03    -113.247E-03     163.642E-03
             419     11.2513E-03     77.2886E-03    -33.6882E+06     53.7362E+06     26.3001E+06     953.435E+03    -118.534E-03     231.839E-03    -113.305E-03     199.736E-03    -124.237E-03     237.537E-03    -113.203E-03     190.603E-03
             420     12.0554E-03     77.5305E-03    -28.5040E+06     68.2462E+06     52.6004E+06     794.162E+03    -121.224E-03     234.590E-03    -113.366E-03     241.534E-03    -129.888E-03     243.242E-03    -113.160E-03     230.387E-03
             421     12.8605E-03     77.8257E-03    -22.3576E+06     86.2364E+06     77.4854E+06     716.787E+03    -124.452E-03     237.886E-03    -113.434E-03     286.108E-03    -137.267E-03     250.703E-03    -113.139E-03     272.985E-03
             422     13.6622E-03     78.1725E-03    -16.7051E+06     104.536E+06     90.4148E+06     1.01498E+06    -125.419E-03     238.864E-03    -113.445E-03     315.108E-03    -142.215E-03     255.709E-03    -113.120E-03     301.755E-03
             423     14.4674E-03     78.5340E-03    -10.2956E+06     120.691E+06     95.5347E+06     334.118E+03    -124.392E-03     237.784E-03    -113.392E-03     329.650E-03    -144.940E-03     258.447E-03    -113.074E-03     318.388E-03
             424     15.2783E-03     78.9229E-03    -3.94572E+06     121.432E+06     95.2944E+06    -160.934E+03    -119.535E-03     232.860E-03    -113.325E-03     259.480E-03    -134.615E-03     248.080E-03    -113.019E-03     253.133E-03
             425     803.415E-06     77.0675E-03    -86.5946E+06    -238.613E+06    -85.4411E+06    -298.488E+03    -113.611E-03     227.056E-03    -113.445E-03     14.8842E-03    -113.587E-03     226.125E-03    -113.400E-03     14.5248E-03
             426     1.60692E-03     77.0912E-03    -84.1839E+06    -234.163E+06    -78.7248E+06    -14.6652E+03    -113.680E-03     227.202E-03    -113.522E-03     27.2517E-03    -113.687E-03     226.307E-03    -113.454E-03     26.5915E-03
             427     2.41050E-03     77.1287E-03     -80.882E+06    -227.543E+06    -68.6086E+06     90.0133E+03    -113.868E-03     227.422E-03    -113.554E-03     40.2151E-03    -113.931E-03     226.588E-03    -113.450E-03     39.2146E-03
             428     3.21379E-03     77.1815E-03    -76.9206E+06    -220.518E+06    -58.1506E+06     155.727E+03    -114.101E-03     227.680E-03    -113.579E-03     53.0936E-03    -114.240E-03     226.931E-03    -113.439E-03     51.7209E-03
             429     4.01757E-03     77.2478E-03    -72.0800E+06    -207.112E+06    -47.1460E+06     167.522E+03    -114.406E-03     227.997E-03    -113.591E-03     65.8641E-03    -114.655E-03     227.392E-03    -113.422E-03     64.0816E-03
             430     4.82092E-03     77.3290E-03     -67.096E+06    -188.553E+06    -36.9496E+06     137.955E+03    -114.756E-03     228.347E-03    -113.591E-03     78.4565E-03    -115.156E-03     227.946E-03    -113.405E-03     76.2190E-03
             431     5.62477E-03     77.4232E-03    -62.3392E+06    -171.652E+06    -28.5230E+06     251.804E+03    -115.121E-03     228.702E-03    -113.581E-03     90.8455E-03    -115.710E-03     228.543E-03    -113.385E-03     88.1010E-03
             432     6.42827E-03     77.5320E-03    -57.7756E+06    -152.479E+06    -21.1502E+06     408.424E+03    -115.523E-03     229.084E-03    -113.561E-03     103.122E-03    -116.358E-03     229.234E-03    -113.362E-03     99.8065E-03
             433     7.23201E-03     77.6529E-03    -53.3083E+06    -128.486E+06    -14.6837E+06     488.298E+03    -115.933E-03     229.461E-03    -113.528E-03     115.425E-03    -117.088E-03     230.014E-03    -113.338E-03     111.467E-03
             434     8.03593E-03     77.7887E-03    -49.1607E+06    -103.810E+06    -8.25793E+06     437.155E+03    -116.311E-03     229.804E-03    -113.493E-03     127.832E-03    -117.884E-03     230.857E-03    -113.312E-03     123.139E-03
             435     8.83946E-03     77.9366E-03    -45.2937E+06    -72.7965E+06    -2.83783E+06     640.558E+03    -116.731E-03     230.175E-03    -113.444E-03     140.521E-03    -118.854E-03     231.887E-03    -113.287E-03     134.991E-03
             436     9.64377E-03     78.1002E-03    -41.7075E+06    -27.6310E+06     2.48064E+06     1.01941E+06    -117.003E-03     230.377E-03    -113.374E-03     153.950E-03    -119.874E-03     232.994E-03    -113.261E-03     147.466E-03
             437     10.4471E-03     78.2768E-03    -38.3604E+06     22.5841E+06     10.4192E+06     911.567E+03    -117.349E-03     230.651E-03    -113.302E-03     171.329E-03    -121.303E-03     234.518E-03    -113.227E-03     163.697E-03
             438     11.2518E-03     78.4780E-03    -34.2634E+06     53.6933E+06     26.5882E+06     382.687E+03    -118.799E-03     232.097E-03    -113.298E-03     199.598E-03    -124.520E-03     237.810E-03    -113.193E-03     190.420E-03
             439     12.0560E-03     78.7187E-03    -29.0175E+06     68.8191E+06     52.4288E+06    -240.449E+03    -121.517E-03     234.893E-03    -113.376E-03     241.701E-03    -130.204E-03     243.569E-03    -113.171E-03     230.498E-03
             440     12.8578E-03     79.0162E-03    -22.9166E+06     84.6052E+06     76.4814E+06     447.792E+03    -124.107E-03     237.544E-03    -113.437E-03     286.928E-03    -136.940E-03     250.374E-03    -113.144E-03     273.854E-03
             441     13.6648E-03     79.3592E-03    -15.8147E+06     104.709E+06     91.0610E+06     1.28100E+06    -124.775E-03     238.193E-03    -113.418E-03     315.208E-03    -141.553E-03     255.022E-03    -113.092E-03     301.968E-03
             442     14.4695E-03     79.7247E-03    -10.2780E+06     122.352E+06     96.3249E+06     526.092E+03    -124.761E-03     238.118E-03    -113.357E-03     329.773E-03    -145.332E-03     258.807E-03    -113.038E-03     318.440E-03
             443     15.2672E-03     80.1051E-03    -5.17069E+06     120.630E+06     94.7207E+06    -195.492E+03    -120.093E-03     233.408E-03    -113.315E-03     259.099E-03    -135.202E-03     248.652E-03    -113.008E-03     252.615E-03
             444     803.587E-06     78.2569E-03    -86.4633E+06    -238.324E+06    -85.0088E+06    -77.4288E+03    -113.562E-03     227.039E-03    -113.477E-03     14.8028E-03    -113.538E-03     226.109E-03    -113.431E-03     14.4477E-03
             445     1.60698E-03     78.2796E-03    -84.5820E+06    -234.374E+06    -78.8106E+06    -56.7323E+03    -113.671E-03     227.185E-03    -113.514E-03     27.2639E-03    -113.680E-03     226.290E-03    -113.445E-03     26.6024E-03
             446     2.41033E-03     78.3180E-03    -81.0880E+06    -227.819E+06    -68.9871E+06     181.649E+03    -113.844E-03     227.386E-03    -113.542E-03     40.2691E-03    -113.906E-03     226.551E-03    -113.439E-03     39.2710E-03
             447     3.21405E-03     78.3699E-03    -76.6572E+06    -220.434E+06    -58.1533E+06     182.241E+03    -114.097E-03     227.662E-03    -113.566E-03     53.1693E-03    -114.235E-03     226.914E-03    -113.426E-03     51.7973E-03
             448     4.01741E-03     78.4369E-03    -71.8784E+06    -207.177E+06    -47.2932E+06     166.083E+03    -114.404E-03     227.983E-03    -113.579E-03     65.9485E-03    -114.652E-03     227.377E-03    -113.411E-03     64.1667E-03
             449     4.82123E-03     78.5174E-03    -66.9324E+06    -188.760E+06    -36.9861E+06     369.929E+03    -114.729E-03     228.307E-03    -113.578E-03     78.5132E-03    -115.128E-03     227.905E-03    -113.392E-03     76.2798E-03
             450     5.62459E-03     78.6125E-03    -62.0679E+06    -171.819E+06    -28.2716E+06     378.010E+03    -115.072E-03     228.638E-03    -113.566E-03     90.8992E-03    -115.660E-03     228.477E-03    -113.368E-03     88.1577E-03
             451     6.42860E-03     78.7201E-03    -57.2954E+06    -152.719E+06    -20.6521E+06     520.803E+03    -115.475E-03     229.016E-03    -113.542E-03     103.202E-03    -116.307E-03     229.163E-03    -113.340E-03     99.8929E-03
             452     7.23228E-03     78.8424E-03    -53.0183E+06    -128.752E+06    -14.4179E+06     708.685E+03    -115.909E-03     229.414E-03    -113.506E-03     115.450E-03    -117.063E-03     229.966E-03    -113.314E-03     111.495E-03
             453     8.03591E-03     78.9768E-03    -49.1712E+06    -103.583E+06    -8.06313E+06     761.754E+03    -116.320E-03     229.791E-03    -113.471E-03     127.844E-03    -117.893E-03     230.845E-03    -113.290E-03     123.155E-03
             454     8.84005E-03     79.1261E-03    -45.5813E+06    -73.4121E+06    -2.95975E+06     837.830E+03    -116.657E-03     230.078E-03    -113.421E-03     140.603E-03    -118.779E-03     231.786E-03    -113.263E-03     135.083E-03
             455     9.64343E-03     79.2884E-03    -41.7218E+06    -28.2145E+06     2.44724E+06     1.06227E+06    -116.937E-03     230.284E-03    -113.347E-03     153.903E-03    -119.805E-03     232.896E-03    -113.233E-03     147.426E-03
             456     10.4482E-03     79.4660E-03    -37.3738E+06     23.3008E+06     11.1515E+06     1.05339E+06    -117.547E-03     230.829E-03    -113.283E-03     171.214E-03    -121.504E-03     234.704E-03    -113.206E-03     163.563E-03
             457     11.2515E-03     79.6667E-03    -33.4772E+06     54.8910E+06     27.6835E+06     711.386E+03    -118.905E-03     232.197E-03    -113.292E-03     199.854E-03    -124.631E-03     237.919E-03    -113.185E-03     190.672E-03
             458     12.0543E-03     79.9085E-03    -29.8261E+06     69.3051E+06     53.1003E+06     462.534E+03    -121.310E-03     234.675E-03    -113.365E-03     242.423E-03    -130.014E-03     243.365E-03    -113.156E-03     231.256E-03
             459     12.8613E-03     80.2039E-03    -24.5629E+06     84.2715E+06     76.0453E+06    -665.018E+03    -123.979E-03     237.390E-03    -113.411E-03     286.869E-03    -136.803E-03     250.206E-03    -113.117E-03     273.806E-03
             460     13.6637E-03     80.5487E-03    -17.8977E+06     103.389E+06     89.5751E+06    -1.01501E+06    -125.069E-03     238.471E-03    -113.402E-03     313.828E-03    -141.824E-03     255.270E-03    -113.078E-03     300.507E-03
             461     14.4687E-03     80.9101E-03    -10.1347E+06     122.292E+06     96.4809E+06     267.204E+03    -124.655E-03     238.014E-03    -113.359E-03     329.085E-03    -145.136E-03     258.613E-03    -113.039E-03     317.738E-03
             462     15.2779E-03     81.3039E-03    -4.46397E+06     121.493E+06     95.0681E+06     602.744E+03    -120.067E-03     233.376E-03    -113.310E-03     259.434E-03    -135.062E-03     248.512E-03    -113.004E-03     253.006E-03
             463     803.332E-06     79.4450E-03    -86.6872E+06    -238.466E+06    -85.1199E+06     147.650E+03    -113.573E-03     227.046E-03    -113.473E-03     14.8609E-03    -113.550E-03     226.116E-03    -113.427E-03     14.5075E-03
             464     1.60693E-03     79.4689E-03    -84.6299E+06    -234.305E+06    -78.6281E+06     137.349E+03    -113.619E-03     227.126E-03    -113.507E-03     27.2822E-03    -113.628E-03     226.231E-03    -113.438E-03     26.6239E-03
             465     2.41061E-03     79.5063E-03    -81.2484E+06    -228.053E+06    -69.2083E+06     26.1921E+03    -113.805E-03     227.325E-03    -113.520E-03     40.2728E-03    -113.867E-03     226.490E-03    -113.417E-03     39.2735E-03
             466     3.21399E-03     79.5591E-03    -76.5717E+06    -220.554E+06    -58.4168E+06     84.7990E+03    -114.084E-03     227.626E-03    -113.541E-03     53.1918E-03    -114.221E-03     226.877E-03    -113.402E-03     51.8195E-03
             467     4.01769E-03     79.6254E-03    -71.7964E+06    -207.184E+06    -47.2071E+06     207.283E+03    -114.381E-03     227.938E-03    -113.557E-03     65.9760E-03    -114.629E-03     227.333E-03    -113.388E-03     64.1957E-03
             468     4.82107E-03     79.7066E-03    -66.9010E+06    -188.989E+06    -36.8307E+06     252.976E+03    -114.685E-03     228.240E-03    -113.555E-03     78.5453E-03    -115.083E-03     227.836E-03    -113.368E-03     76.3118E-03
             469     5.62511E-03     79.8007E-03    -61.8055E+06    -171.943E+06    -27.9068E+06     394.316E+03    -115.072E-03     228.615E-03    -113.543E-03     90.8790E-03    -115.658E-03     228.452E-03    -113.344E-03     88.1376E-03
             470     6.42854E-03     79.9093E-03    -57.1436E+06    -153.232E+06    -20.5010E+06     516.297E+03    -115.472E-03     228.993E-03    -113.522E-03     103.139E-03    -116.303E-03     229.137E-03    -113.319E-03     99.8287E-03
             471     7.23240E-03     80.0306E-03    -52.6510E+06    -129.298E+06    -14.3500E+06     812.116E+03    -115.859E-03     229.343E-03    -113.485E-03     115.406E-03    -117.010E-03     229.890E-03    -113.293E-03     111.455E-03
             472     8.03634E-03     80.1661E-03    -48.5772E+06    -104.281E+06    -7.73686E+06     1.46975E+06    -116.268E-03     229.715E-03    -113.448E-03     127.862E-03    -117.836E-03     230.764E-03    -113.265E-03     123.187E-03
             473     8.83980E-03     80.3144E-03    -45.0429E+06    -73.0110E+06    -2.14989E+06     1.57985E+06    -116.622E-03     230.019E-03    -113.397E-03     140.577E-03    -118.742E-03     231.727E-03    -113.237E-03     135.068E-03
             474     9.64449E-03     80.4771E-03    -41.4519E+06    -27.8533E+06     2.73849E+06     818.188E+03    -117.010E-03     230.334E-03    -113.324E-03     153.948E-03    -119.876E-03     232.946E-03    -113.210E-03     147.467E-03
             475     10.4474E-03     80.6550E-03    -37.7719E+06     22.4472E+06     10.3753E+06     571.866E+03    -117.614E-03     230.877E-03    -113.263E-03     171.526E-03    -121.574E-03     234.753E-03    -113.189E-03     163.866E-03
             476     11.2514E-03     80.8560E-03    -33.7230E+06     55.1256E+06     27.0721E+06     1.02965E+06    -118.743E-03     232.012E-03    -113.269E-03     199.798E-03    -124.466E-03     237.732E-03    -113.164E-03     190.637E-03
             477     12.0577E-03     81.0964E-03    -28.2910E+06     70.1255E+06     53.5752E+06     1.46946E+06    -121.266E-03     234.605E-03    -113.339E-03     241.989E-03    -129.954E-03     243.287E-03    -113.132E-03     230.839E-03
             478     12.8589E-03     81.3938E-03    -22.4513E+06     87.0206E+06     78.1653E+06     954.467E+03    -124.116E-03     237.515E-03    -113.399E-03     286.151E-03    -136.911E-03     250.312E-03    -113.102E-03     273.094E-03
             479     13.6646E-03     81.7361E-03    -16.9185E+06     104.325E+06     90.7943E+06    -862.020E+03    -125.323E-03     238.724E-03    -113.401E-03     314.692E-03    -142.110E-03     255.558E-03    -113.074E-03     301.327E-03
             480     14.4665E-03     82.1017E-03    -11.5278E+06     119.328E+06     94.5455E+06    -1.26389E+06    -125.033E-03     238.400E-03    -113.367E-03     329.398E-03    -145.662E-03     259.138E-03    -113.051E-03     317.936E-03
             481     15.2692E-03     82.4798E-03    -5.48631E+06     120.715E+06     93.7459E+06    -11.6307E+03    -119.711E-03     233.039E-03    -113.328E-03     258.758E-03    -134.811E-03     248.276E-03    -113.026E-03     252.286E-03
             482     803.580E-06     80.6344E-03    -86.7241E+06    -238.742E+06    -85.6037E+06     63.0719E+03    -113.623E-03     226.978E-03    -113.355E-03     14.9186E-03    -113.599E-03     226.047E-03    -113.311E-03     14.5658E-03
             483     1.60702E-03     80.6571E-03    -84.4997E+06    -234.364E+06    -78.8173E+06     82.5138E+03    -113.631E-03     227.112E-03    -113.481E-03     27.2636E-03    -113.639E-03     226.217E-03    -113.413E-03     26.6050E-03
             484     2.41047E-03     80.6954E-03    -80.9809E+06    -227.785E+06    -68.9066E+06     37.8036E+03    -113.798E-03     227.304E-03    -113.506E-03     40.2440E-03    -113.860E-03     226.470E-03    -113.403E-03     39.2439E-03
             485     3.21417E-03     80.7474E-03    -76.7825E+06    -220.731E+06    -58.4844E+06    -26.7903E+03    -114.043E-03     227.569E-03    -113.525E-03     53.1571E-03    -114.181E-03     226.820E-03    -113.386E-03     51.7832E-03
             486     4.01762E-03     80.8145E-03    -71.9493E+06    -207.440E+06    -47.5010E+06     28.5587E+03    -114.322E-03     227.855E-03    -113.534E-03     65.9281E-03    -114.569E-03     227.249E-03    -113.366E-03     64.1465E-03
             487     4.82155E-03     80.8949E-03    -66.9251E+06    -189.175E+06    -36.7844E+06     192.561E+03    -114.675E-03     228.206E-03    -113.531E-03     78.4937E-03    -115.073E-03     227.801E-03    -113.343E-03     76.2604E-03
             488     5.62488E-03     80.9898E-03    -62.1867E+06    -172.378E+06    -28.1209E+06     458.249E+03    -115.074E-03     228.596E-03    -113.522E-03     90.8541E-03    -115.661E-03     228.432E-03    -113.322E-03     88.1144E-03
             489     6.42878E-03     81.0977E-03    -57.5803E+06    -153.267E+06    -20.6472E+06     552.155E+03    -115.460E-03     228.963E-03    -113.503E-03     103.114E-03    -116.293E-03     229.107E-03    -113.300E-03     99.8037E-03
             490     7.23252E-03     81.2195E-03    -53.2560E+06    -130.105E+06    -14.6452E+06     679.614E+03    -115.831E-03     229.298E-03    -113.467E-03     115.395E-03    -116.983E-03     229.841E-03    -113.274E-03     111.444E-03
             491     8.03628E-03     81.3544E-03    -48.8632E+06    -105.709E+06    -8.28390E+06     1.31820E+06    -116.210E-03     229.637E-03    -113.427E-03     127.777E-03    -117.777E-03     230.679E-03    -113.244E-03     123.102E-03
             492     8.84071E-03     81.5032E-03    -44.3155E+06    -73.0409E+06    -2.13910E+06     1.70171E+06    -116.638E-03     230.014E-03    -113.376E-03     140.461E-03    -118.753E-03     231.718E-03    -113.216E-03     134.956E-03
             493     9.64372E-03     81.6659E-03    -40.7437E+06    -27.0493E+06     3.20391E+06     1.44927E+06    -117.049E-03     230.356E-03    -113.307E-03     154.027E-03    -119.913E-03     232.970E-03    -113.193E-03     147.555E-03
             494     10.4485E-03     81.8439E-03    -37.9313E+06     22.9096E+06     10.7875E+06     1.05219E+06    -117.550E-03     230.798E-03    -113.248E-03     171.443E-03    -121.505E-03     234.669E-03    -113.172E-03     163.802E-03
             495     11.2526E-03     82.0448E-03    -34.1423E+06     54.4673E+06     26.7559E+06     753.636E+03    -118.788E-03     232.043E-03    -113.255E-03     199.283E-03    -124.510E-03     237.760E-03    -113.151E-03     190.109E-03
             496     12.0543E-03     82.2847E-03    -28.6773E+06     69.2778E+06     52.6352E+06     349.918E+03    -121.367E-03     234.697E-03    -113.330E-03     242.021E-03    -130.057E-03     243.379E-03    -113.126E-03     230.845E-03
             497     12.8611E-03     82.5829E-03    -21.7165E+06     87.8598E+06     78.1906E+06     675.384E+03    -124.068E-03     237.458E-03    -113.391E-03     286.431E-03    -136.861E-03     250.260E-03    -113.096E-03     273.383E-03
             498     13.6639E-03     82.9247E-03    -15.0501E+06     105.863E+06     92.3186E+06     1.59954E+06    -124.614E-03     237.990E-03    -113.376E-03     314.377E-03    -141.347E-03     254.777E-03    -113.046E-03     301.159E-03
             499     14.4717E-03     83.2907E-03    -10.1274E+06     120.424E+06     96.4933E+06     804.769E+03    -125.035E-03     238.346E-03    -113.311E-03     332.333E-03    -145.727E-03     259.150E-03    -112.989E-03     320.961E-03
             500     15.2729E-03     83.6790E-03    -5.18735E+06     121.085E+06     94.7030E+06    -592.505E+03    -120.892E-03     234.166E-03    -113.274E-03     261.409E-03    -136.102E-03     249.513E-03    -112.968E-03     254.828E-03
             501     803.541E-06     81.8226E-03    -86.7058E+06    -238.658E+06    -85.3483E+06    -77.9697E+03    -113.573E-03     226.936E-03    -113.364E-03     14.8889E-03    -113.549E-03     226.006E-03    -113.319E-03     14.5349E-03
             502     1.60701E-03     81.8462E-03    -84.4604E+06    -234.335E+06    -78.7474E+06    -77.9853E+03    -113.639E-03     227.106E-03    -113.467E-03     27.2032E-03    -113.647E-03     226.211E-03    -113.398E-03     26.5413E-03
             503     2.41060E-03     81.8837E-03    -81.0258E+06    -227.795E+06    -68.8903E+06         192.234    -113.789E-03     227.286E-03    -113.497E-03     40.2388E-03    -113.851E-03     226.452E-03    -113.394E-03     39.2379E-03
             504     3.21404E-03     81.9364E-03    -76.7673E+06    -220.593E+06    -58.2726E+06     3.63064E+03    -114.014E-03     227.529E-03    -113.515E-03     53.1371E-03    -114.152E-03     226.781E-03    -113.376E-03     51.7640E-03
             505     4.01786E-03     82.0027E-03    -72.1723E+06    -207.670E+06    -47.6442E+06    -13.3846E+03    -114.308E-03     227.829E-03    -113.521E-03     65.8580E-03    -114.556E-03     227.222E-03    -113.353E-03     64.0755E-03
             506     4.82129E-03     82.0839E-03    -67.2516E+06    -189.752E+06    -37.2243E+06     241.733E+03    -114.645E-03     228.161E-03    -113.516E-03     78.4503E-03    -115.042E-03     227.754E-03    -113.330E-03     76.2192E-03
             507     5.62525E-03     82.1782E-03    -62.2766E+06    -172.792E+06    -28.2323E+06     542.930E+03    -115.032E-03     228.537E-03    -113.505E-03     90.8348E-03    -115.618E-03     228.371E-03    -113.305E-03     88.0980E-03
             508     6.42887E-03     82.2865E-03    -57.6008E+06    -153.501E+06    -20.6211E+06     765.577E+03    -115.442E-03     228.927E-03    -113.485E-03     103.072E-03    -116.274E-03     229.069E-03    -113.282E-03     99.7664E-03
             509     7.23264E-03     82.4079E-03    -53.2820E+06    -130.310E+06    -14.6698E+06     920.469E+03    -115.855E-03     229.307E-03    -113.451E-03     115.293E-03    -117.007E-03     229.849E-03    -113.258E-03     111.345E-03
             510     8.03665E-03     82.5430E-03    -49.0935E+06    -106.144E+06    -8.67041E+06     780.577E+03    -116.261E-03     229.677E-03    -113.417E-03     127.652E-03    -117.827E-03     230.717E-03    -113.235E-03     122.967E-03
             511     8.83995E-03     82.6917E-03    -45.0478E+06    -73.8889E+06    -2.93287E+06     875.223E+03    -116.651E-03     230.020E-03    -113.369E-03     140.406E-03    -118.767E-03     231.722E-03    -113.211E-03     134.888E-03
             512     9.64475E-03     82.8546E-03    -40.8379E+06    -27.5178E+06     3.34760E+06     1.53422E+06    -117.026E-03     230.330E-03    -113.305E-03     153.929E-03    -119.888E-03     232.940E-03    -113.189E-03     147.461E-03
             513     10.4478E-03     83.0328E-03    -36.7361E+06     23.2012E+06     11.3512E+06     1.87700E+06    -117.512E-03     230.755E-03    -113.243E-03     171.334E-03    -121.460E-03     234.622E-03    -113.166E-03     163.708E-03
             514     11.2513E-03     83.2335E-03    -32.8937E+06     55.1057E+06     27.7441E+06     1.04148E+06    -118.715E-03     231.962E-03    -113.246E-03     199.559E-03    -124.433E-03     237.677E-03    -113.140E-03     190.401E-03
             515     12.0577E-03     83.4743E-03    -28.3903E+06     70.2872E+06     54.6116E+06     252.488E+03    -121.335E-03     234.657E-03    -113.322E-03     242.319E-03    -130.026E-03     243.338E-03    -113.110E-03     231.158E-03
             516     12.8595E-03     83.7709E-03    -23.0644E+06     86.9213E+06     77.7714E+06    -252.057E+03    -123.850E-03     237.216E-03    -113.366E-03     286.593E-03    -136.622E-03     249.989E-03    -113.070E-03     273.588E-03
             517     13.6649E-03     84.1142E-03    -16.5855E+06     103.971E+06     90.1596E+06    -15.7533E+03    -124.909E-03     238.258E-03    -113.349E-03     313.664E-03    -141.622E-03     255.020E-03    -113.025E-03     300.379E-03
             518     14.4684E-03     84.4733E-03    -8.60518E+06     121.327E+06     96.9812E+06     1.61589E+06    -124.400E-03     237.698E-03    -113.297E-03     329.463E-03    -144.900E-03     258.316E-03    -112.976E-03     318.133E-03
             519     15.2785E-03     84.8706E-03    -3.47027E+06     122.839E+06     96.6389E+06     1.51489E+06    -120.138E-03     233.388E-03    -113.249E-03     258.496E-03    -135.093E-03     248.486E-03    -112.939E-03     252.082E-03
             520     803.468E-06     83.0116E-03    -86.4483E+06    -238.458E+06    -85.2309E+06    -73.3220E+03    -113.563E-03     226.935E-03    -113.373E-03     15.0223E-03    -113.538E-03     226.005E-03    -113.328E-03     14.6673E-03
             521     1.60705E-03     83.0346E-03    -84.6236E+06    -234.435E+06    -78.7183E+06     52.2667E+03    -113.600E-03     227.058E-03    -113.458E-03     27.2660E-03    -113.609E-03     226.162E-03    -113.389E-03     26.6074E-03
             522     2.41051E-03     83.0727E-03    -81.0819E+06    -227.928E+06    -68.9398E+06     106.516E+03    -113.786E-03     227.268E-03    -113.483E-03     40.2248E-03    -113.848E-03     226.433E-03    -113.379E-03     39.2261E-03
             523     3.21427E-03     83.1247E-03    -76.8801E+06    -220.773E+06    -58.4039E+06     144.492E+03    -114.022E-03     227.527E-03    -113.505E-03     53.1007E-03    -114.160E-03     226.777E-03    -113.365E-03     51.7294E-03
             524     4.01767E-03     83.1917E-03    -72.2767E+06    -207.574E+06    -47.4581E+06     182.759E+03    -114.304E-03     227.819E-03    -113.514E-03     65.8548E-03    -114.553E-03     227.212E-03    -113.346E-03     64.0754E-03
             525     4.82155E-03     83.2721E-03    -67.3092E+06    -189.979E+06    -37.1843E+06     180.182E+03    -114.625E-03     228.134E-03    -113.509E-03     78.4291E-03    -115.023E-03     227.726E-03    -113.322E-03     76.1967E-03
             526     5.62514E-03     83.3670E-03    -62.3371E+06    -173.541E+06    -28.5068E+06     436.118E+03    -115.006E-03     228.501E-03    -113.495E-03     90.7760E-03    -115.591E-03     228.331E-03    -113.296E-03     88.0388E-03
             527     6.42895E-03     83.4750E-03    -57.5024E+06    -154.196E+06    -20.8597E+06     771.326E+03    -115.439E-03     228.913E-03    -113.474E-03     102.995E-03    -116.268E-03     229.051E-03    -113.272E-03     99.6900E-03
             528     7.23278E-03     83.5966E-03    -52.8699E+06    -130.494E+06    -14.3572E+06     1.00203E+06    -115.897E-03     229.343E-03    -113.446E-03     115.232E-03    -117.047E-03     229.883E-03    -113.252E-03     111.284E-03
             529     8.03627E-03     83.7317E-03    -48.7707E+06    -105.616E+06    -8.02819E+06     872.107E+03    -116.334E-03     229.752E-03    -113.419E-03     127.580E-03    -117.901E-03     230.795E-03    -113.235E-03     122.892E-03
             530     8.84068E-03     83.8803E-03    -44.8963E+06    -74.2087E+06    -2.54297E+06     861.293E+03    -116.700E-03     230.077E-03    -113.377E-03     140.325E-03    -118.816E-03     231.778E-03    -113.217E-03     134.801E-03
             531     9.64363E-03     84.0434E-03    -41.3619E+06    -28.9194E+06     2.83713E+06     1.15897E+06    -116.942E-03     230.251E-03    -113.309E-03     153.959E-03    -119.801E-03     232.853E-03    -113.193E-03     147.494E-03
             532     10.4483E-03     84.2215E-03    -37.4381E+06     22.9485E+06     10.9195E+06     838.877E+03    -117.312E-03     230.546E-03    -113.235E-03     171.504E-03    -121.256E-03     234.408E-03    -113.159E-03     163.887E-03
             533     11.2532E-03     84.4224E-03    -32.7242E+06     56.6202E+06     28.1965E+06     1.06361E+06    -118.684E-03     231.914E-03    -113.230E-03     199.572E-03    -124.397E-03     237.630E-03    -113.124E-03     190.423E-03
             534     12.0552E-03     84.6623E-03    -28.0490E+06     71.6107E+06     54.7063E+06     1.33856E+06    -121.184E-03     234.484E-03    -113.300E-03     241.938E-03    -129.861E-03     243.157E-03    -113.090E-03     230.811E-03
             535     12.8613E-03     84.9607E-03    -23.0362E+06     86.7231E+06     78.2442E+06     996.039E+03    -123.603E-03     236.945E-03    -113.341E-03     285.983E-03    -136.334E-03     249.674E-03    -113.043E-03     273.032E-03
             536     13.6663E-03     85.3000E-03    -17.8591E+06     104.239E+06     90.7632E+06     192.062E+03    -125.291E-03     238.619E-03    -113.328E-03     314.844E-03    -142.053E-03     255.424E-03    -112.999E-03     301.514E-03
             537     14.4680E-03     85.6701E-03    -14.0636E+06     119.557E+06     93.6671E+06    -1.42420E+06    -125.898E-03     239.208E-03    -113.311E-03     330.612E-03    -146.581E-03     259.995E-03    -112.995E-03     319.002E-03
             538     15.2676E-03     86.0440E-03    -6.48278E+06     121.388E+06     94.2515E+06    -870.030E+03    -120.343E-03     233.651E-03    -113.308E-03     260.208E-03    -135.541E-03     248.984E-03    -113.004E-03     253.635E-03
             539     803.566E-06     84.1999E-03    -86.7381E+06    -238.783E+06    -85.5740E+06     196.047E+03    -113.571E-03     226.887E-03    -113.316E-03     14.9864E-03    -113.547E-03     225.956E-03    -113.272E-03     14.6370E-03
             540     1.60708E-03     84.2235E-03    -84.6791E+06    -234.532E+06    -78.8586E+06     144.715E+03    -113.592E-03     227.030E-03    -113.438E-03     27.2704E-03    -113.601E-03     226.134E-03    -113.369E-03     26.6136E-03
             541     2.41073E-03     84.2611E-03    -81.1421E+06    -228.026E+06    -68.9984E+06     197.259E+03    -113.784E-03     227.252E-03    -113.468E-03     40.2117E-03    -113.846E-03     226.416E-03    -113.364E-03     39.2144E-03
             542     3.21406E-03     84.3136E-03    -76.8445E+06    -220.879E+06    -58.4692E+06     231.588E+03    -114.025E-03     227.519E-03    -113.494E-03     53.0881E-03    -114.162E-03     226.769E-03    -113.354E-03     51.7179E-03
             543     4.01792E-03     84.3800E-03    -72.0388E+06    -207.518E+06    -47.4284E+06     189.189E+03    -114.302E-03     227.807E-03    -113.505E-03     65.8400E-03    -114.550E-03     227.200E-03    -113.337E-03     64.0609E-03
             544     4.82142E-03     84.4610E-03    -67.0679E+06    -190.074E+06    -36.8584E+06     228.314E+03    -114.645E-03     228.150E-03    -113.505E-03     78.3900E-03    -115.042E-03     227.741E-03    -113.316E-03     76.1570E-03
             545     5.62522E-03     84.5553E-03    -62.1284E+06    -174.121E+06    -28.2127E+06     305.478E+03    -115.031E-03     228.527E-03    -113.496E-03     90.7246E-03    -115.615E-03     228.354E-03    -113.294E-03     87.9842E-03
             546     6.42899E-03     84.6637E-03    -57.3676E+06    -154.797E+06    -20.7156E+06     669.227E+03    -115.453E-03     228.930E-03    -113.477E-03     102.959E-03    -116.281E-03     229.065E-03    -113.273E-03     99.6535E-03
             547     7.23261E-03     84.7853E-03    -52.9868E+06    -130.943E+06    -14.1463E+06     972.361E+03    -115.898E-03     229.348E-03    -113.450E-03     115.215E-03    -117.048E-03     229.886E-03    -113.254E-03     111.267E-03
             548     8.03667E-03     84.9204E-03    -48.7903E+06    -105.591E+06    -7.81194E+06     1.06079E+06    -116.350E-03     229.773E-03    -113.422E-03     127.640E-03    -117.918E-03     230.815E-03    -113.238E-03     122.954E-03
             549     8.83971E-03     85.0691E-03    -44.9640E+06    -74.6277E+06    -2.66185E+06     1.04253E+06    -116.690E-03     230.069E-03    -113.380E-03     140.411E-03    -118.807E-03     231.770E-03    -113.220E-03     134.889E-03
             550     9.64449E-03     85.2319E-03    -41.0341E+06    -29.0732E+06     2.87757E+06     1.04134E+06    -116.893E-03     230.202E-03    -113.309E-03     153.970E-03    -119.751E-03     232.803E-03    -113.193E-03     147.504E-03
             551     10.4483E-03     85.4097E-03    -37.6637E+06     23.6837E+06     11.6709E+06     1.17014E+06    -117.330E-03     230.567E-03    -113.237E-03     171.162E-03    -121.270E-03     234.424E-03    -113.158E-03     163.552E-03
             552     11.2518E-03     85.6106E-03    -34.7866E+06     56.1483E+06     27.2712E+06     1.12512E+06    -118.566E-03     231.793E-03    -113.226E-03     199.462E-03    -124.280E-03     237.503E-03    -113.121E-03     190.330E-03
             553     12.0572E-03     85.8526E-03    -30.3525E+06     70.7533E+06     52.3548E+06     1.08123E+06    -120.909E-03     234.189E-03    -113.279E-03     241.713E-03    -129.581E-03     242.852E-03    -113.076E-03     230.608E-03
             554     12.8610E-03     86.1460E-03    -24.1380E+06     87.1040E+06     77.4655E+06     1.07115E+06    -123.739E-03     237.061E-03    -113.323E-03     285.878E-03    -136.467E-03     249.788E-03    -113.026E-03     272.905E-03
             555     13.6641E-03     86.4912E-03    -17.1473E+06     105.185E+06     91.9434E+06     992.839E+03    -125.376E-03     238.699E-03    -113.323E-03     314.579E-03    -142.098E-03     255.467E-03    -112.991E-03     301.248E-03
             556     14.4726E-03     86.8547E-03    -8.80142E+06     124.524E+06     99.2218E+06     288.781E+03    -125.794E-03     239.109E-03    -113.315E-03     330.254E-03    -146.370E-03     259.808E-03    -112.987E-03     318.738E-03
             557     15.2763E-03     87.2509E-03    -4.72871E+06     122.471E+06     95.8193E+06    -330.211E+03    -120.998E-03     234.312E-03    -113.314E-03     259.725E-03    -136.088E-03     249.543E-03    -113.006E-03     253.174E-03
             558     803.552E-06     85.3888E-03    -86.9045E+06    -238.824E+06    -85.3345E+06     152.738E+03    -113.535E-03     226.931E-03    -113.396E-03     14.8323E-03    -113.512E-03     226.000E-03    -113.350E-03     14.4817E-03
             559     1.60709E-03     85.4119E-03    -84.6115E+06    -234.603E+06    -78.9717E+06     64.9216E+03    -113.573E-03     227.024E-03    -113.451E-03     27.1752E-03    -113.581E-03     226.128E-03    -113.383E-03     26.5164E-03
             560     2.41054E-03     85.4499E-03    -81.2835E+06    -228.206E+06    -69.2367E+06     118.507E+03    -113.744E-03     227.211E-03    -113.467E-03     40.1659E-03    -113.807E-03     226.375E-03    -113.364E-03     39.1679E-03
             561     3.21438E-03     85.5021E-03    -76.8210E+06    -220.876E+06    -58.4556E+06     91.2927E+03    -114.011E-03     227.497E-03    -113.486E-03     53.0521E-03    -114.148E-03     226.747E-03    -113.347E-03     51.6810E-03
             562     4.01775E-03     85.5688E-03    -72.0577E+06    -207.681E+06    -47.6065E+06     234.216E+03    -114.325E-03     227.824E-03    -113.500E-03     65.7980E-03    -114.572E-03     227.217E-03    -113.332E-03     64.0191E-03
             563     4.82156E-03     85.6494E-03    -67.1543E+06    -190.229E+06    -36.7854E+06     311.972E+03    -114.663E-03     228.168E-03    -113.505E-03     78.3657E-03    -115.060E-03     227.758E-03    -113.315E-03     76.1337E-03
             564     5.62517E-03     85.7442E-03    -62.2496E+06    -174.230E+06    -27.8143E+06     355.223E+03    -115.070E-03     228.572E-03    -113.502E-03     90.7012E-03    -115.655E-03     228.398E-03    -113.298E-03     87.9597E-03
             565     6.42880E-03     85.8521E-03    -57.5412E+06    -155.422E+06    -20.4845E+06     621.386E+03    -115.472E-03     228.959E-03    -113.487E-03     102.947E-03    -116.301E-03     229.091E-03    -113.280E-03     99.6395E-03
             566     7.23272E-03     85.9740E-03    -53.0378E+06    -131.511E+06    -14.2731E+06     1.02790E+06    -115.867E-03     229.322E-03    -113.456E-03     115.251E-03    -117.015E-03     229.857E-03    -113.260E-03     111.306E-03
             567     8.03620E-03     86.1090E-03    -48.9364E+06    -106.055E+06    -7.99685E+06     1.17406E+06    -116.271E-03     229.693E-03    -113.421E-03     127.744E-03    -117.838E-03     230.732E-03    -113.237E-03     123.066E-03
             568     8.84075E-03     86.2581E-03    -44.9685E+06    -74.2689E+06    -2.37384E+06     1.05129E+06    -116.678E-03     230.054E-03    -113.375E-03     140.397E-03    -118.796E-03     231.755E-03    -113.214E-03     134.876E-03
             569     9.64395E-03     86.4201E-03    -41.6110E+06    -29.2681E+06     2.99572E+06     1.26084E+06    -117.020E-03     230.331E-03    -113.311E-03     153.745E-03    -119.883E-03     232.934E-03    -113.193E-03     147.268E-03
             570     10.4480E-03     86.5988E-03    -38.4134E+06     22.4270E+06     10.6877E+06     2.06465E+06    -117.345E-03     230.587E-03    -113.242E-03     171.187E-03    -121.284E-03     234.439E-03    -113.165E-03     163.591E-03
             571     11.2524E-03     86.7992E-03    -34.3526E+06     56.5745E+06     27.6417E+06     2.31909E+06    -118.346E-03     231.572E-03    -113.226E-03     199.481E-03    -124.052E-03     237.277E-03    -113.120E-03     190.387E-03
             572     12.0565E-03     87.0392E-03    -29.5116E+06     71.8355E+06     54.2070E+06     1.53782E+06    -120.918E-03     234.196E-03    -113.278E-03     241.504E-03    -129.584E-03     242.855E-03    -113.068E-03     230.400E-03
             573     12.8610E-03     87.3364E-03    -23.4013E+06     87.2205E+06     77.7936E+06     241.632E+03    -124.155E-03     237.487E-03    -113.332E-03     285.461E-03    -136.897E-03     250.230E-03    -113.036E-03     272.402E-03
             574     13.6670E-03     87.6781E-03    -15.6910E+06     105.996E+06     92.0852E+06    -724.265E+03    -126.093E-03     239.463E-03    -113.370E-03     314.073E-03    -142.890E-03     256.313E-03    -113.040E-03     300.547E-03
             575     14.4643E-03     88.0466E-03    -9.71901E+06     122.308E+06     97.1242E+06     404.724E+03    -125.173E-03     238.545E-03    -113.372E-03     328.876E-03    -145.726E-03     259.216E-03    -113.050E-03     317.412E-03
             576     15.2707E-03     88.4277E-03    -4.85620E+06     121.872E+06     95.6123E+06      959.28E+03    -119.696E-03     233.031E-03    -113.335E-03     259.091E-03    -134.713E-03     248.186E-03    -113.026E-03     252.728E-03
             577     803.361E-06     86.5772E-03    -86.6083E+06    -238.670E+06    -85.2392E+06    -29.8580E+03    -113.546E-03     226.982E-03    -113.437E-03     14.8986E-03    -113.521E-03     226.051E-03    -113.391E-03     14.5442E-03
             578     1.60695E-03     86.6007E-03    -84.7183E+06    -234.738E+06    -79.0074E+06     54.7530E+03    -113.562E-03     227.031E-03    -113.469E-03     27.2158E-03    -113.571E-03     226.135E-03    -113.401E-03     26.5570E-03
             579     2.41069E-03     86.6383E-03    -81.2280E+06    -228.309E+06    -69.3416E+06     64.3366E+03    -113.733E-03     227.206E-03    -113.473E-03     40.1635E-03    -113.794E-03     226.370E-03    -113.371E-03     39.1650E-03
             580     3.21410E-03     86.6908E-03    -76.9999E+06    -221.061E+06    -58.6313E+06     234.663E+03    -114.006E-03     227.495E-03    -113.489E-03     53.0392E-03    -114.143E-03     226.744E-03    -113.350E-03     51.6706E-03
             581     4.01793E-03     86.7573E-03    -72.3035E+06    -207.813E+06    -47.6627E+06     226.137E+03    -114.332E-03     227.835E-03    -113.503E-03     65.7721E-03    -114.581E-03     227.227E-03    -113.335E-03     63.9929E-03
             582     4.82141E-03     86.8382E-03    -67.3448E+06    -190.519E+06    -37.0209E+06     368.499E+03    -114.684E-03     228.193E-03    -113.509E-03     78.3267E-03    -115.081E-03     227.782E-03    -113.320E-03     76.0945E-03
             583     5.62515E-03     86.9327E-03    -62.5200E+06    -174.479E+06    -27.6864E+06     616.745E+03    -115.065E-03     228.574E-03    -113.509E-03     90.7139E-03    -115.651E-03     228.398E-03    -113.304E-03     87.9763E-03
             584     6.42887E-03     87.0410E-03    -57.8176E+06    -155.750E+06    -20.3838E+06     623.827E+03    -115.464E-03     228.956E-03    -113.492E-03     102.971E-03    -116.294E-03     229.087E-03    -113.284E-03     99.6613E-03
             585     7.23251E-03     87.1623E-03    -53.2984E+06    -132.530E+06    -14.5380E+06     867.369E+03    -115.849E-03     229.307E-03    -113.459E-03     115.279E-03    -116.997E-03     229.838E-03    -113.262E-03     111.332E-03
             586     8.03670E-03     87.2978E-03    -49.0835E+06    -106.256E+06    -8.05443E+06     1.32254E+06    -116.279E-03     229.702E-03    -113.423E-03     127.672E-03    -117.846E-03     230.741E-03    -113.238E-03     122.996E-03
             587     8.84003E-03     87.4461E-03    -45.5386E+06    -74.2227E+06    -2.32071E+06     1.59337E+06    -116.729E-03     230.110E-03    -113.381E-03     140.271E-03    -118.849E-03     231.812E-03    -113.219E-03     134.754E-03
             588     9.64418E-03     87.6098E-03    -42.0979E+06    -30.2463E+06     2.76399E+06     1.68902E+06    -116.937E-03     230.253E-03    -113.316E-03     153.709E-03    -119.800E-03     232.851E-03    -113.197E-03     147.242E-03
             589     10.4480E-03     87.7866E-03    -38.1155E+06     21.9699E+06     10.8333E+06     1.84719E+06    -117.217E-03     230.455E-03    -113.238E-03     171.162E-03    -121.151E-03     234.300E-03    -113.161E-03     163.575E-03
             590     11.2525E-03     87.9874E-03    -33.2411E+06     56.6050E+06     28.1992E+06     2.16423E+06    -118.525E-03     231.751E-03    -113.226E-03     199.215E-03    -124.231E-03     237.457E-03    -113.118E-03     190.097E-03
             591     12.0568E-03     88.2281E-03    -27.5007E+06     73.5838E+06     55.7395E+06     1.94674E+06    -121.407E-03     234.711E-03    -113.304E-03     241.042E-03    -130.091E-03     243.397E-03    -113.093E-03     229.866E-03
             592     12.8611E-03     88.5242E-03    -22.2256E+06     88.9698E+06     79.5876E+06     1.22151E+06    -124.610E-03     238.006E-03    -113.395E-03     284.955E-03    -137.389E-03     250.791E-03    -113.094E-03     271.818E-03
             593     13.6611E-03     88.8687E-03    -18.1663E+06     106.868E+06     91.2667E+06    -185.903E+03    -125.434E-03     238.851E-03    -113.417E-03     314.923E-03    -142.234E-03     255.701E-03    -113.090E-03     301.551E-03
             594     14.4704E-03     89.2363E-03    -12.7203E+06     120.901E+06     95.2650E+06    -1.55427E+06    -125.241E-03     238.624E-03    -113.382E-03     331.420E-03    -145.920E-03     259.410E-03    -113.063E-03     319.938E-03
             595     15.2729E-03     89.6185E-03    -5.25678E+06     120.183E+06     95.0464E+06    -387.906E+03    -120.147E-03     233.494E-03    -113.347E-03     260.305E-03    -135.318E-03     248.797E-03    -113.038E-03     253.775E-03
             596     803.639E-06     87.7662E-03    -86.7722E+06    -238.911E+06    -85.5520E+06     20.7269E+03    -113.517E-03     226.901E-03    -113.383E-03     14.8570E-03    -113.493E-03     225.969E-03    -113.339E-03     14.5030E-03
             597     1.60710E-03     87.7891E-03    -84.7443E+06    -234.754E+06    -78.9642E+06     92.1734E+03    -113.594E-03     227.037E-03    -113.443E-03     27.2491E-03    -113.602E-03     226.141E-03    -113.375E-03     26.5911E-03
             598     2.41052E-03     87.8270E-03    -81.3584E+06    -228.445E+06    -69.3450E+06     164.669E+03    -113.776E-03     227.246E-03    -113.470E-03     40.2023E-03    -113.838E-03     226.410E-03    -113.367E-03     39.2046E-03
             599     3.21429E-03     87.8792E-03    -77.1173E+06    -221.367E+06    -58.9445E+06     259.390E+03    -114.029E-03     227.523E-03    -113.494E-03     53.0712E-03    -114.166E-03     226.772E-03    -113.356E-03     51.7019E-03
             600     4.01772E-03     87.9460E-03    -72.3840E+06    -207.856E+06    -47.6808E+06     402.715E+03    -114.336E-03     227.846E-03    -113.510E-03     65.7970E-03    -114.585E-03     227.238E-03    -113.342E-03     64.0199E-03
             601     4.82146E-03     88.0267E-03    -67.5107E+06    -190.967E+06    -36.7522E+06     464.180E+03    -114.673E-03     228.190E-03    -113.517E-03     78.3507E-03    -115.071E-03     227.777E-03    -113.326E-03     76.1205E-03
             602     5.62506E-03     88.1214E-03    -62.4512E+06    -175.011E+06    -27.6005E+06     818.655E+03    -115.049E-03     228.562E-03    -113.513E-03     90.7461E-03    -115.634E-03     228.384E-03    -113.306E-03     88.0116E-03
             603     6.42884E-03     88.2294E-03     -57.889E+06    -155.743E+06    -20.0606E+06     1.00869E+06    -115.469E-03     228.964E-03    -113.495E-03     102.966E-03    -116.300E-03     229.095E-03    -113.286E-03     99.6610E-03
             604     7.23270E-03     88.3512E-03    -53.5535E+06    -132.813E+06    -14.1801E+06     737.688E+03    -115.913E-03     229.380E-03    -113.467E-03     115.150E-03    -117.064E-03     229.910E-03    -113.267E-03     111.193E-03
             605     8.03623E-03     88.4860E-03    -49.0788E+06    -107.307E+06    -8.16600E+06     1.12406E+06    -116.353E-03     229.789E-03    -113.437E-03     127.634E-03    -117.918E-03     230.823E-03    -113.251E-03     122.950E-03
             606     8.84023E-03     88.6357E-03    -44.5537E+06    -75.4024E+06    -2.29512E+06     1.85315E+06    -116.665E-03     230.058E-03    -113.393E-03     140.334E-03    -118.779E-03     231.753E-03    -113.231E-03     134.825E-03
             607     9.64392E-03     88.7975E-03    -40.6845E+06    -30.1020E+06     3.56574E+06     2.25660E+06    -116.856E-03     230.179E-03    -113.323E-03     153.452E-03    -119.710E-03     232.771E-03    -113.202E-03     147.000E-03
             608     10.4486E-03     88.9755E-03    -37.1053E+06     22.7232E+06     12.0518E+06     2.02994E+06    -117.357E-03     230.608E-03    -113.251E-03     170.648E-03    -121.293E-03     234.458E-03    -113.170E-03     163.042E-03
             609     11.2522E-03     89.1760E-03    -33.2214E+06     56.1118E+06     28.7960E+06     1.13673E+06    -118.893E-03     232.153E-03    -113.259E-03     198.797E-03    -124.602E-03     237.859E-03    -113.149E-03     189.627E-03
             610     12.0559E-03     89.4167E-03    -28.2615E+06     72.1854E+06     54.9391E+06     1.26266E+06    -121.698E-03     235.054E-03    -113.355E-03     241.204E-03    -130.401E-03     243.753E-03    -113.144E-03     229.982E-03
             611     12.8577E-03     89.7147E-03    -21.6074E+06     89.5449E+06     79.4037E+06     2.34190E+06    -124.200E-03     237.629E-03    -113.430E-03     286.398E-03    -136.978E-03     250.419E-03    -113.131E-03     273.361E-03
             612     13.6653E-03     90.0574E-03    -14.2469E+06     111.080E+06     94.7415E+06     2.08777E+06    -125.074E-03     238.500E-03    -113.425E-03     314.874E-03    -141.797E-03     255.291E-03    -113.092E-03     301.617E-03
             613     14.4688E-03     90.4200E-03    -7.77477E+06     123.860E+06     99.4163E+06     740.673E+03    -124.885E-03     238.260E-03    -113.375E-03     330.540E-03    -145.494E-03     258.993E-03    -113.046E-03     319.182E-03
             614     15.2715E-03     90.8155E-03    -4.19584E+06     119.477E+06     95.8184E+06     789.998E+03    -120.114E-03     233.439E-03    -113.325E-03     259.368E-03    -135.180E-03     248.637E-03    -113.014E-03     252.953E-03
             615     803.483E-06     88.9544E-03    -87.1314E+06    -239.171E+06    -85.6548E+06     78.4533E+03    -113.480E-03     226.864E-03    -113.384E-03     14.7840E-03    -113.457E-03     225.932E-03    -113.339E-03     14.4309E-03
             616     1.60712E-03     88.9779E-03    -84.9806E+06    -234.977E+06    -79.1444E+06     175.624E+03    -113.597E-03     227.027E-03    -113.430E-03     27.1914E-03    -113.606E-03     226.130E-03    -113.362E-03     26.5345E-03
             617     2.41072E-03     89.0156E-03    -81.5294E+06    -228.485E+06    -69.2890E+06     238.754E+03    -113.801E-03     227.268E-03    -113.467E-03     40.1650E-03    -113.864E-03     226.432E-03    -113.364E-03     39.1680E-03
             618     3.21409E-03     89.0680E-03    -77.2208E+06    -221.438E+06    -58.9427E+06     174.360E+03    -114.053E-03     227.552E-03    -113.499E-03     53.0636E-03    -114.191E-03     226.800E-03    -113.360E-03     51.6921E-03
             619     4.01782E-03     89.1346E-03    -72.4609E+06    -208.303E+06    -48.2857E+06     287.047E+03    -114.322E-03     227.835E-03    -113.513E-03     65.8130E-03    -114.570E-03     227.226E-03    -113.347E-03     64.0342E-03
             620     4.82140E-03     89.2154E-03    -67.3792E+06    -191.378E+06    -36.8790E+06     636.326E+03    -114.656E-03     228.174E-03    -113.518E-03     78.3712E-03    -115.053E-03     227.759E-03    -113.327E-03     76.1434E-03
             621     5.62520E-03     89.3099E-03    -62.3604E+06      -175.8E+06    -27.3829E+06     932.086E+03    -115.077E-03     228.593E-03    -113.516E-03     90.7258E-03    -115.661E-03     228.411E-03    -113.308E-03     87.9908E-03
             622     6.42883E-03     89.4182E-03    -57.4269E+06    -156.015E+06    -19.6904E+06     1.29638E+06    -115.526E-03     229.029E-03    -113.503E-03     102.939E-03    -116.355E-03     229.158E-03    -113.292E-03     99.6348E-03
             623     7.23244E-03     89.5398E-03    -53.0983E+06    -132.058E+06    -13.3973E+06     1.20121E+06    -116.002E-03     229.485E-03    -113.483E-03     115.169E-03    -117.154E-03     230.018E-03    -113.281E-03     111.213E-03
             624     8.03618E-03     89.6752E-03    -49.0983E+06    -108.179E+06    -8.01559E+06     759.282E+03    -116.355E-03     229.811E-03    -113.456E-03     127.570E-03    -117.921E-03     230.842E-03    -113.268E-03     122.875E-03
             625     8.83998E-03     89.8237E-03    -45.1886E+06    -76.8819E+06    -2.85728E+06     1.28839E+06    -116.635E-03     230.044E-03    -113.409E-03     140.141E-03    -118.746E-03     231.730E-03    -113.246E-03     134.628E-03
             626     9.64421E-03     89.9867E-03    -40.8701E+06    -30.4057E+06     3.64232E+06     1.83983E+06    -117.017E-03     230.362E-03    -113.345E-03     153.234E-03    -119.871E-03     232.952E-03    -113.223E-03     146.768E-03
             627     10.4472E-03     90.1638E-03    -36.5807E+06     22.4094E+06     12.3017E+06     1.93192E+06    -117.561E-03     230.848E-03    -113.287E-03     170.564E-03    -121.500E-03     234.701E-03    -113.204E-03     162.934E-03
             628     11.2515E-03     90.3649E-03    -32.8253E+06     56.6042E+06     28.8987E+06     2.05818E+06    -118.921E-03     232.218E-03    -113.297E-03     199.487E-03    -124.638E-03     237.935E-03    -113.187E-03     190.326E-03
             629     12.0546E-03     90.6068E-03    -28.6500E+06     71.3670E+06     54.8062E+06     1.56216E+06    -121.257E-03     234.627E-03    -113.370E-03     242.317E-03    -129.955E-03     243.318E-03    -113.158E-03     231.169E-03
             630     12.8613E-03     90.9026E-03    -22.5722E+06     89.7895E+06      79.514E+06     340.142E+03    -123.965E-03     237.384E-03    -113.419E-03     286.258E-03    -136.746E-03     250.173E-03    -113.119E-03     273.216E-03
             631     13.6643E-03     91.2448E-03    -15.2546E+06     110.705E+06     94.0792E+06     378.172E+03    -125.660E-03     239.089E-03    -113.428E-03     314.330E-03    -142.443E-03     255.938E-03    -113.096E-03     300.911E-03
             632     14.4655E-03     91.6137E-03    -9.68778E+06     121.254E+06     97.5122E+06     2.09644E+06    -124.710E-03     238.106E-03    -113.397E-03     329.832E-03    -145.307E-03     258.817E-03    -113.071E-03     318.528E-03
             633     15.2752E-03     91.9937E-03    -4.38554E+06     121.709E+06     97.0046E+06     2.28619E+06    -119.372E-03     232.705E-03    -113.333E-03     259.995E-03    -134.475E-03     247.942E-03    -113.018E-03     253.721E-03
             634     803.586E-06     90.1432E-03    -87.2539E+06    -239.431E+06    -86.0049E+06     43.9840E+03    -113.529E-03     226.910E-03    -113.381E-03     14.8739E-03    -113.506E-03     225.977E-03    -113.337E-03     14.5212E-03
             635     1.60703E-03     90.1664E-03    -85.0617E+06    -235.149E+06    -79.3340E+06     141.160E+03    -113.613E-03     227.064E-03    -113.451E-03     27.1814E-03    -113.622E-03     226.167E-03    -113.384E-03     26.5232E-03
             636     2.41054E-03     90.2043E-03    -81.6544E+06    -228.683E+06    -69.5133E+06     222.841E+03    -113.784E-03     227.266E-03    -113.482E-03     40.1366E-03    -113.848E-03     226.429E-03    -113.379E-03     39.1392E-03
             637     3.21423E-03     90.2567E-03    -77.3936E+06    -221.458E+06    -58.8697E+06     300.107E+03    -114.033E-03     227.539E-03    -113.506E-03     53.0431E-03    -114.172E-03     226.787E-03    -113.367E-03     51.6739E-03
             638     4.01770E-03     90.3233E-03    -72.7115E+06    -208.489E+06    -48.4075E+06     213.986E+03    -114.327E-03     227.843E-03    -113.517E-03     65.7728E-03    -114.575E-03     227.234E-03    -113.351E-03     63.9923E-03
             639     4.82150E-03     90.4039E-03    -67.6882E+06    -192.105E+06    -37.4943E+06     404.683E+03    -114.693E-03     228.216E-03    -113.523E-03     78.3229E-03    -115.089E-03     227.799E-03    -113.334E-03     76.0902E-03
             640     5.62502E-03     90.4988E-03    -62.5009E+06    -176.410E+06    -27.5696E+06     811.215E+03    -115.119E-03     228.648E-03    -113.528E-03     90.6512E-03    -115.703E-03     228.463E-03    -113.320E-03     87.9124E-03
             641     6.42873E-03     90.6068E-03    -57.4651E+06    -156.750E+06    -19.8288E+06     1.09077E+06    -115.566E-03     229.086E-03    -113.520E-03     102.911E-03    -116.394E-03     229.211E-03    -113.308E-03     99.6030E-03
             642     7.23241E-03     90.7288E-03    -52.6514E+06    -132.073E+06    -13.1901E+06     1.42753E+06    -116.006E-03     229.505E-03    -113.499E-03     115.211E-03    -117.156E-03     230.038E-03    -113.298E-03     111.260E-03
             643     8.03603E-03     90.8638E-03    -48.9376E+06    -108.102E+06    -7.17918E+06     1.63828E+06    -116.401E-03     229.879E-03    -113.478E-03     127.421E-03    -117.969E-03     230.910E-03    -113.286E-03     122.732E-03
             644     8.83985E-03     91.0124E-03    -45.5953E+06    -77.5101E+06    -2.62766E+06     1.61912E+06    -116.697E-03     230.131E-03    -113.434E-03     140.075E-03    -118.809E-03     231.813E-03    -113.268E-03     134.563E-03
             645     9.64327E-03     91.1753E-03    -42.2678E+06    -30.8451E+06     2.67347E+06     1.16860E+06    -117.000E-03     230.363E-03    -113.363E-03     153.694E-03    -119.859E-03     232.955E-03    -113.244E-03     147.226E-03
             646     10.4478E-03     91.3531E-03    -38.7098E+06     21.7519E+06     10.6375E+06     1.05105E+06    -117.556E-03     230.853E-03    -113.297E-03     171.254E-03    -121.510E-03     234.716E-03    -113.219E-03     163.612E-03
             647     11.2512E-03     91.5537E-03    -34.1104E+06     55.4575E+06     26.8812E+06     1.86106E+06    -118.688E-03     231.980E-03    -113.292E-03     199.882E-03    -124.418E-03     237.708E-03    -113.189E-03     190.726E-03
             648     12.0569E-03     91.7951E-03    -28.7552E+06     72.2484E+06     54.5843E+06     2.02475E+06    -121.167E-03     234.528E-03    -113.361E-03     241.601E-03    -129.844E-03     243.202E-03    -113.152E-03     230.468E-03
             649     12.8595E-03     92.0905E-03    -23.7993E+06     93.4638E+06     80.8277E+06     616.618E+03    -124.405E-03     237.837E-03    -113.432E-03     285.962E-03    -137.237E-03     250.682E-03    -113.129E-03     272.849E-03
             650     13.6621E-03     92.4367E-03    -19.0940E+06     108.381E+06     92.3513E+06    -488.571E+03    -124.909E-03     238.339E-03    -113.430E-03     314.747E-03    -141.674E-03     255.153E-03    -113.097E-03     301.462E-03
             651     14.4706E-03     92.7987E-03    -13.1588E+06     118.740E+06     95.4970E+06     769.994E+03    -124.802E-03     238.168E-03    -113.367E-03     331.328E-03    -145.419E-03     258.884E-03    -113.042E-03     319.956E-03
             652     15.2694E-03     93.1857E-03    -6.80092E+06     123.749E+06     95.7612E+06     1.00293E+06    -120.535E-03     233.856E-03    -113.321E-03     260.700E-03    -135.754E-03     249.213E-03    -113.012E-03     254.174E-03
             653     803.505E-06     91.3319E-03    -87.2180E+06    -239.371E+06    -85.8675E+06     38.3286E+03    -113.566E-03     226.961E-03    -113.395E-03     14.9311E-03    -113.543E-03     226.028E-03    -113.351E-03     14.5799E-03
             654     1.60700E-03     91.3551E-03    -85.1127E+06    -235.308E+06    -79.5292E+06     1.92482E+03    -113.625E-03     227.097E-03    -113.473E-03     27.1924E-03    -113.633E-03     226.199E-03    -113.406E-03     26.5320E-03
             655     2.41057E-03     91.3929E-03    -81.7554E+06    -229.016E+06    -69.9635E+06     169.899E+03    -113.777E-03     227.272E-03    -113.495E-03     40.1698E-03    -113.840E-03     226.434E-03    -113.394E-03     39.1716E-03
             656     3.21407E-03     91.4453E-03    -77.5730E+06    -221.824E+06    -59.3292E+06     375.928E+03    -114.027E-03     227.541E-03    -113.514E-03     53.0281E-03    -114.166E-03     226.789E-03    -113.376E-03     51.6594E-03
             657     4.01782E-03     91.5119E-03    -72.8669E+06    -208.397E+06    -48.1535E+06     480.962E+03    -114.365E-03     227.893E-03    -113.529E-03     65.7495E-03    -114.614E-03     227.284E-03    -113.362E-03     63.9722E-03
             658     4.82123E-03     91.5928E-03    -67.9928E+06    -192.202E+06    -37.2011E+06     396.257E+03    -114.745E-03     228.286E-03    -113.542E-03     78.3256E-03    -115.143E-03     227.869E-03    -113.350E-03     76.0911E-03
             659     5.62498E-03     91.6874E-03    -63.1063E+06    -177.250E+06    -28.0920E+06     585.845E+03    -115.160E-03     228.709E-03    -113.549E-03     90.6838E-03    -115.745E-03     228.521E-03    -113.341E-03     87.9416E-03
             660     6.42852E-03     91.7958E-03    -58.2886E+06    -157.516E+06    -20.4282E+06     941.729E+03    -115.575E-03     229.116E-03    -113.541E-03     102.928E-03    -116.405E-03     229.239E-03    -113.330E-03     99.6182E-03
             661     7.23219E-03     91.9174E-03    -54.0682E+06    -133.393E+06    -14.2461E+06     1.37079E+06    -115.964E-03     229.480E-03    -113.516E-03     115.222E-03    -117.116E-03     230.008E-03    -113.315E-03     111.272E-03
             662     8.03596E-03     92.0529E-03    -49.6933E+06    -108.383E+06    -7.61924E+06     2.10431E+06    -116.368E-03     229.856E-03    -113.488E-03     127.572E-03    -117.936E-03     230.885E-03    -113.297E-03     122.899E-03
             663     8.83945E-03     92.2012E-03    -45.6365E+06    -77.2086E+06    -2.61683E+06     2.03106E+06    -116.692E-03     230.132E-03    -113.441E-03     140.215E-03    -118.807E-03     231.819E-03    -113.276E-03     134.705E-03
             664     9.64401E-03     92.3637E-03    -42.1703E+06    -31.1236E+06     2.12384E+06     1.94293E+06    -116.941E-03     230.305E-03    -113.364E-03     153.863E-03    -119.798E-03     232.895E-03    -113.247E-03     147.409E-03
             665     10.4475E-03     92.5421E-03    -39.1932E+06     22.1458E+06     10.7306E+06     1.62002E+06    -117.432E-03     230.725E-03    -113.293E-03     171.249E-03    -121.386E-03     234.587E-03    -113.214E-03     163.628E-03
             666     11.2520E-03     92.7425E-03    -35.9227E+06     55.1428E+06     27.1245E+06     1.07238E+06    -118.746E-03     232.039E-03    -113.292E-03     199.330E-03    -124.480E-03     237.762E-03    -113.185E-03     190.159E-03
             667     12.0548E-03     92.9831E-03    -31.4301E+06     72.5028E+06     53.3554E+06     1.50904E+06    -121.486E-03     234.854E-03    -113.368E-03     241.943E-03    -130.194E-03     243.553E-03    -113.161E-03     230.766E-03
             668     12.8591E-03     93.2812E-03    -25.2210E+06     95.7630E+06     80.1962E+06     1.14875E+06    -123.864E-03     237.288E-03    -113.423E-03     287.054E-03    -136.687E-03     250.128E-03    -113.125E-03     274.046E-03
             669     13.6653E-03     93.6243E-03    -18.1837E+06     108.883E+06     93.5378E+06     803.518E+03    -124.885E-03     238.295E-03    -113.410E-03     314.113E-03    -141.648E-03     255.109E-03    -113.074E-03     300.835E-03
             670     14.4686E-03     93.9840E-03    -11.4928E+06     118.468E+06     96.6137E+06     920.127E+03    -125.155E-03     238.524E-03    -113.369E-03     329.606E-03    -145.726E-03     259.195E-03    -113.041E-03     318.140E-03
             671     15.2764E-03     94.3829E-03    -5.59250E+06     123.860E+06     95.6872E+06     6.51685E+03    -119.975E-03     233.298E-03    -113.323E-03     259.541E-03    -135.017E-03     248.482E-03    -113.016E-03     253.065E-03
             672     803.463E-06     92.5205E-03    -87.2635E+06    -239.484E+06    -85.9269E+06     31.6967E+03    -113.525E-03     226.991E-03    -113.466E-03     14.9201E-03    -113.502E-03     226.058E-03    -113.422E-03     14.5689E-03
             673     1.60701E-03     92.5439E-03    -85.2653E+06    -235.423E+06     -79.569E+06     129.244E+03    -113.603E-03     227.084E-03    -113.481E-03     27.2184E-03    -113.613E-03     226.186E-03    -113.414E-03     26.5601E-03
             674     2.41051E-03     92.5816E-03    -82.1240E+06    -229.336E+06    -70.2091E+06     245.960E+03    -113.805E-03     227.304E-03    -113.500E-03     40.1631E-03    -113.868E-03     226.466E-03    -113.399E-03     39.1657E-03
             675     3.21417E-03     92.6340E-03    -77.8396E+06    -222.114E+06    -59.5857E+06     361.310E+03    -114.077E-03     227.603E-03    -113.527E-03     53.0292E-03    -114.216E-03     226.850E-03    -113.390E-03     51.6597E-03
             676     4.01756E-03     92.7006E-03    -73.2247E+06    -208.824E+06    -48.5996E+06     629.689E+03    -114.393E-03     227.939E-03    -113.546E-03     65.7577E-03    -114.643E-03     227.329E-03    -113.380E-03     63.9818E-03
             677     4.82133E-03     92.7815E-03    -68.5542E+06    -192.289E+06    -37.4432E+06     845.982E+03    -114.755E-03     228.315E-03    -113.560E-03     78.3511E-03    -115.155E-03     227.898E-03    -113.369E-03     76.1230E-03
             678     5.62476E-03     92.8762E-03    -63.7134E+06    -177.564E+06    -28.1086E+06     810.854E+03    -115.151E-03     228.717E-03    -113.566E-03     90.7603E-03    -115.738E-03     228.529E-03    -113.357E-03     88.0219E-03
             679     6.42845E-03     92.9845E-03    -59.1443E+06    -158.520E+06    -21.2672E+06     1.05688E+06    -115.550E-03     229.101E-03    -113.551E-03     103.083E-03    -116.382E-03     229.222E-03    -113.341E-03     99.7758E-03
             680     7.23211E-03     93.1063E-03    -54.6790E+06    -134.281E+06    -15.1221E+06     1.71621E+06    -115.934E-03     229.454E-03    -113.520E-03     115.369E-03    -117.087E-03     229.979E-03    -113.321E-03     111.428E-03
             681     8.03591E-03     93.2414E-03    -50.4454E+06    -109.334E+06    -8.79386E+06     1.75031E+06    -116.279E-03     229.763E-03    -113.484E-03     127.686E-03    -117.846E-03     230.788E-03    -113.296E-03     123.016E-03
             682     8.84013E-03     93.3901E-03    -46.1786E+06    -77.2609E+06    -3.04277E+06     1.71293E+06    -116.698E-03     230.132E-03    -113.434E-03     140.249E-03    -118.816E-03     231.820E-03    -113.270E-03     134.735E-03
             683     9.64322E-03     93.5524E-03    -42.0867E+06    -31.5922E+06     2.32768E+06     2.15953E+06    -117.011E-03     230.375E-03    -113.364E-03     153.732E-03    -119.872E-03     232.967E-03    -113.246E-03     147.267E-03
             684     10.4477E-03     93.7306E-03    -38.4139E+06     21.7602E+06     11.1358E+06     2.96701E+06    -117.417E-03     230.712E-03    -113.295E-03     171.335E-03    -121.363E-03     234.567E-03    -113.215E-03     163.739E-03
             685     11.2512E-03     93.9315E-03    -35.1804E+06     55.9831E+06     28.2442E+06     2.87507E+06    -118.772E-03     232.066E-03    -113.295E-03     199.642E-03    -124.507E-03     237.793E-03    -113.184E-03     190.499E-03
             686     12.0561E-03     94.1726E-03    -30.5586E+06     73.5324E+06     54.5358E+06     1.74255E+06    -121.177E-03     234.535E-03    -113.357E-03     242.452E-03    -129.880E-03     243.232E-03    -113.147E-03     231.321E-03
             687     12.8604E-03     94.4698E-03    -23.8880E+06     96.8358E+06     81.1971E+06     777.310E+03    -123.761E-03     237.161E-03    -113.400E-03     286.140E-03    -136.537E-03     249.960E-03    -113.100E-03     273.147E-03
             688     13.6652E-03     94.8098E-03    -16.3466E+06     108.099E+06     93.2378E+06      651.58E+03    -125.838E-03     239.251E-03    -113.413E-03     314.159E-03    -142.658E-03     256.126E-03    -113.080E-03     300.711E-03
             689     14.4657E-03     95.1814E-03    -9.54227E+06     115.719E+06     95.5553E+06     1.45074E+06    -125.268E-03     238.671E-03    -113.403E-03     329.318E-03    -145.821E-03     259.323E-03    -113.079E-03     317.904E-03
             690     15.2681E-03     95.5553E-03    -3.51857E+06     125.359E+06     97.6164E+06     985.128E+03    -119.002E-03     232.347E-03    -113.345E-03     260.022E-03    -134.054E-03     247.549E-03    -113.034E-03     253.717E-03
             691     803.476E-06     93.7092E-03    -87.6440E+06    -239.871E+06    -86.2585E+06     172.590E+03    -113.517E-03     226.993E-03    -113.476E-03     14.8850E-03    -113.495E-03     226.059E-03    -113.433E-03     14.5338E-03
             692     1.60703E-03     93.7324E-03    -85.7537E+06    -235.868E+06    -79.8685E+06     405.014E+03    -113.625E-03     227.111E-03    -113.487E-03     27.1954E-03    -113.635E-03     226.212E-03    -113.420E-03     26.5413E-03
             693     2.41057E-03     93.7704E-03    -82.4056E+06    -229.561E+06    -70.3001E+06     495.975E+03    -113.834E-03     227.348E-03    -113.513E-03     40.1315E-03    -113.899E-03     226.509E-03    -113.412E-03     39.1366E-03
             694     3.21396E-03     93.8227E-03    -78.3776E+06    -222.564E+06    -59.9417E+06     662.802E+03    -114.096E-03     227.639E-03    -113.543E-03     53.0323E-03    -114.236E-03     226.885E-03    -113.406E-03     51.6663E-03
             695     4.01763E-03     93.8895E-03    -73.7923E+06    -209.347E+06    -49.0873E+06     753.862E+03    -114.395E-03     227.956E-03    -113.561E-03     65.8298E-03    -114.646E-03     227.345E-03    -113.396E-03     64.0558E-03
             696     4.82104E-03     93.9702E-03    -68.6791E+06    -192.888E+06    -37.8754E+06     1.00480E+06    -114.733E-03     228.303E-03    -113.570E-03     78.4487E-03    -115.132E-03     227.884E-03    -113.380E-03     76.2245E-03
             697     5.62483E-03     94.0651E-03    -63.7805E+06    -177.915E+06    -28.3955E+06     1.34014E+06    -115.111E-03     228.681E-03    -113.570E-03     90.8379E-03    -115.698E-03     228.492E-03    -113.361E-03     88.1081E-03
             698     6.42850E-03     94.1731E-03    -59.2516E+06    -158.690E+06    -21.2830E+06     1.47925E+06    -115.510E-03     229.059E-03    -113.549E-03     103.116E-03    -116.342E-03     229.179E-03    -113.339E-03     99.8169E-03
             699     7.23231E-03     94.2952E-03    -54.7277E+06    -135.130E+06    -15.4106E+06     1.49262E+06    -115.891E-03     229.404E-03    -113.513E-03     115.353E-03    -117.041E-03     229.925E-03    -113.315E-03     111.412E-03
             700     8.03605E-03     94.4300E-03    -50.0999E+06    -109.656E+06    -8.90210E+06     1.51838E+06    -116.288E-03     229.764E-03    -113.475E-03     127.687E-03    -117.854E-03     230.788E-03    -113.288E-03     123.012E-03
             701     8.83961E-03     94.5787E-03    -45.9603E+06    -77.7325E+06    -3.10311E+06     1.67148E+06    -116.684E-03     230.110E-03    -113.426E-03     140.421E-03    -118.799E-03     231.795E-03    -113.262E-03     134.910E-03
             702     9.64398E-03     94.7417E-03    -42.5776E+06    -32.2561E+06     2.44283E+06     2.34212E+06    -117.022E-03     230.379E-03    -113.358E-03     153.866E-03    -119.886E-03     232.971E-03    -113.237E-03     147.403E-03
             703     10.4475E-03     94.9188E-03    -38.9189E+06     20.4352E+06     10.1263E+06     2.80282E+06    -117.413E-03     230.697E-03    -113.284E-03     171.461E-03    -121.361E-03     234.550E-03    -113.207E-03     163.859E-03
             704     11.2522E-03     95.1208E-03    -33.1325E+06     56.1797E+06     27.9729E+06     2.58018E+06    -118.672E-03     231.949E-03    -113.276E-03     199.976E-03    -124.395E-03     237.672E-03    -113.170E-03     190.840E-03
             705     12.0555E-03     95.3609E-03    -26.3785E+06     74.7772E+06     56.9585E+06     2.35617E+06    -121.165E-03     234.513E-03    -113.348E-03     241.489E-03    -129.849E-03     243.203E-03    -113.133E-03     230.355E-03
             706     12.8608E-03     95.6570E-03    -20.4971E+06     97.8960E+06     83.0820E+06     2.28503E+06    -124.336E-03     237.749E-03    -113.412E-03     285.964E-03    -137.137E-03     250.583E-03    -113.109E-03     272.887E-03
             707     13.6619E-03     96.0025E-03    -15.5896E+06     108.537E+06     93.2049E+06     1.33716E+06    -125.221E-03     238.632E-03    -113.411E-03     315.420E-03    -141.967E-03     255.438E-03    -113.080E-03     302.125E-03
             708     14.4699E-03     96.3666E-03    -10.6325E+06     115.387E+06     95.3486E+06     484.502E+03    -124.744E-03     238.099E-03    -113.356E-03     331.145E-03    -145.389E-03     258.840E-03    -113.031E-03     319.818E-03
             709     15.2765E-03     96.7528E-03    -5.22505E+06     126.461E+06     97.3010E+06     998.071E+03    -120.262E-03     233.571E-03    -113.310E-03     260.197E-03    -135.498E-03     248.956E-03    -112.999E-03     253.722E-03
             710     803.517E-06     94.8979E-03    -88.3412E+06    -240.587E+06    -86.9248E+06     373.339E+03    -113.570E-03     227.018E-03    -113.448E-03     14.8289E-03    -113.549E-03     226.082E-03    -113.406E-03     14.4800E-03
             711     1.60694E-03     94.9212E-03    -86.2694E+06    -236.414E+06    -80.3878E+06     523.435E+03    -113.658E-03     227.162E-03    -113.504E-03     27.2002E-03    -113.670E-03     226.261E-03    -113.438E-03     26.5475E-03
             712     2.41039E-03     94.9591E-03    -82.8038E+06    -230.008E+06    -70.7276E+06     664.081E+03    -113.825E-03     227.355E-03    -113.530E-03     40.1784E-03    -113.890E-03     226.515E-03    -113.430E-03     39.1862E-03
             713     3.21403E-03     95.0115E-03    -78.6116E+06    -222.957E+06    -60.4219E+06     800.983E+03    -114.074E-03     227.625E-03    -113.550E-03     53.0973E-03    -114.215E-03     226.870E-03    -113.415E-03     51.7336E-03
             714     4.01751E-03     95.0781E-03    -73.8536E+06    -209.585E+06    -49.4503E+06     941.418E+03    -114.372E-03     227.933E-03    -113.562E-03     65.9017E-03    -114.623E-03     227.321E-03    -113.398E-03     64.1311E-03
             715     4.82127E-03     95.1591E-03    -68.9390E+06    -193.753E+06    -38.3221E+06     1.08666E+06    -114.705E-03     228.272E-03    -113.566E-03     78.4998E-03    -115.104E-03     227.849E-03    -113.377E-03     76.2773E-03
             716     5.62483E-03     95.2536E-03    -63.8647E+06    -178.746E+06    -28.8193E+06     1.40473E+06    -115.097E-03     228.660E-03    -113.562E-03     90.8825E-03    -115.682E-03     228.467E-03    -113.355E-03     88.1550E-03
             717     6.42851E-03     95.3621E-03    -58.6826E+06    -158.913E+06    -20.8921E+06     1.65225E+06    -115.488E-03     229.030E-03    -113.542E-03     103.133E-03    -116.317E-03     229.148E-03    -113.331E-03     99.8379E-03
             718     7.23219E-03     95.4835E-03    -54.1206E+06    -135.089E+06    -14.7796E+06     1.52023E+06    -115.863E-03     229.368E-03    -113.505E-03     115.359E-03    -117.011E-03     229.887E-03    -113.305E-03     111.419E-03
             719     8.03615E-03     95.6188E-03    -50.2515E+06    -109.956E+06    -9.02616E+06     1.50819E+06    -116.277E-03     229.740E-03    -113.464E-03     127.792E-03    -117.842E-03     230.763E-03    -113.276E-03     123.119E-03
             720     8.84013E-03     95.7676E-03    -46.7462E+06    -78.7448E+06    -3.64447E+06     2.09665E+06    -116.658E-03     230.071E-03    -113.413E-03     140.471E-03    -118.776E-03     231.754E-03    -113.249E-03     134.968E-03
             721     9.64378E-03     95.9299E-03    -42.9859E+06    -33.3198E+06     2.02580E+06     2.52545E+06    -116.976E-03     230.319E-03    -113.342E-03     153.901E-03    -119.837E-03     232.903E-03    -113.222E-03     147.449E-03
             722     10.4479E-03     96.1084E-03    -38.3212E+06     21.3717E+06     10.8678E+06     1.61118E+06    -117.459E-03     230.732E-03    -113.272E-03     171.281E-03    -121.411E-03     234.592E-03    -113.193E-03     163.653E-03
             723     11.2517E-03     96.3079E-03    -33.7718E+06     56.3542E+06     28.3894E+06     769.857E+03    -118.712E-03     231.983E-03    -113.271E-03     199.744E-03    -124.430E-03     237.699E-03    -113.162E-03     190.591E-03
             724     12.0565E-03     96.5513E-03    -29.0822E+06     73.6344E+06     54.7799E+06     832.075E+03    -121.374E-03     234.718E-03    -113.344E-03     241.790E-03    -130.084E-03     243.427E-03    -113.134E-03     230.607E-03
             725     12.8585E-03     96.8451E-03    -23.4600E+06     96.4066E+06     80.8834E+06     1.88318E+06    -123.944E-03     237.342E-03    -113.398E-03     287.191E-03    -136.788E-03     250.210E-03    -113.099E-03     274.149E-03
             726     13.6659E-03     97.1925E-03    -17.7226E+06     110.516E+06     94.1962E+06     2.75694E+06    -124.570E-03     237.945E-03    -113.375E-03     315.017E-03    -141.338E-03     254.769E-03    -113.038E-03     301.814E-03
             727     14.4701E-03     97.5503E-03    -11.7731E+06     118.774E+06     97.1192E+06     564.519E+03    -124.750E-03     238.060E-03    -113.311E-03     330.540E-03    -145.411E-03     258.820E-03    -112.980E-03     319.140E-03
             728     15.2705E-03     97.9457E-03    -6.24909E+06     125.398E+06     96.8045E+06    -189.280E+03    -120.675E-03     233.949E-03    -113.274E-03     259.422E-03    -135.788E-03     249.204E-03    -112.963E-03     252.874E-03
             729     803.442E-06     96.0867E-03    -88.9113E+06    -241.302E+06    -87.7463E+06     160.097E+03    -113.591E-03     227.033E-03    -113.442E-03     14.9293E-03    -113.571E-03     226.095E-03    -113.402E-03     14.5777E-03
             730     1.60694E-03     96.1100E-03    -86.7421E+06    -237.033E+06    -81.1748E+06     448.432E+03    -113.658E-03     227.166E-03    -113.508E-03     27.2423E-03    -113.670E-03     226.264E-03    -113.445E-03     26.5884E-03
             731     2.41050E-03     96.1478E-03    -83.2240E+06    -230.483E+06    -71.3702E+06     589.996E+03    -113.805E-03     227.334E-03    -113.529E-03     40.2013E-03    -113.871E-03     226.493E-03    -113.431E-03     39.2086E-03
             732     3.21400E-03     96.2001E-03    -78.8654E+06    -223.333E+06    -60.9287E+06     663.339E+03    -114.053E-03     227.597E-03    -113.544E-03     53.1355E-03    -114.193E-03     226.842E-03    -113.411E-03     51.7709E-03
             733     4.01764E-03     96.2670E-03    -74.0976E+06    -210.144E+06    -50.1882E+06     832.698E+03    -114.358E-03     227.909E-03    -113.552E-03     65.9099E-03    -114.608E-03     227.296E-03    -113.390E-03     64.1382E-03
             734     4.82117E-03     96.3476E-03    -68.9846E+06    -194.132E+06    -38.5678E+06     1.06320E+06    -114.695E-03     228.252E-03    -113.558E-03     78.4793E-03    -115.093E-03     227.829E-03    -113.369E-03     76.2565E-03
             735     5.62491E-03     96.4425E-03    -63.6711E+06    -179.247E+06    -28.7280E+06     1.01974E+06    -115.071E-03     228.624E-03    -113.554E-03     90.8830E-03    -115.654E-03     228.429E-03    -113.345E-03     88.1516E-03
             736     6.42865E-03     96.5506E-03    -58.5081E+06    -159.883E+06    -21.3335E+06     1.09008E+06    -115.456E-03     228.985E-03    -113.529E-03     103.128E-03    -116.283E-03     229.098E-03    -113.319E-03     99.8268E-03
             737     7.23253E-03     96.6724E-03    -53.5845E+06    -135.307E+06    -14.6834E+06     1.55588E+06    -115.863E-03     229.355E-03    -113.492E-03     115.348E-03    -117.009E-03     229.873E-03    -113.291E-03     111.409E-03
             738     8.03621E-03     96.8073E-03    -49.3644E+06    -110.509E+06    -8.16560E+06     2.28626E+06    -116.273E-03     229.728E-03    -113.455E-03     127.731E-03    -117.834E-03     230.745E-03    -113.264E-03     123.069E-03
             739     8.84005E-03     96.9562E-03    -45.5302E+06    -79.8780E+06    -3.20758E+06     2.62612E+06    -116.656E-03     230.060E-03    -113.404E-03     140.401E-03    -118.765E-03     231.733E-03    -113.238E-03     134.906E-03
             740     9.64400E-03     97.1189E-03    -41.3085E+06    -32.9668E+06     2.54890E+06     2.18728E+06    -116.957E-03     230.288E-03    -113.331E-03     153.878E-03    -119.811E-03     232.871E-03    -113.210E-03     147.422E-03
             741     10.4480E-03     97.2965E-03    -38.2129E+06     22.5264E+06     11.4335E+06     2.21942E+06    -117.497E-03     230.759E-03    -113.262E-03     171.438E-03    -121.450E-03     234.623E-03    -113.182E-03     163.821E-03
             742     11.2518E-03     97.4982E-03    -36.4094E+06     56.4989E+06     26.9083E+06     2.07318E+06    -118.695E-03     231.953E-03    -113.258E-03     199.801E-03    -124.425E-03     237.676E-03    -113.153E-03     190.669E-03
             743     12.0555E-03     97.7378E-03    -33.1069E+06     74.5593E+06     53.0033E+06     290.134E+03    -121.195E-03     234.516E-03    -113.320E-03     242.631E-03    -129.927E-03     243.241E-03    -113.115E-03     231.466E-03
             744     12.8616E-03     98.0370E-03    -26.3121E+06     94.1742E+06     79.3912E+06     95.7411E+03    -123.643E-03     237.012E-03    -113.369E-03     285.884E-03    -136.450E-03     249.830E-03    -113.070E-03     272.874E-03
             745     13.6653E-03     98.3752E-03    -17.4649E+06     109.059E+06     93.9234E+06     2.04825E+06    -125.109E-03     238.476E-03    -113.367E-03     313.902E-03    -141.892E-03     255.312E-03    -113.030E-03     300.586E-03
             746     14.4678E-03     98.7459E-03    -10.9540E+06     122.055E+06     97.5918E+06     1.90634E+06    -125.333E-03     238.673E-03    -113.339E-03     329.471E-03    -145.885E-03     259.336E-03    -113.013E-03     318.004E-03
             747     15.2771E-03     99.1277E-03    -5.15683E+06     126.282E+06      97.486E+06    -69.5671E+03    -119.803E-03     233.110E-03    -113.307E-03     258.691E-03    -134.813E-03     248.267E-03    -112.995E-03     252.242E-03
             748     803.535E-06     97.2755E-03    -89.4307E+06    -241.618E+06    -88.1020E+06    -89.7145E+03    -113.612E-03     227.037E-03    -113.425E-03     14.9608E-03    -113.594E-03     226.100E-03    -113.386E-03     14.6058E-03
             749     1.60696E-03     97.2988E-03    -87.1344E+06    -237.514E+06    -81.8966E+06     111.499E+03    -113.632E-03     227.135E-03    -113.503E-03     27.1904E-03    -113.644E-03     226.232E-03    -113.442E-03     26.5316E-03
             750     2.41045E-03     97.3365E-03    -83.6671E+06    -231.048E+06    -72.1398E+06     377.128E+03    -113.795E-03     227.314E-03    -113.519E-03     40.1844E-03    -113.861E-03     226.472E-03    -113.423E-03     39.1887E-03
             751     3.21406E-03     97.3889E-03    -79.3320E+06    -223.598E+06    -61.2151E+06     428.015E+03    -114.047E-03     227.583E-03    -113.536E-03     53.1309E-03    -114.189E-03     226.827E-03    -113.403E-03     51.7630E-03
             752     4.01763E-03     97.4555E-03    -74.4999E+06    -210.457E+06    -50.4867E+06     356.387E+03    -114.350E-03     227.894E-03    -113.544E-03     65.9009E-03    -114.602E-03     227.280E-03    -113.383E-03     64.1227E-03
             753     4.82130E-03     97.5365E-03    -69.0902E+06    -194.634E+06    -39.3389E+06     372.773E+03    -114.691E-03     228.238E-03    -113.548E-03     78.4703E-03    -115.088E-03     227.813E-03    -113.362E-03     76.2385E-03
             754     5.62495E-03     97.6310E-03    -63.6190E+06    -179.411E+06    -29.3736E+06     568.747E+03    -115.063E-03     228.607E-03    -113.544E-03     90.8165E-03    -115.645E-03     228.411E-03    -113.338E-03     88.0791E-03
             755     6.42870E-03     97.7394E-03    -58.6031E+06    -160.141E+06    -21.6695E+06     584.615E+03    -115.452E-03     228.974E-03    -113.522E-03     103.001E-03    -116.277E-03     229.085E-03    -113.313E-03     99.6932E-03
             756     7.23238E-03     97.8608E-03    -53.9196E+06    -136.498E+06    -15.4390E+06     1.00677E+06    -115.857E-03     229.343E-03    -113.485E-03     115.229E-03    -117.001E-03     229.855E-03    -113.286E-03     111.283E-03
             757     8.03633E-03     97.9962E-03    -49.1765E+06    -112.063E+06     -8.9364E+06     1.93523E+06    -116.272E-03     229.721E-03    -113.449E-03     127.656E-03    -117.829E-03     230.731E-03    -113.260E-03     122.988E-03
             758     8.84012E-03     98.1447E-03    -44.4179E+06    -79.9051E+06    -3.13758E+06     2.25821E+06    -116.640E-03     230.038E-03    -113.398E-03     140.368E-03    -118.743E-03     231.708E-03    -113.233E-03     134.871E-03
             759     9.64413E-03     98.3075E-03    -41.0784E+06    -33.3819E+06     2.08117E+06     2.65812E+06    -116.953E-03     230.276E-03    -113.323E-03     153.790E-03    -119.803E-03     232.856E-03    -113.205E-03     147.342E-03
             760     10.4479E-03     98.4855E-03    -38.2366E+06     20.6189E+06     9.89617E+06     3.66750E+06    -117.348E-03     230.594E-03    -113.246E-03     171.445E-03    -121.288E-03     234.444E-03    -113.171E-03     163.865E-03
             761     11.2523E-03     98.6866E-03    -33.8791E+06     58.0945E+06     27.3521E+06     3.84957E+06    -118.593E-03     231.828E-03    -113.235E-03     199.686E-03    -124.312E-03     237.554E-03    -113.133E-03     190.581E-03
             762     12.0572E-03     98.9269E-03    -28.6233E+06     78.4298E+06     56.2850E+06     2.88150E+06    -121.262E-03     234.569E-03    -113.306E-03     242.182E-03    -129.974E-03     243.294E-03    -113.097E-03     231.047E-03
             763     12.8598E-03     99.2246E-03    -23.0437E+06     94.4167E+06     81.0686E+06     1.22294E+06    -124.130E-03     237.505E-03    -113.375E-03     285.262E-03    -136.906E-03     250.299E-03    -113.073E-03     272.224E-03
             764     13.6636E-03     99.5649E-03    -17.4043E+06     106.290E+06     92.0781E+06     493.725E+03    -125.609E-03     239.002E-03    -113.394E-03     314.144E-03    -142.371E-03     255.814E-03    -113.062E-03     300.728E-03
             765     14.4696E-03     99.9336E-03    -10.1242E+06     123.798E+06     97.6984E+06     1.12189E+06    -125.038E-03     238.404E-03    -113.366E-03     330.423E-03    -145.599E-03     259.085E-03    -113.042E-03     319.025E-03
             766     15.2665E-03     100.317E-03    -3.84288E+06     128.585E+06     98.0972E+06     974.804E+03    -119.577E-03     232.888E-03    -113.311E-03     260.405E-03    -134.701E-03     248.170E-03    -113.001E-03     254.058E-03
             767     803.359E-06     98.4643E-03    -89.5459E+06    -241.534E+06    -88.2608E+06     70.9339E+03    -113.582E-03     227.050E-03    -113.468E-03     14.8257E-03    -113.564E-03     226.113E-03    -113.429E-03     14.4721E-03
             768     1.60696E-03     98.4874E-03    -87.7324E+06    -237.648E+06    -82.0222E+06    -145.071E+03    -113.592E-03     227.094E-03    -113.502E-03     27.1874E-03    -113.607E-03     226.192E-03    -113.441E-03     26.5248E-03
             769     2.41054E-03     98.5253E-03    -83.9668E+06    -231.218E+06    -72.4203E+06    -221.139E+03    -113.801E-03     227.311E-03    -113.510E-03     40.1967E-03    -113.868E-03     226.469E-03    -113.415E-03     39.1926E-03
             770     3.21406E-03     98.5775E-03    -79.3019E+06    -223.839E+06    -61.7754E+06    -53.2409E+03    -114.066E-03     227.597E-03    -113.531E-03     53.0949E-03    -114.207E-03     226.841E-03    -113.400E-03     51.7200E-03
             771     4.01764E-03     98.6444E-03    -74.4193E+06    -210.287E+06    -50.3658E+06    -70.2641E+03    -114.346E-03     227.890E-03    -113.544E-03     65.8426E-03    -114.598E-03     227.277E-03    -113.383E-03     64.0589E-03
             772     4.82128E-03     98.7250E-03    -69.3060E+06    -194.623E+06    -39.5981E+06    -356.702E+03    -114.684E-03     228.231E-03    -113.546E-03     78.4051E-03    -115.082E-03     227.806E-03    -113.362E-03     76.1631E-03
             773     5.62494E-03     98.8199E-03    -63.9124E+06    -179.766E+06    -30.5616E+06    -315.655E+03    -115.074E-03     228.614E-03    -113.539E-03     90.7550E-03    -115.655E-03     228.418E-03    -113.339E-03     88.0051E-03
             774     6.42862E-03     98.9278E-03    -58.5904E+06    -160.290E+06    -22.5844E+06     108.869E+03    -115.469E-03     228.989E-03    -113.520E-03     102.973E-03    -116.292E-03     229.100E-03    -113.315E-03     99.6592E-03
             775     7.23248E-03     99.0496E-03    -53.8008E+06    -137.644E+06    -16.4472E+06     538.727E+03    -115.875E-03     229.361E-03    -113.486E-03     115.204E-03    -117.016E-03     229.870E-03    -113.290E-03     111.250E-03
             776     8.03618E-03     99.1845E-03    -49.3487E+06    -113.384E+06    -10.3693E+06     855.160E+03    -116.262E-03     229.710E-03    -113.448E-03     127.568E-03    -117.815E-03     230.716E-03    -113.264E-03     122.886E-03
             777     8.84019E-03     99.3334E-03    -45.3063E+06    -81.1454E+06    -4.44758E+06     1.53952E+06    -116.629E-03     230.027E-03    -113.398E-03     140.270E-03    -118.731E-03     231.692E-03    -113.237E-03     134.765E-03
             778     9.64392E-03     99.4961E-03    -41.3695E+06    -35.7287E+06     1.22632E+06     2.93958E+06    -116.936E-03     230.261E-03    -113.325E-03     153.727E-03    -119.781E-03     232.829E-03    -113.207E-03     147.284E-03
             779     10.4482E-03     99.6740E-03    -37.0301E+06     19.8300E+06     9.53424E+06     3.25827E+06    -117.297E-03     230.542E-03    -113.245E-03     171.019E-03    -121.226E-03     234.383E-03    -113.173E-03     163.433E-03
             780     11.2525E-03     99.8745E-03    -31.5252E+06     57.8528E+06     27.9833E+06     2.92436E+06    -118.655E-03     231.893E-03    -113.238E-03     199.396E-03    -124.361E-03     237.611E-03    -113.136E-03     190.269E-03
             781     12.0555E-03     100.116E-03    -25.6109E+06     78.7477E+06     57.7997E+06     3.61280E+06    -121.287E-03     234.603E-03    -113.316E-03     241.807E-03    -129.953E-03     243.290E-03    -113.104E-03     230.702E-03
             782     12.8610E-03     100.413E-03    -20.6690E+06     96.7242E+06     82.7476E+06     4.00848E+06    -124.259E-03     237.642E-03    -113.383E-03     286.123E-03    -137.038E-03     250.451E-03    -113.080E-03     273.106E-03
             783     13.6648E-03     100.756E-03    -15.3831E+06     109.142E+06     94.3888E+06     2.41126E+06    -125.551E-03     238.951E-03    -113.400E-03     314.739E-03    -142.366E-03     255.825E-03    -113.064E-03     301.357E-03
             784     14.4662E-03     101.120E-03    -10.7754E+06     123.278E+06     97.9466E+06     633.867E+03    -124.313E-03     237.661E-03    -113.349E-03     330.107E-03    -144.854E-03     258.318E-03    -113.022E-03     318.821E-03
             785     15.2814E-03     101.508E-03    -6.05725E+06     128.126E+06     97.1468E+06     666.505E+03    -119.689E-03     232.963E-03    -113.273E-03     260.863E-03    -134.780E-03     248.205E-03    -112.965E-03     254.512E-03
             786     803.480E-06     99.6528E-03    -89.8089E+06    -241.530E+06     -88.532E+06    -109.418E+03    -113.559E-03     227.001E-03    -113.442E-03     14.8043E-03    -113.542E-03     226.065E-03    -113.404E-03     14.4477E-03
             787     1.60701E-03     99.6762E-03    -87.3340E+06    -237.003E+06    -81.6455E+06    -291.549E+03    -113.620E-03     227.109E-03    -113.489E-03     27.1984E-03    -113.634E-03     226.209E-03    -113.427E-03     26.5338E-03
             788     2.41050E-03     99.7138E-03    -84.0633E+06    -230.741E+06    -72.0999E+06    -528.821E+03    -113.823E-03     227.335E-03    -113.512E-03     40.1810E-03    -113.892E-03     226.495E-03    -113.416E-03     39.1726E-03
             789     3.21401E-03     99.7664E-03    -79.4894E+06    -223.652E+06    -61.8429E+06    -859.272E+03    -114.079E-03     227.615E-03    -113.536E-03     53.0654E-03    -114.221E-03     226.860E-03    -113.406E-03     51.6796E-03
             790     4.01760E-03     99.8328E-03    -74.0699E+06    -210.407E+06    -50.9723E+06    -828.423E+03    -114.363E-03     227.911E-03    -113.548E-03     65.8039E-03    -114.612E-03     227.298E-03    -113.391E-03     64.0087E-03
             791     4.82122E-03     99.9139E-03    -68.9530E+06    -193.808E+06    -40.0943E+06    -878.702E+03    -114.692E-03     228.243E-03    -113.551E-03     78.3750E-03    -115.089E-03     227.823E-03    -113.370E-03     76.1260E-03
             792     5.62490E-03     100.008E-03    -63.6878E+06    -179.445E+06    -31.3593E+06    -1.31646E+06    -115.075E-03     228.618E-03    -113.543E-03     90.7014E-03    -115.654E-03     228.425E-03    -113.347E-03     87.9382E-03
             793     6.42867E-03     100.117E-03    -58.3097E+06    -161.511E+06    -24.1757E+06    -1.04692E+06    -115.480E-03     229.001E-03    -113.521E-03     102.911E-03    -116.298E-03     229.108E-03    -113.323E-03     99.5818E-03
             794     7.23231E-03     100.238E-03    -53.3839E+06    -138.764E+06    -17.3855E+06    -206.232E+03    -115.891E-03     229.381E-03    -113.491E-03     115.154E-03    -117.026E-03     229.885E-03    -113.299E-03     111.190E-03
             795     8.03619E-03     100.373E-03    -48.9929E+06    -114.073E+06    -10.7445E+06     426.722E+03    -116.281E-03     229.737E-03    -113.456E-03     127.528E-03    -117.831E-03     230.739E-03    -113.273E-03     122.839E-03
             796     8.83990E-03     100.522E-03    -44.9481E+06    -82.9809E+06    -5.19962E+06     1.20766E+06    -116.636E-03     230.041E-03    -113.405E-03     140.275E-03    -118.731E-03     231.697E-03    -113.246E-03     134.767E-03
             797     9.64407E-03     100.685E-03    -40.9761E+06    -38.3132E+06     435.993E+03     2.19184E+06    -116.898E-03     230.230E-03    -113.331E-03     153.686E-03    -119.736E-03     232.784E-03    -113.214E-03     147.236E-03
             798     10.4478E-03     100.862E-03    -37.1202E+06     20.3037E+06     9.55917E+06     2.65992E+06    -117.407E-03     230.660E-03    -113.253E-03     171.122E-03    -121.340E-03     234.506E-03    -113.181E-03     163.519E-03
             799     11.2516E-03     101.063E-03    -34.1300E+06     58.0639E+06     26.7672E+06     2.09741E+06    -118.731E-03     231.979E-03    -113.248E-03     199.762E-03    -124.449E-03     237.705E-03    -113.149E-03     190.623E-03
             800     12.0566E-03     101.305E-03    -29.8488E+06     75.5731E+06     54.7682E+06     2.28050E+06    -121.195E-03     234.518E-03    -113.322E-03     241.885E-03    -129.861E-03     243.187E-03    -113.115E-03     230.779E-03
             801     12.8601E-03     101.601E-03    -22.7408E+06     95.8436E+06     81.8274E+06     3.01094E+06    -123.966E-03     237.345E-03    -113.379E-03     286.574E-03    -136.761E-03     250.162E-03    -113.076E-03     273.572E-03
             802     13.6639E-03     101.946E-03    -16.2128E+06     111.268E+06     95.4474E+06     3.39756E+06    -124.909E-03     238.278E-03    -113.369E-03     314.907E-03    -141.701E-03     255.130E-03    -113.029E-03     301.663E-03
             803     14.4716E-03     102.309E-03    -10.6820E+06     125.975E+06     100.254E+06     3.41650E+06    -124.817E-03     238.138E-03    -113.321E-03     329.329E-03    -145.319E-03     258.758E-03    -112.987E-03     318.024E-03
             804     15.2663E-03     102.690E-03    -5.43554E+06     130.175E+06     99.5925E+06     992.115E+03    -119.660E-03     232.923E-03    -113.264E-03     261.040E-03    -134.765E-03     248.183E-03    -112.947E-03     254.597E-03
             805     803.564E-06     100.842E-03    -89.3228E+06    -240.685E+06     -88.102E+06    -568.957E+03    -113.600E-03     226.948E-03    -113.348E-03     14.8042E-03    -113.582E-03     226.015E-03    -113.310E-03     14.4433E-03
             806     1.60698E-03     100.865E-03    -87.1248E+06    -236.534E+06    -81.5772E+06    -568.143E+03    -113.682E-03     227.162E-03    -113.480E-03     27.1945E-03    -113.697E-03     226.264E-03    -113.418E-03     26.5262E-03
             807     2.41046E-03     100.903E-03    -83.4712E+06    -229.902E+06    -71.6779E+06    -762.234E+03    -113.847E-03     227.370E-03    -113.523E-03     40.1746E-03    -113.915E-03     226.533E-03    -113.427E-03     39.1629E-03
             808     3.21403E-03     100.955E-03    -79.1557E+06    -222.507E+06    -60.9367E+06    -1.15685E+06    -114.086E-03     227.637E-03    -113.551E-03     53.0406E-03    -114.229E-03     226.886E-03    -113.419E-03     51.6503E-03
             809     4.01755E-03     101.022E-03    -74.3163E+06    -209.681E+06    -50.9824E+06    -1.87983E+06    -114.387E-03     227.948E-03    -113.561E-03     65.7713E-03    -114.638E-03     227.339E-03    -113.404E-03     63.9611E-03
             810     4.82117E-03     101.102E-03    -68.3359E+06    -193.356E+06    -41.1039E+06    -2.33190E+06    -114.711E-03     228.270E-03    -113.559E-03     78.3123E-03    -115.103E-03     227.853E-03    -113.385E-03     76.0437E-03
             811     5.62482E-03     101.197E-03    -62.7368E+06    -179.131E+06    -32.0605E+06    -2.23913E+06    -115.074E-03     228.625E-03    -113.552E-03     90.6553E-03    -115.647E-03     228.433E-03    -113.361E-03     87.8807E-03
             812     6.42845E-03     101.305E-03    -58.1874E+06    -162.296E+06    -24.8811E+06    -1.86032E+06    -115.470E-03     229.000E-03    -113.530E-03     102.915E-03    -116.285E-03     229.104E-03    -113.335E-03     99.5756E-03
             813     7.23231E-03     101.427E-03    -53.8133E+06    -139.854E+06    -18.5026E+06    -1.19371E+06    -115.874E-03     229.369E-03    -113.495E-03     115.214E-03    -117.007E-03     229.869E-03    -113.307E-03     111.240E-03
             814     8.03603E-03     101.562E-03    -49.2294E+06    -115.072E+06    -11.8869E+06    -552.141E+03    -116.282E-03     229.740E-03    -113.458E-03     127.592E-03    -117.830E-03     230.739E-03    -113.279E-03     122.891E-03
             815     8.84005E-03     101.711E-03    -44.7478E+06    -85.0035E+06    -6.35656E+06     323.445E+03    -116.614E-03     230.020E-03    -113.406E-03     140.336E-03    -118.705E-03     231.669E-03    -113.250E-03     134.816E-03
             816     9.64369E-03     101.873E-03    -40.8405E+06    -40.4419E+06    -579.037E+03     1.78503E+06    -116.890E-03     230.221E-03    -113.330E-03     153.823E-03    -119.720E-03     232.764E-03    -113.215E-03     147.375E-03
             817     10.4482E-03     102.051E-03    -37.9363E+06     19.1311E+06     8.18848E+06     3.39559E+06    -117.396E-03     230.643E-03    -113.248E-03     171.440E-03    -121.331E-03     234.488E-03    -113.179E-03     163.852E-03
             818     11.2523E-03     102.253E-03    -35.3119E+06     59.8009E+06     25.6487E+06     3.68942E+06    -118.621E-03     231.856E-03    -113.235E-03     199.884E-03    -124.341E-03     237.588E-03    -113.142E-03     190.782E-03
             819     12.0557E-03     102.493E-03    -31.1347E+06     76.2386E+06     53.0308E+06     2.37030E+06    -121.105E-03     234.403E-03    -113.299E-03     242.481E-03    -129.803E-03     243.108E-03    -113.099E-03     231.375E-03
             820     12.8603E-03     102.791E-03    -26.0635E+06     93.6740E+06     79.2222E+06     1.65586E+06    -123.634E-03     236.975E-03    -113.340E-03     287.361E-03    -136.445E-03     249.796E-03    -113.042E-03     274.392E-03
             821     13.6663E-03     103.133E-03    -19.7400E+06     109.946E+06     93.8164E+06     2.00535E+06    -124.701E-03     238.014E-03    -113.313E-03     315.417E-03    -141.452E-03     254.813E-03    -112.975E-03     302.208E-03
             822     14.4683E-03     103.497E-03    -12.2600E+06     125.743E+06     98.8326E+06     2.39094E+06    -124.809E-03     238.057E-03    -113.248E-03     331.259E-03    -145.455E-03     258.819E-03    -112.918E-03     319.908E-03
             823     15.2796E-03     103.887E-03    -5.01677E+06     132.059E+06     100.068E+06     845.199E+03    -119.547E-03     232.733E-03    -113.186E-03     261.762E-03    -134.780E-03     248.127E-03    -112.869E-03     255.322E-03
             824     803.534E-06     102.030E-03    -89.1108E+06    -239.843E+06    -87.4141E+06         994.570    -113.592E-03     226.967E-03    -113.375E-03     14.9234E-03    -113.576E-03     226.037E-03    -113.335E-03     14.5718E-03
             825     1.60698E-03     102.054E-03    -87.1746E+06    -235.566E+06    -80.9616E+06    -559.926E+03    -113.706E-03     227.200E-03    -113.494E-03     27.2114E-03    -113.722E-03     226.305E-03    -113.431E-03     26.5444E-03
             826     2.41045E-03     102.091E-03    -83.4231E+06    -228.771E+06    -71.3500E+06    -1.34545E+06    -113.870E-03     227.410E-03    -113.540E-03     40.1299E-03    -113.939E-03     226.578E-03    -113.444E-03     39.1102E-03
             827     3.21390E-03     102.144E-03    -78.5298E+06    -221.446E+06    -60.8354E+06    -1.77156E+06    -114.098E-03     227.665E-03    -113.567E-03     53.0243E-03    -114.240E-03     226.918E-03    -113.436E-03     51.6257E-03
             828     4.01749E-03     102.210E-03    -73.1361E+06    -207.486E+06    -49.9800E+06    -2.58816E+06    -114.384E-03     227.960E-03    -113.576E-03     65.7919E-03    -114.634E-03     227.359E-03    -113.419E-03     63.9740E-03
             829     4.82100E-03     102.291E-03    -68.3818E+06    -192.377E+06    -40.9946E+06    -3.44096E+06    -114.704E-03     228.274E-03    -113.570E-03     78.3653E-03    -115.097E-03     227.861E-03    -113.397E-03     76.0834E-03
             830     5.62470E-03     102.386E-03    -64.2692E+06    -179.698E+06    -33.5192E+06    -2.91917E+06    -115.058E-03     228.613E-03    -113.556E-03     90.7326E-03    -115.635E-03     228.422E-03    -113.369E-03     87.9509E-03
             831     6.42853E-03     102.494E-03    -59.6709E+06    -161.994E+06    -25.8268E+06    -2.51874E+06    -115.448E-03     228.980E-03    -113.532E-03     102.995E-03    -116.269E-03     229.089E-03    -113.340E-03     99.6483E-03
             832     7.23224E-03     102.615E-03    -54.3817E+06    -140.323E+06    -19.6443E+06    -2.83021E+06    -115.834E-03     229.326E-03    -113.492E-03     115.263E-03    -116.968E-03     229.826E-03    -113.308E-03     111.270E-03
             833     8.03618E-03     102.751E-03    -49.2231E+06    -116.552E+06    -13.5452E+06    -2.33270E+06    -116.199E-03     229.645E-03    -113.446E-03     127.779E-03    -117.742E-03     230.638E-03    -113.273E-03     123.063E-03
             834     8.83983E-03     102.899E-03    -44.6263E+06    -86.7830E+06    -7.67996E+06    -1.00978E+06    -116.571E-03     229.960E-03    -113.389E-03     140.553E-03    -118.657E-03     231.602E-03    -113.237E-03     135.021E-03
             835     9.64432E-03     103.062E-03    -40.7241E+06    -44.3207E+06    -2.29206E+06     1.46506E+06    -116.903E-03     230.215E-03    -113.312E-03     154.074E-03    -119.728E-03     232.744E-03    -113.200E-03     147.620E-03
             836     10.4478E-03     103.240E-03    -37.0726E+06     16.2619E+06     5.97231E+06     4.14736E+06    -117.271E-03     230.489E-03    -113.218E-03     171.742E-03    -121.194E-03     234.321E-03    -113.158E-03     164.177E-03
             837     11.2521E-03     103.441E-03    -33.2130E+06     60.3672E+06     24.0510E+06     5.29395E+06    -118.406E-03     231.593E-03    -113.187E-03     200.309E-03    -124.118E-03     237.332E-03    -113.106E-03     191.249E-03
             838     12.0572E-03     103.682E-03    -29.7604E+06     78.8109E+06     52.7849E+06     5.03195E+06    -120.743E-03     233.978E-03    -113.235E-03     242.903E-03    -129.430E-03     242.686E-03    -113.042E-03     231.879E-03
             839     12.8622E-03     103.978E-03    -25.0076E+06     95.6886E+06     79.2227E+06     3.47669E+06    -123.469E-03     236.731E-03    -113.262E-03     287.541E-03    -136.252E-03     249.536E-03    -112.968E-03     274.636E-03
             840     13.6659E-03     104.321E-03    -18.0008E+06     110.124E+06     94.0384E+06     1.73683E+06    -124.680E-03     237.911E-03    -113.232E-03     315.910E-03    -141.435E-03     254.721E-03    -112.895E-03     302.709E-03
             841     14.4730E-03     104.687E-03    -10.9217E+06     125.678E+06     99.6033E+06     596.595E+03    -124.176E-03     237.329E-03    -113.153E-03     331.624E-03    -144.848E-03     258.120E-03    -112.822E-03     320.337E-03
             842     15.2733E-03     105.069E-03    -4.85131E+06     132.608E+06     99.7369E+06     598.496E+03    -119.922E-03     233.008E-03    -113.086E-03     260.472E-03    -135.086E-03     248.336E-03    -112.772E-03     254.027E-03
             843     803.497E-06     103.219E-03    -88.9688E+06    -239.627E+06    -87.6872E+06     63.3735E+03    -113.600E-03     227.065E-03    -113.465E-03     14.9691E-03    -113.583E-03     226.136E-03    -113.427E-03     14.6192E-03
             844     1.60694E-03     103.242E-03    -86.5991E+06    -234.394E+06    -80.4221E+06    -287.882E+03    -113.672E-03     227.199E-03    -113.526E-03     27.2340E-03    -113.689E-03     226.309E-03    -113.463E-03     26.5715E-03
             845     2.41034E-03     103.280E-03    -83.1215E+06    -226.396E+06    -70.3213E+06    -1.30513E+06    -113.860E-03     227.414E-03    -113.553E-03     40.1717E-03    -113.933E-03     226.592E-03    -113.456E-03     39.1534E-03
             846     3.21390E-03     103.332E-03    -78.4874E+06    -218.977E+06    -60.1128E+06    -3.18133E+06    -114.089E-03     227.664E-03    -113.574E-03     53.1036E-03    -114.236E-03     226.928E-03    -113.444E-03     51.6877E-03
             847     4.01740E-03     103.399E-03    -72.8353E+06    -205.639E+06    -50.0451E+06    -4.11717E+06    -114.350E-03     227.925E-03    -113.575E-03     65.8798E-03    -114.600E-03     227.332E-03    -113.421E-03     64.0445E-03
             848     4.82119E-03     103.480E-03    -67.5199E+06    -192.521E+06    -40.6669E+06    -3.13551E+06    -114.680E-03     228.247E-03    -113.567E-03     78.4004E-03    -115.070E-03     227.832E-03    -113.393E-03     76.1235E-03
             849     5.62481E-03     103.575E-03    -63.0815E+06    -179.719E+06    -33.3241E+06    -2.45271E+06    -115.046E-03     228.594E-03    -113.548E-03     90.7445E-03    -115.618E-03     228.401E-03    -113.363E-03     87.9694E-03
             850     6.42849E-03     103.682E-03    -58.6299E+06    -159.971E+06    -26.3389E+06    -3.49131E+06    -115.395E-03     228.909E-03    -113.514E-03     103.121E-03    -116.212E-03     229.027E-03    -113.329E-03     99.7667E-03
             851     7.23230E-03     103.804E-03    -54.1308E+06    -139.806E+06    -20.6490E+06    -4.45987E+06    -115.740E-03     229.207E-03    -113.467E-03     115.478E-03    -116.871E-03     229.709E-03    -113.289E-03     111.469E-03
             852     8.03621E-03     103.939E-03    -49.8745E+06    -118.113E+06    -15.3840E+06    -3.87557E+06    -116.092E-03     229.503E-03    -113.411E-03     128.018E-03    -117.632E-03     230.491E-03    -113.244E-03     123.292E-03
             853     8.84069E-03     104.088E-03    -46.1160E+06    -89.2258E+06    -10.0850E+06    -2.09906E+06    -116.501E-03     229.846E-03    -113.345E-03     140.876E-03    -118.586E-03     231.480E-03    -113.200E-03     135.343E-03
             854     9.64401E-03     104.250E-03      -42.29E+06    -48.8898E+06    -4.94835E+06    -3.52102E+03    -116.788E-03     230.051E-03    -113.263E-03     154.456E-03    -119.611E-03     232.565E-03    -113.156E-03     147.995E-03
             855     10.4489E-03     104.428E-03    -37.9513E+06     12.0805E+06     2.34980E+06     2.71144E+06    -117.055E-03     230.206E-03    -113.151E-03     172.176E-03    -120.969E-03     234.021E-03    -113.101E-03     164.618E-03
             856     11.2534E-03     104.629E-03    -33.3109E+06     58.1930E+06     19.9262E+06     5.02168E+06    -118.171E-03     231.268E-03    -113.097E-03     200.810E-03    -123.871E-03     236.999E-03    -113.033E-03     191.779E-03
             857     12.0576E-03     104.870E-03    -27.8106E+06     78.6501E+06     51.1801E+06     6.42621E+06    -120.725E-03     233.869E-03    -113.144E-03     242.851E-03    -129.386E-03     242.562E-03    -112.962E-03     231.856E-03
             858     12.8627E-03     105.165E-03    -21.8391E+06     99.8452E+06     81.4437E+06     5.61109E+06    -123.485E-03     236.673E-03    -113.188E-03     287.187E-03    -136.249E-03     249.478E-03    -112.894E-03     274.313E-03
             859     13.6683E-03     105.511E-03    -16.4263E+06     113.226E+06     96.2019E+06     2.34471E+06    -124.611E-03     237.782E-03    -113.171E-03     315.055E-03    -141.378E-03     254.613E-03    -112.830E-03     301.844E-03
             860     14.4721E-03     105.871E-03    -10.3647E+06     126.715E+06     101.419E+06     818.559E+03    -124.602E-03     237.725E-03    -113.123E-03     329.662E-03    -145.218E-03     258.460E-03    -112.785E-03     318.280E-03
             861     15.2808E-03     106.264E-03    -5.31321E+06     133.359E+06     101.246E+06      971.34E+03    -119.459E-03     232.529E-03    -113.070E-03     259.803E-03    -134.561E-03     247.792E-03    -112.749E-03     253.366E-03
             862     803.299E-06     104.408E-03    -88.2448E+06    -238.756E+06    -86.9752E+06    -420.316E+03    -113.620E-03     227.149E-03    -113.528E-03     14.9865E-03    -113.602E-03     226.222E-03    -113.489E-03     14.6281E-03
             863     1.60685E-03     104.431E-03    -85.8494E+06    -233.302E+06    -80.4312E+06    -845.118E+03    -113.620E-03     227.165E-03    -113.545E-03     27.2788E-03    -113.634E-03     226.280E-03    -113.484E-03     26.6091E-03
             864     2.41049E-03     104.469E-03    -81.4881E+06    -223.735E+06    -69.8932E+06    -1.79841E+06    -113.796E-03     227.338E-03    -113.541E-03     40.2755E-03    -113.865E-03     226.526E-03    -113.448E-03     39.2537E-03
             865     3.21390E-03     104.522E-03    -76.6834E+06    -214.659E+06    -58.0671E+06    -3.38029E+06    -114.065E-03     227.621E-03    -113.556E-03     53.1787E-03    -114.211E-03     226.902E-03    -113.424E-03     51.7621E-03
             866     4.01759E-03     104.588E-03    -72.9317E+06    -204.466E+06    -48.8390E+06    -4.17387E+06    -114.334E-03     227.894E-03    -113.560E-03     65.9093E-03    -114.588E-03     227.305E-03    -113.402E-03     64.0740E-03
             867     4.82109E-03     104.669E-03    -68.8813E+06    -193.617E+06    -42.1930E+06    -3.65150E+06    -114.623E-03     228.163E-03    -113.541E-03     78.4702E-03    -115.015E-03     227.746E-03    -113.371E-03     76.1896E-03
             868     5.62486E-03     104.763E-03    -63.2528E+06    -178.337E+06    -34.5140E+06    -3.87825E+06    -114.948E-03     228.458E-03    -113.510E-03     90.9326E-03    -115.521E-03     228.273E-03    -113.332E-03     88.1457E-03
             869     6.42871E-03     104.871E-03    -57.5527E+06    -157.366E+06    -27.1082E+06    -4.95174E+06    -115.275E-03     228.738E-03    -113.463E-03     103.360E-03    -116.089E-03     228.867E-03    -113.287E-03     99.9961E-03
             870     7.23281E-03     104.992E-03    -52.7144E+06    -139.048E+06    -20.9016E+06    -5.37545E+06    -115.645E-03     229.055E-03    -113.411E-03     115.690E-03    -116.769E-03     229.559E-03    -113.237E-03     111.679E-03
             871     8.03693E-03     105.128E-03    -48.7739E+06    -119.817E+06    -15.7400E+06    -4.30665E+06    -116.032E-03     229.385E-03    -113.353E-03     128.188E-03    -117.563E-03     230.363E-03    -113.188E-03     123.463E-03
             872     8.84056E-03     105.275E-03    -44.9863E+06    -91.8273E+06    -11.2059E+06    -2.74009E+06    -116.297E-03     229.573E-03    -113.276E-03     141.211E-03    -118.368E-03     231.191E-03    -113.134E-03     135.690E-03
             873     9.64557E-03     105.439E-03    -40.8690E+06    -52.0413E+06    -5.94993E+06    -1.13599E+06    -116.535E-03     229.712E-03    -113.177E-03     154.909E-03    -119.339E-03     232.203E-03    -113.072E-03     148.467E-03
             874     10.4494E-03     105.616E-03    -37.3528E+06     7.46665E+06     699.152E+03     1.46800E+06    -116.976E-03     230.030E-03    -113.054E-03     172.438E-03    -120.875E-03     233.821E-03    -113.007E-03     164.881E-03
             875     11.2543E-03     105.817E-03    -34.3306E+06     54.1355E+06     16.4965E+06     4.53817E+06    -118.204E-03     231.201E-03    -112.996E-03     200.712E-03    -123.892E-03     236.911E-03    -112.943E-03     191.679E-03
             876     12.0596E-03     106.057E-03    -30.3212E+06     77.6604E+06     47.0249E+06     5.07374E+06    -120.877E-03     233.928E-03    -113.051E-03     242.930E-03    -129.556E-03     242.639E-03    -112.884E-03     231.894E-03
             877     12.8632E-03     106.355E-03    -24.2924E+06     101.455E+06     80.5113E+06     4.18844E+06    -123.676E-03     236.801E-03    -113.125E-03     286.872E-03    -136.464E-03     249.629E-03    -112.834E-03     273.935E-03
             878     13.6679E-03     106.695E-03    -17.1580E+06     116.829E+06     98.9982E+06     3.53225E+06    -124.944E-03     238.087E-03    -113.142E-03     315.157E-03    -141.740E-03     254.949E-03    -112.792E-03     301.892E-03
             879     14.4720E-03     107.064E-03    -12.2075E+06     128.423E+06     102.585E+06     1.61027E+06    -124.423E-03     237.512E-03    -113.089E-03     331.633E-03    -145.117E-03     258.321E-03    -112.745E-03     320.300E-03
             880     15.2711E-03     107.444E-03    -6.02000E+06     133.595E+06     102.351E+06     351.375E+03    -118.579E-03     231.573E-03    -112.995E-03     262.215E-03    -133.769E-03     246.920E-03    -112.668E-03     255.914E-03
             881     803.507E-06     105.597E-03    -87.6497E+06    -237.768E+06    -85.9169E+06    -159.208E+03    -113.548E-03     227.057E-03    -113.508E-03     15.0620E-03    -113.530E-03     226.132E-03    -113.466E-03     14.7077E-03
             882     1.60690E-03     105.620E-03    -85.4113E+06    -230.532E+06    -80.1219E+06    -1.60715E+06    -113.628E-03     227.133E-03    -113.505E-03     27.3240E-03    -113.644E-03     226.260E-03    -113.448E-03     26.6449E-03
             883     2.41042E-03     105.658E-03    -82.1098E+06    -220.988E+06    -71.9376E+06    -3.06974E+06    -113.748E-03     227.248E-03    -113.500E-03     40.3119E-03    -113.821E-03     226.453E-03    -113.420E-03     39.2748E-03
             884     3.21419E-03     105.710E-03    -77.7948E+06    -212.312E+06    -60.3747E+06    -3.40033E+06    -113.970E-03     227.475E-03    -113.506E-03     53.2168E-03    -114.121E-03     226.772E-03    -113.387E-03     51.8049E-03
             885     4.01760E-03     105.777E-03    -72.7092E+06     -203.05E+06    -48.5305E+06    -3.41391E+06    -114.248E-03     227.759E-03    -113.511E-03     65.9992E-03    -114.504E-03     227.176E-03    -113.353E-03     64.1778E-03
             886     4.82147E-03     105.857E-03    -67.3901E+06    -191.964E+06    -40.0934E+06    -4.47812E+06    -114.513E-03     228.002E-03    -113.489E-03     78.6354E-03    -114.903E-03     227.587E-03    -113.313E-03     76.3492E-03
             887     5.62533E-03     105.952E-03    -61.9595E+06    -175.354E+06    -33.8883E+06    -6.37591E+06    -114.796E-03     228.233E-03    -113.437E-03     91.1565E-03    -115.367E-03     228.060E-03    -113.263E-03     88.3461E-03
             888     6.42936E-03     106.059E-03    -56.5374E+06    -156.057E+06    -27.7225E+06    -7.16167E+06    -115.147E-03     228.523E-03    -113.376E-03     103.566E-03    -115.956E-03     228.658E-03    -113.206E-03     100.183E-03
             889     7.23329E-03     106.181E-03    -52.0557E+06    -139.444E+06    -21.7869E+06    -6.16796E+06    -115.528E-03     228.847E-03    -113.319E-03     115.983E-03    -116.645E-03     229.347E-03    -113.150E-03     111.976E-03
             890     8.03726E-03     106.315E-03    -47.8006E+06    -120.246E+06    -16.3555E+06    -5.56846E+06    -115.837E-03     229.090E-03    -113.252E-03     128.628E-03    -117.360E-03     230.063E-03    -113.090E-03     123.906E-03
             891     8.84205E-03     106.464E-03    -42.7963E+06    -94.0292E+06    -11.9191E+06    -4.57267E+06    -116.093E-03     229.255E-03    -113.162E-03     141.639E-03    -118.147E-03     230.858E-03    -113.023E-03     136.114E-03
             892     9.64615E-03     106.626E-03    -38.6010E+06    -55.7620E+06    -7.04949E+06    -2.14765E+06    -116.421E-03     229.475E-03    -113.054E-03     155.312E-03    -119.202E-03     231.942E-03    -112.953E-03     148.880E-03
             893     10.4513E-03     106.804E-03    -35.6529E+06     981.617E+03     1.48340E+06     1.92947E+06    -117.020E-03     229.967E-03    -112.947E-03     172.751E-03    -120.901E-03     233.721E-03    -112.890E-03     165.211E-03
             894     11.2554E-03     107.004E-03    -33.2754E+06     49.9527E+06     15.8092E+06     6.03855E+06    -118.442E-03     231.337E-03    -112.895E-03     201.116E-03    -124.131E-03     237.039E-03    -112.840E-03     192.082E-03
             895     12.0591E-03     107.246E-03    -30.1316E+06     80.7731E+06     44.5636E+06     6.23748E+06    -120.902E-03     233.844E-03    -112.942E-03     243.487E-03    -129.585E-03     242.577E-03    -112.793E-03     232.474E-03
             896     12.8648E-03     107.542E-03    -24.9335E+06     102.743E+06     78.6849E+06     3.77957E+06    -123.628E-03     236.648E-03    -113.019E-03     288.244E-03    -136.437E-03     249.504E-03    -112.739E-03     275.321E-03
             897     13.6683E-03     107.886E-03    -18.7456E+06     116.425E+06     97.4284E+06     2.83227E+06    -124.886E-03     237.911E-03    -113.026E-03     317.710E-03    -141.757E-03     254.846E-03    -112.680E-03     304.446E-03
             898     14.4741E-03     108.249E-03    -10.6467E+06     132.655E+06     105.414E+06     2.59165E+06    -123.597E-03     236.546E-03    -112.949E-03     332.420E-03    -144.273E-03     257.349E-03    -112.599E-03     321.273E-03
             899     15.2882E-03     108.638E-03    -4.77786E+06     135.868E+06     104.203E+06     1.09561E+06    -117.830E-03     230.645E-03    -112.815E-03     262.024E-03    -132.955E-03     245.933E-03    -112.484E-03     255.859E-03
             900     803.540E-06     106.785E-03    -86.3898E+06    -236.066E+06    -85.6138E+06    -1.06675E+06    -113.463E-03     226.886E-03    -113.422E-03     15.0466E-03    -113.441E-03     225.968E-03    -113.383E-03     14.6830E-03
             901     1.60710E-03     106.809E-03    -83.6756E+06    -226.330E+06    -79.1094E+06    -2.38921E+06    -113.581E-03     227.005E-03    -113.424E-03     27.3705E-03    -113.596E-03     226.149E-03    -113.370E-03     26.6829E-03
             902     2.41060E-03     106.846E-03    -80.5019E+06    -218.441E+06    -70.8382E+06    -3.29422E+06    -113.712E-03     227.145E-03    -113.433E-03     40.3872E-03    -113.782E-03     226.359E-03    -113.354E-03     39.3483E-03
             903     3.21411E-03     106.899E-03    -77.4907E+06    -211.512E+06    -61.8463E+06    -3.14841E+06    -113.840E-03     227.267E-03    -113.426E-03     53.3409E-03    -113.989E-03     226.569E-03    -113.317E-03     51.9373E-03
             904     4.01818E-03     106.965E-03    -73.1195E+06    -199.553E+06    -50.5842E+06    -4.62616E+06    -114.051E-03     227.457E-03    -113.406E-03     66.1715E-03    -114.310E-03     226.894E-03    -113.264E-03     64.3433E-03
             905     4.82187E-03     107.046E-03    -66.5681E+06    -188.239E+06    -39.9277E+06    -6.94985E+06    -114.347E-03     227.724E-03    -113.377E-03     78.8109E-03    -114.738E-03     227.326E-03    -113.207E-03     76.5016E-03
             906     5.62590E-03     107.139E-03    -60.3406E+06    -171.888E+06    -33.3475E+06    -8.21438E+06    -114.627E-03     227.944E-03    -113.316E-03     91.3743E-03    -115.195E-03     227.783E-03    -113.146E-03     88.5512E-03
             907     6.42996E-03     107.248E-03    -56.1442E+06    -155.443E+06    -28.7914E+06    -8.33168E+06    -114.921E-03     228.161E-03    -113.240E-03     103.965E-03    -115.725E-03     228.297E-03    -113.077E-03     100.586E-03
             908     7.23431E-03     107.368E-03    -52.0756E+06    -140.296E+06    -23.5726E+06    -7.65948E+06    -115.255E-03     228.420E-03    -113.164E-03     116.584E-03    -116.366E-03     228.916E-03    -113.003E-03     112.584E-03
             909     8.03893E-03     107.503E-03    -47.7013E+06    -119.227E+06    -17.3692E+06    -7.35032E+06    -115.607E-03     228.690E-03    -113.083E-03     129.222E-03    -117.125E-03     229.667E-03    -112.928E-03     124.504E-03
             910     8.84320E-03     107.651E-03    -44.2242E+06    -95.9285E+06    -13.0080E+06    -6.75116E+06    -115.997E-03     228.991E-03    -112.995E-03     142.156E-03    -118.051E-03     230.586E-03    -112.856E-03     136.623E-03
             911     9.64811E-03     107.814E-03    -41.4198E+06    -61.5732E+06    -9.80648E+06    -3.43525E+06    -116.374E-03     229.264E-03    -112.890E-03     156.019E-03    -119.156E-03     231.708E-03    -112.790E-03     149.590E-03
             912     10.4521E-03     107.991E-03    -38.5800E+06    -7.04751E+06    -731.687E+03     1.43014E+06    -116.956E-03     229.746E-03    -112.791E-03     173.885E-03    -120.836E-03     233.467E-03    -112.728E-03     166.367E-03
             913     11.2570E-03     108.193E-03    -33.8420E+06     45.5617E+06     13.1736E+06     4.91965E+06    -118.363E-03     231.086E-03    -112.723E-03     202.653E-03    -124.053E-03     236.779E-03    -112.674E-03     193.636E-03
             914     12.0620E-03     108.434E-03    -27.6618E+06     82.8073E+06     39.5862E+06     6.30481E+06    -120.727E-03     233.459E-03    -112.733E-03     245.229E-03    -129.407E-03     242.221E-03    -112.615E-03     234.262E-03
             915     12.8662E-03     108.730E-03    -21.8447E+06     105.111E+06     76.3166E+06     5.81829E+06    -123.315E-03     236.113E-03    -112.798E-03     290.485E-03    -136.159E-03     249.031E-03    -112.537E-03     277.635E-03
             916     13.6736E-03     109.074E-03    -15.3689E+06     118.301E+06     98.7131E+06     4.05209E+06    -124.258E-03     237.046E-03    -112.788E-03     319.386E-03    -141.129E-03     253.996E-03    -112.444E-03     306.268E-03
             917     14.4780E-03     109.439E-03    -9.85254E+06     131.803E+06     104.657E+06     2.94701E+06    -123.680E-03     236.369E-03    -112.689E-03     333.967E-03    -144.358E-03     257.176E-03    -112.343E-03     322.831E-03
             918     15.2757E-03     109.815E-03    -3.88383E+06     137.307E+06     104.527E+06     2.40313E+06    -117.667E-03     230.224E-03    -112.557E-03     262.708E-03    -132.823E-03     245.551E-03    -112.228E-03     256.498E-03
             919     803.552E-06     107.974E-03    -84.0124E+06    -231.520E+06    -82.7454E+06    -2.25626E+06    -113.407E-03     226.725E-03    -113.318E-03     15.0187E-03    -113.384E-03     225.822E-03    -113.275E-03     14.6405E-03
             920     1.60719E-03     107.997E-03    -81.7365E+06    -222.080E+06    -77.8655E+06    -3.66480E+06    -113.404E-03     226.723E-03    -113.319E-03     27.4473E-03    -113.418E-03     225.884E-03    -113.267E-03     26.7466E-03
             921     2.41091E-03     108.035E-03    -78.6746E+06    -217.608E+06    -69.3977E+06    -3.35473E+06    -113.534E-03     226.840E-03    -113.306E-03     40.4935E-03    -113.598E-03     226.053E-03    -113.223E-03     39.4591E-03
             922     3.21478E-03     108.087E-03    -74.4388E+06    -209.580E+06    -60.1930E+06    -3.43023E+06    -113.687E-03     226.971E-03    -113.284E-03     53.5166E-03    -113.825E-03     226.275E-03    -113.173E-03     52.1158E-03
             923     4.01849E-03     108.153E-03    -69.6016E+06    -193.521E+06    -51.2225E+06    -5.81417E+06    -113.834E-03     227.068E-03    -113.234E-03     66.4506E-03    -114.082E-03     226.531E-03    -113.109E-03     64.6194E-03
             924     4.82277E-03     108.233E-03    -65.3479E+06    -183.158E+06    -41.3084E+06    -8.72681E+06    -114.066E-03     227.253E-03    -113.187E-03     79.2235E-03    -114.454E-03     226.879E-03    -113.033E-03     76.9101E-03
             925     5.62687E-03     108.328E-03    -61.1548E+06    -169.761E+06    -33.8885E+06    -9.85657E+06    -114.338E-03     227.456E-03    -113.118E-03     91.9055E-03    -114.910E-03     227.307E-03    -112.953E-03     89.0824E-03
             926     6.43138E-03     108.435E-03    -55.9874E+06    -154.012E+06    -28.4515E+06    -9.80776E+06    -114.615E-03     227.645E-03    -113.030E-03     104.561E-03    -115.418E-03     227.785E-03    -112.867E-03     101.189E-03
             927     7.23601E-03     108.556E-03    -50.9332E+06    -140.111E+06    -23.3893E+06     -9.7417E+06    -114.944E-03     227.882E-03    -112.938E-03     117.179E-03    -116.045E-03     228.372E-03    -112.778E-03     113.185E-03
             928     8.04059E-03     108.690E-03    -46.9011E+06    -119.844E+06    -17.5845E+06    -8.39615E+06    -115.364E-03     228.210E-03    -112.845E-03     129.978E-03    -116.872E-03     229.176E-03    -112.691E-03     125.286E-03
             929     8.84541E-03     108.839E-03    -43.9169E+06    -97.1383E+06    -11.5623E+06    -6.46638E+06    -115.763E-03     228.521E-03    -112.759E-03     143.170E-03    -117.812E-03     230.104E-03    -112.612E-03     137.682E-03
             930     9.64982E-03     109.001E-03    -41.0273E+06    -67.3238E+06    -9.94841E+06    -3.78809E+06    -116.140E-03     228.783E-03    -112.643E-03     157.462E-03    -118.907E-03     231.195E-03    -112.536E-03     151.077E-03
             931     10.4554E-03     109.179E-03    -37.1674E+06    -13.7930E+06     -3.9832E+06     314.653E+03    -116.671E-03     229.185E-03    -112.514E-03     175.860E-03    -120.528E-03     232.872E-03    -112.460E-03     168.390E-03
             932     11.2601E-03     109.380E-03    -33.4266E+06     42.1895E+06     10.6827E+06     3.11229E+06    -117.940E-03     230.361E-03    -112.421E-03     204.998E-03    -123.607E-03     236.028E-03    -112.380E-03     196.056E-03
             933     12.0651E-03     109.622E-03    -29.2477E+06     81.3578E+06     37.6788E+06     3.67566E+06    -120.503E-03     232.916E-03    -112.413E-03     247.337E-03    -129.212E-03     241.701E-03    -112.300E-03     236.390E-03
             934     12.8720E-03     109.917E-03    -22.7725E+06     104.240E+06     74.1681E+06     4.48193E+06    -123.185E-03     235.654E-03    -112.468E-03     292.132E-03    -136.061E-03     248.603E-03    -112.216E-03     279.301E-03
             935     13.6754E-03     110.262E-03    -15.9245E+06     119.898E+06     98.6938E+06     4.71435E+06    -123.738E-03     236.187E-03    -112.449E-03     320.649E-03    -140.563E-03     253.096E-03    -112.107E-03     307.669E-03
             936     14.4843E-03     110.623E-03    -9.85321E+06     132.699E+06     107.130E+06     4.14586E+06    -122.965E-03     235.292E-03    -112.327E-03     336.503E-03    -143.668E-03     256.121E-03    -111.970E-03     325.489E-03
             937     15.2978E-03     111.016E-03    -5.16526E+06     139.316E+06     106.262E+06     3.46594E+06    -117.954E-03     230.134E-03    -112.179E-03     263.641E-03    -133.120E-03     245.468E-03    -111.843E-03     257.433E-03
             938     803.667E-06     109.162E-03    -80.8858E+06    -224.926E+06    -79.2935E+06    -2.21361E+06    -113.264E-03     226.361E-03    -113.097E-03     15.0772E-03    -113.240E-03     225.481E-03    -113.050E-03     14.7020E-03
             939     1.60743E-03     109.186E-03    -79.4686E+06    -218.454E+06    -74.1106E+06    -3.47154E+06    -113.174E-03     226.309E-03    -113.135E-03     27.5741E-03    -113.187E-03     225.479E-03    -113.073E-03     26.8805E-03
             940     2.41144E-03     109.223E-03    -76.6666E+06    -216.186E+06    -67.2736E+06    -3.93160E+06    -113.243E-03     226.336E-03    -113.093E-03     40.6658E-03    -113.302E-03     225.551E-03    -113.005E-03     39.6325E-03
             941     3.21535E-03     109.275E-03     -72.096E+06    -205.165E+06    -59.7259E+06    -5.87109E+06    -113.362E-03     226.395E-03    -113.033E-03     53.8189E-03    -113.495E-03     225.717E-03    -112.930E-03     52.4001E-03
             942     4.01971E-03     109.341E-03    -66.6340E+06    -188.180E+06    -50.9748E+06    -7.91272E+06    -113.510E-03     226.469E-03    -112.959E-03     66.9206E-03    -113.750E-03     225.953E-03    -112.845E-03     65.0816E-03
             943     4.82393E-03     109.421E-03    -61.7349E+06    -178.476E+06    -39.9731E+06    -9.04454E+06    -113.693E-03     226.591E-03    -112.898E-03     79.7857E-03    -114.070E-03     226.231E-03    -112.750E-03     77.4937E-03
             944     5.62872E-03     109.514E-03    -57.3768E+06    -166.843E+06    -30.9495E+06    -10.1746E+06    -113.951E-03     226.771E-03    -112.820E-03     92.5382E-03    -114.509E-03     226.623E-03    -112.650E-03     89.7429E-03
             945     6.43331E-03     109.622E-03    -53.4465E+06    -151.552E+06    -25.9914E+06    -11.1912E+06    -114.250E-03     226.966E-03    -112.716E-03     105.292E-03    -115.044E-03     227.107E-03    -112.549E-03     101.938E-03
             946     7.23814E-03     109.742E-03    -49.9942E+06    -139.707E+06    -21.9793E+06    -10.8595E+06    -114.552E-03     227.162E-03    -112.610E-03     118.200E-03    -115.645E-03     227.646E-03    -112.445E-03     114.237E-03
             947     8.04328E-03     109.877E-03    -46.3409E+06    -121.439E+06    -18.0855E+06    -9.52900E+06    -114.848E-03     227.337E-03    -112.489E-03     131.474E-03    -116.340E-03     228.287E-03    -112.337E-03     126.834E-03
             948     8.84840E-03     110.025E-03    -41.7507E+06    -99.5645E+06    -12.2295E+06    -7.52792E+06    -115.239E-03     227.611E-03    -112.372E-03     145.111E-03    -117.263E-03     229.169E-03    -112.228E-03     139.688E-03
             949     9.65422E-03     110.187E-03    -36.7249E+06    -70.7102E+06    -8.85346E+06    -5.07032E+06    -115.704E-03     227.941E-03    -112.237E-03     159.692E-03    -118.439E-03     230.321E-03    -112.126E-03     153.371E-03
             950     10.4590E-03     110.366E-03    -32.5767E+06    -21.1532E+06    -4.84377E+06    -915.195E+03    -116.232E-03     228.313E-03    -112.081E-03     178.270E-03    -120.045E-03     231.950E-03    -112.027E-03     170.878E-03
             951     11.2654E-03     110.567E-03    -29.2377E+06     38.8138E+06     9.32889E+06     3.81104E+06    -117.575E-03     229.536E-03    -111.961E-03     207.417E-03    -123.199E-03     235.167E-03    -111.928E-03     198.591E-03
             952     12.0718E-03     110.809E-03    -26.1321E+06     80.6487E+06     41.3923E+06     5.73106E+06    -120.348E-03     232.310E-03    -111.962E-03     250.316E-03    -129.052E-03     241.087E-03    -111.834E-03     239.485E-03
             953     12.8752E-03     111.106E-03    -23.0997E+06     104.103E+06     78.5060E+06     5.16526E+06    -123.058E-03     235.074E-03    -112.016E-03     294.899E-03    -135.937E-03     248.012E-03    -111.741E-03     282.189E-03
             954     13.6846E-03     111.447E-03    -18.7075E+06     121.384E+06     98.4873E+06     4.46743E+06    -124.050E-03     236.035E-03    -111.985E-03     322.812E-03    -140.970E-03     253.034E-03    -111.642E-03     309.807E-03
             955     14.4892E-03     111.812E-03    -12.9808E+06     131.624E+06     106.146E+06     4.61275E+06    -122.594E-03     234.476E-03    -111.882E-03     336.325E-03    -143.338E-03     255.334E-03    -111.524E-03     325.364E-03
             956     15.2920E-03     112.190E-03    -6.56159E+06     142.001E+06     107.735E+06     3.10053E+06    -117.026E-03     228.759E-03    -111.733E-03     264.205E-03    -132.144E-03     244.045E-03    -111.391E-03     258.108E-03
             957     803.984E-06     110.350E-03    -80.4921E+06    -219.236E+06    -79.1827E+06    -1.97369E+06    -112.886E-03     225.619E-03    -112.733E-03     15.0862E-03    -112.868E-03     224.767E-03    -112.694E-03     14.7182E-03
             958     1.60808E-03     110.373E-03    -78.3204E+06    -214.860E+06    -72.6888E+06    -2.91112E+06    -112.810E-03     225.580E-03    -112.770E-03     27.7677E-03    -112.824E-03     224.764E-03    -112.709E-03     27.0901E-03
             959     2.41213E-03     110.410E-03    -74.6069E+06    -211.490E+06    -64.8044E+06    -4.93408E+06    -112.832E-03     225.555E-03    -112.723E-03     41.0481E-03    -112.890E-03     224.786E-03    -112.632E-03     40.0158E-03
             960     3.21670E-03     110.462E-03    -70.5286E+06    -198.505E+06    -57.8144E+06    -7.78581E+06    -112.884E-03     225.522E-03    -112.638E-03     54.3478E-03    -113.020E-03     224.871E-03    -112.537E-03     52.9252E-03
             961     4.02120E-03     110.528E-03    -66.9405E+06    -183.929E+06    -50.2474E+06    -9.76298E+06    -112.992E-03     225.533E-03    -112.541E-03     67.5343E-03    -113.239E-03     225.035E-03    -112.428E-03     65.6999E-03
             962     4.82613E-03     110.607E-03    -62.8901E+06    -175.145E+06    -41.3737E+06    -10.7450E+06    -113.180E-03     225.631E-03    -112.451E-03     80.6082E-03    -113.562E-03     225.288E-03    -112.313E-03     78.3320E-03
             963     5.63093E-03     110.701E-03    -58.0398E+06    -163.095E+06    -31.8536E+06    -11.4015E+06    -113.392E-03     225.745E-03    -112.354E-03     93.6450E-03    -113.952E-03     225.612E-03    -112.192E-03     90.8841E-03
             964     6.43623E-03     110.808E-03    -53.7332E+06    -149.384E+06    -25.3523E+06    -11.4944E+06    -113.604E-03     225.836E-03    -112.232E-03     106.708E-03    -114.396E-03     225.981E-03    -112.064E-03     103.412E-03
             965     7.24174E-03     110.928E-03    -49.8864E+06    -138.552E+06    -21.8336E+06    -11.4585E+06    -113.832E-03     225.923E-03    -112.090E-03     120.021E-03    -114.918E-03     226.402E-03    -111.926E-03     116.129E-03
             966     8.04747E-03     111.062E-03    -45.7440E+06    -121.218E+06    -19.2580E+06    -11.4272E+06    -114.097E-03     226.024E-03    -111.927E-03     133.670E-03    -115.574E-03     226.964E-03    -111.781E-03     129.098E-03
             967     8.85393E-03     111.210E-03    -41.5294E+06    -101.588E+06    -14.8821E+06    -10.6994E+06    -114.518E-03     226.288E-03    -111.770E-03     147.731E-03    -116.519E-03     227.824E-03    -111.637E-03     142.379E-03
             968     9.65953E-03     111.373E-03    -37.5777E+06    -75.0821E+06    -10.8393E+06    -8.07484E+06    -115.043E-03     226.657E-03    -111.614E-03     162.553E-03    -117.760E-03     229.005E-03    -111.505E-03     156.311E-03
             969     10.4665E-03     111.551E-03    -34.0679E+06    -29.4257E+06    -6.46931E+06    -3.09153E+06    -115.762E-03     227.209E-03    -111.446E-03     181.332E-03    -119.552E-03     230.792E-03    -111.387E-03     174.037E-03
             970     11.2722E-03     111.753E-03    -31.5174E+06     31.9597E+06     1.15120E+06     3.01041E+06    -117.234E-03     228.514E-03    -111.281E-03     210.991E-03    -122.838E-03     234.117E-03    -111.276E-03     202.280E-03
             971     12.0779E-03     111.995E-03    -29.3002E+06     78.8598E+06     25.4582E+06     6.82856E+06    -120.083E-03     231.308E-03    -111.225E-03     254.418E-03    -128.775E-03     240.102E-03    -111.170E-03     243.731E-03
             972     12.8874E-03     112.293E-03    -25.6440E+06     106.791E+06     69.2409E+06     7.21807E+06    -123.199E-03     234.506E-03    -111.307E-03     298.056E-03    -136.098E-03     247.492E-03    -111.078E-03     285.443E-03
             973     13.6907E-03     112.635E-03    -20.7506E+06     122.439E+06     97.9876E+06     6.25149E+06    -124.123E-03     235.458E-03    -111.335E-03     326.139E-03    -141.101E-03     252.513E-03    -110.993E-03     313.261E-03
             974     14.4976E-03     113.000E-03    -14.4156E+06     132.372E+06     107.027E+06     3.66861E+06    -123.218E-03     234.474E-03    -111.256E-03     341.110E-03    -144.143E-03     255.507E-03    -110.892E-03     330.186E-03
             975     15.3095E-03     113.378E-03    -5.47257E+06     144.846E+06     110.203E+06     1.45445E+06    -117.506E-03     228.643E-03    -111.137E-03     268.377E-03    -132.854E-03     244.166E-03    -110.788E-03     262.186E-03
             976     804.414E-06     111.537E-03    -82.7133E+06    -214.474E+06    -81.5286E+06    -1.92539E+06    -112.242E-03     224.416E-03    -112.174E-03     15.2745E-03    -112.239E-03     223.595E-03    -112.151E-03     14.9138E-03
             977     1.60888E-03     111.560E-03    -80.3712E+06    -210.071E+06    -75.8005E+06    -3.79818E+06    -112.185E-03     224.342E-03    -112.158E-03     28.0781E-03    -112.211E-03     223.557E-03    -112.115E-03     27.4037E-03
             978     2.41376E-03     111.596E-03    -76.4755E+06    -204.338E+06    -66.0745E+06    -6.55445E+06    -112.187E-03     224.291E-03    -112.104E-03     41.5844E-03    -112.262E-03     223.560E-03    -112.027E-03     40.5544E-03
             979     3.21847E-03     111.648E-03    -71.9479E+06    -192.030E+06    -56.4356E+06    -8.94361E+06    -112.220E-03     224.239E-03    -112.019E-03     55.1033E-03    -112.372E-03     223.618E-03    -111.919E-03     53.6975E-03
             980     4.02369E-03     111.713E-03    -67.4851E+06    -179.518E+06    -48.5198E+06    -10.2049E+06    -112.267E-03     224.174E-03    -111.907E-03     68.5316E-03    -112.522E-03     223.693E-03    -111.792E-03     66.7345E-03
             981     4.82904E-03     111.793E-03    -63.4014E+06    -170.608E+06    -41.1419E+06    -11.5260E+06    -112.363E-03     224.144E-03    -111.781E-03     81.9525E-03    -112.749E-03     223.818E-03    -111.647E-03     79.7248E-03
             982     5.63486E-03     111.886E-03    -59.6424E+06    -159.671E+06    -33.8496E+06    -12.6583E+06    -112.469E-03     224.105E-03    -111.636E-03     95.3942E-03    -113.031E-03     223.987E-03    -111.487E-03     92.6923E-03
             983     6.44090E-03     111.992E-03    -55.2743E+06    -147.760E+06    -26.9964E+06    -12.7761E+06    -112.607E-03     224.080E-03    -111.473E-03     108.890E-03    -113.395E-03     224.226E-03    -111.313E-03     105.673E-03
             984     7.24734E-03     112.112E-03    -50.6323E+06    -135.666E+06    -22.3469E+06    -13.1797E+06    -112.821E-03     224.110E-03    -111.289E-03     122.508E-03    -113.900E-03     224.593E-03    -111.131E-03     118.702E-03
             985     8.05432E-03     112.246E-03    -46.4733E+06    -119.726E+06    -19.6041E+06    -13.5612E+06    -113.153E-03     224.243E-03    -111.090E-03     136.581E-03    -114.619E-03     225.176E-03    -110.947E-03     132.106E-03
             986     8.86079E-03     112.394E-03    -43.1198E+06    -102.628E+06    -15.5702E+06    -12.4832E+06    -113.594E-03     224.497E-03    -110.903E-03     151.173E-03    -115.581E-03     226.012E-03    -110.770E-03     145.941E-03
             987     9.66862E-03     112.556E-03    -40.3221E+06    -79.0066E+06    -12.7693E+06    -10.2489E+06    -114.184E-03     224.901E-03    -110.717E-03     166.532E-03    -116.881E-03     227.211E-03    -110.608E-03     160.428E-03
             988     10.4749E-03     112.735E-03    -37.2776E+06    -38.2976E+06    -9.30897E+06    -5.33519E+06    -115.092E-03     225.622E-03    -110.529E-03     185.872E-03    -118.859E-03     229.147E-03    -110.466E-03     178.720E-03
             989     11.2826E-03     112.937E-03    -34.1346E+06     22.3320E+06    -5.32961E+06     1.94763E+06    -116.881E-03     227.217E-03    -110.336E-03     215.903E-03    -122.468E-03     232.778E-03    -110.346E-03     207.335E-03
             990     12.0910E-03     113.181E-03    -30.8817E+06     76.3552E+06     15.4540E+06     6.52164E+06    -120.191E-03     230.449E-03    -110.259E-03     259.602E-03    -128.890E-03     239.266E-03    -110.248E-03     249.030E-03
             991     12.8948E-03     113.479E-03    -25.9459E+06     106.365E+06     59.6141E+06     7.72011E+06    -123.363E-03     233.713E-03    -110.351E-03     303.788E-03    -136.295E-03     246.758E-03    -110.169E-03     291.307E-03
             992     13.7038E-03     113.823E-03    -18.8765E+06     124.663E+06     95.7152E+06     7.23536E+06    -123.980E-03     234.389E-03    -110.409E-03     330.663E-03    -140.932E-03     251.439E-03    -110.084E-03     317.978E-03
             993     14.5142E-03     114.183E-03    -11.6034E+06     139.539E+06     112.589E+06     4.30204E+06    -123.196E-03     233.556E-03    -110.359E-03     345.558E-03    -144.182E-03     254.669E-03    -109.982E-03     334.776E-03
             994     15.3158E-03     114.569E-03    -6.63681E+06     145.939E+06     112.893E+06     1.04316E+06    -119.598E-03     229.905E-03    -110.308E-03     270.987E-03    -135.061E-03     245.536E-03    -109.945E-03     264.667E-03
             995     805.133E-06     112.722E-03    -81.7306E+06    -208.792E+06    -81.0774E+06    -2.48914E+06    -111.320E-03     222.582E-03    -111.262E-03     15.5982E-03    -111.320E-03     221.786E-03    -111.246E-03     15.2425E-03
             996     1.61041E-03     112.744E-03    -79.4154E+06    -203.153E+06    -74.8934E+06    -5.05461E+06    -111.284E-03     222.523E-03    -111.240E-03     28.5956E-03    -111.315E-03     221.769E-03    -111.204E-03     27.9264E-03
             997     2.41568E-03     112.781E-03    -75.7671E+06    -196.481E+06    -65.3373E+06    -7.88135E+06    -111.254E-03     222.435E-03    -111.181E-03     42.3788E-03    -111.336E-03     221.740E-03    -111.113E-03     41.3653E-03
             998     3.22148E-03     112.832E-03    -71.3188E+06    -186.063E+06    -55.1525E+06    -10.0584E+06    -111.207E-03     222.291E-03    -111.084E-03     56.2011E-03    -111.364E-03     221.694E-03    -110.986E-03     54.8280E-03
             999     4.02741E-03     112.897E-03    -66.5567E+06    -175.566E+06    -46.3584E+06    -10.9784E+06    -111.180E-03     222.127E-03    -110.947E-03     70.0270E-03    -111.434E-03     221.656E-03    -110.828E-03     68.2823E-03
            1000     4.83377E-03     112.976E-03    -61.9651E+06    -165.572E+06    -39.2071E+06    -11.7076E+06    -111.149E-03     221.923E-03    -110.775E-03     83.8606E-03    -111.530E-03     221.610E-03    -110.641E-03     81.7120E-03
            1001     5.64060E-03     113.068E-03    -57.6082E+06    -155.276E+06    -32.8455E+06    -13.1056E+06    -111.157E-03     221.730E-03    -110.573E-03     97.7239E-03    -111.706E-03     221.618E-03    -110.429E-03     95.1197E-03
            1002     6.44793E-03     113.174E-03    -53.3071E+06    -145.267E+06    -26.6898E+06    -14.1573E+06    -111.265E-03     221.621E-03    -110.356E-03     111.682E-03    -112.032E-03     221.761E-03    -110.202E-03     108.572E-03
            1003     7.25566E-03     113.294E-03    -49.0841E+06    -132.368E+06    -20.4426E+06    -14.5816E+06    -111.489E-03     221.621E-03    -110.131E-03     125.891E-03    -112.548E-03     222.094E-03    -109.970E-03     122.215E-03
            1004     8.06332E-03     113.428E-03    -45.5857E+06    -118.473E+06    -17.1448E+06    -14.3352E+06    -111.824E-03     221.718E-03    -109.894E-03     140.633E-03    -113.268E-03     222.629E-03    -109.742E-03     136.317E-03
            1005     8.87219E-03     113.575E-03    -42.5787E+06    -103.421E+06    -14.4637E+06    -12.9502E+06    -112.338E-03     222.000E-03    -109.662E-03     156.016E-03    -114.294E-03     223.479E-03    -109.523E-03     150.974E-03
            1006     9.67989E-03     113.738E-03    -39.7018E+06    -81.0800E+06    -12.2197E+06    -10.7920E+06    -113.092E-03     222.533E-03    -109.440E-03     172.169E-03    -115.754E-03     224.801E-03    -109.326E-03     166.274E-03
            1007     10.4893E-03     113.917E-03    -36.5769E+06    -46.0804E+06    -9.98317E+06    -6.94159E+06    -114.308E-03     223.542E-03    -109.235E-03     192.082E-03    -118.032E-03     227.001E-03    -109.165E-03     185.130E-03
            1008     11.2972E-03     114.121E-03    -32.2924E+06     11.3658E+06    -5.28246E+06    -264.135E+03    -116.706E-03     225.757E-03    -109.052E-03     222.783E-03    -122.265E-03     231.258E-03    -109.048E-03     214.371E-03
            1009     12.1035E-03     114.365E-03    -27.9692E+06     71.4380E+06     14.0478E+06     6.39072E+06    -120.301E-03     229.277E-03    -108.976E-03     267.162E-03    -128.993E-03     238.082E-03    -108.968E-03     256.770E-03
            1010     12.9142E-03     114.667E-03    -24.1660E+06     106.499E+06     54.5277E+06     8.32465E+06    -123.541E-03     232.600E-03    -109.059E-03     310.940E-03    -136.492E-03     245.686E-03    -108.906E-03     298.650E-03
            1011     13.7215E-03     115.009E-03    -18.6033E+06     128.137E+06     93.9249E+06     6.05008E+06    -125.320E-03     234.509E-03    -109.189E-03     335.871E-03    -142.412E-03     251.718E-03    -108.879E-03     323.122E-03
            1012     14.5254E-03     115.371E-03    -10.9967E+06     143.846E+06     114.116E+06     3.50248E+06    -125.408E-03     234.696E-03    -109.287E-03     347.198E-03    -146.440E-03     255.869E-03    -108.909E-03     336.145E-03
            1013     15.3412E-03     115.754E-03    -4.81314E+06     147.027E+06     115.131E+06     2.77617E+06    -122.034E-03     231.444E-03    -109.410E-03     271.878E-03    -137.498E-03     247.079E-03    -109.041E-03     265.333E-03
            1014     806.189E-06     113.904E-03    -76.5229E+06    -201.138E+06    -75.7612E+06    -3.22322E+06    -110.004E-03     219.954E-03    -109.949E-03     15.9437E-03    -109.997E-03     219.180E-03    -109.925E-03     15.5950E-03
            1015     1.61244E-03     113.927E-03    -74.7510E+06    -195.405E+06    -70.5176E+06    -5.73891E+06    -109.974E-03     219.894E-03    -109.919E-03     29.3425E-03    -109.999E-03     219.164E-03    -109.880E-03     28.6947E-03
            1016     2.41894E-03     113.963E-03    -71.9070E+06    -188.492E+06    -62.1587E+06    -8.21390E+06    -109.884E-03     219.729E-03    -109.844E-03     43.4512E-03    -109.961E-03     219.061E-03    -109.778E-03     42.4797E-03
            1017     3.22566E-03     114.013E-03    -68.0712E+06    -179.704E+06    -53.1592E+06    -10.4595E+06    -109.738E-03     219.452E-03    -109.715E-03     57.7147E-03    -109.886E-03     218.875E-03    -109.621E-03     56.4014E-03
            1018     4.03292E-03     114.078E-03    -63.7624E+06    -171.258E+06    -44.6289E+06    -11.8408E+06    -109.590E-03     219.124E-03    -109.535E-03     71.9941E-03    -109.832E-03     218.661E-03    -109.417E-03     70.3237E-03
            1019     4.84074E-03     114.156E-03    -59.0293E+06    -160.949E+06    -36.9979E+06    -12.8773E+06    -109.465E-03     218.774E-03    -109.310E-03     86.3295E-03    -109.830E-03     218.466E-03    -109.176E-03     84.2748E-03
            1020     5.64903E-03     114.248E-03    -54.2953E+06    -150.643E+06    -29.9952E+06    -13.8844E+06    -109.403E-03     218.458E-03    -109.054E-03     100.784E-03    -109.931E-03     218.344E-03    -108.907E-03     98.3054E-03
            1021     6.45785E-03     114.353E-03    -50.2571E+06    -141.478E+06    -23.9442E+06    -14.8387E+06    -109.428E-03     218.207E-03    -108.779E-03     115.450E-03    -110.169E-03     218.336E-03    -108.620E-03     112.496E-03
            1022     7.26710E-03     114.473E-03    -46.5914E+06    -129.663E+06    -18.7401E+06    -15.0621E+06    -109.590E-03     218.078E-03    -108.488E-03     130.523E-03    -110.614E-03     218.530E-03    -108.326E-03     127.042E-03
            1023     8.07727E-03     114.606E-03    -43.2624E+06    -117.752E+06    -15.1693E+06    -14.2504E+06    -110.004E-03     218.199E-03    -108.195E-03     146.116E-03    -111.406E-03     219.073E-03    -108.037E-03     142.029E-03
            1024     8.88684E-03     114.754E-03    -40.2527E+06    -103.040E+06    -12.7334E+06    -13.1833E+06    -110.685E-03     218.600E-03    -107.915E-03     162.336E-03    -112.594E-03     220.037E-03    -107.771E-03     157.542E-03
            1025     9.69792E-03     114.917E-03    -37.1451E+06    -83.0246E+06    -10.8176E+06    -11.2277E+06    -111.742E-03     219.406E-03    -107.663E-03     179.359E-03    -114.348E-03     221.615E-03    -107.543E-03     173.730E-03
            1026     10.5070E-03     115.097E-03    -34.3597E+06    -51.0328E+06    -8.47212E+06    -7.78195E+06    -113.529E-03     220.986E-03    -107.457E-03     200.193E-03    -117.206E-03     224.384E-03    -107.376E-03     193.487E-03
            1027     11.3166E-03     115.302E-03    -32.0952E+06     1.47595E+06    -4.82921E+06    -2.65272E+06    -116.433E-03     223.731E-03    -107.298E-03     231.845E-03    -121.968E-03     229.172E-03    -107.278E-03     223.641E-03
            1028     12.1269E-03     115.550E-03    -29.2468E+06     61.7793E+06     7.25635E+06     4.57771E+06    -120.578E-03     227.804E-03    -107.226E-03     275.921E-03    -129.270E-03     236.590E-03    -107.237E-03     265.708E-03
            1029     12.9335E-03     115.851E-03    -24.8065E+06     108.874E+06     47.8227E+06     8.23494E+06    -125.099E-03     232.477E-03    -107.377E-03     318.725E-03    -138.169E-03     245.706E-03    -107.260E-03     306.435E-03
            1030     13.7412E-03     116.198E-03    -18.5025E+06     132.765E+06     93.6256E+06     5.44388E+06    -128.054E-03     235.742E-03    -107.689E-03     342.425E-03    -145.399E-03     253.223E-03    -107.386E-03     329.435E-03
            1031     14.5487E-03     116.563E-03    -11.9311E+06     145.189E+06     114.273E+06     2.58694E+06    -129.762E-03     237.785E-03    -108.023E-03     352.608E-03    -151.158E-03     259.322E-03    -107.644E-03     340.957E-03
            1032     15.3398E-03     116.942E-03    -6.17546E+06     148.387E+06     116.630E+06     3.18440E+06    -126.388E-03     234.803E-03    -108.415E-03     276.538E-03    -142.208E-03     250.790E-03    -108.038E-03     269.416E-03
            1033     807.642E-06     115.083E-03    -72.4636E+06    -192.365E+06    -71.4304E+06    -3.44012E+06    -108.209E-03     216.311E-03    -108.102E-03     16.4594E-03    -108.200E-03     215.569E-03    -108.075E-03     16.1287E-03
            1034     1.61536E-03     115.105E-03    -70.6981E+06    -187.468E+06    -66.2400E+06    -5.96055E+06    -108.068E-03     216.145E-03    -108.078E-03     30.2751E-03    -108.089E-03     215.442E-03    -108.035E-03     29.6657E-03
            1035     2.42333E-03     115.141E-03    -67.4550E+06    -180.604E+06    -59.0391E+06    -8.64728E+06    -107.896E-03     215.850E-03    -107.954E-03     44.8483E-03    -107.963E-03     215.207E-03    -107.890E-03     43.9327E-03
            1036     3.23182E-03     115.191E-03    -63.7358E+06    -173.336E+06    -50.7999E+06    -10.5965E+06    -107.667E-03     215.442E-03    -107.775E-03     59.6694E-03    -107.800E-03     214.880E-03    -107.685E-03     58.4403E-03
            1037     4.04083E-03     115.255E-03    -60.0606E+06    -165.657E+06    -42.3865E+06    -12.2146E+06    -107.415E-03     214.957E-03    -107.543E-03     74.5381E-03    -107.639E-03     214.503E-03    -107.427E-03     72.9754E-03
            1038     4.85039E-03     115.332E-03    -56.2087E+06    -155.654E+06    -34.7665E+06    -13.9463E+06    -107.170E-03     214.428E-03    -107.258E-03     89.5460E-03    -107.517E-03     214.123E-03    -107.125E-03     87.6200E-03
            1039     5.66073E-03     115.423E-03    -52.1886E+06    -146.944E+06    -28.1493E+06    -14.7228E+06    -106.976E-03     213.911E-03    -106.935E-03     104.799E-03    -107.479E-03     213.788E-03    -106.787E-03     102.487E-03
            1040     6.47172E-03     115.528E-03    -48.3904E+06    -137.406E+06    -22.5756E+06    -15.0677E+06    -106.914E-03     213.495E-03    -106.581E-03     120.390E-03    -107.622E-03     213.609E-03    -106.425E-03     117.649E-03
            1041     7.28359E-03     115.646E-03    -45.0843E+06    -127.518E+06    -18.2327E+06    -15.3002E+06    -107.098E-03     213.314E-03    -106.216E-03     136.391E-03    -108.080E-03     213.736E-03    -106.057E-03     133.158E-03
            1042     8.09553E-03     115.779E-03    -41.8899E+06    -117.157E+06    -14.8155E+06    -14.5944E+06    -107.664E-03     213.528E-03    -105.864E-03     152.998E-03    -109.013E-03     214.354E-03    -105.707E-03     149.193E-03
            1043     8.90841E-03     115.928E-03    -38.7917E+06    -102.345E+06    -11.9433E+06    -13.5322E+06    -108.673E-03     214.218E-03    -105.545E-03     170.154E-03    -110.526E-03     215.603E-03    -105.400E-03     165.662E-03
            1044     9.71999E-03     116.091E-03    -36.2517E+06    -84.4760E+06    -9.85011E+06    -11.7734E+06    -110.216E-03     215.501E-03    -105.285E-03     188.189E-03    -112.763E-03     217.647E-03    -105.159E-03     182.870E-03
            1045     10.5327E-03     116.274E-03    -33.6688E+06    -55.1064E+06    -8.09828E+06    -8.63302E+06    -112.634E-03     217.731E-03    -105.097E-03     210.172E-03    -116.263E-03     221.068E-03    -105.008E-03     203.761E-03
            1046     11.3432E-03     116.481E-03    -31.0495E+06    -6.14615E+06    -3.09353E+06    -2.83716E+06    -116.428E-03     221.429E-03    -105.001E-03     242.225E-03    -121.941E-03     226.819E-03    -104.963E-03     234.271E-03
            1047     12.1520E-03     116.731E-03    -27.9225E+06     53.2363E+06     9.77524E+06     3.75457E+06    -122.022E-03     227.064E-03    -105.043E-03     286.059E-03    -130.766E-03     235.870E-03    -105.030E-03     275.934E-03
            1048     12.9620E-03     117.038E-03    -22.6235E+06     109.414E+06     46.7977E+06     6.46575E+06    -128.079E-03     233.420E-03    -105.340E-03     328.457E-03    -141.340E-03     246.853E-03    -105.232E-03     315.988E-03
            1049     13.7667E-03     117.390E-03    -16.4464E+06     136.698E+06     91.2896E+06     6.04816E+06    -131.863E-03     237.735E-03    -105.871E-03     350.539E-03    -149.508E-03     255.542E-03    -105.589E-03     337.196E-03
            1050     14.5665E-03     117.756E-03    -11.8546E+06     146.742E+06     114.914E+06     6.18574E+06    -133.612E-03     240.079E-03    -106.467E-03     360.428E-03    -155.488E-03     262.101E-03    -106.088E-03     348.376E-03
            1051     15.3768E-03     118.150E-03    -6.93321E+06     151.371E+06     118.620E+06     4.01895E+06    -133.370E-03     240.543E-03    -107.174E-03     282.719E-03    -149.596E-03     256.940E-03    -106.790E-03     274.829E-03
            1052     809.515E-06     116.257E-03    -69.2099E+06    -183.388E+06    -67.7825E+06    -3.59447E+06    -105.727E-03     211.321E-03    -105.594E-03     17.1336E-03    -105.720E-03     210.613E-03    -105.567E-03     16.8277E-03
            1053     1.61934E-03     116.279E-03    -66.8223E+06    -178.537E+06    -62.7982E+06    -6.51959E+06    -105.449E-03     211.000E-03    -105.552E-03     31.4106E-03    -105.466E-03     210.328E-03    -105.510E-03     30.8451E-03
            1054     2.42955E-03     116.314E-03    -63.7660E+06    -172.782E+06    -56.8298E+06    -9.32579E+06    -105.169E-03     210.534E-03    -105.365E-03     46.6132E-03    -105.228E-03     209.917E-03    -105.306E-03     45.7671E-03
            1055     3.24026E-03     116.363E-03    -60.6620E+06    -167.376E+06    -49.0533E+06    -11.0158E+06    -104.840E-03     209.965E-03    -105.125E-03     62.0450E-03    -104.961E-03     209.417E-03    -105.040E-03     60.9181E-03
            1056     4.05158E-03     116.426E-03    -57.1069E+06    -159.206E+06    -40.6314E+06    -12.7617E+06    -104.447E-03     209.271E-03    -104.824E-03     77.7065E-03    -104.655E-03     208.829E-03    -104.714E-03     76.2790E-03
            1057     4.86378E-03     116.502E-03    -53.1249E+06    -150.375E+06    -33.0318E+06    -14.1452E+06    -104.072E-03     208.537E-03    -104.465E-03     93.6116E-03    -104.393E-03     208.230E-03    -104.335E-03     91.8627E-03
            1058     5.67676E-03     116.592E-03    -49.6210E+06    -142.935E+06    -26.8047E+06    -14.9373E+06    -103.787E-03     207.848E-03    -104.061E-03     109.765E-03    -104.255E-03     207.710E-03    -103.916E-03     107.669E-03
            1059     6.49080E-03     116.696E-03    -46.0501E+06    -133.868E+06    -21.5748E+06    -15.4514E+06    -103.709E-03     207.338E-03    -103.629E-03     126.318E-03    -104.372E-03     207.425E-03    -103.476E-03     123.832E-03
            1060     7.30524E-03     116.814E-03    -42.6514E+06    -125.642E+06    -17.0932E+06    -15.1983E+06    -104.017E-03     207.217E-03    -103.200E-03     143.421E-03    -104.940E-03     207.591E-03    -103.042E-03     140.486E-03
            1061     8.12055E-03     116.947E-03    -39.7028E+06    -115.660E+06    -13.6468E+06    -14.8131E+06    -104.820E-03     207.619E-03    -102.799E-03     161.226E-03    -106.101E-03     208.387E-03    -102.642E-03     157.751E-03
            1062     8.93531E-03     117.096E-03    -37.0727E+06    -102.284E+06    -10.8450E+06    -13.5197E+06    -106.315E-03     208.774E-03    -102.459E-03     179.662E-03    -108.092E-03     210.087E-03    -102.311E-03     175.527E-03
            1063     9.75067E-03     117.262E-03    -34.6434E+06    -85.2527E+06    -8.09835E+06    -11.5373E+06    -108.663E-03     210.884E-03    -102.221E-03     198.807E-03    -111.145E-03     212.963E-03    -102.088E-03     193.835E-03
            1064     10.5636E-03     117.446E-03    -32.3546E+06    -58.1977E+06    -6.08526E+06    -9.12187E+06    -112.100E-03     214.207E-03    -102.106E-03     221.580E-03    -115.679E-03     217.482E-03    -102.006E-03     215.473E-03
            1065     11.3762E-03     117.658E-03    -29.7007E+06    -14.9043E+06    -106.823E+03    -3.09394E+06    -117.352E-03     219.505E-03    -102.153E-03     253.979E-03    -122.858E-03     224.853E-03    -102.089E-03     246.229E-03
            1066     12.1868E-03     117.914E-03    -26.5002E+06     49.5062E+06     10.1280E+06     2.82750E+06    -124.602E-03     226.973E-03    -102.371E-03     297.909E-03    -133.448E-03     235.871E-03    -102.353E-03     287.773E-03
            1067     12.9916E-03     118.226E-03    -23.3813E+06     109.023E+06     43.1655E+06     4.93776E+06    -132.009E-03     234.909E-03    -102.900E-03     339.822E-03    -145.531E-03     248.611E-03    -102.808E-03     327.074E-03
            1068     13.7954E-03     118.584E-03    -20.3511E+06     134.908E+06     88.8306E+06     6.95418E+06    -136.768E-03     240.510E-03    -103.741E-03     359.799E-03    -154.799E-03     258.690E-03    -103.463E-03     345.969E-03
            1069     14.5976E-03     118.957E-03    -14.9312E+06     148.039E+06     115.083E+06     6.25574E+06    -140.271E-03     244.984E-03    -104.713E-03     365.059E-03    -162.529E-03     267.383E-03    -104.331E-03     352.079E-03
            1070     15.3867E-03     119.343E-03    -6.57687E+06     154.892E+06     121.195E+06     2.82027E+06    -143.238E-03     249.149E-03    -105.911E-03     285.976E-03    -159.822E-03     265.910E-03    -105.520E-03     276.768E-03
            1071     812.299E-06     117.425E-03    -63.2869E+06    -174.026E+06    -63.0081E+06    -3.77080E+06    -102.360E-03     204.623E-03    -102.263E-03     17.9005E-03    -102.343E-03     203.945E-03    -102.234E-03     17.6254E-03
            1072     1.62472E-03     117.445E-03    -61.8813E+06    -169.011E+06    -59.4857E+06    -6.84808E+06    -102.002E-03     204.170E-03    -102.168E-03     32.7512E-03    -102.011E-03     203.530E-03    -102.130E-03     32.2411E-03
            1073     2.43778E-03     117.480E-03    -59.9759E+06    -165.225E+06    -53.5152E+06    -9.34087E+06    -101.612E-03     203.546E-03    -101.935E-03     48.6922E-03    -101.661E-03     202.950E-03    -101.876E-03     47.9394E-03
            1074     3.25139E-03     117.528E-03    -57.5235E+06    -160.458E+06    -46.8065E+06    -11.6999E+06    -101.118E-03     202.744E-03    -101.626E-03     64.8763E-03    -101.225E-03     202.212E-03    -101.544E-03     63.8697E-03
            1075     4.06600E-03     117.590E-03    -53.9512E+06    -152.747E+06    -39.7099E+06    -13.7254E+06    -100.565E-03     201.804E-03    -101.239E-03     81.3950E-03    -100.750E-03     201.369E-03    -101.138E-03     80.1242E-03
            1076     4.88150E-03     117.665E-03    -50.4106E+06    -146.235E+06    -32.4298E+06    -14.4645E+06    -100.082E-03     200.878E-03    -100.797E-03     98.2238E-03    -100.368E-03     200.559E-03    -100.674E-03     96.6828E-03
            1077     5.69806E-03     117.754E-03    -46.9228E+06    -138.271E+06    -25.9295E+06    -15.0268E+06    -99.7808E-03     200.094E-03    -100.313E-03     115.427E-03    -100.205E-03     199.934E-03    -100.174E-03     113.585E-03
            1078     6.51526E-03     117.857E-03    -44.0584E+06    -130.843E+06    -20.7374E+06    -15.3708E+06    -99.7847E-03     199.600E-03    -99.8157E-03     133.183E-03    -100.393E-03     199.646E-03    -99.6657E-03     130.996E-03
            1079     7.33358E-03     117.975E-03    -41.4114E+06    -123.312E+06    -16.5518E+06    -15.2411E+06    -100.302E-03     199.637E-03    -99.3352E-03     151.635E-03    -101.158E-03     199.955E-03    -99.1791E-03     149.040E-03
            1080     8.15182E-03     118.108E-03    -38.9740E+06    -114.044E+06    -12.9126E+06    -14.3918E+06    -101.594E-03     200.508E-03    -98.9132E-03     170.739E-03    -102.800E-03     201.206E-03    -98.7558E-03     167.637E-03
            1081     8.97063E-03     118.258E-03    -37.2434E+06    -102.317E+06    -10.2524E+06    -12.9327E+06    -103.867E-03     202.463E-03    -98.5960E-03     190.385E-03    -105.566E-03     203.695E-03    -98.4449E-03     186.637E-03
            1082     9.78745E-03     118.427E-03    -35.5892E+06    -85.5657E+06    -7.39162E+06    -11.5525E+06    -107.367E-03     205.805E-03    -98.4386E-03     210.589E-03    -109.787E-03     207.816E-03    -98.2999E-03     205.968E-03
            1083     10.6035E-03     118.615E-03    -34.6175E+06    -61.2891E+06    -4.97200E+06    -8.11760E+06    -112.372E-03     210.856E-03    -98.4837E-03     234.086E-03    -115.926E-03     214.083E-03    -98.3695E-03     228.265E-03
            1084     11.4153E-03     118.832E-03    -34.4259E+06    -21.0690E+06     728.770E+03    -3.64246E+06    -119.251E-03     218.010E-03    -98.7596E-03     267.292E-03    -124.810E-03     223.371E-03    -98.6755E-03     259.673E-03
            1085     12.2233E-03     119.096E-03    -33.0356E+06     46.4449E+06     10.5597E+06     302.431E+03    -128.088E-03     227.339E-03    -99.2505E-03     311.541E-03    -137.147E-03     236.416E-03    -99.2171E-03     301.268E-03
            1086     13.0305E-03     119.417E-03    -30.1429E+06     107.360E+06     40.8866E+06     3.72573E+06    -137.195E-03     237.292E-03    -100.097E-03     352.422E-03    -151.125E-03     251.379E-03    -100.004E-03     339.201E-03
            1087     13.8305E-03     119.784E-03    -23.3822E+06     132.206E+06     84.6508E+06     4.73640E+06    -144.234E-03     245.581E-03    -101.347E-03     368.540E-03    -162.756E-03     264.247E-03    -101.082E-03     353.707E-03
            1088     14.6227E-03     120.159E-03    -13.0184E+06     150.155E+06     114.980E+06     3.98065E+06    -151.575E-03     254.473E-03    -102.897E-03     371.119E-03    -174.553E-03     277.607E-03    -102.521E-03     356.166E-03
            1089     15.4103E-03     120.569E-03    -5.71216E+06     158.758E+06     122.961E+06     2.88328E+06    -155.946E-03     260.718E-03    -104.772E-03     292.140E-03    -173.256E-03     278.218E-03    -104.379E-03     280.979E-03
            1090     815.645E-06     118.583E-03    -59.4553E+06    -164.361E+06    -60.4145E+06    -3.84838E+06    -98.0243E-03     195.925E-03    -97.9003E-03     18.6302E-03    -98.0051E-03     195.284E-03    -97.8779E-03     18.3914E-03
            1091     1.63189E-03     118.604E-03    -59.3795E+06    -160.035E+06    -57.0761E+06    -6.67725E+06    -97.5923E-03     195.392E-03    -97.7999E-03     34.2449E-03    -97.6022E-03     194.787E-03    -97.7672E-03     33.8072E-03
            1092     2.44842E-03     118.637E-03    -57.8204E+06    -156.792E+06    -51.6786E+06    -9.78242E+06    -97.0721E-03     194.596E-03    -97.5237E-03     50.9454E-03    -97.1184E-03     194.028E-03    -97.4709E-03     50.2928E-03
            1093     3.26597E-03     118.684E-03    -54.6913E+06    -152.294E+06    -45.7208E+06    -12.8549E+06    -96.4150E-03     193.560E-03    -97.1454E-03     67.9925E-03    -96.5077E-03     193.049E-03    -97.0739E-03     67.1171E-03
            1094     4.08439E-03     118.744E-03    -51.6812E+06    -147.203E+06    -39.7457E+06    -14.3625E+06    -95.7622E-03     192.445E-03    -96.6830E-03     85.4261E-03    -95.9210E-03     192.011E-03    -96.5934E-03     84.3355E-03
            1095     4.90401E-03     118.818E-03    -48.6173E+06    -141.799E+06    -33.0623E+06    -15.1481E+06    -95.1969E-03     191.362E-03    -96.1651E-03     103.294E-03    -95.4462E-03     191.029E-03    -96.0543E-03     101.978E-03
            1096     5.72463E-03     118.906E-03    -45.5718E+06    -134.775E+06    -26.7900E+06    -15.2757E+06    -94.8982E-03     190.510E-03    -95.6116E-03     121.723E-03    -95.2713E-03     190.318E-03    -95.4840E-03     120.159E-03
            1097     6.54647E-03     119.008E-03    -42.8571E+06    -128.003E+06    -21.0515E+06    -14.8192E+06    -95.1469E-03     190.212E-03    -95.0655E-03     140.802E-03    -95.6894E-03     190.207E-03    -94.9230E-03     138.945E-03
            1098     7.36854E-03     119.126E-03    -40.9384E+06    -121.027E+06    -16.4645E+06    -14.1902E+06    -96.1789E-03     190.753E-03    -94.5736E-03     160.552E-03    -96.9598E-03     191.004E-03    -94.4211E-03     158.326E-03
            1099     8.19118E-03     119.260E-03    -40.1221E+06    -113.935E+06    -13.2705E+06    -12.6540E+06    -98.2993E-03     192.490E-03    -94.1907E-03     180.953E-03    -99.4224E-03     193.103E-03    -94.0337E-03     178.251E-03
            1100     9.01209E-03     119.413E-03    -39.6017E+06    -100.915E+06    -10.7285E+06    -11.3577E+06    -101.771E-03     195.744E-03    -93.9736E-03     201.766E-03    -103.398E-03     196.903E-03    -93.8235E-03     198.403E-03
            1101     9.83216E-03     119.585E-03    -39.8596E+06    -86.4192E+06    -7.68859E+06    -9.36390E+06    -106.712E-03     200.707E-03    -93.9953E-03     223.051E-03    -109.081E-03     202.650E-03    -93.8506E-03     218.785E-03
            1102     10.6478E-03     119.780E-03    -40.4806E+06    -64.4918E+06    -5.14038E+06    -5.77402E+06    -113.325E-03     207.610E-03    -94.2857E-03     247.620E-03    -116.874E-03     210.803E-03    -94.1592E-03     242.072E-03
            1103     11.4604E-03     120.006E-03    -39.7535E+06    -22.0608E+06     3.13416E+06    -2.64549E+06    -122.065E-03     216.938E-03    -94.8729E-03     281.750E-03    -127.734E-03     222.380E-03    -94.7676E-03     274.192E-03
            1104     12.2696E-03     120.279E-03    -37.0053E+06     46.5175E+06     18.9614E+06    -762.648E+03    -132.919E-03     228.677E-03    -95.7573E-03     325.812E-03    -142.258E-03     237.997E-03    -95.6763E-03     315.262E-03
            1105     13.0703E-03     120.611E-03    -29.8830E+06     105.181E+06     48.2145E+06     385.843E+03    -144.571E-03     241.618E-03    -97.0468E-03     365.042E-03    -159.009E-03     256.187E-03    -96.9149E-03     350.957E-03
            1106     13.8659E-03     120.988E-03    -20.2032E+06     130.735E+06     86.2836E+06     1.36912E+06    -155.080E-03     253.926E-03    -98.8462E-03     378.804E-03    -174.394E-03     273.387E-03    -98.5751E-03     362.243E-03
            1107     14.6506E-03     121.380E-03    -13.0837E+06     150.247E+06     113.806E+06     2.01674E+06    -164.863E-03     265.947E-03    -101.084E-03     379.729E-03    -188.824E-03     290.070E-03    -100.714E-03     362.255E-03
            1108     15.4216E-03     121.797E-03    -6.63266E+06     159.316E+06     121.073E+06     2.40240E+06    -170.050E-03     273.735E-03    -103.685E-03     298.628E-03    -188.045E-03     291.925E-03    -103.301E-03     285.158E-03
            1109     820.264E-06     119.730E-03    -57.8977E+06    -154.070E+06    -57.5736E+06    -4.28745E+06    -92.6288E-03     185.136E-03    -92.5072E-03     19.3360E-03    -92.6199E-03     184.539E-03    -92.4878E-03     19.1308E-03
            1110     1.64058E-03     119.750E-03    -56.3017E+06    -151.128E+06    -54.3241E+06    -7.39065E+06    -92.1210E-03     184.510E-03    -92.3892E-03     35.7590E-03    -92.1286E-03     183.936E-03    -92.3600E-03     35.3875E-03
            1111     2.46183E-03     119.783E-03    -53.9585E+06    -146.716E+06    -50.7614E+06    -10.9811E+06    -91.4771E-03     183.531E-03    -92.0539E-03     53.2322E-03    -91.5111E-03     182.997E-03    -92.0168E-03     52.6777E-03
            1112     3.28391E-03     119.828E-03    -52.0599E+06    -144.793E+06    -45.8463E+06    -13.5763E+06    -90.7271E-03     182.345E-03    -91.6182E-03     71.1933E-03    -90.8008E-03     181.850E-03    -91.5620E-03     70.4634E-03
            1113     4.10726E-03     119.887E-03    -50.1743E+06    -142.201E+06    -40.4478E+06    -14.5472E+06    -89.9870E-03     181.085E-03    -91.0984E-03     89.6429E-03    -90.1175E-03     180.647E-03    -91.0217E-03     88.7487E-03
            1114     4.93166E-03     119.959E-03    -48.5393E+06    -137.026E+06    -35.5641E+06    -15.1004E+06    -89.4235E-03     179.941E-03    -90.5171E-03     108.661E-03    -89.6354E-03     179.594E-03    -90.4258E-03     107.590E-03
            1115     5.75742E-03     120.046E-03    -47.2939E+06    -132.584E+06    -30.3775E+06    -14.7672E+06    -89.3428E-03     179.270E-03    -89.9269E-03     128.341E-03    -89.6663E-03     179.040E-03    -89.8179E-03     127.072E-03
            1116     6.58378E-03     120.148E-03    -46.5493E+06    -125.971E+06    -25.2673E+06    -13.5745E+06    -90.1014E-03     179.484E-03    -89.3822E-03     148.716E-03    -90.5867E-03     179.427E-03    -89.2584E-03     147.201E-03
            1117     7.41061E-03     120.266E-03    -46.6924E+06    -120.452E+06    -20.5310E+06    -11.7941E+06    -92.0376E-03     180.995E-03    -88.9571E-03     169.702E-03    -92.7570E-03     181.178E-03    -88.8174E-03     167.855E-03
            1118     8.23619E-03     120.403E-03    -46.6002E+06    -112.929E+06    -16.1602E+06    -10.6125E+06    -95.3534E-03     184.067E-03    -88.7134E-03     191.299E-03    -96.4145E-03     184.607E-03    -88.5629E-03     188.974E-03
            1119     9.06094E-03     120.560E-03    -46.0278E+06    -100.347E+06    -12.3504E+06    -9.37277E+06    -100.254E-03     188.960E-03    -88.7069E-03     213.368E-03    -101.824E-03     190.047E-03    -88.5564E-03     210.364E-03
            1120     9.88140E-03     120.738E-03    -44.9467E+06    -88.0747E+06    -7.41871E+06    -6.82584E+06    -106.854E-03     195.865E-03    -89.0108E-03     235.787E-03    -109.185E-03     197.745E-03    -88.8551E-03     231.832E-03
            1121     10.6991E-03     120.942E-03    -41.8039E+06    -65.0218E+06    -1.57030E+06    -5.07704E+06    -115.224E-03     204.869E-03    -89.6447E-03     261.157E-03    -118.780E-03     208.051E-03    -89.4977E-03     255.780E-03
            1122     11.5110E-03     121.177E-03    -36.0005E+06    -23.5980E+06     10.0930E+06    -2.62191E+06    -125.970E-03     216.604E-03    -90.6343E-03     295.880E-03    -131.734E-03     222.129E-03    -90.4974E-03     288.271E-03
            1123     12.3152E-03     121.463E-03    -29.0243E+06     51.1171E+06     30.3907E+06    -115.686E+03    -139.495E-03     231.485E-03    -91.9901E-03     340.121E-03    -149.133E-03     241.117E-03    -91.8702E-03     329.090E-03
            1124     13.1153E-03     121.809E-03    -24.2125E+06     106.141E+06     59.5196E+06    -72.0275E+03    -154.651E-03     248.517E-03    -93.8653E-03     378.748E-03    -169.754E-03     263.743E-03    -93.6865E-03     363.357E-03
            1125     13.9019E-03     122.206E-03    -20.8574E+06     128.674E+06     92.3429E+06     676.907E+03    -168.087E-03     264.440E-03    -96.3534E-03     390.806E-03    -188.446E-03     284.921E-03    -96.0481E-03     372.017E-03
            1126     14.6757E-03     122.612E-03    -14.5741E+06     151.560E+06     114.164E+06     1.09824E+06    -179.372E-03     278.698E-03    -99.3266E-03     388.472E-03    -204.264E-03     303.753E-03    -98.9544E-03     368.145E-03
            1127     15.4423E-03     123.048E-03    -7.86502E+06     157.804E+06     118.973E+06     334.910E+03    -185.294E-03     287.978E-03    -102.684E-03     305.734E-03    -203.839E-03     306.716E-03    -102.307E-03     289.691E-03
            1128     825.308E-06     120.864E-03    -50.4931E+06    -143.544E+06    -50.5933E+06    -4.56209E+06    -86.2125E-03     172.291E-03    -86.0788E-03     20.0655E-03    -86.1910E-03     171.724E-03    -86.0505E-03     19.8969E-03
            1129     1.65132E-03     120.883E-03    -50.7247E+06    -140.950E+06    -51.9013E+06    -8.04530E+06    -85.5651E-03     171.483E-03    -85.9180E-03     37.1366E-03    -85.5588E-03     170.943E-03    -85.8996E-03     36.8312E-03
            1130     2.47791E-03     120.915E-03    -51.6301E+06    -137.159E+06    -52.0481E+06    -11.2135E+06    -84.8409E-03     170.360E-03    -85.5188E-03     55.4277E-03    -84.8652E-03     169.861E-03    -85.5052E-03     54.9840E-03
            1131     3.30565E-03     120.959E-03    -52.3589E+06    -138.529E+06    -49.0226E+06    -12.7692E+06    -84.0459E-03     169.084E-03    -85.0384E-03     74.2916E-03    -84.1067E-03     168.605E-03    -85.0068E-03     73.7268E-03
            1132     4.13441E-03     121.016E-03    -52.9461E+06    -137.283E+06    -45.7178E+06    -13.4718E+06    -83.3174E-03     167.796E-03    -84.4785E-03     93.7465E-03    -83.4306E-03     167.362E-03    -84.4312E-03     93.0631E-03
            1133     4.96468E-03     121.087E-03    -53.7859E+06    -133.830E+06    -42.2373E+06    -13.0848E+06    -82.9972E-03     166.881E-03    -83.8842E-03     113.872E-03    -83.1852E-03     166.522E-03    -83.8234E-03     113.064E-03
            1134     5.79565E-03     121.173E-03    -55.1002E+06    -130.688E+06    -37.8468E+06    -12.1478E+06    -83.4971E-03     166.829E-03    -83.3323E-03     134.761E-03    -83.7911E-03     166.570E-03    -83.2522E-03     133.797E-03
            1135     6.62718E-03     121.275E-03    -56.5765E+06    -125.725E+06    -32.7702E+06    -10.3374E+06    -85.1672E-03     168.064E-03    -82.8964E-03     156.344E-03    -85.6168E-03     167.958E-03    -82.7959E-03     155.169E-03
            1136     7.45789E-03     121.396E-03    -57.1992E+06    -119.934E+06    -26.3352E+06    -8.86011E+06    -88.2986E-03     170.955E-03    -82.6563E-03     178.520E-03    -88.9763E-03     171.078E-03    -82.5312E-03     177.022E-03
            1137     8.28730E-03     121.536E-03    -56.3575E+06    -109.582E+06    -19.3146E+06    -9.25587E+06    -93.0701E-03     175.740E-03    -82.6698E-03     201.282E-03    -94.0923E-03     176.228E-03    -82.5257E-03     199.279E-03
            1138     9.11305E-03     121.699E-03    -53.9340E+06    -101.100E+06    -13.3731E+06    -8.99340E+06    -99.5907E-03     182.584E-03    -82.9933E-03     224.458E-03    -101.120E-03     183.602E-03    -82.8354E-03     221.733E-03
            1139     9.93611E-03     121.886E-03    -49.0900E+06    -87.6616E+06    -6.97187E+06    -8.83372E+06    -107.850E-03     191.518E-03    -83.6681E-03     247.875E-03    -110.153E-03     193.356E-03    -83.5047E-03     244.106E-03
            1140     10.7521E-03     122.099E-03    -42.8477E+06    -64.7078E+06     552.959E+03    -8.88088E+06    -118.169E-03     202.895E-03    -84.7262E-03     274.488E-03    -121.754E-03     206.098E-03    -84.5675E-03     269.137E-03
            1141     11.5620E-03     122.348E-03    -36.3809E+06    -26.0594E+06     13.0419E+06    -7.16719E+06    -131.276E-03     217.477E-03    -86.2013E-03     310.205E-03    -137.191E-03     223.137E-03    -86.0455E-03     302.346E-03
            1142     12.3667E-03     122.649E-03    -31.0458E+06     51.2829E+06     33.3937E+06    -3.41812E+06    -147.823E-03     235.935E-03    -88.1122E-03     355.123E-03    -157.894E-03     245.987E-03    -87.9746E-03     343.294E-03
            1143     13.1571E-03     123.016E-03    -27.0912E+06     104.983E+06     59.6572E+06     886.826E+03    -166.515E-03     257.148E-03    -90.6335E-03     394.320E-03    -182.475E-03     273.220E-03    -90.4481E-03     377.234E-03
            1144     13.9363E-03     123.433E-03    -21.2194E+06     131.661E+06     92.7185E+06     1.25566E+06    -182.460E-03     276.320E-03    -93.8600E-03     405.235E-03    -203.985E-03     297.977E-03    -93.5566E-03     383.806E-03
            1145     14.7011E-03     123.861E-03    -14.4760E+06     153.724E+06     114.789E+06    -276.574E+03    -195.553E-03     293.195E-03    -97.6418E-03     399.291E-03    -221.714E-03     319.527E-03    -97.2698E-03     375.422E-03
            1146     15.4509E-03     124.307E-03    -6.88568E+06     155.368E+06     118.697E+06    -948.981E+03    -201.259E-03     303.064E-03    -101.806E-03     312.698E-03    -220.662E-03     322.657E-03    -101.427E-03     293.488E-03
            1147     831.651E-06     121.983E-03    -52.8785E+06    -132.923E+06    -53.7421E+06    -4.38089E+06    -78.7056E-03     157.272E-03    -78.5663E-03     20.7068E-03    -78.7059E-03     156.763E-03    -78.5656E-03     20.5781E-03
            1148     1.66365E-03     122.000E-03    -54.2542E+06    -131.038E+06    -56.3794E+06    -7.66419E+06    -78.0250E-03     156.422E-03    -78.3968E-03     38.3584E-03    -78.0397E-03     155.937E-03    -78.4101E-03     38.1279E-03
            1149     2.49670E-03     122.031E-03    -56.4272E+06    -129.922E+06    -57.3957E+06    -9.40230E+06    -77.2710E-03     155.256E-03    -77.9854E-03     57.3259E-03    -77.3111E-03     154.796E-03    -78.0021E-03     57.0118E-03
            1150     3.33064E-03     122.073E-03    -58.8922E+06    -133.290E+06    -56.8387E+06    -10.4406E+06    -76.5196E-03     154.009E-03    -77.4891E-03     76.9823E-03    -76.5893E-03     153.556E-03    -77.4947E-03     76.5904E-03
            1151     4.16598E-03     122.129E-03    -61.5459E+06    -134.175E+06    -55.3018E+06    -10.0587E+06    -76.0938E-03     153.042E-03    -76.9478E-03     97.3871E-03    -76.2086E-03     152.617E-03    -76.9405E-03     96.9259E-03
            1152     5.00198E-03     122.199E-03    -64.6263E+06    -132.345E+06    -51.9469E+06    -8.72621E+06    -76.4316E-03     152.873E-03    -76.4415E-03     118.560E-03    -76.6162E-03     152.505E-03    -76.4156E-03     118.018E-03
            1153     5.83864E-03     122.286E-03    -67.2313E+06    -129.300E+06    -46.1169E+06    -7.44959E+06    -77.9271E-03     153.988E-03    -76.0609E-03     140.461E-03    -78.2124E-03     153.706E-03    -76.0065E-03     139.790E-03
            1154     6.67449E-03     122.390E-03    -67.9006E+06    -125.288E+06    -38.3240E+06    -6.88440E+06    -80.8400E-03     156.721E-03    -75.8809E-03     163.035E-03    -81.2679E-03     156.572E-03    -75.7923E-03     162.151E-03
            1155     7.50896E-03     122.514E-03    -65.9986E+06    -117.477E+06    -29.4641E+06    -7.42274E+06    -85.3186E-03     161.273E-03    -75.9548E-03     186.280E-03    -85.9599E-03     161.347E-03    -75.8361E-03     185.056E-03
            1156     8.34047E-03     122.660E-03    -62.8885E+06    -106.110E+06    -20.5809E+06    -8.42599E+06    -91.5901E-03     167.924E-03    -76.3337E-03     210.271E-03    -92.5677E-03     168.361E-03    -76.1916E-03     208.528E-03
            1157     9.16872E-03     122.831E-03    -58.4338E+06    -98.1286E+06    -13.3835E+06    -10.9797E+06    -99.7475E-03     176.815E-03    -77.0678E-03     234.781E-03    -101.236E-03     177.787E-03    -76.9077E-03     232.249E-03
            1158     9.99029E-03     123.028E-03    -51.8954E+06    -83.8724E+06    -7.24342E+06    -14.4011E+06    -109.709E-03     187.891E-03    -78.1820E-03     259.625E-03    -111.996E-03     189.719E-03    -78.0214E-03     255.934E-03
            1159     10.8074E-03     123.254E-03    -44.0696E+06    -65.5965E+06     394.720E+03    -14.8370E+06    -122.033E-03     201.759E-03    -79.7263E-03     287.682E-03    -125.660E-03     204.999E-03    -79.5653E-03     282.257E-03
            1160     11.6161E-03     123.518E-03    -36.4842E+06    -28.0510E+06     13.4914E+06    -11.7428E+06    -137.913E-03     219.657E-03    -81.7433E-03     324.867E-03    -144.034E-03     225.515E-03    -81.5823E-03     316.603E-03
            1161     12.4122E-03     123.838E-03    -29.0985E+06     45.3981E+06     34.1380E+06    -4.61098E+06    -157.716E-03     241.991E-03    -84.2751E-03     371.452E-03    -168.288E-03     252.530E-03    -84.1281E-03     358.603E-03
            1162     13.2006E-03     124.229E-03    -21.4767E+06     102.067E+06     61.0995E+06     2.19327E+06    -179.382E-03     266.857E-03    -87.4747E-03     412.278E-03    -196.302E-03     283.896E-03    -87.2861E-03     393.197E-03
            1163     13.9712E-03     124.675E-03    -15.3636E+06     137.175E+06     93.2745E+06     4.18035E+06    -197.784E-03     289.218E-03    -91.4343E-03     421.420E-03    -220.647E-03     312.256E-03    -91.1445E-03     396.907E-03
            1164     14.7259E-03     125.124E-03    -10.6289E+06     159.006E+06     117.978E+06     3.83390E+06    -212.219E-03     308.253E-03    -96.0341E-03     412.665E-03    -239.909E-03     336.139E-03    -95.6593E-03     384.764E-03
            1165     15.4652E-03     125.600E-03    -5.72221E+06     157.285E+06     122.818E+06    -18.1562E+03    -217.706E-03     318.707E-03    -101.001E-03     322.166E-03    -238.109E-03     339.300E-03    -100.607E-03     299.425E-03
            1166     838.713E-06     123.083E-03    -62.5119E+06    -122.390E+06    -62.3146E+06    -4.55957E+06    -70.2390E-03     140.433E-03    -70.1937E-03     21.0892E-03    -70.2893E-03     140.001E-03    -70.2371E-03     20.9903E-03
            1167     1.67791E-03     123.100E-03    -63.0101E+06    -123.601E+06    -62.4471E+06    -6.53312E+06    -69.6762E-03     139.689E-03    -70.0129E-03     39.1333E-03    -69.7321E-03     139.257E-03    -70.0546E-03     38.9772E-03
            1168     2.51771E-03     123.129E-03    -64.7658E+06    -125.377E+06    -64.8490E+06    -6.96324E+06    -69.0250E-03     138.657E-03    -69.6322E-03     58.6963E-03    -69.0918E-03     138.231E-03    -69.6808E-03     58.5031E-03
            1169     3.35874E-03     123.171E-03    -68.2728E+06    -131.127E+06    -66.0910E+06    -5.82547E+06    -68.6288E-03     137.827E-03    -69.1987E-03     79.0346E-03    -68.7155E-03     137.392E-03    -69.2400E-03     78.8209E-03
            1170     4.20040E-03     123.225E-03    -73.3067E+06    -133.894E+06    -64.9448E+06    -3.78233E+06    -68.9396E-03     137.741E-03    -68.8015E-03     100.202E-03    -69.0693E-03     137.319E-03    -68.8258E-03     99.9663E-03
            1171     5.04258E-03     123.296E-03    -77.4032E+06    -131.297E+06    -60.3227E+06    -2.66182E+06    -70.3605E-03     138.895E-03    -68.5345E-03     122.182E-03    -70.5568E-03     138.521E-03    -68.5335E-03     121.882E-03
            1172     5.88374E-03     123.384E-03    -78.8433E+06    -127.758E+06    -51.5505E+06    -3.00929E+06    -73.1255E-03     141.609E-03    -68.4837E-03     144.938E-03    -73.4109E-03     141.308E-03    -68.4419E-03     144.504E-03
            1173     6.72351E-03     123.492E-03    -77.2645E+06    -121.374E+06    -41.5833E+06    -5.24878E+06    -77.3331E-03     146.018E-03    -68.6853E-03     168.486E-03    -77.7468E-03     145.846E-03    -68.6052E-03     167.816E-03
            1174     7.56060E-03     123.621E-03    -72.9530E+06    -112.869E+06    -32.0573E+06    -8.79052E+06    -83.1804E-03     152.354E-03    -69.1737E-03     192.917E-03    -83.7906E-03     152.397E-03    -69.0646E-03     191.875E-03
            1175     8.39442E-03     123.775E-03    -65.8906E+06    -103.268E+06    -22.6234E+06    -11.1472E+06    -90.8345E-03     160.825E-03    -69.9910E-03     218.321E-03    -91.7563E-03     161.213E-03    -69.8588E-03     216.744E-03
            1176     9.22271E-03     123.955E-03    -57.9810E+06    -90.5705E+06    -13.2216E+06    -14.5870E+06    -100.425E-03     171.601E-03    -71.1758E-03     244.407E-03    -101.859E-03     172.547E-03    -71.0265E-03     242.012E-03
            1177     10.0464E-03     124.165E-03    -50.8630E+06    -77.5282E+06    -6.11646E+06    -19.2345E+06    -112.261E-03     185.032E-03    -72.7712E-03     270.917E-03    -114.526E-03     186.862E-03    -72.6156E-03     267.270E-03
            1178     10.8604E-03     124.405E-03    -44.1252E+06    -65.9844E+06    -566.477E+03    -20.6438E+06    -126.934E-03     201.771E-03    -74.8372E-03     300.751E-03    -130.621E-03     205.074E-03    -74.6803E-03     295.172E-03
            1179     11.6654E-03     124.688E-03    -36.4097E+06    -31.2151E+06     9.83062E+06    -18.5692E+06    -145.478E-03     222.894E-03    -77.4166E-03     340.218E-03    -151.827E-03     228.982E-03    -77.2693E-03     331.417E-03
            1180     12.4616E-03     125.033E-03    -29.0749E+06     30.4093E+06     27.8563E+06    -9.45039E+06    -168.549E-03     249.132E-03    -80.5827E-03     388.808E-03    -179.638E-03     260.155E-03    -80.4453E-03     374.728E-03
            1181     13.2397E-03     125.450E-03    -25.3735E+06     97.3820E+06      54.691E+06     90.0091E+03    -193.243E-03     277.714E-03    -84.4712E-03     430.195E-03    -211.221E-03     295.802E-03    -84.3022E-03     408.755E-03
            1182     14.0035E-03     125.926E-03    -21.2559E+06     141.817E+06     87.3919E+06    -92.8252E+03    -213.233E-03     302.399E-03    -89.1660E-03     438.887E-03    -237.669E-03     327.024E-03    -88.9039E-03     410.780E-03
            1183     14.7457E-03     126.407E-03    -12.6127E+06     155.281E+06     113.668E+06    -860.545E+03    -227.141E-03     321.637E-03    -94.4951E-03     427.550E-03    -256.191E-03     350.875E-03    -94.1336E-03     395.602E-03
            1184     15.4784E-03     126.897E-03    -4.70604E+06     156.523E+06     123.106E+06     1.56577E+06    -234.489E-03     334.665E-03    -100.175E-03     335.691E-03    -255.676E-03     356.045E-03    -99.7799E-03     309.470E-03
            1185     846.309E-06     124.165E-03    -70.8991E+06    -112.327E+06    -71.6252E+06    -5.04472E+06    -61.2553E-03     122.512E-03    -61.2568E-03     21.1734E-03    -61.3474E-03     122.155E-03    -61.3492E-03     21.0927E-03
            1186     1.69293E-03     124.181E-03    -72.8271E+06    -120.099E+06    -74.3433E+06    -4.55614E+06    -60.8226E-03     121.894E-03    -61.0713E-03     39.3761E-03    -60.9111E-03     121.506E-03    -61.1633E-03     39.2914E-03
            1187     2.54048E-03     124.209E-03    -78.5019E+06    -125.780E+06    -78.7282E+06    -1.41424E+06    -60.6131E-03     121.398E-03    -60.7852E-03     59.2917E-03    -60.7180E-03     121.000E-03    -60.8826E-03     59.2378E-03
            1188     3.38838E-03     124.249E-03    -85.9869E+06    -132.937E+06    -80.2665E+06     1.78118E+06    -61.0672E-03     121.630E-03    -60.5629E-03     80.1154E-03    -61.2022E-03     121.216E-03    -60.6468E-03     80.0866E-03
            1189     4.23635E-03     124.305E-03    -90.2765E+06    -133.724E+06    -76.0651E+06     2.41730E+06    -62.5409E-03     123.034E-03    -60.4935E-03     101.814E-03    -62.7146E-03     122.630E-03    -60.5490E-03     101.760E-03
            1190     5.08316E-03     124.377E-03    -90.1648E+06    -129.754E+06    -66.9776E+06     1.09653E+06    -65.2141E-03     125.853E-03    -60.6390E-03     124.434E-03    -65.4332E-03     125.483E-03    -60.6550E-03     124.300E-03
            1191     5.92854E-03     124.469E-03    -86.4777E+06    -123.385E+06    -55.1965E+06    -2.04355E+06    -69.1760E-03     130.208E-03    -61.0321E-03     147.999E-03    -69.4578E-03     129.903E-03    -61.0038E-03     147.709E-03
            1192     6.77131E-03     124.582E-03    -79.9495E+06    -114.541E+06    -43.6390E+06    -6.96041E+06    -74.5854E-03     136.273E-03    -61.6875E-03     172.613E-03    -74.9668E-03     136.089E-03    -61.6237E-03     172.067E-03
            1193     7.61090E-03     124.719E-03    -72.5778E+06    -106.636E+06    -33.0860E+06    -11.3435E+06    -81.6567E-03     144.296E-03    -62.6392E-03     198.415E-03    -82.2108E-03     144.310E-03    -62.5448E-03     197.501E-03
            1194     8.44569E-03     124.881E-03    -65.5693E+06    -97.1890E+06    -23.9285E+06    -16.0737E+06    -90.5795E-03     154.497E-03    -63.9175E-03     225.372E-03    -91.4402E-03     154.850E-03    -63.8012E-03     223.898E-03
            1195     9.27590E-03     125.073E-03    -57.7446E+06    -82.7929E+06    -14.6954E+06    -20.4627E+06    -101.652E-03     167.218E-03    -65.5659E-03     253.110E-03    -103.031E-03     168.143E-03    -65.4356E-03     250.791E-03
            1196     10.0975E-03     125.296E-03    -51.2270E+06    -72.3841E+06    -8.02615E+06    -22.4587E+06    -115.304E-03     182.951E-03    -67.6468E-03     281.564E-03    -117.540E-03     184.775E-03    -67.5076E-03     277.964E-03
            1197     10.9118E-03     125.555E-03    -46.6486E+06    -61.8580E+06    -2.99369E+06    -25.0097E+06    -132.338E-03     202.570E-03    -70.2314E-03     313.980E-03    -136.090E-03     205.951E-03    -70.0890E-03     308.250E-03
            1198     11.7144E-03     125.860E-03    -43.6870E+06    -33.7205E+06     3.52981E+06    -24.9463E+06    -153.969E-03     227.352E-03    -73.3826E-03     355.747E-03    -160.570E-03     233.676E-03    -73.2527E-03     346.341E-03
            1199     12.5022E-03     126.229E-03    -41.4630E+06     15.0070E+06     16.9631E+06    -16.9346E+06    -180.658E-03     257.864E-03    -77.2062E-03     405.722E-03    -192.320E-03     269.396E-03    -77.0830E-03     390.178E-03
            1200     13.2770E-03     126.680E-03    -34.0464E+06     89.2874E+06     46.3896E+06    -7.45062E+06    -207.065E-03     288.850E-03    -81.7845E-03     447.682E-03    -226.028E-03     307.888E-03    -81.6327E-03     423.752E-03
            1201     14.0298E-03     127.189E-03    -23.2328E+06     146.253E+06     85.8534E+06    -5.78695E+06    -225.734E-03     312.816E-03    -87.0824E-03     460.135E-03    -251.604E-03     338.888E-03    -86.8315E-03     428.872E-03
            1202     14.7696E-03     127.700E-03    -14.9577E+06     145.965E+06     107.623E+06    -7.51253E+06    -241.379E-03     334.293E-03    -92.9136E-03     451.023E-03    -271.813E-03     364.895E-03    -92.5654E-03     415.305E-03
            1203     15.4928E-03     128.212E-03    -8.21394E+06     144.341E+06     115.006E+06    -2.15286E+06    -254.375E-03     353.590E-03    -99.2151E-03     359.335E-03    -276.698E-03     376.082E-03    -98.8375E-03     329.007E-03
            1204     854.063E-06     125.226E-03    -89.4268E+06    -108.640E+06    -86.9797E+06     1.75490E+06    -52.1809E-03     104.141E-03    -51.9602E-03     21.0882E-03    -52.3475E-03     103.850E-03    -52.1079E-03     21.1126E-03
            1205     1.70876E-03     125.242E-03    -99.6328E+06    -121.222E+06    -98.5805E+06     2.77840E+06    -52.2057E-03     104.197E-03    -51.9917E-03     39.1323E-03    -52.3875E-03     103.875E-03    -52.1643E-03     39.1729E-03
            1206     2.56337E-03     125.270E-03    -106.429E+06    -130.971E+06    -102.579E+06     5.39147E+06    -52.8984E-03     104.911E-03    -52.0123E-03     58.9641E-03    -53.0930E-03     104.555E-03    -52.1810E-03     59.0405E-03
            1207     3.41761E-03     125.312E-03    -106.886E+06    -134.531E+06     -96.568E+06     6.21194E+06    -54.5258E-03     106.737E-03    -52.2117E-03     79.9797E-03    -54.7267E-03     106.358E-03    -52.3444E-03     80.0611E-03
            1208     4.27036E-03     125.369E-03    -103.212E+06    -131.222E+06    -85.5412E+06     3.37520E+06    -57.2232E-03     109.848E-03    -52.6245E-03     102.088E-03    -57.4333E-03     109.471E-03    -52.7123E-03     102.110E-03
            1209     5.12148E-03     125.446E-03    -96.6767E+06    -125.916E+06    -72.6790E+06    -796.489E+03    -61.0075E-03     114.274E-03    -53.2662E-03     125.295E-03    -61.2313E-03     113.916E-03    -53.3068E-03     125.213E-03
            1210     5.96998E-03     125.542E-03    -88.3161E+06    -116.205E+06    -59.3046E+06    -5.97165E+06    -65.9779E-03     120.115E-03    -54.1371E-03     149.658E-03    -66.2391E-03     119.821E-03    -54.1371E-03     149.411E-03
            1211     6.81552E-03     125.662E-03    -80.5646E+06    -107.046E+06    -47.0827E+06    -11.0584E+06    -72.3839E-03     127.642E-03    -55.2582E-03     175.355E-03    -72.7288E-03     127.457E-03    -55.2216E-03     174.871E-03
            1212     7.65680E-03     125.806E-03    -73.4502E+06    -99.4602E+06    -36.2529E+06    -15.7743E+06    -80.4877E-03     137.148E-03    -56.6607E-03     202.499E-03    -80.9944E-03     137.147E-03    -56.5913E-03     201.663E-03
            1213     8.49359E-03     125.980E-03    -66.0415E+06    -87.9419E+06    -26.2366E+06    -20.7098E+06    -90.6659E-03     149.047E-03    -58.3813E-03     231.085E-03    -91.4712E-03     149.384E-03    -58.2892E-03     229.699E-03
            1214     9.32286E-03     126.184E-03    -60.5783E+06    -76.4597E+06    -18.9453E+06    -24.6042E+06    -103.245E-03     163.721E-03    -60.4758E-03     260.747E-03    -104.571E-03     164.618E-03    -60.3718E-03     258.515E-03
            1215     10.1456E-03     126.424E-03    -55.6377E+06    -68.9799E+06    -12.8031E+06    -26.2875E+06    -118.713E-03     181.737E-03    -63.0245E-03     291.512E-03    -120.911E-03     183.535E-03    -62.9078E-03     287.955E-03
            1216     10.9570E-03     126.702E-03    -51.6928E+06    -55.2179E+06    -5.75943E+06    -27.5676E+06    -138.174E-03     204.286E-03    -66.1115E-03     326.391E-03    -141.957E-03     207.714E-03    -65.9853E-03     320.548E-03
            1217     11.7563E-03     127.031E-03    -47.7493E+06    -32.6763E+06     2.23144E+06    -27.4070E+06    -163.740E-03     233.595E-03    -69.8548E-03     370.437E-03    -170.529E-03     240.104E-03    -69.7270E-03     360.413E-03
            1218     12.5411E-03     127.432E-03    -37.9255E+06     6.79914E+06     17.3051E+06    -22.6298E+06    -192.572E-03     266.896E-03    -74.3239E-03     421.827E-03    -204.587E-03     278.763E-03    -74.1922E-03     404.990E-03
            1219     13.3040E-03     127.917E-03    -25.1335E+06     73.5287E+06     43.8019E+06    -13.4338E+06    -217.063E-03     296.448E-03    -79.3851E-03     468.664E-03    -236.552E-03     315.993E-03    -79.2363E-03     443.143E-03
            1220     14.0580E-03     128.453E-03    -15.6397E+06     141.537E+06     84.5841E+06    -4.97640E+06    -236.334E-03     321.320E-03    -84.9857E-03     488.154E-03    -263.457E-03     348.660E-03    -84.7453E-03     454.257E-03
            1221     14.7983E-03     128.999E-03    -9.10699E+06     148.544E+06     109.472E+06    -2.13234E+06    -257.843E-03     349.075E-03    -91.2311E-03     478.131E-03    -290.155E-03     381.587E-03    -90.8859E-03     437.704E-03
            1222     15.5139E-03     129.561E-03    -5.12402E+06     139.623E+06     117.419E+06    -623.994E+03    -275.800E-03     374.028E-03    -98.2284E-03     382.024E-03    -299.594E-03     397.984E-03    -97.8363E-03     346.638E-03
            1223     862.391E-06     126.269E-03    -129.742E+06    -119.533E+06    -126.924E+06     10.3410E+06    -43.7013E-03     86.8799E-03    -43.1786E-03     20.2937E-03    -43.9941E-03     86.6511E-03    -43.4518E-03     20.4385E-03
            1224     1.72371E-03     126.285E-03    -130.102E+06    -124.652E+06    -124.285E+06     10.4813E+06    -44.7092E-03     88.3362E-03    -43.6271E-03     38.0404E-03    -44.9979E-03     88.0769E-03    -43.8791E-03     38.1957E-03
            1225     2.58422E-03     126.314E-03    -127.459E+06    -132.410E+06    -119.647E+06     6.37414E+06    -46.6262E-03     90.7825E-03    -44.1563E-03     57.7712E-03    -46.8940E-03     90.4717E-03    -44.3778E-03     57.8808E-03
            1226     3.44309E-03     126.358E-03    -120.364E+06    -132.591E+06    -109.668E+06     1.66360E+06    -49.3543E-03     94.2357E-03    -44.8813E-03     78.7471E-03    -49.5988E-03     93.8980E-03    -45.0629E-03     78.7962E-03
            1227     4.30019E-03     126.421E-03    -110.550E+06    -126.194E+06    -96.0219E+06    -2.80147E+06    -52.9464E-03     98.7410E-03    -45.7946E-03     101.008E-03    -53.1735E-03     98.4046E-03    -45.9314E-03     100.986E-03
            1228     5.15450E-03     126.501E-03    -99.9156E+06    -118.802E+06    -81.5726E+06    -8.59488E+06    -57.5485E-03     104.447E-03    -46.8983E-03     124.645E-03    -57.7679E-03     104.125E-03    -46.9890E-03     124.510E-03
            1229     6.00595E-03     126.605E-03    -89.7966E+06    -109.500E+06    -67.1625E+06    -13.1636E+06    -63.3349E-03     111.540E-03    -48.2048E-03     149.763E-03    -63.5745E-03     111.266E-03    -48.2516E-03     149.491E-03
            1230     6.85346E-03     126.732E-03    -80.7750E+06    -100.506E+06    -52.9972E+06    -16.2805E+06    -70.5898E-03     120.334E-03    -49.7439E-03     176.476E-03    -70.8967E-03     120.151E-03    -49.7460E-03     176.015E-03
            1231     7.69672E-03     126.886E-03    -72.8320E+06    -90.9844E+06    -40.4845E+06    -20.3776E+06    -79.6781E-03     131.226E-03    -51.5483E-03     204.861E-03    -80.1323E-03     131.218E-03    -51.5132E-03     204.081E-03
            1232     8.53365E-03     127.070E-03    -66.8865E+06    -80.3221E+06    -30.3664E+06    -24.2833E+06    -90.9747E-03     144.641E-03    -53.6664E-03     235.045E-03    -91.7145E-03     144.949E-03    -53.6048E-03     233.754E-03
            1233     9.36454E-03     127.290E-03    -61.0627E+06    -69.9900E+06    -20.7940E+06    -26.9129E+06    -105.021E-03     161.195E-03    -56.1745E-03     266.587E-03    -106.262E-03     162.036E-03    -56.0884E-03     264.477E-03
            1234     10.1852E-03     127.546E-03    -54.9728E+06    -64.0724E+06    -12.6652E+06    -29.4076E+06    -122.463E-03     181.625E-03    -59.1622E-03     299.478E-03    -124.568E-03     183.350E-03    -59.0529E-03     295.991E-03
            1235     10.9957E-03     127.847E-03    -47.0539E+06    -51.5682E+06    -3.70913E+06    -29.9128E+06    -145.106E-03     207.856E-03    -62.7496E-03     336.844E-03    -148.813E-03     211.233E-03    -62.6251E-03     330.888E-03
            1236     11.7915E-03     128.203E-03    -36.6461E+06    -27.8531E+06     9.35310E+06    -29.2467E+06    -172.978E-03     240.022E-03    -67.0440E-03     384.119E-03    -179.688E-03     246.488E-03    -66.9037E-03     373.749E-03
            1237     12.5657E-03     128.641E-03    -28.0761E+06    -4.67542E+06     18.3995E+06    -27.5216E+06    -200.002E-03     271.911E-03    -71.9092E-03     439.086E-03    -211.845E-03     283.593E-03    -71.7697E-03     421.917E-03
            1238     13.3354E-03     129.145E-03    -22.6596E+06     51.4281E+06     35.6836E+06    -18.9121E+06    -224.028E-03     301.179E-03    -77.1509E-03     489.361E-03    -243.476E-03     320.638E-03    -77.0141E-03     463.102E-03
            1239     14.0951E-03     129.719E-03    -17.6647E+06     129.555E+06     78.5468E+06    -8.81578E+06    -250.008E-03     333.043E-03    -83.0358E-03     510.751E-03    -277.885E-03     361.114E-03    -82.8053E-03     473.673E-03
            1240     14.8225E-03     130.317E-03    -12.3386E+06     147.336E+06     110.318E+06    -2.88763E+06    -277.465E-03     367.389E-03    -89.9240E-03     495.472E-03    -311.807E-03     401.921E-03    -89.5682E-03     448.185E-03
            1241     15.5220E-03     130.918E-03    -6.44858E+06     139.009E+06     121.446E+06    -1.31300E+06    -291.119E-03     388.784E-03    -97.6657E-03     394.098E-03    -316.685E-03     414.490E-03    -97.2506E-03     352.810E-03
            1242     868.065E-06     127.294E-03    -178.104E+06    -132.128E+06    -179.509E+06     3.04299E+06    -37.2420E-03     73.9654E-03    -36.7234E-03     18.5384E-03    -37.6806E-03     73.8215E-03    -37.1711E-03     18.5889E-03
            1243     1.73544E-03     127.313E-03    -162.813E+06    -125.351E+06    -162.455E+06     1.59931E+06    -38.9567E-03     76.2729E-03    -37.3161E-03     35.4570E-03    -39.3513E-03     76.1137E-03    -37.7106E-03     35.4988E-03
            1244     2.60048E-03     127.345E-03    -147.359E+06    -126.026E+06    -145.926E+06    -4.08764E+06    -41.7232E-03     79.8985E-03    -38.1753E-03     54.8662E-03    -42.0598E-03     79.6864E-03    -38.5085E-03     54.8447E-03
            1245     3.46306E-03     127.394E-03    -132.802E+06    -124.941E+06    -129.575E+06    -11.4427E+06    -45.2767E-03     84.5479E-03    -39.2712E-03     75.9013E-03    -45.5622E-03     84.2933E-03    -39.5453E-03     75.7902E-03
            1246     4.32290E-03     127.460E-03    -117.236E+06    -119.243E+06    -112.093E+06    -17.3516E+06    -49.5806E-03     90.1347E-03    -40.5541E-03     98.2909E-03    -49.8215E-03     89.8607E-03    -40.7717E-03     98.0981E-03
            1247     5.18014E-03     127.548E-03    -102.740E+06    -111.157E+06    -94.7777E+06    -20.9081E+06    -54.7829E-03     96.7892E-03    -42.0064E-03     122.114E-03    -54.9965E-03     96.5184E-03    -42.1701E-03     121.850E-03
            1248     6.03367E-03     127.657E-03    -90.4862E+06    -104.533E+06    -77.0717E+06    -23.2990E+06    -61.2076E-03     104.861E-03    -43.6534E-03     147.672E-03    -61.4225E-03     104.608E-03    -43.7560E-03     147.316E-03
            1249     6.88321E-03     127.793E-03    -79.0240E+06    -95.4918E+06    -60.0216E+06    -24.8583E+06    -69.1944E-03     114.714E-03    -45.5194E-03     175.111E-03    -69.4541E-03     114.529E-03    -45.5665E-03     174.613E-03
            1250     7.72719E-03     127.958E-03    -69.5009E+06    -85.4990E+06    -45.0472E+06    -25.6034E+06    -79.1506E-03     126.801E-03    -47.6503E-03     204.596E-03    -79.5322E-03     126.765E-03    -47.6508E-03     203.854E-03
            1251     8.56536E-03     128.155E-03    -61.7408E+06    -73.7321E+06    -30.4429E+06    -26.7776E+06    -91.6309E-03     141.750E-03    -50.1186E-03     236.005E-03    -92.2692E-03     141.998E-03    -50.0744E-03     234.820E-03
            1252     9.39492E-03     128.388E-03    -55.1799E+06    -63.8834E+06    -17.7689E+06    -28.8808E+06    -107.091E-03     160.091E-03    -53.0005E-03     268.912E-03    -108.193E-03     160.827E-03    -52.9167E-03     266.946E-03
            1253     10.2154E-03     128.665E-03    -48.9398E+06    -57.4861E+06    -7.84023E+06    -31.5142E+06    -126.722E-03     183.124E-03    -56.4020E-03     303.630E-03    -128.655E-03     184.709E-03    -56.2868E-03     300.266E-03
            1254     11.0226E-03     128.987E-03    -41.4254E+06    -47.9116E+06     1.12012E+06    -35.1821E+06    -151.581E-03     212.019E-03    -60.4383E-03     344.635E-03    -155.044E-03     215.172E-03    -60.3031E-03     338.741E-03
            1255     11.8108E-03     129.379E-03    -35.0478E+06    -32.2722E+06     9.23530E+06    -35.3638E+06    -178.027E-03     243.087E-03    -65.0605E-03     395.114E-03    -184.274E-03     249.077E-03    -64.9167E-03     385.058E-03
            1256     12.5948E-03     129.838E-03    -29.9957E+06    -13.4689E+06     15.2941E+06    -32.7119E+06    -203.918E-03     273.995E-03    -70.0776E-03     449.289E-03    -214.938E-03     284.827E-03    -69.9381E-03     432.691E-03
            1257     13.3651E-03     130.373E-03    -23.0122E+06     30.7679E+06     32.9205E+06    -25.0123E+06    -233.832E-03     309.420E-03    -75.5874E-03     495.782E-03    -252.314E-03     327.852E-03    -75.4340E-03     468.902E-03
            1258     14.1094E-03     130.982E-03    -16.4923E+06     113.270E+06     72.8803E+06    -8.56674E+06    -265.203E-03     347.156E-03    -81.9527E-03     519.777E-03    -292.597E-03     374.706E-03    -81.7286E-03     480.001E-03
            1259     14.8278E-03     131.644E-03    -12.6155E+06     149.502E+06     112.177E+06    -1.04543E+06    -293.781E-03     383.165E-03    -89.3844E-03     519.809E-03    -329.992E-03     419.567E-03    -89.0220E-03     466.328E-03
            1260     15.5129E-03     132.295E-03    -7.32433E+06     138.719E+06     132.949E+06    -3.33096E+06    -301.235E-03     398.771E-03    -97.5364E-03     416.285E-03    -329.111E-03     426.745E-03    -97.0622E-03     369.720E-03
            1261     870.571E-06     128.310E-03    -183.317E+06    -126.057E+06    -183.453E+06    -9.03060E+06    -34.4406E-03     68.4372E-03    -33.9966E-03     16.1806E-03    -34.9080E-03     68.3384E-03    -34.4652E-03     16.0697E-03
            1262     1.74011E-03     128.330E-03    -175.194E+06    -117.348E+06    -175.123E+06    -14.6057E+06    -36.0147E-03     70.5197E-03    -34.5050E-03     31.2184E-03    -36.4650E-03     70.4390E-03    -34.9564E-03     31.0420E-03
            1263     2.60829E-03     128.367E-03    -163.463E+06    -113.325E+06    -163.357E+06    -20.8466E+06    -38.5856E-03     73.8756E-03    -35.2900E-03     49.0569E-03    -38.9976E-03     73.7785E-03    -35.7054E-03     48.8084E-03
            1264     3.47411E-03     128.420E-03    -149.805E+06    -110.350E+06    -149.969E+06    -29.1974E+06    -42.1735E-03     78.5117E-03    -36.3382E-03     69.3014E-03    -42.5374E-03     78.3870E-03    -36.7108E-03     68.9531E-03
            1265     4.33674E-03     128.493E-03    -135.974E+06    -108.238E+06    -134.641E+06    -36.4685E+06    -46.7700E-03     84.4119E-03    -37.6420E-03     91.5911E-03    -47.0877E-03     84.2535E-03    -37.9611E-03     91.1507E-03
            1266     5.19554E-03     128.586E-03    -120.308E+06    -104.378E+06    -115.738E+06    -40.1760E+06    -52.4679E-03     91.6618E-03    -39.1939E-03     115.728E-03    -52.7439E-03     91.4764E-03    -39.4468E-03     115.227E-03
            1267     6.05067E-03     128.704E-03    -102.711E+06    -99.7346E+06    -94.5113E+06    -41.4584E+06    -59.5267E-03     100.524E-03    -40.9972E-03     141.704E-03    -59.7702E-03     100.324E-03    -41.1762E-03     141.144E-03
            1268     6.90077E-03     128.848E-03    -86.1076E+06    -94.1592E+06    -72.9093E+06    -40.4444E+06    -68.2028E-03     111.275E-03    -43.0721E-03     169.477E-03    -68.4511E-03     111.096E-03    -43.1752E-03     168.834E-03
            1269     7.74573E-03     129.023E-03    -71.0852E+06    -85.5278E+06    -51.8831E+06    -37.2127E+06    -79.0095E-03     124.465E-03    -45.4551E-03     199.357E-03    -79.3327E-03     124.385E-03    -45.4874E-03     198.559E-03
            1270     8.58316E-03     129.233E-03    -59.4244E+06    -73.2004E+06    -31.5255E+06    -32.9650E+06    -92.4630E-03     140.674E-03    -48.2107E-03     231.451E-03    -92.9875E-03     140.822E-03    -48.1760E-03     230.336E-03
            1271     9.41189E-03     129.484E-03    -52.1885E+06    -58.3717E+06    -14.3167E+06    -31.5715E+06    -109.371E-03     160.788E-03    -51.4169E-03     265.443E-03    -110.308E-03     161.379E-03    -51.3282E-03     263.648E-03
            1272     10.2296E-03     129.777E-03    -45.5332E+06    -49.9501E+06    -2.50086E+06    -34.8274E+06    -130.771E-03     185.953E-03    -55.1821E-03     302.427E-03    -132.439E-03     187.297E-03    -55.0561E-03     299.310E-03
            1273     11.0318E-03     130.130E-03    -41.1994E+06    -42.2330E+06     4.72357E+06    -36.8441E+06    -154.817E-03     214.337E-03    -59.5199E-03     345.261E-03    -157.803E-03     217.020E-03    -59.3753E-03     339.904E-03
            1274     11.8266E-03     130.542E-03    -38.5828E+06    -32.7019E+06     8.81994E+06    -38.5578E+06    -179.972E-03     244.290E-03    -64.3182E-03     392.723E-03    -185.338E-03     249.386E-03    -64.1707E-03     383.574E-03
            1275     12.6055E-03     131.025E-03    -33.4997E+06    -16.1170E+06     16.4709E+06    -39.9033E+06    -209.327E-03     278.927E-03    -69.5998E-03     440.865E-03    -218.847E-03     288.236E-03    -69.4455E-03     425.186E-03
            1276     13.3660E-03     131.590E-03    -28.5675E+06     5.24238E+06     28.5413E+06    -33.6500E+06    -244.186E-03     319.748E-03    -75.5624E-03     488.895E-03    -260.457E-03     335.871E-03    -75.3859E-03     462.605E-03
            1277     14.1028E-03     132.252E-03     -25.158E+06     71.5190E+06     48.4607E+06    -17.3698E+06    -274.606E-03     356.848E-03    -82.2421E-03     523.107E-03    -299.803E-03     382.088E-03    -82.0670E-03     483.484E-03
            1278     14.8240E-03     132.947E-03    -17.1877E+06     147.982E+06     96.1162E+06    -8.29867E+06    -296.855E-03     386.494E-03    -89.6394E-03     544.197E-03    -333.054E-03     422.900E-03    -89.3485E-03     489.686E-03
            1279     15.5299E-03     133.699E-03    -7.10746E+06     137.493E+06     125.257E+06    -8.07220E+06    -303.589E-03     401.166E-03    -97.5767E-03     442.189E-03    -332.589E-03     430.293E-03    -97.1395E-03     394.026E-03
            1280     869.360E-06     129.324E-03    -152.909E+06    -104.597E+06    -150.332E+06    -12.1937E+06    -35.7049E-03     71.1121E-03    -35.4072E-03     13.1799E-03    -36.1004E-03     71.0286E-03    -35.7855E-03     13.0201E-03
            1281     1.73800E-03     129.347E-03    -149.953E+06    -99.5078E+06    -144.753E+06    -20.4351E+06    -36.9285E-03     72.7358E-03    -35.8073E-03     25.6050E-03    -37.3250E-03     72.6654E-03    -36.1693E-03     25.3378E-03
            1282     2.60556E-03     129.385E-03    -145.663E+06    -94.4101E+06    -138.955E+06    -29.3478E+06    -38.8579E-03     75.2768E-03    -36.4189E-03     40.4074E-03    -39.2486E-03     75.2173E-03    -36.7656E-03     40.0257E-03
            1283     3.47150E-03     129.443E-03    -141.044E+06    -90.3516E+06    -133.550E+06    -38.5011E+06    -41.6252E-03     78.8573E-03    -37.2320E-03     57.6841E-03    -42.0059E-03     78.8031E-03    -37.5643E-03     57.1865E-03
            1284     4.33530E-03     129.519E-03    -134.933E+06    -90.6528E+06    -125.039E+06    -47.4562E+06    -45.5056E-03     83.7962E-03    -38.2906E-03     77.6773E-03    -45.8670E-03     83.7190E-03    -38.5887E-03     77.0655E-03
            1285     5.19593E-03     129.620E-03    -126.037E+06    -90.9943E+06    -113.465E+06    -55.5568E+06    -50.8606E-03     90.4896E-03    -39.6290E-03     100.646E-03    -51.1953E-03     90.3832E-03    -39.8816E-03     99.9251E-03
            1286     6.05165E-03     129.744E-03    -114.939E+06    -92.6608E+06    -102.568E+06    -59.6560E+06    -57.9314E-03     99.2072E-03    -41.2758E-03     126.400E-03    -58.2334E-03     99.0706E-03    -41.4876E-03     125.604E-03
            1287     6.90215E-03     129.899E-03    -101.574E+06    -91.7264E+06    -88.2693E+06    -60.1596E+06    -67.0695E-03     110.359E-03    -43.2897E-03     154.623E-03    -67.3568E-03     110.218E-03    -43.4508E-03     153.757E-03
            1288     7.74563E-03     130.084E-03    -85.6155E+06    -88.7498E+06    -65.9277E+06    -58.0194E+06    -78.6815E-03     124.429E-03    -45.7472E-03     185.222E-03    -78.9981E-03     124.320E-03    -45.8240E-03     184.240E-03
            1289     8.58132E-03     130.308E-03    -68.4356E+06    -83.9591E+06    -40.7780E+06    -49.3617E+06    -93.0722E-03     141.754E-03    -48.6816E-03     217.504E-03    -93.5008E-03     141.763E-03    -48.6645E-03     216.337E-03
            1290     9.40836E-03     130.572E-03    -54.1309E+06    -62.1179E+06    -17.6006E+06    -38.8336E+06    -111.124E-03     163.252E-03    -52.1279E-03     252.058E-03    -111.849E-03     163.620E-03    -52.0474E-03     250.449E-03
            1291     10.2216E-03     130.891E-03    -49.4167E+06    -42.2747E+06    -2.59678E+06    -35.7929E+06    -132.296E-03     188.433E-03    -56.1377E-03     289.769E-03    -133.599E-03     189.425E-03    -56.0178E-03     287.155E-03
            1292     11.0243E-03     131.261E-03    -49.3088E+06    -36.2039E+06     4.43757E+06    -38.5375E+06    -155.432E-03     216.113E-03    -60.6811E-03     329.695E-03    -157.756E-03     218.128E-03    -60.5350E-03     325.198E-03
            1293     11.8121E-03     131.694E-03    -46.7716E+06    -24.6657E+06     12.9511E+06    -43.0931E+06    -182.346E-03     248.108E-03    -65.7623E-03     371.769E-03    -186.530E-03     252.010E-03    -65.5940E-03     363.860E-03
            1294     12.5847E-03     132.202E-03    -44.1878E+06    -16.8988E+06     18.3183E+06    -48.1999E+06    -214.695E-03     286.177E-03    -71.4817E-03     417.215E-03    -222.180E-03     293.403E-03    -71.3015E-03     403.257E-03
            1295     13.3366E-03     132.801E-03    -41.3412E+06    -21.1922E+06     19.4669E+06    -43.3582E+06    -248.160E-03     326.041E-03    -77.8811E-03     464.199E-03    -260.936E-03     338.548E-03    -77.6931E-03     440.952E-03
            1296     14.0765E-03     133.491E-03    -25.3490E+06     30.7680E+06     37.9727E+06    -36.1776E+06    -271.019E-03     355.726E-03    -84.7071E-03     501.253E-03    -291.290E-03     375.916E-03    -84.5251E-03     466.552E-03
            1297     14.7976E-03     134.235E-03    -1.26024E+06     111.947E+06     73.7007E+06    -15.4390E+06    -284.929E-03     376.613E-03    -91.6841E-03     533.530E-03    -316.583E-03     408.461E-03    -91.4761E-03     484.336E-03
            1298     15.5109E-03     135.005E-03     6.36087E+06     140.437E+06     117.459E+06     10.7786E+06    -284.185E-03     383.007E-03    -98.8225E-03     460.839E-03    -312.627E-03     411.659E-03    -98.4480E-03     415.188E-03
            1299     864.648E-06     130.345E-03    -121.114E+06    -80.5618E+06    -118.416E+06    -11.0581E+06    -41.1737E-03     82.0700E-03    -40.8962E-03     9.61674E-03    -41.4938E-03     82.0129E-03    -41.1959E-03     9.45934E-03
            1300     1.72891E-03     130.369E-03    -118.576E+06    -76.5972E+06    -112.655E+06    -20.4623E+06    -42.2000E-03     83.5097E-03    -41.3097E-03     18.3727E-03    -42.5233E-03     83.4615E-03    -41.5900E-03     18.0808E-03
            1301     2.59185E-03     130.410E-03    -114.634E+06    -71.9521E+06    -104.661E+06    -30.0129E+06    -43.7599E-03     85.6639E-03    -41.9040E-03     28.9415E-03    -44.0845E-03     85.6242E-03    -42.1567E-03     28.5124E-03
            1302     3.45354E-03     130.468E-03    -110.152E+06    -69.0876E+06    -95.7931E+06    -38.5013E+06    -45.7940E-03     88.4616E-03    -42.6677E-03     41.3869E-03    -46.1168E-03     88.4205E-03    -42.8867E-03     40.8343E-03
            1303     4.31343E-03     130.549E-03    -106.074E+06    -68.0765E+06    -87.7416E+06    -47.6781E+06    -48.4919E-03     92.0842E-03    -43.5924E-03     56.3163E-03    -48.8122E-03     92.0354E-03    -43.7786E-03     55.6320E-03
            1304     5.17101E-03     130.652E-03    -103.594E+06    -71.0537E+06    -83.3804E+06    -56.2454E+06    -52.2985E-03     97.0036E-03    -44.7050E-03     74.6149E-03    -52.6140E-03     96.9361E-03    -44.8687E-03     73.8078E-03
            1305     6.02554E-03     130.784E-03    -101.785E+06    -77.7609E+06    -82.5294E+06    -63.0045E+06    -57.8363E-03     103.912E-03    -46.0759E-03     96.6960E-03    -58.1424E-03     103.817E-03    -46.2282E-03     95.7853E-03
            1306     6.87505E-03     130.945E-03    -98.2722E+06    -80.4892E+06    -79.8541E+06    -68.6357E+06    -65.8143E-03     113.627E-03    -47.8123E-03     122.902E-03    -66.1184E-03     113.526E-03    -47.9524E-03     121.886E-03
            1307     7.71759E-03     131.143E-03    -92.5003E+06    -84.3727E+06    -70.9634E+06    -71.7847E+06    -76.7778E-03     126.822E-03    -50.0438E-03     152.763E-03    -77.0962E-03     126.717E-03    -50.1422E-03     151.630E-03
            1308     8.55138E-03     131.377E-03    -83.2120E+06    -94.4930E+06    -60.2137E+06    -69.3379E+06    -91.4624E-03     144.321E-03    -52.8584E-03     185.478E-03    -91.8187E-03     144.222E-03    -52.9018E-03     184.196E-03
            1309     9.37218E-03     131.660E-03    -71.7541E+06    -81.7985E+06    -40.8939E+06    -57.5812E+06    -109.610E-03     165.934E-03    -56.3245E-03     220.713E-03    -110.124E-03     166.025E-03    -56.3063E-03     219.217E-03
            1310     10.1828E-03     131.993E-03    -60.8443E+06    -49.3329E+06    -14.5373E+06    -42.7349E+06    -130.161E-03     190.607E-03    -60.4462E-03     256.212E-03    -131.040E-03     191.140E-03    -60.3591E-03     254.184E-03
            1311     10.9798E-03     132.383E-03    -53.9199E+06    -27.7194E+06     6.50401E+06    -38.2385E+06    -153.970E-03     219.194E-03    -65.2234E-03     291.040E-03    -155.528E-03     220.445E-03    -65.0725E-03     287.651E-03
            1312     11.7615E-03     132.836E-03    -51.2679E+06    -15.1800E+06     19.3394E+06    -41.4387E+06    -181.600E-03     252.299E-03    -70.6993E-03     327.433E-03    -184.382E-03     254.792E-03    -70.5063E-03     321.398E-03
            1313     12.5234E-03     133.369E-03    -47.2330E+06    -5.00076E+06     24.9017E+06    -46.6553E+06    -213.019E-03     289.925E-03    -76.9067E-03     367.250E-03    -217.947E-03     294.599E-03    -76.7065E-03     356.529E-03
            1314     13.2674E-03     133.990E-03    -35.5699E+06    -28.4717E+06     19.0517E+06    -50.1257E+06    -240.994E-03     324.707E-03    -83.7124E-03     407.395E-03    -249.277E-03     332.709E-03    -83.5243E-03     389.703E-03
            1315     13.9888E-03     134.691E-03    -29.5008E+06     9.05377E+06     20.9036E+06    -53.9971E+06    -254.494E-03     345.076E-03    -90.5822E-03     443.441E-03    -268.111E-03     358.559E-03    -90.4481E-03     417.084E-03
            1316     14.7223E-03     135.437E-03    -43.1088E+06     36.8606E+06     7.52198E+06    -56.0975E+06    -257.861E-03     354.737E-03    -96.8761E-03     494.379E-03    -280.939E-03     377.781E-03    -96.8295E-03     456.852E-03
            1317     15.4411E-03     136.267E-03    -51.5338E+06     50.2441E+06     30.6663E+06    -41.0648E+06    -231.587E-03     333.610E-03    -102.023E-03     486.503E-03    -256.276E-03     358.227E-03    -101.868E-03     451.411E-03
            1318     856.461E-06     131.382E-03    -90.8346E+06    -57.0733E+06    -89.0929E+06    -9.99588E+06    -51.3582E-03     102.426E-03    -51.0681E-03     4.87769E-03    -51.6081E-03     102.396E-03    -51.2991E-03     4.71400E-03
            1319     1.71166E-03     131.407E-03    -89.0490E+06    -52.4462E+06    -83.4860E+06    -19.7432E+06    -52.5406E-03     104.156E-03    -51.6152E-03     8.96556E-03    -52.7990E-03     104.139E-03    -51.8275E-03     8.64288E-03
            1320     2.56598E-03     131.449E-03    -87.2082E+06    -50.0767E+06    -75.3186E+06    -28.0093E+06    -54.0568E-03     106.442E-03    -52.3851E-03     13.7953E-03    -54.3252E-03     106.425E-03    -52.5627E-03     13.3277E-03
            1321     3.41821E-03     131.510E-03    -85.0200E+06    -47.8273E+06    -68.1274E+06    -35.9055E+06    -55.7236E-03     109.028E-03    -53.3040E-03     19.8007E-03    -56.0004E-03     109.014E-03    -53.4520E-03     19.1888E-03
            1322     4.26860E-03     131.591E-03    -83.3281E+06    -46.3712E+06    -62.7489E+06    -43.3678E+06    -57.5697E-03     111.912E-03    -54.3420E-03     27.8829E-03    -57.8562E-03     111.902E-03    -54.4677E-03     27.1315E-03
            1323     5.11681E-03     131.697E-03    -82.4063E+06    -50.4643E+06    -58.1222E+06    -50.2196E+06    -59.8291E-03     115.351E-03    -55.5216E-03     38.6470E-03    -60.1223E-03     115.322E-03    -55.6196E-03     37.7653E-03
            1324     5.96247E-03     131.829E-03    -81.3554E+06    -57.5684E+06    -55.6321E+06    -57.1712E+06    -63.0370E-03     119.919E-03    -56.8818E-03     52.9775E-03    -63.3313E-03     119.863E-03    -56.9585E-03     51.9677E-03
            1325     6.80432E-03     131.995E-03    -81.6261E+06    -62.7692E+06    -55.1398E+06    -63.3398E+06    -67.9209E-03     126.428E-03    -58.5076E-03     71.7005E-03    -68.2248E-03     126.362E-03    -58.5739E-03     70.5763E-03
            1326     7.64119E-03     132.198E-03    -85.1268E+06    -70.2941E+06    -57.7445E+06    -67.0920E+06    -75.4410E-03     135.964E-03    -60.5230E-03     95.2189E-03    -75.7674E-03     135.891E-03    -60.5864E-03     94.0061E-03
            1327     8.46958E-03     132.445E-03    -90.9117E+06    -84.5990E+06    -63.3434E+06    -71.5055E+06    -86.5870E-03     149.659E-03    -63.0720E-03     123.895E-03    -86.9441E-03     149.565E-03    -63.1343E-03     122.562E-03
            1328     9.28849E-03     132.739E-03    -91.2582E+06    -93.4457E+06    -61.6616E+06    -72.9572E+06    -101.571E-03     167.865E-03    -66.2944E-03     156.066E-03    -101.977E-03     167.786E-03    -66.3349E-03     154.579E-03
            1329     10.0925E-03     133.088E-03    -80.5431E+06    -74.0506E+06    -39.4172E+06    -66.0196E+06    -120.754E-03     191.074E-03    -70.3199E-03     188.368E-03    -121.303E-03     191.182E-03    -70.2929E-03     186.617E-03
            1330     10.8803E-03     133.493E-03    -65.4824E+06    -44.9785E+06    -4.03019E+06    -51.2480E+06    -143.880E-03     219.127E-03    -75.2472E-03     219.449E-03    -144.738E-03     219.600E-03    -75.1072E-03     217.102E-03
            1331     11.6475E-03     133.965E-03    -54.7393E+06    -15.5152E+06     24.5177E+06    -42.6884E+06    -170.652E-03     251.730E-03    -81.0780E-03     249.817E-03    -172.110E-03     252.860E-03    -80.8535E-03     246.002E-03
            1332     12.3968E-03     134.508E-03    -49.9894E+06     9.71825E+06     31.6204E+06    -47.9983E+06    -198.611E-03     286.337E-03    -87.7263E-03     282.088E-03    -201.126E-03     288.606E-03    -87.5098E-03     275.397E-03
            1333     13.1204E-03     135.145E-03    -54.6260E+06    -9.52984E+06     10.7842E+06    -63.9442E+06    -216.856E-03     311.677E-03    -94.8219E-03     314.528E-03    -221.053E-03     315.595E-03    -94.6750E-03     303.595E-03
            1334     13.8511E-03     135.837E-03    -73.0030E+06    -14.4494E+06    -4.45240E+06    -69.0130E+06    -221.825E-03     323.622E-03    -101.796E-03     343.909E-03    -228.964E-03     330.437E-03    -101.692E-03     327.595E-03
            1335     14.5665E-03     136.586E-03    -80.3388E+06     23.0825E+06     6.34651E+06    -74.5935E+06    -201.941E-03     309.563E-03    -107.622E-03     389.561E-03    -213.796E-03     321.158E-03    -107.507E-03     369.102E-03
            1336     15.3463E-03     137.372E-03    -142.952E+06    -977.168E+03    -51.8099E+06    -61.7784E+06    -129.270E-03     239.145E-03    -109.874E-03     425.537E-03    -142.789E-03     252.321E-03    -109.925E-03     410.004E-03
            1337     843.073E-06     132.446E-03    -62.7741E+06    -34.2448E+06    -62.2916E+06    -8.78184E+06    -67.4779E-03     134.792E-03    -67.3145E-03    -1.12874E-03    -67.6682E-03     134.786E-03    -67.4853E-03    -1.30333E-03
            1338     1.68517E-03     132.472E-03    -64.6964E+06    -30.6699E+06    -58.9007E+06    -16.3913E+06    -69.1491E-03     137.190E-03    -68.0406E-03    -3.84927E-03    -69.3606E-03     137.198E-03    -68.1968E-03    -4.18604E-03
            1339     2.52451E-03     132.517E-03    -64.3210E+06    -29.6065E+06    -52.4820E+06    -23.5704E+06    -70.5937E-03     139.713E-03    -69.1191E-03    -6.47546E-03    -70.8147E-03     139.716E-03    -69.2454E-03    -6.98074E-03
            1340     3.36205E-03     132.578E-03    -63.8751E+06    -27.8066E+06    -46.9779E+06    -30.0769E+06    -72.0141E-03     142.337E-03    -70.3231E-03    -8.15370E-03    -72.2449E-03     142.341E-03    -70.4250E-03    -8.82334E-03
            1341     4.19703E-03     132.661E-03    -64.8372E+06    -27.7920E+06    -42.5112E+06    -35.5257E+06    -73.4908E-03     145.170E-03    -71.6796E-03    -8.61962E-03    -73.7362E-03     145.169E-03    -71.7578E-03    -9.44437E-03
            1342     5.02918E-03     132.767E-03    -66.8225E+06    -30.7181E+06    -38.3168E+06    -40.9670E+06    -74.9598E-03     148.180E-03    -73.2206E-03    -7.49416E-03    -75.2222E-03     148.163E-03    -73.2707E-03    -8.47764E-03
            1343     5.85772E-03     132.900E-03    -70.3865E+06    -36.7317E+06    -36.5801E+06    -47.2480E+06    -76.4421E-03     151.402E-03    -74.9600E-03    -4.01411E-03    -76.7242E-03     151.361E-03    -74.9876E-03    -5.16465E-03
            1344     6.68259E-03     133.064E-03    -75.3222E+06    -44.7185E+06    -38.2087E+06    -52.1520E+06    -78.2004E-03     155.135E-03    -76.9343E-03     2.60143E-03    -78.5045E-03     155.069E-03    -76.9513E-03     1.30927E-03
            1345     7.50208E-03     133.267E-03    -79.4437E+06    -53.7073E+06    -39.7433E+06    -55.3904E+06    -80.8935E-03     160.131E-03    -79.2378E-03     13.2060E-03    -81.2176E-03     160.040E-03    -79.2434E-03     11.8032E-03
            1346     8.31570E-03     133.513E-03    -80.3189E+06    -63.4820E+06    -40.6221E+06    -59.5727E+06    -85.1084E-03     167.089E-03    -81.9802E-03     28.2419E-03    -85.4390E-03     166.965E-03    -81.9748E-03     26.7257E-03
            1347     9.11976E-03     133.811E-03    -78.8858E+06    -76.3111E+06    -44.4825E+06    -67.1805E+06    -91.6999E-03     176.976E-03    -85.2759E-03     47.2644E-03    -92.0204E-03     176.812E-03    -85.2733E-03     45.5905E-03
            1348     9.91325E-03     134.164E-03    -78.6320E+06    -80.9959E+06    -40.6460E+06    -70.6599E+06    -101.846E-03     191.164E-03    -89.3178E-03     70.0256E-03    -102.199E-03     191.011E-03    -89.2896E-03     68.2174E-03
            1349     10.6884E-03     134.583E-03    -73.1666E+06    -68.8521E+06    -17.9066E+06    -68.7035E+06    -116.313E-03     210.625E-03    -94.3122E-03     93.9457E-03    -116.761E-03     210.567E-03    -94.1958E-03     91.9282E-03
            1350     11.4469E-03     135.063E-03    -65.4587E+06    -43.8302E+06     12.0202E+06    -55.2988E+06    -135.412E-03     235.810E-03    -100.398E-03     117.194E-03    -136.063E-03     235.984E-03    -100.179E-03     114.776E-03
            1351     12.1735E-03     135.625E-03    -57.7555E+06     9.98460E+06     30.2099E+06    -49.6744E+06    -151.875E-03     259.237E-03    -107.362E-03     141.526E-03    -152.890E-03     259.935E-03    -107.142E-03     138.203E-03
            1352     12.8913E-03     136.246E-03    -64.1991E+06     31.3450E+06     23.8822E+06    -42.6619E+06    -158.550E-03     273.269E-03    -114.719E-03     163.291E-03    -160.131E-03     274.595E-03    -114.552E-03     158.561E-03
            1353     13.5899E-03     136.921E-03    -65.0921E+06     18.1452E+06     33.6121E+06    -43.5015E+06    -153.323E-03     275.247E-03    -121.925E-03     186.479E-03    -155.740E-03     277.328E-03    -121.688E-03     179.902E-03
            1354     14.2982E-03     137.639E-03    -78.7790E+06     42.6830E+06     34.5692E+06    -41.6473E+06    -114.444E-03     241.604E-03    -127.160E-03     222.603E-03    -117.813E-03     244.700E-03    -126.935E-03     216.080E-03
            1355     15.0493E-03     138.295E-03    -113.545E+06     21.1440E+06    -25.3892E+06     16.2682E+06    -21.8075E-03     149.518E-03    -127.710E-03     236.375E-03    -25.0141E-03     152.357E-03    -127.703E-03     234.134E-03
            1356     824.090E-06     133.551E-03    -41.7584E+06    -15.2592E+06    -41.2013E+06    -7.10259E+06    -91.7975E-03     184.323E-03    -92.5258E-03    -12.1778E-03    -91.9615E-03     184.326E-03    -92.6492E-03    -12.3604E-03
            1357     1.64479E-03     133.582E-03    -43.3659E+06    -13.1297E+06    -38.3605E+06    -11.5277E+06    -92.6128E-03     185.439E-03    -92.8263E-03    -21.9555E-03    -92.7845E-03     185.452E-03    -92.9361E-03    -22.2672E-03
            1358     2.46416E-03     133.627E-03    -45.0450E+06    -12.5874E+06    -34.0519E+06    -16.2898E+06    -93.9819E-03     187.785E-03    -93.8036E-03    -31.9143E-03    -94.1642E-03     187.792E-03    -93.8902E-03    -32.3727E-03
            1359     3.28075E-03     133.692E-03    -47.9991E+06    -11.7320E+06    -28.8458E+06    -20.3444E+06    -95.7497E-03     190.993E-03    -95.2432E-03    -42.3088E-03    -95.9503E-03     190.989E-03    -95.3008E-03    -42.9141E-03
            1360     4.09378E-03     133.776E-03    -51.3332E+06    -12.4200E+06    -23.6737E+06    -23.5274E+06    -97.5517E-03     194.655E-03    -97.1032E-03    -53.4299E-03    -97.7685E-03     194.630E-03    -97.1291E-03    -54.1806E-03
            1361     4.90228E-03     133.883E-03    -55.4896E+06    -13.9578E+06    -20.1953E+06    -26.9864E+06    -99.0577E-03     198.406E-03    -99.3487E-03    -65.1412E-03    -99.2895E-03     198.355E-03    -99.3490E-03    -66.0498E-03
            1362     5.70580E-03     134.015E-03    -60.5223E+06    -17.6806E+06    -17.7674E+06    -30.6764E+06    -99.8934E-03     201.871E-03    -101.978E-03    -77.2192E-03    -100.137E-03     201.779E-03    -101.953E-03    -78.2968E-03
            1363     6.50296E-03     134.178E-03    -65.1542E+06    -25.3288E+06    -16.3168E+06    -35.3450E+06    -99.6700E-03     204.672E-03    -105.002E-03    -89.1661E-03    -99.9152E-03     204.513E-03    -104.953E-03    -90.4287E-03
            1364     7.29363E-03     134.375E-03    -68.1585E+06    -33.8167E+06    -16.2344E+06    -40.9161E+06    -97.9802E-03     206.423E-03    -108.443E-03    -100.062E-03    -98.2132E-03     206.188E-03    -108.376E-03    -101.518E-03
            1365     8.07495E-03     134.615E-03    -70.0051E+06    -42.4945E+06    -16.9523E+06    -47.3963E+06    -94.4976E-03     206.839E-03    -112.341E-03    -108.837E-03    -94.7111E-03     206.525E-03    -112.263E-03    -110.486E-03
            1366     8.84729E-03     134.901E-03    -72.5349E+06    -50.0789E+06    -16.9250E+06    -54.3050E+06    -89.1787E-03     205.928E-03    -116.750E-03    -113.573E-03    -89.3811E-03     205.545E-03    -116.656E-03    -115.400E-03
            1367     9.60602E-03     135.243E-03    -75.6282E+06    -62.5470E+06    -21.1257E+06    -60.2885E+06    -82.5575E-03     204.278E-03    -121.720E-03    -112.451E-03    -82.7421E-03     203.810E-03    -121.625E-03    -114.405E-03
            1368     10.3549E-03     135.644E-03    -77.8969E+06    -62.6097E+06    -22.9058E+06    -69.2476E+06    -76.9612E-03     204.397E-03    -127.436E-03    -105.161E-03    -77.1614E-03     203.929E-03    -127.347E-03    -107.256E-03
            1369     11.0773E-03     136.119E-03    -81.9544E+06    -69.5278E+06    -20.0764E+06    -65.6814E+06    -72.6883E-03     206.782E-03    -134.094E-03    -90.1705E-03    -72.9314E-03     206.314E-03    -133.975E-03    -92.2145E-03
            1370     11.7833E-03     136.660E-03    -77.4118E+06    -29.6021E+06    -15.9487E+06    -64.4984E+06    -65.3077E-03     206.638E-03    -141.331E-03    -67.0043E-03    -65.6496E-03     206.432E-03    -141.255E-03    -68.9832E-03
            1371     12.4711E-03     137.257E-03    -74.9097E+06     3.23485E+06    -4.45255E+06    -44.6782E+06    -55.9267E-03     204.630E-03    -148.703E-03    -35.5416E-03    -56.4153E-03     204.705E-03    -148.622E-03    -37.2933E-03
            1372     13.1505E-03     137.907E-03    -66.9632E+06     29.5289E+06     25.2818E+06    -37.3592E+06    -39.1244E-03     194.272E-03    -155.148E-03     16.0557E-03    -39.7603E-03     194.623E-03    -154.967E-03     14.3586E-03
            1373     13.8491E-03     138.568E-03    -82.6660E+06     32.0770E+06    -25.8133E+06    -20.9100E+06    -764.002E-06     159.058E-03    -158.294E-03     72.7546E-03    -1.44143E-03     159.600E-03    -158.349E-03     71.6895E-03
            1374     14.6570E-03     139.194E-03    -48.8668E+06    -3.55681E+06    -70.7646E+06     22.8479E+06     53.2696E-03     104.040E-03    -157.309E-03     68.9215E-03     53.0143E-03     104.291E-03    -157.587E-03     69.0183E-03
            1375     15.2754E-03     69.4121E-03    -4.82340E+06     120.400E+06     93.7164E+06    -329.942E+03    -120.011E-03     233.364E-03    -113.354E-03     259.707E-03    -135.131E-03     248.623E-03    -113.053E-03     253.270E-03
            1376     14.4660E-03     69.0242E-03    -9.87450E+06     116.577E+06     94.5265E+06    -336.099E+03    -125.278E-03     238.663E-03    -113.386E-03     329.276E-03    -145.860E-03     259.350E-03    -113.068E-03     317.808E-03
            1377     13.6656E-03     68.6606E-03    -15.8500E+06     100.581E+06     89.3365E+06     986.421E+03    -125.478E-03     238.884E-03    -113.406E-03     314.854E-03    -142.262E-03     255.709E-03    -113.082E-03     301.477E-03
            1378     12.8599E-03     68.3175E-03    -22.3919E+06     85.1224E+06     76.4128E+06     718.170E+03    -124.122E-03     237.524E-03    -113.402E-03     286.682E-03    -136.891E-03     250.294E-03    -113.111E-03     273.639E-03
            1379     12.0554E-03     68.0194E-03    -28.3604E+06     69.7247E+06     53.1174E+06    -45.1285E+03    -121.424E-03     234.770E-03    -113.345E-03     241.772E-03    -130.092E-03     243.430E-03    -113.140E-03     230.596E-03
            1380     11.2516E-03     67.7794E-03    -33.4075E+06     54.4841E+06     27.4270E+06     331.430E+03    -118.942E-03     232.205E-03    -113.263E-03     199.015E-03    -124.657E-03     237.916E-03    -113.157E-03     189.826E-03
            1381     10.4483E-03     67.5786E-03    -37.2155E+06     23.1811E+06     10.8142E+06     627.966E+03    -117.566E-03     230.811E-03    -113.244E-03     170.952E-03    -121.507E-03     234.671E-03    -113.170E-03     163.312E-03
            1382     9.64417E-03     67.4003E-03    -40.9683E+06    -26.6833E+06     2.40090E+06     896.493E+03    -117.000E-03     230.299E-03    -113.299E-03     153.556E-03    -119.858E-03     232.910E-03    -113.189E-03     147.082E-03
            1383     8.84055E-03     67.2380E-03    -45.0519E+06    -71.0397E+06    -3.41167E+06     829.710E+03    -116.651E-03     230.012E-03    -113.361E-03     140.124E-03    -118.769E-03     231.728E-03    -113.210E-03     134.604E-03
            1384     8.03638E-03     67.0895E-03    -49.0015E+06    -102.384E+06    -8.88327E+06     540.712E+03    -116.246E-03     229.654E-03    -113.407E-03     127.550E-03    -117.817E-03     230.712E-03    -113.232E-03     122.864E-03
            1385     7.23272E-03     66.9546E-03    -53.2253E+06    -127.924E+06    -15.0906E+06     428.613E+03    -115.856E-03     229.298E-03    -113.442E-03     115.235E-03    -117.009E-03     229.852E-03    -113.255E-03     111.282E-03
            1386     6.42883E-03     66.8327E-03    -57.6853E+06    -151.155E+06    -21.4238E+06     265.617E+03    -115.457E-03     228.928E-03    -113.472E-03     102.956E-03    -116.291E-03     229.083E-03    -113.276E-03     99.6428E-03
            1387     5.62523E-03     66.7250E-03    -62.3213E+06    -170.025E+06    -28.8922E+06     138.666E+03    -115.035E-03     228.524E-03    -113.489E-03     90.7440E-03    -115.625E-03     228.372E-03    -113.296E-03     88.0017E-03
            1388     4.82155E-03     66.6301E-03     -67.215E+06    -187.019E+06    -37.2934E+06     113.405E+03    -114.635E-03     228.135E-03    -113.500E-03     78.4004E-03    -115.036E-03     227.742E-03    -113.318E-03     76.1675E-03
            1389     4.01776E-03     66.5496E-03    -72.0623E+06    -206.024E+06    -47.0970E+06     139.113E+03    -114.305E-03     227.812E-03    -113.508E-03     65.8342E-03    -114.555E-03     227.212E-03    -113.340E-03     64.0543E-03
            1390     3.21423E-03     66.4828E-03    -76.6354E+06    -220.084E+06    -57.9970E+06     138.575E+03    -114.032E-03     227.529E-03    -113.496E-03     53.1109E-03    -114.171E-03     226.782E-03    -113.356E-03     51.7401E-03
            1391     2.41057E-03     66.4306E-03    -81.1037E+06    -227.671E+06    -68.9755E+06     20.3614E+03    -113.800E-03     227.265E-03    -113.465E-03     40.2124E-03    -113.863E-03     226.432E-03    -113.362E-03     39.2126E-03
            1392     1.60712E-03     66.3927E-03    -84.8897E+06    -234.454E+06    -78.9491E+06     32.5330E+03    -113.615E-03     227.037E-03    -113.422E-03     27.2603E-03    -113.624E-03     226.142E-03    -113.354E-03     26.6016E-03
            1393     803.684E-06     66.3696E-03    -86.9241E+06    -238.736E+06    -85.6870E+06     79.2213E+03    -113.484E-03     226.836E-03    -113.353E-03     14.9414E-03    -113.460E-03     225.906E-03    -113.309E-03     14.5900E-03
            1394     15.2682E-03     68.2177E-03    -5.15208E+06     121.873E+06     93.9591E+06    -488.927E+03    -119.719E-03     233.046E-03    -113.327E-03     259.411E-03    -134.779E-03     248.248E-03    -113.027E-03     253.024E-03
            1395     14.4705E-03     67.8378E-03    -11.6420E+06     114.803E+06     92.6945E+06    -585.967E+03    -124.704E-03     238.083E-03    -113.380E-03     329.357E-03    -145.210E-03     258.687E-03    -113.066E-03     317.995E-03
            1396     13.6622E-03     67.4705E-03    -17.5311E+06     98.9199E+06     88.3390E+06    -116.186E+03    -125.561E-03     238.983E-03    -113.422E-03     315.103E-03    -142.352E-03     255.807E-03    -113.098E-03     301.708E-03
            1397     12.8598E-03     67.1282E-03    -23.1281E+06     86.8435E+06     77.0486E+06     110.593E+03    -124.530E-03     237.930E-03    -113.400E-03     285.726E-03    -137.317E-03     250.720E-03    -113.107E-03     272.612E-03
            1398     12.0564E-03     66.8311E-03    -29.1592E+06     69.1018E+06     51.8900E+06     216.318E+03    -121.440E-03     234.756E-03    -113.316E-03     241.292E-03    -130.102E-03     243.409E-03    -113.114E-03     230.123E-03
            1399     11.2524E-03     66.5901E-03    -33.8558E+06     53.4780E+06     25.8217E+06     203.092E+03    -118.790E-03     232.023E-03    -113.233E-03     199.001E-03    -124.496E-03     237.723E-03    -113.132E-03     189.827E-03
            1400     10.4483E-03     66.3898E-03    -38.0783E+06     23.0361E+06     9.90575E+06     762.517E+03    -117.477E-03     230.701E-03    -113.224E-03     170.952E-03    -121.426E-03     234.568E-03    -113.153E-03     163.313E-03
            1401     9.64444E-03     66.2120E-03    -42.0666E+06    -26.3983E+06     1.68074E+06     932.763E+03    -116.871E-03     230.158E-03    -113.287E-03     153.792E-03    -119.732E-03     232.771E-03    -113.180E-03     147.334E-03
            1402     8.84011E-03     66.0493E-03    -45.4785E+06    -70.8133E+06    -3.75662E+06     642.804E+03    -116.566E-03     229.927E-03    -113.360E-03     140.247E-03    -118.685E-03     231.644E-03    -113.211E-03     134.732E-03
            1403     8.03654E-03     65.9010E-03    -49.2417E+06    -102.157E+06    -9.00730E+06     531.083E+03    -116.276E-03     229.686E-03    -113.411E-03     127.583E-03    -117.848E-03     230.747E-03    -113.236E-03     122.895E-03
            1404     7.23265E-03     65.7658E-03    -53.3087E+06    -127.746E+06    -15.2520E+06     365.319E+03    -115.861E-03     229.305E-03    -113.444E-03     115.250E-03    -117.016E-03     229.861E-03    -113.258E-03     111.294E-03
            1405     6.42896E-03     65.6444E-03    -57.6315E+06    -150.894E+06    -21.4503E+06     300.804E+03    -115.405E-03     228.883E-03    -113.477E-03     103.030E-03    -116.239E-03     229.038E-03    -113.282E-03     99.7213E-03
            1406     5.62510E-03     65.5360E-03    -62.3174E+06    -169.885E+06    -28.9564E+06     184.342E+03    -115.018E-03     228.519E-03    -113.501E-03     90.8340E-03    -115.608E-03     228.368E-03    -113.309E-03     88.0932E-03
            1407     4.82136E-03     65.4417E-03    -67.1354E+06    -186.958E+06    -37.6305E+06     47.3376E+03    -114.659E-03     228.173E-03    -113.513E-03     78.4782E-03    -115.060E-03     227.780E-03    -113.333E-03     76.2437E-03
            1408     4.01779E-03     65.3608E-03    -72.0646E+06    -206.112E+06    -47.5313E+06    -5.72643E+03    -114.346E-03     227.863E-03    -113.517E-03     65.8821E-03    -114.596E-03     227.264E-03    -113.351E-03     64.1000E-03
            1409     3.21414E-03     65.2943E-03    -76.8228E+06    -220.142E+06    -58.0024E+06     118.855E+03    -114.050E-03     227.554E-03    -113.504E-03     53.1037E-03    -114.189E-03     226.807E-03    -113.363E-03     51.7322E-03
            1410     2.41064E-03     65.2418E-03    -81.2289E+06    -227.581E+06    -68.9043E+06     209.493E+03    -113.774E-03     227.251E-03    -113.478E-03     40.1825E-03    -113.837E-03     226.418E-03    -113.374E-03     39.1860E-03
            1411     1.60702E-03     65.2042E-03    -84.6626E+06    -234.306E+06    -78.9413E+06     83.6555E+03    -113.606E-03     227.056E-03    -113.449E-03     27.2613E-03    -113.615E-03     226.161E-03    -113.382E-03     26.6033E-03
            1412     803.490E-06     65.1807E-03    -86.8425E+06    -238.608E+06    -85.5041E+06    -98.2367E+03    -113.489E-03     226.911E-03    -113.422E-03     14.8892E-03    -113.466E-03     225.980E-03    -113.377E-03     14.5344E-03
            1413     15.2782E-03     67.0348E-03    -4.83179E+06     121.928E+06     93.8948E+06     320.310E+03    -119.368E-03     232.685E-03    -113.318E-03     260.612E-03    -134.471E-03     247.932E-03    -113.018E-03     254.269E-03
            1414     14.4654E-03     66.6485E-03    -10.6598E+06     115.055E+06     93.2497E+06     418.706E+03    -124.976E-03     238.361E-03    -113.384E-03     330.608E-03    -145.591E-03     259.075E-03    -113.069E-03     319.202E-03
            1415     13.6647E-03     66.2820E-03    -16.6542E+06     99.0279E+06     88.6445E+06    -51.6460E+03    -126.056E-03     239.458E-03    -113.402E-03     314.176E-03    -142.842E-03     256.280E-03    -113.078E-03     300.702E-03
            1416     12.8607E-03     65.9378E-03    -22.9501E+06     86.7032E+06     76.8612E+06    -381.286E+03    -124.286E-03     237.648E-03    -113.362E-03     284.771E-03    -137.040E-03     250.405E-03    -113.070E-03     271.683E-03
            1417     12.0567E-03     65.6433E-03    -28.3464E+06     69.2271E+06     52.5169E+06     290.494E+03    -121.209E-03     234.499E-03    -113.290E-03     241.522E-03    -129.870E-03     243.152E-03    -113.086E-03     230.384E-03
            1418     11.2522E-03     65.4011E-03    -33.7174E+06     52.9932E+06     25.7936E+06     1.16577E+06    -118.648E-03     231.869E-03    -113.220E-03     199.610E-03    -124.351E-03     237.565E-03    -113.119E-03     190.473E-03
            1419     10.4483E-03     65.2013E-03    -38.2174E+06     22.6929E+06     9.63157E+06     1.17191E+06    -117.368E-03     230.591E-03    -113.223E-03     170.996E-03    -121.314E-03     234.454E-03    -113.152E-03     163.373E-03
            1420     9.64413E-03     65.0233E-03    -41.7801E+06    -25.7384E+06     2.08310E+06     768.050E+03    -116.849E-03     230.142E-03    -113.292E-03     153.756E-03    -119.713E-03     232.760E-03    -113.184E-03     147.291E-03
            1421     8.84043E-03     64.8610E-03    -45.5481E+06    -70.4372E+06    -3.82611E+06     494.229E+03    -116.559E-03     229.925E-03    -113.366E-03     140.413E-03    -118.678E-03     231.644E-03    -113.217E-03     134.901E-03
            1422     8.03631E-03     64.7120E-03    -49.3374E+06    -102.509E+06    -9.23985E+06     305.545E+03    -116.264E-03     229.684E-03    -113.419E-03     127.696E-03    -117.836E-03     230.743E-03    -113.246E-03     123.007E-03
            1423     7.23266E-03     64.5773E-03    -53.3306E+06    -127.482E+06    -15.0741E+06     346.911E+03    -115.833E-03     229.291E-03    -113.458E-03     115.315E-03    -116.989E-03     229.849E-03    -113.271E-03     111.359E-03
            1424     6.42872E-03     64.4556E-03    -57.7792E+06    -150.538E+06    -21.5579E+06     342.944E+03    -115.413E-03     228.906E-03    -113.494E-03     103.141E-03    -116.248E-03     229.064E-03    -113.299E-03     99.8342E-03
            1425     5.62497E-03     64.3477E-03    -62.3579E+06    -169.861E+06    -29.1789E+06     120.466E+03    -115.033E-03     228.551E-03    -113.518E-03     90.8675E-03    -115.623E-03     228.401E-03    -113.327E-03     88.1257E-03
            1426     4.82133E-03     64.2528E-03    -67.0465E+06    -186.705E+06    -37.5813E+06     146.636E+03    -114.691E-03     228.222E-03    -113.530E-03     78.4689E-03    -115.092E-03     227.831E-03    -113.350E-03     76.2348E-03
            1427     4.01765E-03     64.1723E-03    -71.9250E+06    -206.114E+06    -47.5680E+06     45.8985E+03    -114.380E-03     227.911E-03    -113.531E-03     65.8791E-03    -114.629E-03     227.311E-03    -113.366E-03     64.0970E-03
            1428     3.21419E-03     64.1054E-03    -76.8158E+06    -220.297E+06    -58.2195E+06    -59.9073E+03    -114.060E-03     227.576E-03    -113.516E-03     53.1032E-03    -114.198E-03     226.829E-03    -113.376E-03     51.7290E-03
            1429     2.41056E-03     64.0534E-03    -81.2848E+06    -227.580E+06    -68.7661E+06     21.6289E+03    -113.788E-03     227.279E-03    -113.492E-03     40.2044E-03    -113.852E-03     226.446E-03    -113.388E-03     39.2048E-03
            1430     1.60703E-03     64.0153E-03      -84.67E+06    -234.186E+06    -78.6886E+06     52.7721E+03    -113.606E-03     227.074E-03    -113.468E-03     27.2256E-03    -113.615E-03     226.179E-03    -113.399E-03     26.5663E-03
            1431     803.490E-06     63.9923E-03    -86.7709E+06    -238.470E+06    -85.2815E+06    -5.35206E+03    -113.513E-03     226.952E-03    -113.439E-03     14.7134E-03    -113.490E-03     226.022E-03    -113.394E-03     14.3597E-03
            1432     15.2666E-03     65.8461E-03    -5.46506E+06     121.619E+06     93.4967E+06     288.629E+03    -119.971E-03     233.305E-03    -113.334E-03     260.393E-03    -135.140E-03     248.616E-03    -113.035E-03     253.901E-03
            1433     14.4691E-03     65.4584E-03    -10.7030E+06     115.475E+06     93.7200E+06    -198.632E+03    -125.860E-03     239.214E-03    -113.354E-03     329.694E-03    -146.528E-03     259.982E-03    -113.037E-03     318.095E-03
            1434     13.6650E-03     65.0912E-03    -16.3275E+06     99.5306E+06     88.8920E+06    -78.1642E+03    -125.610E-03     238.957E-03    -113.347E-03     313.554E-03    -142.345E-03     255.729E-03    -113.023E-03     300.151E-03
            1435     12.8612E-03     64.7508E-03     -22.629E+06     86.4864E+06     76.4118E+06     151.329E+03    -123.780E-03     237.112E-03    -113.332E-03     285.439E-03    -136.516E-03     249.853E-03    -113.042E-03     272.441E-03
            1436     12.0563E-03     64.4540E-03    -29.4101E+06     68.0305E+06     51.5617E+06     522.149E+03    -121.122E-03     234.405E-03    -113.284E-03     241.785E-03    -129.789E-03     243.060E-03    -113.082E-03     230.653E-03
            1437     11.2525E-03     64.2133E-03    -34.4138E+06     52.3678E+06     26.1246E+06     925.678E+03    -118.565E-03     231.791E-03    -113.226E-03     199.590E-03    -124.265E-03     237.479E-03    -113.122E-03     190.465E-03
            1438     10.4481E-03     64.0121E-03    -37.6569E+06     23.0513E+06     10.5957E+06     1.05855E+06    -117.261E-03     230.498E-03    -113.237E-03     171.224E-03    -121.202E-03     234.357E-03    -113.163E-03     163.615E-03
            1439     9.64436E-03     63.8353E-03    -41.2992E+06    -24.8746E+06     2.65204E+06     887.128E+03    -116.902E-03     230.211E-03    -113.309E-03     153.888E-03    -119.769E-03     232.836E-03    -113.200E-03     147.418E-03
            1440     8.83996E-03     63.6722E-03    -45.0408E+06    -69.6915E+06    -3.28008E+06     751.763E+03    -116.609E-03     229.990E-03    -113.381E-03     140.555E-03    -118.729E-03     231.712E-03    -113.231E-03     135.045E-03
            1441     8.03635E-03     63.5235E-03    -49.1357E+06    -102.333E+06    -9.27641E+06     362.243E+03    -116.215E-03     229.650E-03    -113.435E-03     127.762E-03    -117.785E-03     230.709E-03    -113.262E-03     123.078E-03
            1442     7.23230E-03     63.3886E-03    -53.3677E+06    -127.559E+06    -15.2068E+06     231.856E+03    -115.843E-03     229.321E-03    -113.478E-03     115.306E-03    -116.998E-03     229.878E-03    -113.291E-03     111.349E-03
            1443     6.42861E-03     63.2671E-03    -57.4633E+06    -150.284E+06    -21.2216E+06     312.733E+03    -115.467E-03     228.980E-03    -113.513E-03     103.083E-03    -116.302E-03     229.139E-03    -113.318E-03     99.7718E-03
            1444     5.62495E-03     63.1588E-03    -62.1362E+06    -169.542E+06    -29.0315E+06     178.352E+03    -115.082E-03     228.613E-03    -113.531E-03     90.8458E-03    -115.671E-03     228.464E-03    -113.341E-03     88.1037E-03
            1445     4.82121E-03     63.0643E-03    -67.1412E+06    -186.818E+06    -37.5179E+06     3.17304E+03    -114.714E-03     228.255E-03    -113.541E-03     78.4536E-03    -115.115E-03     227.863E-03    -113.360E-03     76.2170E-03
            1446     4.01770E-03     62.9832E-03    -72.0071E+06    -206.046E+06    -47.2195E+06     58.5360E+03    -114.367E-03     227.911E-03    -113.543E-03     65.8213E-03    -114.618E-03     227.311E-03    -113.376E-03     64.0391E-03
            1447     3.21402E-03     62.9170E-03    -76.8392E+06    -220.302E+06    -58.1889E+06     56.9806E+03    -114.059E-03     227.589E-03    -113.530E-03     53.0506E-03    -114.198E-03     226.842E-03    -113.390E-03     51.6780E-03
            1448     2.41052E-03     62.8644E-03    -81.1291E+06    -227.666E+06    -68.9210E+06    -93.3319E+03    -113.818E-03     227.321E-03    -113.504E-03     40.1822E-03    -113.880E-03     226.488E-03    -113.401E-03     39.1805E-03
            1449     1.60704E-03     62.8269E-03    -84.6236E+06    -234.214E+06    -78.6754E+06    -72.2303E+03    -113.633E-03     227.106E-03    -113.472E-03     27.2135E-03    -113.642E-03     226.211E-03    -113.403E-03     26.5528E-03
            1450     803.552E-06     62.8033E-03    -86.7623E+06    -238.571E+06    -85.4191E+06    -123.763E+03    -113.548E-03     226.951E-03    -113.403E-03     14.7764E-03    -113.524E-03     226.020E-03    -113.358E-03     14.4211E-03
            1451     15.2766E-03     64.6567E-03    -4.19754E+06     121.829E+06     94.6563E+06     561.445E+03    -120.957E-03     234.238E-03    -113.281E-03     258.730E-03    -136.065E-03     249.490E-03    -112.979E-03     252.143E-03
            1452     14.4701E-03     64.2690E-03    -9.65274E+06     115.276E+06     93.8920E+06     332.077E+03    -125.212E-03     238.492E-03    -113.280E-03     329.337E-03    -145.783E-03     259.165E-03    -112.964E-03     317.879E-03
            1453     13.6659E-03     63.9042E-03    -16.6093E+06     99.3079E+06     88.3195E+06     444.916E+03    -124.701E-03     238.022E-03    -113.321E-03     314.557E-03    -141.399E-03     254.757E-03    -112.999E-03     301.328E-03
            1454     12.8602E-03     63.5620E-03    -23.5588E+06     85.4677E+06     75.6087E+06     678.446E+03    -123.773E-03     237.116E-03    -113.343E-03     286.177E-03    -136.527E-03     249.870E-03    -113.055E-03     273.189E-03
            1455     12.0567E-03     63.2654E-03    -29.2036E+06     68.1716E+06     51.8140E+06     741.885E+03    -121.235E-03     234.534E-03    -113.299E-03     241.981E-03    -129.912E-03     243.199E-03    -113.096E-03     230.838E-03
            1456     11.2523E-03     63.0248E-03    -33.5219E+06     52.9198E+06     26.9350E+06     639.121E+03    -118.521E-03     231.764E-03    -113.243E-03     199.774E-03    -124.219E-03     237.453E-03    -113.136E-03     190.652E-03
            1457     10.4480E-03     62.8241E-03    -37.7741E+06     22.6963E+06     10.3426E+06     686.254E+03    -117.265E-03     230.521E-03    -113.256E-03     171.505E-03    -121.208E-03     234.380E-03    -113.182E-03     163.893E-03
            1458     9.64345E-03     62.6460E-03    -41.2055E+06    -24.9349E+06     2.53067E+06     773.748E+03    -116.942E-03     230.271E-03    -113.328E-03     153.865E-03    -119.810E-03     232.896E-03    -113.220E-03     147.387E-03
            1459     8.84027E-03     62.4837E-03    -44.8115E+06    -69.4262E+06    -2.73627E+06     789.902E+03    -116.645E-03     230.045E-03    -113.400E-03     140.409E-03    -118.767E-03     231.770E-03    -113.248E-03     134.889E-03
            1460     8.03597E-03     62.3350E-03    -48.7462E+06    -101.413E+06    -8.75137E+06     666.942E+03    -116.241E-03     229.691E-03    -113.451E-03     127.730E-03    -117.810E-03     230.753E-03    -113.277E-03     123.051E-03
            1461     7.23232E-03     62.1998E-03    -52.8111E+06    -127.346E+06    -15.0349E+06     210.377E+03    -115.887E-03     229.377E-03    -113.490E-03     115.247E-03    -117.040E-03     229.934E-03    -113.304E-03     111.288E-03
            1462     6.42861E-03     62.0783E-03    -57.3098E+06    -150.465E+06    -20.9073E+06     211.954E+03    -115.507E-03     229.030E-03    -113.523E-03     103.006E-03    -116.342E-03     229.188E-03    -113.326E-03     99.6893E-03
            1463     5.62480E-03     61.9701E-03    -61.9940E+06    -169.154E+06    -28.4475E+06     381.183E+03    -115.109E-03     228.647E-03    -113.538E-03     90.7904E-03    -115.699E-03     228.498E-03    -113.345E-03     88.0499E-03
            1464     4.82133E-03     61.8753E-03    -66.8803E+06    -186.757E+06    -37.2406E+06     82.4713E+03    -114.710E-03     228.255E-03    -113.544E-03     78.4017E-03    -115.111E-03     227.863E-03    -113.363E-03     76.1657E-03
            1465     4.01759E-03     61.7948E-03    -72.0326E+06    -206.226E+06    -47.3904E+06     1.21570E+03    -114.354E-03     227.902E-03    -113.548E-03     65.7934E-03    -114.604E-03     227.301E-03    -113.381E-03     64.0109E-03
            1466     3.21411E-03     61.7280E-03    -76.7343E+06    -220.257E+06    -58.0460E+06     63.8646E+03    -114.065E-03     227.603E-03    -113.538E-03     53.0350E-03    -114.203E-03     226.855E-03    -113.397E-03     51.6620E-03
            1467     2.41053E-03     61.6759E-03    -80.8920E+06    -227.496E+06    -68.7357E+06     13.0523E+03    -113.819E-03     227.331E-03    -113.512E-03     40.1728E-03    -113.881E-03     226.498E-03    -113.409E-03     39.1725E-03
            1468     1.60699E-03     61.6379E-03    -84.4946E+06    -234.321E+06    -78.8615E+06    -89.8291E+03    -113.614E-03     227.104E-03    -113.490E-03     27.1934E-03    -113.622E-03     226.209E-03    -113.422E-03     26.5330E-03
            1469     803.454E-06     61.6150E-03    -86.9802E+06    -238.761E+06    -85.4613E+06    -83.4773E+03    -113.525E-03     227.009E-03    -113.484E-03     14.9109E-03    -113.502E-03     226.078E-03    -113.439E-03     14.5562E-03
            1470     15.2728E-03     63.4661E-03    -4.42453E+06     120.342E+06     94.0874E+06    -177.263E+03    -120.631E-03     233.854E-03    -113.223E-03     259.531E-03    -135.721E-03     249.083E-03    -112.921E-03     253.027E-03
            1471     14.4704E-03     63.0815E-03    -9.78762E+06     114.448E+06     93.4896E+06     1.53060E+06    -124.282E-03     237.552E-03    -113.269E-03     330.871E-03    -144.852E-03     258.222E-03    -112.954E-03     319.618E-03
            1472     13.6642E-03     62.7169E-03    -15.7450E+06     100.003E+06     88.7676E+06     1.97961E+06    -124.747E-03     238.095E-03    -113.349E-03     315.404E-03    -141.459E-03     254.850E-03    -113.027E-03     302.208E-03
            1473     12.8604E-03     62.3728E-03    -22.4367E+06     86.1997E+06     76.4823E+06     1.38585E+06    -123.953E-03     237.328E-03    -113.376E-03     286.846E-03    -136.727E-03     250.107E-03    -113.086E-03     273.846E-03
            1474     12.0559E-03     62.0767E-03    -28.3301E+06     69.0625E+06     52.6778E+06     733.856E+03    -121.231E-03     234.562E-03    -113.331E-03     241.946E-03    -129.915E-03     243.237E-03    -113.127E-03     230.798E-03
            1475     11.2517E-03     61.8363E-03    -33.6635E+06     52.5284E+06     26.6548E+06     878.549E+03    -118.658E-03     231.927E-03    -113.269E-03     199.723E-03    -124.365E-03     237.624E-03    -113.163E-03     190.582E-03
            1476     10.4476E-03     61.6355E-03    -37.5398E+06     23.2362E+06     10.4913E+06     786.913E+03    -117.433E-03     230.704E-03    -113.271E-03     171.431E-03    -121.380E-03     234.570E-03    -113.198E-03     163.802E-03
            1477     9.64420E-03     61.4574E-03    -41.1681E+06    -24.9666E+06     2.40459E+06     425.775E+03    -116.931E-03     230.269E-03    -113.338E-03     153.828E-03    -119.798E-03     232.894E-03    -113.230E-03     147.345E-03
            1478     8.83958E-03     61.2949E-03    -44.8355E+06    -69.8559E+06    -2.79671E+06     508.947E+03    -116.653E-03     230.064E-03    -113.411E-03     140.307E-03    -118.774E-03     231.786E-03    -113.259E-03     134.782E-03
            1479     8.03618E-03     61.1463E-03    -48.6455E+06    -100.837E+06    -8.10236E+06     772.011E+03    -116.314E-03     229.774E-03    -113.460E-03     127.637E-03    -117.885E-03     230.838E-03    -113.284E-03     122.954E-03
            1480     7.23228E-03     61.0111E-03    -52.9904E+06    -126.853E+06    -14.8649E+06     466.578E+03    -115.905E-03     229.398E-03    -113.493E-03     115.235E-03    -117.059E-03     229.957E-03    -113.306E-03     111.279E-03
            1481     6.42850E-03     60.8896E-03    -57.4126E+06    -150.657E+06     -21.015E+06     121.157E+03    -115.534E-03     229.056E-03    -113.522E-03     102.978E-03    -116.368E-03     229.213E-03    -113.326E-03     99.6587E-03
            1482     5.62504E-03     60.7813E-03    -61.9237E+06    -169.098E+06    -28.1901E+06     240.911E+03    -115.117E-03     228.653E-03    -113.536E-03     90.7344E-03    -115.707E-03     228.505E-03    -113.342E-03     87.9908E-03
            1483     4.82118E-03     60.6868E-03    -66.8362E+06    -186.428E+06    -37.0123E+06     293.954E+03    -114.693E-03     228.235E-03    -113.542E-03     78.3384E-03    -115.093E-03     227.843E-03    -113.360E-03     76.1067E-03
            1484     4.01768E-03     60.6059E-03    -71.7240E+06    -206.110E+06    -47.2207E+06     107.054E+03    -114.349E-03     227.895E-03    -113.546E-03     65.7441E-03    -114.598E-03     227.294E-03    -113.379E-03     63.9632E-03
            1485     3.21399E-03     60.5395E-03    -76.5183E+06    -220.213E+06    -57.9867E+06    -59.7322E+03    -114.059E-03     227.595E-03    -113.536E-03     53.0153E-03    -114.196E-03     226.847E-03    -113.396E-03     51.6407E-03
            1486     2.41050E-03     60.4869E-03    -80.9998E+06    -227.566E+06    -68.6120E+06    -2.90604E+03    -113.803E-03     227.318E-03    -113.515E-03     40.1285E-03    -113.866E-03     226.484E-03    -113.411E-03     39.1279E-03
            1487     1.60697E-03     60.4494E-03    -84.5574E+06    -234.277E+06    -78.6560E+06     78.1728E+03    -113.619E-03     227.115E-03    -113.495E-03     27.1180E-03    -113.628E-03     226.219E-03    -113.426E-03     26.4588E-03
            1488     803.411E-06     60.4260E-03    -86.7259E+06    -238.724E+06    -85.5282E+06     138.935E+03    -113.562E-03     227.015E-03    -113.453E-03     14.8182E-03    -113.538E-03     226.084E-03    -113.408E-03     14.4683E-03
            1489     15.2765E-03     62.2818E-03    -5.09529E+06     119.823E+06     92.7362E+06    -574.687E+03    -119.939E-03     233.223E-03    -113.284E-03     260.963E-03    -135.100E-03     248.523E-03    -112.987E-03     254.486E-03
            1490     14.4680E-03     61.8927E-03    -11.0519E+06     113.550E+06     92.5277E+06     722.661E+03    -125.067E-03     238.406E-03    -113.338E-03     331.118E-03    -145.693E-03     259.127E-03    -113.024E-03     319.745E-03
            1491     13.6647E-03     61.5291E-03    -16.9388E+06     99.6542E+06     88.3389E+06     1.49668E+06    -125.174E-03     238.560E-03    -113.386E-03     315.057E-03    -141.920E-03     255.343E-03    -113.064E-03     301.787E-03
            1492     12.8595E-03     61.1839E-03    -22.4660E+06     87.2923E+06     76.9019E+06     1.28367E+06    -123.958E-03     237.357E-03    -113.399E-03     286.761E-03    -136.741E-03     250.147E-03    -113.108E-03     273.742E-03
            1493     12.0556E-03     60.8880E-03    -28.3920E+06     69.1043E+06     52.5425E+06     957.203E+03    -121.188E-03     234.542E-03    -113.353E-03     241.582E-03    -129.865E-03     243.210E-03    -113.150E-03     230.431E-03
            1494     11.2517E-03     60.6476E-03    -33.0961E+06     52.6511E+06     27.1987E+06     914.361E+03    -118.770E-03     232.060E-03    -113.290E-03     199.539E-03    -124.483E-03     237.764E-03    -113.182E-03     190.377E-03
            1495     10.4479E-03     60.4464E-03    -36.8906E+06     23.4533E+06     11.3505E+06     846.672E+03    -117.516E-03     230.802E-03    -113.286E-03     171.430E-03    -121.463E-03     234.668E-03    -113.210E-03     163.793E-03
            1496     9.64335E-03     60.2689E-03    -40.6353E+06    -24.3198E+06     2.86756E+06     687.103E+03    -116.997E-03     230.342E-03    -113.345E-03     153.775E-03    -119.862E-03     232.968E-03    -113.237E-03     147.293E-03
            1497     8.84006E-03     60.1061E-03    -44.5958E+06    -69.8062E+06    -2.71395E+06     586.945E+03    -116.685E-03     230.099E-03    -113.414E-03     140.269E-03    -118.803E-03     231.819E-03    -113.262E-03     134.748E-03
            1498     8.03599E-03     59.9574E-03    -48.6347E+06    -101.007E+06    -7.80028E+06     723.556E+03    -116.329E-03     229.791E-03    -113.462E-03     127.569E-03    -117.901E-03     230.855E-03    -113.284E-03     122.882E-03
            1499     7.23229E-03     59.8226E-03    -52.6837E+06    -126.125E+06    -14.2829E+06     641.306E+03    -115.955E-03     229.446E-03    -113.491E-03     115.211E-03    -117.110E-03     230.007E-03    -113.303E-03     111.256E-03
            1500     6.42870E-03     59.7006E-03    -57.0987E+06    -150.420E+06    -20.9191E+06     155.764E+03    -115.549E-03     229.063E-03    -113.514E-03     102.906E-03    -116.382E-03     229.220E-03    -113.317E-03     99.5876E-03
            1501     5.62484E-03     59.5927E-03    -61.7666E+06    -169.369E+06    -28.2487E+06     53.6885E+03    -115.114E-03     228.639E-03    -113.525E-03     90.6177E-03    -115.702E-03     228.489E-03    -113.331E-03     87.8716E-03
            1502     4.82141E-03     59.4979E-03    -66.5962E+06    -186.194E+06    -36.6625E+06     285.595E+03    -114.692E-03     228.221E-03    -113.529E-03     78.2303E-03    -115.091E-03     227.830E-03    -113.346E-03     75.9989E-03
            1503     4.01764E-03     59.4174E-03    -71.6380E+06    -205.818E+06    -46.8407E+06     212.098E+03    -114.342E-03     227.873E-03    -113.531E-03     65.6746E-03    -114.591E-03     227.273E-03    -113.363E-03     63.8953E-03
            1504     3.21416E-03     59.3505E-03    -76.5030E+06    -220.121E+06    -57.8106E+06     119.425E+03    -114.052E-03     227.570E-03    -113.518E-03     52.9225E-03    -114.189E-03     226.822E-03    -113.377E-03     51.5506E-03
            1505     2.41054E-03     59.2985E-03    -81.0450E+06    -227.652E+06    -68.7126E+06     67.8901E+03    -113.798E-03     227.288E-03    -113.490E-03     40.0055E-03    -113.861E-03     226.454E-03    -113.386E-03     39.0059E-03
            1506     1.60700E-03     59.2605E-03    -84.6282E+06    -234.288E+06    -78.5410E+06     84.9451E+03    -113.629E-03     227.083E-03    -113.454E-03     27.0317E-03    -113.638E-03     226.188E-03    -113.384E-03     26.3729E-03
            1507     803.629E-06     59.2375E-03    -86.6000E+06    -238.515E+06    -85.1738E+06     127.249E+03    -113.606E-03     226.904E-03    -113.299E-03     14.7656E-03    -113.582E-03     225.973E-03    -113.253E-03     14.4161E-03
            1508     15.2664E-03     61.0854E-03    -4.95576E+06     119.120E+06     92.1997E+06     373.150E+03    -119.678E-03     233.023E-03    -113.345E-03     259.861E-03    -134.758E-03     248.240E-03    -113.049E-03     253.429E-03
            1509     14.4683E-03     60.7039E-03    -11.2387E+06     112.688E+06     91.7066E+06     589.363E+03    -125.355E-03     238.740E-03    -113.386E-03     329.110E-03    -145.884E-03     259.363E-03    -113.074E-03     317.687E-03
            1510     13.6638E-03     60.3395E-03    -16.9775E+06     99.6613E+06     88.2070E+06     231.180E+03    -125.463E-03     238.871E-03    -113.408E-03     314.604E-03    -142.247E-03     255.693E-03    -113.087E-03     301.241E-03
            1511     12.8603E-03     59.9964E-03    -22.4689E+06     86.6430E+06     76.5096E+06     743.941E+03    -124.033E-03     237.439E-03    -113.405E-03     286.523E-03    -136.818E-03     250.229E-03    -113.116E-03     273.484E-03
            1512     12.0556E-03     59.6988E-03    -27.5577E+06     69.0250E+06     52.9211E+06     1.24575E+06    -121.162E-03     234.523E-03    -113.361E-03     241.800E-03    -129.823E-03     243.177E-03    -113.156E-03     230.670E-03
            1513     11.2515E-03     59.4589E-03    -32.3935E+06     53.0293E+06     27.8098E+06     1.07453E+06    -118.823E-03     232.122E-03    -113.299E-03     199.515E-03    -124.534E-03     237.826E-03    -113.190E-03     190.347E-03
            1514     10.4472E-03     59.2575E-03    -36.9197E+06     23.4648E+06     11.3147E+06      924.72E+03    -117.545E-03     230.835E-03    -113.290E-03     171.105E-03    -121.489E-03     234.699E-03    -113.214E-03     163.465E-03
            1515     9.64403E-03     59.0800E-03    -40.8861E+06    -23.8177E+06     3.14602E+06     940.476E+03    -117.003E-03     230.351E-03    -113.348E-03     153.600E-03    -119.867E-03     232.976E-03    -113.238E-03     147.125E-03
            1516     8.83975E-03     58.9173E-03    -44.6038E+06    -69.4364E+06    -2.53270E+06     704.692E+03    -116.715E-03     230.128E-03    -113.413E-03     140.264E-03    -118.835E-03     231.851E-03    -113.261E-03     134.741E-03
            1517     8.03609E-03     58.7689E-03    -48.2983E+06    -101.150E+06    -7.85410E+06     419.701E+03    -116.390E-03     229.845E-03    -113.455E-03     127.541E-03    -117.960E-03     230.908E-03    -113.278E-03     122.846E-03
            1518     7.23241E-03     58.6334E-03    -52.2674E+06    -125.684E+06    -13.7779E+06     574.517E+03    -116.000E-03     229.478E-03    -113.479E-03     115.070E-03    -117.153E-03     230.040E-03    -113.289E-03     111.112E-03
            1519     6.42867E-03     58.5121E-03    -56.8330E+06    -149.728E+06    -20.4657E+06     467.427E+03    -115.556E-03     229.052E-03    -113.496E-03     102.786E-03    -116.389E-03     229.210E-03    -113.298E-03     99.4723E-03
            1520     5.62523E-03     58.4037E-03    -61.7516E+06    -169.350E+06    -28.2724E+06     196.130E+03    -115.110E-03     228.611E-03    -113.502E-03     90.4860E-03    -115.697E-03     228.460E-03    -113.308E-03     87.7426E-03
            1521     4.82138E-03     58.3095E-03    -66.6121E+06    -186.428E+06    -36.5845E+06     180.950E+03    -114.684E-03     228.188E-03    -113.504E-03     78.1274E-03    -115.084E-03     227.795E-03    -113.320E-03     75.8945E-03
            1522     4.01787E-03     58.2285E-03    -71.5483E+06    -205.569E+06    -46.5802E+06     241.847E+03    -114.336E-03     227.837E-03    -113.500E-03     65.6102E-03    -114.585E-03     227.237E-03    -113.331E-03     63.8319E-03
            1523     3.21419E-03     58.1621E-03    -76.4800E+06    -220.011E+06    -57.6081E+06     182.273E+03    -114.033E-03     227.514E-03    -113.482E-03     52.8741E-03    -114.170E-03     226.767E-03    -113.340E-03     51.5039E-03
            1524     2.41071E-03     58.1096E-03    -80.8340E+06    -227.434E+06    -68.4036E+06     135.429E+03    -113.776E-03     227.224E-03    -113.448E-03     40.0130E-03    -113.838E-03     226.391E-03    -113.343E-03     39.0145E-03
            1525     1.60721E-03     58.0721E-03    -84.5055E+06    -234.304E+06    -78.6101E+06     43.5982E+03    -113.594E-03     226.998E-03    -113.404E-03     27.0678E-03    -113.602E-03     226.103E-03    -113.335E-03     26.4091E-03
            1526     803.531E-06     58.0487E-03    -86.4424E+06    -238.423E+06    -85.1116E+06    -75.6471E+03    -113.533E-03     226.800E-03    -113.266E-03     14.6950E-03    -113.509E-03     225.869E-03    -113.221E-03     14.3411E-03
            1527     15.2778E-03     59.9025E-03    -4.96852E+06     117.979E+06     92.4604E+06     583.502E+03    -120.106E-03     233.432E-03    -113.325E-03     259.555E-03    -135.122E-03     248.580E-03    -113.027E-03     253.140E-03
            1528     14.4675E-03     59.5143E-03    -9.64366E+06     112.848E+06     92.9213E+06     1.17952E+06    -124.682E-03     238.056E-03    -113.374E-03     328.923E-03    -145.122E-03     258.593E-03    -113.059E-03     317.603E-03
            1529     13.6639E-03     59.1505E-03    -15.4835E+06     101.142E+06     89.0185E+06     972.133E+03    -125.301E-03     238.718E-03    -113.417E-03     314.379E-03    -142.050E-03     255.513E-03    -113.096E-03     301.048E-03
            1530     12.8596E-03     58.8068E-03    -22.5463E+06     86.6281E+06     76.7311E+06     563.879E+03    -124.145E-03     237.561E-03    -113.416E-03     286.279E-03    -136.935E-03     250.356E-03    -113.125E-03     273.230E-03
            1531     12.0555E-03     58.5115E-03    -28.6470E+06     68.2193E+06     52.3431E+06     635.366E+03    -121.303E-03     234.663E-03    -113.360E-03     241.814E-03    -129.977E-03     243.326E-03    -113.156E-03     230.660E-03
            1532     11.2513E-03     58.2688E-03    -33.2438E+06     52.5075E+06     26.9834E+06     902.886E+03    -118.815E-03     232.106E-03    -113.291E-03     199.401E-03    -124.521E-03     237.803E-03    -113.184E-03     190.234E-03
            1533     10.4482E-03     58.0694E-03    -37.2395E+06     24.3116E+06     11.3858E+06     1.05338E+06    -117.493E-03     230.778E-03    -113.285E-03     170.958E-03    -121.440E-03     234.646E-03    -113.210E-03     163.323E-03
            1534     9.64344E-03     57.8908E-03    -40.8436E+06    -23.4809E+06     3.20323E+06     770.290E+03    -117.006E-03     230.349E-03    -113.344E-03     153.680E-03    -119.869E-03     232.975E-03    -113.234E-03     147.206E-03
            1535     8.83995E-03     57.7290E-03    -44.2052E+06    -69.2980E+06    -2.34880E+06     551.654E+03    -116.800E-03     230.205E-03    -113.405E-03     140.165E-03    -118.920E-03     231.929E-03    -113.253E-03     134.632E-03
            1536     8.03621E-03     57.5794E-03    -48.1171E+06    -101.012E+06    -7.88527E+06     435.334E+03    -116.460E-03     229.897E-03    -113.437E-03     127.397E-03    -118.029E-03     230.960E-03    -113.260E-03     122.698E-03
            1537     7.23261E-03     57.4451E-03    -52.3430E+06    -126.034E+06    -13.8530E+06     456.491E+03    -116.009E-03     229.463E-03    -113.454E-03     114.936E-03    -117.162E-03     230.023E-03    -113.265E-03     110.975E-03
            1538     6.42900E-03     57.3229E-03    -56.6822E+06    -149.148E+06    -20.0008E+06     685.939E+03    -115.540E-03     229.008E-03    -113.468E-03     102.664E-03    -116.373E-03     229.168E-03    -113.270E-03     99.3554E-03
            1539     5.62519E-03     57.2153E-03    -61.4242E+06    -168.870E+06    -27.8577E+06     451.144E+03    -115.085E-03     228.557E-03    -113.472E-03     90.4217E-03    -115.672E-03     228.407E-03    -113.277E-03     87.6836E-03
            1540     4.82171E-03     57.1205E-03    -66.4368E+06    -186.462E+06    -36.5236E+06     123.388E+03    -114.683E-03     228.153E-03    -113.470E-03     78.0959E-03    -115.081E-03     227.759E-03    -113.286E-03     75.8623E-03
            1541     4.01797E-03     57.0401E-03    -71.4275E+06    -205.531E+06    -46.4271E+06     202.861E+03    -114.318E-03     227.780E-03    -113.462E-03     65.5791E-03    -114.566E-03     227.180E-03    -113.293E-03     63.8009E-03
            1542     3.21443E-03     56.9733E-03    -76.2215E+06    -219.708E+06    -57.2670E+06     272.258E+03    -113.985E-03     227.428E-03    -113.443E-03     52.8612E-03    -114.122E-03     226.681E-03    -113.300E-03     51.4934E-03
            1543     2.41074E-03     56.9213E-03    -80.7862E+06    -227.387E+06    -68.3169E+06     125.218E+03    -113.705E-03     227.122E-03    -113.417E-03     40.0335E-03    -113.767E-03     226.288E-03    -113.311E-03     39.0366E-03
            1544     1.60709E-03     56.8833E-03    -84.2707E+06    -234.081E+06    -78.3801E+06     65.5869E+03    -113.527E-03     226.921E-03    -113.394E-03     27.1339E-03    -113.535E-03     226.026E-03    -113.324E-03     26.4764E-03
            1545     803.684E-06     56.8605E-03    -86.3758E+06    -238.445E+06    -85.1627E+06    -163.617E+03    -113.441E-03     226.806E-03    -113.365E-03     14.6971E-03    -113.416E-03     225.876E-03    -113.320E-03     14.3404E-03
            1546     15.2688E-03     58.7110E-03    -5.24007E+06     117.180E+06     92.2227E+06     115.399E+03    -120.295E-03     233.619E-03    -113.324E-03     259.831E-03    -135.381E-03     248.835E-03    -113.025E-03     253.373E-03
            1547     14.4692E-03     58.3272E-03    -10.3951E+06     111.824E+06     92.5728E+06     605.347E+03    -124.941E-03     238.307E-03    -113.366E-03     329.856E-03    -145.442E-03     258.899E-03    -113.050E-03     318.488E-03
            1548     13.6638E-03     57.9616E-03    -16.9734E+06     101.513E+06     88.8043E+06     1.28838E+06    -125.096E-03     238.507E-03    -113.411E-03     314.412E-03    -141.820E-03     255.273E-03    -113.090E-03     301.130E-03
            1549     12.8595E-03     57.6183E-03    -23.1501E+06     87.2358E+06     76.5818E+06     626.864E+03    -124.093E-03     237.510E-03    -113.416E-03     286.109E-03    -136.889E-03     250.311E-03    -113.126E-03     273.051E-03
            1550     12.0559E-03     57.3217E-03    -28.6002E+06     68.0593E+06     52.2608E+06     124.910E+03    -121.451E-03     234.806E-03    -113.355E-03     241.700E-03    -130.140E-03     243.484E-03    -113.151E-03     230.508E-03
            1551     11.2521E-03     57.0811E-03    -33.2263E+06     52.3301E+06      27.326E+06     561.793E+03    -118.789E-03     232.072E-03    -113.283E-03     199.546E-03    -124.489E-03     237.761E-03    -113.175E-03     190.391E-03
            1552     10.4471E-03     56.8796E-03    -36.7916E+06     24.2428E+06     11.9444E+06     695.776E+03    -117.479E-03     230.759E-03    -113.280E-03     170.906E-03    -121.418E-03     234.619E-03    -113.202E-03     163.274E-03
            1553     9.64401E-03     56.7029E-03    -39.9667E+06    -22.9604E+06     3.77701E+06     728.373E+03    -117.116E-03     230.447E-03    -113.331E-03     153.440E-03    -119.978E-03     233.075E-03    -113.221E-03     146.952E-03
            1554     8.84004E-03     56.5391E-03    -43.8933E+06    -69.2488E+06    -2.21335E+06     662.574E+03    -116.842E-03     230.225E-03    -113.382E-03     140.032E-03    -118.959E-03     231.946E-03    -113.229E-03     134.500E-03
            1555     8.03655E-03     56.3914E-03    -47.9385E+06    -100.827E+06    -7.62519E+06     649.751E+03    -116.459E-03     229.868E-03    -113.410E-03     127.260E-03    -118.028E-03     230.931E-03    -113.232E-03     122.563E-03
            1556     7.23279E-03     56.2555E-03    -52.1988E+06    -126.005E+06    -13.8548E+06     565.030E+03    -115.989E-03     229.411E-03    -113.423E-03     114.839E-03    -117.141E-03     229.971E-03    -113.233E-03     110.881E-03
            1557     6.42917E-03     56.1348E-03    -56.7355E+06    -149.258E+06    -20.0469E+06     562.095E+03    -115.502E-03     228.938E-03    -113.436E-03     102.589E-03    -116.334E-03     229.097E-03    -113.238E-03     99.2806E-03
            1558     5.62552E-03     56.0263E-03    -61.2795E+06    -168.335E+06    -27.6056E+06     511.938E+03    -115.050E-03     228.491E-03    -113.441E-03     90.3952E-03    -115.637E-03     228.343E-03    -113.246E-03     87.6596E-03
            1559     4.82173E-03     55.9323E-03    -66.1885E+06    -185.998E+06    -36.3611E+06     315.285E+03    -114.650E-03     228.088E-03    -113.438E-03     78.0990E-03    -115.047E-03     227.696E-03    -113.254E-03     75.8690E-03
            1560     4.01818E-03     55.8513E-03    -71.3007E+06    -205.410E+06    -46.4523E+06     219.317E+03    -114.284E-03     227.715E-03    -113.431E-03     65.5955E-03    -114.531E-03     227.115E-03    -113.262E-03     63.8189E-03
            1561     3.21446E-03     55.7851E-03    -76.2462E+06    -219.741E+06    -57.3182E+06     188.600E+03    -113.946E-03     227.360E-03    -113.414E-03     52.8944E-03    -114.083E-03     226.612E-03    -113.271E-03     51.5268E-03
            1562     2.41085E-03     55.7326E-03    -80.6152E+06    -227.183E+06     -68.177E+06     192.185E+03    -113.669E-03     227.060E-03    -113.391E-03     40.0218E-03    -113.731E-03     226.227E-03    -113.285E-03     39.0265E-03
            1563     1.60719E-03     55.6952E-03    -84.1445E+06    -233.955E+06    -78.2615E+06     130.717E+03    -113.480E-03     226.857E-03    -113.377E-03     27.0792E-03    -113.488E-03     225.963E-03    -113.307E-03     26.4231E-03
            1564     803.370E-06     55.6716E-03    -86.3056E+06    -238.281E+06     -84.874E+06    -37.6658E+03    -113.399E-03     226.788E-03    -113.389E-03     14.5775E-03    -113.374E-03     225.858E-03    -113.343E-03     14.2221E-03
            1565     15.2750E-03     57.5237E-03    -5.20291E+06     116.394E+06     91.8133E+06     365.318E+03    -119.976E-03     233.301E-03    -113.324E-03     258.911E-03    -135.010E-03     248.462E-03    -113.026E-03     252.471E-03
            1566     14.4677E-03     57.1372E-03    -10.5829E+06     110.999E+06     91.9386E+06     743.329E+03    -124.921E-03     238.285E-03    -113.364E-03     328.678E-03    -145.365E-03     258.819E-03    -113.050E-03     317.332E-03
            1567     13.6644E-03     56.7741E-03    -15.6399E+06     101.399E+06     89.2712E+06     1.01415E+06    -125.170E-03     238.578E-03    -113.408E-03     315.011E-03    -141.910E-03     255.364E-03    -113.086E-03     301.715E-03
            1568     12.8600E-03     56.4293E-03    -21.2384E+06     87.6109E+06     77.3856E+06     1.12794E+06    -124.229E-03     237.641E-03    -113.412E-03     286.554E-03    -137.025E-03     250.448E-03    -113.121E-03     273.482E-03
            1569     12.0556E-03     56.1329E-03    -27.4373E+06     68.7820E+06     53.1513E+06     972.048E+03    -121.447E-03     234.797E-03    -113.350E-03     241.579E-03    -130.125E-03     243.468E-03    -113.144E-03     230.399E-03
            1570     11.2514E-03     55.8919E-03    -32.6441E+06     52.5680E+06     27.7073E+06     403.971E+03    -118.881E-03     232.154E-03    -113.272E-03     199.192E-03    -124.579E-03     237.842E-03    -113.163E-03     190.026E-03
            1571     10.4483E-03     55.6916E-03    -36.4697E+06     24.0533E+06     11.8833E+06     337.439E+03    -117.598E-03     230.854E-03    -113.256E-03     170.741E-03    -121.534E-03     234.712E-03    -113.178E-03     163.097E-03
            1572     9.64404E-03     55.5130E-03    -40.2780E+06    -23.3448E+06     3.65174E+06     729.779E+03    -117.152E-03     230.450E-03    -113.298E-03     153.238E-03    -120.016E-03     233.078E-03    -113.188E-03     146.743E-03
            1573     8.84055E-03     55.3513E-03    -44.0710E+06    -68.9081E+06    -2.30517E+06     849.385E+03    -116.800E-03     230.145E-03    -113.345E-03     139.863E-03    -118.917E-03     231.867E-03    -113.192E-03     134.335E-03
            1574     8.03665E-03     55.2016E-03    -48.0544E+06    -100.557E+06    -7.73636E+06     683.705E+03    -116.370E-03     229.744E-03    -113.374E-03     127.171E-03    -117.937E-03     230.806E-03    -113.197E-03     122.483E-03
            1575     7.23317E-03     55.0677E-03    -52.2599E+06    -125.689E+06    -13.9023E+06     596.273E+03    -115.925E-03     229.316E-03    -113.391E-03     114.775E-03    -117.077E-03     229.876E-03    -113.202E-03     110.821E-03
            1576     6.42931E-03     54.9456E-03    -56.5712E+06    -149.183E+06    -20.0930E+06     473.893E+03    -115.461E-03     228.868E-03    -113.407E-03     102.573E-03    -116.292E-03     229.026E-03    -113.209E-03     99.2660E-03
            1577     5.62563E-03     54.8383E-03    -61.2990E+06    -168.178E+06    -27.7221E+06     467.249E+03    -115.019E-03     228.431E-03    -113.412E-03     90.4129E-03    -115.606E-03     228.283E-03    -113.218E-03     87.6779E-03
            1578     4.82195E-03     54.7434E-03    -66.2401E+06    -185.710E+06    -36.4104E+06     436.381E+03    -114.604E-03     228.016E-03    -113.412E-03     78.1077E-03    -115.002E-03     227.625E-03    -113.229E-03     75.8823E-03
            1579     4.01817E-03     54.6632E-03    -71.1716E+06    -205.247E+06    -46.3520E+06     302.631E+03    -114.248E-03     227.657E-03    -113.408E-03     65.5572E-03    -114.495E-03     227.057E-03    -113.239E-03     63.7833E-03
            1580     3.21454E-03     54.5964E-03    -76.0724E+06    -219.613E+06    -57.2856E+06     211.525E+03    -113.934E-03     227.325E-03    -113.390E-03     52.8394E-03    -114.071E-03     226.578E-03    -113.248E-03     51.4730E-03
            1581     2.41085E-03     54.5445E-03    -80.4947E+06    -227.086E+06    -68.1134E+06     163.058E+03    -113.664E-03     227.026E-03    -113.362E-03     39.9915E-03    -113.725E-03     226.193E-03    -113.256E-03     38.9964E-03
            1582     1.60724E-03     54.5065E-03    -83.8777E+06    -233.647E+06    -77.9702E+06     127.530E+03    -113.479E-03     226.813E-03    -113.334E-03     27.0837E-03    -113.486E-03     225.919E-03    -113.264E-03     26.4279E-03
            1583     803.800E-06     54.4836E-03    -86.0562E+06    -238.142E+06    -84.8959E+06     85.1992E+03    -113.407E-03     226.681E-03    -113.274E-03     14.6485E-03    -113.381E-03     225.751E-03    -113.228E-03     14.2954E-03
            1584     15.2704E-03     56.3300E-03    -4.47550E+06     116.263E+06     92.3628E+06     649.546E+03    -120.004E-03     233.327E-03    -113.322E-03     259.878E-03    -135.040E-03     248.491E-03    -113.023E-03     253.480E-03
            1585     14.4696E-03     55.9519E-03    -9.61766E+06     111.080E+06     92.5348E+06     749.374E+03    -124.776E-03     238.148E-03    -113.372E-03     329.237E-03    -145.226E-03     258.689E-03    -113.056E-03     317.922E-03
            1586     13.6632E-03     55.5842E-03    -15.8472E+06     100.764E+06     88.7869E+06     685.896E+03    -125.514E-03     238.924E-03    -113.410E-03     315.151E-03    -142.283E-03     255.737E-03    -113.089E-03     301.786E-03
            1587     12.8596E-03     55.2404E-03    -22.2310E+06     87.1902E+06     76.9757E+06     691.320E+03    -124.348E-03     237.747E-03    -113.399E-03     286.168E-03    -137.138E-03     250.545E-03    -113.108E-03     273.072E-03
            1588     12.0561E-03     54.9438E-03    -27.6633E+06     69.3094E+06     53.3163E+06     611.878E+03    -121.484E-03     234.812E-03    -113.328E-03     241.148E-03    -130.153E-03     243.474E-03    -113.121E-03     229.961E-03
            1589     11.2525E-03     54.7032E-03    -31.9498E+06     53.3225E+06     27.9286E+06     654.707E+03    -118.898E-03     232.140E-03    -113.242E-03     198.874E-03    -124.594E-03     237.830E-03    -113.133E-03     189.703E-03
            1590     10.4481E-03     54.5022E-03    -36.2548E+06     23.7408E+06     11.5320E+06     755.199E+03    -117.607E-03     230.827E-03    -113.220E-03     170.768E-03    -121.543E-03     234.685E-03    -113.144E-03     163.128E-03
            1591     9.64470E-03     54.3248E-03    -40.2421E+06    -23.7576E+06     3.41222E+06     869.591E+03    -117.147E-03     230.408E-03    -113.261E-03     153.323E-03    -120.009E-03     233.033E-03    -113.151E-03     146.834E-03
            1592     8.84087E-03     54.1618E-03    -44.1174E+06    -68.2255E+06    -2.18060E+06     996.897E+03    -116.768E-03     230.074E-03    -113.306E-03     139.784E-03    -118.886E-03     231.799E-03    -113.154E-03     134.261E-03
            1593     8.03721E-03     54.0139E-03    -48.1960E+06    -100.141E+06    -7.94398E+06     747.920E+03    -116.269E-03     229.606E-03    -113.337E-03     127.178E-03    -117.834E-03     230.667E-03    -113.162E-03     122.501E-03
            1594     7.23312E-03     53.8783E-03    -52.2372E+06    -125.637E+06    -14.0483E+06     490.357E+03    -115.832E-03     229.193E-03    -113.362E-03     114.789E-03    -116.981E-03     229.752E-03    -113.174E-03     110.842E-03
            1595     6.42958E-03     53.7577E-03    -56.6674E+06    -149.066E+06    -20.2895E+06     478.938E+03    -115.424E-03     228.806E-03    -113.382E-03     102.565E-03    -116.254E-03     228.965E-03    -113.185E-03     99.2608E-03
            1596     5.62570E-03     53.6493E-03    -61.3931E+06    -168.248E+06    -27.8631E+06     448.327E+03    -115.005E-03     228.393E-03    -113.388E-03     90.3915E-03    -115.591E-03     228.245E-03    -113.195E-03     87.6588E-03
            1597     4.82202E-03     53.5554E-03    -66.1982E+06    -185.373E+06    -36.4539E+06     458.666E+03    -114.599E-03     227.984E-03    -113.385E-03     78.0230E-03    -114.996E-03     227.594E-03    -113.202E-03     75.7993E-03
            1598     4.01831E-03     53.4744E-03    -71.1556E+06    -205.059E+06    -46.5720E+06     281.024E+03    -114.235E-03     227.611E-03    -113.377E-03     65.4681E-03    -114.481E-03     227.012E-03    -113.209E-03     63.6959E-03
            1599     3.21465E-03     53.4083E-03    -75.8623E+06    -219.427E+06    -57.1209E+06     222.743E+03    -113.919E-03     227.275E-03    -113.356E-03     52.7402E-03    -114.055E-03     226.528E-03    -113.213E-03     51.3749E-03
            1600     2.41099E-03     53.3559E-03    -80.2210E+06    -226.817E+06    -67.8491E+06     185.133E+03    -113.642E-03     226.963E-03    -113.321E-03     39.9134E-03    -113.703E-03     226.131E-03    -113.215E-03     38.9199E-03
            1601     1.60731E-03     53.3184E-03    -83.8697E+06    -233.598E+06    -77.8717E+06     54.6685E+03    -113.439E-03     226.727E-03    -113.289E-03     27.0449E-03    -113.446E-03     225.833E-03    -113.218E-03     26.3891E-03
            1602     803.505E-06     53.2950E-03    -85.9533E+06    -237.838E+06    -84.4820E+06     29.0516E+03    -113.349E-03     226.586E-03    -113.238E-03     14.7044E-03    -113.323E-03     225.657E-03    -113.191E-03     14.3519E-03
            1603     15.2751E-03     55.1478E-03    -5.09473E+06     115.594E+06     91.9111E+06     237.258E+03    -119.908E-03     233.264E-03    -113.357E-03     260.009E-03    -134.969E-03     248.452E-03    -113.058E-03     253.613E-03
            1604     14.4658E-03     54.7595E-03    -10.4432E+06     110.926E+06     92.3189E+06     592.591E+03    -125.417E-03     238.812E-03    -113.395E-03     329.548E-03    -145.936E-03     259.421E-03    -113.079E-03     318.110E-03
            1605     13.6650E-03     54.3964E-03    -16.1191E+06     100.965E+06     89.2147E+06     408.917E+03    -125.960E-03     239.360E-03    -113.400E-03     314.365E-03    -142.741E-03     256.183E-03    -113.077E-03     300.914E-03
            1606     12.8606E-03     54.0513E-03    -21.6217E+06     87.7401E+06     77.4922E+06     281.602E+03    -124.355E-03     237.723E-03    -113.367E-03     285.886E-03    -137.137E-03     250.515E-03    -113.076E-03     272.788E-03
            1607     12.0565E-03     53.7550E-03    -27.1527E+06     69.3625E+06     52.8968E+06     517.770E+03    -121.475E-03     234.764E-03    -113.289E-03     241.244E-03    -130.142E-03     243.427E-03    -113.086E-03     230.064E-03
            1608     11.2524E-03     53.5142E-03    -32.5463E+06     52.5496E+06     26.8309E+06      994.94E+03    -118.895E-03     232.096E-03    -113.201E-03     198.810E-03    -124.588E-03     237.781E-03    -113.096E-03     189.647E-03
            1609     10.4489E-03     53.3139E-03    -36.8498E+06     23.4661E+06     10.9391E+06     1.20848E+06    -117.522E-03     230.703E-03    -113.181E-03     170.669E-03    -121.458E-03     234.560E-03    -113.107E-03     163.040E-03
            1610     9.64473E-03     53.1355E-03    -40.7979E+06    -23.5145E+06     2.92883E+06     947.048E+03    -117.005E-03     230.233E-03    -113.228E-03     153.353E-03    -119.865E-03     232.856E-03    -113.120E-03     146.881E-03
            1611     8.84112E-03     52.9735E-03    -44.4219E+06    -68.1732E+06    -2.39889E+06     662.377E+03    -116.684E-03     229.966E-03    -113.283E-03     139.935E-03    -118.800E-03     231.690E-03    -113.131E-03     134.417E-03
            1612     8.03721E-03     52.8249E-03    -48.0088E+06    -99.4038E+06    -7.66190E+06     777.437E+03    -116.295E-03     229.611E-03    -113.316E-03     127.275E-03    -117.860E-03     230.675E-03    -113.140E-03     122.601E-03
            1613     7.23358E-03     52.6904E-03    -52.3188E+06    -125.373E+06    -14.2734E+06     665.516E+03    -115.821E-03     229.157E-03    -113.336E-03     114.822E-03    -116.968E-03     229.715E-03    -113.150E-03     110.885E-03
            1614     6.42949E-03     52.5687E-03    -56.7855E+06    -149.227E+06    -20.5040E+06     480.338E+03    -115.414E-03     228.770E-03    -113.356E-03     102.515E-03    -116.244E-03     228.928E-03    -113.160E-03     99.2144E-03
            1615     5.62595E-03     52.4612E-03    -61.3676E+06    -167.987E+06    -27.9490E+06     472.141E+03    -115.023E-03     228.380E-03    -113.357E-03     90.2604E-03    -115.609E-03     228.232E-03    -113.164E-03     87.5291E-03
            1616     4.82217E-03     52.3666E-03    -66.2356E+06    -185.108E+06    -36.5484E+06     364.209E+03    -114.599E-03     227.945E-03    -113.346E-03     77.8739E-03    -114.996E-03     227.556E-03    -113.164E-03     75.6508E-03
            1617     4.01853E-03     52.2864E-03    -71.1110E+06    -204.754E+06    -46.5285E+06     259.473E+03    -114.222E-03     227.552E-03    -113.331E-03     65.3370E-03    -114.468E-03     226.954E-03    -113.163E-03     63.5663E-03
            1618     3.21478E-03     52.2198E-03    -75.9273E+06    -219.462E+06    -57.2762E+06     38.0707E+03    -113.881E-03     227.185E-03    -113.303E-03     52.6419E-03    -114.016E-03     226.437E-03    -113.161E-03     51.2760E-03
            1619     2.41112E-03     52.1678E-03    -80.2349E+06    -226.703E+06    -67.6850E+06     100.595E+03    -113.604E-03     226.868E-03    -113.265E-03     39.8374E-03    -113.664E-03     226.036E-03    -113.158E-03     38.8437E-03
            1620     1.60742E-03     52.1301E-03    -83.6743E+06    -233.395E+06    -77.7385E+06     118.252E+03    -113.389E-03     226.612E-03    -113.224E-03     26.9470E-03    -113.395E-03     225.719E-03    -113.153E-03     26.2926E-03
            1621     803.822E-06     52.1070E-03    -86.0359E+06    -237.908E+06    -84.5217E+06    -104.000E+03    -113.252E-03     226.448E-03    -113.196E-03     14.6200E-03    -113.227E-03     225.518E-03    -113.149E-03     14.2664E-03
            1622     15.2675E-03     53.9540E-03    -5.11431E+06     115.439E+06     91.5254E+06     344.010E+03    -120.227E-03     233.587E-03    -113.359E-03     259.197E-03    -135.260E-03     248.746E-03    -113.061E-03     252.713E-03
            1623     14.4695E-03     53.5720E-03    -10.2704E+06     110.854E+06     92.0677E+06    -210.378E+03    -125.660E-03     239.032E-03    -113.372E-03     328.243E-03    -146.143E-03     259.604E-03    -113.057E-03     316.723E-03
            1624     13.6639E-03     53.2046E-03    -15.2585E+06     100.636E+06     89.3106E+06    -443.142E+03    -125.675E-03     239.043E-03    -113.369E-03     313.877E-03    -142.433E-03     255.846E-03    -113.046E-03     300.459E-03
            1625     12.8610E-03     52.8637E-03    -20.9500E+06     87.4187E+06     77.6017E+06     202.633E+03    -124.397E-03     237.736E-03    -113.339E-03     285.990E-03    -137.189E-03     250.539E-03    -113.048E-03     272.890E-03
            1626     12.0567E-03     52.5656E-03    -27.4235E+06     68.8733E+06     52.6965E+06     1.45263E+06    -121.452E-03     234.712E-03    -113.260E-03     241.318E-03    -130.116E-03     243.370E-03    -113.056E-03     230.161E-03
            1627     11.2532E-03     52.3257E-03    -32.7234E+06     52.2880E+06     26.8740E+06     1.78639E+06    -118.795E-03     231.971E-03    -113.176E-03     199.015E-03    -124.483E-03     237.650E-03    -113.070E-03     189.878E-03
            1628     10.4491E-03     52.1249E-03    -37.0135E+06     24.2556E+06     11.2193E+06     1.30352E+06    -117.496E-03     230.657E-03    -113.161E-03     171.088E-03    -121.437E-03     234.521E-03    -113.087E-03     163.463E-03
            1629     9.64531E-03     51.9475E-03    -40.4727E+06    -22.8363E+06     3.16698E+06     737.055E+03    -116.940E-03     230.153E-03    -113.213E-03     153.627E-03    -119.798E-03     232.776E-03    -113.105E-03     147.163E-03
            1630     8.84094E-03     51.7847E-03    -44.0050E+06    -68.3465E+06    -2.50227E+06     628.618E+03    -116.667E-03     229.938E-03    -113.271E-03     140.027E-03    -118.776E-03     231.656E-03    -113.120E-03     134.521E-03
            1631     8.03732E-03     51.6364E-03    -48.0476E+06    -99.5600E+06    -7.75435E+06     791.021E+03    -116.349E-03     229.651E-03    -113.302E-03     127.140E-03    -117.913E-03     230.713E-03    -113.127E-03     122.466E-03
            1632     7.23347E-03     51.5017E-03    -52.0799E+06    -124.781E+06    -13.9553E+06     878.577E+03    -115.924E-03     229.236E-03    -113.312E-03     114.662E-03    -117.072E-03     229.796E-03    -113.125E-03     110.723E-03
            1633     6.42997E-03     51.3806E-03    -56.6130E+06    -148.930E+06    -20.5524E+06     628.732E+03    -115.468E-03     228.784E-03    -113.316E-03     102.363E-03    -116.295E-03     228.941E-03    -113.121E-03     99.0663E-03
            1634     5.62610E-03     51.2724E-03    -61.3384E+06    -167.891E+06    -28.0356E+06     416.483E+03    -115.011E-03     228.318E-03    -113.307E-03     90.0530E-03    -115.595E-03     228.170E-03    -113.115E-03     87.3229E-03
            1635     4.82252E-03     51.1785E-03    -66.1004E+06    -184.788E+06    -36.4911E+06     316.571E+03    -114.573E-03     227.863E-03    -113.290E-03     77.7155E-03    -114.969E-03     227.475E-03    -113.109E-03     75.4946E-03
            1636     4.01871E-03     51.0979E-03    -70.9857E+06    -204.552E+06    -46.3056E+06     166.179E+03    -114.186E-03     227.456E-03    -113.270E-03     65.2038E-03    -114.432E-03     226.858E-03    -113.102E-03     63.4335E-03
            1637     3.21509E-03     51.0318E-03    -75.7488E+06    -219.237E+06    -57.1149E+06     138.309E+03    -113.840E-03     227.076E-03    -113.235E-03     52.5173E-03    -113.975E-03     226.328E-03    -113.093E-03     51.1545E-03
            1638     2.41126E-03     50.9796E-03    -80.2494E+06    -226.869E+06    -68.0858E+06    -44.1121E+03    -113.535E-03     226.725E-03    -113.190E-03     39.7433E-03    -113.594E-03     225.892E-03    -113.085E-03     38.7499E-03
            1639     1.60757E-03     50.9420E-03    -83.6545E+06    -233.346E+06    -77.6891E+06    -23.0414E+03    -113.313E-03     226.464E-03    -113.151E-03     26.8958E-03    -113.319E-03     225.570E-03    -113.080E-03     26.2403E-03
            1640     803.701E-06     50.9191E-03    -85.9176E+06    -237.875E+06    -84.5884E+06     148.283E+03    -113.183E-03     226.304E-03    -113.121E-03     14.6903E-03    -113.157E-03     225.374E-03    -113.074E-03     14.3427E-03
            1641     15.2764E-03     52.7677E-03    -4.76739E+06     115.419E+06     91.8177E+06     378.553E+03    -120.715E-03     234.022E-03    -113.306E-03     259.221E-03    -135.762E-03     249.195E-03    -113.008E-03     252.680E-03
            1642     14.4684E-03     52.3809E-03    -9.90969E+06     110.692E+06     92.0930E+06    -816.891E+03    -125.164E-03     238.478E-03    -113.314E-03     328.116E-03    -145.649E-03     259.053E-03    -113.000E-03     316.658E-03
            1643     13.6658E-03     52.0186E-03    -15.8689E+06     99.9823E+06     88.4041E+06    -829.971E+03    -125.253E-03     238.586E-03    -113.333E-03     314.174E-03    -142.012E-03     255.387E-03    -113.013E-03     300.817E-03
            1644     12.8605E-03     51.6727E-03    -22.8680E+06     85.5644E+06     75.7605E+06     355.328E+03    -124.202E-03     237.525E-03    -113.322E-03     286.267E-03    -136.991E-03     250.317E-03    -113.035E-03     273.198E-03
            1645     12.0577E-03     51.3778E-03    -28.5109E+06     68.0405E+06     52.5961E+06     1.24458E+06    -121.357E-03     234.618E-03    -113.261E-03     241.736E-03    -130.015E-03     243.264E-03    -113.055E-03     230.601E-03
            1646     11.2527E-03     51.1369E-03    -32.8087E+06     52.8220E+06     28.1467E+06     1.29950E+06    -118.767E-03     231.957E-03    -113.190E-03     199.757E-03    -124.466E-03     237.646E-03    -113.079E-03     190.620E-03
            1647     10.4488E-03     50.9362E-03    -36.0229E+06     24.7495E+06     12.3183E+06     946.652E+03    -117.589E-03     230.764E-03    -113.175E-03     171.280E-03    -121.529E-03     234.628E-03    -113.097E-03     163.647E-03
            1648     9.64469E-03     50.7587E-03    -39.6353E+06    -22.3107E+06     3.84914E+06     1.12438E+06    -117.168E-03     230.381E-03    -113.213E-03     153.516E-03    -120.023E-03     233.005E-03    -113.103E-03     147.046E-03
            1649     8.84135E-03     50.5962E-03    -43.8645E+06    -67.7844E+06    -2.37751E+06     1.20201E+06    -116.817E-03     230.068E-03    -113.251E-03     139.760E-03    -118.925E-03     231.786E-03    -113.101E-03     134.256E-03
            1650     8.03746E-03     50.4477E-03    -48.0445E+06    -99.7661E+06    -8.06835E+06     819.780E+03    -116.387E-03     229.654E-03    -113.267E-03     126.823E-03    -117.948E-03     230.713E-03    -113.093E-03     122.148E-03
            1651     7.23394E-03     50.3132E-03    -52.2601E+06    -124.826E+06    -14.0060E+06     873.636E+03    -115.977E-03     229.244E-03    -113.267E-03     114.334E-03    -117.124E-03     229.803E-03    -113.081E-03     110.393E-03
            1652     6.43020E-03     50.1919E-03    -56.6426E+06    -148.029E+06    -20.3303E+06     839.260E+03    -115.497E-03     228.755E-03    -113.258E-03     102.096E-03    -116.325E-03     228.915E-03    -113.063E-03     98.8022E-03
            1653     5.62665E-03     50.0844E-03    -61.4152E+06    -167.447E+06    -28.0911E+06     370.858E+03    -114.974E-03     228.213E-03    -113.240E-03     89.8654E-03    -115.557E-03     228.066E-03    -113.048E-03     87.1393E-03
            1654     4.82275E-03     49.9901E-03    -66.2617E+06    -184.619E+06    -36.5744E+06     173.443E+03    -114.511E-03     227.730E-03    -113.219E-03     77.5529E-03    -114.907E-03     227.341E-03    -113.038E-03     75.3337E-03
            1655     4.01911E-03     49.9099E-03    -71.0691E+06    -204.397E+06    -46.4517E+06     84.9312E+03    -114.123E-03     227.318E-03    -113.195E-03     65.0740E-03    -114.368E-03     226.720E-03    -113.028E-03     63.3059E-03
            1656     3.21523E-03     49.8436E-03    -75.7770E+06    -219.231E+06    -57.0683E+06     47.9177E+03    -113.772E-03     226.931E-03    -113.159E-03     52.4246E-03    -113.907E-03     226.183E-03    -113.016E-03     51.0633E-03
            1657     2.41158E-03     49.7918E-03    -80.0647E+06    -226.680E+06    -67.9226E+06     122.872E+03    -113.455E-03     226.566E-03    -113.112E-03     39.6705E-03    -113.514E-03     225.733E-03    -113.006E-03     38.6812E-03
            1658     1.60761E-03     49.7543E-03    -83.7714E+06    -233.551E+06    -78.0366E+06    -13.5160E+03    -113.226E-03     226.299E-03    -113.073E-03     26.8343E-03    -113.232E-03     225.405E-03    -113.003E-03     26.1809E-03
            1659     803.876E-06     49.7311E-03    -85.7508E+06    -237.580E+06    -84.2722E+06     84.7531E+03    -113.090E-03     226.155E-03    -113.065E-03     14.6042E-03    -113.065E-03     225.227E-03    -113.018E-03     14.2588E-03
            1660     15.2708E-03     51.5764E-03    -4.81499E+06     116.058E+06     92.2120E+06    -108.171E+03    -120.592E-03     233.863E-03    -113.271E-03     259.594E-03    -135.673E-03     249.071E-03    -112.971E-03     253.098E-03
            1661     14.4704E-03     51.1933E-03    -9.50018E+06     111.429E+06     92.7619E+06    -583.407E+03    -124.803E-03     238.099E-03    -113.296E-03     328.961E-03    -145.329E-03     258.718E-03    -112.980E-03     317.581E-03
            1662     13.6647E-03     50.8292E-03    -16.1329E+06     99.6132E+06     88.0890E+06     273.761E+03    -125.199E-03     238.531E-03    -113.332E-03     315.049E-03    -141.963E-03     255.336E-03    -113.013E-03     301.722E-03
            1663     12.8615E-03     50.4849E-03    -23.0868E+06     85.1562E+06     75.4718E+06     1.07272E+06    -124.013E-03     237.353E-03    -113.340E-03     287.251E-03    -136.801E-03     250.143E-03    -113.053E-03     274.235E-03
            1664     12.0557E-03     50.1887E-03    -28.8825E+06     67.4871E+06     52.2324E+06     545.662E+03    -121.421E-03     234.714E-03    -113.292E-03     242.150E-03    -130.080E-03     243.357E-03    -113.087E-03     231.006E-03
            1665     11.2526E-03     49.9480E-03    -33.0667E+06     52.5377E+06     27.4626E+06    -257.129E+03    -119.127E-03     232.334E-03    -113.207E-03     199.391E-03    -124.834E-03     238.030E-03    -113.098E-03     190.190E-03
            1666     10.4486E-03     49.7474E-03    -36.9649E+06     24.0585E+06     11.2791E+06     455.839E+03    -117.827E-03     230.992E-03    -113.165E-03     170.580E-03    -121.764E-03     234.850E-03    -113.090E-03     162.923E-03
            1667     9.64532E-03     49.5695E-03    -40.7639E+06    -22.3091E+06     3.29367E+06     1.36888E+06    -117.295E-03     230.478E-03    -113.183E-03     152.824E-03    -120.150E-03     233.099E-03    -113.075E-03     146.349E-03
            1668     8.84158E-03     49.4075E-03    -44.3712E+06    -67.2075E+06    -2.47204E+06     1.24723E+06    -116.900E-03     230.105E-03    -113.205E-03     139.288E-03    -119.010E-03     231.826E-03    -113.055E-03     133.778E-03
            1669     8.03813E-03     49.2592E-03    -48.2950E+06    -99.3048E+06    -8.13925E+06     940.666E+03    -116.441E-03     229.648E-03    -113.207E-03     126.543E-03    -118.001E-03     230.707E-03    -113.033E-03     121.870E-03
            1670     7.23437E-03     49.1246E-03    -52.4632E+06    -124.781E+06    -14.2446E+06     749.855E+03    -115.939E-03     229.136E-03    -113.197E-03     114.086E-03    -117.084E-03     229.693E-03    -113.011E-03     110.148E-03
            1671     6.43080E-03     49.0036E-03    -56.6762E+06    -147.683E+06    -20.1825E+06     695.661E+03    -115.428E-03     228.613E-03    -113.186E-03     101.858E-03    -116.254E-03     228.773E-03    -112.990E-03     98.5675E-03
            1672     5.62695E-03     48.8961E-03    -61.2420E+06    -166.522E+06    -27.8765E+06     590.669E+03    -114.926E-03     228.088E-03    -113.162E-03     89.6980E-03    -115.509E-03     227.943E-03    -112.972E-03     86.9798E-03
            1673     4.82331E-03     48.8022E-03    -66.2427E+06    -184.427E+06    -36.8747E+06     168.006E+03    -114.452E-03     227.587E-03    -113.135E-03     77.4277E-03    -114.846E-03     227.199E-03    -112.956E-03     75.2130E-03
            1674     4.01933E-03     48.7219E-03    -71.1458E+06    -204.422E+06    -46.5807E+06    -28.6536E+03    -114.037E-03     227.147E-03    -113.110E-03     64.9520E-03    -114.282E-03     226.549E-03    -112.944E-03     63.1865E-03
            1675     3.21563E-03     48.6558E-03    -75.8797E+06    -219.255E+06    -57.1241E+06    -41.5152E+03    -113.675E-03     226.750E-03    -113.075E-03     52.3104E-03    -113.809E-03     226.003E-03    -112.933E-03     50.9509E-03
            1676     2.41158E-03     48.6040E-03    -80.2809E+06    -226.758E+06    -67.8994E+06     22.2985E+03    -113.379E-03     226.407E-03    -113.028E-03     39.5627E-03    -113.438E-03     225.574E-03    -112.923E-03     38.5737E-03
            1677     1.60787E-03     48.5665E-03    -83.5427E+06    -233.222E+06    -77.6966E+06     105.494E+03    -113.163E-03     226.144E-03    -112.981E-03     26.7527E-03    -113.169E-03     225.250E-03    -112.910E-03     26.1027E-03
            1678     803.877E-06     48.5436E-03    -85.8917E+06    -237.771E+06    -84.6171E+06     3.05259E+03    -113.034E-03     225.950E-03    -112.917E-03     14.5250E-03    -113.008E-03     225.021E-03    -112.870E-03     14.1782E-03
            1679     15.2763E-03     50.3888E-03    -4.39646E+06     116.325E+06     91.9536E+06    -308.820E+03    -119.920E-03     233.198E-03    -113.278E-03     259.501E-03    -134.993E-03     248.402E-03    -112.981E-03     253.072E-03
            1680     14.4682E-03     50.0052E-03    -10.2137E+06     110.606E+06     91.3673E+06    -303.092E+03    -124.583E-03     237.912E-03    -113.329E-03     329.697E-03    -145.090E-03     258.510E-03    -113.018E-03     318.377E-03
            1681     13.6650E-03     49.6399E-03    -17.0186E+06     98.0650E+06     87.0884E+06     836.130E+03    -125.312E-03     238.697E-03    -113.384E-03     316.173E-03    -142.094E-03     255.513E-03    -113.066E-03     302.853E-03
            1682     12.8592E-03     49.2971E-03    -22.5823E+06     85.1398E+06     76.1017E+06     975.504E+03    -124.564E-03     237.947E-03    -113.383E-03     287.008E-03    -137.371E-03     250.756E-03    -113.093E-03     273.914E-03
            1683     12.0564E-03     48.9990E-03    -27.7209E+06     68.5341E+06     52.4285E+06     114.488E+03    -121.905E-03     235.198E-03    -113.293E-03     241.296E-03    -130.563E-03     243.849E-03    -113.090E-03     230.078E-03
            1684     11.2526E-03     48.7587E-03    -32.8815E+06     51.8279E+06     26.2352E+06     88.3473E+03    -119.355E-03     232.526E-03    -113.171E-03     198.341E-03    -125.049E-03     238.211E-03    -113.067E-03     189.121E-03
            1685     10.4497E-03     48.5580E-03    -37.2306E+06     23.8342E+06     10.7783E+06     905.823E+03    -117.919E-03     231.031E-03    -113.112E-03     169.925E-03    -121.851E-03     234.884E-03    -113.038E-03     162.268E-03
            1686     9.64587E-03     48.3810E-03    -41.0687E+06    -22.0869E+06     3.06191E+06     1.01297E+06    -117.257E-03     230.377E-03    -113.120E-03     152.531E-03    -120.109E-03     232.996E-03    -113.013E-03     146.059E-03
            1687     8.84230E-03     48.2186E-03    -44.7076E+06    -67.2417E+06    -2.69504E+06     947.077E+03    -116.892E-03     230.029E-03    -113.137E-03     139.039E-03    -118.999E-03     231.746E-03    -112.988E-03     133.530E-03
            1688     8.03865E-03     48.0707E-03    -48.3377E+06    -98.8796E+06    -8.07092E+06     914.083E+03    -116.425E-03     229.557E-03    -113.132E-03     126.287E-03    -117.984E-03     230.616E-03    -112.959E-03     121.618E-03
            1689     7.23511E-03     47.9362E-03    -52.3896E+06    -124.302E+06    -14.3164E+06     673.148E+03    -115.879E-03     228.995E-03    -113.116E-03     113.912E-03    -117.021E-03     229.551E-03    -112.931E-03     109.982E-03
            1690     6.43122E-03     47.8155E-03    -56.7765E+06    -147.615E+06    -20.5917E+06     526.671E+03    -115.355E-03     228.456E-03    -113.101E-03     101.680E-03    -116.180E-03     228.614E-03    -112.907E-03     98.3945E-03
            1691     5.62752E-03     47.7080E-03    -61.3182E+06    -166.443E+06    -28.0492E+06     509.461E+03    -114.859E-03     227.934E-03    -113.075E-03     89.4868E-03    -115.440E-03     227.788E-03    -112.885E-03     86.7725E-03
            1692     4.82357E-03     47.6143E-03    -65.9905E+06    -183.737E+06    -36.6724E+06     349.115E+03    -114.380E-03     227.424E-03    -113.044E-03     77.2220E-03    -114.774E-03     227.038E-03    -112.865E-03     75.0131E-03
            1693     4.01985E-03     47.5342E-03    -71.0594E+06    -204.082E+06    -46.6411E+06     75.6851E+03    -113.951E-03     226.966E-03    -113.015E-03     64.7858E-03    -114.195E-03     226.368E-03    -112.849E-03     63.0257E-03
            1694     3.21577E-03     47.4682E-03    -75.9935E+06    -219.324E+06    -57.3281E+06    -68.8991E+03    -113.590E-03     226.566E-03    -112.976E-03     52.1571E-03    -113.724E-03     225.818E-03    -112.834E-03     50.8008E-03
            1695     2.41203E-03     47.4164E-03    -80.2172E+06    -226.760E+06    -68.1007E+06    -149.204E+03    -113.290E-03     226.213E-03    -112.923E-03     39.4250E-03    -113.349E-03     225.380E-03    -112.819E-03     38.4363E-03
            1696     1.60792E-03     47.3791E-03    -83.6989E+06    -233.401E+06    -77.8113E+06    -76.7770E+03    -113.050E-03     225.925E-03    -112.875E-03     26.6428E-03    -113.056E-03     225.031E-03    -112.804E-03     25.9921E-03
            1697     804.067E-06     47.3562E-03    -85.7900E+06    -237.631E+06    -84.3399E+06     130.946E+03    -112.927E-03     225.743E-03    -112.816E-03     14.5496E-03    -112.901E-03     224.814E-03    -112.769E-03     14.2037E-03
            1698     15.2697E-03     49.1968E-03    -4.28515E+06     116.196E+06     91.9229E+06     28.5527E+03    -119.236E-03     232.556E-03    -113.320E-03     260.217E-03    -134.276E-03     247.727E-03    -113.023E-03     253.905E-03
            1699     14.4687E-03     48.8178E-03    -10.8434E+06     110.208E+06     90.7281E+06     1.32532E+06    -124.739E-03     238.131E-03    -113.393E-03     330.091E-03    -145.230E-03     258.713E-03    -113.083E-03     318.784E-03
            1700     13.6618E-03     48.4511E-03    -16.3468E+06     97.7263E+06     87.4465E+06     569.788E+03    -126.198E-03     239.619E-03    -113.422E-03     315.327E-03    -142.998E-03     256.455E-03    -113.102E-03     301.851E-03
            1701     12.8604E-03     48.1058E-03    -21.4806E+06     84.8391E+06     76.3905E+06    -37.8588E+03    -125.152E-03     238.513E-03    -113.361E-03     285.038E-03    -137.921E-03     251.286E-03    -113.071E-03     271.836E-03
            1702     12.0571E-03     47.8104E-03    -27.0348E+06     68.8466E+06     52.2874E+06     459.321E+03    -122.031E-03     235.260E-03    -113.229E-03     240.285E-03    -130.672E-03     243.897E-03    -113.028E-03     229.055E-03
            1703     11.2540E-03     47.5689E-03    -32.3232E+06     51.7411E+06     26.7887E+06     1.39620E+06    -119.223E-03     232.325E-03    -113.102E-03     198.137E-03    -124.897E-03     237.991E-03    -112.997E-03     188.962E-03
            1704     10.4501E-03     47.3694E-03    -37.0308E+06     23.9031E+06     11.0085E+06     1.44416E+06    -117.824E-03     230.869E-03    -113.045E-03     169.744E-03    -121.748E-03     234.714E-03    -112.970E-03     162.108E-03
            1705     9.64653E-03     47.1921E-03    -40.7637E+06    -21.8738E+06     2.98161E+06     1.04684E+06    -117.279E-03     230.327E-03    -113.047E-03     152.320E-03    -120.124E-03     232.940E-03    -112.942E-03     145.854E-03
            1706     8.84297E-03     47.0301E-03    -44.4118E+06    -66.9282E+06    -2.66097E+06     783.661E+03    -116.855E-03     229.912E-03    -113.057E-03     138.822E-03    -118.956E-03     231.626E-03    -112.909E-03     133.320E-03
            1707     8.03939E-03     46.8822E-03    -48.3395E+06    -98.6236E+06    -8.29343E+06     701.875E+03    -116.350E-03     229.398E-03    -113.048E-03     126.060E-03    -117.904E-03     230.455E-03    -112.877E-03     121.397E-03
            1708     7.23554E-03     46.7481E-03    -52.3050E+06    -123.796E+06    -14.3817E+06     719.690E+03    -115.834E-03     228.862E-03    -113.028E-03     113.681E-03    -116.973E-03     229.418E-03    -112.845E-03     109.758E-03
            1709     6.43191E-03     46.6274E-03    -56.6721E+06    -147.322E+06    -20.6820E+06     536.388E+03    -115.320E-03     228.326E-03    -113.006E-03     101.446E-03    -116.142E-03     228.484E-03    -112.814E-03     98.1660E-03
            1710     5.62802E-03     46.5203E-03    -61.2697E+06    -166.337E+06    -28.1388E+06     406.189E+03    -114.795E-03     227.768E-03    -112.973E-03     89.2376E-03    -115.374E-03     227.621E-03    -112.784E-03     86.5274E-03
            1711     4.82425E-03     46.4266E-03    -66.1266E+06    -183.479E+06    -36.6303E+06     279.572E+03    -114.295E-03     227.231E-03    -112.936E-03     76.9790E-03    -114.689E-03     226.845E-03    -112.757E-03     74.7747E-03
            1712     4.02013E-03     46.3467E-03    -70.9675E+06    -203.710E+06    -46.2705E+06     242.134E+03    -113.863E-03     226.765E-03    -112.901E-03     64.5353E-03    -114.107E-03     226.167E-03    -112.734E-03     62.7815E-03
            1713     3.21634E-03     46.2808E-03    -75.8326E+06    -219.005E+06    -57.1040E+06     49.7901E+03    -113.478E-03     226.334E-03    -112.857E-03     51.9877E-03    -113.611E-03     225.586E-03    -112.715E-03     50.6374E-03
            1714     2.41216E-03     46.2292E-03    -80.4265E+06    -226.863E+06    -68.3576E+06    -135.948E+03    -113.155E-03     225.958E-03    -112.804E-03     39.3245E-03    -113.214E-03     225.125E-03    -112.700E-03     38.3397E-03
            1715     1.60825E-03     46.1920E-03    -83.7762E+06    -233.571E+06    -78.2733E+06    -167.892E+03    -112.920E-03     225.681E-03    -112.761E-03     26.5739E-03    -112.926E-03     224.787E-03    -112.692E-03     25.9241E-03
            1716     803.993E-06     46.1692E-03    -85.5240E+06    -237.643E+06    -84.4417E+06    -122.770E+03    -112.770E-03     225.526E-03    -112.757E-03     14.4903E-03    -112.742E-03     224.597E-03    -112.710E-03     14.1431E-03
            1717     15.2748E-03     48.0136E-03    -5.79960E+06     115.042E+06     90.6064E+06    -78.5586E+03    -119.625E-03     232.999E-03    -113.375E-03     260.537E-03    -134.670E-03     248.170E-03    -113.080E-03     254.143E-03
            1718     14.4647E-03     47.6277E-03    -10.3115E+06     111.701E+06     92.4109E+06     869.644E+03    -126.170E-03     239.575E-03    -113.404E-03     328.984E-03    -146.676E-03     260.172E-03    -113.089E-03     317.430E-03
            1719     13.6657E-03     47.2598E-03    -14.8409E+06     98.7918E+06     89.0338E+06    -242.765E+03    -126.770E-03     240.125E-03    -113.355E-03     312.713E-03    -143.501E-03     256.895E-03    -113.031E-03     299.132E-03
            1720     12.8619E-03     46.9172E-03    -20.7850E+06     84.1711E+06     76.1854E+06     150.227E+03    -124.739E-03     238.005E-03    -113.266E-03     284.375E-03    -137.439E-03     250.708E-03    -112.976E-03     271.253E-03
            1721     12.0584E-03     46.6206E-03    -27.4464E+06     68.0283E+06     51.9617E+06     1.64672E+06    -121.757E-03     234.908E-03    -113.150E-03     240.420E-03    -130.379E-03     243.523E-03    -112.949E-03     229.256E-03
            1722     11.2544E-03     46.3808E-03    -33.0684E+06     51.1796E+06     26.5069E+06     1.79604E+06    -119.142E-03     232.174E-03    -113.032E-03     198.121E-03    -124.811E-03     237.830E-03    -112.926E-03     188.970E-03
            1723     10.4508E-03     46.1801E-03    -36.6782E+06     24.4939E+06     11.2836E+06     1.46432E+06    -117.808E-03     230.780E-03    -112.972E-03     169.578E-03    -121.721E-03     234.617E-03    -112.898E-03     161.957E-03
            1724     9.64742E-03     46.0034E-03    -40.1082E+06    -21.1933E+06     3.32786E+06     1.24476E+06    -117.277E-03     230.246E-03    -112.968E-03     152.011E-03    -120.115E-03     232.857E-03    -112.863E-03     145.551E-03
            1725     8.84377E-03     45.8416E-03    -43.9395E+06    -66.6192E+06    -2.50919E+06     955.120E+03    -116.812E-03     229.784E-03    -112.971E-03     138.559E-03    -118.908E-03     231.494E-03    -112.824E-03     133.066E-03
            1726     8.03999E-03     45.6940E-03    -47.8833E+06    -98.1678E+06    -7.88998E+06     832.107E+03    -116.303E-03     229.261E-03    -112.958E-03     125.781E-03    -117.852E-03     230.314E-03    -112.785E-03     121.129E-03
            1727     7.23640E-03     45.5600E-03    -52.1684E+06    -123.469E+06    -14.1839E+06     742.477E+03    -115.798E-03     228.728E-03    -112.930E-03     113.387E-03    -116.934E-03     229.282E-03    -112.746E-03     109.471E-03
            1728     6.43251E-03     45.4396E-03    -56.5473E+06    -147.016E+06    -20.5277E+06     576.819E+03    -115.272E-03     228.170E-03    -112.898E-03     101.162E-03    -116.090E-03     228.326E-03    -112.706E-03     97.8905E-03
            1729     5.62877E-03     45.3326E-03    -61.1714E+06    -166.100E+06    -27.9775E+06     428.749E+03    -114.728E-03     227.584E-03    -112.856E-03     88.9589E-03    -115.305E-03     227.436E-03    -112.667E-03     86.2558E-03
            1730     4.82469E-03     45.2392E-03    -65.9911E+06    -183.176E+06    -36.5180E+06     325.457E+03    -114.209E-03     227.019E-03    -112.810E-03     76.7395E-03    -114.600E-03     226.632E-03    -112.632E-03     74.5432E-03
            1731     4.02090E-03     45.1594E-03    -70.9776E+06    -203.570E+06    -46.1436E+06     167.332E+03    -113.749E-03     226.519E-03    -112.770E-03     64.3419E-03    -113.992E-03     225.921E-03    -112.602E-03     62.5936E-03
            1732     3.21662E-03     45.0939E-03    -75.8627E+06    -218.744E+06    -56.6956E+06     248.941E+03    -113.345E-03     226.068E-03    -112.723E-03     51.8230E-03    -113.478E-03     225.320E-03    -112.579E-03     50.4801E-03
            1733     2.41260E-03     45.0422E-03    -80.3725E+06    -226.559E+06    -67.9804E+06     82.8644E+03    -113.014E-03     225.682E-03    -112.668E-03     39.1550E-03    -113.073E-03     224.849E-03    -112.563E-03     38.1774E-03
            1734     1.60826E-03     45.0052E-03    -84.0878E+06    -233.649E+06    -78.2913E+06    -126.617E+03    -112.792E-03     225.413E-03    -112.620E-03     26.4191E-03    -112.799E-03     224.518E-03    -112.551E-03     25.7731E-03
            1735     804.282E-06     44.9822E-03    -86.2506E+06    -237.949E+06    -85.0569E+06    -111.125E+03    -112.687E-03     225.232E-03    -112.545E-03     14.3561E-03    -112.662E-03     224.303E-03    -112.500E-03     14.0103E-03
            1736     15.2664E-03     46.8241E-03    -5.42781E+06     115.342E+06     90.8052E+06     80.0824E+03    -121.205E-03     234.556E-03    -113.352E-03     259.590E-03    -136.271E-03     249.750E-03    -113.057E-03     252.899E-03
            1737     14.4710E-03     46.4342E-03    -10.2347E+06     111.752E+06     92.0144E+06    -1.77440E+06    -126.854E-03     240.153E-03    -113.299E-03     327.213E-03    -147.320E-03     260.713E-03    -112.986E-03     315.454E-03
            1738     13.6669E-03     46.0716E-03    -15.2687E+06     97.6965E+06     88.0007E+06    -1.21187E+06    -125.921E-03     239.161E-03    -113.240E-03     312.771E-03    -142.607E-03     255.885E-03    -112.920E-03     299.318E-03
            1739     12.8628E-03     45.7285E-03    -22.1167E+06     81.7522E+06     74.9611E+06     961.562E+03    -124.439E-03     237.627E-03    -113.188E-03     285.341E-03    -137.146E-03     250.329E-03    -112.900E-03     272.300E-03
            1740     12.0586E-03     45.4320E-03    -28.0795E+06     67.0598E+06     52.0209E+06     1.96384E+06    -121.748E-03     234.836E-03    -113.088E-03     240.640E-03    -130.371E-03     243.447E-03    -112.884E-03     229.488E-03
            1741     11.2554E-03     45.1915E-03    -32.1335E+06     52.1761E+06     27.5212E+06     1.72944E+06    -119.177E-03     232.141E-03    -112.964E-03     197.858E-03    -124.841E-03     237.796E-03    -112.856E-03     188.704E-03
            1742     10.4519E-03     44.9917E-03    -35.8753E+06     24.8238E+06     11.6485E+06     1.50532E+06    -117.802E-03     230.696E-03    -112.895E-03     169.509E-03    -121.706E-03     234.527E-03    -112.820E-03     161.898E-03
            1743     9.64805E-03     44.8146E-03    -39.7494E+06    -20.8238E+06     3.63043E+06     1.37875E+06    -117.216E-03     230.103E-03    -112.887E-03     151.877E-03    -120.049E-03     232.711E-03    -112.781E-03     145.427E-03
            1744     8.84454E-03     44.6534E-03    -43.5740E+06    -65.8417E+06    -1.88204E+06     1.31569E+06    -116.818E-03     229.703E-03    -112.885E-03     138.361E-03    -118.909E-03     231.411E-03    -112.736E-03     132.879E-03
            1745     8.04096E-03     44.5058E-03    -47.6822E+06    -97.8377E+06    -7.55418E+06     1.07972E+06    -116.325E-03     229.184E-03    -112.860E-03     125.570E-03    -117.870E-03     230.235E-03    -112.686E-03     120.928E-03
            1746     7.23711E-03     44.3722E-03    -51.8912E+06    -123.066E+06    -13.8408E+06     862.700E+03    -115.788E-03     228.606E-03    -112.819E-03     113.121E-03    -116.919E-03     229.157E-03    -112.634E-03     109.216E-03
            1747     6.43341E-03     44.2518E-03    -56.3271E+06    -146.547E+06    -20.1375E+06     697.888E+03    -115.218E-03     227.993E-03    -112.775E-03     100.820E-03    -116.033E-03     228.146E-03    -112.582E-03     97.5595E-03
            1748     5.62940E-03     44.1453E-03    -61.0122E+06    -165.696E+06    -27.6993E+06     452.914E+03    -114.638E-03     227.361E-03    -112.723E-03     88.6350E-03    -115.212E-03     227.211E-03    -112.533E-03     85.9416E-03
            1749     4.82558E-03     44.0519E-03    -65.9367E+06    -182.837E+06    -36.1602E+06     407.705E+03    -114.087E-03     226.758E-03    -112.671E-03     76.4542E-03    -114.477E-03     226.370E-03    -112.492E-03     74.2675E-03
            1750     4.02121E-03     43.9726E-03    -70.9927E+06    -203.406E+06    -46.0815E+06     320.576E+03    -113.625E-03     226.249E-03    -112.624E-03     64.1136E-03    -113.867E-03     225.650E-03    -112.457E-03     62.3750E-03
            1751     3.21725E-03     43.9069E-03    -75.9261E+06    -218.736E+06    -56.6004E+06     121.090E+03    -113.242E-03     225.809E-03    -112.567E-03     51.5804E-03    -113.375E-03     225.060E-03    -112.423E-03     50.2410E-03
            1752     2.41290E-03     43.8557E-03    -80.4384E+06    -226.242E+06    -67.3865E+06     211.161E+03    -112.887E-03     225.385E-03    -112.498E-03     38.9273E-03    -112.947E-03     224.552E-03    -112.391E-03     37.9559E-03
            1753     1.60880E-03     43.8185E-03    -84.2499E+06    -233.478E+06     -78.073E+06     146.069E+03    -112.609E-03     225.049E-03    -112.440E-03     26.2697E-03    -112.617E-03     224.155E-03    -112.369E-03     25.6309E-03
            1754     804.296E-06     43.7960E-03    -86.9868E+06    -238.142E+06     -85.316E+06     28.5229E+03    -112.528E-03     224.864E-03    -112.336E-03     14.3934E-03    -112.506E-03     223.936E-03    -112.291E-03     14.0501E-03
            1755     15.2775E-03     45.6278E-03    -3.61259E+06     117.087E+06     92.8564E+06     409.962E+03    -121.955E-03     235.180E-03    -113.224E-03     258.444E-03    -136.955E-03     250.313E-03    -112.924E-03     251.744E-03
            1756     14.4716E-03     45.2485E-03    -9.51862E+06     111.458E+06     91.2582E+06    -1.41798E+06    -125.239E-03     238.422E-03    -113.182E-03     328.010E-03    -145.654E-03     258.934E-03    -112.874E-03     316.476E-03
            1757     13.6665E-03     44.8816E-03    -17.1882E+06     95.2166E+06     85.0420E+06    -646.731E+03    -125.515E-03     238.698E-03    -113.184E-03     314.099E-03    -142.213E-03     255.427E-03    -112.871E-03     300.723E-03
            1758     12.8629E-03     44.5404E-03    -23.4400E+06     79.9722E+06     73.7329E+06     71.5838E+03    -124.663E-03     237.810E-03    -113.147E-03     285.495E-03    -137.406E-03     250.540E-03    -112.860E-03     272.399E-03
            1759     12.0599E-03     44.2424E-03    -27.6907E+06     66.5910E+06     52.6990E+06     408.993E+03    -121.882E-03     234.920E-03    -113.038E-03     240.829E-03    -130.517E-03     243.540E-03    -112.830E-03     229.638E-03
            1760     11.2562E-03     44.0032E-03    -31.6414E+06     52.2548E+06     28.1861E+06     1.45719E+06    -119.244E-03     232.148E-03    -112.904E-03     198.083E-03    -124.900E-03     237.796E-03    -112.793E-03     188.933E-03
            1761     10.4523E-03     43.8026E-03    -35.9663E+06     24.8903E+06     11.7257E+06     1.99320E+06    -117.854E-03     230.678E-03    -112.824E-03     169.439E-03    -121.755E-03     234.505E-03    -112.749E-03     161.836E-03
            1762     9.64899E-03     43.6266E-03    -39.8953E+06    -20.2779E+06     3.61062E+06     1.62377E+06    -117.221E-03     230.028E-03    -112.807E-03     151.736E-03    -120.048E-03     232.631E-03    -112.702E-03     145.302E-03
            1763     8.84524E-03     43.4647E-03    -43.6519E+06    -65.4593E+06    -1.72861E+06     1.31447E+06    -116.861E-03     229.657E-03    -112.796E-03     138.127E-03    -118.948E-03     231.362E-03    -112.646E-03     132.651E-03
            1764     8.04162E-03     43.3180E-03    -47.4750E+06    -97.3338E+06    -7.24199E+06     1.18828E+06    -116.394E-03     229.148E-03    -112.753E-03     125.213E-03    -117.934E-03     230.195E-03    -112.580E-03     120.577E-03
            1765     7.23809E-03     43.1842E-03    -51.5454E+06    -122.476E+06    -13.4065E+06     995.838E+03    -115.803E-03     228.497E-03    -112.694E-03     112.697E-03    -116.929E-03     229.044E-03    -112.508E-03     108.802E-03
            1766     6.43424E-03     43.0646E-03    -55.9070E+06    -146.104E+06    -19.6612E+06     824.810E+03    -115.158E-03     227.793E-03    -112.635E-03     100.400E-03    -115.968E-03     227.943E-03    -112.440E-03     97.1510E-03
            1767     5.63040E-03     42.9579E-03    -60.7190E+06    -165.277E+06    -27.3746E+06     672.714E+03    -114.537E-03     227.108E-03    -112.571E-03     88.2575E-03    -115.108E-03     226.956E-03    -112.380E-03     85.5781E-03
            1768     4.82611E-03     42.8653E-03    -65.6748E+06    -182.657E+06    -35.8982E+06     495.581E+03    -113.977E-03     226.486E-03    -112.509E-03     76.0614E-03    -114.364E-03     226.095E-03    -112.328E-03     73.8844E-03
            1769     4.02213E-03     42.7858E-03    -70.6703E+06    -203.047E+06    -45.6104E+06     437.666E+03    -113.502E-03     225.952E-03    -112.450E-03     63.7529E-03    -113.741E-03     225.352E-03    -112.281E-03     62.0234E-03
            1770     3.21771E-03     42.7206E-03    -75.7614E+06    -218.588E+06    -56.5455E+06     295.515E+03    -113.084E-03     225.464E-03    -112.380E-03     51.2954E-03    -113.215E-03     224.714E-03    -112.236E-03     49.9657E-03
            1771     2.41356E-03     42.6693E-03    -80.4123E+06    -226.236E+06    -67.5643E+06     168.103E+03    -112.694E-03     225.000E-03    -112.306E-03     38.7384E-03    -112.753E-03     224.166E-03    -112.199E-03     37.7712E-03
            1772     1.60893E-03     42.6327E-03    -84.0728E+06    -233.216E+06    -77.8702E+06     237.336E+03    -112.402E-03     224.655E-03    -112.252E-03     26.2083E-03    -112.409E-03     223.761E-03    -112.182E-03     25.5741E-03
            1773     804.516E-06     42.6100E-03    -86.2147E+06    -237.768E+06    -84.9951E+06     167.148E+03    -112.278E-03     224.501E-03    -112.222E-03     14.4129E-03    -112.253E-03     223.572E-03    -112.178E-03     14.0756E-03
            1774     15.2765E-03     44.4468E-03    -4.49666E+06     116.663E+06     91.7589E+06    -465.616E+03    -121.621E-03     234.806E-03    -113.185E-03     260.351E-03    -136.674E-03     249.991E-03    -112.889E-03     253.722E-03
            1775     14.4701E-03     44.0569E-03    -9.27932E+06     111.893E+06     91.8187E+06     1.19803E+06    -125.414E-03     238.587E-03    -113.173E-03     329.995E-03    -145.889E-03     259.160E-03    -112.863E-03     318.549E-03
            1776     13.6674E-03     43.6950E-03    -15.6150E+06      96.363E+06     86.7318E+06     1.30329E+06    -125.867E-03     239.039E-03    -113.171E-03     313.859E-03    -142.534E-03     255.741E-03    -112.855E-03     300.491E-03
            1777     12.8637E-03     43.3492E-03    -21.7864E+06     81.2663E+06     74.4271E+06     13.6000E+03    -124.709E-03     237.828E-03    -113.119E-03     285.905E-03    -137.448E-03     250.562E-03    -112.833E-03     272.799E-03
            1778     12.0599E-03     43.0549E-03    -28.0947E+06     65.5937E+06     51.4039E+06    -208.472E+03    -122.011E-03     235.013E-03    -113.002E-03     241.162E-03    -130.650E-03     243.636E-03    -112.799E-03     229.953E-03
            1779     11.2562E-03     42.8130E-03    -33.4775E+06     50.0946E+06     26.7587E+06     973.021E+03    -119.480E-03     232.339E-03    -112.858E-03     198.185E-03    -125.134E-03     237.973E-03    -112.748E-03     189.022E-03
            1780     10.4534E-03     42.6146E-03    -37.0249E+06     25.4292E+06     11.6486E+06     1.58757E+06    -118.028E-03     230.789E-03    -112.761E-03     169.103E-03    -121.926E-03     234.612E-03    -112.685E-03     161.494E-03
            1781     9.64953E-03     42.4376E-03    -40.1046E+06    -19.3757E+06     3.60581E+06     1.26643E+06    -117.391E-03     230.110E-03    -112.720E-03     151.396E-03    -120.213E-03     232.711E-03    -112.616E-03     144.956E-03
            1782     8.84621E-03     42.2770E-03    -43.4683E+06    -65.6902E+06    -1.83693E+06     1.12166E+06    -116.970E-03     229.656E-03    -112.686E-03     137.611E-03    -119.048E-03     231.352E-03    -112.537E-03     132.137E-03
            1783     8.04275E-03     42.1295E-03    -47.2996E+06    -96.7398E+06    -6.88781E+06     1.22548E+06    -116.417E-03     229.041E-03    -112.624E-03     124.617E-03    -117.950E-03     230.083E-03    -112.450E-03     119.993E-03
            1784     7.23913E-03     41.9970E-03    -51.4783E+06    -122.042E+06    -13.2629E+06     1.00106E+06    -115.760E-03     228.306E-03    -112.546E-03     112.128E-03    -116.881E-03     228.850E-03    -112.361E-03     108.243E-03
            1785     6.43535E-03     41.8771E-03    -55.9343E+06    -145.935E+06    -19.7593E+06     895.208E+03    -115.087E-03     227.559E-03    -112.472E-03     99.9064E-03    -115.893E-03     227.705E-03    -112.278E-03     96.6700E-03
            1786     5.63123E-03     41.7714E-03    -60.5117E+06    -164.817E+06    -27.2404E+06     858.838E+03    -114.457E-03     226.850E-03    -112.393E-03     87.7743E-03    -115.024E-03     226.695E-03    -112.202E-03     85.1079E-03
            1787     4.82729E-03     41.6785E-03    -65.3665E+06    -182.268E+06    -35.7229E+06     622.952E+03    -113.869E-03     226.182E-03    -112.313E-03     75.6265E-03    -114.252E-03     225.790E-03    -112.133E-03     73.4612E-03
            1788     4.02285E-03     41.5998E-03    -70.4786E+06    -202.770E+06    -45.4305E+06     550.567E+03    -113.340E-03     225.579E-03    -112.240E-03     63.3953E-03    -113.577E-03     224.978E-03    -112.071E-03     61.6763E-03
            1789     3.21857E-03     41.5345E-03    -75.4288E+06    -218.130E+06    -56.1603E+06     550.685E+03    -112.842E-03     225.010E-03    -112.167E-03     50.9974E-03    -112.972E-03     224.260E-03    -112.022E-03     49.6796E-03
            1790     2.41384E-03     41.4838E-03    -80.0052E+06    -226.003E+06    -67.5327E+06     331.048E+03    -112.441E-03     224.543E-03    -112.102E-03     38.5218E-03    -112.498E-03     223.709E-03    -111.996E-03     37.5626E-03
            1791     1.60932E-03     41.4470E-03    -83.5966E+06    -232.989E+06    -77.7534E+06     136.597E+03    -112.206E-03     224.263E-03    -112.057E-03     26.0968E-03    -112.210E-03     223.369E-03    -111.987E-03     25.4642E-03
            1792     804.630E-06     41.4245E-03    -85.7037E+06    -237.197E+06    -84.3696E+06     195.464E+03    -112.073E-03     224.114E-03    -112.041E-03     14.3590E-03    -112.047E-03     223.187E-03    -111.994E-03     14.0258E-03
            1793     15.2703E-03     43.2505E-03    -5.43103E+06     116.048E+06     89.7681E+06    -950.398E+03    -121.162E-03     234.406E-03    -113.244E-03     259.146E-03    -136.240E-03     249.616E-03    -112.955E-03     252.419E-03
            1794     14.4716E-03     42.8688E-03    -10.4935E+06     111.351E+06     91.0075E+06     424.589E+03    -126.415E-03     239.622E-03    -113.207E-03     328.161E-03    -146.887E-03     260.188E-03    -112.898E-03     316.574E-03
            1795     13.6675E-03     42.5045E-03    -15.3257E+06     96.2688E+06     87.2819E+06     737.353E+03    -125.907E-03     239.081E-03    -113.174E-03     314.189E-03    -142.571E-03     255.779E-03    -112.855E-03     300.837E-03
            1796     12.8635E-03     42.1619E-03    -21.0058E+06     81.5422E+06     75.1100E+06     1.23100E+06    -124.965E-03     238.082E-03    -113.118E-03     286.741E-03    -137.725E-03     250.840E-03    -112.830E-03     273.619E-03
            1797     12.0598E-03     41.8641E-03    -27.5221E+06     65.7746E+06     51.4613E+06     1.52872E+06    -122.495E-03     235.471E-03    -112.976E-03     240.804E-03    -131.122E-03     244.085E-03    -112.775E-03     229.571E-03
            1798     11.2573E-03     41.6247E-03    -32.7556E+06     50.3215E+06     27.1600E+06     1.08693E+06    -119.712E-03     232.515E-03    -112.803E-03     197.299E-03    -125.347E-03     238.134E-03    -112.693E-03     188.127E-03
            1799     10.4535E-03     41.4248E-03    -36.6359E+06     25.2544E+06     11.8179E+06     679.072E+03    -118.183E-03     230.864E-03    -112.681E-03     168.503E-03    -122.065E-03     234.672E-03    -112.605E-03     160.883E-03
            1800     9.65083E-03     41.2496E-03    -40.0897E+06    -19.3474E+06     3.59665E+06     889.347E+03    -117.624E-03     230.237E-03    -112.613E-03     150.749E-03    -120.440E-03     232.831E-03    -112.508E-03     144.297E-03
            1801     8.84747E-03     41.0881E-03    -43.8316E+06    -65.1956E+06    -2.04393E+06     1.03350E+06    -117.071E-03     229.619E-03    -112.549E-03     137.012E-03    -119.142E-03     231.309E-03    -112.401E-03     131.544E-03
            1802     8.04407E-03     40.9423E-03    -47.6233E+06    -96.5691E+06    -7.32216E+06     967.878E+03    -116.387E-03     228.851E-03    -112.465E-03     124.046E-03    -117.912E-03     229.887E-03    -112.292E-03     119.432E-03
            1803     7.24036E-03     40.8091E-03    -51.5961E+06    -121.821E+06    -13.4203E+06     943.737E+03    -115.695E-03     228.068E-03    -112.372E-03     111.520E-03    -116.810E-03     228.605E-03    -112.188E-03     107.649E-03
            1804     6.43648E-03     40.6907E-03    -55.8800E+06    -145.452E+06    -19.6749E+06     875.089E+03    -115.022E-03     227.303E-03    -112.280E-03     99.2860E-03    -115.823E-03     227.446E-03    -112.087E-03     96.0608E-03
            1805     5.63258E-03     40.5844E-03    -60.4747E+06    -164.430E+06    -27.2638E+06     831.934E+03    -114.348E-03     226.529E-03    -112.181E-03     87.2159E-03    -114.911E-03     226.373E-03    -111.992E-03     84.5614E-03
            1806     4.82820E-03     40.4928E-03    -65.3236E+06    -181.863E+06    -35.7812E+06     768.100E+03    -113.712E-03     225.797E-03    -112.085E-03     75.1461E-03    -114.092E-03     225.403E-03    -111.906E-03     72.9945E-03
            1807     4.02392E-03     40.4137E-03    -70.2721E+06    -202.515E+06    -45.3329E+06     610.044E+03    -113.124E-03     225.125E-03    -112.001E-03     62.9469E-03    -113.358E-03     224.522E-03    -111.832E-03     61.2390E-03
            1808     3.21923E-03     40.3494E-03    -75.1035E+06    -217.811E+06    -55.8096E+06     530.381E+03    -112.599E-03     224.524E-03    -111.925E-03     50.6176E-03    -112.726E-03     223.773E-03    -111.779E-03     49.3073E-03
            1809     2.41453E-03     40.2985E-03    -79.5731E+06    -225.438E+06    -66.8381E+06     419.053E+03    -112.213E-03     224.068E-03    -111.855E-03     38.2233E-03    -112.269E-03     223.235E-03    -111.747E-03     37.2714E-03
            1810     1.60964E-03     40.2620E-03    -83.2984E+06    -232.615E+06    -77.4137E+06     246.580E+03    -111.957E-03     223.758E-03    -111.801E-03     25.8529E-03    -111.961E-03     222.865E-03    -111.730E-03     25.2250E-03
            1811     804.828E-06     40.2394E-03    -85.5662E+06    -237.046E+06    -84.2846E+06     204.805E+03    -111.851E-03     223.595E-03    -111.744E-03     14.2816E-03    -111.824E-03     222.668E-03    -111.697E-03     13.9507E-03
            1812     15.2753E-03     42.0601E-03    -4.82341E+06     116.706E+06     90.3389E+06    -152.220E+03    -121.067E-03     234.306E-03    -113.238E-03     258.562E-03    -136.060E-03     249.433E-03    -112.949E-03     251.922E-03
            1813     14.4700E-03     41.6770E-03    -11.2910E+06     110.317E+06     89.5387E+06    -967.670E+03    -125.427E-03     238.649E-03    -113.222E-03     327.529E-03    -145.815E-03     259.129E-03    -112.918E-03     316.054E-03
            1814     13.6667E-03     41.3167E-03    -17.1980E+06     94.5684E+06     84.9455E+06    -728.111E+03    -126.290E-03     239.494E-03    -113.203E-03     314.728E-03    -143.018E-03     256.250E-03    -112.891E-03     301.259E-03
            1815     12.8628E-03     40.9713E-03    -22.9179E+06     79.6400E+06     73.7113E+06     346.011E+03    -125.930E-03     239.040E-03    -113.110E-03     286.414E-03    -138.728E-03     251.826E-03    -112.824E-03     273.134E-03
            1816     12.0611E-03     40.6739E-03    -27.4013E+06     65.6363E+06     52.8994E+06     1.32746E+06    -122.911E-03     235.836E-03    -112.925E-03     239.608E-03    -131.506E-03     244.413E-03    -112.716E-03     228.347E-03
            1817     11.2580E-03     40.4353E-03    -31.4877E+06     51.3066E+06     28.4631E+06     1.35969E+06    -119.861E-03     232.576E-03    -112.715E-03     196.360E-03    -125.475E-03     238.178E-03    -112.602E-03     187.189E-03
            1818     10.4554E-03     40.2365E-03    -35.8820E+06     25.0552E+06     11.7271E+06     1.11397E+06    -118.375E-03     230.939E-03    -112.563E-03     167.784E-03    -122.241E-03     234.731E-03    -112.489E-03     160.169E-03
            1819     9.65188E-03     40.0601E-03    -40.0639E+06    -19.3429E+06     3.49505E+06     1.16920E+06    -117.673E-03     230.144E-03    -112.471E-03     149.949E-03    -120.474E-03     232.724E-03    -112.367E-03     143.513E-03
            1820     8.84892E-03     39.9006E-03    -43.8649E+06    -64.6061E+06    -2.06961E+06     954.118E+03    -117.075E-03     229.462E-03    -112.386E-03     136.262E-03    -119.138E-03     231.145E-03    -112.239E-03     130.804E-03
            1821     8.04542E-03     39.7541E-03    -47.7834E+06    -96.4807E+06    -7.60420E+06     779.314E+03    -116.369E-03     228.651E-03    -112.282E-03     123.347E-03    -117.886E-03     229.678E-03    -112.111E-03     118.745E-03
            1822     7.24184E-03     39.6226E-03    -51.8202E+06    -121.696E+06    -13.7155E+06     726.070E+03    -115.664E-03     227.831E-03    -112.167E-03     110.831E-03    -116.771E-03     228.362E-03    -111.984E-03     106.972E-03
            1823     6.43805E-03     39.5035E-03    -56.0456E+06    -145.302E+06    -19.7607E+06     696.357E+03    -114.939E-03     226.992E-03    -112.053E-03     98.5879E-03    -115.735E-03     227.130E-03    -111.860E-03     95.3740E-03
            1824     5.63384E-03     39.3989E-03    -60.5664E+06    -164.163E+06    -27.3004E+06     760.778E+03    -114.200E-03     226.133E-03    -111.933E-03     86.5384E-03    -114.759E-03     225.973E-03    -111.744E-03     83.8958E-03
            1825     4.82960E-03     39.3067E-03    -65.3174E+06    -181.441E+06    -35.7366E+06     654.194E+03    -113.499E-03     225.320E-03    -111.821E-03     74.5416E-03    -113.876E-03     224.925E-03    -111.642E-03     72.4013E-03
            1826     4.02496E-03     39.2289E-03    -70.0676E+06    -202.187E+06    -45.2129E+06     489.164E+03    -112.896E-03     224.621E-03    -111.724E-03     62.3903E-03    -113.128E-03     224.017E-03    -111.556E-03     60.6910E-03
            1827     3.22016E-03     39.1644E-03    -74.7825E+06    -217.586E+06    -55.5783E+06     375.541E+03    -112.389E-03     224.018E-03    -111.629E-03     50.1215E-03    -112.513E-03     223.266E-03    -111.483E-03     48.8167E-03
            1828     2.41527E-03     39.1141E-03    -79.2936E+06    -225.062E+06    -66.4041E+06     357.233E+03    -111.945E-03     223.482E-03    -111.537E-03     37.8409E-03    -111.999E-03     222.649E-03    -111.428E-03     36.8944E-03
            1829     1.61030E-03     39.0776E-03    -83.0370E+06    -232.153E+06    -76.8170E+06     334.293E+03    -111.647E-03     223.115E-03    -111.468E-03     25.6545E-03    -111.651E-03     222.222E-03    -111.395E-03     25.0339E-03
            1830     805.142E-06     39.0552E-03    -85.2219E+06    -236.714E+06    -83.9157E+06     377.072E+03    -111.530E-03     222.910E-03    -111.380E-03     14.1746E-03    -111.503E-03     221.984E-03    -111.333E-03     13.8477E-03
            1831     15.2741E-03     40.8718E-03    -4.65747E+06     117.022E+06     91.2462E+06     329.934E+03    -120.773E-03     234.021E-03    -113.248E-03     259.458E-03    -135.717E-03     249.099E-03    -112.955E-03     252.948E-03
            1832     14.4698E-03     40.4894E-03    -10.0185E+06     111.238E+06     90.5675E+06     310.133E+03    -125.381E-03     238.634E-03    -113.252E-03     328.359E-03    -145.717E-03     259.066E-03    -112.946E-03     316.924E-03
            1833     13.6650E-03     40.1259E-03    -16.4147E+06     95.1072E+06     85.2620E+06     215.018E+03    -127.330E-03     240.536E-03    -113.206E-03     314.055E-03    -144.068E-03     257.306E-03    -112.894E-03     300.403E-03
            1834     12.8647E-03     39.7792E-03    -22.9728E+06     79.6294E+06     73.4773E+06    -55.8927E+03    -126.590E-03     239.639E-03    -113.048E-03     284.778E-03    -139.354E-03     252.390E-03    -112.763E-03     271.406E-03
            1835     12.0622E-03     39.4847E-03    -28.7160E+06     64.1509E+06     51.3163E+06    -352.367E+03    -122.909E-03     235.731E-03    -112.822E-03     238.391E-03    -131.465E-03     244.264E-03    -112.616E-03     227.130E-03
            1836     11.2594E-03     39.2457E-03    -33.1611E+06     49.5813E+06     27.1476E+06     511.970E+03    -120.038E-03     232.631E-03    -112.593E-03     195.788E-03    -125.638E-03     238.210E-03    -112.481E-03     186.606E-03
            1837     10.4566E-03     39.0471E-03    -36.6543E+06     25.5415E+06     11.6512E+06     1.61607E+06    -118.534E-03     230.950E-03    -112.416E-03     167.026E-03    -122.387E-03     234.730E-03    -112.342E-03     159.423E-03
            1838     9.65393E-03     38.8722E-03    -40.3085E+06    -18.4070E+06     3.21085E+06     1.27075E+06    -117.678E-03     229.976E-03    -112.298E-03     149.305E-03    -120.465E-03     232.546E-03    -112.197E-03     142.890E-03
            1839     8.85051E-03     38.7121E-03    -44.0991E+06    -64.4654E+06    -2.24781E+06     906.881E+03    -117.072E-03     229.267E-03    -112.195E-03     135.458E-03    -119.123E-03     230.939E-03    -112.049E-03     130.015E-03
            1840     8.04722E-03     38.5673E-03    -47.9170E+06    -95.9950E+06    -7.49360E+06     713.212E+03    -116.379E-03     228.445E-03    -112.066E-03     122.480E-03    -117.887E-03     229.465E-03    -111.895E-03     117.891E-03
            1841     7.24357E-03     38.4352E-03    -51.9023E+06    -121.340E+06    -13.7707E+06     402.794E+03    -115.592E-03     227.516E-03    -111.924E-03     109.980E-03    -116.692E-03     228.041E-03    -111.742E-03     106.132E-03
            1842     6.43966E-03     38.3178E-03    -56.0182E+06    -145.400E+06    -19.8719E+06     379.161E+03    -114.809E-03     226.597E-03    -111.787E-03     97.8140E-03    -115.597E-03     226.728E-03    -111.595E-03     94.6130E-03
            1843     5.63559E-03     38.2128E-03    -60.2792E+06    -163.995E+06    -26.9347E+06     464.176E+03    -114.044E-03     225.691E-03    -111.646E-03     85.7981E-03    -114.598E-03     225.526E-03    -111.456E-03     83.1656E-03
            1844     4.83104E-03     38.1221E-03    -64.8785E+06    -180.958E+06    -35.3192E+06     447.358E+03    -113.280E-03     224.792E-03    -111.512E-03     73.8062E-03    -113.653E-03     224.394E-03    -111.332E-03     71.6763E-03
            1845     4.02622E-03     38.0441E-03    -69.7397E+06    -201.943E+06    -45.0199E+06     358.489E+03    -112.637E-03     224.032E-03    -111.395E-03     61.7914E-03    -112.864E-03     223.425E-03    -111.227E-03     60.1033E-03
            1846     3.22144E-03     37.9804E-03    -74.5192E+06    -217.342E+06    -55.4339E+06     369.506E+03    -112.096E-03     223.378E-03    -111.283E-03     49.6801E-03    -112.218E-03     222.625E-03    -111.137E-03     48.3859E-03
            1847     2.41625E-03     37.9302E-03    -79.0956E+06    -224.916E+06    -66.3838E+06     286.564E+03    -111.628E-03     222.802E-03    -111.174E-03     37.5498E-03    -111.681E-03     221.968E-03    -111.065E-03     36.6108E-03
            1848     1.61079E-03     37.8942E-03    -82.6421E+06    -231.790E+06    -76.5379E+06     312.409E+03    -111.310E-03     222.394E-03    -111.085E-03     25.4712E-03    -111.312E-03     221.503E-03    -111.012E-03     24.8567E-03
            1849     805.494E-06     37.8715E-03    -84.8167E+06    -236.145E+06    -83.3574E+06     269.471E+03    -111.145E-03     222.121E-03    -110.975E-03     14.0235E-03    -111.117E-03     221.196E-03    -110.927E-03     13.6975E-03
            1850     15.2723E-03     39.6821E-03    -5.00979E+06     116.402E+06     90.7144E+06     99.3172E+03    -120.850E-03     234.146E-03    -113.296E-03     258.576E-03    -135.770E-03     249.198E-03    -113.004E-03     251.979E-03
            1851     14.4685E-03     39.2999E-03    -10.2357E+06     111.186E+06     90.6916E+06     659.578E+03    -127.021E-03     240.269E-03    -113.248E-03     327.422E-03    -147.367E-03     260.710E-03    -112.941E-03     315.710E-03
            1852     13.6683E-03     38.9340E-03    -15.8590E+06     95.7010E+06     86.3223E+06     994.953E+03    -128.075E-03     241.200E-03    -113.125E-03     313.084E-03    -144.781E-03     257.939E-03    -112.809E-03     299.333E-03
            1853     12.8658E-03     38.5880E-03    -22.0764E+06     80.3074E+06     73.8778E+06     728.786E+03    -126.306E-03     239.242E-03    -112.936E-03     283.577E-03    -138.984E-03     251.912E-03    -112.651E-03     270.285E-03
            1854     12.0635E-03     38.2953E-03    -28.1423E+06     64.5154E+06     50.6346E+06     390.022E+03    -123.010E-03     235.707E-03    -112.697E-03     237.808E-03    -131.534E-03     244.213E-03    -112.497E-03     226.566E-03
            1855     11.2612E-03     38.0558E-03    -33.7909E+06     48.7652E+06     25.9833E+06     503.991E+03    -120.276E-03     232.721E-03    -112.445E-03     195.065E-03    -125.854E-03     238.277E-03    -112.337E-03     185.884E-03
            1856     10.4586E-03     37.8584E-03    -38.0404E+06     24.9165E+06     10.7203E+06     690.624E+03    -118.535E-03     230.780E-03    -112.245E-03     166.161E-03    -122.371E-03     234.538E-03    -112.172E-03     158.565E-03
            1857     9.65542E-03     37.6835E-03    -41.0882E+06    -17.6740E+06     3.03222E+06     835.411E+03    -117.759E-03     229.863E-03    -112.105E-03     148.567E-03    -120.538E-03     232.425E-03    -112.004E-03     142.157E-03
            1858     8.85252E-03     37.5248E-03    -44.2688E+06    -63.8816E+06    -2.23698E+06     478.286E+03    -117.156E-03     229.127E-03    -111.971E-03     134.608E-03    -119.195E-03     230.789E-03    -111.826E-03     129.174E-03
            1859     8.04924E-03     37.3796E-03    -47.5518E+06    -95.5477E+06    -7.03625E+06     217.472E+03    -116.372E-03     228.184E-03    -111.812E-03     121.510E-03    -117.869E-03     229.194E-03    -111.640E-03     116.928E-03
            1860     7.24571E-03     37.2493E-03    -51.1848E+06    -120.811E+06    -12.9857E+06     202.800E+03    -115.496E-03     227.138E-03    -111.642E-03     109.011E-03    -116.585E-03     227.654E-03    -111.458E-03     105.177E-03
            1861     6.44169E-03     37.1317E-03    -55.4562E+06    -145.317E+06    -19.5271E+06     120.566E+03    -114.635E-03     226.114E-03    -111.479E-03     96.9018E-03    -115.413E-03     226.236E-03    -111.286E-03     93.7172E-03
            1862     5.63733E-03     37.0281E-03    -60.0205E+06    -164.245E+06    -27.1590E+06     49.0791E+03    -113.818E-03     225.133E-03    -111.315E-03     84.9757E-03    -114.363E-03     224.960E-03    -111.125E-03     82.3575E-03
            1863     4.83281E-03     36.9374E-03    -64.5108E+06    -180.910E+06    -35.0685E+06     253.283E+03    -113.055E-03     224.214E-03    -111.159E-03     73.0756E-03    -113.422E-03     223.811E-03    -110.978E-03     70.9591E-03
            1864     4.02795E-03     36.8606E-03    -69.3720E+06    -201.587E+06    -44.5901E+06     473.807E+03    -112.327E-03     223.348E-03    -111.021E-03     61.1711E-03    -112.551E-03     222.739E-03    -110.851E-03     59.4995E-03
            1865     3.22246E-03     36.7969E-03    -74.3564E+06    -217.198E+06    -55.4326E+06     348.976E+03    -111.710E-03     222.607E-03    -110.897E-03     49.1821E-03    -111.829E-03     221.852E-03    -110.751E-03     47.9014E-03
            1866     2.41703E-03     36.7475E-03    -78.7568E+06    -224.659E+06    -66.2332E+06     308.338E+03    -111.277E-03     222.055E-03    -110.779E-03     37.1743E-03    -111.327E-03     221.221E-03    -110.670E-03     36.2452E-03
            1867     1.61165E-03     36.7113E-03    -82.3321E+06    -231.518E+06    -76.4218E+06     258.846E+03    -110.927E-03     221.600E-03    -110.672E-03     25.1895E-03    -110.928E-03     220.708E-03    -110.599E-03     24.5804E-03
            1868     805.792E-06     36.6895E-03    -84.3539E+06    -235.735E+06    -83.1090E+06     163.281E+03    -110.731E-03     221.279E-03    -110.548E-03     13.9020E-03    -110.702E-03     220.355E-03    -110.499E-03     13.5790E-03
            1869     15.2715E-03     38.4906E-03    -4.59343E+06     116.221E+06     90.9036E+06     359.308E+03    -121.777E-03     235.045E-03    -113.268E-03     257.068E-03    -136.683E-03     250.084E-03    -112.975E-03     250.302E-03
            1870     14.4715E-03     38.1083E-03    -10.2594E+06     110.959E+06     90.8017E+06     572.696E+03    -127.683E-03     240.844E-03    -113.162E-03     326.659E-03    -148.054E-03     261.310E-03    -112.854E-03     314.778E-03
            1871     13.6695E-03     37.7415E-03    -16.0770E+06     95.1825E+06     86.1094E+06     662.653E+03    -128.139E-03     241.146E-03    -113.007E-03     312.747E-03    -144.775E-03     257.813E-03    -112.691E-03     299.005E-03
            1872     12.8676E-03     37.3996E-03    -21.7581E+06     80.2586E+06     74.4062E+06     1.05944E+06    -126.229E-03     239.042E-03    -112.813E-03     282.925E-03    -138.826E-03     251.630E-03    -112.525E-03     269.697E-03
            1873     12.0649E-03     37.1041E-03    -27.7415E+06     64.8902E+06     51.4306E+06     1.68266E+06    -123.220E-03     235.779E-03    -112.559E-03     237.226E-03    -131.709E-03     244.251E-03    -112.356E-03     226.006E-03
            1874     11.2632E-03     36.8665E-03    -32.9069E+06     49.5012E+06     26.5841E+06     1.40289E+06    -120.415E-03     232.693E-03    -112.278E-03     194.011E-03    -125.963E-03     238.222E-03    -112.169E-03     184.850E-03
            1875     10.4604E-03     36.6696E-03    -37.1221E+06     25.6950E+06     11.2817E+06     549.486E+03    -118.680E-03     230.727E-03    -112.047E-03     165.227E-03    -122.497E-03     234.471E-03    -111.974E-03     157.634E-03
            1876     9.65776E-03     36.4956E-03    -40.5886E+06    -17.0428E+06     3.60320E+06    -17.0927E+03    -117.881E-03     229.754E-03    -111.873E-03     147.452E-03    -120.640E-03     232.298E-03    -111.772E-03     141.045E-03
            1877     8.85483E-03     36.3367E-03    -43.5151E+06    -63.3865E+06    -1.71514E+06    -278.905E+03    -117.158E-03     228.864E-03    -111.706E-03     133.443E-03    -119.179E-03     230.510E-03    -111.559E-03     128.018E-03
            1878     8.05170E-03     36.1933E-03    -47.0948E+06    -95.6798E+06    -6.99227E+06    -343.903E+03    -116.280E-03     227.796E-03    -111.516E-03     120.436E-03    -117.761E-03     228.791E-03    -111.344E-03     115.870E-03
            1879     7.24798E-03     36.0630E-03    -51.0430E+06    -121.115E+06    -13.0270E+06    -156.597E+03    -115.375E-03     226.694E-03    -111.319E-03     108.034E-03    -116.452E-03     227.197E-03    -111.134E-03     104.219E-03
            1880     6.44405E-03     35.9469E-03    -55.1207E+06    -145.221E+06    -19.3448E+06     25.8041E+03    -114.458E-03     225.586E-03    -111.128E-03     95.9602E-03    -115.226E-03     225.699E-03    -110.934E-03     92.7974E-03
            1881     5.63956E-03     35.8436E-03    -59.6804E+06    -164.167E+06    -27.1512E+06     95.9475E+03    -113.552E-03     224.491E-03    -110.939E-03     84.0883E-03    -114.088E-03     224.311E-03    -110.750E-03     81.4952E-03
            1882     4.83463E-03     35.7539E-03    -64.5945E+06    -181.417E+06     -35.566E+06     132.726E+03    -112.728E-03     223.491E-03    -110.763E-03     72.2793E-03    -113.088E-03     223.081E-03    -110.584E-03     70.1826E-03
            1883     4.02942E-03     35.6774E-03    -69.2564E+06    -201.657E+06    -44.6575E+06     285.699E+03    -112.011E-03     222.617E-03    -110.606E-03     60.4411E-03    -112.230E-03     222.005E-03    -110.437E-03     58.7821E-03
            1884     3.22409E-03     35.6149E-03    -73.9031E+06    -216.818E+06    -55.0781E+06     439.602E+03    -111.367E-03     221.824E-03    -110.457E-03     48.5574E-03    -111.483E-03     221.067E-03    -110.311E-03     47.2905E-03
            1885     2.41828E-03     35.5651E-03    -78.5090E+06    -224.421E+06    -66.0473E+06     364.306E+03    -110.826E-03     221.147E-03    -110.321E-03     36.6706E-03    -110.874E-03     220.311E-03    -110.212E-03     35.7535E-03
            1886     1.61217E-03     35.5299E-03    -82.0184E+06    -231.117E+06    -76.0675E+06     247.592E+03    -110.473E-03     220.681E-03    -110.208E-03     24.8094E-03    -110.472E-03     219.790E-03    -110.135E-03     24.2066E-03
            1887     806.190E-06     35.5078E-03    -84.1310E+06    -235.426E+06    -82.8282E+06     176.049E+03    -110.279E-03     220.341E-03    -110.062E-03     13.6029E-03    -110.249E-03     219.417E-03    -110.013E-03     13.2824E-03
            1888     15.2764E-03     37.3010E-03    -4.72414E+06     115.683E+06     90.7639E+06     315.866E+03    -122.891E-03     236.088E-03    -113.197E-03     258.028E-03    -137.807E-03     251.135E-03    -112.904E-03     251.114E-03
            1889     14.4725E-03     36.9169E-03    -9.82395E+06     110.575E+06     90.8732E+06     624.864E+03    -127.879E-03     240.940E-03    -113.061E-03     327.454E-03    -148.198E-03     261.353E-03    -112.753E-03     315.547E-03
            1890     13.6708E-03     36.5502E-03    -15.5891E+06     94.8961E+06     85.8449E+06     954.689E+03    -128.150E-03     241.049E-03    -112.899E-03     312.454E-03    -144.712E-03     257.643E-03    -112.585E-03     298.744E-03
            1891     12.8690E-03     36.2090E-03    -22.0174E+06     79.4697E+06     74.0886E+06     1.25056E+06    -126.652E-03     239.336E-03    -112.684E-03     282.218E-03    -139.208E-03     251.881E-03    -112.397E-03     268.965E-03
            1892     12.0676E-03     35.9143E-03    -27.7491E+06     64.7990E+06     52.3203E+06     1.68908E+06    -123.519E-03     235.918E-03    -112.398E-03     236.698E-03    -131.984E-03     244.363E-03    -112.191E-03     225.471E-03
            1893     11.2650E-03     35.6769E-03    -32.1439E+06     50.4382E+06     28.2781E+06     1.49188E+06    -120.589E-03     232.674E-03    -112.085E-03     192.931E-03    -126.103E-03     238.171E-03    -111.970E-03     183.782E-03
            1894     10.4630E-03     35.4808E-03    -35.3251E+06     27.7940E+06     13.2796E+06     621.264E+03    -118.930E-03     230.744E-03    -111.814E-03     164.006E-03    -122.721E-03     234.470E-03    -111.736E-03     156.419E-03
            1895     9.66060E-03     35.3073E-03    -38.6455E+06    -15.8592E+06     4.82580E+06    -121.736E+03    -117.941E-03     229.539E-03    -111.598E-03     146.358E-03    -120.672E-03     232.063E-03    -111.495E-03     139.972E-03
            1896     8.85775E-03     35.1498E-03    -42.6840E+06    -63.4703E+06    -1.56786E+06    -363.711E+03    -117.068E-03     228.468E-03    -111.400E-03     132.445E-03    -119.066E-03     230.093E-03    -111.253E-03     127.051E-03
            1897     8.05430E-03     35.0067E-03    -46.5876E+06    -95.7494E+06    -7.13783E+06    -410.891E+03    -116.163E-03     227.346E-03    -111.183E-03     119.391E-03    -117.625E-03     228.324E-03    -111.012E-03     114.855E-03
            1898     7.25067E-03     34.8779E-03    -50.5636E+06    -121.523E+06    -13.1652E+06    -364.724E+03    -115.220E-03     226.178E-03    -110.958E-03     106.962E-03    -116.281E-03     226.666E-03    -110.774E-03     103.172E-03
            1899     6.44641E-03     34.7622E-03    -54.8861E+06    -145.414E+06    -19.2199E+06     56.6424E+03    -114.264E-03     225.003E-03    -110.739E-03     94.8854E-03    -115.021E-03     225.104E-03    -110.544E-03     91.7491E-03
            1900     5.64190E-03     34.6602E-03    -59.5120E+06    -164.149E+06    -26.9877E+06     338.762E+03    -113.303E-03     223.821E-03    -110.518E-03     83.0549E-03    -113.830E-03     223.633E-03    -110.329E-03     80.4883E-03
            1901     4.83687E-03     34.5711E-03    -64.2342E+06    -181.225E+06    -35.5215E+06     213.863E+03    -112.388E-03     222.702E-03    -110.314E-03     71.2962E-03    -112.742E-03     222.287E-03    -110.136E-03     69.2223E-03
            1902     4.03136E-03     34.4955E-03    -69.2087E+06    -201.956E+06    -45.1566E+06     83.2666E+03    -111.629E-03     221.760E-03    -110.132E-03     59.5627E-03    -111.843E-03     221.143E-03    -109.964E-03     57.9192E-03
            1903     3.22558E-03     34.4331E-03    -73.9421E+06    -216.897E+06    -55.2018E+06     288.267E+03    -110.958E-03     220.916E-03    -109.958E-03     47.8521E-03    -111.071E-03     220.157E-03    -109.813E-03     46.5965E-03
            1904     2.41951E-03     34.3847E-03    -78.1538E+06    -223.945E+06    -65.6554E+06     470.539E+03    -110.372E-03     220.168E-03    -109.797E-03     36.1617E-03    -110.418E-03     219.333E-03    -109.687E-03     35.2573E-03
            1905     1.61319E-03     34.3491E-03    -81.7524E+06    -230.813E+06    -75.8654E+06     322.013E+03    -109.957E-03     219.618E-03    -109.660E-03     24.3960E-03    -109.956E-03     218.726E-03    -109.587E-03     23.8022E-03
            1906     806.703E-06     34.3277E-03    -83.7838E+06    -235.004E+06    -82.5355E+06     150.038E+03    -109.693E-03     219.224E-03    -109.531E-03     13.2701E-03    -109.663E-03     218.301E-03    -109.481E-03     12.9520E-03
            1907     15.2726E-03     36.1050E-03    -4.50980E+06     115.320E+06     90.5551E+06     223.791E+03    -123.471E-03     236.636E-03    -113.165E-03     258.889E-03    -138.341E-03     251.637E-03    -112.873E-03     251.840E-03
            1908     14.4741E-03     35.7262E-03    -9.85333E+06     109.668E+06     90.1948E+06     710.340E+03    -128.746E-03     241.738E-03    -112.992E-03     327.035E-03    -148.989E-03     262.073E-03    -112.685E-03     314.990E-03
            1909     13.6722E-03     35.3590E-03    -15.7994E+06     94.5069E+06     85.5132E+06     1.26141E+06    -128.535E-03     241.322E-03    -112.786E-03     311.343E-03    -145.044E-03     257.861E-03    -112.473E-03     297.606E-03
            1910     12.8709E-03     35.0178E-03    -21.8223E+06     79.4973E+06     73.9747E+06     1.48948E+06    -126.878E-03     239.417E-03    -112.539E-03     281.624E-03    -139.385E-03     251.914E-03    -112.253E-03     268.376E-03
            1911     12.0691E-03     34.7239E-03    -27.3485E+06     64.9992E+06     52.7841E+06     1.09426E+06    -123.959E-03     236.178E-03    -112.219E-03     235.788E-03    -132.391E-03     244.590E-03    -112.009E-03     224.530E-03
            1912     11.2680E-03     34.4873E-03    -31.1780E+06     51.4430E+06     29.6604E+06     405.136E+03    -120.864E-03     232.728E-03    -111.864E-03     192.016E-03    -126.346E-03     238.196E-03    -111.745E-03     182.860E-03
            1913     10.4660E-03     34.2918E-03    -34.4856E+06     28.3154E+06     13.9687E+06     235.507E+03    -119.023E-03     230.577E-03    -111.554E-03     163.197E-03    -122.785E-03     234.276E-03    -111.475E-03     155.630E-03
            1914     9.66346E-03     34.1198E-03    -38.2660E+06    -15.4125E+06     4.93209E+06     372.345E+03    -117.982E-03     229.286E-03    -111.305E-03     145.457E-03    -120.693E-03     231.793E-03    -111.202E-03     139.100E-03
            1915     8.86045E-03     33.9629E-03    -42.1110E+06    -62.8193E+06    -1.36028E+06     171.188E+03    -117.085E-03     228.156E-03    -111.071E-03     131.431E-03    -119.062E-03     229.765E-03    -110.926E-03     126.073E-03
            1916     8.05730E-03     33.8211E-03    -46.2095E+06    -95.6455E+06    -7.06964E+06    -177.209E+03    -116.131E-03     226.947E-03    -110.817E-03     118.218E-03    -117.575E-03     227.909E-03    -110.647E-03     113.713E-03
            1917     7.25349E-03     33.6929E-03    -50.4470E+06    -121.654E+06    -13.2354E+06    -197.664E+03    -115.097E-03     225.649E-03    -110.552E-03     105.631E-03    -116.144E-03     226.123E-03    -110.369E-03     101.871E-03
            1918     6.44936E-03     33.5786E-03    -54.8840E+06    -145.965E+06    -19.4707E+06     108.588E+03    -114.028E-03     224.324E-03    -110.296E-03     93.5662E-03    -114.772E-03     224.412E-03    -110.102E-03     90.4578E-03
            1919     5.64456E-03     33.4773E-03    -59.3339E+06    -164.107E+06    -27.0132E+06     328.638E+03    -113.004E-03     223.046E-03    -110.042E-03     81.8219E-03    -113.522E-03     222.849E-03    -109.853E-03     79.2794E-03
            1920     4.83930E-03     33.3894E-03    -64.0787E+06    -180.827E+06    -35.3749E+06     401.399E+03    -112.053E-03     221.856E-03    -109.804E-03     70.2248E-03    -112.400E-03     221.437E-03    -109.625E-03     68.1758E-03
            1921     4.03362E-03     33.3145E-03    -69.0198E+06    -201.726E+06    -45.1165E+06     312.851E+03    -111.186E-03     220.776E-03    -109.590E-03     58.6295E-03    -111.395E-03     220.155E-03    -109.423E-03     57.0097E-03
            1922     3.22741E-03     33.2531E-03    -73.8128E+06    -217.001E+06    -55.5713E+06     125.998E+03    -110.451E-03     219.844E-03    -109.393E-03     47.0248E-03    -110.560E-03     219.082E-03    -109.249E-03     45.7838E-03
            1923     2.42091E-03     33.2048E-03    -78.0683E+06    -223.910E+06    -65.7065E+06     275.212E+03    -109.864E-03     219.071E-03    -109.207E-03     35.5058E-03    -109.909E-03     218.234E-03    -109.097E-03     34.6103E-03
            1924     1.61421E-03     33.1701E-03    -81.4282E+06    -230.356E+06    -75.5353E+06     322.693E+03    -109.369E-03     218.417E-03    -109.048E-03     23.9430E-03    -109.366E-03     217.526E-03    -108.974E-03     23.3574E-03
            1925     807.094E-06     33.1489E-03    -83.4870E+06    -234.564E+06    -82.1936E+06     4.86102E+03    -109.045E-03     217.981E-03    -108.936E-03     12.9913E-03    -109.013E-03     217.059E-03    -108.886E-03     12.6768E-03
            1926     15.2768E-03     34.9181E-03    -4.95342E+06     115.010E+06     90.0706E+06     274.100E+03    -124.483E-03     237.625E-03    -113.142E-03     258.605E-03    -139.333E-03     252.605E-03    -112.851E-03     251.372E-03
            1927     14.4734E-03     34.5282E-03    -10.2081E+06     109.115E+06     89.8199E+06     782.897E+03    -129.323E-03     242.245E-03    -112.922E-03     326.080E-03    -149.506E-03     262.518E-03    -112.616E-03     313.923E-03
            1928     13.6751E-03     34.1697E-03    -16.0824E+06     94.1564E+06     85.3050E+06     918.485E+03    -129.032E-03     241.705E-03    -112.673E-03     310.253E-03    -145.472E-03     258.175E-03    -112.360E-03     296.463E-03
            1929     12.8726E-03     33.8267E-03    -21.7484E+06     80.2024E+06     74.5098E+06     1.09925E+06    -127.486E-03     239.868E-03    -112.382E-03     281.438E-03    -139.971E-03     252.344E-03    -112.094E-03     268.133E-03
            1930     12.0722E-03     33.5330E-03    -26.2681E+06     66.1128E+06     53.7339E+06     424.770E+03    -124.222E-03     236.241E-03    -112.020E-03     234.693E-03    -132.605E-03     244.610E-03    -111.809E-03     223.430E-03
            1931     11.2706E-03     33.2977E-03    -30.7549E+06     51.5084E+06     29.0820E+06    -199.478E+03    -120.993E-03     232.619E-03    -111.625E-03     191.143E-03    -126.442E-03     238.057E-03    -111.510E-03     181.997E-03
            1932     10.4684E-03     33.1034E-03    -35.2761E+06     27.5078E+06     12.5801E+06     85.8430E+03    -119.180E-03     230.460E-03    -111.280E-03     162.224E-03    -122.915E-03     234.131E-03    -111.206E-03     154.678E-03
            1933     9.66621E-03     32.9318E-03    -38.7232E+06    -15.2492E+06     4.59787E+06     312.495E+03    -118.150E-03     229.141E-03    -110.991E-03     144.065E-03    -120.839E-03     231.625E-03    -110.890E-03     137.727E-03
            1934     8.86374E-03     32.7767E-03    -42.1908E+06    -62.2266E+06    -1.22875E+06     274.658E+03    -117.190E-03     227.899E-03    -110.709E-03     129.931E-03    -119.150E-03     229.492E-03    -110.564E-03     124.591E-03
            1935     8.06049E-03     32.6354E-03    -46.1234E+06    -95.1087E+06    -7.00205E+06     264.016E+03    -116.104E-03     226.508E-03    -110.405E-03     116.710E-03    -117.531E-03     227.454E-03    -110.235E-03     112.239E-03
            1936     7.25700E-03     32.5089E-03    -50.4729E+06    -121.714E+06    -13.5173E+06     219.683E+03    -114.947E-03     225.041E-03    -110.094E-03     104.163E-03    -115.978E-03     225.500E-03    -109.912E-03     100.440E-03
            1937     6.45257E-03     32.3955E-03    -54.8991E+06    -146.281E+06    -19.7492E+06     235.892E+03    -113.795E-03     223.591E-03    -109.796E-03     92.1969E-03    -114.527E-03     223.666E-03    -109.603E-03     89.1189E-03
            1938     5.64763E-03     32.2957E-03    -59.5272E+06    -163.999E+06    -27.2739E+06     378.919E+03    -112.678E-03     222.180E-03    -109.501E-03     80.4948E-03    -113.188E-03     221.975E-03    -109.314E-03     77.9814E-03
            1939     4.84210E-03     32.2085E-03    -64.2507E+06    -180.539E+06    -35.5685E+06     438.214E+03    -111.629E-03     220.856E-03    -109.227E-03     68.9700E-03    -111.970E-03     220.431E-03    -109.050E-03     66.9477E-03
            1940     4.03600E-03     32.1348E-03    -68.9680E+06    -201.465E+06    -45.0709E+06     314.404E+03    -110.693E-03     219.676E-03    -108.982E-03     57.5262E-03    -110.898E-03     219.051E-03    -108.815E-03     55.9284E-03
            1941     3.22949E-03     32.0741E-03    -73.6041E+06    -216.764E+06    -55.5274E+06     289.982E+03    -109.889E-03     218.647E-03    -108.758E-03     46.1967E-03    -109.995E-03     217.883E-03    -108.614E-03     44.9773E-03
            1942     2.42259E-03     32.0266E-03    -77.9479E+06    -223.954E+06    -66.0270E+06     152.901E+03    -109.214E-03     217.771E-03    -108.557E-03     34.8645E-03    -109.256E-03     216.933E-03    -108.449E-03     33.9818E-03
            1943     1.61522E-03     31.9924E-03    -81.2392E+06    -230.159E+06    -75.5080E+06     79.3499E+03    -108.709E-03     217.108E-03    -108.399E-03     23.4840E-03    -108.705E-03     216.218E-03    -108.325E-03     22.9036E-03
            1944     807.749E-06     31.9717E-03    -83.1409E+06    -234.105E+06    -82.0173E+06     107.796E+03    -108.415E-03     216.686E-03    -108.271E-03     12.7474E-03    -108.383E-03     215.766E-03    -108.221E-03     12.4384E-03
            1945     15.2738E-03     33.7202E-03    -5.00297E+06     114.351E+06     89.9546E+06     197.013E+03    -125.639E-03     238.741E-03    -113.102E-03     257.469E-03    -140.419E-03     253.649E-03    -112.811E-03     250.090E-03
            1946     14.4774E-03     33.3373E-03    -9.42451E+06     108.566E+06     90.1322E+06     879.013E+03    -129.479E-03     242.317E-03    -112.838E-03     324.862E-03    -149.491E-03     262.419E-03    -112.531E-03     312.720E-03
            1947     13.6739E-03     32.9759E-03    -14.8724E+06     94.0502E+06     85.8554E+06     1.04636E+06    -129.452E-03     242.016E-03    -112.564E-03     309.602E-03    -145.806E-03     258.403E-03    -112.250E-03     295.778E-03
            1948     12.8755E-03     32.6347E-03    -20.3173E+06     81.1501E+06     75.5486E+06     676.696E+03    -128.120E-03     240.349E-03    -112.229E-03     280.587E-03    -140.576E-03     252.802E-03    -111.940E-03     267.212E-03
            1949     12.0744E-03     32.3425E-03    -25.7597E+06     66.8064E+06     53.9360E+06     218.217E+03    -124.543E-03     236.361E-03    -111.818E-03     234.176E-03    -132.898E-03     244.704E-03    -111.607E-03     222.905E-03
            1950     11.2730E-03     32.1083E-03    -30.8231E+06     51.4359E+06     28.7834E+06     315.989E+03    -121.442E-03     232.817E-03    -111.375E-03     189.794E-03    -126.857E-03     238.222E-03    -111.261E-03     180.646E-03
            1951     10.4718E-03     31.9144E-03    -34.8047E+06     27.8307E+06     12.7044E+06     313.615E+03    -119.463E-03     230.438E-03    -110.974E-03     160.482E-03    -123.160E-03     234.073E-03    -110.901E-03     152.953E-03
            1952     9.66988E-03     31.7446E-03    -38.5520E+06    -15.2856E+06     4.21879E+06     88.0408E+03    -118.295E-03     228.925E-03    -110.631E-03     142.460E-03    -120.955E-03     231.382E-03    -110.532E-03     136.141E-03
            1953     8.86736E-03     31.5902E-03    -42.2546E+06    -62.2062E+06    -1.41231E+06     308.326E+03    -117.268E-03     227.565E-03    -110.297E-03     128.298E-03    -119.206E-03     229.137E-03    -110.153E-03     122.983E-03
            1954     8.06449E-03     31.4508E-03    -46.2318E+06    -94.7018E+06    -7.14775E+06     658.858E+03    -116.014E-03     225.956E-03    -109.942E-03     115.095E-03    -117.422E-03     226.884E-03    -109.774E-03     110.663E-03
            1955     7.26047E-03     31.3253E-03    -50.4121E+06    -121.328E+06    -13.6136E+06     639.452E+03    -114.764E-03     224.350E-03    -109.586E-03     102.612E-03    -115.779E-03     224.794E-03    -109.405E-03     98.9289E-03
            1956     6.45613E-03     31.2136E-03    -54.9094E+06    -146.326E+06    -19.9642E+06     573.501E+03    -113.559E-03     222.800E-03    -109.241E-03     90.6200E-03    -114.278E-03     222.862E-03    -109.049E-03     87.5772E-03
            1957     5.65106E-03     31.1147E-03    -59.5912E+06    -163.866E+06    -27.5187E+06     584.042E+03    -112.317E-03     221.217E-03    -108.900E-03     79.0258E-03    -112.817E-03     221.003E-03    -108.713E-03     76.5455E-03
            1958     4.84527E-03     31.0292E-03    -64.3637E+06    -180.116E+06    -35.7369E+06     416.893E+03    -111.137E-03     219.724E-03    -108.587E-03     67.6864E-03    -111.471E-03     219.294E-03    -108.411E-03     65.6930E-03
            1959     4.03882E-03     30.9563E-03    -69.1245E+06    -201.266E+06    -45.3603E+06     215.386E+03    -110.119E-03     218.432E-03    -108.314E-03     56.4460E-03    -110.319E-03     217.804E-03    -108.148E-03     54.8728E-03
            1960     3.23176E-03     30.8968E-03    -73.6806E+06    -216.701E+06    -55.6647E+06     201.802E+03    -109.239E-03     217.309E-03    -108.070E-03     45.3121E-03    -109.342E-03     216.542E-03    -107.927E-03     44.1122E-03
            1961     2.42417E-03     30.8499E-03    -77.7765E+06    -223.645E+06    -65.9648E+06     236.907E+03    -108.502E-03     216.365E-03    -107.863E-03     34.1687E-03    -108.541E-03     215.525E-03    -107.756E-03     33.3023E-03
            1962     1.61633E-03     30.8165E-03    -81.0851E+06    -230.016E+06    -75.7333E+06     79.1502E+03    -107.983E-03     215.697E-03    -107.714E-03     23.0303E-03    -107.977E-03     214.807E-03    -107.642E-03     22.4605E-03
            1963     808.170E-06     30.7958E-03    -83.1557E+06    -233.916E+06    -81.9032E+06    -4.28450E+03    -107.683E-03     215.335E-03    -107.652E-03     12.5846E-03    -107.651E-03     214.415E-03    -107.601E-03     12.2791E-03
            1964     15.2787E-03     32.5215E-03    -4.41330E+06     113.619E+06     89.6276E+06    -331.790E+03    -125.945E-03     239.000E-03    -113.055E-03     256.245E-03    -140.584E-03     253.767E-03    -112.765E-03     248.793E-03
            1965     14.4761E-03     32.1473E-03    -9.46917E+06     107.106E+06     89.3467E+06     339.778E+03    -129.995E-03     242.754E-03    -112.759E-03     323.846E-03    -149.880E-03     262.727E-03    -112.454E-03     311.642E-03
            1966     13.6780E-03     31.7814E-03    -14.1661E+06     94.3420E+06     86.2389E+06     794.207E+03    -129.967E-03     242.419E-03    -112.451E-03     309.468E-03    -146.283E-03     258.769E-03    -112.136E-03     295.585E-03
            1967     12.8769E-03     31.4435E-03    -19.6512E+06     81.6301E+06     75.8952E+06     475.017E+03    -128.458E-03     240.538E-03    -112.080E-03     279.804E-03    -140.874E-03     252.954E-03    -111.791E-03     266.401E-03
            1968     12.0762E-03     31.1511E-03    -25.8096E+06     66.7485E+06     54.1492E+06     552.783E+03    -125.356E-03     236.970E-03    -111.613E-03     232.836E-03    -133.677E-03     245.278E-03    -111.402E-03     221.507E-03
            1969     11.2767E-03     30.9176E-03    -30.4404E+06     52.2020E+06     29.7195E+06     587.029E+03    -122.005E-03     233.104E-03    -111.099E-03     188.038E-03    -127.376E-03     238.467E-03    -110.982E-03     178.885E-03
            1970     10.4756E-03     30.7263E-03    -34.2277E+06     28.4040E+06     13.1502E+06     481.272E+03    -119.808E-03     230.437E-03    -110.629E-03     158.864E-03    -123.472E-03     234.042E-03    -110.555E-03     151.346E-03
            1971     9.67361E-03     30.5572E-03    -38.0684E+06    -15.1274E+06     3.89818E+06     547.641E+03    -118.434E-03     228.658E-03    -110.224E-03     140.863E-03    -121.063E-03     231.087E-03    -110.128E-03     134.577E-03
            1972     8.87148E-03     30.4043E-03    -42.1064E+06    -62.5583E+06    -1.85634E+06     814.677E+03    -117.252E-03     227.092E-03    -109.840E-03     126.567E-03    -119.161E-03     228.634E-03    -109.697E-03     121.298E-03
            1973     8.06830E-03     30.2667E-03    -46.2289E+06    -94.6086E+06    -7.15862E+06     962.639E+03    -115.952E-03     225.387E-03    -109.434E-03     113.256E-03    -117.341E-03     226.295E-03    -109.266E-03     108.858E-03
            1974     7.26470E-03     30.1428E-03    -50.4438E+06    -120.854E+06    -13.6780E+06     993.307E+03    -114.587E-03     223.610E-03    -109.023E-03     100.812E-03    -115.585E-03     224.039E-03    -108.843E-03     97.1692E-03
            1975     6.46017E-03     30.0323E-03    -54.8629E+06    -146.021E+06    -20.2316E+06     933.614E+03    -113.215E-03     221.844E-03    -108.628E-03     88.9138E-03    -113.920E-03     221.893E-03    -108.438E-03     85.9136E-03
            1976     5.65480E-03     29.9353E-03    -59.4211E+06    -163.450E+06    -27.8918E+06     805.980E+03    -111.854E-03     220.101E-03    -108.247E-03     77.4936E-03    -112.342E-03     219.879E-03    -108.063E-03     75.0515E-03
            1977     4.84856E-03     29.8509E-03    -64.2075E+06    -179.618E+06    -36.0426E+06     580.126E+03    -110.587E-03     218.489E-03    -107.902E-03     66.3619E-03    -110.913E-03     218.054E-03    -107.729E-03     64.4022E-03
            1978     4.04161E-03     29.7796E-03    -69.0727E+06    -200.773E+06    -45.4850E+06     349.634E+03    -109.497E-03     217.099E-03    -107.602E-03     55.3128E-03    -109.692E-03     216.468E-03    -107.438E-03     53.7688E-03
            1979     3.23410E-03     29.7208E-03    -73.7577E+06    -216.611E+06    -56.0980E+06     163.384E+03    -108.551E-03     215.887E-03    -107.337E-03     44.3340E-03    -108.650E-03     215.118E-03    -107.196E-03     43.1553E-03
            1980     2.42608E-03     29.6752E-03    -77.8281E+06    -223.620E+06    -66.4397E+06     120.435E+03    -107.764E-03     214.882E-03    -107.118E-03     33.4282E-03    -107.801E-03     214.042E-03    -107.013E-03     32.5767E-03
            1981     1.61753E-03     29.6420E-03     -80.974E+06    -229.737E+06    -75.7316E+06     184.108E+03    -107.225E-03     214.195E-03    -106.970E-03     22.5368E-03    -107.218E-03     213.305E-03    -106.898E-03     21.9797E-03
            1982     808.775E-06     29.6221E-03    -82.8321E+06    -233.704E+06    -81.9466E+06    -23.3585E+03    -106.946E-03     213.850E-03    -106.904E-03     12.3253E-03    -106.913E-03     212.931E-03    -106.855E-03     12.0261E-03
            1983     15.2753E-03     31.3310E-03    -4.77667E+06     113.614E+06     89.4247E+06    -365.013E+03    -126.490E-03     239.520E-03    -113.029E-03     254.959E-03    -141.021E-03     254.177E-03    -112.740E-03     247.395E-03
            1984     14.4782E-03     30.9479E-03    -10.5149E+06     106.570E+06     88.5316E+06    -790.750E+03    -130.465E-03     243.168E-03    -112.703E-03     323.491E-03    -150.310E-03     263.097E-03    -112.399E-03     311.155E-03
            1985     13.6782E-03     30.5911E-03    -16.1328E+06     93.4973E+06     84.6114E+06    -700.486E+03    -130.652E-03     243.005E-03    -112.353E-03     308.994E-03    -146.924E-03     259.306E-03    -112.042E-03     294.996E-03
            1986     12.8779E-03     30.2492E-03    -21.7843E+06     80.9829E+06     74.6050E+06    -571.718E+03    -129.546E-03     241.465E-03    -111.919E-03     279.224E-03    -141.952E-03     253.865E-03    -111.631E-03     265.671E-03
            1987     12.0804E-03     29.9588E-03    -26.4229E+06     66.6130E+06     54.4650E+06    -358.486E+03    -126.158E-03     237.532E-03    -111.374E-03     230.632E-03    -134.421E-03     245.779E-03    -111.159E-03     219.243E-03
            1988     11.2797E-03     29.7276E-03    -30.8796E+06     51.5719E+06     29.3943E+06     212.938E+03    -122.386E-03     233.168E-03    -110.783E-03     186.046E-03    -127.702E-03     238.474E-03    -110.666E-03     176.902E-03
            1989     10.4792E-03     29.5371E-03    -35.0540E+06     28.1137E+06     12.3461E+06     833.680E+03    -120.103E-03     230.351E-03    -110.248E-03     156.838E-03    -123.731E-03     233.919E-03    -110.176E-03     149.341E-03
            1990     9.67829E-03     29.3705E-03    -39.0964E+06    -14.2796E+06     3.24584E+06     1.14887E+06    -118.601E-03     228.381E-03    -109.780E-03     138.918E-03    -121.203E-03     230.784E-03    -109.686E-03     132.669E-03
            1991     8.87576E-03     29.2191E-03    -43.0212E+06    -62.3623E+06    -2.95555E+06     1.05010E+06    -117.257E-03     226.591E-03    -109.335E-03     124.675E-03    -119.141E-03     228.110E-03    -109.197E-03     119.447E-03
            1992     8.07305E-03     29.0829E-03    -46.7801E+06    -94.6818E+06    -7.97133E+06     963.493E+03    -115.855E-03     224.728E-03    -108.874E-03     111.294E-03    -117.221E-03     225.616E-03    -108.708E-03     106.934E-03
            1993     7.26922E-03     28.9610E-03    -50.7996E+06    -120.462E+06    -14.1674E+06     1.12895E+06    -114.325E-03     222.734E-03    -108.409E-03     98.9262E-03    -115.306E-03     223.148E-03    -108.232E-03     95.3248E-03
            1994     6.46439E-03     28.8524E-03    -54.9151E+06    -145.631E+06    -20.6682E+06     1.15786E+06    -112.774E-03     220.746E-03    -107.972E-03     87.2039E-03    -113.462E-03     220.782E-03    -107.785E-03     84.2513E-03
            1995     5.65867E-03     28.7570E-03    -59.4204E+06    -162.843E+06    -28.6861E+06     1.06340E+06    -111.342E-03     218.895E-03    -107.553E-03     75.8911E-03    -111.819E-03     218.666E-03    -107.374E-03     73.4907E-03
            1996     4.85209E-03     28.6744E-03    -64.1360E+06    -178.908E+06    -36.7143E+06     813.963E+03    -110.022E-03     217.195E-03    -107.173E-03     64.8673E-03    -110.339E-03     216.757E-03    -107.005E-03     62.9430E-03
            1997     4.04474E-03     28.6042E-03    -68.9475E+06    -200.246E+06    -45.6888E+06     627.799E+03    -108.836E-03     215.681E-03    -106.845E-03     53.9908E-03    -109.025E-03     215.047E-03    -106.683E-03     52.4780E-03
            1998     3.23664E-03     28.5468E-03    -73.6067E+06    -216.175E+06    -56.1918E+06     425.007E+03    -107.826E-03     214.383E-03    -106.557E-03     43.2478E-03    -107.921E-03     213.612E-03    -106.418E-03     42.0949E-03
            1999     2.42792E-03     28.5019E-03    -77.8428E+06    -223.467E+06    -66.9184E+06     187.626E+03    -107.025E-03     213.339E-03    -106.315E-03     32.5938E-03    -107.059E-03     212.499E-03    -106.212E-03     31.7599E-03
            2000     1.61882E-03     28.4697E-03    -81.1436E+06    -229.734E+06    -76.1622E+06     187.405E+03    -106.478E-03     212.608E-03    -106.130E-03     21.9509E-03    -106.471E-03     211.718E-03    -106.060E-03     21.4047E-03
            2001     809.524E-06     28.4495E-03    -82.8170E+06    -233.279E+06    -81.8514E+06     233.315E+03    -106.109E-03     212.120E-03    -106.011E-03     12.0082E-03    -106.076E-03     211.203E-03    -105.962E-03     11.7190E-03
            2002     15.2790E-03     30.1350E-03    -4.75506E+06     114.475E+06     90.2091E+06     134.256E+03    -127.356E-03     240.410E-03    -113.054E-03     254.410E-03    -141.833E-03     255.015E-03    -112.762E-03     246.714E-03
            2003     14.4782E-03     29.7539E-03    -10.4854E+06     107.796E+06     89.0040E+06    -379.768E+03    -131.611E-03     244.279E-03    -112.668E-03     322.397E-03    -151.309E-03     264.065E-03    -112.364E-03     309.900E-03
            2004     13.6787E-03     29.3967E-03    -16.6641E+06     93.3694E+06     84.1293E+06    -1.01218E+06    -131.983E-03     244.217E-03    -112.234E-03     307.200E-03    -148.146E-03     260.408E-03    -111.924E-03     293.024E-03
            2005     12.8821E-03     29.0542E-03    -22.2468E+06     80.8236E+06     74.1372E+06    -1.43327E+06    -130.585E-03     242.287E-03    -111.702E-03     276.830E-03    -142.896E-03     254.592E-03    -111.417E-03     263.166E-03
            2006     12.0826E-03     28.7662E-03    -27.8247E+06     65.3869E+06     52.6797E+06    -1.29253E+06    -126.505E-03     237.581E-03    -111.076E-03     228.287E-03    -134.683E-03     245.740E-03    -110.867E-03     216.899E-03
            2007     11.2843E-03     28.5368E-03    -32.9536E+06     49.3320E+06     27.1395E+06    -251.292E+03    -122.820E-03     233.241E-03    -110.421E-03     183.647E-03    -128.083E-03     238.484E-03    -110.309E-03     174.499E-03
            2008     10.4841E-03     28.3488E-03    -37.0478E+06     27.7501E+06     10.6832E+06      812.39E+03    -120.271E-03     230.092E-03    -109.821E-03     154.612E-03    -123.858E-03     233.615E-03    -109.754E-03     147.148E-03
            2009     9.68241E-03     28.1835E-03    -40.5172E+06    -13.3511E+06     2.08546E+06     1.03016E+06    -118.683E-03     227.978E-03    -109.294E-03     136.816E-03    -121.255E-03     230.352E-03    -109.206E-03     130.604E-03
            2010     8.88090E-03     28.0344E-03    -43.8774E+06      -61.81E+06    -4.04558E+06     932.037E+03    -117.252E-03     226.042E-03    -108.790E-03     122.686E-03    -119.111E-03     227.538E-03    -108.657E-03     117.496E-03
            2011     8.07777E-03     27.9000E-03    -47.4987E+06    -94.5315E+06    -9.31338E+06     765.286E+03    -115.639E-03     223.913E-03    -108.274E-03     109.408E-03    -116.981E-03     224.778E-03    -108.115E-03     105.097E-03
            2012     7.27388E-03     27.7802E-03    -51.1232E+06    -120.457E+06    -14.8748E+06     789.169E+03    -113.985E-03     221.752E-03    -107.767E-03     97.0029E-03    -114.946E-03     222.147E-03    -107.593E-03     93.4433E-03
            2013     6.46889E-03     27.6738E-03    -55.1549E+06    -145.583E+06    -21.3474E+06     1.23048E+06    -112.358E-03     219.644E-03    -107.286E-03     85.3700E-03    -113.032E-03     219.667E-03    -107.101E-03     82.4600E-03
            2014     5.66277E-03     27.5801E-03    -59.5160E+06    -162.229E+06    -29.4575E+06     1.34304E+06    -110.814E-03     217.639E-03    -106.825E-03     74.2009E-03    -111.279E-03     217.402E-03    -106.651E-03     71.8440E-03
            2015     4.85585E-03     27.4991E-03    -64.1324E+06    -178.071E+06    -37.4296E+06     1.14891E+06    -109.413E-03     215.822E-03    -106.410E-03     63.3589E-03    -109.722E-03     215.380E-03    -106.246E-03     61.4731E-03
            2016     4.04796E-03     27.4307E-03    -68.7786E+06    -199.715E+06    -45.9994E+06     918.632E+03    -108.175E-03     214.225E-03    -106.050E-03     52.6733E-03    -108.357E-03     213.588E-03    -105.891E-03     51.1918E-03
            2017     3.23931E-03     27.3745E-03    -73.4417E+06    -215.599E+06    -55.8241E+06     862.175E+03    -107.112E-03     212.842E-03    -105.731E-03     42.1089E-03    -107.204E-03     212.070E-03    -105.591E-03     40.9834E-03
            2018     2.43009E-03     27.3307E-03    -77.9435E+06    -222.892E+06    -66.6282E+06     748.177E+03    -106.262E-03     211.712E-03    -105.451E-03     31.6872E-03    -106.296E-03     210.872E-03    -105.348E-03     30.8769E-03
            2019     1.62045E-03     27.2989E-03    -81.5557E+06    -229.357E+06    -76.6868E+06     413.269E+03    -105.634E-03     210.860E-03    -105.226E-03     21.3891E-03    -105.627E-03     209.972E-03    -105.158E-03     20.8583E-03
            2020     810.397E-06     27.2797E-03    -83.3120E+06    -232.895E+06    -82.4670E+06     52.4657E+03    -105.174E-03     210.277E-03    -105.104E-03     11.6293E-03    -105.142E-03     209.363E-03    -105.057E-03     11.3433E-03
            2021     15.2724E-03     28.9277E-03    -4.88396E+06     114.820E+06     90.0160E+06     560.238E+03    -127.868E-03     240.929E-03    -113.061E-03     252.935E-03    -142.135E-03     255.326E-03    -112.771E-03     245.124E-03
            2022     14.4788E-03     28.5613E-03    -10.6891E+06     108.769E+06     89.0044E+06     151.828E+03    -133.337E-03     245.934E-03    -112.597E-03     319.255E-03    -152.788E-03     265.476E-03    -112.294E-03     306.506E-03
            2023     13.6826E-03     28.1972E-03    -15.9456E+06     94.5928E+06     85.1274E+06    -993.898E+03    -133.445E-03     245.495E-03    -112.050E-03     305.273E-03    -149.547E-03     261.629E-03    -111.738E-03     290.890E-03
            2024     12.8854E-03     27.8615E-03    -21.9568E+06     80.7847E+06     73.9266E+06    -1.14750E+06    -131.051E-03     242.479E-03    -111.428E-03     274.625E-03    -143.255E-03     254.678E-03    -111.144E-03     260.953E-03
            2025     12.0877E-03     27.5731E-03    -28.7624E+06     64.4700E+06     51.0061E+06    -504.795E+03    -126.908E-03     237.644E-03    -110.736E-03     226.303E-03    -134.994E-03     245.709E-03    -110.533E-03     214.943E-03
            2026     11.2884E-03     27.3459E-03    -34.0719E+06     48.3258E+06     25.7685E+06    -45.4092E+03    -123.060E-03     233.084E-03    -110.024E-03     181.298E-03    -128.250E-03     238.249E-03    -109.915E-03     172.196E-03
            2027     10.4885E-03     27.1605E-03    -37.7651E+06     27.4696E+06     9.55498E+06     166.127E+03    -120.489E-03     229.852E-03    -109.363E-03     152.444E-03    -124.025E-03     233.325E-03    -109.301E-03     145.012E-03
            2028     9.68801E-03     26.9973E-03    -40.8914E+06    -13.4045E+06     832.377E+03     442.223E+03    -118.732E-03     227.507E-03    -108.775E-03     134.754E-03    -121.266E-03     229.846E-03    -108.692E-03     128.577E-03
            2029     8.88567E-03     26.8502E-03    -44.1458E+06    -61.7423E+06    -5.03913E+06     659.958E+03    -117.112E-03     225.330E-03    -108.218E-03     120.537E-03    -118.939E-03     226.795E-03    -108.089E-03     115.393E-03
            2030     8.08289E-03     26.7182E-03    -47.5818E+06    -93.9037E+06    -10.2036E+06     661.939E+03    -115.361E-03     223.015E-03    -107.654E-03     107.330E-03    -116.676E-03     223.857E-03    -107.500E-03     103.072E-03
            2031     7.27865E-03     26.6005E-03    -51.4849E+06    -120.964E+06    -15.9834E+06     639.123E+03    -113.641E-03     220.743E-03    -107.103E-03     94.9829E-03    -114.580E-03     221.117E-03    -106.933E-03     91.4703E-03
            2032     6.47340E-03     26.4963E-03    -55.5269E+06    -145.969E+06    -22.0094E+06     1.11991E+06    -111.935E-03     218.512E-03    -106.578E-03     83.3827E-03    -112.593E-03     218.520E-03    -106.396E-03     80.5115E-03
            2033     5.66715E-03     26.4047E-03    -59.7456E+06    -161.726E+06    -30.2244E+06     1.54310E+06    -110.250E-03     216.324E-03    -106.074E-03     72.4490E-03    -110.703E-03     216.079E-03    -105.904E-03     70.1354E-03
            2034     4.85956E-03     26.3256E-03    -64.1637E+06    -177.164E+06    -38.1082E+06     1.40983E+06    -108.762E-03     214.388E-03    -105.625E-03     61.8239E-03    -109.064E-03     213.943E-03    -105.466E-03     59.9761E-03
            2035     4.05124E-03     26.2586E-03    -68.7937E+06    -199.083E+06    -46.3996E+06     1.23921E+06    -107.505E-03     212.739E-03    -105.234E-03     51.3063E-03    -107.683E-03     212.100E-03    -105.078E-03     49.8555E-03
            2036     3.24216E-03     26.2041E-03    -73.4747E+06    -215.315E+06    -56.0027E+06     1.30072E+06    -106.398E-03     211.276E-03    -104.878E-03     41.0028E-03    -106.487E-03     210.502E-03    -104.739E-03     39.9044E-03
            2037     2.43233E-03     26.1612E-03    -77.7513E+06    -222.069E+06    -66.3905E+06     1.31359E+06    -105.438E-03     210.004E-03    -104.566E-03     30.8635E-03    -105.471E-03     209.165E-03    -104.463E-03     30.0783E-03
            2038     1.62181E-03     26.1306E-03    -81.1757E+06    -228.125E+06    -76.1168E+06     906.939E+03    -104.716E-03     209.050E-03    -104.334E-03     20.8399E-03    -104.709E-03     208.166E-03    -104.266E-03     20.3280E-03
            2039     810.914E-06     26.1116E-03    -83.4590E+06    -232.101E+06    -82.4535E+06     304.594E+03    -104.376E-03     208.496E-03    -104.120E-03     11.2675E-03    -104.346E-03     207.585E-03    -104.075E-03     10.9917E-03
            2040     15.2802E-03     27.7380E-03    -5.22428E+06     114.441E+06     89.6949E+06     1.04684E+06    -129.913E-03     242.913E-03    -113.000E-03     251.429E-03    -144.026E-03     257.153E-03    -112.710E-03     243.343E-03
            2041     14.4804E-03     27.3566E-03    -10.3475E+06     110.509E+06     89.9521E+06     203.473E+03    -134.312E-03     246.754E-03    -112.441E-03     316.889E-03    -153.605E-03     266.141E-03    -112.137E-03     303.924E-03
            2042     13.6859E-03     27.0029E-03    -16.0332E+06     95.9534E+06     85.5623E+06    -964.583E+03    -133.961E-03     245.785E-03    -111.824E-03     303.023E-03    -149.900E-03     261.760E-03    -111.512E-03     288.589E-03
            2043     12.8886E-03     26.6648E-03    -23.0014E+06     79.7669E+06     73.4671E+06    -731.972E+03    -131.657E-03     242.798E-03    -111.141E-03     272.939E-03    -143.726E-03     254.856E-03    -110.856E-03     259.274E-03
            2044     12.0917E-03     26.3805E-03    -28.7570E+06     64.0464E+06     51.4647E+06     158.206E+03    -127.364E-03     237.751E-03    -110.387E-03     224.081E-03    -135.350E-03     245.713E-03    -110.181E-03     212.760E-03
            2045     11.2932E-03     26.1554E-03    -33.3923E+06     48.6688E+06     25.8231E+06     273.165E+03    -123.226E-03     232.837E-03    -109.612E-03     179.162E-03    -128.332E-03     237.923E-03    -109.505E-03     170.130E-03
            2046     10.4938E-03     25.9720E-03    -37.4912E+06      27.121E+06     8.59858E+06     135.024E+03    -120.651E-03     229.544E-03    -108.893E-03     150.336E-03    -124.134E-03     232.965E-03    -108.835E-03     142.948E-03
            2047     9.69274E-03     25.8117E-03    -41.1778E+06    -13.6001E+06    -567.513E+03     259.172E+03    -118.844E-03     227.086E-03    -108.242E-03     132.691E-03    -121.341E-03     229.391E-03    -108.166E-03     126.551E-03
            2048     8.89124E-03     25.6666E-03    -44.4597E+06    -61.4409E+06    -6.15261E+06     357.966E+03    -116.999E-03     224.625E-03    -107.627E-03     118.260E-03    -118.794E-03     226.062E-03    -107.504E-03     113.161E-03
            2049     8.08789E-03     25.5375E-03    -48.1326E+06    -93.7182E+06    -11.3595E+06     620.551E+03    -115.083E-03     222.095E-03    -107.012E-03     105.047E-03    -116.372E-03     222.914E-03    -106.863E-03     100.841E-03
            2050     7.28363E-03     25.4218E-03    -51.9974E+06    -121.017E+06    -17.0040E+06     731.395E+03    -113.232E-03     219.649E-03    -106.417E-03     92.8140E-03    -114.151E-03     220.003E-03    -106.251E-03     89.3539E-03
            2051     6.47824E-03     25.3201E-03    -56.0093E+06    -146.579E+06    -22.6470E+06     963.765E+03    -111.414E-03     217.270E-03    -105.856E-03     81.3410E-03    -112.057E-03     217.260E-03    -105.676E-03     78.5137E-03
            2052     5.67131E-03     25.2308E-03    -60.0438E+06    -161.562E+06    -30.8330E+06     1.38851E+06    -109.694E-03     215.008E-03    -105.314E-03     70.6100E-03    -110.137E-03     214.753E-03    -105.147E-03     68.3333E-03
            2053     4.86355E-03     25.1537E-03    -64.0244E+06    -176.487E+06    -39.1484E+06     1.52684E+06    -108.115E-03     212.941E-03    -104.826E-03     60.1787E-03    -108.407E-03     212.492E-03    -104.673E-03     58.3674E-03
            2054     4.05461E-03     25.0884E-03    -68.3808E+06    -198.603E+06    -47.1960E+06     1.72959E+06    -106.758E-03     211.167E-03    -104.409E-03     49.9443E-03    -106.927E-03     210.525E-03    -104.258E-03     48.5306E-03
            2055     3.24488E-03     25.0353E-03    -73.0620E+06    -214.713E+06    -56.1811E+06     1.79290E+06    -105.607E-03     209.643E-03    -104.036E-03     39.8964E-03    -105.691E-03     208.868E-03    -103.900E-03     38.8282E-03
            2056     2.43438E-03     24.9939E-03    -77.2783E+06    -220.982E+06    -65.7124E+06     1.47184E+06    -104.608E-03     208.320E-03    -103.712E-03     29.9865E-03    -104.640E-03     207.483E-03    -103.608E-03     29.2205E-03
            2057     1.62330E-03     24.9642E-03    -80.5852E+06    -226.565E+06    -74.2965E+06     1.02185E+06    -103.853E-03     207.328E-03    -103.475E-03     20.2409E-03    -103.847E-03     206.447E-03    -103.401E-03     19.7413E-03
            2058     811.803E-06     24.9458E-03    -83.0326E+06    -230.839E+06    -81.0490E+06     606.438E+03    -103.446E-03     206.764E-03    -103.318E-03     11.1582E-03    -103.417E-03     205.857E-03    -103.268E-03     10.8941E-03
            2059     15.2759E-03     26.5313E-03    -5.59818E+06     114.515E+06     90.0774E+06     668.274E+03    -132.084E-03     245.003E-03    -112.919E-03     249.898E-03    -146.124E-03     259.168E-03    -112.626E-03     241.482E-03
            2060     14.4860E-03     26.1601E-03    -9.50429E+06     112.074E+06     91.2063E+06     94.4268E+03    -135.259E-03     247.523E-03    -112.264E-03     315.343E-03    -154.353E-03     266.717E-03    -111.956E-03     302.238E-03
            2061     13.6882E-03     25.8047E-03    -16.3207E+06     96.7549E+06     85.1894E+06     912.968E+03    -134.471E-03     246.056E-03    -111.584E-03     301.620E-03    -150.197E-03     261.820E-03    -111.275E-03     287.216E-03
            2062     12.8932E-03     25.4694E-03    -23.4676E+06     80.3651E+06     72.9648E+06     323.823E+03    -132.275E-03     243.120E-03    -110.845E-03     270.832E-03    -144.211E-03     255.047E-03    -110.562E-03     257.173E-03
            2063     12.0961E-03     25.1872E-03    -29.0477E+06     63.8567E+06     52.4090E+06    -578.541E+03    -127.680E-03     237.715E-03    -110.035E-03     221.683E-03    -135.563E-03     245.569E-03    -109.823E-03     210.397E-03
            2064     11.2981E-03     24.9648E-03    -33.5410E+06     48.3845E+06     26.6717E+06     78.5171E+03    -123.557E-03     232.754E-03    -109.196E-03     176.723E-03    -128.588E-03     237.760E-03    -109.085E-03     167.732E-03
            2065     10.4982E-03     24.7844E-03    -37.6663E+06     26.9819E+06     7.68834E+06     591.221E+03    -120.789E-03     229.195E-03    -108.406E-03     147.804E-03    -124.213E-03     232.559E-03    -108.352E-03     140.473E-03
            2066     9.69818E-03     24.6255E-03    -41.1481E+06    -13.0376E+06    -1.39181E+06     409.480E+03    -118.773E-03     226.471E-03    -107.698E-03     130.074E-03    -121.225E-03     228.735E-03    -107.626E-03     123.989E-03
            2067     8.89631E-03     24.4842E-03    -44.7810E+06    -61.4021E+06    -6.99864E+06     443.193E+03    -116.857E-03     223.889E-03    -107.031E-03     115.904E-03    -118.620E-03     225.294E-03    -106.912E-03     110.857E-03
            2068     8.09339E-03     24.3573E-03    -48.3727E+06    -93.5738E+06    -12.0041E+06     693.144E+03    -114.837E-03     221.202E-03    -106.365E-03     102.810E-03    -116.100E-03     221.996E-03    -106.219E-03     98.6551E-03
            2069     7.28888E-03     24.2447E-03    -52.0852E+06    -120.624E+06    -17.4605E+06     780.277E+03    -112.767E-03     218.495E-03    -105.728E-03     90.6810E-03    -113.664E-03     218.829E-03    -105.564E-03     87.2766E-03
            2070     6.48271E-03     24.1453E-03    -56.0692E+06    -146.898E+06    -23.0573E+06     915.548E+03    -110.886E-03     216.020E-03    -105.133E-03     79.3526E-03    -111.511E-03     215.991E-03    -104.954E-03     76.5760E-03
            2071     5.67580E-03     24.0584E-03    -60.1221E+06    -161.590E+06    -31.2969E+06     1.18457E+06    -109.119E-03     213.675E-03    -104.556E-03     68.7214E-03    -109.549E-03     213.408E-03    -104.391E-03     66.4832E-03
            2072     4.86739E-03     23.9833E-03    -64.1483E+06    -176.419E+06    -40.0674E+06     1.49826E+06    -107.445E-03     211.479E-03    -104.034E-03     58.5425E-03    -107.726E-03     211.023E-03    -103.886E-03     56.7675E-03
            2073     4.05793E-03     23.9202E-03    -68.1021E+06    -198.584E+06    -48.1835E+06     1.98313E+06    -105.994E-03     209.588E-03    -103.595E-03     48.5594E-03    -106.154E-03     208.942E-03    -103.449E-03     47.1808E-03
            2074     3.24751E-03     23.8684E-03    -72.1228E+06    -213.512E+06    -55.5482E+06     2.12689E+06    -104.763E-03     207.983E-03    -103.220E-03     38.7306E-03    -104.841E-03     207.208E-03    -103.084E-03     37.6918E-03
            2075     2.43640E-03     23.8285E-03    -76.2488E+06    -219.232E+06    -63.9927E+06     1.41410E+06    -103.767E-03     206.671E-03    -102.904E-03     29.1097E-03    -103.796E-03     205.837E-03    -102.796E-03     28.3597E-03
            2076     1.62459E-03     23.7997E-03    -79.7512E+06    -225.296E+06    -73.3388E+06     670.169E+03    -103.064E-03     205.722E-03    -102.659E-03     19.7082E-03    -103.056E-03     204.844E-03    -102.583E-03     19.2153E-03
            2077     812.319E-06     23.7821E-03    -81.9292E+06    -229.574E+06    -80.2354E+06     406.311E+03    -102.614E-03     205.110E-03    -102.496E-03     10.7012E-03    -102.583E-03     204.206E-03    -102.446E-03     10.4406E-03
            2078     15.2820E-03     25.3241E-03    -3.62627E+06     114.127E+06     90.8453E+06     827.567E+03    -132.799E-03     245.627E-03    -112.828E-03     247.821E-03    -146.567E-03     259.524E-03    -112.534E-03     239.232E-03
            2079     14.4855E-03     24.9613E-03    -9.95234E+06     109.666E+06     89.1710E+06     912.688E+03    -136.146E-03     248.251E-03    -112.104E-03     312.652E-03    -154.949E-03     267.149E-03    -111.803E-03     299.415E-03
            2080     13.6922E-03     24.6054E-03    -15.8328E+06     96.4626E+06     84.7765E+06     1.93550E+06    -135.428E-03     246.784E-03    -111.356E-03     300.050E-03    -151.016E-03     262.412E-03    -111.049E-03     285.581E-03
            2081     12.8965E-03     24.2735E-03    -21.0845E+06     82.9439E+06     74.0683E+06     1.74489E+06    -132.725E-03     243.275E-03    -110.550E-03     268.968E-03    -144.535E-03     255.090E-03    -110.269E-03     255.340E-03
            2082     12.1004E-03     23.9932E-03    -27.9469E+06     65.3172E+06     50.4110E+06     980.205E+03    -128.336E-03     237.996E-03    -109.660E-03     219.213E-03    -136.114E-03     245.760E-03    -109.462E-03     207.950E-03
            2083     11.3027E-03     23.7745E-03    -34.1393E+06     47.2342E+06     23.5063E+06     408.160E+03    -123.913E-03     232.658E-03    -108.745E-03     173.620E-03    -128.854E-03     237.578E-03    -108.647E-03     164.673E-03
            2084     10.5045E-03     23.5960E-03    -37.8778E+06     27.1986E+06     6.98415E+06     667.109E+03    -120.758E-03     228.662E-03    -107.904E-03     145.302E-03    -124.120E-03     231.966E-03    -107.854E-03     138.040E-03
            2085     9.70362E-03     23.4414E-03    -41.4019E+06    -12.1957E+06    -1.96041E+06     676.662E+03    -118.567E-03     225.720E-03    -107.153E-03     127.885E-03    -120.976E-03     227.945E-03    -107.085E-03     121.871E-03
            2086     8.90160E-03     23.3019E-03    -44.7767E+06    -61.1346E+06    -7.35423E+06     527.382E+03    -116.611E-03     223.059E-03    -106.449E-03     113.746E-03    -118.337E-03     224.431E-03    -106.332E-03     108.764E-03
            2087     8.09841E-03     23.1782E-03    -48.0451E+06    -93.4994E+06    -12.4881E+06     633.011E+03    -114.530E-03     220.271E-03    -105.741E-03     100.618E-03    -115.763E-03     221.038E-03    -105.598E-03     96.5181E-03
            2088     7.29354E-03     23.0687E-03    -51.6634E+06    -120.356E+06    -17.9608E+06     1.02583E+06    -112.432E-03     217.491E-03    -105.059E-03     88.5469E-03    -113.304E-03     217.804E-03    -104.900E-03     85.1978E-03
            2089     6.48759E-03     22.9717E-03    -55.8560E+06    -146.738E+06    -23.3804E+06     1.25832E+06    -110.402E-03     214.826E-03    -104.425E-03     77.3079E-03    -111.007E-03     214.781E-03    -104.248E-03     74.5858E-03
            2090     5.67990E-03     22.8874E-03    -60.2916E+06    -161.732E+06    -31.5260E+06     1.33343E+06    -108.490E-03     212.308E-03    -103.818E-03     66.8264E-03    -108.907E-03     212.028E-03    -103.653E-03     64.6349E-03
            2091     4.87109E-03     22.8148E-03    -64.5926E+06    -176.586E+06    -39.5198E+06     1.54777E+06    -106.772E-03     210.048E-03    -103.276E-03     56.8399E-03    -107.047E-03     209.582E-03    -103.124E-03     55.1020E-03
            2092     4.06114E-03     22.7535E-03    -68.8948E+06    -198.919E+06    -48.2009E+06     2.05543E+06    -105.252E-03     208.067E-03    -102.815E-03     47.0844E-03    -105.409E-03     207.413E-03    -102.668E-03     45.7365E-03
            2093     3.25016E-03     22.7037E-03    -72.9578E+06    -211.736E+06    -57.5494E+06     2.02515E+06    -103.946E-03     206.366E-03    -102.420E-03     37.5553E-03    -104.024E-03     205.600E-03    -102.295E-03     36.5398E-03
            2094     2.43820E-03     22.6648E-03    -76.4750E+06    -217.039E+06    -65.7425E+06     900.523E+03    -102.972E-03     205.073E-03    -102.102E-03     28.1800E-03    -103.000E-03     204.251E-03    -102.005E-03     27.4416E-03
            2095     1.62578E-03     22.6372E-03    -79.3790E+06    -224.716E+06    -73.4696E+06     354.596E+03    -102.299E-03     204.151E-03    -101.852E-03     18.9442E-03    -102.289E-03     203.274E-03    -101.778E-03     18.4586E-03
            2096     813.194E-06     22.6198E-03    -81.6169E+06    -228.709E+06    -79.9208E+06     235.129E+03    -101.966E-03     203.474E-03    -101.508E-03     10.2440E-03    -101.934E-03     202.573E-03    -101.458E-03     9.98570E-03
            2097     15.2803E-03     24.1240E-03    -3.81199E+06     112.774E+06     90.1362E+06     1.04909E+06    -134.513E-03     247.283E-03    -112.771E-03     246.859E-03    -148.087E-03     260.983E-03    -112.478E-03     238.014E-03
            2098     14.4887E-03     23.7563E-03    -8.80284E+06     109.698E+06     90.0104E+06     2.44461E+06    -137.075E-03     249.046E-03    -111.972E-03     310.419E-03    -155.625E-03     267.694E-03    -111.668E-03     297.071E-03
            2099     13.6953E-03     23.4075E-03    -14.1215E+06     97.2358E+06     85.8229E+06     1.73030E+06    -136.195E-03     247.350E-03    -111.155E-03     298.200E-03    -151.609E-03     262.811E-03    -110.847E-03     283.670E-03
            2100     12.9000E-03     23.0769E-03    -20.3674E+06     83.1290E+06     74.8248E+06     2.23899E+06    -133.786E-03     244.059E-03    -110.273E-03     267.151E-03    -145.458E-03     255.736E-03    -109.989E-03     253.489E-03
            2101     12.1048E-03     22.7981E-03    -26.2643E+06     66.5014E+06     52.1831E+06     3.15522E+06    -128.900E-03     238.200E-03    -109.300E-03     216.091E-03    -136.542E-03     245.834E-03    -109.098E-03     204.893E-03
            2102     11.3088E-03     22.5838E-03    -31.6650E+06     48.9375E+06     24.6629E+06     2.94479E+06    -123.896E-03     232.218E-03    -108.322E-03     171.108E-03    -128.742E-03     237.053E-03    -108.223E-03     162.274E-03
            2103     10.5087E-03     22.4094E-03    -36.9652E+06     27.9085E+06     6.42942E+06     1.89005E+06    -120.689E-03     228.126E-03    -107.437E-03     143.519E-03    -123.990E-03     231.376E-03    -107.392E-03     136.345E-03
            2104     9.70828E-03     22.2569E-03    -40.6457E+06    -10.8697E+06    -2.12388E+06     1.00614E+06    -118.542E-03     225.188E-03    -106.646E-03     125.947E-03    -120.907E-03     227.376E-03    -106.582E-03     119.997E-03
            2105     8.90666E-03     22.1208E-03    -43.9678E+06    -60.6667E+06    -7.52792E+06     690.796E+03    -116.466E-03     222.361E-03    -105.895E-03     111.449E-03    -118.152E-03     223.697E-03    -105.781E-03     106.526E-03
            2106     8.10298E-03     22.0002E-03    -47.6497E+06    -93.6711E+06    -13.0312E+06     784.290E+03    -114.263E-03     219.405E-03    -105.142E-03     98.1485E-03    -115.462E-03     220.141E-03    -105.003E-03     94.1070E-03
            2107     7.29836E-03     21.8931E-03    -51.4145E+06    -120.672E+06    -18.6218E+06     1.32977E+06    -112.084E-03     216.500E-03    -104.416E-03     86.0852E-03    -112.929E-03     216.789E-03    -104.260E-03     82.7917E-03
            2108     6.49188E-03     21.7997E-03    -55.7213E+06    -146.553E+06    -23.4665E+06     1.93370E+06    -109.928E-03     213.673E-03    -103.745E-03     75.0757E-03    -110.515E-03     213.609E-03    -103.569E-03     72.4114E-03
            2109     5.68397E-03     21.7178E-03    -60.1960E+06    -161.225E+06    -30.9714E+06     1.80972E+06    -107.922E-03     211.030E-03    -103.108E-03     64.7784E-03    -108.326E-03     210.737E-03    -102.941E-03     62.6386E-03
            2110     4.87472E-03     21.6476E-03    -64.6745E+06    -176.832E+06    -39.4195E+06     1.92420E+06    -106.122E-03     208.660E-03    -102.538E-03     54.9323E-03    -106.387E-03     208.183E-03    -102.385E-03     53.2375E-03
            2111     4.06416E-03     21.5886E-03    -69.2510E+06    -198.888E+06    -48.4297E+06     2.51079E+06    -104.544E-03     206.598E-03    -102.054E-03     45.3770E-03    -104.696E-03     205.939E-03    -101.907E-03     44.0670E-03
            2112     3.25254E-03     21.5406E-03    -73.5237E+06    -209.288E+06    -58.7018E+06     1.97573E+06    -103.227E-03     204.857E-03    -101.630E-03     36.1512E-03    -103.305E-03     204.101E-03    -101.513E-03     35.1605E-03
            2113     2.44021E-03     21.5032E-03    -77.0382E+06    -214.929E+06    -67.5865E+06     631.998E+03    -102.229E-03     203.512E-03    -101.283E-03     27.1357E-03    -102.258E-03     202.701E-03    -101.197E-03     26.4132E-03
            2114     1.62736E-03     21.4760E-03    -80.0146E+06    -224.827E+06    -74.4393E+06    -47.5567E+03    -101.468E-03     202.494E-03    -101.027E-03     18.1389E-03    -101.458E-03     201.618E-03    -100.957E-03     17.6601E-03
            2115     813.633E-06     21.4603E-03    -81.9983E+06    -228.196E+06    -80.1890E+06     49.9355E+03    -101.035E-03     201.826E-03    -100.790E-03     10.0240E-03    -101.006E-03     200.928E-03    -100.741E-03     9.77015E-03
            2116     15.2815E-03     22.9128E-03    -4.65022E+06     111.221E+06     88.9713E+06    -176.020E+03    -135.933E-03     248.706E-03    -112.773E-03     244.202E-03    -149.332E-03     262.226E-03    -112.483E-03     235.141E-03
            2117     14.4909E-03     22.5545E-03    -8.30985E+06     109.784E+06     90.6522E+06     1.40568E+06    -138.294E-03     250.193E-03    -111.899E-03     308.565E-03    -156.572E-03     268.569E-03    -111.592E-03     295.101E-03
            2118     13.6960E-03     22.2077E-03    -14.4326E+06     97.0497E+06     85.8120E+06     2.43252E+06    -137.740E-03     248.732E-03    -110.992E-03     296.775E-03    -152.972E-03     264.009E-03    -110.683E-03     282.121E-03
            2119     12.9038E-03     21.8765E-03    -21.0103E+06     82.8547E+06     75.0199E+06     2.88865E+06    -134.780E-03     244.793E-03    -110.014E-03     264.482E-03    -146.309E-03     256.325E-03    -109.728E-03     250.781E-03
            2120     12.1100E-03     21.6045E-03    -26.5366E+06     65.9515E+06     54.4802E+06     2.97566E+06    -128.918E-03     237.906E-03    -108.987E-03     213.676E-03    -136.429E-03     245.399E-03    -108.772E-03     202.577E-03
            2121     11.3114E-03     21.3933E-03    -30.7105E+06     49.4469E+06     28.8814E+06     3.93694E+06    -124.009E-03     231.984E-03    -107.976E-03     168.654E-03    -128.767E-03     236.726E-03    -107.858E-03     159.906E-03
            2122     10.5133E-03     21.2226E-03    -34.5599E+06     31.0788E+06     9.24800E+06     3.97635E+06    -120.878E-03     227.905E-03    -107.027E-03     140.821E-03    -124.112E-03     231.100E-03    -106.976E-03     133.728E-03
            2123     9.71301E-03     21.0726E-03    -39.2018E+06    -8.69481E+06    -2.15666E+06     2.40315E+06    -118.593E-03     224.761E-03    -106.168E-03     123.358E-03    -120.903E-03     226.907E-03    -106.109E-03     117.484E-03
            2124     8.91101E-03     20.9404E-03    -43.6011E+06    -60.4250E+06    -7.98959E+06     1.69405E+06    -116.448E-03     221.812E-03    -105.363E-03     108.656E-03    -118.092E-03     223.109E-03    -105.252E-03     103.798E-03
            2125     8.10809E-03     20.8224E-03    -47.9901E+06    -93.0393E+06    -13.3912E+06     1.76535E+06    -114.080E-03     218.635E-03    -104.556E-03     95.3336E-03    -115.246E-03     219.340E-03    -104.418E-03     91.3651E-03
            2126     7.30283E-03     20.7194E-03    -52.6846E+06    -121.720E+06    -19.7232E+06     2.05635E+06    -111.711E-03     215.494E-03    -103.783E-03     83.3084E-03    -112.531E-03     215.752E-03    -103.629E-03     80.0837E-03
            2127     6.49611E-03     20.6284E-03    -56.9158E+06    -145.594E+06    -24.6961E+06     2.14644E+06    -109.509E-03     212.573E-03    -103.065E-03     72.3086E-03    -110.078E-03     212.495E-03    -102.894E-03     69.7011E-03
            2128     5.68797E-03     20.5498E-03    -60.7761E+06    -160.222E+06    -31.6285E+06     1.58361E+06    -107.414E-03     209.800E-03    -102.386E-03     62.1606E-03    -107.804E-03     209.497E-03    -102.224E-03     60.0679E-03
            2129     4.87821E-03     20.4820E-03    -64.5912E+06    -177.966E+06    -40.4708E+06     2.23821E+06    -105.515E-03     207.293E-03    -101.778E-03     52.5231E-03    -105.764E-03     206.798E-03    -101.629E-03     50.8772E-03
            2130     4.06730E-03     20.4254E-03    -68.5186E+06    -197.888E+06    -48.7237E+06     2.87048E+06    -103.903E-03     205.159E-03    -101.256E-03     43.2193E-03    -104.043E-03     204.495E-03    -101.113E-03     41.9513E-03
            2131     3.25526E-03     20.3792E-03    -72.4311E+06    -206.794E+06    -56.3084E+06     2.08286E+06    -102.528E-03     203.329E-03    -100.801E-03     34.3462E-03    -102.602E-03     202.576E-03    -100.678E-03     33.3868E-03
            2132     2.44231E-03     20.3430E-03    -76.3019E+06    -213.050E+06    -66.2082E+06     1.10112E+06    -101.372E-03     201.797E-03    -100.425E-03     25.7479E-03    -101.399E-03     200.988E-03    -100.336E-03     25.0549E-03
            2133     1.62845E-03     20.3175E-03    -79.6589E+06    -224.356E+06    -75.3012E+06     375.545E+03    -100.600E-03     200.755E-03    -100.155E-03     17.2145E-03    -100.587E-03     199.880E-03    -100.090E-03     16.7574E-03
            2134     814.462E-06     20.3018E-03    -82.0497E+06    -227.898E+06    -80.9768E+06     117.344E+03    -100.127E-03     200.081E-03    -99.9542E-03     9.19818E-03    -100.096E-03     199.186E-03    -99.9097E-03     8.95619E-03
            2135     15.2805E-03     21.7014E-03    -4.22702E+06     110.534E+06     88.6587E+06    -569.071E+03    -136.370E-03     249.175E-03    -112.804E-03     242.486E-03    -149.493E-03     262.417E-03    -112.515E-03     233.306E-03
            2136     14.4881E-03     21.3510E-03    -11.1540E+06     106.312E+06     86.8423E+06     335.294E+03    -140.083E-03     251.934E-03    -111.851E-03     305.259E-03    -158.042E-03     269.978E-03    -111.554E-03     291.529E-03
            2137     13.6994E-03     21.0015E-03    -16.2551E+06     95.3543E+06     83.9550E+06     1.55357E+06    -139.165E-03     250.000E-03    -110.835E-03     293.264E-03    -154.181E-03     265.053E-03    -110.530E-03     278.469E-03
            2138     12.9077E-03     20.6789E-03    -21.0050E+06     82.1513E+06     75.1537E+06     2.45837E+06    -134.823E-03     244.611E-03    -109.788E-03     261.458E-03    -146.135E-03     255.922E-03    -109.501E-03     247.869E-03
            2139     12.1110E-03     20.4091E-03    -26.4619E+06     65.6078E+06     54.2637E+06     3.27907E+06    -129.241E-03     237.957E-03    -108.716E-03     210.612E-03    -136.604E-03     245.302E-03    -108.502E-03     199.586E-03
            2140     11.3163E-03     20.2027E-03    -31.7335E+06     48.4272E+06     28.1213E+06     3.55267E+06    -124.477E-03     232.117E-03    -107.640E-03     165.168E-03    -129.133E-03     236.751E-03    -107.524E-03     156.458E-03
            2141     10.5176E-03     20.0352E-03    -35.8239E+06     32.1729E+06     8.97060E+06     4.31289E+06    -121.166E-03     227.787E-03    -106.621E-03     137.721E-03    -124.335E-03     230.917E-03    -106.571E-03     130.684E-03
            2142     9.71730E-03     19.8896E-03    -39.6390E+06    -5.52457E+06    -2.29592E+06     4.34011E+06    -118.780E-03     224.470E-03    -105.691E-03     120.297E-03    -121.037E-03     226.574E-03    -105.637E-03     114.505E-03
            2143     8.91603E-03     19.7593E-03    -44.0598E+06    -59.3162E+06    -8.46583E+06     3.43530E+06    -116.474E-03     221.294E-03    -104.820E-03     105.231E-03    -118.066E-03     222.544E-03    -104.713E-03     100.467E-03
            2144     8.11249E-03     19.6463E-03    -48.4690E+06    -92.5044E+06    -13.9892E+06     3.18311E+06    -113.989E-03     217.935E-03    -103.946E-03     91.6605E-03    -115.111E-03     218.598E-03    -103.812E-03     87.7794E-03
            2145     7.30751E-03     19.5458E-03    -52.7320E+06    -121.362E+06    -20.0123E+06     3.27022E+06    -111.556E-03     214.660E-03    -103.105E-03     79.5637E-03    -112.338E-03     214.883E-03    -102.952E-03     76.4231E-03
            2146     6.50090E-03     19.4588E-03    -57.0545E+06    -143.308E+06    -25.7553E+06     2.43295E+06    -109.174E-03     211.483E-03    -102.309E-03     68.5339E-03    -109.715E-03     211.387E-03    -102.147E-03     65.9981E-03
            2147     5.69230E-03     19.3828E-03    -61.5364E+06    -159.518E+06    -32.6849E+06     1.54196E+06    -106.929E-03     208.496E-03    -101.567E-03     58.5408E-03    -107.298E-03     208.176E-03    -101.410E-03     56.5104E-03
            2148     4.88240E-03     19.3182E-03    -66.1181E+06    -179.780E+06    -40.9764E+06     2.38070E+06    -104.921E-03     205.826E-03    -100.904E-03     49.1486E-03    -105.157E-03     205.307E-03    -100.753E-03     47.5601E-03
            2149     4.07087E-03     19.2637E-03    -70.2423E+06    -195.652E+06    -50.6308E+06     2.67559E+06    -103.176E-03     203.486E-03    -100.310E-03     40.3199E-03    -103.313E-03     202.826E-03    -100.178E-03     39.0987E-03
            2150     3.25839E-03     19.2195E-03    -73.6614E+06    -204.679E+06    -58.5055E+06     1.41090E+06    -101.678E-03     201.480E-03    -99.8016E-03     31.9062E-03    -101.751E-03     200.734E-03    -99.6906E-03     30.9786E-03
            2151     2.44466E-03     19.1853E-03    -76.5441E+06    -212.373E+06    -66.5550E+06     1.11608E+06    -100.434E-03     199.825E-03    -99.3912E-03     23.7260E-03    -100.459E-03     199.017E-03    -99.3050E-03     23.0636E-03
            2152     1.63021E-03     19.1607E-03    -79.2353E+06    -223.023E+06    -74.5247E+06     1.32286E+06    -99.5782E-03     198.668E-03    -99.0897E-03     15.8630E-03    -99.5635E-03     197.796E-03    -99.0240E-03     15.4403E-03
            2153     815.331E-06     19.1455E-03    -81.5068E+06    -226.929E+06    -80.4190E+06     585.215E+03    -99.0837E-03     197.916E-03    -98.8325E-03     8.32379E-03    -99.0518E-03     197.023E-03    -98.7874E-03     8.09746E-03
            2154     15.2786E-03     20.4958E-03    -4.73433E+06     110.175E+06     88.2570E+06     474.887E+03    -138.411E-03     251.212E-03    -112.801E-03     238.192E-03    -151.152E-03     264.072E-03    -112.513E-03     228.769E-03
            2155     14.4919E-03     20.1381E-03    -10.3232E+06     105.860E+06     87.4819E+06     905.381E+03    -140.999E-03     252.753E-03    -111.754E-03     300.960E-03    -158.540E-03     270.380E-03    -111.455E-03     287.124E-03
            2156     13.7024E-03     19.7995E-03    -15.8651E+06     94.5749E+06     83.4017E+06     914.713E+03    -138.997E-03     249.683E-03    -110.686E-03     289.849E-03    -153.715E-03     264.439E-03    -110.383E-03     275.156E-03
            2157     12.9080E-03     19.4793E-03    -21.9309E+06     80.4073E+06     73.5268E+06     1.52251E+06    -135.383E-03     244.983E-03    -109.600E-03     258.855E-03    -146.504E-03     256.098E-03    -109.317E-03     245.285E-03
            2158     12.1163E-03     19.2136E-03    -27.3087E+06     64.5075E+06     54.5646E+06     2.82127E+06    -130.095E-03     238.555E-03    -108.460E-03     206.618E-03    -137.289E-03     245.723E-03    -108.241E-03     195.609E-03
            2159     11.3192E-03     19.0113E-03    -32.1905E+06     47.8710E+06     28.0952E+06     4.38297E+06    -125.014E-03     232.308E-03    -107.294E-03     161.049E-03    -129.532E-03     236.801E-03    -107.176E-03     152.422E-03
            2160     10.5216E-03     18.8484E-03    -37.0484E+06     32.1217E+06     7.18278E+06     5.11280E+06    -121.712E-03     227.891E-03    -106.179E-03     133.578E-03    -124.787E-03     230.928E-03    -106.136E-03     126.603E-03
            2161     9.72240E-03     18.7054E-03    -40.9514E+06    -3.40667E+06    -3.47498E+06     5.02609E+06    -119.206E-03     224.359E-03    -105.153E-03     115.862E-03    -121.385E-03     226.391E-03    -105.107E-03     110.151E-03
            2162     8.92100E-03     18.5799E-03    -44.4946E+06    -57.6513E+06    -9.04927E+06     4.74431E+06    -116.766E-03     220.951E-03    -104.184E-03     100.305E-03    -118.284E-03     222.132E-03    -104.081E-03     95.6434E-03
            2163     8.11822E-03     18.4699E-03    -48.2315E+06    -91.7519E+06    -14.5792E+06     4.36895E+06    -114.182E-03     217.383E-03    -103.201E-03     86.1930E-03    -115.238E-03     217.984E-03    -103.071E-03     82.4127E-03
            2164     7.31351E-03     18.3737E-03    -52.0033E+06    -119.970E+06    -20.4039E+06     4.00247E+06    -111.501E-03     213.745E-03    -102.244E-03     73.9500E-03    -112.226E-03     213.919E-03    -102.097E-03     70.9102E-03
            2165     6.50666E-03     18.2900E-03    -56.2157E+06    -140.965E+06    -25.4750E+06     3.41132E+06    -108.876E-03     210.217E-03    -101.341E-03     63.0674E-03    -109.372E-03     210.088E-03    -101.183E-03     60.6364E-03
            2166     5.69818E-03     18.2177E-03    -61.1027E+06    -158.333E+06    -32.1570E+06     2.89083E+06    -106.422E-03     206.921E-03    -100.500E-03     53.3072E-03    -106.758E-03     206.572E-03    -100.342E-03     51.3793E-03
            2167     4.88770E-03     18.1559E-03    -66.1470E+06    -180.470E+06    -40.5908E+06     2.91733E+06    -104.185E-03     203.927E-03    -99.7425E-03     44.3741E-03    -104.396E-03     203.381E-03    -99.5878E-03     42.8688E-03
            2168     4.07589E-03     18.1043E-03    -70.4719E+06    -192.939E+06    -51.3538E+06     2.49993E+06    -102.202E-03     201.257E-03    -99.0556E-03     36.1842E-03    -102.327E-03     200.596E-03    -98.9304E-03     35.0270E-03
            2169     3.26235E-03     18.0623E-03    -74.1404E+06    -202.350E+06    -60.9377E+06     1.06951E+06    -100.544E-03     199.017E-03    -98.4726E-03     28.4440E-03    -100.608E-03     198.276E-03    -98.3764E-03     27.5649E-03
            2170     2.44797E-03     18.0298E-03    -77.3299E+06    -212.705E+06    -68.3812E+06     510.641E+03    -99.2409E-03     197.242E-03    -98.0015E-03     21.0399E-03    -99.2603E-03     196.430E-03    -97.9229E-03     20.4089E-03
            2171     1.63262E-03     18.0067E-03    -79.4310E+06    -222.184E+06    -74.5804E+06     928.504E+03    -98.2078E-03     195.854E-03    -97.6458E-03     14.0145E-03    -98.1926E-03     194.984E-03    -97.5814E-03     13.6137E-03
            2172     816.306E-06     17.9925E-03    -80.5044E+06    -225.159E+06    -79.4486E+06     645.355E+03    -97.5250E-03     194.981E-03    -97.4562E-03     7.28886E-03    -97.4913E-03     194.093E-03    -97.4102E-03     7.07573E-03
            2173     15.2835E-03     19.2832E-03    -4.84642E+06     109.843E+06     87.3867E+06     582.231E+03    -140.911E-03     253.693E-03    -112.783E-03     235.270E-03    -153.399E-03     266.302E-03    -112.498E-03     225.576E-03
            2174     14.4944E-03     18.9301E-03    -9.02854E+06     105.575E+06     87.9274E+06     823.295E+03    -141.036E-03     252.704E-03    -111.668E-03     298.771E-03    -158.169E-03     269.925E-03    -111.368E-03     285.023E-03
            2175     13.7013E-03     18.5971E-03    -14.6716E+06     94.0135E+06     84.0266E+06     2.06716E+06    -139.372E-03     249.956E-03    -110.584E-03     287.986E-03    -153.772E-03     264.394E-03    -110.279E-03     273.387E-03
            2176     12.9117E-03     18.2767E-03    -21.2731E+06     80.4116E+06     73.6056E+06     2.64378E+06    -136.893E-03     246.312E-03    -109.419E-03     255.106E-03    -147.794E-03     257.210E-03    -109.137E-03     241.454E-03
            2177     12.1179E-03     18.0170E-03    -27.9372E+06     63.1014E+06     53.2154E+06     3.11587E+06    -131.114E-03     239.271E-03    -108.157E-03     201.149E-03    -138.079E-03     246.208E-03    -107.942E-03     190.174E-03
            2178     11.3242E-03     17.8196E-03    -33.4780E+06      45.946E+06     27.5167E+06     4.53044E+06    -126.107E-03     232.981E-03    -106.874E-03     155.527E-03    -130.447E-03     237.286E-03    -106.754E-03     146.956E-03
            2179     10.5275E-03     17.6604E-03    -36.9254E+06     32.6966E+06     7.89067E+06     5.63390E+06    -122.868E-03     228.484E-03    -105.616E-03     127.468E-03    -125.802E-03     231.381E-03    -105.571E-03     120.558E-03
            2180     9.72864E-03     17.5221E-03    -40.1787E+06    -1.82045E+06    -4.00801E+06     5.93704E+06    -120.195E-03     224.612E-03    -104.418E-03     108.790E-03    -122.242E-03     226.523E-03    -104.377E-03     103.179E-03
            2181     8.92850E-03     17.4000E-03    -43.9468E+06    -55.9449E+06    -9.57004E+06     5.75599E+06    -117.449E-03     220.725E-03    -103.275E-03     92.4736E-03    -118.853E-03     221.801E-03    -103.178E-03     87.9384E-03
            2182     8.12648E-03     17.2942E-03    -47.6257E+06    -89.7338E+06    -14.5059E+06     5.08691E+06    -114.464E-03     216.587E-03    -102.122E-03     78.0485E-03    -115.424E-03     217.101E-03    -101.996E-03     74.4093E-03
            2183     7.32203E-03     17.2027E-03    -51.3208E+06    -118.738E+06    -20.4300E+06     4.57425E+06    -111.397E-03     212.400E-03    -101.003E-03     65.8627E-03    -112.044E-03     212.503E-03    -100.859E-03     62.9621E-03
            2184     6.51549E-03     17.1229E-03    -55.3741E+06    -139.408E+06    -25.7130E+06     4.57992E+06    -108.414E-03     208.360E-03    -99.9460E-03     55.3985E-03    -108.850E-03     208.179E-03    -99.7921E-03     53.1101E-03
            2185     5.70658E-03     17.0545E-03    -59.8114E+06    -156.528E+06    -31.8722E+06     4.21731E+06    -105.627E-03     204.593E-03    -98.9663E-03     46.2183E-03    -105.917E-03     204.208E-03    -98.8120E-03     44.4228E-03
            2186     4.89579E-03     16.9962E-03    -64.3181E+06    -179.122E+06    -38.6641E+06     3.52571E+06    -103.070E-03     201.163E-03    -98.0931E-03     38.0750E-03    -103.248E-03     200.589E-03    -97.9334E-03     36.6769E-03
            2187     4.08279E-03     16.9478E-03    -68.7090E+06    -190.610E+06    -48.4583E+06     2.71396E+06    -100.800E-03     198.106E-03    -97.3056E-03     30.8078E-03    -100.904E-03     197.430E-03    -97.1719E-03     29.7370E-03
            2188     3.26847E-03     16.9083E-03    -72.8907E+06    -200.047E+06    -59.4963E+06     1.90297E+06    -98.9135E-03     195.548E-03    -96.6343E-03     24.0972E-03    -98.9650E-03     194.803E-03    -96.5360E-03     23.2964E-03
            2189     2.45254E-03     16.8780E-03    -76.7326E+06    -212.070E+06    -69.7066E+06     1.09937E+06    -97.4362E-03     193.532E-03    -96.0960E-03     17.7698E-03    -97.4451E-03     192.718E-03    -96.0257E-03     17.1964E-03
            2190     1.63566E-03     16.8564E-03    -79.5807E+06    -221.635E+06    -76.6055E+06     635.768E+03    -96.3485E-03     192.039E-03    -95.6905E-03     11.7504E-03    -96.3291E-03     191.172E-03    -95.6367E-03     11.3779E-03
            2191     818.209E-06     16.8435E-03    -80.6240E+06    -223.400E+06    -80.2444E+06     219.181E+03    -95.5581E-03     191.026E-03    -95.4674E-03     6.14004E-03    -95.5256E-03     190.147E-03    -95.4278E-03     5.94020E-03
            2192     15.2784E-03     18.0585E-03    -4.68355E+06     109.691E+06     86.5770E+06     413.245E+03    -141.434E-03     254.285E-03    -112.851E-03     232.911E-03    -153.592E-03     266.564E-03    -112.570E-03     223.119E-03
            2193     14.4928E-03     17.7265E-03    -9.79796E+06     104.394E+06     85.7587E+06     955.623E+03    -142.515E-03     254.178E-03    -111.663E-03     293.753E-03    -159.162E-03     270.912E-03    -111.371E-03     279.895E-03
            2194     13.7035E-03     17.3898E-03    -15.6532E+06     92.1122E+06     82.2671E+06     2.06306E+06    -141.483E-03     251.943E-03    -110.461E-03     284.646E-03    -155.545E-03     266.039E-03    -110.160E-03     269.858E-03
            2195     12.9135E-03     17.0733E-03    -21.0388E+06     79.4180E+06     73.7582E+06     3.27603E+06    -138.632E-03     247.788E-03    -109.156E-03     249.367E-03    -149.153E-03     258.303E-03    -108.872E-03     235.679E-03
            2196     12.1241E-03     16.8195E-03    -26.9762E+06     62.5772E+06     54.3464E+06     4.74973E+06    -132.970E-03     240.697E-03    -107.728E-03     193.420E-03    -139.602E-03     247.300E-03    -107.508E-03     182.488E-03
            2197     11.3302E-03     16.6265E-03    -32.3054E+06     45.7718E+06     28.6207E+06     5.24703E+06    -128.148E-03     234.384E-03    -106.237E-03     147.145E-03    -132.233E-03     238.435E-03    -106.113E-03     138.622E-03
            2198     10.5354E-03     16.4715E-03    -36.5409E+06     32.1861E+06     8.55756E+06     5.47573E+06    -124.850E-03     229.588E-03    -104.738E-03     118.061E-03    -127.573E-03     232.271E-03    -104.689E-03     111.224E-03
            2199     9.73947E-03     16.3376E-03    -39.6087E+06    -591.775E+03    -3.57741E+06     6.40737E+06    -121.820E-03     225.091E-03    -103.271E-03     98.2060E-03    -123.690E-03     226.829E-03    -103.231E-03     92.7108E-03
            2200     8.94095E-03     16.2207E-03    -42.3107E+06    -53.5855E+06    -9.32735E+06     6.54213E+06    -118.276E-03     220.141E-03    -101.866E-03     81.4093E-03    -119.525E-03     221.078E-03    -101.773E-03     77.0438E-03
            2201     8.13939E-03     16.1202E-03    -45.5708E+06    -87.4032E+06    -13.6417E+06     5.83394E+06    -114.554E-03     215.040E-03    -100.486E-03     67.1710E-03    -115.388E-03     215.442E-03    -100.361E-03     63.7247E-03
            2202     7.33542E-03     16.0332E-03    -49.1606E+06    -117.193E+06    -19.4495E+06     5.51787E+06    -110.982E-03     210.144E-03    -99.1623E-03     55.3997E-03    -111.532E-03     210.161E-03    -99.0183E-03     52.6870E-03
            2203     6.52852E-03     15.9588E-03    -53.0732E+06    -138.205E+06    -25.6048E+06     5.68083E+06    -107.477E-03     205.393E-03    -97.9163E-03     45.7573E-03    -107.838E-03     205.149E-03    -97.7669E-03     43.6450E-03
            2204     5.71899E-03     15.8944E-03    -57.2930E+06    -154.082E+06    -30.8829E+06     5.33492E+06    -104.205E-03     200.988E-03    -96.7828E-03     37.6122E-03    -104.441E-03     200.563E-03    -96.6308E-03     35.9761E-03
            2205     4.90692E-03     15.8406E-03    -62.1742E+06    -176.638E+06    -35.5436E+06     4.49359E+06    -101.294E-03     197.086E-03    -95.7920E-03     30.6026E-03    -101.437E-03     196.484E-03    -95.6234E-03     29.3393E-03
            2206     4.09282E-03     15.7955E-03    -67.5266E+06    -188.271E+06    -46.0301E+06     3.54166E+06    -98.7198E-03     193.619E-03    -94.8989E-03     24.6074E-03    -98.8042E-03     192.928E-03    -94.7582E-03     23.6489E-03
            2207     3.27649E-03     15.7592E-03    -72.1791E+06    -198.360E+06    -59.3285E+06     2.97885E+06    -96.5711E-03     190.717E-03    -94.1454E-03     19.1792E-03    -96.6091E-03     189.966E-03    -94.0497E-03     18.4737E-03
            2208     2.45876E-03     15.7311E-03    -75.8815E+06    -210.404E+06    -69.9010E+06     2.95450E+06    -94.9390E-03     188.505E-03    -93.5664E-03     14.1359E-03    -94.9390E-03     187.691E-03    -93.5008E-03     13.6466E-03
            2209     1.63984E-03     15.7112E-03    -79.0910E+06    -219.317E+06    -75.9583E+06     2.05607E+06    -93.8042E-03     186.953E-03    -93.1490E-03     9.28536E-03    -93.7838E-03     186.093E-03    -93.0961E-03     8.96994E-03
            2210     820.081E-06     15.6993E-03     -81.573E+06    -221.783E+06    -80.3782E+06     395.120E+03    -93.0228E-03     185.921E-03    -92.8978E-03     4.76801E-03    -92.9963E-03     185.050E-03    -92.8598E-03     4.59076E-03
            2211     15.2784E-03     16.8437E-03    -4.36615E+06     109.021E+06     86.2106E+06     744.224E+03    -142.666E-03     255.596E-03    -112.930E-03     227.530E-03    -154.302E-03     267.354E-03    -112.651E-03     217.599E-03
            2212     14.4922E-03     16.5107E-03    -9.80345E+06     103.728E+06     85.1539E+06     1.42797E+06    -144.614E-03     256.242E-03    -111.627E-03     287.008E-03    -160.662E-03     272.376E-03    -111.338E-03     272.885E-03
            2213     13.7069E-03     16.1839E-03    -15.2835E+06     91.0922E+06     81.3724E+06     2.52815E+06    -144.631E-03     254.869E-03    -110.238E-03     279.381E-03    -158.265E-03     268.537E-03    -109.942E-03     264.263E-03
            2214     12.9196E-03     15.8677E-03    -21.7076E+06     76.9188E+06     72.0168E+06     3.55460E+06    -141.692E-03     250.390E-03    -108.699E-03     242.012E-03    -151.730E-03     260.417E-03    -108.418E-03     228.196E-03
            2215     12.1307E-03     15.6190E-03    -26.8670E+06     61.2142E+06     55.1521E+06     4.37883E+06    -136.369E-03     243.363E-03    -106.994E-03     182.710E-03    -142.577E-03     249.534E-03    -106.768E-03     171.710E-03
            2216     11.3421E-03     15.4315E-03    -30.9682E+06     46.1422E+06     31.8030E+06     5.60340E+06    -131.407E-03     236.576E-03    -105.169E-03     134.557E-03    -135.164E-03     240.296E-03    -105.032E-03     126.049E-03
            2217     10.5506E-03     15.2815E-03    -35.0223E+06     32.6529E+06     11.6142E+06     6.48988E+06    -127.289E-03     230.603E-03    -103.314E-03     104.730E-03    -129.738E-03     233.012E-03    -103.253E-03     98.0270E-03
            2218     9.75651E-03     15.1525E-03    -38.8878E+06     279.329E+03    -2.31049E+06     6.66192E+06    -123.288E-03     224.792E-03    -101.504E-03     84.5789E-03    -124.945E-03     226.320E-03    -101.460E-03     79.2591E-03
            2219     8.95939E-03     15.0428E-03    -41.8339E+06    -50.3813E+06    -10.4680E+06     6.38367E+06    -118.939E-03     218.712E-03    -99.7737E-03     67.9105E-03    -120.022E-03     219.500E-03    -99.6923E-03     63.7469E-03
            2220     8.15880E-03     14.9482E-03    -44.3525E+06    -85.3286E+06    -14.9920E+06     6.02189E+06    -114.333E-03     212.447E-03    -98.1138E-03     54.2005E-03    -115.035E-03     212.733E-03    -98.0007E-03     50.9733E-03
            2221     7.35438E-03     14.8675E-03    -47.6978E+06    -116.215E+06    -19.4793E+06     6.77949E+06    -109.881E-03     206.446E-03    -96.5643E-03     43.3384E-03    -110.331E-03     206.370E-03    -96.4240E-03     40.8562E-03
            2222     6.54686E-03     14.7985E-03    -51.9854E+06    -136.313E+06    -25.1355E+06     7.00002E+06    -105.748E-03     200.879E-03    -95.1310E-03     34.8728E-03    -106.039E-03     200.575E-03    -94.9837E-03     32.9698E-03
            2223     5.73590E-03     14.7398E-03    -56.1177E+06    -151.160E+06    -31.9376E+06     6.26490E+06    -101.944E-03     195.783E-03    -93.8394E-03     28.1556E-03    -102.129E-03     195.325E-03    -93.6985E-03     26.7014E-03
            2224     4.92207E-03     14.6902E-03    -60.2978E+06    -174.030E+06    -36.7265E+06     5.64345E+06    -98.6424E-03     191.380E-03    -92.7377E-03     22.6089E-03    -98.7464E-03     190.758E-03    -92.5815E-03     21.5044E-03
            2225     4.10556E-03     14.6494E-03    -65.1692E+06    -186.027E+06    -44.9820E+06     5.27465E+06    -95.8202E-03     187.598E-03    -91.7774E-03     18.0214E-03    -95.8777E-03     186.893E-03    -91.6381E-03     17.1997E-03
            2226     3.28705E-03     14.6163E-03    -70.5690E+06    -196.266E+06    -56.8162E+06     4.99661E+06    -93.5194E-03     184.495E-03    -90.9755E-03     13.9830E-03    -93.5442E-03     183.736E-03    -90.8727E-03     13.3921E-03
            2227     2.46663E-03     14.5909E-03    -75.1359E+06    -207.874E+06    -66.7716E+06     4.30951E+06    -91.7582E-03     182.121E-03    -90.3627E-03     10.2308E-03    -91.7564E-03     181.307E-03    -90.2862E-03     9.82315E-03
            2228     1.64509E-03     14.5725E-03    -78.0160E+06    -215.125E+06    -73.0924E+06     2.96552E+06    -90.4991E-03     180.445E-03    -89.9455E-03     6.70152E-03    -90.4807E-03     179.596E-03    -89.8859E-03     6.44069E-03
            2229     822.806E-06     14.5619E-03    -80.4218E+06    -219.033E+06    -78.8955E+06     1.47162E+06    -89.8062E-03     179.531E-03    -89.7249E-03     3.41123E-03    -89.7794E-03     178.669E-03    -89.6851E-03     3.27098E-03
            2230     15.2786E-03     15.6242E-03    -4.63841E+06     108.688E+06     85.8449E+06     1.06272E+06    -145.674E-03     258.665E-03    -112.991E-03     223.800E-03    -156.900E-03     270.011E-03    -112.712E-03     213.423E-03
            2231     14.4949E-03     15.2983E-03    -10.1284E+06     103.476E+06     84.4453E+06     2.02785E+06    -148.169E-03     259.672E-03    -111.503E-03     282.632E-03    -163.607E-03     275.197E-03    -111.216E-03     268.003E-03
            2232     13.7102E-03     14.9692E-03    -15.5609E+06     89.4697E+06     80.5255E+06     2.67848E+06    -149.441E-03     259.287E-03    -109.845E-03     272.558E-03    -162.542E-03     272.417E-03    -109.550E-03     256.908E-03
            2233     12.9283E-03     14.6605E-03    -20.4063E+06     76.3537E+06     73.0621E+06     3.71314E+06    -147.316E-03     255.234E-03    -107.918E-03     230.883E-03    -156.810E-03     264.716E-03    -107.634E-03     216.652E-03
            2234     12.1465E-03     14.4139E-03    -25.9054E+06     60.5443E+06     56.2311E+06     4.24903E+06    -141.313E-03     247.063E-03    -105.750E-03     168.179E-03    -147.022E-03     252.734E-03    -105.519E-03     157.026E-03
            2235     11.3615E-03     14.2340E-03    -30.9698E+06     44.9721E+06     33.6162E+06     5.07452E+06    -135.097E-03     238.566E-03    -103.469E-03     118.719E-03    -138.474E-03     241.897E-03    -103.322E-03     110.248E-03
            2236     10.5735E-03     14.0902E-03    -34.3906E+06     32.0776E+06     13.6489E+06     6.46447E+06    -129.586E-03     230.779E-03    -101.193E-03     89.3717E-03    -131.753E-03     232.900E-03    -101.121E-03     82.8310E-03
            2237     9.78120E-03     13.9697E-03    -37.6871E+06     1.51207E+06    -1.98817E+06     7.78994E+06    -124.356E-03     223.355E-03    -98.9988E-03     69.2511E-03    -125.791E-03     224.669E-03    -98.9563E-03     64.1712E-03
            2238     8.98498E-03     13.8663E-03    -41.8161E+06    -45.7031E+06    -12.5398E+06     7.63345E+06    -119.005E-03     215.927E-03    -96.9221E-03     52.9787E-03    -119.925E-03     216.574E-03    -96.8579E-03     49.0816E-03
            2239     8.18476E-03     13.7804E-03    -46.4201E+06    -83.8675E+06    -18.4501E+06     7.07522E+06    -113.432E-03     208.406E-03    -94.9737E-03     40.2400E-03    -114.020E-03     208.585E-03    -94.8770E-03     37.2729E-03
            2240     7.37979E-03     13.7069E-03    -50.4468E+06    -114.815E+06    -23.2486E+06     7.45263E+06    -108.024E-03     201.212E-03    -93.1880E-03     30.9010E-03    -108.396E-03     201.065E-03    -93.0646E-03     28.6641E-03
            2241     6.57034E-03     13.6446E-03    -53.0261E+06    -133.889E+06    -28.2960E+06     7.06524E+06    -103.135E-03     194.711E-03    -91.5769E-03     23.8692E-03    -103.368E-03     194.364E-03    -91.4474E-03     22.1781E-03
            2242     5.75724E-03     13.5919E-03    -55.7827E+06    -148.915E+06    -35.2787E+06     6.89741E+06    -98.8217E-03     188.978E-03    -90.1561E-03     18.6406E-03    -98.9626E-03     188.494E-03    -90.0357E-03     17.3720E-03
            2243     4.94067E-03     13.5476E-03    -59.6962E+06    -171.300E+06    -40.9821E+06     6.87779E+06    -95.1489E-03     184.113E-03    -88.9642E-03     14.6847E-03    -95.2207E-03     183.483E-03    -88.8342E-03     13.7427E-03
            2244     4.12138E-03     13.5109E-03    -64.1069E+06    -184.363E+06    -45.9074E+06     6.93842E+06    -92.1438E-03     180.111E-03    -87.9677E-03     11.5294E-03    -92.1801E-03     179.398E-03    -87.8369E-03     10.8441E-03
            2245     3.29967E-03     13.4814E-03    -68.5025E+06    -192.884E+06    -52.6084E+06     6.60900E+06    -89.7511E-03     176.901E-03    -87.1496E-03     8.92335E-03    -89.7667E-03     176.140E-03    -87.0337E-03     8.43976E-03
            2246     2.47649E-03     13.4584E-03    -72.3764E+06    -203.746E+06    -62.4571E+06     5.07076E+06    -87.9049E-03     174.417E-03    -86.5123E-03     6.54205E-03    -87.8965E-03     173.608E-03    -86.4242E-03     6.20670E-03
            2247     1.65163E-03     13.4424E-03    -75.5457E+06    -210.848E+06    -72.4302E+06     3.61513E+06    -86.6118E-03     172.685E-03    -86.0734E-03     4.32005E-03    -86.5861E-03     171.852E-03    -86.0203E-03     4.10885E-03
            2248     825.750E-06     13.4322E-03    -77.4643E+06    -214.303E+06    -77.1880E+06     2.48133E+06    -86.0003E-03     171.804E-03    -85.8033E-03     2.25348E-03    -85.9675E-03     170.958E-03    -85.7662E-03     2.14902E-03
            2249     15.2739E-03     14.3947E-03    -3.62992E+06     107.324E+06     85.7720E+06     1.84908E+06    -149.653E-03     262.653E-03    -113.000E-03     217.617E-03    -160.288E-03     273.407E-03    -112.721E-03     206.665E-03
            2250     14.4965E-03     14.0798E-03    -9.55148E+06     102.733E+06     83.5100E+06     2.95936E+06    -153.973E-03     265.183E-03    -111.210E-03     273.752E-03    -168.644E-03     279.943E-03    -110.928E-03     258.303E-03
            2251     13.7194E-03     13.7506E-03    -15.0726E+06     89.1692E+06     79.7161E+06     2.57866E+06    -156.565E-03     265.682E-03    -109.116E-03     263.053E-03    -169.072E-03     278.221E-03    -108.825E-03     246.523E-03
            2252     12.9452E-03     13.4439E-03    -20.2500E+06     75.7770E+06     73.3101E+06     2.55086E+06    -154.634E-03     261.276E-03    -106.641E-03     216.488E-03    -163.513E-03     270.141E-03    -106.355E-03     201.652E-03
            2253     12.1695E-03     13.2055E-03    -24.6061E+06     59.8662E+06     59.3079E+06     3.76324E+06    -146.756E-03     250.663E-03    -103.906E-03     151.159E-03    -151.926E-03     255.788E-03    -103.661E-03     139.890E-03
            2254     11.3894E-03     13.0345E-03    -28.7851E+06     44.2743E+06     35.5667E+06     5.35108E+06    -138.337E-03     239.453E-03    -101.116E-03     102.213E-03    -141.313E-03     242.383E-03    -100.960E-03     93.8958E-03
            2255     10.6035E-03     12.9003E-03    -33.4279E+06     30.1117E+06     11.0067E+06     7.20502E+06    -131.551E-03     229.939E-03    -98.3884E-03     73.6888E-03    -133.440E-03     231.787E-03    -98.3286E-03     67.3543E-03
            2256     9.81324E-03     12.7880E-03    -37.8950E+06     2.26981E+06    -5.06793E+06     9.60475E+06    -125.033E-03     220.837E-03    -95.8040E-03     54.0990E-03    -126.266E-03     221.960E-03    -95.7777E-03     49.2972E-03
            2257     9.01773E-03     12.6948E-03    -42.3489E+06    -40.8123E+06    -14.4076E+06     10.5473E+06    -118.266E-03     211.670E-03    -93.4040E-03     38.6609E-03    -119.046E-03     212.198E-03    -93.3554E-03     35.0758E-03
            2258     8.21622E-03     12.6175E-03    -47.0440E+06    -81.1744E+06    -20.5376E+06     9.85567E+06    -111.662E-03     202.862E-03    -91.2003E-03     27.2442E-03    -112.151E-03     202.956E-03    -91.1171E-03     24.5706E-03
            2259     7.40972E-03     12.5533E-03    -50.9759E+06    -110.677E+06    -26.0776E+06     8.17528E+06    -105.525E-03     194.726E-03    -89.2008E-03     19.4001E-03    -105.832E-03     194.535E-03    -89.0968E-03     17.3967E-03
            2260     6.59824E-03     12.4985E-03    -54.2943E+06    -131.412E+06    -31.8904E+06     6.52595E+06    -99.9108E-03     187.340E-03    -87.4289E-03     13.9113E-03    -100.102E-03     186.964E-03    -87.3190E-03     12.4083E-03
            2261     5.78221E-03     12.4526E-03    -57.1649E+06    -148.430E+06    -37.9770E+06     7.01840E+06    -95.0841E-03     180.988E-03    -85.9039E-03     10.0939E-03    -95.1976E-03     180.481E-03    -85.7957E-03     8.98756E-03
            2262     4.96249E-03     12.4139E-03    -60.2406E+06    -168.978E+06    -43.2667E+06     8.29985E+06    -91.1008E-03     175.736E-03    -84.6355E-03     7.51454E-03    -91.1552E-03     175.101E-03    -84.5194E-03     6.72057E-03
            2263     4.13962E-03     12.3818E-03    -63.8155E+06    -181.440E+06    -48.5645E+06     7.81343E+06    -87.8530E-03     171.445E-03    -83.5924E-03     5.76052E-03    -87.8758E-03     170.737E-03    -83.4797E-03     5.18939E-03
            2264     3.31454E-03     12.3556E-03    -66.9098E+06    -188.905E+06    -54.0151E+06     6.46526E+06    -85.3075E-03     168.078E-03    -82.7703E-03     4.52325E-03    -85.3118E-03     167.329E-03    -82.6694E-03     4.11592E-03
            2265     2.48717E-03     12.3356E-03    -70.1504E+06    -199.855E+06    -61.3201E+06     5.98138E+06    -83.4982E-03     165.655E-03    -82.1569E-03     3.42376E-03    -83.4823E-03     164.857E-03    -82.0720E-03     3.15656E-03
            2266     1.65882E-03     12.3211E-03    -73.6103E+06    -205.901E+06    -69.6901E+06     5.21924E+06    -82.3262E-03     164.034E-03    -81.7076E-03     2.29855E-03    -82.3004E-03     163.216E-03    -81.6507E-03     2.14492E-03
            2267     829.838E-06     12.3123E-03    -76.3299E+06    -207.660E+06    -75.1917E+06     3.52444E+06    -81.7121E-03     163.006E-03    -81.2939E-03     1.27541E-03    -81.6857E-03     162.188E-03    -81.2581E-03     1.20550E-03
            2268     15.2800E-03     13.1673E-03    -3.73470E+06     105.047E+06     85.1223E+06     1.65087E+06    -156.997E-03     269.850E-03    -112.853E-03     210.273E-03    -167.046E-03     280.012E-03    -112.574E-03     198.399E-03
            2269     14.5060E-03     12.8520E-03    -8.72415E+06     101.957E+06     84.0868E+06     2.72797E+06    -161.831E-03     272.446E-03    -110.615E-03     265.019E-03    -175.820E-03     286.522E-03    -110.330E-03     248.364E-03
            2270     13.7358E-03     12.5265E-03    -13.1967E+06     90.6436E+06     80.7038E+06     3.38855E+06    -166.110E-03     274.049E-03    -107.938E-03     252.703E-03    -177.977E-03     285.958E-03    -107.647E-03     235.051E-03
            2271     12.9689E-03     12.2178E-03    -18.8269E+06     76.4074E+06     73.0500E+06     2.87717E+06    -161.976E-03     266.785E-03    -104.809E-03     200.075E-03    -170.124E-03     274.929E-03    -104.527E-03     184.810E-03
            2272     12.2004E-03     11.9942E-03    -24.2762E+06     58.5635E+06     55.9570E+06     2.86811E+06    -151.078E-03     252.569E-03    -101.491E-03     133.219E-03    -155.675E-03     257.130E-03    -101.261E-03     122.015E-03
            2273     11.4226E-03     11.8346E-03    -29.1096E+06     41.5907E+06     30.4412E+06     5.19163E+06    -141.092E-03     239.314E-03    -98.2223E-03     86.5497E-03    -143.711E-03     241.893E-03    -98.0882E-03     78.4219E-03
            2274     10.6395E-03     11.7112E-03    -33.4866E+06     26.6765E+06     7.45454E+06     9.54847E+06    -132.840E-03     227.937E-03    -95.0967E-03     59.2944E-03    -134.486E-03     229.540E-03    -95.0496E-03     53.2388E-03
            2275     9.85000E-03     11.6100E-03    -38.3367E+06     3.06704E+06    -7.50663E+06     12.7699E+06    -124.823E-03     216.996E-03    -92.1725E-03     40.8338E-03    -125.892E-03     217.964E-03    -92.1589E-03     36.3465E-03
            2276     9.05376E-03     11.5283E-03    -42.7301E+06    -36.0904E+06    -16.3831E+06     12.7955E+06    -116.796E-03     206.298E-03    -89.5014E-03     26.7200E-03    -117.472E-03     206.743E-03    -89.4690E-03     23.4256E-03
            2277     8.25113E-03     11.4620E-03    -45.7362E+06    -76.3297E+06    -21.2192E+06     11.6111E+06    -109.271E-03     196.368E-03    -87.0969E-03     16.9913E-03    -109.687E-03     196.413E-03    -87.0260E-03     14.5726E-03
            2278     7.44238E-03     11.4068E-03    -49.4095E+06    -105.247E+06    -25.9413E+06     10.2073E+06    -102.507E-03     187.448E-03    -84.9414E-03     10.5830E-03    -102.768E-03     187.236E-03    -84.8468E-03     8.79664E-03
            2279     6.62818E-03     11.3614E-03    -54.2273E+06    -127.562E+06    -31.3880E+06     8.42904E+06    -96.4609E-03     179.507E-03    -83.0463E-03     6.45571E-03    -96.6285E-03     179.120E-03    -82.9396E-03     5.13141E-03
            2280     5.80906E-03     11.3226E-03    -59.0312E+06    -148.001E+06    -38.8403E+06     7.74137E+06    -91.2194E-03     172.637E-03    -81.4180E-03     3.92732E-03    -91.3228E-03     172.118E-03    -81.3120E-03     2.95620E-03
            2281     4.98591E-03     11.2900E-03    -62.1509E+06    -167.154E+06    -46.2574E+06     8.25525E+06    -86.8775E-03     166.940E-03    -80.0630E-03     2.48443E-03    -86.9281E-03     166.310E-03    -79.9618E-03     1.79053E-03
            2282     4.15952E-03     11.2627E-03    -63.8088E+06    -176.805E+06    -51.9945E+06     7.48299E+06    -83.3688E-03     162.339E-03    -78.9701E-03     1.80312E-03    -83.3864E-03     161.652E-03    -78.8812E-03     1.30685E-03
            2283     3.33003E-03     11.2405E-03    -65.9837E+06    -186.025E+06    -56.9139E+06     6.60248E+06    -80.7170E-03     158.854E-03    -78.1368E-03     1.42233E-03    -80.7125E-03     158.118E-03    -78.0560E-03     1.07642E-03
            2284     2.49906E-03     11.2228E-03    -68.6994E+06    -196.490E+06    -60.3810E+06     6.59419E+06    -78.8835E-03     156.420E-03    -77.5369E-03     1.15564E-03    -78.8644E-03     155.633E-03    -77.4543E-03     939.359E-06
            2285     1.66672E-03     11.2101E-03    -71.4724E+06    -199.960E+06    -64.6754E+06     5.57011E+06    -77.6910E-03     154.796E-03    -77.1047E-03     847.370E-06    -77.6695E-03     153.996E-03    -77.0345E-03     726.810E-06
            2286     833.538E-06     11.2022E-03    -73.9174E+06    -199.537E+06    -70.8225E+06     3.64403E+06    -77.0718E-03     153.779E-03    -76.7076E-03     598.177E-06    -77.0512E-03     152.992E-03    -76.6652E-03     545.697E-06
            2287     15.2825E-03     11.9250E-03    -5.22683E+06     103.466E+06     83.2005E+06     901.552E+03    -167.137E-03     279.776E-03    -112.639E-03     206.290E-03    -176.875E-03     289.621E-03    -112.366E-03     192.901E-03
            2288     14.5171E-03     11.6202E-03    -9.01314E+06     101.719E+06     84.0589E+06     2.06044E+06    -174.513E-03     284.285E-03    -109.772E-03     259.006E-03    -187.931E-03     297.789E-03    -109.486E-03     240.478E-03
            2289     13.7576E-03     11.2838E-03    -12.8589E+06     90.7343E+06     81.3983E+06     2.57497E+06    -176.880E-03     283.236E-03    -106.357E-03     241.438E-03    -188.051E-03     294.451E-03    -106.063E-03     222.638E-03
            2290     13.0020E-03     10.9904E-03    -17.4182E+06     76.3158E+06     73.3339E+06     3.18994E+06    -168.117E-03     270.680E-03    -102.563E-03     183.289E-03    -175.521E-03     278.086E-03    -102.282E-03     167.877E-03
            2291     12.2340E-03     10.7803E-03    -23.7850E+06     57.4857E+06     52.2916E+06     4.94851E+06    -154.367E-03     253.090E-03    -98.7235E-03     116.856E-03    -158.433E-03     257.130E-03    -98.5109E-03     105.914E-03
            2292     11.4603E-03     10.6350E-03    -30.3463E+06     38.4029E+06     24.3200E+06     7.27133E+06    -142.677E-03     237.731E-03    -95.0536E-03     72.6249E-03    -144.995E-03     240.010E-03    -94.9437E-03     64.7875E-03
            2293     10.6778E-03     10.5248E-03    -35.7937E+06     21.3750E+06     2.59069E+06     11.2860E+06    -132.867E-03     224.494E-03    -91.6277E-03     47.9048E-03    -134.324E-03     225.896E-03    -91.5938E-03     42.1722E-03
            2294     9.88781E-03     10.4370E-03    -39.5191E+06     3.70531E+06    -9.78794E+06     14.7638E+06    -123.494E-03     211.970E-03    -88.4757E-03     30.9142E-03    -124.449E-03     212.828E-03    -88.4727E-03     26.7344E-03
            2295     9.09014E-03     10.3682E-03    -42.7727E+06    -29.8062E+06    -17.3088E+06     14.8448E+06    -114.461E-03     200.104E-03    -85.6425E-03     18.7263E-03    -115.072E-03     200.509E-03    -85.6238E-03     15.7036E-03
            2296     8.28517E-03     10.3137E-03    -46.8588E+06    -71.0545E+06    -22.2713E+06     13.2027E+06    -106.376E-03     189.507E-03    -83.1314E-03     11.0591E-03    -106.764E-03     189.542E-03    -83.0718E-03     8.85317E-03
            2297     7.47363E-03     10.2692E-03    -50.5546E+06    -100.278E+06    -26.3665E+06     11.5141E+06    -99.2374E-03     180.137E-03    -80.8996E-03     6.21862E-03    -99.4889E-03     179.930E-03    -80.8127E-03     4.59765E-03
            2298     6.65652E-03     10.2324E-03    -53.3191E+06    -123.153E+06    -29.9643E+06     10.1360E+06    -93.0110E-03     171.956E-03    -78.9455E-03     3.26546E-03    -93.1715E-03     171.577E-03    -78.8394E-03     2.07276E-03
            2299     5.83459E-03     10.2019E-03    -56.7469E+06    -145.834E+06    -35.8955E+06     9.47708E+06    -87.6241E-03     164.887E-03    -77.2628E-03     1.77705E-03    -87.7184E-03     164.366E-03    -77.1485E-03     908.897E-06
            2300     5.00816E-03     10.1758E-03    -60.5513E+06    -163.644E+06    -44.9448E+06     8.28556E+06    -83.0871E-03     158.926E-03    -75.8391E-03     1.09686E-03    -83.1344E-03     158.307E-03    -75.7387E-03     464.512E-06
            2301     4.17795E-03     10.1539E-03    -63.3813E+06    -173.028E+06    -50.8797E+06     6.78337E+06    -79.4628E-03     154.150E-03    -74.6867E-03     807.820E-06    -79.4842E-03     153.478E-03    -74.5983E-03     347.352E-06
            2302     3.34551E-03     10.1352E-03    -65.5583E+06    -184.207E+06    -54.9788E+06     6.78763E+06    -76.6894E-03     150.482E-03    -73.7925E-03     647.931E-06    -76.6877E-03     149.752E-03    -73.7052E-03     336.793E-06
            2303     2.51067E-03     10.1205E-03    -67.6940E+06    -191.854E+06    -60.4275E+06     6.40853E+06    -74.6344E-03     147.752E-03    -73.1178E-03     640.992E-06    -74.6166E-03     146.987E-03    -73.0436E-03     446.491E-06
            2304     1.67445E-03     10.1093E-03    -69.2084E+06    -193.971E+06    -64.3199E+06     4.04863E+06    -73.2632E-03     145.924E-03    -72.6612E-03     518.746E-06    -73.2394E-03     145.151E-03    -72.6012E-03     394.424E-06
            2305     837.367E-06     10.1027E-03    -69.8798E+06    -193.001E+06    -67.3848E+06     2.04097E+06    -72.6467E-03     144.925E-03    -72.2781E-03     272.179E-06    -72.6202E-03     144.160E-03    -72.2338E-03     205.724E-06
            2306     15.2807E-03     10.6653E-03    -4.21558E+06     102.776E+06     82.7224E+06     1.26413E+06    -179.254E-03     291.523E-03    -112.269E-03     199.080E-03    -188.445E-03     300.823E-03    -111.998E-03     184.064E-03
            2307     14.5327E-03     10.3643E-03    -8.24244E+06     100.659E+06     82.7420E+06     1.72137E+06    -187.959E-03     296.620E-03    -108.661E-03     246.514E-03    -200.539E-03     309.290E-03    -108.381E-03     226.182E-03
            2308     13.7872E-03     10.0339E-03    -12.7494E+06     89.3197E+06     79.4308E+06     1.51776E+06    -185.727E-03     290.235E-03    -104.508E-03     228.717E-03    -196.158E-03     300.712E-03    -104.222E-03     209.142E-03
            2309     13.0318E-03     9.75720E-03    -18.6736E+06     73.7324E+06     70.9644E+06     3.22550E+06    -172.688E-03     272.849E-03    -100.161E-03     167.772E-03    -179.377E-03     279.534E-03    -99.8860E-03     152.513E-03
            2310     12.2715E-03     9.56466E-03    -24.8145E+06     54.5812E+06     53.3730E+06     7.06265E+06    -156.448E-03     252.391E-03    -95.9422E-03     103.079E-03    -160.068E-03     255.967E-03    -95.7185E-03     92.5491E-03
            2311     11.4970E-03     9.43834E-03    -30.6035E+06     35.8285E+06     27.9029E+06     11.1269E+06    -142.622E-03     234.638E-03    -92.0157E-03     62.4606E-03    -144.698E-03     236.656E-03    -91.8837E-03     55.0757E-03
            2312     10.7136E-03     9.34209E-03    -36.1439E+06     18.4119E+06     3.01861E+06     14.0526E+06    -131.247E-03     219.668E-03    -88.4210E-03     40.6862E-03    -132.569E-03     220.922E-03    -88.3802E-03     35.3478E-03
            2313     9.92194E-03     9.26966E-03    -40.7598E+06     3.71285E+06    -11.0611E+06     15.9988E+06    -120.686E-03     205.885E-03    -85.1986E-03     25.9020E-03    -121.570E-03     206.672E-03    -85.2002E-03     22.0465E-03
            2314     9.12134E-03     9.21530E-03    -44.4319E+06    -23.7886E+06    -16.3415E+06     16.5417E+06    -111.104E-03     193.483E-03    -82.3788E-03     16.4850E-03    -111.702E-03     193.888E-03    -82.3616E-03     13.7136E-03
            2315     8.31323E-03     9.17280E-03    -47.2543E+06    -64.1478E+06    -19.4966E+06     14.0415E+06    -102.920E-03     182.838E-03    -79.9172E-03     11.0408E-03    -103.317E-03     182.897E-03    -79.8532E-03     9.00124E-03
            2316     7.49896E-03     9.13902E-03    -48.9682E+06    -94.7464E+06    -22.8872E+06     10.5528E+06    -95.8456E-03     173.587E-03    -77.7412E-03     7.84490E-03    -96.1055E-03     173.404E-03    -77.6473E-03     6.31556E-03
            2317     6.67882E-03     9.11164E-03    -50.4635E+06    -120.800E+06    -26.7188E+06     9.32462E+06    -89.7841E-03     165.622E-03    -75.8378E-03     6.08003E-03    -89.9461E-03     165.254E-03    -75.7231E-03     4.94405E-03
            2318     5.85372E-03     9.08884E-03    -52.7642E+06    -143.805E+06    -29.8165E+06     10.1373E+06    -84.6828E-03     158.876E-03    -74.1936E-03     5.02875E-03    -84.7771E-03     158.360E-03    -74.0576E-03     4.20774E-03
            2319     5.02469E-03     9.06963E-03    -56.0704E+06    -158.320E+06    -35.1973E+06     9.22876E+06    -80.3809E-03     153.146E-03    -72.7654E-03     4.41779E-03    -80.4343E-03     152.541E-03    -72.6305E-03     3.81917E-03
            2320     4.19256E-03     9.05271E-03    -60.0252E+06    -169.868E+06    -44.0740E+06     7.29656E+06    -76.7950E-03     148.338E-03    -71.5430E-03     3.88861E-03    -76.8188E-03     147.674E-03    -71.4300E-03     3.44752E-03
            2321     3.35721E-03     9.03849E-03    -63.6990E+06    -182.256E+06    -52.1215E+06     6.80891E+06    -73.8860E-03     144.433E-03    -70.5471E-03     3.31358E-03    -73.8848E-03     143.710E-03    -70.4511E-03     3.01145E-03
            2322     2.51991E-03     9.02681E-03    -65.9977E+06    -186.055E+06    -58.3594E+06     5.50742E+06    -71.6155E-03     141.383E-03    -69.7677E-03     2.69488E-03    -71.6021E-03     140.644E-03    -69.6940E-03     2.49431E-03
            2323     1.68079E-03     9.01789E-03    -67.2768E+06    -188.270E+06    -63.6236E+06     2.66699E+06    -70.0188E-03     139.230E-03    -69.2112E-03     1.97779E-03    -69.9950E-03     138.483E-03    -69.1588E-03     1.83942E-03
            2324     840.730E-06     9.01198E-03    -68.4634E+06    -189.766E+06    -66.6145E+06     675.724E+03    -69.2305E-03     137.956E-03    -68.7259E-03     1.13546E-03    -69.2027E-03     137.205E-03    -68.6845E-03     1.05345E-03
            2325     15.2984E-03     9.39261E-03    -3.47243E+06     102.035E+06     82.6757E+06     607.120E+03    -193.760E-03     305.417E-03    -111.657E-03     195.211E-03    -202.562E-03     314.331E-03    -111.387E-03     178.437E-03
            2326     14.5565E-03     9.09509E-03    -7.70007E+06     99.5815E+06     81.3218E+06     931.956E+03    -198.094E-03     305.453E-03    -107.360E-03     238.345E-03    -209.988E-03     317.440E-03    -107.086E-03     216.714E-03
            2327     13.8117E-03     8.77775E-03    -13.0902E+06     87.0691E+06     75.6114E+06     2.84140E+06    -192.384E-03     295.025E-03    -102.640E-03     216.698E-03    -201.991E-03     304.681E-03    -102.370E-03     196.952E-03
            2328     13.0656E-03     8.51849E-03    -19.7001E+06     70.3052E+06     66.5979E+06     5.52246E+06    -175.170E-03     273.062E-03    -97.8924E-03     153.219E-03    -181.117E-03     279.004E-03    -97.6328E-03     138.540E-03
            2329     12.3019E-03     8.35145E-03    -26.6951E+06     50.7406E+06     51.8267E+06     8.98161E+06    -155.900E-03     249.378E-03    -93.4784E-03     92.0053E-03    -159.115E-03     252.534E-03    -93.2541E-03     82.1406E-03
            2330     11.5277E-03     8.24337E-03    -32.4623E+06     32.8245E+06     32.7835E+06     12.6956E+06    -140.355E-03     229.882E-03    -89.5264E-03     56.9076E-03    -142.249E-03     231.686E-03    -89.3630E-03     50.0923E-03
            2331     10.7425E-03     8.16600E-03    -36.9407E+06     17.1656E+06     10.9276E+06     16.0379E+06    -127.377E-03     213.392E-03    -86.0145E-03     39.0339E-03    -128.628E-03     214.544E-03    -85.9312E-03     34.1643E-03
            2332     9.94619E-03     8.10935E-03    -41.0115E+06     4.28713E+06    -4.48246E+06     17.9146E+06    -115.968E-03     198.935E-03    -82.9666E-03     27.9846E-03    -116.834E-03     199.685E-03    -82.9357E-03     24.5041E-03
            2333     9.14157E-03     8.06968E-03    -44.1797E+06    -17.2421E+06    -9.10599E+06     16.3479E+06    -106.610E-03     186.993E-03    -80.3827E-03     21.8709E-03    -107.235E-03     187.427E-03    -80.3391E-03     19.3180E-03
            2334     8.32984E-03     8.03854E-03    -45.2205E+06    -54.9503E+06    -11.9157E+06     11.4451E+06    -98.9222E-03     177.088E-03    -78.1657E-03     18.6877E-03    -99.3550E-03     177.201E-03    -78.0800E-03     16.7481E-03
            2335     7.51175E-03     8.01561E-03    -45.5983E+06    -90.2999E+06    -16.0953E+06     7.78875E+06    -92.5282E-03     168.753E-03    -76.2252E-03     16.7788E-03    -92.8128E-03     168.603E-03    -76.1086E-03     15.2873E-03
            2336     6.68874E-03     7.99643E-03    -47.3678E+06    -121.166E+06    -19.9035E+06     8.27023E+06    -87.2510E-03     161.777E-03    -74.5256E-03     15.4408E-03    -87.4302E-03     161.416E-03    -74.3807E-03     14.3232E-03
            2337     5.86183E-03     7.98122E-03    -50.1973E+06    -142.032E+06    -22.9067E+06     9.21956E+06    -82.8466E-03     155.867E-03    -73.0199E-03     14.2145E-03    -82.9595E-03     155.364E-03    -72.8557E-03     13.3910E-03
            2338     5.03149E-03     7.96763E-03    -52.8926E+06    -153.868E+06    -27.2790E+06     8.40161E+06    -79.0742E-03     150.745E-03    -71.6706E-03     12.9804E-03    -79.1437E-03     150.160E-03    -71.5072E-03     12.3690E-03
            2339     4.19790E-03     7.95641E-03    -56.1408E+06    -167.357E+06    -34.9526E+06     7.91653E+06    -75.7728E-03     146.253E-03    -70.4804E-03     11.5446E-03    -75.8036E-03     145.592E-03    -70.3311E-03     11.1060E-03
            2340     3.36196E-03     7.94640E-03    -59.6077E+06    -177.558E+06    -43.4863E+06     6.29834E+06    -72.9830E-03     142.442E-03    -69.4593E-03     9.86520E-03    -72.9866E-03     141.730E-03    -69.3329E-03     9.55185E-03
            2341     2.52359E-03     7.93825E-03    -61.6518E+06    -180.956E+06    -49.5333E+06     3.12072E+06    -70.7041E-03     139.326E-03    -68.6223E-03     7.82628E-03    -70.6923E-03     138.597E-03    -68.5181E-03     7.59183E-03
            2342     1.68354E-03     7.93184E-03    -63.1483E+06    -184.349E+06    -56.0348E+06     1.46115E+06    -68.9536E-03     136.935E-03    -67.9815E-03     5.56901E-03    -68.9271E-03     136.192E-03    -67.9028E-03     5.41423E-03
            2343     842.077E-06     7.92762E-03    -65.1341E+06    -188.280E+06    -62.7425E+06     117.558E+03    -67.9066E-03     135.388E-03    -67.4813E-03     3.13107E-03    -67.8702E-03     134.634E-03    -67.4276E-03     3.04176E-03
            2344     15.3059E-03     8.10574E-03     -4.5005E+06     100.081E+06     78.8118E+06    -240.897E+03    -206.533E-03     317.661E-03    -111.128E-03     196.446E-03    -215.164E-03     326.403E-03    -110.872E-03     178.012E-03
            2345     14.5702E-03     7.81329E-03    -8.82232E+06      96.744E+06     76.4779E+06     776.369E+03    -208.041E-03     314.282E-03    -106.242E-03     234.379E-03    -219.296E-03     325.633E-03    -105.987E-03     211.785E-03
            2346     13.8380E-03     7.51079E-03    -13.8471E+06     84.0705E+06     71.2136E+06     4.39786E+06    -197.057E-03     298.134E-03    -101.077E-03     205.347E-03    -205.758E-03     306.887E-03    -100.823E-03     186.012E-03
            2347     13.0889E-03     7.28056E-03    -19.3983E+06     66.4327E+06     62.7553E+06     7.97956E+06    -174.535E-03     270.659E-03    -96.1239E-03     140.557E-03    -179.755E-03     275.874E-03    -95.8783E-03     126.908E-03
            2348     12.3265E-03     7.14098E-03    -24.9849E+06     47.3658E+06     50.4199E+06     11.9240E+06    -151.740E-03     243.514E-03    -91.7745E-03     85.2688E-03    -154.552E-03     246.267E-03    -91.5549E-03     76.4337E-03
            2349     11.5469E-03     7.05499E-03    -31.4459E+06     30.7264E+06     34.5216E+06     15.1349E+06    -134.149E-03     222.256E-03    -88.1070E-03     58.1960E-03    -135.897E-03     223.906E-03    -87.9333E-03     52.1691E-03
            2350     10.7554E-03     6.99661E-03    -37.3534E+06     16.7100E+06     17.9582E+06     16.6064E+06    -120.519E-03     205.554E-03    -85.0347E-03     46.1150E-03    -121.744E-03     206.657E-03    -84.9150E-03     41.8112E-03
            2351     9.95369E-03     6.95816E-03    -39.9944E+06     7.11932E+06     7.66805E+06     16.1132E+06    -109.716E-03     192.198E-03    -82.4821E-03     39.5759E-03    -110.611E-03     192.957E-03    -82.3961E-03     36.4423E-03
            2352     9.14350E-03     6.92962E-03    -39.9383E+06    -9.36910E+06     3.75005E+06     12.8098E+06    -101.384E-03     181.754E-03    -80.3706E-03     35.9931E-03    -102.052E-03     182.239E-03    -80.2803E-03     33.6168E-03
            2353     8.32730E-03     6.91061E-03    -41.0813E+06    -46.9999E+06    -1.63890E+06     8.27631E+06    -94.9845E-03     173.579E-03    -78.5945E-03     33.9260E-03    -95.4618E-03     173.750E-03    -78.4749E-03     32.0679E-03
            2354     7.50643E-03     6.89518E-03    -44.3110E+06    -89.0816E+06    -7.91651E+06     6.20726E+06    -89.9752E-03     167.032E-03    -77.0573E-03     32.2201E-03    -90.3028E-03     166.910E-03    -76.9035E-03     30.7651E-03
            2355     6.68196E-03     6.88404E-03    -47.3779E+06    -121.647E+06    -12.3329E+06     6.35424E+06    -85.9014E-03     161.595E-03    -75.6934E-03     30.4101E-03    -86.1204E-03     161.250E-03    -75.5099E-03     29.2880E-03
            2356     5.85409E-03     6.87414E-03    -48.7440E+06    -139.650E+06    -15.3378E+06     5.70749E+06    -82.4683E-03     156.923E-03    -74.4550E-03     28.3897E-03    -82.6110E-03     156.442E-03    -74.2585E-03     27.5237E-03
            2357     5.02363E-03     6.86635E-03    -50.1670E+06    -152.505E+06    -18.6933E+06     5.52595E+06    -79.4713E-03     152.802E-03    -73.3310E-03     25.7702E-03    -79.5580E-03     152.224E-03    -73.1306E-03     25.1163E-03
            2358     4.19085E-03     6.85952E-03    -52.5474E+06    -165.015E+06    -22.7253E+06     5.37488E+06    -76.7965E-03     149.123E-03    -72.3269E-03     22.7375E-03    -76.8416E-03     148.461E-03    -72.1250E-03     22.2596E-03
            2359     3.35567E-03     6.85379E-03    -54.7642E+06    -171.131E+06    -29.4893E+06     2.83337E+06    -74.4429E-03     145.876E-03    -71.4330E-03     19.3283E-03    -74.4588E-03     145.175E-03    -71.2529E-03     18.9669E-03
            2360     2.51881E-03     6.84883E-03    -57.5258E+06    -177.587E+06    -39.7719E+06    -325.763E+03    -72.4768E-03     143.148E-03    -70.6707E-03     15.3210E-03    -72.4674E-03     142.418E-03    -70.5287E-03     15.0421E-03
            2361     1.68025E-03     6.84534E-03    -60.1557E+06    -184.084E+06    -50.2800E+06    -1.17371E+06    -70.9328E-03     141.008E-03    -70.0752E-03     10.8147E-03    -70.9023E-03     140.255E-03    -69.9724E-03     10.6269E-03
            2362     840.543E-06     6.84279E-03    -61.5878E+06    -188.578E+06    -58.6651E+06    -596.485E+03    -69.9034E-03     139.596E-03    -69.6922E-03     6.15553E-03    -69.8559E-03     138.829E-03    -69.6228E-03     6.05905E-03
            2363     15.3056E-03     6.79453E-03    -3.67644E+06     98.7032E+06     74.2846E+06     1.34018E+06    -216.912E-03     327.820E-03    -110.908E-03     196.737E-03    -225.137E-03     336.169E-03    -110.674E-03     177.400E-03
            2364     14.5854E-03     6.51663E-03    -9.05832E+06      93.232E+06     70.7721E+06     2.94023E+06    -215.777E-03     321.349E-03    -105.572E-03     228.448E-03    -226.233E-03     331.905E-03    -105.340E-03     205.648E-03
            2365     13.8504E-03     6.23893E-03    -14.9895E+06     80.1017E+06     65.0771E+06     4.92117E+06    -197.979E-03     298.125E-03    -100.146E-03     192.643E-03    -205.697E-03     305.898E-03    -99.9150E-03     174.358E-03
            2366     13.1040E-03     6.04342E-03    -19.6730E+06     61.7877E+06     58.0014E+06     8.94841E+06    -168.146E-03     263.458E-03    -95.3114E-03     129.613E-03    -172.554E-03     267.859E-03    -95.0824E-03     117.692E-03
            2367     12.3330E-03     5.93870E-03    -24.6445E+06     43.1990E+06     49.1898E+06     13.5828E+06    -141.764E-03     233.228E-03    -91.4637E-03     86.7683E-03    -144.209E-03     235.604E-03    -91.2447E-03     79.3723E-03
            2368     11.5453E-03     5.87661E-03    -29.4294E+06     29.0648E+06     39.1012E+06     16.5782E+06    -123.879E-03     212.395E-03    -88.5164E-03     70.2530E-03    -125.525E-03     213.932E-03    -88.3204E-03     65.1883E-03
            2369     10.7444E-03     5.83787E-03    -33.0082E+06     20.0659E+06     29.8022E+06     15.9512E+06    -111.816E-03     198.033E-03    -86.2169E-03     62.9669E-03    -113.025E-03     199.114E-03    -86.0491E-03     59.2705E-03
            2370     9.93544E-03     5.81153E-03    -35.2278E+06     14.3123E+06     22.1983E+06     11.1065E+06    -103.112E-03     187.492E-03    -84.3798E-03     58.8953E-03    -104.034E-03     188.278E-03    -84.2385E-03     56.0672E-03
            2371     9.12098E-03     5.79533E-03    -36.2264E+06    -5.08799E+06     15.9130E+06     7.12664E+06    -96.8204E-03     179.724E-03    -82.9041E-03     56.2966E-03    -97.5232E-03     180.236E-03    -82.7646E-03     54.0695E-03
            2372     8.30174E-03     5.78305E-03    -38.1900E+06    -44.5381E+06     10.4320E+06     6.60070E+06    -92.3442E-03     174.044E-03    -81.7002E-03     53.8132E-03    -92.8566E-03     174.234E-03    -81.5281E-03     52.0632E-03
            2373     7.47964E-03     5.77492E-03    -41.8620E+06    -87.9094E+06     4.59069E+06     5.38622E+06    -89.0035E-03     169.668E-03    -80.6641E-03     51.1219E-03    -89.3634E-03     169.553E-03    -80.4529E-03     49.7287E-03
            2374     6.65476E-03     5.76838E-03    -45.2194E+06    -119.793E+06    -526.527E+03     2.73671E+06    -86.3317E-03     166.060E-03    -79.7283E-03     47.9636E-03    -86.5792E-03     165.723E-03    -79.4917E-03     46.8350E-03
            2375     5.82816E-03     5.76357E-03    -47.9123E+06    -137.717E+06    -3.56125E+06     623.993E+03    -83.9952E-03     162.870E-03    -78.8749E-03     44.2511E-03    -84.1679E-03     162.393E-03    -78.6235E-03     43.3437E-03
            2376     4.99952E-03     5.75935E-03    -49.8302E+06    -152.555E+06    -6.65035E+06    -696.933E+03    -81.9692E-03     160.071E-03    -78.1023E-03     39.8489E-03    -82.0817E-03     159.483E-03    -77.8421E-03     39.1305E-03
            2377     4.16924E-03     5.75649E-03    -50.3360E+06    -162.899E+06    -12.5702E+06    -1.88900E+06    -80.2170E-03     157.606E-03    -77.3889E-03     34.8107E-03    -80.2759E-03     156.942E-03    -77.1426E-03     34.2486E-03
            2378     3.33756E-03     5.75378E-03    -51.6181E+06    -168.384E+06    -21.2354E+06    -3.11288E+06    -78.6185E-03     155.367E-03    -76.7482E-03     29.1536E-03    -78.6394E-03     154.665E-03    -76.5354E-03     28.7216E-03
            2379     2.50429E-03     5.75182E-03    -54.8046E+06    -177.220E+06    -34.7436E+06    -3.67124E+06    -77.2855E-03     153.488E-03    -76.2028E-03     22.7685E-03    -77.2735E-03     152.749E-03    -76.0401E-03     22.4508E-03
            2380     1.67012E-03     5.75015E-03    -58.6451E+06    -186.886E+06    -49.7466E+06    -3.37741E+06    -76.2918E-03     152.066E-03    -75.7743E-03     15.7912E-03    -76.2527E-03     151.295E-03    -75.6670E-03     15.5769E-03
            2381     835.154E-06     5.74943E-03    -61.1492E+06    -192.204E+06    -58.4739E+06    -1.95651E+06    -75.5782E-03     151.139E-03    -75.5612E-03     8.86059E-03    -75.5253E-03     150.352E-03    -75.4862E-03     8.74763E-03
            2382     15.3108E-03     5.48231E-03    -5.07378E+06     96.9819E+06     69.3400E+06     2.98306E+06    -226.473E-03     337.694E-03    -111.221E-03     201.578E-03    -234.435E-03     345.785E-03    -111.007E-03     181.906E-03
            2383     14.5816E-03     5.20467E-03    -9.46314E+06     91.7889E+06     66.9983E+06     4.34595E+06    -218.840E-03     324.484E-03    -105.644E-03     228.339E-03    -228.652E-03     334.402E-03    -105.429E-03     206.170E-03
            2384     13.8560E-03     4.96197E-03    -13.5374E+06     75.6457E+06     60.7200E+06     6.47523E+06    -191.150E-03     291.497E-03    -100.347E-03     178.857E-03    -197.558E-03     297.969E-03    -100.134E-03     162.928E-03
            2385     13.0974E-03     4.82068E-03    -19.4912E+06     55.2848E+06     53.0650E+06     11.4774E+06    -152.876E-03     249.048E-03    -96.1725E-03     127.270E-03    -156.355E-03     252.515E-03    -95.9591E-03     118.021E-03
            2386     12.3126E-03     4.75055E-03    -25.1447E+06     40.1456E+06     48.6535E+06     14.2512E+06    -127.132E-03     220.478E-03    -93.3466E-03     101.573E-03    -129.266E-03     222.533E-03    -93.1251E-03     95.8009E-03
            2387     11.5113E-03     4.71027E-03    -28.2271E+06     30.3715E+06     45.7757E+06     13.0317E+06    -113.359E-03     204.767E-03    -91.4086E-03     91.1163E-03    -114.895E-03     206.183E-03    -91.1828E-03     86.9437E-03
            2388     10.7036E-03     4.68368E-03    -28.1753E+06     25.8324E+06     41.5623E+06     10.1673E+06    -104.429E-03     194.404E-03    -89.9753E-03     84.4493E-03    -105.576E-03     195.425E-03    -89.7641E-03     81.2715E-03
            2389     9.89009E-03     4.66937E-03    -28.9933E+06     22.4105E+06     36.2716E+06     6.65968E+06    -98.3690E-03     187.266E-03    -88.8975E-03     80.1113E-03    -99.2541E-03     188.025E-03    -88.7066E-03     77.6184E-03
            2390     9.07224E-03     4.65861E-03    -32.5076E+06    -4.25166E+06     29.7732E+06     3.27254E+06    -94.6668E-03     182.757E-03    -88.0906E-03     76.5279E-03    -95.3481E-03     183.222E-03    -87.8884E-03     74.5156E-03
            2391     8.25296E-03     4.65251E-03    -35.3632E+06    -47.5753E+06     24.0476E+06     2.67566E+06    -92.3091E-03     179.761E-03    -87.4517E-03     72.2871E-03    -92.8053E-03     179.892E-03    -87.2112E-03     70.6704E-03
            2392     7.43144E-03     4.64773E-03    -37.4755E+06    -85.4805E+06     19.8556E+06     1.95569E+06    -90.5617E-03     177.462E-03    -86.9005E-03     67.5229E-03    -90.9125E-03     177.317E-03    -86.6230E-03     66.2165E-03
            2393     6.60921E-03     4.64476E-03    -40.3597E+06    -115.861E+06     16.0552E+06    -2.15513E+06    -89.1636E-03     175.572E-03    -86.4084E-03     62.3088E-03    -89.4074E-03     175.212E-03    -86.1016E-03     61.2116E-03
            2394     5.78548E-03     4.64265E-03    -42.4984E+06    -136.031E+06     11.5821E+06    -6.27763E+06    -87.9868E-03     173.940E-03    -85.9537E-03     56.5706E-03    -88.1506E-03     173.433E-03    -85.6369E-03     55.6413E-03
            2395     4.96079E-03     4.64143E-03    -44.0303E+06    -152.323E+06     1.23041E+06    -8.96699E+06    -86.9926E-03     172.509E-03    -85.5165E-03     50.1438E-03    -87.0844E-03     171.896E-03    -85.2256E-03     49.3630E-03
            2396     4.13533E-03     4.64023E-03    -45.9322E+06    -164.132E+06    -11.8117E+06    -9.94157E+06    -86.1603E-03     171.272E-03    -85.1113E-03     43.0960E-03    -86.1949E-03     170.589E-03    -84.8658E-03     42.4570E-03
            2397     3.30916E-03     4.63995E-03    -48.4135E+06    -172.034E+06    -22.9636E+06    -8.42083E+06    -85.4606E-03     170.221E-03    -84.7607E-03     35.5036E-03    -85.4577E-03     169.496E-03    -84.5559E-03     35.0155E-03
            2398     2.48255E-03     4.63932E-03    -52.1835E+06    -181.735E+06    -36.5324E+06    -5.49264E+06    -84.8825E-03     169.336E-03    -84.4539E-03     27.2862E-03    -84.8492E-03     168.572E-03    -84.2973E-03     26.9475E-03
            2399     1.65532E-03     4.63927E-03    -56.8207E+06    -191.064E+06    -49.7094E+06    -3.10361E+06    -84.4521E-03     168.648E-03    -84.1963E-03     18.5963E-03    -84.3991E-03     167.852E-03    -84.0854E-03     18.3841E-03
            2400     827.900E-06     4.63887E-03    -60.3062E+06    -197.154E+06    -58.7161E+06    -1.95052E+06    -83.9950E-03     168.099E-03    -84.1040E-03     10.1566E-03    -83.9316E-03     167.285E-03    -84.0242E-03     10.0406E-03
            2401     15.2865E-03     4.16370E-03    -4.98437E+06     96.4691E+06     66.8682E+06     4.23272E+06    -234.208E-03     346.796E-03    -112.587E-03     214.681E-03    -242.122E-03     354.844E-03    -112.386E-03     194.690E-03
            2402     14.5711E-03     3.87477E-03    -7.16445E+06     88.7741E+06     64.3354E+06     4.64188E+06    -213.358E-03     320.438E-03    -107.080E-03     227.204E-03    -222.002E-03     329.208E-03    -106.876E-03     207.320E-03
            2403     13.8312E-03     3.69978E-03    -11.5914E+06     67.4507E+06     57.1734E+06     9.72344E+06    -170.578E-03     273.158E-03    -102.580E-03     174.325E-03    -175.288E-03     277.927E-03    -102.375E-03     162.663E-03
            2404     13.0536E-03     3.62144E-03    -17.1814E+06     51.0047E+06     53.2371E+06     13.9093E+06    -135.482E-03     235.104E-03    -99.6215E-03     139.761E-03    -138.120E-03     237.718E-03    -99.4043E-03     133.179E-03
            2405     12.2515E-03     3.57494E-03    -19.8210E+06     42.7836E+06     55.0067E+06     12.2903E+06    -116.835E-03     214.705E-03    -97.8695E-03     120.567E-03    -118.586E-03     216.381E-03    -97.6278E-03     116.129E-03
            2406     11.4468E-03     3.54549E-03    -21.9863E+06     37.0138E+06     54.4334E+06     7.78029E+06    -107.145E-03     203.920E-03    -96.7752E-03     108.864E-03    -108.412E-03     205.085E-03    -96.5248E-03     105.525E-03
            2407     10.6356E-03     3.53138E-03    -24.8213E+06     30.4893E+06     46.7478E+06     3.30532E+06    -101.557E-03     197.584E-03    -96.0270E-03     100.205E-03    -102.513E-03     198.425E-03    -95.8015E-03     97.5739E-03
            2408     9.82050E-03     3.52166E-03    -26.9051E+06     25.1987E+06     43.4046E+06     1.73602E+06    -98.3209E-03     193.852E-03    -95.5308E-03     93.6364E-03    -99.0709E-03     194.468E-03    -95.3113E-03     91.5515E-03
            2409     9.00459E-03     3.51544E-03    -29.4200E+06    -3.71656E+06     40.4436E+06    -23.5535E+03    -96.6389E-03     191.850E-03    -95.2112E-03     86.9108E-03    -97.2125E-03     192.186E-03    -94.9609E-03     85.2204E-03
            2410     8.18715E-03     3.51084E-03    -32.5824E+06    -49.9337E+06     31.7361E+06    -3.32537E+06    -95.6921E-03     190.659E-03    -94.9668E-03     80.1760E-03    -96.1005E-03     190.679E-03    -94.6884E-03     78.7637E-03
            2411     7.37014E-03     3.50850E-03    -33.1455E+06    -83.7109E+06     26.1337E+06    -6.25100E+06    -95.1086E-03     189.872E-03    -94.7633E-03     73.4358E-03    -95.3895E-03     189.658E-03    -94.4632E-03     72.2388E-03
            2412     6.55181E-03     3.50712E-03    -32.2784E+06    -111.797E+06     22.7478E+06    -10.2693E+06    -94.6768E-03     189.272E-03    -94.5951E-03     66.4822E-03    -94.8534E-03     188.866E-03    -94.2724E-03     65.4399E-03
            2413     5.73350E-03     3.50640E-03    -33.0929E+06    -135.622E+06     12.9730E+06    -13.9717E+06    -94.3912E-03     188.811E-03    -94.4200E-03     59.2319E-03    -94.4818E-03     188.260E-03    -94.1105E-03     58.3160E-03
            2414     4.91506E-03     3.50609E-03    -35.3367E+06    -155.434E+06    -3.35298E+06    -14.5431E+06    -94.1856E-03     188.418E-03    -94.2322E-03     51.6111E-03    -94.2042E-03     187.763E-03    -93.9723E-03     50.8326E-03
            2415     4.09616E-03     3.50642E-03    -39.2586E+06    -170.139E+06    -18.5740E+06    -12.3500E+06    -94.0208E-03     188.088E-03    -94.0670E-03     43.6817E-03    -93.9923E-03     187.363E-03    -93.8563E-03     43.0571E-03
            2416     3.27712E-03     3.50635E-03    -44.7947E+06    -180.539E+06    -31.6343E+06    -8.55786E+06    -93.9054E-03     187.833E-03    -93.9278E-03     35.4081E-03    -93.8532E-03     187.066E-03    -93.7592E-03     34.9420E-03
            2417     2.45794E-03     3.50682E-03    -50.0486E+06    -189.023E+06    -42.0186E+06    -4.35163E+06    -93.7963E-03     187.613E-03    -93.8169E-03     26.9697E-03    -93.7307E-03     186.814E-03    -93.6803E-03     26.6559E-03
            2418     1.63884E-03     3.50689E-03    -54.0521E+06    -195.116E+06    -49.9047E+06    -1.42632E+06    -93.7068E-03     187.443E-03    -93.7366E-03     18.4653E-03    -93.6325E-03     186.622E-03    -93.6248E-03     18.2789E-03
            2419     819.511E-06     3.50746E-03    -57.0978E+06    -199.791E+06    -56.3270E+06    -15.1032E+03    -93.5811E-03     187.352E-03    -93.7709E-03     10.0612E-03    -93.5011E-03     186.516E-03    -93.6800E-03     9.97042E-03
            2420     15.2458E-03     2.77664E-03    -4.12960E+06     94.6752E+06     67.7613E+06     3.36136E+06    -233.270E-03     349.070E-03    -115.801E-03     245.249E-03    -241.172E-03     357.112E-03    -115.593E-03     225.940E-03
            2421     14.5296E-03     2.56981E-03    -4.52364E+06     78.4355E+06     63.4120E+06     8.10185E+06    -198.575E-03     309.423E-03    -110.848E-03     220.674E-03    -204.878E-03     315.838E-03    -110.638E-03     205.493E-03
            2422     13.7555E-03     2.47845E-03    -9.94288E+06     60.7272E+06     58.3385E+06     12.3889E+06    -151.437E-03     258.829E-03    -107.392E-03     170.735E-03    -154.365E-03     261.780E-03    -107.174E-03     163.343E-03
            2423     12.9617E-03     2.42064E-03    -11.6446E+06     54.2570E+06     61.8441E+06     10.4694E+06    -127.913E-03     233.358E-03    -105.445E-03     141.371E-03    -129.659E-03     235.078E-03    -105.198E-03     136.795E-03
            2424     12.1705E-03     2.39753E-03    -12.9220E+06     49.1597E+06     65.1214E+06     6.51333E+06    -116.491E-03     220.763E-03    -104.271E-03     121.326E-03    -117.661E-03     221.872E-03    -103.998E-03     118.065E-03
            2425     11.3624E-03     2.37813E-03    -15.0891E+06     42.3251E+06      60.987E+06     3.42337E+06    -109.035E-03     212.560E-03    -103.525E-03     106.995E-03    -109.877E-03     213.319E-03    -103.260E-03     104.567E-03
            2426     10.5530E-03     2.36916E-03    -19.1060E+06     34.1890E+06     45.8735E+06     851.027E+03    -105.285E-03     208.322E-03    -103.037E-03     94.8885E-03    -105.918E-03     208.872E-03    -102.830E-03     92.9899E-03
            2427     9.74336E-03     2.36202E-03    -23.5384E+06     25.0998E+06     28.8013E+06    -1.06944E+06    -103.553E-03     206.259E-03    -102.706E-03     85.9391E-03    -104.046E-03     206.670E-03    -102.564E-03     84.4112E-03
            2428     8.93235E-03     2.35743E-03    -27.3152E+06    -3.60556E+06     18.7462E+06    -3.13072E+06    -102.505E-03     205.037E-03    -102.532E-03     77.7065E-03    -102.876E-03     205.240E-03    -102.393E-03     76.4485E-03
            2429     8.12114E-03     2.35472E-03    -28.7798E+06    -45.5754E+06     8.60181E+06    -8.94358E+06    -101.971E-03     204.411E-03    -102.440E-03     70.1380E-03    -102.216E-03     204.363E-03    -102.289E-03     69.0293E-03
            2430     7.30846E-03     2.35272E-03    -27.8481E+06    -82.1853E+06    -247.369E+03    -15.7465E+06    -101.758E-03     204.145E-03    -102.387E-03     62.8630E-03    -101.891E-03     203.884E-03    -102.229E-03     61.8379E-03
            2431     6.49674E-03     2.35197E-03    -26.6386E+06    -113.379E+06    -3.53417E+06    -17.6308E+06    -101.694E-03     204.077E-03    -102.383E-03     55.8615E-03    -101.741E-03     203.633E-03    -102.197E-03     54.9487E-03
            2432     5.68457E-03     2.35162E-03    -28.2407E+06    -139.481E+06    -10.6388E+06    -16.3077E+06    -101.688E-03     204.067E-03    -102.380E-03     49.1337E-03    -101.672E-03     203.483E-03    -102.190E-03     48.3569E-03
            2433     4.87218E-03     2.35186E-03    -32.8898E+06    -163.609E+06    -19.3300E+06    -13.6156E+06    -101.828E-03     204.212E-03    -102.384E-03     42.3765E-03    -101.770E-03     203.508E-03    -102.196E-03     41.7362E-03
            2434     4.06012E-03     2.35207E-03    -38.6685E+06    -179.973E+06    -28.0415E+06    -8.71287E+06    -101.994E-03     204.372E-03    -102.378E-03     35.4857E-03    -101.915E-03     203.594E-03    -102.201E-03     34.9980E-03
            2435     3.24809E-03     2.35251E-03    -44.1204E+06    -188.545E+06    -38.0645E+06    -4.13818E+06    -102.062E-03     204.419E-03    -102.357E-03     28.5045E-03    -101.974E-03     203.610E-03    -102.210E-03     28.1576E-03
            2436     2.43600E-03     2.35294E-03    -48.3345E+06    -194.469E+06    -45.3719E+06    -1.60688E+06    -102.103E-03     204.464E-03    -102.362E-03     21.5490E-03    -102.009E-03     203.635E-03    -102.237E-03     21.3108E-03
            2437     1.62364E-03     2.35334E-03    -50.9067E+06    -197.824E+06    -49.4486E+06     40.6413E+03    -102.190E-03     204.598E-03    -102.408E-03     14.6328E-03    -102.093E-03     203.757E-03    -102.295E-03     14.4891E-03
            2438     811.500E-06     2.35344E-03    -51.9708E+06    -199.452E+06    -51.5221E+06     631.490E+03    -102.383E-03     204.856E-03    -102.473E-03     7.90307E-03    -102.282E-03     204.008E-03    -102.366E-03     7.83415E-03
            2439     15.1562E-03     1.37616E-03    -1.40779E+06     91.3530E+06     76.6236E+06     3.98252E+06    -248.574E-03     370.001E-03    -121.427E-03     244.115E-03    -254.295E-03     375.826E-03    -121.174E-03     228.425E-03
            2440     14.4205E-03     1.29224E-03    -5.25686E+06     71.8739E+06     69.6960E+06     8.20212E+06    -192.690E-03     309.107E-03    -116.417E-03     164.746E-03    -195.556E-03     312.028E-03    -116.165E-03     156.471E-03
            2441     13.6608E-03     1.25079E-03    -5.54313E+06     64.4739E+06     70.5429E+06     7.70372E+06    -153.980E-03     267.209E-03    -113.228E-03     124.547E-03    -155.262E-03     268.496E-03    -112.961E-03     120.553E-03
            2442     12.8801E-03     1.21985E-03    -5.12926E+06     59.9000E+06     72.7881E+06     4.29289E+06    -133.692E-03     245.022E-03    -111.330E-03     98.1268E-03    -134.478E-03     245.791E-03    -111.046E-03     95.6145E-03
            2443     12.0808E-03     1.20243E-03    -7.49721E+06     52.6302E+06     68.0927E+06     2.40876E+06    -122.794E-03     232.927E-03    -110.132E-03     78.9357E-03    -123.341E-03     233.434E-03    -109.857E-03     77.1919E-03
            2444     11.2879E-03     1.19714E-03    -10.5791E+06     43.9086E+06     52.1356E+06     800.512E+03    -116.638E-03     225.939E-03    -109.300E-03     68.0799E-03    -117.051E-03     226.315E-03    -109.088E-03     66.7509E-03
            2445     10.4869E-03     1.19042E-03    -13.0086E+06     35.5674E+06     30.2210E+06        -511.113    -112.887E-03     221.591E-03    -108.704E-03     59.5198E-03    -113.191E-03     221.885E-03    -108.586E-03     58.5041E-03
            2446     9.68301E-03     1.18699E-03    -15.7465E+06     24.3874E+06     4.13769E+06     250.464E+03    -110.611E-03     218.881E-03    -108.270E-03     52.0670E-03    -110.831E-03     219.117E-03    -108.262E-03     51.2679E-03
            2447     8.87749E-03     1.18407E-03    -17.8770E+06     383.440E+03    -20.0168E+06    -2.87239E+06    -109.112E-03     217.101E-03    -107.989E-03     46.0130E-03    -109.244E-03     217.227E-03    -108.063E-03     45.3292E-03
            2448     8.07087E-03     1.18227E-03    -19.2846E+06    -37.9870E+06    -35.4805E+06    -9.67237E+06    -108.253E-03     216.116E-03    -107.863E-03     40.8171E-03    -108.295E-03     216.056E-03    -107.957E-03     40.1585E-03
            2449     7.26478E-03     1.18121E-03    -22.5656E+06    -81.9303E+06    -42.7349E+06    -14.0080E+06    -107.773E-03     215.627E-03    -107.854E-03     36.2631E-03    -107.743E-03     215.349E-03    -107.916E-03     35.6360E-03
            2450     6.45719E-03     1.18069E-03    -27.7935E+06    -118.901E+06    -43.1240E+06    -14.5571E+06    -107.554E-03     215.473E-03    -107.920E-03     31.8929E-03    -107.486E-03     215.009E-03    -107.923E-03     31.3280E-03
            2451     5.64965E-03     1.18086E-03    -32.4413E+06    -148.373E+06    -40.6721E+06    -11.6145E+06    -107.534E-03     215.551E-03    -108.017E-03     27.7426E-03    -107.443E-03     214.935E-03    -107.959E-03     27.2758E-03
            2452     4.84228E-03     1.18063E-03    -37.3085E+06    -172.853E+06    -38.3650E+06    -6.73112E+06    -107.636E-03     215.759E-03    -108.123E-03     23.7080E-03    -107.531E-03     215.018E-03    -108.010E-03     23.3575E-03
            2453     4.03498E-03     1.18080E-03    -42.2214E+06    -187.666E+06    -39.0792E+06    -3.52273E+06    -107.782E-03     215.988E-03    -108.206E-03     19.7221E-03    -107.675E-03     215.176E-03    -108.068E-03     19.4596E-03
            2454     3.22776E-03     1.18119E-03    -45.1709E+06    -193.656E+06    -41.4956E+06    -1.20227E+06    -107.943E-03     216.207E-03    -108.264E-03     15.8052E-03    -107.835E-03     215.370E-03    -108.125E-03     15.6175E-03
            2455     2.42060E-03     1.18159E-03    -46.9064E+06    -196.338E+06    -44.6746E+06     381.277E+03    -108.117E-03     216.421E-03    -108.304E-03     11.8522E-03    -108.006E-03     215.574E-03    -108.175E-03     11.7286E-03
            2456     1.61381E-03     1.18176E-03    -48.0160E+06    -198.110E+06    -46.8240E+06     306.262E+03    -108.257E-03     216.588E-03    -108.330E-03     7.99195E-03    -108.145E-03     215.735E-03    -108.208E-03     7.90997E-03
            2457     807.098E-06     1.18146E-03    -48.2236E+06    -198.766E+06    -47.7672E+06     29.1693E+03    -108.388E-03     216.668E-03    -108.281E-03     4.32001E-03    -108.272E-03     215.814E-03    -108.162E-03     4.27541E-03


