********************************************************************************
Field Output Report, written Tue May 28 22:33:59 2024

Source 1
---------

   ODB: G:/Abaqus_calc_2019/1740/Vel_10/odb/zeides_2a_40_red_250_cal_50_vel_10_fric_025.odb
   Step: Step-1
   Frame: Increment   6966306: Step Time =   0.8834

Loc 1 : Nodal values from source 1

Output sorted by column "Nodal Label".

Field Output reported at nodes for region: DIE_2A_40_D0_36-1.Region_1
   Computation algorithm: EXTRAPOLATE_COMPUTE_AVERAGE
   Averaged at nodes
   Averaging regions: ODB_REGIONS

      Node Label     COORD.COOR1     COORD.COOR2
                          @Loc 1          @Loc 1
-------------------------------------------------
               1     23.5525E-03     110.479E-03


Field Output reported at nodes for region: DIE_2A_40_D0_36-1.Region_2
   Computation algorithm: EXTRAPOLATE_COMPUTE_AVERAGE
   Averaged at nodes
   Averaging regions: ODB_REGIONS

      Node Label     COORD.COOR1     COORD.COOR2
                          @Loc 1          @Loc 1
-------------------------------------------------
               1     23.5525E-03     110.479E-03


Field Output reported at nodes for part: WIRE-1
   Computation algorithm: EXTRAPOLATE_COMPUTE_AVERAGE
   Averaged at nodes
   Averaging regions: ODB_REGIONS

      Node Label     COORD.COOR1     COORD.COOR2           S.S11           S.S22           S.S33           S.S12         PE.PE11         PE.PE22         PE.PE33         PE.PE12         LE.LE11         LE.LE22         LE.LE33         LE.LE12
                          @Loc 1          @Loc 1          @Loc 1          @Loc 1          @Loc 1          @Loc 1          @Loc 1          @Loc 1          @Loc 1          @Loc 1          @Loc 1          @Loc 1          @Loc 1          @Loc 1
-------------------------------------------------------------------------------------------------------------------------------------------------------------------------------------------------------------------------------------------------
               1    -21.8484E-09     57.4423E-03    -19.3471E+06    -108.949E+06    -19.3492E+06     6.59036E+03    -26.9154E-03     53.8052E-03    -26.8898E-03     3.43412E-03    -26.8261E-03     53.3167E-03    -26.8005E-03     3.43264E-03
               2     17.5264E-03     59.1173E-03    -2.96434E+06     196.545E+06     119.448E+06    -40.7587E+03    -34.3978E-03     61.4261E-03    -27.0283E-03     284.998E-03    -49.5779E-03     76.9470E-03    -26.7118E-03     300.013E-03
               3     17.1273E-03     117.128E-03     3.95709E+06    -12.1246E+06    -8.79759E+06    -3.57342E+06     21.2503E-03     21.9434E-03    -43.1937E-03     2.42368E-03     21.3077E-03     21.8971E-03    -43.2259E-03     2.37754E-03
               4    -894.937E-09     115.210E-03     35.7456E+06    -1.02575E+06     34.1599E+06    -1.86428E+06    -30.1678E-03     61.2235E-03    -31.0557E-03    -1.03124E-03    -30.0388E-03     61.1154E-03    -30.9352E-03    -1.05640E-03
               5    -21.2097E-09              0.    -12.2341E+06    -91.5670E+06    -11.9858E+06    -148.625E+03    -19.3835E-03     38.7214E-03    -19.3379E-03     210.515E-06    -19.2942E-03     38.2989E-03    -19.2473E-03     208.674E-06
               6     17.3978E-03              0.     13.6310E+06     119.058E+06     94.1156E+06     8.03520E+06    -95.3593E-03     126.464E-03    -31.1042E-03     120.138E-03    -96.2682E-03     127.602E-03    -30.8260E-03     118.729E-03
               7     876.198E-06     57.4456E-03    -19.1917E+06    -108.689E+06    -18.8806E+06     29.3695E+03    -26.9124E-03     53.8083E-03    -26.8958E-03     5.73685E-03    -26.8235E-03     53.3202E-03    -26.8048E-03     5.73459E-03
               8     1.75239E-03     57.4532E-03    -18.7226E+06    -107.908E+06    -17.4218E+06     72.2202E+03    -26.9219E-03     53.8263E-03    -26.9044E-03     10.5882E-03    -26.8342E-03     53.3396E-03    -26.8079E-03     10.5841E-03
               9     2.62858E-03     57.4658E-03    -17.9266E+06    -106.570E+06    -14.9665E+06     100.453E+03    -26.9522E-03     53.8635E-03    -26.9112E-03     15.7701E-03    -26.8665E-03     53.3792E-03    -26.8056E-03     15.7637E-03
              10     3.50479E-03     57.4832E-03    -16.8377E+06    -104.553E+06    -11.8172E+06     152.738E+03    -26.9923E-03     53.9122E-03    -26.9199E-03     21.0737E-03    -26.9094E-03     53.4326E-03    -26.8029E-03     21.0648E-03
              11     4.38100E-03     57.5058E-03    -15.5560E+06    -103.092E+06    -8.71579E+06     230.000E+03    -27.0522E-03     53.9805E-03    -26.9283E-03     26.4248E-03    -26.9708E-03     53.5032E-03    -26.7999E-03     26.4130E-03
              12     5.25722E-03     57.5335E-03    -14.2116E+06    -98.9340E+06    -5.93846E+06     269.946E+03    -27.1232E-03     54.0542E-03    -26.9310E-03     31.8861E-03    -27.0468E-03     53.5934E-03    -26.7967E-03     31.8701E-03
              13     6.13345E-03     57.5665E-03    -12.8381E+06    -94.3146E+06    -2.87288E+06     297.301E+03    -27.2096E-03     54.1438E-03    -26.9342E-03     37.4566E-03    -27.1400E-03     53.7021E-03    -26.7932E-03     37.4351E-03
              14     7.00967E-03     57.6047E-03    -11.4793E+06    -91.0509E+06    -600.988E+03     344.756E+03    -27.3216E-03     54.2572E-03    -26.9356E-03     43.0650E-03    -27.2569E-03     53.8302E-03    -26.7899E-03     43.0367E-03
              15     7.88590E-03     57.6483E-03    -10.2493E+06    -85.9352E+06     337.805E+03     409.458E+03    -27.4448E-03     54.3729E-03    -26.9281E-03     48.7081E-03    -27.3882E-03     53.9738E-03    -26.7869E-03     48.6710E-03
              16     8.76214E-03     57.6973E-03    -9.17064E+06    -80.9135E+06     1.00901E+06     467.564E+03    -27.5826E-03     54.5023E-03    -26.9197E-03     54.3698E-03    -27.5367E-03     54.1336E-03    -26.7840E-03     54.3213E-03
              17     9.63840E-03     57.7517E-03    -8.31183E+06    -76.7256E+06    -643.802E+03     503.144E+03    -27.7470E-03     54.6487E-03    -26.9017E-03     60.0199E-03    -27.7121E-03     54.3138E-03    -26.7817E-03     59.9563E-03
              18     10.5146E-03     57.8115E-03    -7.86575E+06    -70.3556E+06    -4.81649E+06     534.491E+03    -27.9135E-03     54.7829E-03    -26.8694E-03     65.4907E-03    -27.8969E-03     54.5026E-03    -26.7801E-03     65.4076E-03
              19     11.3908E-03     57.8762E-03    -7.61522E+06    -55.0119E+06    -4.62924E+06     556.504E+03    -28.0904E-03     54.9362E-03    -26.8458E-03     72.2293E-03    -28.1235E-03     54.7604E-03    -26.7782E-03     72.1208E-03
              20     12.2670E-03     57.9488E-03    -7.55214E+06    -37.0417E+06    -3.91148E+06     529.404E+03    -28.2323E-03     55.0510E-03    -26.8187E-03     79.1882E-03    -28.3330E-03     55.0047E-03    -26.7736E-03     79.0511E-03
              21     13.1435E-03     58.0266E-03    -7.64012E+06    -25.8716E+06    -11.5454E+06     582.825E+03    -28.1369E-03     54.8940E-03    -26.7570E-03     79.2121E-03    -28.2973E-03     54.9688E-03    -26.7662E-03     79.0436E-03
              22     14.0196E-03     58.0989E-03    -7.95812E+06    -6.84914E+06    -24.7200E+06     558.402E+03    -28.7432E-03     55.3988E-03    -26.6556E-03     95.4555E-03    -29.1119E-03     55.7866E-03    -26.7577E-03     95.2315E-03
              23     14.8966E-03     58.2081E-03    -8.99906E+06     48.1058E+06    -27.9433E+06     354.313E+03    -35.0392E-03     61.5937E-03    -26.5545E-03     183.383E-03    -36.8673E-03     63.6417E-03    -26.7509E-03     183.105E-03
              24     15.7725E-03     58.4504E-03    -9.24485E+06     130.070E+06     19.9024E+06     141.074E+03    -45.4443E-03     72.1162E-03    -26.6718E-03     317.592E-03    -55.4343E-03     82.4773E-03    -26.7475E-03     319.045E-03
              25     16.6469E-03     58.8279E-03    -5.87054E+06     184.367E+06     91.5941E+06    -9.85605E+03    -42.3468E-03     69.2751E-03    -26.9283E-03     333.985E-03    -58.3730E-03     85.6694E-03    -26.7292E-03     343.091E-03
              26     17.5257E-03     60.1170E-03    -2.99873E+06     196.461E+06     119.543E+06     7.13697E+03    -35.0618E-03     62.0775E-03    -27.0156E-03     284.979E-03    -50.2265E-03     77.5823E-03    -26.6984E-03     299.892E-03
              27     17.5264E-03     61.1197E-03    -2.72087E+06     196.751E+06     119.773E+06     225.512E+03    -34.7467E-03     61.7651E-03    -27.0184E-03     285.457E-03    -49.9341E-03     77.2939E-03    -26.7008E-03     300.399E-03
              28     17.5262E-03     62.1176E-03    -3.04791E+06     196.481E+06     119.417E+06    -189.848E+03    -34.5620E-03     61.5836E-03    -27.0216E-03     285.628E-03    -49.7799E-03     77.1419E-03    -26.7050E-03     300.637E-03
              29     17.5259E-03     63.1175E-03    -3.08795E+06     196.306E+06     119.260E+06     35.0503E+03    -35.1049E-03     62.1134E-03    -27.0085E-03     283.786E-03    -50.2037E-03     77.5523E-03    -26.6924E-03     298.653E-03
              30     17.5262E-03     64.1176E-03    -3.19289E+06     196.122E+06     119.184E+06    -261.558E+03    -35.1970E-03     62.2000E-03    -27.0031E-03     283.041E-03    -50.2438E-03     77.5861E-03    -26.6869E-03     297.878E-03
              31     17.5260E-03     65.1187E-03    -2.90646E+06     196.373E+06     119.461E+06     72.2581E+03    -35.5303E-03     62.5315E-03    -27.0012E-03     284.152E-03    -50.6497E-03     77.9913E-03    -26.6845E-03     298.982E-03
              32     17.5260E-03     66.1219E-03    -2.92978E+06     198.123E+06     120.151E+06     1.09020E+06    -35.1665E-03     62.1821E-03    -27.0156E-03     285.882E-03    -50.3893E-03     77.7494E-03    -26.6979E-03     300.777E-03
              33     17.5263E-03     67.1209E-03    -3.34659E+06     199.655E+06     120.511E+06     668.172E+03    -34.4149E-03     61.4468E-03    -27.0318E-03     286.156E-03    -49.6695E-03     77.0487E-03    -26.7139E-03     301.193E-03
              34     17.5259E-03     68.1189E-03    -3.06025E+06     200.012E+06     120.612E+06     10.5000E+03    -34.6839E-03     61.7065E-03    -27.0227E-03     284.631E-03    -49.8433E-03     77.2154E-03    -26.7052E-03     299.604E-03
              35     17.5262E-03     69.1197E-03    -2.97066E+06     200.009E+06     120.603E+06    -18.7378E+03    -34.9347E-03     61.9451E-03    -27.0104E-03     283.609E-03    -50.0199E-03     77.3801E-03    -26.6931E-03     298.490E-03
              36     17.5262E-03     70.1197E-03    -3.21764E+06     199.779E+06     120.455E+06    -161.260E+03    -35.1986E-03     62.2011E-03    -27.0025E-03     283.853E-03    -50.3086E-03     77.6596E-03    -26.6853E-03     298.717E-03
              37     17.5260E-03     71.1213E-03    -3.16383E+06     199.846E+06     120.360E+06    -9.65708E+03    -35.5124E-03     62.5142E-03    -27.0019E-03     284.938E-03    -50.6954E-03     78.0465E-03    -26.6852E-03     299.776E-03
              38     17.5261E-03     72.1241E-03    -2.86473E+06     200.209E+06     120.510E+06     228.395E+03    -34.8146E-03     61.8367E-03    -27.0221E-03     286.399E-03    -50.0967E-03     77.4699E-03    -26.7057E-03     301.380E-03
              39     17.5262E-03     73.1214E-03    -3.05015E+06     199.967E+06     120.431E+06    -14.7719E+03    -34.3145E-03     61.3435E-03    -27.0290E-03     285.454E-03    -49.5274E-03     76.9062E-03    -26.7124E-03     300.496E-03
              40     17.5261E-03     74.1195E-03    -3.25080E+06     199.597E+06     120.161E+06    -166.712E+03    -35.0913E-03     62.0950E-03    -27.0037E-03     283.406E-03    -50.1575E-03     77.5097E-03    -26.6876E-03     298.270E-03
              41     17.5261E-03     75.1222E-03    -3.14337E+06     199.681E+06     120.040E+06     33.0480E+03    -35.6161E-03     62.6102E-03    -26.9941E-03     284.399E-03    -50.7490E-03     78.0927E-03    -26.6788E-03     299.202E-03
              42     17.5260E-03     76.1257E-03    -2.88725E+06     200.027E+06     120.012E+06     207.595E+03    -34.5212E-03     61.5496E-03    -27.0284E-03     286.578E-03    -49.8148E-03     77.1950E-03    -26.7141E-03     301.603E-03
              43     17.5261E-03     77.1218E-03    -2.41600E+06     200.412E+06     120.100E+06     360.269E+03    -33.6539E-03     60.6995E-03    -27.0455E-03     285.541E-03    -48.8706E-03     76.2708E-03    -26.7321E-03     300.681E-03
              44     17.5262E-03     78.1182E-03    -3.18679E+06     200.709E+06     119.832E+06     139.206E+03    -34.9207E-03     61.9254E-03    -27.0047E-03     282.652E-03    -49.9256E-03     77.2840E-03    -26.6919E-03     297.509E-03
              45     17.5260E-03     79.1221E-03    -3.92457E+06     201.268E+06     119.655E+06     11.7671E+03    -36.2587E-03     63.2318E-03    -26.9731E-03     282.876E-03    -51.2887E-03     78.6154E-03    -26.6610E-03     297.526E-03
              46     17.5261E-03     80.1260E-03    -3.06298E+06     202.714E+06     120.380E+06     599.956E+03    -35.0680E-03     62.0709E-03    -27.0028E-03     284.985E-03    -50.2595E-03     77.6220E-03    -26.6904E-03     299.885E-03
              47     17.5265E-03     81.1237E-03    -3.24371E+06     203.118E+06     120.454E+06    -3.00209E+03    -34.2158E-03     61.2390E-03    -27.0232E-03     285.861E-03    -49.4753E-03     76.8587E-03    -26.7107E-03     300.949E-03
              48     17.5258E-03     82.1226E-03    -2.82343E+06     202.961E+06     120.400E+06    -7.93884E+03    -34.9095E-03     61.9131E-03    -27.0036E-03     284.788E-03    -50.0799E-03     77.4449E-03    -26.6918E-03     299.712E-03
              49     17.5267E-03     83.1249E-03    -2.82525E+06     203.029E+06     120.262E+06     40.0785E+03    -34.7232E-03     61.7239E-03    -27.0007E-03     284.787E-03    -49.9003E-03     77.2629E-03    -26.6897E-03     299.726E-03
              50     17.5261E-03     84.1232E-03    -3.33384E+06     202.535E+06     119.656E+06    -323.729E+03    -34.7929E-03     61.7889E-03    -26.9960E-03     285.229E-03    -49.9846E-03     77.3407E-03    -26.6865E-03     300.157E-03
              51     17.5266E-03     85.1242E-03    -3.36919E+06     202.309E+06     119.652E+06     92.1101E+03    -35.1631E-03     62.1471E-03    -26.9840E-03     284.347E-03    -50.2823E-03     77.6255E-03    -26.6742E-03     299.177E-03
              52     17.5263E-03     86.1244E-03    -2.89105E+06     202.984E+06     120.170E+06     371.422E+03    -34.6909E-03     61.6769E-03    -26.9860E-03     284.153E-03    -49.8099E-03     77.1577E-03    -26.6753E-03     299.073E-03
              53     17.5271E-03     87.1238E-03    -2.97049E+06     203.598E+06     120.099E+06     314.961E+03    -34.3244E-03     61.2969E-03    -26.9725E-03     284.156E-03    -49.4374E-03     76.7738E-03    -26.6629E-03     299.124E-03
              54     17.5272E-03     88.1232E-03    -3.25176E+06     204.100E+06     120.125E+06     323.142E+03    -34.9131E-03     61.8532E-03    -26.9401E-03     285.188E-03    -50.0810E-03     77.3857E-03    -26.6307E-03     300.082E-03
              55     17.5276E-03     89.1273E-03    -2.77938E+06     205.726E+06     121.184E+06     995.350E+03    -34.5659E-03     61.4996E-03    -26.9338E-03     286.515E-03    -49.8329E-03     77.1357E-03    -26.6221E-03     301.488E-03
              56     17.5282E-03     90.1238E-03    -2.91349E+06     207.028E+06     121.596E+06     689.284E+03    -33.6517E-03     60.5799E-03    -26.9282E-03     285.958E-03    -48.9071E-03     76.2073E-03    -26.6161E-03     301.093E-03
              57     17.5285E-03     91.1209E-03    -3.14811E+06     207.877E+06     121.924E+06     644.455E+03    -34.4583E-03     61.3309E-03    -26.8726E-03     283.870E-03    -49.5566E-03     76.8025E-03    -26.5599E-03     298.815E-03
              58     17.5294E-03     92.1230E-03    -3.86497E+06     208.916E+06     122.562E+06     486.137E+03    -35.0410E-03     61.8557E-03    -26.8147E-03     283.130E-03    -50.0885E-03     77.2757E-03    -26.4992E-03     297.939E-03
              59     17.5303E-03     93.1235E-03    -3.23956E+06     209.584E+06     123.059E+06     169.525E+03    -34.1814E-03     60.9558E-03    -26.7744E-03     283.427E-03    -49.2508E-03     76.4008E-03    -26.4583E-03     298.373E-03
              60     17.5319E-03     94.1211E-03    -2.94189E+06     209.147E+06     123.412E+06    -20.0496E+03    -34.3210E-03     61.0183E-03    -26.6973E-03     283.476E-03    -49.3897E-03     76.4612E-03    -26.3792E-03     298.438E-03
              61     17.5329E-03     95.1227E-03    -3.60460E+06     207.823E+06     123.738E+06    -392.703E+03    -35.0655E-03     61.6674E-03    -26.6019E-03     283.584E-03    -50.1598E-03     77.1279E-03    -26.2793E-03     298.443E-03
              62     17.5348E-03     96.1248E-03    -3.21888E+06     206.220E+06     124.189E+06    -459.861E+03    -34.6760E-03     61.2003E-03    -26.5243E-03     284.115E-03    -49.8160E-03     76.7008E-03    -26.1977E-03     299.057E-03
              63     17.5364E-03     97.1214E-03    -2.60548E+06     204.875E+06     125.041E+06    -34.8435E+03    -34.9865E-03     61.4002E-03    -26.4137E-03     283.163E-03    -50.0499E-03     76.8191E-03    -26.0818E-03     298.067E-03
              64     17.5386E-03     98.1232E-03    -3.86069E+06     203.647E+06     125.659E+06    -70.2750E+03    -36.4059E-03     62.6773E-03    -26.2714E-03     281.279E-03    -51.3638E-03     77.9801E-03    -25.9328E-03     295.942E-03
              65     17.5399E-03     99.1257E-03    -3.22280E+06     202.679E+06     125.963E+06    -345.093E+03    -37.2074E-03     63.3552E-03    -26.1478E-03     280.770E-03    -52.1733E-03     78.6638E-03    -25.8072E-03     295.336E-03
              66     17.5421E-03     100.129E-03    -3.53224E+06     200.924E+06     125.349E+06    -718.249E+03    -37.8735E-03     63.9111E-03    -26.0377E-03     281.294E-03    -52.9053E-03     79.2802E-03    -25.6971E-03     295.779E-03
              67     17.5429E-03     101.133E-03    -2.88746E+06     198.403E+06     123.721E+06    -800.134E+03    -38.8468E-03     64.7637E-03    -25.9169E-03     280.429E-03    -53.8497E-03     80.1018E-03    -25.5818E-03     294.734E-03
              68     17.5452E-03     102.136E-03    -4.15340E+06     194.114E+06     121.645E+06    -2.31397E+06    -41.0294E-03     66.8242E-03    -25.7948E-03     280.103E-03    -56.0406E-03     82.1571E-03    -25.4620E-03     294.053E-03
              69     17.5441E-03     103.147E-03    -3.18663E+06     190.221E+06     120.794E+06    -1.35798E+06    -42.7755E-03     68.4839E-03    -25.7084E-03     280.018E-03    -57.8027E-03     83.8248E-03    -25.3756E-03     293.652E-03
              70     17.5468E-03     104.152E-03    -3.51882E+06     185.558E+06     120.896E+06    -2.14640E+06    -44.6395E-03     70.2669E-03    -25.6274E-03     282.106E-03    -59.7799E-03     85.7033E-03    -25.2869E-03     295.511E-03
              71     17.5457E-03     105.167E-03    -3.83201E+06     178.631E+06     120.946E+06    -2.01257E+06    -48.7842E-03     74.2888E-03    -25.5045E-03     286.939E-03    -64.1507E-03     89.9258E-03    -25.1532E-03     299.737E-03
              72     17.5481E-03     106.188E-03    -3.66309E+06     173.728E+06     121.554E+06    -712.228E+03    -51.5344E-03     76.9398E-03    -25.4054E-03     294.743E-03    -67.2389E-03     92.8962E-03    -25.0442E-03     307.030E-03
              73     17.5488E-03     107.205E-03    -2.28380E+06     167.502E+06     123.819E+06    -1.70496E+06    -54.7853E-03     80.0783E-03    -25.2930E-03     302.879E-03    -70.7536E-03     96.2746E-03    -24.9135E-03     314.565E-03
              74     17.5503E-03     108.226E-03    -4.03205E+06     160.104E+06     124.826E+06    -1.46616E+06    -59.0858E-03     84.2270E-03    -25.1413E-03     303.977E-03    -74.7978E-03     100.131E-03    -24.7434E-03     314.581E-03
              75     17.5515E-03     109.246E-03    -1.34676E+06     157.391E+06     125.717E+06     310.095E+03    -64.9707E-03     89.9056E-03    -24.9349E-03     310.575E-03    -80.6231E-03     105.749E-03    -24.5326E-03     319.849E-03
              76     17.5540E-03     110.289E-03    -8.28248E+06     143.360E+06     114.803E+06    -8.09346E+06    -73.6973E-03     98.3601E-03    -24.6628E-03     326.670E-03    -89.8335E-03     114.647E-03    -24.2847E-03     333.902E-03
              77     17.5541E-03     111.334E-03    -773.096E+03     123.804E+06     106.272E+06    -9.01541E+06    -77.6168E-03     102.148E-03    -24.5309E-03     343.129E-03    -93.9529E-03     118.615E-03    -24.1779E-03     348.576E-03
              78     17.5567E-03     112.368E-03     2.67027E+06     119.790E+06     96.9592E+06     618.174E+03    -76.6548E-03     101.176E-03    -24.5215E-03     358.876E-03    -92.3851E-03     117.061E-03    -24.2143E-03     362.780E-03
              79     17.5561E-03     113.400E-03    -18.9182E+06     95.7605E+06     54.4746E+06    -16.1142E+06    -66.7845E-03     91.3982E-03    -24.6138E-03     366.443E-03    -79.6154E-03     104.346E-03    -24.4528E-03     368.823E-03
              80     17.5612E-03     114.393E-03    -4.21005E+06     41.9339E+06     18.6479E+06    -32.7646E+06    -26.7252E-03     52.1546E-03    -25.4294E-03     341.525E-03    -33.3875E-03     58.9172E-03    -25.3909E-03     343.176E-03
              81     17.5573E-03     115.283E-03     10.7270E+06     10.0488E+06     21.6413E+06    -9.46838E+06     17.1067E-03     11.7658E-03    -28.8725E-03     221.905E-03     15.5906E-03     13.2880E-03    -28.7944E-03     222.754E-03
              82     17.3760E-03     116.170E-03     7.56311E+06    -2.60464E+06     11.4312E+06     5.64379E+06     25.7730E-03     11.6252E-03    -37.3982E-03     64.5075E-03     25.7506E-03     11.6152E-03    -37.3483E-03     64.6123E-03
              83     16.2374E-03     116.866E-03    -276.481E+03     9.32158E+06     29.7645E+06     3.58473E+06     18.3959E-03     25.6995E-03    -44.0954E-03     10.4266E-03     18.3372E-03     25.7027E-03    -43.9597E-03     10.4728E-03
              84     15.3564E-03     116.633E-03     281.091E+03     17.5474E+06     67.4321E+06    -3.91351E+06    -6.32176E-03     51.4332E-03    -45.1114E-03     18.4803E-03    -6.46163E-03     51.4089E-03    -44.8001E-03     18.4129E-03
              85     14.5222E-03     116.383E-03     13.9421E+06    -17.3978E+06     58.3026E+06    -7.46402E+06    -34.9770E-03     79.5520E-03    -44.5750E-03     4.86393E-03    -34.9941E-03     79.3372E-03    -44.2784E-03     4.71872E-03
              86     13.6997E-03     116.175E-03     23.2419E+06    -8.64603E+06     66.2719E+06     3.45802E+06    -43.1803E-03     86.4183E-03    -43.2381E-03    -14.0141E-03    -43.1710E-03     86.2199E-03    -42.9279E-03    -14.0344E-03
              87     12.8719E-03     116.006E-03     21.0905E+06     5.10669E+06     72.0972E+06     2.28149E+06    -45.6172E-03     87.4788E-03    -41.8616E-03    -20.3990E-03    -45.6389E-03     87.3488E-03    -41.5391E-03    -20.4329E-03
              88     12.0361E-03     115.871E-03     20.2223E+06    -1.86097E+06     64.0872E+06    -50.7647E+03    -47.5104E-03     88.0175E-03    -40.5071E-03    -21.2340E-03    -47.5091E-03     87.8709E-03    -40.2133E-03    -21.2929E-03
              89     11.1972E-03     115.756E-03     21.3908E+06    -883.420E+03     63.0854E+06    -43.1339E+03    -48.3315E-03     87.5013E-03    -39.1698E-03    -19.4175E-03    -48.3217E-03     87.3630E-03    -38.8841E-03    -19.4694E-03
              90     10.3536E-03     115.659E-03     20.3939E+06    -572.378E+03     60.2484E+06     275.504E+03    -47.5038E-03     85.3372E-03    -37.8334E-03    -16.4459E-03    -47.4935E-03     85.2089E-03    -37.5609E-03    -16.4855E-03
              91     9.50621E-03     115.575E-03     19.8798E+06     848.935E+03     58.2189E+06    -923.772E+03    -45.5226E-03     82.0841E-03    -36.5615E-03    -13.5722E-03    -45.5132E-03     81.9685E-03    -36.3004E-03    -13.6198E-03
              92     8.65453E-03     115.503E-03     20.4866E+06     66.7973E+03     56.2589E+06    -1.90466E+06    -43.0256E-03     78.4288E-03    -35.4032E-03    -11.0245E-03    -43.0085E-03     78.3128E-03    -35.1517E-03    -11.0777E-03
              93     7.79892E-03     115.441E-03     22.4995E+06     509.495E+03     54.6627E+06    -2.93791E+06    -40.5698E-03     74.9459E-03    -34.3761E-03    -8.93246E-03    -40.5403E-03     74.8326E-03    -34.1361E-03    -8.99284E-03
              94     6.93973E-03     115.390E-03     24.7619E+06    -1.61387E+06     53.3687E+06    -2.24088E+06    -38.3331E-03     71.8188E-03    -33.4857E-03    -7.24351E-03    -38.2868E-03     71.6943E-03    -33.2524E-03    -7.29002E-03
              95     6.07776E-03     115.345E-03     25.7767E+06     330.689E+03      49.063E+06    -1.42755E+06    -36.2900E-03     68.9966E-03    -32.7066E-03    -5.81093E-03    -36.2349E-03     68.8871E-03    -32.4991E-03    -5.84298E-03
              96     5.21327E-03     115.309E-03     26.8182E+06     239.593E+03     42.3604E+06    -1.91973E+06    -34.5380E-03     66.5883E-03    -32.0503E-03    -4.63814E-03    -34.4677E-03     66.4869E-03    -31.8777E-03    -4.67351E-03
              97     4.34683E-03     115.278E-03     29.1696E+06     56.6146E+03     40.8029E+06    -2.49046E+06    -33.1667E-03     64.7083E-03    -31.5416E-03    -3.71575E-03    -33.0820E-03     64.6051E-03    -31.3799E-03    -3.75614E-03
              98     3.47892E-03     115.254E-03     31.6863E+06    -1.09537E+06     40.3630E+06    -2.01602E+06    -32.1293E-03     63.2776E-03    -31.1483E-03    -2.95156E-03    -32.0296E-03     63.1658E-03    -30.9908E-03    -2.98386E-03
              99     2.60994E-03     115.235E-03     33.0706E+06    -134.441E+03     38.5118E+06    -1.25988E+06    -31.3321E-03     62.1823E-03    -30.8502E-03    -2.29538E-03    -31.2241E-03     62.0760E-03    -30.7054E-03    -2.31621E-03
             100     1.74020E-03     115.222E-03     33.7004E+06    -309.781E+03     35.5723E+06    -1.21042E+06    -30.7688E-03     61.4372E-03    -30.6684E-03    -1.70253E-03    -30.6531E-03     61.3335E-03    -30.5389E-03    -1.72120E-03
             101     869.758E-06     115.213E-03     34.9009E+06    -578.046E+03     34.1352E+06    -1.56081E+06    -30.3588E-03     61.1917E-03    -30.8329E-03    -1.22499E-03    -30.2345E-03     61.0870E-03    -30.7120E-03    -1.24686E-03
             102     123.118E-09     114.201E-03     30.2733E+06    -2.24874E+06     30.2365E+06    -966.141E+03    -27.4478E-03     55.1666E-03    -27.7189E-03    -64.5137E-06    -27.3380E-03     55.0666E-03    -27.6083E-03    -78.1853E-06
             103     193.162E-09     113.206E-03     19.0914E+06    -7.29828E+06     19.5058E+06    -1.12496E+06    -22.6137E-03     44.9979E-03    -22.3841E-03     1.07078E-03    -22.5363E-03     44.9051E-03    -22.3037E-03     1.05503E-03
             104    -95.0982E-09     112.218E-03     3.05664E+06    -13.6771E+06     3.62211E+06    -1.78103E+06    -19.0706E-03     38.0646E-03    -18.9941E-03     1.54112E-03    -19.0408E-03     37.9865E-03    -18.9605E-03     1.51712E-03
             105     140.416E-09     111.236E-03    -16.6429E+06    -21.1000E+06    -16.1053E+06    -2.78983E+06    -16.7543E-03     33.4913E-03    -16.7370E-03     2.07291E-03    -16.7835E-03     33.4334E-03    -16.7628E-03     2.03621E-03
             106    -149.940E-09     110.257E-03    -37.4778E+06    -29.9081E+06    -37.9889E+06    -2.55267E+06    -15.4481E-03     30.8817E-03    -15.4336E-03     2.48998E-03    -15.5369E-03     30.8417E-03    -15.5258E-03     2.45659E-03
             107     176.728E-09     109.280E-03    -62.1891E+06    -37.6336E+06    -61.2654E+06    -2.55734E+06    -14.9060E-03     29.7943E-03    -14.8884E-03     2.82210E-03    -15.0734E-03     29.7853E-03    -15.0499E-03     2.78882E-03
             108    -165.449E-09     108.303E-03    -85.3475E+06    -47.0253E+06    -85.6148E+06    -3.29357E+06    -14.8803E-03     29.7606E-03    -14.8803E-03     3.05396E-03    -15.1146E-03     29.7736E-03    -15.1164E-03     3.01130E-03
             109     146.879E-09     107.326E-03    -99.9264E+06    -54.9083E+06    -100.880E+06    -1.13149E+06    -15.2254E-03     30.4702E-03    -15.2448E-03     3.20637E-03    -15.4991E-03     30.4870E-03    -15.5247E-03     3.19169E-03
             110    -178.193E-09     106.348E-03    -81.1069E+06    -51.2485E+06    -82.7952E+06     3.53102E+06    -15.9288E-03     31.8950E-03    -15.9661E-03     3.30162E-03    -16.1399E-03     31.8765E-03    -16.1882E-03     3.34718E-03
             111     119.097E-09     105.368E-03    -49.0143E+06    -33.3702E+06    -49.2531E+06     7.11933E+06    -16.9358E-03     33.8883E-03    -16.9525E-03     3.39274E-03    -17.0611E-03     33.8640E-03    -17.0793E-03     3.48465E-03
             112    -97.4565E-09     104.386E-03    -30.9076E+06    -10.6671E+06    -30.2300E+06     6.54672E+06    -18.1051E-03     36.1975E-03    -18.0924E-03     3.50245E-03    -18.2003E-03     36.2329E-03    -18.1833E-03     3.58695E-03
             113     100.557E-09     103.402E-03    -19.5151E+06     6.21995E+06    -18.2962E+06     3.53287E+06    -19.3612E-03     38.7121E-03    -19.3509E-03     3.59645E-03    -19.4413E-03     38.7981E-03    -19.4231E-03     3.64198E-03
             114    -77.0592E-09     102.415E-03    -9.67228E+06     12.3761E+06    -8.91069E+06     153.492E+03    -20.6221E-03     41.2498E-03    -20.6277E-03     3.64822E-03    -20.6755E-03     41.3387E-03    -20.6762E-03     3.65001E-03
             115     46.8199E-09     101.425E-03    -928.421E+03     10.9351E+06    -1.01890E+06    -997.310E+03    -21.8176E-03     43.6448E-03    -21.8272E-03     3.66176E-03    -21.8366E-03     43.7024E-03    -21.8468E-03     3.64856E-03
             116    -40.3375E-09     100.433E-03     3.17812E+06     6.02223E+06     3.68724E+06    -1.90692E+06    -22.8843E-03     45.7847E-03    -22.9004E-03     3.65060E-03    -22.8825E-03     45.8050E-03    -22.8953E-03     3.62547E-03
             117     5.51686E-09     99.4395E-03     5.74807E+06    -1.38867E+06     5.49638E+06    -2.46640E+06    -23.8078E-03     47.6204E-03    -23.8126E-03     3.61378E-03    -23.7850E-03     47.5973E-03    -23.7915E-03     3.58126E-03
             118     12.2029E-09     98.4444E-03     6.36072E+06    -10.0191E+06     6.58024E+06    -2.58178E+06    -24.5841E-03     49.1653E-03    -24.5812E-03     3.57854E-03    -24.5473E-03     49.0966E-03    -24.5430E-03     3.54436E-03
             119    -27.9866E-09     97.4475E-03     6.02883E+06    -18.8444E+06     5.71259E+06    -2.56705E+06    -25.1997E-03     50.4183E-03    -25.2186E-03     3.52908E-03    -25.1505E-03     50.3072E-03    -25.1714E-03     3.49494E-03
             120     1.55277E-09     96.4499E-03     3.67106E+06    -26.9459E+06     3.70529E+06    -2.24001E+06    -25.6950E-03     51.4041E-03    -25.7091E-03     3.48554E-03    -25.6429E-03     51.2588E-03    -25.6569E-03     3.45548E-03
             121    -5.08466E-09     95.4512E-03     1.23631E+06    -34.3303E+06     1.07212E+06    -2.10461E+06    -26.0829E-03     52.1679E-03    -26.0850E-03     3.47805E-03    -26.0285E-03     51.9931E-03    -26.0317E-03     3.44962E-03
             122    -2.47444E-09     94.4520E-03    -2.31079E+06    -41.5613E+06    -2.19088E+06    -2.13689E+06    -26.3572E-03     52.7278E-03    -26.3706E-03     3.48211E-03    -26.3053E-03     52.5267E-03    -26.3180E-03     3.45316E-03
             123    -17.7194E-09     93.4523E-03    -5.24222E+06    -49.2120E+06    -5.32685E+06    -2.30515E+06    -26.5619E-03     53.1370E-03    -26.5751E-03     3.45977E-03    -26.5090E-03     52.9064E-03    -26.5228E-03     3.42855E-03
             124     8.20975E-09     92.4524E-03    -8.57997E+06    -56.2863E+06    -8.76933E+06    -1.86552E+06    -26.7135E-03     53.4277E-03    -26.7142E-03     3.43593E-03    -26.6620E-03     53.1716E-03    -26.6640E-03     3.41032E-03
             125    -7.53367E-09     91.4522E-03    -12.3689E+06    -62.3234E+06    -12.2636E+06    -1.73633E+06    -26.8040E-03     53.6160E-03    -26.8120E-03     3.43266E-03    -26.7577E-03     53.3403E-03    -26.7650E-03     3.40870E-03
             126    -11.3327E-09     90.4519E-03    -15.2829E+06    -68.4286E+06    -15.3924E+06    -1.82990E+06    -26.8619E-03     53.7361E-03    -26.8742E-03     3.42295E-03    -26.8167E-03     53.4386E-03    -26.8298E-03     3.39776E-03
             127     1.92215E-09     89.4515E-03    -17.7297E+06    -73.9704E+06    -17.8827E+06    -1.40022E+06    -26.9036E-03     53.8146E-03    -26.9110E-03     3.41687E-03    -26.8590E-03     53.4966E-03    -26.8675E-03     3.39722E-03
             128    -12.6517E-09     88.4512E-03    -19.4132E+06    -78.4072E+06    -19.3610E+06    -1.21215E+06    -26.9257E-03     53.8649E-03    -26.9392E-03     3.40690E-03    -26.8810E-03     53.5293E-03    -26.8942E-03     3.38968E-03
             129    -5.13570E-09     87.4507E-03    -20.5574E+06    -82.5438E+06    -20.6327E+06    -1.20065E+06    -26.9450E-03     53.8964E-03    -26.9514E-03     3.41203E-03    -26.8981E-03     53.5436E-03    -26.9051E-03     3.39494E-03
             130     5.42973E-09     86.4503E-03    -21.7745E+06    -86.5314E+06    -21.7916E+06    -1.09287E+06    -26.9515E-03     53.9103E-03    -26.9587E-03     3.44279E-03    -26.9033E-03     53.5410E-03    -26.9106E-03     3.42708E-03
             131    -23.9676E-09     85.4498E-03    -22.7779E+06    -90.2700E+06    -22.8071E+06    -1.03251E+06    -26.9488E-03     53.9057E-03    -26.9570E-03     3.44830E-03    -26.8987E-03     53.5207E-03    -26.9071E-03     3.43338E-03
             132     22.2956E-09     84.4495E-03    -23.6532E+06    -93.6385E+06    -23.6994E+06    -886.442E+03    -26.9507E-03     53.8997E-03    -26.9490E-03     3.43161E-03    -26.8988E-03     53.5003E-03    -26.8974E-03     3.41856E-03
             133    -23.6590E-09     83.4491E-03    -24.2772E+06    -96.6944E+06    -24.1918E+06    -965.681E+03    -26.9501E-03     53.9023E-03    -26.9522E-03     3.41136E-03    -26.8961E-03     53.4893E-03    -26.8978E-03     3.39730E-03
             134     16.8292E-09     82.4487E-03    -24.3110E+06    -99.7111E+06    -24.4499E+06    -892.944E+03    -26.9579E-03     53.9069E-03    -26.9491E-03     3.41045E-03    -26.8994E-03     53.4793E-03    -26.8915E-03     3.39734E-03
             135    -1.55988E-09     81.4483E-03    -24.1472E+06    -102.279E+06    -24.1575E+06    -584.432E+03    -26.9715E-03     53.9102E-03    -26.9386E-03     3.41685E-03    -26.9089E-03     53.4690E-03    -26.8761E-03     3.40775E-03
             136     38.3907E-09     80.4480E-03    -23.6895E+06    -104.397E+06    -23.6513E+06    -625.033E+03    -26.9686E-03     53.9154E-03    -26.9468E-03     3.44168E-03    -26.9014E-03     53.4623E-03    -26.8793E-03     3.43204E-03
             137    -42.0638E-09     79.4476E-03    -23.6389E+06    -106.062E+06    -23.8689E+06    -319.312E+03    -26.9409E-03     53.9025E-03    -26.9615E-03     3.46154E-03    -26.8707E-03     53.4412E-03    -26.8928E-03     3.45583E-03
             138     1.49939E-09     78.4473E-03    -24.0210E+06    -106.816E+06    -23.8940E+06    -129.868E+03    -26.9252E-03     53.8784E-03    -26.9532E-03     3.44329E-03    -26.8557E-03     53.4140E-03    -26.8829E-03     3.44004E-03
             139    -14.0656E-09     77.4470E-03    -22.5328E+06    -107.934E+06    -22.4407E+06    -524.210E+03    -26.9377E-03     53.8881E-03    -26.9505E-03     3.43280E-03    -26.8612E-03     53.4139E-03    -26.8735E-03     3.42445E-03
             140    -279.588E-12     76.4467E-03    -21.5263E+06    -109.610E+06    -21.6749E+06    -412.216E+03    -26.9501E-03     53.8946E-03    -26.9445E-03     3.43382E-03    -26.8674E-03     53.4094E-03    -26.8627E-03     3.42693E-03
             141     17.3222E-09     75.4464E-03    -21.7810E+06    -110.499E+06    -21.7806E+06    -129.066E+03    -26.9428E-03     53.8754E-03    -26.9325E-03     3.44843E-03    -26.8599E-03     53.3862E-03    -26.8496E-03     3.44518E-03
             142    -21.8942E-09     74.4462E-03    -21.6805E+06    -110.956E+06    -21.6369E+06    -171.414E+03    -26.9235E-03     53.8624E-03    -26.9389E-03     3.43984E-03    -26.8396E-03     53.3706E-03    -26.8547E-03     3.43605E-03
             143    -5.43943E-09     73.4459E-03    -21.6779E+06    -111.338E+06    -21.7880E+06    -28.5240E+03    -26.9263E-03     53.8501E-03    -26.9239E-03     3.41938E-03    -26.8416E-03     53.3567E-03    -26.8399E-03     3.41747E-03
             144     30.2391E-09     72.4457E-03    -21.5383E+06    -111.307E+06    -21.4754E+06     64.4482E+03    -26.9528E-03     53.8450E-03    -26.8922E-03     3.42026E-03    -26.8679E-03     53.3510E-03    -26.8069E-03     3.41954E-03
             145     46.3634E-09     71.4454E-03    -21.1373E+06    -111.075E+06    -21.1815E+06     66.7983E+03    -26.9501E-03     53.8374E-03    -26.8873E-03     3.42911E-03    -26.8640E-03     53.3436E-03    -26.8015E-03     3.42841E-03
             146    -19.0115E-09     70.4453E-03    -20.9134E+06    -110.710E+06    -20.8963E+06     133.059E+03    -26.9058E-03     53.8236E-03    -26.9179E-03     3.42427E-03    -26.8195E-03     53.3309E-03    -26.8315E-03     3.42443E-03
             147    -34.8611E-09     69.4450E-03    -20.8177E+06    -110.573E+06     -20.773E+06     1.17110E+03    -26.8843E-03     53.8200E-03    -26.9357E-03     3.38953E-03    -26.7979E-03     53.3276E-03    -26.8490E-03     3.38803E-03
             148    -6.18568E-09     68.4448E-03    -20.5820E+06    -110.516E+06    -20.6366E+06     29.3815E+03    -26.9063E-03     53.8272E-03    -26.9209E-03     3.38257E-03    -26.8190E-03     53.3345E-03    -26.8340E-03     3.38144E-03
             149     15.7051E-09     67.4446E-03    -20.3648E+06    -110.312E+06    -20.3519E+06     55.6001E+03    -26.9311E-03     53.8344E-03    -26.9033E-03     3.40521E-03    -26.8435E-03     53.3421E-03    -26.8156E-03     3.40439E-03
             150     18.2898E-09     66.4443E-03    -20.1277E+06    -110.077E+06    -20.1569E+06     74.1799E+03    -26.9250E-03     53.8215E-03    -26.8965E-03     3.42691E-03    -26.8368E-03     53.3298E-03    -26.8085E-03     3.42631E-03
             151    -8.19369E-09     65.4441E-03    -19.9805E+06    -109.763E+06    -19.8991E+06     46.6987E+03    -26.9014E-03     53.8183E-03    -26.9169E-03     3.42162E-03    -26.8133E-03     53.3275E-03    -26.8283E-03     3.42066E-03
             152    -33.5770E-09     64.4440E-03    -19.8494E+06    -109.652E+06    -19.8746E+06     2.75118E+03    -26.9040E-03     53.8408E-03    -26.9368E-03     3.38812E-03    -26.8154E-03     53.3503E-03    -26.8484E-03     3.38664E-03
             153     12.3317E-09     63.4436E-03    -19.8035E+06    -109.621E+06    -19.8219E+06     60.3452E+03    -26.9287E-03     53.8492E-03    -26.9205E-03     3.40086E-03    -26.8400E-03     53.3587E-03    -26.8319E-03     3.40012E-03
             154     17.7151E-09     62.4434E-03    -19.7166E+06    -109.483E+06    -19.7012E+06     31.3790E+03    -26.9278E-03     53.8315E-03    -26.9036E-03     3.43299E-03    -26.8391E-03     53.3414E-03    -26.8148E-03     3.43183E-03
             155    -10.6118E-09     61.4432E-03    -19.6024E+06    -109.352E+06    -19.5986E+06     18.1989E+03    -26.8907E-03     53.8172E-03    -26.9265E-03     3.42497E-03    -26.8017E-03     53.3275E-03    -26.8375E-03     3.42364E-03
             156    -64.5583E-09     60.4430E-03    -19.4627E+06    -109.222E+06    -19.4959E+06     39.4514E+03    -26.8730E-03     53.8162E-03    -26.9432E-03     3.39147E-03    -26.7837E-03     53.3268E-03    -26.8541E-03     3.39046E-03
             157     11.1252E-09     59.4428E-03    -19.4533E+06    -109.167E+06    -19.4557E+06     61.0345E+03    -26.9151E-03     53.8173E-03    -26.9022E-03     3.39849E-03    -26.8258E-03     53.3280E-03    -26.8129E-03     3.39776E-03
             158     59.5796E-09     58.4426E-03    -19.4303E+06    -109.062E+06    -19.3858E+06     36.0183E+03    -26.9390E-03     53.8133E-03    -26.8743E-03     3.43600E-03    -26.8499E-03     53.3244E-03    -26.7849E-03     3.43491E-03
             159     23.5429E-09     56.4421E-03    -19.3333E+06    -108.891E+06    -19.3460E+06     57.0151E+03    -26.9147E-03     53.7989E-03    -26.8842E-03     3.44695E-03    -26.8254E-03     53.3108E-03    -26.7950E-03     3.44611E-03
             160     22.4987E-09     55.4419E-03    -19.3743E+06    -108.831E+06    -19.3323E+06     57.1361E+03    -26.9100E-03     53.7826E-03    -26.8726E-03     3.50142E-03    -26.8210E-03     53.2948E-03    -26.7834E-03     3.50054E-03
             161    -8.16913E-09     54.4417E-03    -19.3903E+06    -108.798E+06    -19.3679E+06    -4.69373E+03    -26.8831E-03     53.7552E-03    -26.8721E-03     3.50140E-03    -26.7942E-03     53.2676E-03    -26.7830E-03     3.49972E-03
             162     7.78186E-09     53.4416E-03    -19.2940E+06    -108.688E+06    -19.3349E+06     27.8023E+03    -26.8623E-03     53.7293E-03    -26.8671E-03     3.44152E-03    -26.7731E-03     53.2421E-03    -26.7782E-03     3.44031E-03
             163    -21.7377E-09     52.4416E-03    -19.3167E+06    -108.614E+06    -19.2964E+06     13.4179E+03    -26.8585E-03     53.7165E-03    -26.8580E-03     3.33808E-03    -26.7696E-03     53.2296E-03    -26.7690E-03     3.33677E-03
             164     31.6516E-09     51.4415E-03    -19.2993E+06    -108.530E+06    -19.2667E+06    -45.0224E+03    -26.8459E-03     53.7101E-03    -26.8642E-03     3.31202E-03    -26.7571E-03     53.2236E-03    -26.7752E-03     3.30996E-03
             165    -78.4537E-09     50.4413E-03    -19.2492E+06    -108.483E+06    -19.2866E+06     5.07726E+03    -26.8094E-03     53.7070E-03    -26.8975E-03     3.36875E-03    -26.7204E-03     53.2206E-03    -26.8087E-03     3.36729E-03
             166    -34.8358E-09     49.4412E-03    -19.2601E+06    -108.443E+06    -19.2934E+06     67.3447E+03    -26.8215E-03     53.6891E-03    -26.8676E-03     3.33085E-03    -26.7325E-03     53.2030E-03    -26.7789E-03     3.33027E-03
             167     61.7721E-09     48.4412E-03    -19.2269E+06    -108.311E+06    -19.2164E+06     53.2400E+03    -26.8494E-03     53.6292E-03    -26.7798E-03     3.31112E-03    -26.7606E-03     53.1436E-03    -26.6910E-03     3.31038E-03
             168     28.2242E-09     47.4412E-03    -19.2256E+06    -108.248E+06    -19.2226E+06     13.1270E+03    -26.8049E-03     53.5778E-03    -26.7730E-03     3.38025E-03    -26.7162E-03     53.0925E-03    -26.6842E-03     3.37890E-03
             169    -67.5832E-09     46.4412E-03    -19.0841E+06    -108.082E+06    -19.1127E+06     42.8426E+03    -26.7454E-03     53.5496E-03    -26.8042E-03     3.39116E-03    -26.6564E-03     53.0648E-03    -26.7154E-03     3.39018E-03
             170    -1.69948E-09     45.4412E-03    -18.9704E+06    -108.009E+06    -18.9496E+06     18.7433E+03    -26.7361E-03     53.4857E-03    -26.7496E-03     3.38039E-03    -26.6468E-03     53.0008E-03    -26.6602E-03     3.37911E-03
             171     42.1989E-09     44.4414E-03    -18.9155E+06    -108.055E+06    -18.9411E+06    -9.35207E+03    -26.7195E-03     53.3687E-03    -26.6492E-03     3.37981E-03    -26.6300E-03     52.8835E-03    -26.5598E-03     3.37817E-03
             172     35.0286E-09     43.4417E-03    -18.9529E+06    -108.061E+06    -18.9116E+06    -9.19280E+03    -26.6390E-03     53.2505E-03    -26.6114E-03     3.35382E-03    -26.5496E-03     52.7652E-03    -26.5218E-03     3.35221E-03
             173    -68.7124E-09     42.4422E-03    -18.9151E+06    -108.078E+06    -18.9537E+06     39.8743E+03    -26.5641E-03     53.1368E-03    -26.5727E-03     3.24341E-03    -26.4745E-03     52.6515E-03    -26.4833E-03     3.24255E-03
             174     81.9721E-09     41.4427E-03    -18.9692E+06    -107.962E+06    -18.9123E+06     41.9123E+03    -26.5140E-03     52.9938E-03    -26.4797E-03     3.20188E-03    -26.4249E-03     52.5090E-03    -26.3902E-03     3.20106E-03
             175    -39.2437E-09     40.4434E-03    -19.0495E+06    -107.967E+06    -19.0582E+06    -76.0590E+03    -26.4123E-03     52.8368E-03    -26.4246E-03     3.18458E-03    -26.3233E-03     52.3524E-03    -26.3357E-03     3.18222E-03
             176    -29.9237E-09     39.4443E-03    -19.0708E+06    -108.024E+06    -19.1542E+06    -16.3442E+03    -26.2931E-03     52.6601E-03    -26.3670E-03     3.10678E-03    -26.2040E-03     52.1756E-03    -26.2785E-03     3.10524E-03
             177    -35.9756E-09     38.4454E-03    -19.1379E+06    -108.026E+06    -19.0886E+06    -72.1096E+03    -26.2171E-03     52.4696E-03    -26.2525E-03     3.10304E-03    -26.1284E-03     51.9850E-03    -26.1635E-03     3.10077E-03
             178     35.9298E-09     37.4465E-03    -19.0753E+06    -107.990E+06    -19.2013E+06     37.6130E+03    -26.1257E-03     52.2529E-03    -26.1272E-03     3.13537E-03    -26.0366E-03     51.7686E-03    -26.0390E-03     3.13451E-03
             179    -44.6026E-09     36.4480E-03    -18.9791E+06    -107.585E+06    -18.9652E+06     176.512E+03    -25.9807E-03     51.9853E-03    -26.0045E-03     3.11599E-03    -25.8921E-03     51.5026E-03    -25.9159E-03     3.11696E-03
             180     7.14134E-09     35.4498E-03    -18.7329E+06    -107.115E+06    -18.8040E+06     191.483E+03    -25.8263E-03     51.6674E-03    -25.8412E-03     3.02870E-03    -25.7373E-03     51.1864E-03    -25.7527E-03     3.02993E-03
             181    -890.681E-12     34.4519E-03    -18.5287E+06    -106.521E+06    -18.4548E+06     146.840E+03    -25.6511E-03     51.2991E-03    -25.6479E-03     2.97305E-03    -25.5625E-03     50.8202E-03    -25.5589E-03     2.97373E-03
             182    -3.10746E-09     33.4544E-03    -18.3213E+06    -106.174E+06    -18.3445E+06     52.0096E+03    -25.4360E-03     50.8929E-03    -25.4569E-03     2.97366E-03    -25.3470E-03     50.4153E-03    -25.3681E-03     2.97310E-03
             183    -33.9336E-09     32.4572E-03    -17.9758E+06    -105.701E+06    -18.0543E+06     210.192E+03    -25.1932E-03     50.4058E-03    -25.2126E-03     2.98613E-03    -25.1036E-03     49.9297E-03    -25.1235E-03     2.98761E-03
             184     31.9878E-09     31.4607E-03    -17.8896E+06    -105.137E+06    -17.8278E+06     186.644E+03    -24.9096E-03     49.8111E-03    -24.9015E-03     3.00431E-03    -24.8208E-03     49.3374E-03    -24.8122E-03     3.00547E-03
             185    -19.1628E-09     30.4648E-03    -17.8450E+06    -104.692E+06    -17.9183E+06     169.830E+03    -24.5740E-03     49.1718E-03    -24.5978E-03     2.95949E-03    -24.4854E-03     48.7004E-03    -24.5097E-03     2.96046E-03
             186    -40.5119E-09     29.4697E-03    -17.8897E+06    -104.121E+06    -17.8337E+06     125.400E+03    -24.2188E-03     48.4909E-03    -24.2721E-03     2.84192E-03    -24.1314E-03     48.0223E-03    -24.1843E-03     2.84238E-03
             187     3.59809E-09     28.4749E-03    -17.7397E+06    -103.599E+06    -17.8869E+06     151.063E+03    -23.8490E-03     47.7138E-03    -23.8648E-03     2.73764E-03    -23.7615E-03     47.2476E-03    -23.7783E-03     2.73851E-03
             188     337.782E-12     27.4815E-03    -17.4791E+06    -102.872E+06    -17.4825E+06     328.686E+03    -23.4399E-03     46.8939E-03    -23.4540E-03     2.64700E-03    -23.3528E-03     46.4304E-03    -23.3669E-03     2.65023E-03
             189    -32.2552E-09     26.4884E-03    -17.3950E+06    -102.173E+06    -17.3180E+06     154.226E+03    -23.0022E-03     46.0400E-03    -23.0379E-03     2.54832E-03    -22.9158E-03     45.5797E-03    -22.9511E-03     2.54934E-03
             190    -723.413E-12     25.4965E-03    -17.4374E+06    -101.708E+06    -17.5415E+06     71.3659E+03    -22.5370E-03     45.0849E-03    -22.5479E-03     2.47132E-03    -22.4512E-03     44.6273E-03    -22.4629E-03     2.47132E-03
             191     10.4399E-09     24.5054E-03    -17.4530E+06    -101.168E+06    -17.4934E+06     154.934E+03    -22.0481E-03     44.0872E-03    -22.0391E-03     2.40646E-03    -21.9632E-03     43.6321E-03    -21.9546E-03     2.40759E-03
             192    -7.50700E-09     23.5155E-03    -17.2662E+06    -100.496E+06    -17.3938E+06     328.812E+03    -21.5193E-03     43.0436E-03    -21.5243E-03     2.29561E-03    -21.4346E-03     42.5915E-03    -21.4405E-03     2.29905E-03
             193    -8.16086E-09     22.5264E-03    -16.7331E+06    -99.2120E+06    -16.7327E+06     431.757E+03    -20.9401E-03     41.9157E-03    -20.9756E-03     2.14941E-03    -20.8556E-03     41.4683E-03    -20.8912E-03     2.15426E-03
             194    -40.8663E-09     21.5389E-03    -16.1189E+06    -97.7893E+06    -16.1636E+06     365.505E+03    -20.3766E-03     40.7706E-03    -20.3940E-03     1.93642E-03    -20.2919E-03     40.3286E-03    -20.3096E-03     1.94049E-03
             195     57.0562E-09     20.5521E-03    -15.3200E+06    -96.0937E+06    -15.4077E+06      520.51E+03    -19.8161E-03     39.6219E-03    -19.8058E-03     1.81309E-03    -19.7309E-03     39.1861E-03    -19.7213E-03     1.81922E-03
             196    -57.6815E-09     19.5666E-03    -14.5582E+06    -94.1992E+06    -14.5484E+06     588.554E+03    -19.2365E-03     38.4314E-03    -19.1949E-03     1.69775E-03    -19.1515E-03     38.0027E-03    -19.1100E-03     1.70480E-03
             197     130.513E-09     18.5822E-03    -13.5671E+06    -92.1766E+06    -13.5892E+06     621.056E+03    -18.6287E-03     37.1910E-03    -18.5624E-03     1.55791E-03    -18.5431E-03     36.7697E-03    -18.4770E-03     1.56543E-03
             198    -87.5481E-09     17.5993E-03    -12.1856E+06    -89.6575E+06    -12.2554E+06     749.665E+03    -17.9697E-03     35.9417E-03    -17.9720E-03     1.37421E-03    -17.8828E-03     35.5290E-03    -17.8856E-03     1.38344E-03
             199     38.8563E-09     16.6174E-03    -9.82714E+06    -86.2995E+06    -10.1108E+06     1.23715E+06    -17.4052E-03     34.7293E-03    -17.3241E-03     1.10003E-03    -17.3145E-03     34.3269E-03    -17.2353E-03     1.11563E-03
             200     149.529E-09     15.6367E-03    -8.79900E+06    -81.4838E+06    -8.64919E+06     1.40624E+06    -16.8032E-03     33.4822E-03    -16.6790E-03     989.982E-06    -16.7164E-03     33.1003E-03    -16.5914E-03     1.00780E-03
             201    -116.953E-09     14.6571E-03    -6.01866E+06    -77.3563E+06    -5.88695E+06     998.250E+03    -16.1144E-03     32.1642E-03    -16.0498E-03     851.415E-06    -16.0238E-03     31.7949E-03    -15.9583E-03     864.020E-06
             202     200.117E-09     13.6790E-03    -1.71818E+06    -74.4487E+06    -1.78905E+06     777.494E+03    -15.4111E-03     30.6806E-03    -15.2696E-03     726.869E-06    -15.3090E-03     30.3136E-03    -15.1681E-03     736.665E-06
             203    -33.3264E-09     12.7022E-03    -2.32172E+06    -72.5380E+06    -2.12218E+06     462.573E+03    -14.4981E-03     28.8673E-03    -14.3692E-03     574.432E-06    -14.4014E-03     28.5111E-03    -14.2712E-03     580.167E-06
             204     97.6093E-09     11.7278E-03    -5.83140E+06    -72.1052E+06    -5.64633E+06    -41.5814E+03    -13.5289E-03     26.9265E-03    -13.3976E-03     421.738E-06    -13.4452E-03     26.5828E-03    -13.3129E-03     420.967E-06
             205     73.5077E-09     10.7548E-03    -9.54457E+06    -72.2951E+06    -9.49792E+06    -34.1068E+03    -12.6901E-03     25.2579E-03    -12.5678E-03     460.509E-06    -12.6192E-03     24.9242E-03    -12.4966E-03     459.801E-06
             206    -26.7541E-09     9.78353E-03    -12.4173E+06    -72.8288E+06    -12.0785E+06    -257.972E+03    -12.1545E-03     24.2561E-03    -12.1015E-03     519.358E-06    -12.0934E-03     23.9276E-03    -12.0383E-03     515.719E-06
             207     77.8111E-09     8.81260E-03    -14.0252E+06    -74.3747E+06    -13.5437E+06    -615.119E+03    -12.1806E-03     24.2688E-03    -12.0882E-03     715.194E-06    -12.1232E-03     23.9371E-03    -12.0277E-03     706.958E-06
             208     40.7154E-09     7.84109E-03    -13.2054E+06    -76.2954E+06    -13.1547E+06    -677.434E+03    -12.6763E-03     25.3385E-03    -12.6622E-03     970.810E-06    -12.6125E-03     24.9954E-03    -12.5982E-03     961.819E-06
             209    -133.926E-09     6.86823E-03    -10.7736E+06    -78.4221E+06    -10.9042E+06    -692.782E+03    -13.6156E-03     27.2808E-03    -13.6652E-03     1.11418E-03    -13.5399E-03     26.9202E-03    -13.5904E-03     1.10501E-03
             210     137.331E-09     5.89271E-03    -9.13800E+06    -81.0578E+06    -8.95388E+06    -768.449E+03    -14.8373E-03     29.6527E-03    -14.8154E-03     1.19250E-03    -14.7524E-03     29.2738E-03    -14.7294E-03     1.18240E-03
             211    -100.098E-09     4.91532E-03    -9.38595E+06    -83.9848E+06    -9.48321E+06    -875.384E+03    -16.0103E-03     32.0428E-03    -16.0325E-03     1.16954E-03    -15.9216E-03     31.6504E-03    -15.9445E-03     1.15809E-03
             212     22.1852E-09     3.93528E-03    -10.4534E+06    -86.5383E+06    -10.4880E+06    -721.010E+03    -17.1278E-03     34.2776E-03    -17.1498E-03     1.01430E-03    -17.0393E-03     33.8754E-03    -17.0616E-03     1.00486E-03
             213     16.0561E-09     2.95337E-03    -11.1531E+06    -88.6353E+06    -11.2732E+06    -541.549E+03    -18.0562E-03     36.1294E-03    -18.0732E-03     851.124E-06    -17.9669E-03     35.7189E-03    -17.9849E-03     844.020E-06
             214    -86.1043E-09     1.96991E-03    -11.5655E+06    -90.2796E+06    -12.0593E+06    -320.377E+03    -18.7437E-03     37.5368E-03    -18.7931E-03     606.981E-06    -18.6528E-03     37.1199E-03    -18.7058E-03     602.763E-06
             215     62.6109E-09     985.174E-06    -12.0524E+06    -91.1974E+06    -11.9564E+06     -214.46E+03    -19.2214E-03     38.4329E-03    -19.2115E-03     321.624E-06    -19.1317E-03     38.0119E-03    -19.1216E-03     318.867E-06
             216     882.767E-06              0.    -11.9834E+06    -91.4596E+06    -11.8846E+06    -190.123E+03    -19.4462E-03     38.8203E-03    -19.3741E-03     270.966E-06    -19.3561E-03     38.3978E-03    -19.2836E-03     268.522E-06
             217     1.76539E-03              0.    -11.5339E+06    -91.3055E+06    -11.7081E+06    -258.836E+03    -19.6353E-03     39.0904E-03    -19.4551E-03     465.516E-06    -19.5435E-03     38.6676E-03    -19.3646E-03     462.106E-06
             218     2.64778E-03              0.    -11.0592E+06    -91.2878E+06    -11.6944E+06    -487.859E+03    -19.9639E-03     39.5289E-03    -19.5650E-03     745.991E-06    -19.8699E-03     39.1055E-03    -19.4751E-03     739.610E-06
             219     3.52980E-03              0.    -10.5652E+06    -91.4981E+06    -11.9731E+06    -408.756E+03    -20.4341E-03     40.1515E-03    -19.7174E-03     1.03727E-03    -20.3369E-03     39.7267E-03    -19.6293E-03     1.03188E-03
             220     4.41134E-03              0.    -9.93615E+06    -92.1664E+06    -13.2411E+06    -772.825E+03    -21.0455E-03     40.9563E-03    -19.9108E-03     1.37673E-03    -20.9423E-03     40.5290E-03    -19.8289E-03     1.36660E-03
             221     5.29226E-03              0.    -8.91093E+06    -93.6050E+06    -16.5645E+06    -1.38728E+06    -21.7981E-03     41.9380E-03    -20.1400E-03     1.73816E-03    -21.6829E-03     41.5069E-03    -20.0741E-03     1.72001E-03
             222     6.17248E-03              0.    -7.00472E+06    -95.1242E+06    -21.5985E+06    -2.50845E+06    -22.6845E-03     43.0886E-03    -20.4041E-03     2.18819E-03    -22.5502E-03     42.6545E-03    -20.3640E-03     2.15548E-03
             223     7.05174E-03              0.    -3.98088E+06    -95.8836E+06    -27.4557E+06    -3.71947E+06    -23.7038E-03     44.4090E-03    -20.7052E-03     2.63792E-03    -23.5449E-03     43.9752E-03    -20.6977E-03     2.58937E-03
             224     7.93034E-03              0.    -147.240E+03    -91.8033E+06    -34.1719E+06    -4.24964E+06    -24.9057E-03     45.9457E-03    -21.0400E-03     3.26438E-03    -24.7237E-03     45.5365E-03    -21.0776E-03     3.20879E-03
             225     8.80720E-03              0.     3.27189E+06    -85.1757E+06    -40.8063E+06    -4.11466E+06    -26.2798E-03     47.7024E-03    -21.4226E-03     4.15166E-03    -26.0807E-03     47.3310E-03    -21.5079E-03     4.09764E-03
             226     9.68311E-03              0.     6.65604E+06    -73.1604E+06    -43.3637E+06    -4.69984E+06    -27.6565E-03     49.5202E-03    -21.8637E-03     5.10930E-03    -27.4543E-03     49.2077E-03    -21.9841E-03     5.04696E-03
             227     10.5576E-03              0.     10.6494E+06    -52.0496E+06    -40.9986E+06    -4.55000E+06    -29.1783E-03     51.5349E-03    -22.3567E-03     5.81648E-03    -28.9902E-03     51.3188E-03    -22.5016E-03     5.75516E-03
             228     11.4317E-03              0.     13.5133E+06    -26.2706E+06    -34.5212E+06    -2.84700E+06    -31.0329E-03     53.9492E-03    -22.9163E-03     8.09429E-03    -30.8774E-03     53.8485E-03    -23.0704E-03     8.05405E-03
             229     12.2991E-03              0.     13.5898E+06     5.77042E+06    -24.7990E+06    -1.36471E+06    -32.7274E-03     56.2634E-03    -23.5361E-03     9.63377E-03    -32.6321E-03     56.3090E-03    -23.6881E-03     9.61000E-03
             230     13.1742E-03              0.     12.7495E+06     33.8748E+06    -10.7503E+06    -788.216E+03    -34.4475E-03     58.6671E-03    -24.2197E-03     9.86106E-03    -34.4177E-03     58.8342E-03    -24.3410E-03     9.84349E-03
             231     14.0380E-03              0.     12.8452E+06     54.9283E+06     13.3007E+06     302.351E+03    -39.0846E-03     64.1630E-03    -25.0785E-03     17.9989E-03    -39.1213E-03     64.4017E-03    -25.1102E-03     17.9867E-03
             232     14.8959E-03              0.     9.91409E+06     71.2569E+06     43.5808E+06    -526.804E+03    -48.0995E-03     74.3868E-03    -26.2872E-03     31.8416E-03    -48.2193E-03     74.6679E-03    -26.1870E-03     31.8183E-03
             233     15.7416E-03              0.     6.47210E+06     80.0491E+06     66.9397E+06     3.24853E+06    -55.6110E-03     83.4348E-03    -27.8238E-03     50.5282E-03    -55.8110E-03     83.7406E-03    -27.6145E-03     50.5075E-03
             234     16.5703E-03              0.     9.83380E+06     101.116E+06     84.6448E+06     8.76121E+06    -76.5415E-03     106.417E-03    -29.8753E-03     91.4297E-03    -77.1137E-03     107.146E-03    -29.6130E-03     90.7274E-03
             235     17.4550E-03     1.12301E-03     5.26001E+06     126.245E+06     87.7383E+06     9.26635E+06    -100.902E-03     130.480E-03    -29.5785E-03     146.116E-03    -102.699E-03     132.518E-03    -29.3305E-03     144.139E-03
             236     17.4945E-03     2.25425E-03    -7.18200E+06     137.729E+06     81.9999E+06     8.34312E+06    -107.224E-03     134.561E-03    -27.3368E-03     192.680E-03    -110.835E-03     138.417E-03    -27.1161E-03     189.919E-03
             237     17.5057E-03     3.35643E-03    -6.40253E+06     150.027E+06     89.8107E+06     6.69317E+06    -103.072E-03     129.499E-03    -26.4270E-03     220.961E-03    -108.385E-03     135.069E-03    -26.1862E-03     218.565E-03
             238     17.5175E-03     4.42808E-03    -3.35569E+06     159.716E+06     99.4093E+06     3.76530E+06    -94.9523E-03     121.110E-03    -26.1572E-03     237.725E-03    -101.793E-03     128.220E-03    -25.8868E-03     236.606E-03
             239     17.5178E-03     5.49303E-03    -2.20656E+06     165.122E+06     105.671E+06     1.72286E+06    -91.2942E-03     117.329E-03    -26.0350E-03     251.318E-03    -99.3816E-03     125.692E-03    -25.7429E-03     251.224E-03
             240     17.5224E-03     6.55793E-03    -1.58147E+06     167.266E+06     106.210E+06     1.22430E+06    -87.4764E-03     113.482E-03    -26.0053E-03     263.572E-03    -96.6301E-03     122.918E-03    -25.7145E-03     264.421E-03
             241     17.5226E-03     7.60848E-03    -3.83389E+06     164.644E+06     103.376E+06    -436.622E+03    -84.3670E-03     110.416E-03    -26.0492E-03     273.588E-03    -94.4756E-03     120.797E-03    -25.7655E-03     275.353E-03
             242     17.5204E-03     8.65774E-03    -3.80808E+06     165.805E+06     104.560E+06     959.364E+03    -81.8484E-03     107.999E-03    -26.1509E-03     272.670E-03    -92.4589E-03     118.881E-03    -25.8630E-03     275.381E-03
             243     17.5211E-03     9.69361E-03    -3.15799E+06     169.310E+06     105.115E+06     1.97672E+06    -76.9111E-03     103.175E-03    -26.2634E-03     271.287E-03    -87.8618E-03     114.410E-03    -25.9788E-03     275.109E-03
             244     17.5214E-03     10.7360E-03    -2.62053E+06     172.310E+06     106.075E+06     1.62568E+06    -74.4123E-03     100.723E-03    -26.3111E-03     275.097E-03    -85.8964E-03     112.503E-03    -26.0268E-03     279.695E-03
             245     17.5213E-03     11.7768E-03    -2.99430E+06     174.283E+06     106.890E+06     836.690E+03    -71.7790E-03     98.1633E-03    -26.3843E-03     276.169E-03    -83.7021E-03     110.384E-03    -26.0982E-03     281.566E-03
             246     17.5204E-03     12.8051E-03    -3.07807E+06     174.217E+06     107.071E+06     571.555E+03    -67.7154E-03     94.2008E-03    -26.4854E-03     271.611E-03    -79.7359E-03     106.517E-03    -26.1981E-03     277.933E-03
             247     17.5211E-03     13.8295E-03    -2.45057E+06     174.451E+06     107.353E+06     640.230E+03    -64.8782E-03     91.3972E-03    -26.5190E-03     264.212E-03    -76.7766E-03     103.594E-03    -26.2316E-03     271.232E-03
             248     17.5215E-03     14.8597E-03    -2.66958E+06     176.183E+06     107.382E+06    -165.322E+03    -63.1889E-03     89.7102E-03    -26.5213E-03     262.315E-03    -75.2480E-03     102.074E-03    -26.2360E-03     269.905E-03
             249     17.5218E-03     15.8908E-03    -2.27534E+06     178.652E+06     109.760E+06     247.933E+03    -61.4569E-03     88.0112E-03    -26.5542E-03     265.900E-03    -73.9795E-03     100.842E-03    -26.2612E-03     274.128E-03
             250     17.5222E-03     16.9189E-03    -2.13707E+06     181.105E+06     110.913E+06     843.014E+03    -58.5329E-03     85.1383E-03    -26.6053E-03     268.875E-03    -71.4527E-03     98.3718E-03    -26.3103E-03     277.844E-03
             251     17.5229E-03     17.9398E-03    -2.81710E+06     182.811E+06     110.724E+06     257.238E+03    -56.0223E-03     82.6622E-03    -26.6399E-03     270.549E-03    -69.2261E-03     96.1839E-03    -26.3472E-03     280.158E-03
             252     17.5229E-03     18.9624E-03    -2.83831E+06     183.275E+06     111.875E+06     26.1520E+03    -54.3256E-03     80.9973E-03    -26.6716E-03     271.108E-03    -67.7287E-03     94.7166E-03    -26.3739E-03     281.206E-03
             253     17.5232E-03     19.9810E-03    -2.72271E+06     183.841E+06     112.476E+06     76.8843E+03    -52.5082E-03     79.2178E-03    -26.7096E-03     271.752E-03    -66.1146E-03     93.1409E-03    -26.4098E-03     282.353E-03
             254     17.5232E-03     20.9982E-03    -2.79785E+06     185.470E+06     113.219E+06     702.053E+03    -50.6831E-03     77.4269E-03    -26.7439E-03     273.323E-03    -64.4842E-03     91.5484E-03    -26.4426E-03     284.396E-03
             255     17.5239E-03     22.0169E-03    -3.35850E+06     186.758E+06     113.989E+06    -32.8663E+03    -48.4561E-03     75.2402E-03    -26.7841E-03     275.168E-03    -62.4725E-03     89.5770E-03    -26.4800E-03     286.774E-03
             256     17.5239E-03     23.0263E-03    -3.06700E+06     186.068E+06     114.062E+06    -1.26764E+06    -46.9052E-03     73.7124E-03    -26.8072E-03     275.177E-03    -61.0168E-03     88.1428E-03    -26.5022E-03     287.178E-03
             257     17.5243E-03     24.0402E-03    -2.03285E+06     185.848E+06     114.581E+06    -251.752E+03    -46.0831E-03     72.8996E-03    -26.8165E-03     276.625E-03    -60.3180E-03     87.4549E-03    -26.5101E-03     288.889E-03
             258     17.5246E-03     25.0548E-03    -2.48382E+06     187.520E+06     115.314E+06     634.780E+03    -44.7409E-03     71.5856E-03    -26.8447E-03     280.895E-03    -59.3081E-03     86.4754E-03    -26.5364E-03     293.564E-03
             259     17.5247E-03     26.0636E-03    -3.22213E+06     188.878E+06     115.577E+06     481.925E+03    -42.8722E-03     69.7584E-03    -26.8862E-03     282.981E-03    -57.6306E-03     84.8406E-03    -26.5775E-03     296.055E-03
             260     17.5249E-03     27.0704E-03    -2.91966E+06     189.516E+06     115.952E+06      339.09E+03    -41.5796E-03     68.4938E-03    -26.9142E-03     282.690E-03    -56.3595E-03     83.5998E-03    -26.6050E-03     296.047E-03
             261     17.5246E-03     28.0752E-03    -2.86819E+06     189.754E+06     116.174E+06     476.824E+03    -41.0861E-03     68.0048E-03    -26.9186E-03     281.735E-03    -55.8327E-03     83.0778E-03    -26.6088E-03     295.224E-03
             262     17.5254E-03     29.0828E-03    -3.17560E+06     189.711E+06     116.029E+06     260.413E+03    -40.1484E-03     67.0781E-03    -26.9297E-03     282.029E-03    -54.9370E-03     82.1924E-03    -26.6200E-03     295.714E-03
             263     17.5251E-03     30.0877E-03    -3.16667E+06     189.855E+06     116.082E+06    -68.0976E+03    -38.9532E-03     65.9020E-03    -26.9488E-03     282.256E-03    -53.7900E-03     81.0649E-03    -26.6391E-03     296.190E-03
             264     17.5257E-03     31.0891E-03    -2.70489E+06     190.439E+06     116.540E+06     467.862E+03    -38.8361E-03     65.7823E-03    -26.9462E-03     282.479E-03    -53.7030E-03     80.9777E-03    -26.6357E-03     296.504E-03
             265     17.5252E-03     32.0979E-03    -3.27831E+06     191.486E+06     116.972E+06     603.888E+03    -38.1027E-03     65.0681E-03    -26.9653E-03     284.005E-03    -53.1228E-03     80.4171E-03    -26.6534E-03     298.223E-03
             266     17.5258E-03     33.0990E-03    -2.51573E+06     192.379E+06     117.606E+06     294.596E+03    -35.9480E-03     62.9558E-03    -27.0078E-03     283.787E-03    -50.9765E-03     78.3174E-03    -26.6951E-03     298.364E-03
             267     17.5259E-03     34.0945E-03    -2.85561E+06     192.070E+06     117.390E+06    -427.971E+03    -36.6918E-03     63.6711E-03    -26.9793E-03     282.760E-03    -51.6315E-03     78.9421E-03    -26.6667E-03     297.239E-03
             268     17.5256E-03     35.1041E-03    -2.92464E+06     192.006E+06     117.417E+06     133.230E+03    -38.0977E-03     65.0458E-03    -26.9480E-03     283.458E-03    -53.1004E-03     80.3792E-03    -26.6351E-03     297.723E-03
             269     17.5259E-03     36.1067E-03    -3.56092E+06     191.586E+06     117.170E+06    -277.404E+03    -36.4696E-03     63.4539E-03    -26.9842E-03     284.395E-03    -51.5751E-03     78.8871E-03    -26.6710E-03     298.969E-03
             270     17.5261E-03     37.1037E-03    -3.16968E+06     189.637E+06     116.598E+06    -1.14508E+06    -36.0839E-03     63.0723E-03    -26.9884E-03     284.594E-03    -51.1943E-03     78.5065E-03    -26.6758E-03     299.278E-03
             271     17.5258E-03     38.1105E-03    -2.11405E+06     189.073E+06     116.644E+06     341.245E+03    -36.3769E-03     63.3597E-03    -26.9828E-03     285.099E-03    -51.5232E-03     78.8315E-03    -26.6707E-03     299.747E-03
             272     17.5261E-03     39.1093E-03    -2.92562E+06     190.761E+06     117.137E+06     1.01538E+06    -35.3492E-03     62.3574E-03    -27.0083E-03     284.936E-03    -50.5124E-03     77.8478E-03    -26.6950E-03     299.776E-03
             273     17.5259E-03     40.1079E-03    -3.39149E+06     191.897E+06     117.590E+06     177.346E+03    -35.5917E-03     62.5937E-03    -27.0020E-03     284.572E-03    -50.7178E-03     78.0480E-03    -26.6874E-03     299.368E-03
             274     17.5261E-03     41.1126E-03    -3.22562E+06     191.835E+06     117.596E+06    -150.331E+03    -36.0098E-03     63.0029E-03    -26.9931E-03     285.549E-03    -51.2049E-03     78.5265E-03    -26.6786E-03     300.301E-03
             275     17.5260E-03     42.1128E-03    -2.69505E+06     192.395E+06     117.872E+06     562.211E+03    -35.0694E-03     62.0826E-03    -27.0132E-03     285.308E-03    -50.2612E-03     77.6061E-03    -26.6989E-03     300.223E-03
             276     17.5262E-03     43.1098E-03    -3.28958E+06     193.273E+06     118.020E+06     359.980E+03    -35.0853E-03     62.0922E-03    -27.0068E-03     284.267E-03    -50.1916E-03     77.5306E-03    -26.6922E-03     299.145E-03
             277     17.5261E-03     44.1130E-03    -2.90777E+06     193.587E+06     118.216E+06     32.2297E+03    -35.5989E-03     62.5921E-03    -26.9931E-03     284.698E-03    -50.7392E-03     78.0664E-03    -26.6785E-03     299.494E-03
             278     17.5262E-03     45.1150E-03    -3.08096E+06     193.489E+06     118.135E+06    -13.6372E+03    -35.2082E-03     62.2193E-03    -27.0111E-03     286.007E-03    -50.4683E-03     77.8128E-03    -26.6965E-03     300.933E-03
             279     17.5257E-03     46.1131E-03    -2.97812E+06     193.385E+06     118.187E+06    -37.7940E+03    -34.8055E-03     61.8288E-03    -27.0234E-03     285.329E-03    -50.0028E-03     77.3593E-03    -26.7085E-03     300.286E-03
             280     17.5263E-03     47.1131E-03    -2.77828E+06     193.357E+06     118.077E+06     11.8062E+03    -34.8055E-03     61.8157E-03    -27.0102E-03     283.757E-03    -49.8824E-03     77.2267E-03    -26.6961E-03     298.661E-03
             281     17.5262E-03     48.1120E-03    -3.37234E+06     194.328E+06     118.396E+06     441.538E+03    -35.8888E-03     62.8723E-03    -26.9835E-03     284.444E-03    -51.0122E-03     78.3303E-03    -26.6684E-03     299.224E-03
             282     17.5260E-03     49.1189E-03    -2.97994E+06     196.293E+06     119.402E+06     986.449E+03    -35.1352E-03     62.1395E-03    -27.0042E-03     285.852E-03    -50.3572E-03     77.7015E-03    -26.6875E-03     300.729E-03
             283     17.5268E-03     50.1148E-03    -2.65889E+06     196.798E+06     119.439E+06    -91.5212E+03    -33.7341E-03     60.7662E-03    -27.0321E-03     285.828E-03    -48.9854E-03     76.3605E-03    -26.7164E-03     300.981E-03
             284     17.5258E-03     51.1110E-03    -3.14048E+06     196.177E+06     119.100E+06    -253.457E+03    -35.5435E-03     62.5345E-03    -26.9910E-03     284.050E-03    -50.6709E-03     78.0019E-03    -26.6754E-03     298.902E-03
             285     17.5263E-03     52.1187E-03    -3.74131E+06     195.526E+06     118.897E+06    -373.070E+03    -35.9155E-03     62.9037E-03    -26.9882E-03     284.587E-03    -51.0799E-03     78.4042E-03    -26.6718E-03     299.324E-03
             286     17.5260E-03     53.1169E-03    -2.88133E+06     194.625E+06     118.767E+06    -541.492E+03    -34.6024E-03     61.6262E-03    -27.0237E-03     285.622E-03    -49.8441E-03     77.2041E-03    -26.7079E-03     300.633E-03
             287     17.5261E-03     54.1141E-03    -2.36597E+06     195.028E+06     119.085E+06     680.400E+03    -34.9097E-03     61.9232E-03    -27.0134E-03     284.184E-03    -50.0203E-03     77.3723E-03    -26.6974E-03     299.105E-03
             288     17.5262E-03     55.1178E-03    -3.18759E+06     196.156E+06     119.327E+06     479.503E+03    -34.9059E-03     61.9151E-03    -27.0092E-03     284.402E-03    -50.0280E-03     77.3762E-03    -26.6923E-03     299.295E-03
             289     17.5263E-03     56.1166E-03    -3.17621E+06     196.301E+06     119.274E+06    -147.746E+03    -34.6636E-03     61.6798E-03    -27.0161E-03     285.122E-03    -49.8583E-03     77.2141E-03    -26.6998E-03     300.108E-03
             290     17.5260E-03     57.1159E-03    -3.47113E+06     195.949E+06     119.015E+06    -149.585E+03    -35.5445E-03     62.5458E-03    -27.0013E-03     284.715E-03    -50.7071E-03     78.0465E-03    -26.6853E-03     299.559E-03
             291     17.5259E-03     58.1194E-03    -3.09662E+06     196.309E+06     119.279E+06     317.896E+03    -35.1621E-03     62.1728E-03    -27.0107E-03     284.587E-03    -50.3079E-03     77.6586E-03    -26.6945E-03     299.449E-03
             292     876.180E-06     58.4458E-03    -19.2582E+06    -108.791E+06    -18.9040E+06     51.6240E+03    -26.9279E-03     53.8187E-03    -26.8908E-03     5.73334E-03    -26.8392E-03     53.3303E-03    -26.7996E-03     5.73137E-03
             293     1.75237E-03     58.4535E-03    -18.7565E+06    -107.988E+06    -17.4390E+06       81.29E+03    -26.9271E-03     53.8368E-03    -26.9097E-03     10.5911E-03    -26.8394E-03     53.3498E-03    -26.8131E-03     10.5871E-03
             294     2.62857E-03     58.4659E-03    -17.9468E+06    -106.653E+06    -15.0080E+06     121.298E+03    -26.9554E-03     53.8716E-03    -26.9161E-03     15.7759E-03    -26.8697E-03     53.3870E-03    -26.8105E-03     15.7697E-03
             295     3.50477E-03     58.4835E-03    -16.8481E+06    -104.694E+06    -11.8328E+06     185.241E+03    -26.9971E-03     53.9217E-03    -26.9246E-03     21.0758E-03    -26.9141E-03     53.4415E-03    -26.8075E-03     21.0673E-03
             296     4.38098E-03     58.5060E-03    -15.5630E+06    -103.234E+06    -8.72959E+06     258.300E+03    -27.0565E-03     53.9895E-03    -26.9330E-03     26.4328E-03    -26.9748E-03     53.5114E-03    -26.8044E-03     26.4213E-03
             297     5.25719E-03     58.5337E-03    -14.2206E+06    -99.0112E+06    -5.97674E+06     308.149E+03    -27.1266E-03     54.0619E-03    -26.9354E-03     31.8956E-03    -27.0500E-03     53.6008E-03    -26.8011E-03     31.8801E-03
             298     6.13341E-03     58.5667E-03    -12.8549E+06    -94.3919E+06    -2.92489E+06     323.660E+03    -27.2122E-03     54.1504E-03    -26.9382E-03     37.4670E-03    -27.1425E-03     53.7085E-03    -26.7974E-03     37.4458E-03
             299     7.00965E-03     58.6049E-03    -11.4729E+06    -91.1712E+06    -659.080E+03     360.848E+03    -27.3221E-03     54.2613E-03    -26.9392E-03     43.0794E-03    -27.2571E-03     53.8338E-03    -26.7937E-03     43.0513E-03
             300     7.88588E-03     58.6486E-03    -10.2109E+06    -86.0778E+06     358.208E+03     436.760E+03    -27.4470E-03     54.3788E-03    -26.9318E-03     48.7187E-03    -27.3900E-03     53.9789E-03    -26.7904E-03     48.6820E-03
             301     8.76212E-03     58.6976E-03    -9.13171E+06    -80.9876E+06     1.06259E+06     480.096E+03    -27.5903E-03     54.5138E-03    -26.9235E-03     54.3826E-03    -27.5442E-03     54.1447E-03    -26.7875E-03     54.3342E-03
             302     9.63832E-03     58.7520E-03    -8.30002E+06    -76.8342E+06    -599.331E+03     514.773E+03    -27.7467E-03     54.6523E-03    -26.9056E-03     60.0257E-03    -27.7117E-03     54.3168E-03    -26.7852E-03     59.9622E-03
             303     10.5146E-03     58.8117E-03    -7.84563E+06    -70.4346E+06    -4.75615E+06     583.077E+03    -27.9001E-03     54.7725E-03    -26.8724E-03     65.5151E-03    -27.8834E-03     54.4918E-03    -26.7827E-03     65.4327E-03
             304     11.3908E-03     58.8765E-03    -7.68306E+06    -55.1345E+06    -4.68371E+06     619.407E+03    -28.0713E-03     54.9182E-03    -26.8469E-03     72.3041E-03    -28.1045E-03     54.7420E-03    -26.7792E-03     72.1965E-03
             305     12.2672E-03     58.9490E-03    -7.36437E+06    -37.1026E+06    -3.77494E+06     645.317E+03    -28.2088E-03     55.0274E-03    -26.8186E-03     79.1236E-03    -28.3085E-03     54.9802E-03    -26.7730E-03     78.9882E-03
             306     13.1436E-03     59.0267E-03     -7.2946E+06    -25.9138E+06    -11.2840E+06     583.236E+03    -28.1509E-03     54.9079E-03    -26.7570E-03     79.1807E-03    -28.3098E-03     54.9816E-03    -26.7653E-03     79.0122E-03
             307     14.0200E-03     59.0995E-03    -8.26384E+06    -6.50444E+06    -24.7226E+06     325.634E+03    -28.8953E-03     55.5553E-03    -26.6601E-03     95.3853E-03    -29.2668E-03     55.9462E-03    -26.7623E-03     95.1563E-03
             308     14.8957E-03     59.2079E-03    -9.55008E+06     48.0952E+06    -28.8599E+06     272.635E+03    -35.1835E-03     61.7470E-03    -26.5636E-03     183.433E-03    -37.0179E-03     63.8020E-03    -26.7638E-03     183.151E-03
             309     15.7719E-03     59.4515E-03    -8.97838E+06     130.088E+06     19.2948E+06     390.614E+03    -45.0367E-03     71.7092E-03    -26.6725E-03     317.863E-03    -55.0263E-03     82.0727E-03    -26.7516E-03     319.370E-03
             310     16.6509E-03     59.8291E-03    -5.43476E+06     184.828E+06     91.9097E+06     200.152E+03    -42.2530E-03     69.1708E-03    -26.9179E-03     334.049E-03    -58.2681E-03     85.5562E-03    -26.7184E-03     343.158E-03
             311     876.188E-06     59.4460E-03    -19.2880E+06    -108.889E+06    -18.9706E+06     61.3355E+03    -26.9174E-03     53.8231E-03    -26.9058E-03     5.71992E-03    -26.8285E-03     53.3344E-03    -26.8148E-03     5.71809E-03
             312     1.75237E-03     59.4537E-03    -18.8011E+06    -108.086E+06    -17.5014E+06     86.3393E+03    -26.9322E-03     53.8446E-03    -26.9124E-03     10.5982E-03    -26.8445E-03     53.3572E-03    -26.8159E-03     10.5943E-03
             313     2.62856E-03     59.4662E-03    -17.9993E+06    -106.760E+06    -15.0649E+06     136.306E+03    -26.9605E-03     53.8802E-03    -26.9197E-03     15.7816E-03    -26.8748E-03     53.3953E-03    -26.8141E-03     15.7757E-03
             314     3.50476E-03     59.4837E-03    -16.9049E+06    -104.839E+06    -11.9076E+06     204.937E+03    -27.0002E-03     53.9285E-03    -26.9283E-03     21.0828E-03    -26.9171E-03     53.4477E-03    -26.8113E-03     21.0745E-03
             315     4.38097E-03     59.5063E-03    -15.6073E+06    -103.370E+06    -8.80600E+06     274.671E+03    -27.0601E-03     53.9966E-03    -26.9365E-03     26.4412E-03    -26.9783E-03     53.5180E-03    -26.8080E-03     26.4300E-03
             316     5.25717E-03     59.5339E-03    -14.2359E+06    -99.1089E+06    -6.05288E+06     313.304E+03    -27.1291E-03     54.0677E-03    -26.9386E-03     31.9074E-03    -27.0524E-03     53.6062E-03    -26.8046E-03     31.8919E-03
             317     6.13340E-03     59.5669E-03    -12.8376E+06    -94.4657E+06    -2.97574E+06     340.922E+03    -27.2139E-03     54.1552E-03    -26.9413E-03     37.4797E-03    -27.1440E-03     53.7130E-03    -26.8006E-03     37.4588E-03
             318     7.00962E-03     59.6052E-03    -11.4853E+06    -91.2893E+06    -668.870E+03     376.358E+03    -27.3226E-03     54.2648E-03    -26.9423E-03     43.0921E-03    -27.2575E-03     53.8368E-03    -26.7966E-03     43.0642E-03
             319     7.88586E-03     59.6488E-03    -10.2313E+06    -86.2195E+06     353.533E+03     432.934E+03    -27.4483E-03     54.3829E-03    -26.9346E-03     48.7406E-03    -27.3912E-03     53.9824E-03    -26.7930E-03     48.7038E-03
             320     8.76207E-03     59.6978E-03    -9.13677E+06    -81.1229E+06     1.07734E+06     518.439E+03    -27.5874E-03     54.5134E-03    -26.9260E-03     54.4125E-03    -27.5411E-03     54.1436E-03    -26.7898E-03     54.3646E-03
             321     9.63834E-03     59.7522E-03    -8.30139E+06    -76.8985E+06    -547.881E+03     552.762E+03    -27.7373E-03     54.6446E-03    -26.9073E-03     60.0566E-03    -27.7022E-03     54.3087E-03    -26.7865E-03     59.9936E-03
             322     10.5145E-03     59.8119E-03    -7.79763E+06    -70.6046E+06    -4.76535E+06     559.987E+03    -27.8842E-03     54.7568E-03    -26.8726E-03     65.5404E-03    -27.8670E-03     54.4751E-03    -26.7828E-03     65.4577E-03
             323     11.3909E-03     59.8767E-03    -7.50988E+06    -55.2479E+06    -4.62113E+06     689.406E+03    -28.0357E-03     54.8809E-03    -26.8451E-03     72.3155E-03    -28.0678E-03     54.7036E-03    -26.7772E-03     72.2091E-03
             324     12.2671E-03     59.9493E-03    -7.46930E+06    -37.1379E+06    -3.81566E+06     701.224E+03    -28.2318E-03     55.0479E-03    -26.8161E-03     79.1609E-03    -28.3320E-03     55.0008E-03    -26.7705E-03     79.0261E-03
             325     13.1434E-03     60.0269E-03    -7.73068E+06    -25.6557E+06    -11.4390E+06     613.026E+03    -28.2821E-03     55.0414E-03    -26.7592E-03     79.2381E-03    -28.4440E-03     55.1179E-03    -26.7680E-03     79.0688E-03
             326     14.0196E-03     60.0997E-03    -8.43689E+06    -6.26647E+06    -24.5025E+06     527.832E+03    -28.9606E-03     55.6304E-03    -26.6698E-03     95.4407E-03    -29.3345E-03     56.0231E-03    -26.7710E-03     95.2135E-03
             327     14.8958E-03     60.2090E-03    -9.46050E+06     48.0844E+06    -28.8790E+06     261.697E+03    -35.1219E-03     61.6928E-03    -26.5709E-03     183.718E-03    -36.9607E-03     63.7525E-03    -26.7713E-03     183.439E-03
             328     15.7723E-03     60.4512E-03    -9.14341E+06     129.995E+06     18.6863E+06     42.1205E+03    -44.9688E-03     71.6441E-03    -26.6753E-03     317.232E-03    -54.9137E-03     81.9639E-03    -26.7571E-03     318.740E-03
             329     16.6483E-03     60.8273E-03    -5.53224E+06     184.754E+06     91.6587E+06     110.755E+03    -42.0703E-03     68.9915E-03    -26.9213E-03     333.403E-03    -58.0481E-03     85.3398E-03    -26.7229E-03     342.529E-03
             330     876.182E-06     60.4462E-03    -19.3301E+06    -108.975E+06    -19.0315E+06     52.4291E+03    -26.8983E-03     53.8250E-03    -26.9267E-03     5.72394E-03    -26.8095E-03     53.3360E-03    -26.8358E-03     5.72199E-03
             331     1.75237E-03     60.4539E-03    -18.8748E+06    -108.205E+06    -17.5831E+06     95.0679E+03    -26.9360E-03     53.8499E-03    -26.9138E-03     10.6036E-03    -26.8484E-03     53.3621E-03    -26.8175E-03     10.5998E-03
             332     2.62856E-03     60.4664E-03    -18.0761E+06    -106.887E+06    -15.1455E+06     156.833E+03    -26.9638E-03     53.8857E-03    -26.9219E-03     15.7827E-03    -26.8782E-03     53.4003E-03    -26.8164E-03     15.7770E-03
             333     3.50475E-03     60.4839E-03    -16.9729E+06    -104.977E+06    -11.9946E+06     212.312E+03    -27.0030E-03     53.9337E-03    -26.9307E-03     21.0892E-03    -26.9199E-03     53.4525E-03    -26.8138E-03     21.0811E-03
             334     4.38095E-03     60.5065E-03    -15.6608E+06    -103.492E+06    -8.89973E+06     259.178E+03    -27.0622E-03     54.0010E-03    -26.9388E-03     26.4500E-03    -26.9804E-03     53.5220E-03    -26.8105E-03     26.4386E-03
             335     5.25716E-03     60.5342E-03    -14.2918E+06    -99.2027E+06    -6.10658E+06     299.611E+03    -27.1301E-03     54.0710E-03    -26.9409E-03     31.9183E-03    -27.0534E-03     53.6091E-03    -26.8069E-03     31.9027E-03
             336     6.13338E-03     60.5671E-03    -12.9055E+06    -94.5709E+06    -3.03599E+06     337.672E+03    -27.2133E-03     54.1565E-03    -26.9432E-03     37.4926E-03    -27.1434E-03     53.7139E-03    -26.8026E-03     37.4716E-03
             337     7.00961E-03     60.6054E-03    -11.5088E+06    -91.3998E+06    -693.353E+03     390.820E+03    -27.3222E-03     54.2662E-03    -26.9440E-03     43.1093E-03    -27.2571E-03     53.8377E-03    -26.7982E-03     43.0816E-03
             338     7.88584E-03     60.6491E-03    -10.2526E+06    -86.3535E+06     403.009E+03     444.030E+03    -27.4424E-03     54.3785E-03    -26.9361E-03     48.7650E-03    -27.3852E-03     53.9772E-03    -26.7940E-03     48.7284E-03
             339     8.76210E-03     60.6981E-03    -9.12993E+06    -81.2741E+06     1.13789E+06     498.284E+03    -27.5739E-03     54.5003E-03    -26.9265E-03     54.4346E-03    -27.5274E-03     54.1296E-03    -26.7897E-03     54.3864E-03
             340     9.63833E-03     60.7525E-03    -8.22024E+06    -76.9972E+06    -460.798E+03     558.032E+03    -27.7239E-03     54.6303E-03    -26.9064E-03     60.0649E-03    -27.6884E-03     54.2936E-03    -26.7852E-03     60.0021E-03
             341     10.5146E-03     60.8122E-03    -7.74601E+06    -70.6128E+06    -4.58888E+06     538.179E+03    -27.8838E-03     54.7554E-03    -26.8716E-03     65.5443E-03    -27.8666E-03     54.4733E-03    -26.7809E-03     65.4614E-03
             342     11.3908E-03     60.8769E-03    -7.48988E+06    -55.5803E+06    -4.59557E+06     584.609E+03    -28.0540E-03     54.8987E-03    -26.8447E-03     72.2606E-03    -28.0856E-03     54.7197E-03    -26.7762E-03     72.1527E-03
             343     12.2673E-03     60.9494E-03    -6.97082E+06    -37.0094E+06    -3.45643E+06     689.512E+03    -28.3022E-03     55.1214E-03    -26.8192E-03     79.1134E-03    -28.4009E-03     55.0740E-03    -26.7727E-03     78.9778E-03
             344     13.1436E-03     61.0274E-03    -7.16923E+06    -25.3456E+06    -10.9727E+06     795.717E+03    -28.3134E-03     55.0791E-03    -26.7657E-03     79.2705E-03    -28.4737E-03     55.1559E-03    -26.7735E-03     79.1033E-03
             345     14.0193E-03     61.1004E-03    -8.31508E+06    -6.57177E+06    -24.3613E+06     881.357E+03    -28.8277E-03     55.5002E-03    -26.6725E-03     95.5820E-03    -29.2003E-03     55.8906E-03    -26.7727E-03     95.3611E-03
             346     14.8960E-03     61.2085E-03    -9.31091E+06     48.4495E+06    -28.6379E+06     503.757E+03    -35.0223E-03     61.5873E-03    -26.5650E-03     183.995E-03    -36.8605E-03     63.6475E-03    -26.7649E-03     183.721E-03
             347     15.7721E-03     61.4524E-03    -9.12794E+06     130.454E+06     19.0043E+06     26.7686E+03    -45.2124E-03     71.8835E-03    -26.6711E-03     317.693E-03    -55.1707E-03     82.2174E-03    -26.7520E-03     319.170E-03
             348     16.6486E-03     61.8279E-03    -5.77814E+06     184.583E+06     91.6953E+06    -135.545E+03    -42.2153E-03     69.1392E-03    -26.9239E-03     333.792E-03    -58.2218E-03     85.5146E-03    -26.7247E-03     342.919E-03
             349     876.188E-06     61.4465E-03    -19.4393E+06    -109.093E+06    -19.1238E+06     50.0634E+03    -26.9099E-03     53.8294E-03    -26.9195E-03     5.74264E-03    -26.8213E-03     53.3401E-03    -26.8287E-03     5.74063E-03
             350     1.75236E-03     61.4541E-03    -18.9661E+06    -108.322E+06    -17.6656E+06     110.392E+03    -26.9380E-03     53.8540E-03    -26.9160E-03     10.6041E-03    -26.8505E-03     53.3659E-03    -26.8198E-03     10.6005E-03
             351     2.62855E-03     61.4666E-03    -18.1556E+06    -107.013E+06    -15.2396E+06     156.784E+03    -26.9639E-03     53.8875E-03    -26.9237E-03     15.7825E-03    -26.8783E-03     53.4018E-03    -26.8184E-03     15.7768E-03
             352     3.50474E-03     61.4841E-03    -17.0295E+06    -105.095E+06    -12.0700E+06     199.463E+03    -27.0041E-03     53.9363E-03    -26.9321E-03     21.0939E-03    -26.9211E-03     53.4547E-03    -26.8154E-03     21.0855E-03
             353     4.38095E-03     61.5067E-03    -15.7242E+06    -103.604E+06    -8.95268E+06     243.963E+03    -27.0626E-03     54.0028E-03    -26.9402E-03     26.4571E-03    -26.9809E-03     53.5235E-03    -26.8120E-03     26.4455E-03
             354     5.25716E-03     61.5344E-03    -14.3629E+06    -99.3178E+06    -6.17755E+06     296.663E+03    -27.1292E-03     54.0712E-03    -26.9420E-03     31.9263E-03    -27.0527E-03     53.6090E-03    -26.8080E-03     31.9107E-03
             355     6.13338E-03     61.5674E-03    -12.9704E+06    -94.6552E+06    -3.06236E+06     331.889E+03    -27.2110E-03     54.1551E-03    -26.9441E-03     37.5025E-03    -27.1413E-03     53.7122E-03    -26.8033E-03     37.4815E-03
             356     7.00961E-03     61.6056E-03    -11.5835E+06    -91.5404E+06    -709.559E+03     373.897E+03    -27.3171E-03     54.2615E-03    -26.9444E-03     43.1231E-03    -27.2521E-03     53.8324E-03    -26.7984E-03     43.0952E-03
             357     7.88585E-03     61.6493E-03    -10.2865E+06    -86.4694E+06     407.863E+03     442.308E+03    -27.4332E-03     54.3689E-03    -26.9358E-03     48.7750E-03    -27.3760E-03     53.9671E-03    -26.7934E-03     48.7384E-03
             358     8.76210E-03     61.6983E-03    -9.16154E+06    -81.3716E+06     1.15952E+06     462.279E+03    -27.5620E-03     54.4871E-03    -26.9251E-03     54.4400E-03    -27.5156E-03     54.1160E-03    -26.7880E-03     54.3915E-03
             359     9.63839E-03     61.7527E-03    -8.25335E+06    -77.1175E+06    -510.886E+03     494.893E+03    -27.7233E-03     54.6276E-03    -26.9043E-03     60.0673E-03    -27.6877E-03     54.2904E-03    -26.7831E-03     60.0036E-03
             360     10.5146E-03     61.8123E-03    -7.70606E+06    -70.6788E+06    -4.57988E+06     553.415E+03    -27.8905E-03     54.7605E-03    -26.8700E-03     65.5310E-03    -27.8730E-03     54.4780E-03    -26.7792E-03     65.4482E-03
             361     11.3909E-03     61.8772E-03    -7.43594E+06    -55.5553E+06    -4.50185E+06     500.872E+03    -28.1129E-03     54.9589E-03    -26.8459E-03     72.2992E-03    -28.1447E-03     54.7800E-03    -26.7771E-03     72.1899E-03
             362     12.2669E-03     61.9497E-03    -7.23445E+06    -37.4528E+06    -3.73548E+06     585.535E+03    -28.3432E-03     55.1661E-03    -26.8229E-03     79.3226E-03    -28.4427E-03     55.1178E-03    -26.7768E-03     79.1853E-03
             363     13.1429E-03     62.0280E-03    -7.04535E+06    -25.6738E+06    -10.8793E+06     846.049E+03    -28.1963E-03     54.9637E-03    -26.7675E-03     79.3578E-03    -28.3553E-03     55.0381E-03    -26.7744E-03     79.1922E-03
             364     14.0200E-03     62.1001E-03    -7.29228E+06    -6.53232E+06    -23.7794E+06     983.269E+03    -28.7479E-03     55.4163E-03    -26.6684E-03     95.4853E-03    -29.1159E-03     55.8042E-03    -26.7673E-03     95.2664E-03
             365     14.8960E-03     62.2094E-03    -8.32191E+06     48.8014E+06    -28.3955E+06     866.563E+03    -34.8877E-03     61.4403E-03    -26.5525E-03     184.034E-03    -36.7186E-03     63.4972E-03    -26.7532E-03     183.768E-03
             366     15.7727E-03     62.4523E-03    -8.41913E+06     131.298E+06     20.0009E+06     351.436E+03    -45.0224E-03     71.6742E-03    -26.6518E-03     318.126E-03    -55.0048E-03     82.0348E-03    -26.7299E-03     319.627E-03
             367     16.6500E-03     62.8292E-03    -5.46807E+06     184.844E+06     92.5320E+06     9.58833E+03    -42.4514E-03     69.3582E-03    -26.9068E-03     333.240E-03    -58.4269E-03     85.7022E-03    -26.7043E-03     342.312E-03
             368     876.180E-06     62.4467E-03    -19.5581E+06    -109.226E+06    -19.2236E+06     59.7850E+03    -26.9275E-03     53.8376E-03    -26.9101E-03     5.74165E-03    -26.8391E-03     53.3479E-03    -26.8195E-03     5.73978E-03
             369     1.75236E-03     62.4543E-03    -19.0560E+06    -108.440E+06    -17.7600E+06     105.185E+03    -26.9364E-03     53.8554E-03    -26.9190E-03     10.6005E-03    -26.8491E-03     53.3670E-03    -26.8230E-03     10.5969E-03
             370     2.62855E-03     62.4668E-03    -18.2284E+06    -107.113E+06    -15.3152E+06     138.915E+03    -26.9627E-03     53.8878E-03    -26.9251E-03     15.7860E-03    -26.8772E-03     53.4018E-03    -26.8199E-03     15.7800E-03
             371     3.50474E-03     62.4843E-03    -17.1145E+06    -105.209E+06    -12.1230E+06     183.511E+03    -27.0037E-03     53.9368E-03    -26.9331E-03     21.0977E-03    -26.9208E-03     53.4548E-03    -26.8164E-03     21.0892E-03
             372     4.38095E-03     62.5069E-03    -15.8020E+06    -103.719E+06    -9.00416E+06     237.382E+03    -27.0620E-03     54.0030E-03    -26.9409E-03     26.4606E-03    -26.9805E-03     53.5232E-03    -26.8126E-03     26.4489E-03
             373     5.25715E-03     62.5346E-03    -14.4216E+06    -99.4272E+06    -6.25539E+06     275.662E+03    -27.1274E-03     54.0696E-03    -26.9422E-03     31.9291E-03    -27.0509E-03     53.6070E-03    -26.8084E-03     31.9132E-03
             374     6.13338E-03     62.5676E-03    -13.0218E+06    -94.7651E+06    -3.13999E+06     331.447E+03    -27.2076E-03     54.1515E-03    -26.9439E-03     37.5067E-03    -27.1379E-03     53.7083E-03    -26.8033E-03     37.4857E-03
             375     7.00961E-03     62.6059E-03    -11.6340E+06    -91.6408E+06    -726.265E+03     370.649E+03    -27.3108E-03     54.2547E-03    -26.9439E-03     43.1244E-03    -27.2458E-03     53.8252E-03    -26.7978E-03     43.0964E-03
             376     7.88586E-03     62.6495E-03    -10.3376E+06    -86.5986E+06     329.364E+03     397.688E+03    -27.4256E-03     54.3598E-03    -26.9343E-03     48.7723E-03    -27.3684E-03     53.9576E-03    -26.7921E-03     48.7351E-03
             377     8.76213E-03     62.6985E-03    -9.17321E+06    -81.3941E+06     1.13133E+06     419.857E+03    -27.5600E-03     54.4833E-03    -26.9233E-03     54.4331E-03    -27.5136E-03     54.1121E-03    -26.7863E-03     54.3840E-03
             378     9.63839E-03     62.7529E-03    -8.25953E+06    -77.2395E+06    -532.259E+03     433.452E+03    -27.7224E-03     54.6251E-03    -26.9027E-03     60.0731E-03    -27.6866E-03     54.2873E-03    -26.7814E-03     60.0086E-03
             379     10.5147E-03     62.8127E-03    -7.71809E+06    -70.7718E+06    -4.66390E+06     471.337E+03    -27.9022E-03     54.7708E-03    -26.8686E-03     65.5521E-03    -27.8846E-03     54.4881E-03    -26.7781E-03     65.4682E-03
             380     11.3908E-03     62.8773E-03    -7.45107E+06    -55.6300E+06    -4.44688E+06     560.297E+03    -28.0945E-03     54.9393E-03    -26.8448E-03     72.4313E-03    -28.1263E-03     54.7601E-03    -26.7756E-03     72.3228E-03
             381     12.2672E-03     62.9503E-03    -7.21216E+06    -37.5792E+06    -3.69559E+06     580.197E+03    -28.2734E-03     55.0918E-03    -26.8184E-03     79.4684E-03    -28.3725E-03     55.0425E-03    -26.7719E-03     79.3316E-03
             382     13.1439E-03     63.0279E-03    -7.25223E+06    -25.8711E+06    -11.1859E+06     621.342E+03    -28.1826E-03     54.9415E-03    -26.7590E-03     79.3229E-03    -28.3418E-03     55.0156E-03    -26.7669E-03     79.1546E-03
             383     14.0193E-03     63.1007E-03    -7.48375E+06    -6.93511E+06    -24.1580E+06     655.318E+03    -28.6944E-03     55.3525E-03    -26.6581E-03     95.5582E-03    -29.0624E-03     55.7393E-03    -26.7580E-03     95.3357E-03
             384     14.8961E-03     63.2091E-03    -8.38101E+06     48.8623E+06    -28.0292E+06     905.485E+03    -34.7815E-03     61.3228E-03    -26.5413E-03     183.990E-03    -36.6116E-03     63.3778E-03    -26.7401E-03     183.728E-03
             385     15.7732E-03     63.4521E-03    -8.71759E+06     132.130E+06     20.1575E+06     896.519E+03    -45.0875E-03     71.7254E-03    -26.6378E-03     318.234E-03    -55.0819E-03     82.0994E-03    -26.7160E-03     319.737E-03
             386     16.6491E-03     63.8301E-03    -5.69396E+06     185.352E+06     92.1961E+06     157.353E+03    -42.5919E-03     69.4876E-03    -26.8957E-03     333.150E-03    -58.5536E-03     85.8197E-03    -26.6953E-03     342.204E-03
             387     876.164E-06     63.4469E-03    -19.6357E+06    -109.337E+06    -19.3240E+06     59.4559E+03    -26.9246E-03     53.8451E-03    -26.9204E-03     5.72498E-03    -26.8363E-03     53.3551E-03    -26.8300E-03     5.72312E-03
             388     1.75236E-03     63.4546E-03    -19.1404E+06    -108.540E+06    -17.8495E+06     79.1049E+03    -26.9325E-03     53.8537E-03    -26.9212E-03     10.6022E-03    -26.8453E-03     53.3650E-03    -26.8253E-03     10.5982E-03
             389     2.62855E-03     63.4671E-03    -18.3249E+06    -107.225E+06    -15.4033E+06     132.003E+03    -26.9627E-03     53.8884E-03    -26.9257E-03     15.7899E-03    -26.8774E-03     53.4021E-03    -26.8207E-03     15.7839E-03
             390     3.50474E-03     63.4846E-03    -17.2167E+06    -105.316E+06    -12.2053E+06     182.914E+03    -27.0037E-03     53.9374E-03    -26.9336E-03     21.0996E-03    -26.9211E-03     53.4551E-03    -26.8170E-03     21.0910E-03
             391     4.38094E-03     63.5072E-03    -15.8998E+06    -103.818E+06    -9.09052E+06     214.198E+03    -27.0605E-03     54.0017E-03    -26.9412E-03     26.4610E-03    -26.9792E-03     53.5217E-03    -26.8130E-03     26.4490E-03
             392     5.25716E-03     63.5348E-03    -14.5202E+06    -99.5237E+06    -6.31375E+06     252.012E+03    -27.1255E-03     54.0678E-03    -26.9423E-03     31.9291E-03    -27.0493E-03     53.6050E-03    -26.8085E-03     31.9129E-03
             393     6.13338E-03     63.5678E-03    -13.1070E+06    -94.8984E+06    -3.24903E+06     302.499E+03    -27.2044E-03     54.1478E-03    -26.9434E-03     37.5038E-03    -27.1347E-03     53.7041E-03    -26.8030E-03     37.4824E-03
             394     7.00963E-03     63.6061E-03    -11.6844E+06     -91.718E+06    -864.779E+03     346.990E+03    -27.3071E-03     54.2499E-03    -26.9428E-03     43.1189E-03    -27.2421E-03     53.8203E-03    -26.7971E-03     43.0906E-03
             395     7.88587E-03     63.6498E-03    -10.3824E+06    -86.6651E+06     285.058E+03     350.850E+03    -27.4248E-03     54.3582E-03    -26.9334E-03     48.7603E-03    -27.3677E-03     53.9557E-03    -26.7913E-03     48.7225E-03
             396     8.76213E-03     63.6987E-03    -9.25875E+06    -81.4824E+06     1.04158E+06     376.239E+03    -27.5595E-03     54.4818E-03    -26.9224E-03     54.4277E-03    -27.5132E-03     54.1105E-03    -26.7856E-03     54.3780E-03
             397     9.63839E-03     63.7532E-03    -8.37683E+06    -77.2912E+06    -560.374E+03     386.257E+03    -27.7191E-03     54.6211E-03    -26.9020E-03     60.0669E-03    -27.6838E-03     54.2833E-03    -26.7806E-03     60.0018E-03
             398     10.5147E-03     63.8128E-03    -7.88071E+06    -70.8938E+06    -4.76962E+06     425.888E+03    -27.8947E-03     54.7620E-03    -26.8673E-03     65.5819E-03    -27.8776E-03     54.4791E-03    -26.7769E-03     65.4974E-03
             399     11.3909E-03     63.8778E-03    -7.58119E+06    -55.7215E+06    -4.54987E+06     432.008E+03    -28.0674E-03     54.9097E-03    -26.8423E-03     72.3802E-03    -28.0996E-03     54.7304E-03    -26.7733E-03     72.2701E-03
             400     12.2673E-03     63.9502E-03    -7.12158E+06    -37.5878E+06    -3.56955E+06     450.353E+03    -28.2585E-03     55.0740E-03    -26.8155E-03     79.3347E-03    -28.3572E-03     55.0243E-03    -26.7685E-03     79.1962E-03
             401     13.1431E-03     64.0287E-03    -6.75142E+06    -26.0170E+06    -10.8734E+06     465.682E+03    -28.0695E-03     54.8226E-03    -26.7531E-03     79.0807E-03    -28.2260E-03     54.8942E-03    -26.7599E-03     78.9112E-03
             402     14.0203E-03     64.1004E-03    -7.71813E+06    -7.07030E+06    -24.4187E+06     514.886E+03    -28.5958E-03     55.2403E-03    -26.6445E-03     95.4811E-03    -28.9635E-03     55.6263E-03    -26.7451E-03     95.2578E-03
             403     14.8968E-03     64.2094E-03    -9.28298E+06     48.3157E+06    -28.8640E+06     897.947E+03    -35.0148E-03     61.5464E-03    -26.5316E-03     183.843E-03    -36.8483E-03     63.6021E-03    -26.7325E-03     183.574E-03
             404     15.7726E-03     64.4524E-03    -8.66033E+06     132.455E+06     19.6815E+06     1.14868E+06    -45.0997E-03     71.7360E-03    -26.6363E-03     317.991E-03    -55.0891E-03     82.1078E-03    -26.7174E-03     319.501E-03
             405     16.6501E-03     64.8307E-03    -5.21385E+06     186.357E+06     92.1806E+06     602.468E+03    -42.5588E-03     69.4523E-03    -26.8936E-03     333.732E-03    -58.5503E-03     85.8196E-03    -26.6953E-03     342.796E-03
             406     876.172E-06     64.4471E-03    -19.6981E+06    -109.415E+06    -19.4185E+06     22.4887E+03    -26.9139E-03     53.8415E-03    -26.9276E-03     5.71673E-03    -26.8257E-03     53.3513E-03    -26.8374E-03     5.71440E-03
             407     1.75236E-03     64.4548E-03    -19.2363E+06    -108.656E+06    -17.9555E+06     80.9645E+03    -26.9345E-03     53.8546E-03    -26.9201E-03     10.6047E-03    -26.8475E-03     53.3656E-03    -26.8244E-03     10.6008E-03
             408     2.62855E-03     64.4673E-03    -18.4426E+06    -107.341E+06    -15.4930E+06     140.043E+03    -26.9636E-03     53.8892E-03    -26.9256E-03     15.7949E-03    -26.8786E-03     53.4026E-03    -26.8207E-03     15.7889E-03
             409     3.50474E-03     64.4848E-03    -17.3179E+06    -105.404E+06    -12.3008E+06     171.557E+03    -27.0037E-03     53.9374E-03    -26.9336E-03     21.1005E-03    -26.9213E-03     53.4550E-03    -26.8172E-03     21.0918E-03
             410     4.38094E-03     64.5074E-03    -15.9943E+06    -103.897E+06    -9.18181E+06     194.539E+03    -27.0597E-03     54.0008E-03    -26.9411E-03     26.4618E-03    -26.9786E-03     53.5207E-03    -26.8132E-03     26.4495E-03
             411     5.25715E-03     64.5351E-03    -14.6114E+06    -99.6271E+06    -6.40188E+06     230.188E+03    -27.1241E-03     54.0662E-03    -26.9421E-03     31.9283E-03    -27.0481E-03     53.6032E-03    -26.8085E-03     31.9118E-03
             412     6.13339E-03     64.5680E-03    -13.1975E+06    -94.9903E+06    -3.30016E+06     262.936E+03    -27.2037E-03     54.1470E-03    -26.9433E-03     37.4997E-03    -27.1343E-03     53.7031E-03    -26.8029E-03     37.4777E-03
             413     7.00962E-03     64.6063E-03    -11.7901E+06    -91.8194E+06    -975.392E+03     298.465E+03    -27.3078E-03     54.2503E-03    -26.9424E-03     43.1117E-03    -27.2431E-03     53.8205E-03    -26.7971E-03     43.0828E-03
             414     7.88588E-03     64.6499E-03    -10.5049E+06    -86.7043E+06     147.640E+03     331.405E+03    -27.4272E-03     54.3604E-03    -26.9331E-03     48.7553E-03    -27.3705E-03     53.9581E-03    -26.7914E-03     48.7173E-03
             415     8.76212E-03     64.6990E-03    -9.38440E+06    -81.5747E+06     890.001E+03     337.964E+03    -27.5621E-03     54.4845E-03    -26.9224E-03     54.4152E-03    -27.5161E-03     54.1130E-03    -26.7861E-03     54.3650E-03
             416     9.63842E-03     64.7533E-03    -8.47127E+06    -77.3012E+06    -740.960E+03     340.716E+03    -27.7237E-03     54.6257E-03    -26.9020E-03     60.0534E-03    -27.6887E-03     54.2884E-03    -26.7814E-03     59.9876E-03
             417     10.5146E-03     64.8131E-03    -7.93966E+06    -71.0191E+06    -4.95578E+06     352.085E+03    -27.8868E-03     54.7541E-03    -26.8673E-03     65.5506E-03    -27.8696E-03     54.4709E-03    -26.7776E-03     65.4652E-03
             418     11.3909E-03     64.8779E-03    -7.60027E+06    -55.6892E+06    -4.74142E+06     373.916E+03    -28.0850E-03     54.9273E-03    -26.8423E-03     72.3688E-03    -28.1171E-03     54.7485E-03    -26.7743E-03     72.2578E-03
             419     12.2670E-03     64.9507E-03    -7.55025E+06    -37.8141E+06    -4.02212E+06     394.613E+03    -28.1552E-03     54.9674E-03    -26.8122E-03     79.3703E-03    -28.2545E-03     54.9173E-03    -26.7665E-03     79.2321E-03
             420     13.1438E-03     65.0287E-03    -7.42606E+06    -26.6153E+06    -11.6380E+06     486.028E+03    -28.0343E-03     54.7788E-03    -26.7446E-03     79.0939E-03    -28.1916E-03     54.8491E-03    -26.7534E-03     78.9252E-03
             421     14.0200E-03     65.1000E-03    -7.84084E+06    -6.87810E+06    -24.6122E+06     686.711E+03    -28.8838E-03     55.5293E-03    -26.6454E-03     95.1642E-03    -29.2530E-03     55.9176E-03    -26.7472E-03     94.9397E-03
             422     14.8961E-03     65.2101E-03    -8.98517E+06     48.3276E+06    -29.2370E+06     571.047E+03    -35.1777E-03     61.7238E-03    -26.5461E-03     183.402E-03    -37.0076E-03     63.7782E-03    -26.7493E-03     183.125E-03
             423     15.7725E-03     65.4527E-03    -8.51398E+06     131.724E+06     19.0827E+06     557.416E+03    -45.0090E-03     71.6665E-03    -26.6574E-03     317.077E-03    -54.9712E-03     82.0107E-03    -26.7407E-03     318.583E-03
             424     16.6495E-03     65.8294E-03    -5.25425E+06     186.794E+06     92.4904E+06     933.322E+03    -42.3136E-03     69.2271E-03    -26.9135E-03     333.811E-03    -58.3341E-03     85.6238E-03    -26.7142E-03     342.910E-03
             425     876.187E-06     65.4474E-03    -19.8363E+06    -109.521E+06    -19.4480E+06     66.1695E+03    -26.9163E-03     53.8317E-03    -26.9154E-03     5.72647E-03    -26.8286E-03     53.3412E-03    -26.8250E-03     5.72468E-03
             426     1.75236E-03     65.4550E-03    -19.3731E+06    -108.778E+06    -18.0278E+06     111.515E+03    -26.9398E-03     53.8573E-03    -26.9175E-03     10.6008E-03    -26.8532E-03     53.3680E-03    -26.8218E-03     10.5972E-03
             427     2.62854E-03     65.4675E-03    -18.5612E+06    -107.451E+06    -15.5820E+06     156.299E+03    -26.9644E-03     53.8896E-03    -26.9252E-03     15.7972E-03    -26.8797E-03     53.4028E-03    -26.8204E-03     15.7915E-03
             428     3.50474E-03     65.4850E-03    -17.4493E+06    -105.456E+06    -12.4023E+06     164.708E+03    -27.0030E-03     53.9363E-03    -26.9333E-03     21.0998E-03    -26.9210E-03     53.4539E-03    -26.8171E-03     21.0911E-03
             429     4.38094E-03     65.5076E-03    -16.1169E+06    -103.953E+06    -9.29016E+06     156.643E+03    -27.0593E-03     54.0000E-03    -26.9407E-03     26.4618E-03    -26.9786E-03     53.5200E-03    -26.8131E-03     26.4490E-03
             430     5.25716E-03     65.5353E-03    -14.6984E+06    -99.7288E+06    -6.50053E+06     184.069E+03    -27.1242E-03     54.0661E-03    -26.9418E-03     31.9268E-03    -27.0483E-03     53.6028E-03    -26.8084E-03     31.9097E-03
             431     6.13338E-03     65.5683E-03    -13.2708E+06    -95.0795E+06    -3.37284E+06     235.041E+03    -27.2053E-03     54.1486E-03    -26.9432E-03     37.4976E-03    -27.1361E-03     53.7044E-03    -26.8030E-03     37.4753E-03
             432     7.00962E-03     65.6065E-03    -11.8657E+06    -91.9016E+06    -1.06231E+06     269.587E+03    -27.3121E-03     54.2548E-03    -26.9427E-03     43.1091E-03    -27.2474E-03     53.8248E-03    -26.7975E-03     43.0798E-03
             433     7.88586E-03     65.6502E-03    -10.5730E+06    -86.7725E+06    -66.1836E+03     288.854E+03    -27.4315E-03     54.3647E-03    -26.9331E-03     48.7519E-03    -27.3747E-03     53.9624E-03    -26.7923E-03     48.7133E-03
             434     8.76213E-03     65.6992E-03    -9.40558E+06    -81.5809E+06     733.231E+03     279.666E+03    -27.5707E-03     54.4938E-03    -26.9231E-03     54.4143E-03    -27.5247E-03     54.1226E-03    -26.7875E-03     54.3634E-03
             435     9.63833E-03     65.7536E-03    -8.50128E+06    -77.3727E+06    -928.737E+03     272.242E+03    -27.7287E-03     54.6319E-03    -26.9032E-03     60.0547E-03    -27.6934E-03     54.2944E-03    -26.7833E-03     59.9881E-03
             436     10.5146E-03     65.8133E-03    -7.95624E+06    -71.0204E+06    -5.04291E+06     255.854E+03    -27.8924E-03     54.7615E-03    -26.8691E-03     65.5576E-03    -27.8752E-03     54.4785E-03    -26.7798E-03     65.4709E-03
             437     11.3908E-03     65.8782E-03    -7.70602E+06    -55.9205E+06    -4.98883E+06     328.173E+03    -28.0263E-03     54.8679E-03    -26.8416E-03     72.4256E-03    -28.0581E-03     54.6882E-03    -26.7742E-03     72.3145E-03
             438     12.2673E-03     65.9509E-03    -7.32365E+06    -37.6839E+06    -4.03757E+06     380.942E+03    -28.1154E-03     54.9237E-03    -26.8083E-03     79.0961E-03    -28.2133E-03     54.8735E-03    -26.7632E-03     78.9581E-03
             439     13.1439E-03     66.0280E-03    -7.82963E+06    -26.4927E+06    -11.9480E+06     496.773E+03    -28.2686E-03     55.0156E-03    -26.7471E-03     79.0237E-03    -28.4283E-03     55.0881E-03    -26.7570E-03     78.8533E-03
             440     14.0197E-03     66.1017E-03    -8.48658E+06    -7.29719E+06    -24.9360E+06     530.829E+03    -29.1203E-03     55.7842E-03    -26.6639E-03     95.2277E-03    -29.4936E-03     56.1737E-03    -26.7657E-03     94.9987E-03
             441     14.8954E-03     66.2097E-03    -9.26849E+06     48.6123E+06    -29.0750E+06     376.341E+03    -35.1544E-03     61.7246E-03    -26.5703E-03     183.523E-03    -36.9882E-03     63.7824E-03    -26.7727E-03     183.244E-03
             442     15.7720E-03     66.4532E-03    -9.71827E+06     131.023E+06     18.1428E+06     379.728E+03    -45.1770E-03     71.8563E-03    -26.6793E-03     317.435E-03    -55.1451E-03     82.2024E-03    -26.7645E-03     318.919E-03
             443     16.6479E-03     66.8293E-03    -6.27668E+06     186.473E+06     91.8722E+06     537.800E+03    -42.1583E-03     69.0918E-03    -26.9335E-03     333.994E-03    -58.1975E-03     85.5043E-03    -26.7354E-03     343.141E-03
             444     876.189E-06     66.4476E-03    -19.9735E+06    -109.755E+06    -19.6174E+06     140.366E+03    -26.9258E-03     53.8309E-03    -26.9051E-03     5.72478E-03    -26.8382E-03     53.3397E-03    -26.8151E-03     5.72396E-03
             445     1.75236E-03     66.4552E-03    -19.5221E+06    -108.890E+06    -18.0718E+06     200.812E+03    -26.9378E-03     53.8550E-03    -26.9172E-03     10.5947E-03    -26.8517E-03     53.3654E-03    -26.8214E-03     10.5923E-03
             446     2.62855E-03     66.4677E-03    -18.7255E+06    -107.536E+06    -15.6275E+06     186.674E+03    -26.9643E-03     53.8891E-03    -26.9248E-03     15.7962E-03    -26.8802E-03     53.4021E-03    -26.8199E-03     15.7908E-03
             447     3.50474E-03     66.4852E-03    -17.5749E+06    -105.475E+06    -12.4963E+06     156.484E+03    -27.0022E-03     53.9349E-03    -26.9327E-03     21.1007E-03    -26.9207E-03     53.4529E-03    -26.8168E-03     21.0918E-03
             448     4.38095E-03     66.5078E-03    -16.2342E+06    -103.961E+06    -9.38168E+06     113.762E+03    -27.0597E-03     53.9999E-03    -26.9402E-03     26.4614E-03    -26.9794E-03     53.5201E-03    -26.8128E-03     26.4481E-03
             449     5.25715E-03     66.5355E-03    -14.8063E+06    -99.7995E+06    -6.56035E+06     99.3474E+03    -27.1260E-03     54.0678E-03    -26.9418E-03     31.9256E-03    -27.0504E-03     53.6044E-03    -26.8084E-03     31.9073E-03
             450     6.13338E-03     66.5685E-03    -13.3040E+06    -95.1869E+06    -3.50114E+06     141.491E+03    -27.2085E-03     54.1517E-03    -26.9432E-03     37.4971E-03    -27.1390E-03     53.7072E-03    -26.8034E-03     37.4736E-03
             451     7.00961E-03     66.6068E-03    -11.8347E+06    -91.9986E+06    -1.22981E+06     215.659E+03    -27.3163E-03     54.2590E-03    -26.9427E-03     43.1092E-03    -27.2511E-03     53.8288E-03    -26.7983E-03     43.0792E-03
             452     7.88586E-03     66.6504E-03    -10.5275E+06    -86.7801E+06    -194.094E+03     224.525E+03    -27.4380E-03     54.3717E-03    -26.9337E-03     48.7552E-03    -27.3808E-03     53.9696E-03    -26.7935E-03     48.7158E-03
             453     8.76208E-03     66.6994E-03    -9.39604E+06    -81.6144E+06     602.656E+03     194.671E+03    -27.5715E-03     54.4954E-03    -26.9239E-03     54.4260E-03    -27.5251E-03     54.1242E-03    -26.7889E-03     54.3739E-03
             454     9.63838E-03     66.7538E-03    -8.48826E+06    -77.4158E+06    -973.374E+03     219.242E+03    -27.7297E-03     54.6341E-03    -26.9043E-03     60.0695E-03    -27.6943E-03     54.2964E-03    -26.7846E-03     60.0023E-03
             455     10.5146E-03     66.8135E-03    -8.02058E+06    -71.0715E+06    -5.13420E+06     234.049E+03    -27.8855E-03     54.7552E-03    -26.8697E-03     65.5782E-03    -27.8683E-03     54.4721E-03    -26.7807E-03     65.4912E-03
             456     11.3909E-03     66.8784E-03    -7.73088E+06    -55.9732E+06    -5.02188E+06     190.673E+03    -28.0191E-03     54.8611E-03    -26.8420E-03     72.2713E-03    -28.0508E-03     54.6812E-03    -26.7748E-03     72.1584E-03
             457     12.2674E-03     66.9508E-03    -7.35876E+06    -37.7485E+06    -4.04751E+06     267.030E+03    -28.3327E-03     55.1492E-03    -26.8165E-03     79.0049E-03    -28.4316E-03     55.0997E-03    -26.7713E-03     78.8635E-03
             458     13.1431E-03     67.0289E-03    -7.34814E+06    -26.2716E+06    -11.4324E+06     454.491E+03    -28.3701E-03     55.1370E-03    -26.7669E-03     79.1621E-03    -28.5294E-03     55.2100E-03    -26.7753E-03     78.9901E-03
             459     14.0193E-03     67.1019E-03    -8.43422E+06    -7.53359E+06    -24.9640E+06     528.240E+03    -28.8708E-03     55.5469E-03    -26.6761E-03     95.4887E-03    -29.2421E-03     55.9340E-03    -26.7778E-03     95.2626E-03
             460     14.8959E-03     67.2104E-03    -9.67922E+06     48.2081E+06    -29.9554E+06     799.394E+03    -35.0497E-03     61.6164E-03    -26.5667E-03     183.824E-03    -36.8849E-03     63.6753E-03    -26.7724E-03     183.552E-03
             461     15.7721E-03     67.4534E-03    -9.27119E+06     131.300E+06     18.1251E+06     936.696E+03    -45.1682E-03     71.8385E-03    -26.6702E-03     318.241E-03    -55.1601E-03     82.2110E-03    -26.7566E-03     319.736E-03
             462     16.6493E-03     67.8309E-03    -5.80165E+06     186.807E+06     92.1563E+06     404.710E+03    -42.2504E-03     69.1740E-03    -26.9236E-03     333.937E-03    -58.2643E-03     85.5632E-03    -26.7252E-03     343.058E-03
             463     876.163E-06     67.4478E-03    -20.1753E+06    -110.033E+06    -19.8723E+06     117.657E+03    -26.9257E-03     53.8349E-03    -26.9092E-03     5.71940E-03    -26.8383E-03     53.3430E-03    -26.8198E-03     5.71830E-03
             464     1.75237E-03     67.4554E-03    -19.6453E+06    -109.116E+06    -18.2938E+06     256.445E+03    -26.9330E-03     53.8505E-03    -26.9175E-03     10.5994E-03    -26.8469E-03     53.3604E-03    -26.8223E-03     10.5977E-03
             465     2.62855E-03     67.4680E-03    -18.8556E+06    -107.592E+06    -15.6736E+06     299.030E+03    -26.9628E-03     53.8871E-03    -26.9243E-03     15.7953E-03    -26.8792E-03     53.4001E-03    -26.8193E-03     15.7914E-03
             466     3.50475E-03     67.4855E-03    -17.7751E+06    -105.396E+06    -12.5312E+06     168.527E+03    -27.0027E-03     53.9350E-03    -26.9323E-03     21.1000E-03    -26.9223E-03     53.4537E-03    -26.8164E-03     21.0913E-03
             467     4.38095E-03     67.5080E-03    -16.3650E+06    -103.884E+06    -9.44674E+06     8.77594E+03    -27.0607E-03     54.0007E-03    -26.9400E-03     26.4606E-03    -26.9811E-03     53.5216E-03    -26.8129E-03     26.4459E-03
             468     5.25715E-03     67.5357E-03    -14.8277E+06    -99.8264E+06    -6.62211E+06    -45.1937E+03    -27.1284E-03     54.0703E-03    -26.9419E-03     31.9261E-03    -27.0528E-03     53.6069E-03    -26.8088E-03     31.9060E-03
             469     6.13338E-03     67.5687E-03    -13.3587E+06    -95.3302E+06    -3.67692E+06     41.2281E+03    -27.2116E-03     54.1549E-03    -26.9433E-03     37.4984E-03    -27.1420E-03     53.7101E-03    -26.8041E-03     37.4736E-03
             470     7.00961E-03     67.6070E-03    -11.9702E+06    -92.0979E+06    -1.47702E+06     133.938E+03    -27.3185E-03     54.2612E-03    -26.9427E-03     43.1131E-03    -27.2534E-03     53.8310E-03    -26.7992E-03     43.0820E-03
             471     7.88584E-03     67.6506E-03    -10.6417E+06    -86.7470E+06    -366.654E+03     109.973E+03    -27.4387E-03     54.3726E-03    -26.9339E-03     48.7654E-03    -27.3818E-03     53.9711E-03    -26.7946E-03     48.7245E-03
             472     8.76210E-03     67.6996E-03    -9.43056E+06    -81.6242E+06     490.543E+03     65.2641E+03    -27.5733E-03     54.4977E-03    -26.9244E-03     54.4255E-03    -27.5269E-03     54.1267E-03    -26.7900E-03     54.3718E-03
             473     9.63833E-03     67.7540E-03    -8.45271E+06    -77.5291E+06    -1.07730E+06     109.212E+03    -27.7318E-03     54.6368E-03    -26.9050E-03     60.0677E-03    -27.6958E-03     54.2987E-03    -26.7857E-03     59.9990E-03
             474     10.5146E-03     67.8138E-03    -7.89089E+06    -71.1004E+06    -5.13806E+06     193.766E+03    -27.8972E-03     54.7683E-03    -26.8711E-03     65.5302E-03    -27.8793E-03     54.4850E-03    -26.7823E-03     65.4427E-03
             475     11.3909E-03     67.8785E-03    -7.69337E+06    -55.9728E+06    -5.00983E+06     227.253E+03    -28.1249E-03     54.9729E-03    -26.8480E-03     72.2301E-03    -28.1567E-03     54.7932E-03    -26.7807E-03     72.1170E-03
             476     12.2669E-03     67.9512E-03    -7.67335E+06    -38.0470E+06    -4.31708E+06     301.291E+03    -28.3922E-03     55.2193E-03    -26.8271E-03     79.3560E-03    -28.4924E-03     55.1697E-03    -26.7824E-03     79.2146E-03
             477     13.1431E-03     68.0297E-03    -7.79462E+06    -26.4381E+06    -11.7224E+06     447.780E+03    -28.2616E-03     55.0362E-03    -26.7745E-03     79.3375E-03    -28.4221E-03     55.1091E-03    -26.7835E-03     79.1664E-03
             478     14.0196E-03     68.1015E-03    -8.23597E+06    -7.73043E+06    -24.8309E+06     622.110E+03    -28.7057E-03     55.3813E-03    -26.6756E-03     95.5065E-03    -29.0750E-03     55.7659E-03    -26.7766E-03     95.2833E-03
             479     14.8959E-03     68.2111E-03    -9.03304E+06     47.5011E+06    -29.9017E+06     906.060E+03    -34.8509E-03     61.4059E-03    -26.5550E-03     183.927E-03    -36.6811E-03     63.4594E-03    -26.7603E-03     183.662E-03
             480     15.7726E-03     68.4534E-03    -8.86156E+06     131.764E+06     18.2441E+06     933.823E+03    -45.0624E-03     71.7121E-03    -26.6497E-03     318.199E-03    -55.0575E-03     82.0906E-03    -26.7367E-03     319.703E-03
             481     16.6494E-03     68.8311E-03    -5.60836E+06     187.699E+06     92.3972E+06     381.432E+03    -42.3776E-03     69.2837E-03    -26.9061E-03     333.461E-03    -58.3600E-03     85.6446E-03    -26.7082E-03     342.542E-03
             482     876.188E-06     68.4480E-03    -20.4193E+06    -110.233E+06    -20.1209E+06     59.2255E+03    -26.9150E-03     53.8326E-03    -26.9176E-03     5.71058E-03    -26.8282E-03     53.3404E-03    -26.8287E-03     5.70873E-03
             483     1.75236E-03     68.4557E-03    -19.8624E+06    -109.398E+06    -18.6091E+06     160.588E+03    -26.9347E-03     53.8513E-03    -26.9166E-03     10.6025E-03    -26.8488E-03     53.3605E-03    -26.8222E-03     10.5995E-03
             484     2.62856E-03     68.4682E-03    -18.9440E+06    -107.814E+06    -15.9635E+06     341.901E+03    -26.9633E-03     53.8870E-03    -26.9237E-03     15.7938E-03    -26.8795E-03     53.3995E-03    -26.8197E-03     15.7905E-03
             485     3.50474E-03     68.4857E-03    -17.7708E+06    -105.104E+06    -12.5605E+06     213.420E+03    -27.0035E-03     53.9357E-03    -26.9322E-03     21.0967E-03    -26.9235E-03     53.4559E-03    -26.8168E-03     21.0885E-03
             486     4.38094E-03     68.5083E-03    -16.3617E+06    -103.614E+06    -9.47835E+06    -169.069E+03    -27.0615E-03     54.0016E-03    -26.9401E-03     26.4588E-03    -26.9823E-03     53.5239E-03    -26.8135E-03     26.4418E-03
             487     5.25715E-03     68.5360E-03    -14.9221E+06    -100.003E+06    -6.85069E+06    -150.732E+03    -27.1296E-03     54.0715E-03    -26.9419E-03     31.9271E-03    -27.0539E-03     53.6077E-03    -26.8095E-03     31.9056E-03
             488     6.13337E-03     68.5689E-03    -13.5886E+06    -95.4865E+06    -3.83742E+06     58.3824E+03    -27.2126E-03     54.1565E-03    -26.9439E-03     37.4992E-03    -27.1437E-03     53.7115E-03    -26.8049E-03     37.4746E-03
             489     7.00960E-03     68.6072E-03    -12.2135E+06    -92.0639E+06    -1.60572E+06     36.4843E+03    -27.3196E-03     54.2630E-03    -26.9434E-03     43.1165E-03    -27.2557E-03     53.8335E-03    -26.8002E-03     43.0842E-03
             490     7.88584E-03     68.6509E-03    -10.8497E+06    -86.6577E+06    -614.487E+03    -81.5157E+03    -27.4390E-03     54.3729E-03    -26.9339E-03     48.7659E-03    -27.3829E-03     53.9724E-03    -26.7956E-03     48.7225E-03
             491     8.76208E-03     68.6999E-03    -9.62697E+06    -81.6452E+06     249.818E+03    -111.096E+03    -27.5787E-03     54.5035E-03    -26.9248E-03     54.4280E-03    -27.5329E-03     54.1330E-03    -26.7912E-03     54.3720E-03
             492     9.63833E-03     68.7543E-03    -8.64184E+06    -77.6262E+06    -1.35004E+06    -85.1037E+03    -27.7438E-03     54.6499E-03    -26.9061E-03     60.0646E-03    -27.7083E-03     54.3120E-03    -26.7877E-03     59.9933E-03
             493     10.5146E-03     68.8140E-03    -8.01049E+06    -71.2540E+06    -5.37224E+06     36.0664E+03    -27.9266E-03     54.8005E-03    -26.8739E-03     65.5486E-03    -27.9089E-03     54.5169E-03    -26.7858E-03     65.4589E-03
             494     11.3907E-03     68.8789E-03    -7.70487E+06    -56.1858E+06    -5.10684E+06     293.126E+03    -28.1607E-03     55.0140E-03    -26.8533E-03     72.4065E-03    -28.1924E-03     54.8337E-03    -26.7862E-03     72.2940E-03
             495     12.2670E-03     68.9517E-03    -7.55585E+06    -38.1208E+06    -4.30786E+06     405.330E+03    -28.3217E-03     55.1524E-03    -26.8307E-03     79.4135E-03    -28.4211E-03     55.1021E-03    -26.7860E-03     79.2738E-03
             496     13.1435E-03     69.0297E-03    -7.57140E+06    -26.5742E+06    -11.6937E+06     504.513E+03    -28.1247E-03     54.8958E-03    -26.7711E-03     79.1869E-03    -28.2832E-03     54.9670E-03    -26.7801E-03     79.0178E-03
             497     14.0194E-03     69.1021E-03    -8.23987E+06    -8.12361E+06    -24.9162E+06     579.558E+03    -28.6413E-03     55.3075E-03    -26.6663E-03     95.4885E-03    -29.0097E-03     55.6901E-03    -26.7671E-03     95.2656E-03
             498     14.8961E-03     69.2105E-03    -9.65958E+06     47.0245E+06    -30.0554E+06     749.815E+03    -34.8118E-03     61.3553E-03    -26.5436E-03     184.020E-03    -36.6428E-03     63.4062E-03    -26.7480E-03     183.754E-03
             499     15.7729E-03     69.4540E-03    -9.47873E+06     132.243E+06     18.0059E+06     691.325E+03    -45.0571E-03     71.6919E-03    -26.6348E-03     318.428E-03    -55.0628E-03     82.0811E-03    -26.7227E-03     319.932E-03
             500     16.6492E-03     69.8316E-03    -5.83943E+06     188.329E+06     92.1635E+06     123.729E+03    -42.5328E-03     69.4259E-03    -26.8931E-03     333.761E-03    -58.5378E-03     85.8115E-03    -26.6969E-03     342.832E-03
             501     876.175E-06     69.4483E-03    -20.6394E+06    -110.336E+06    -20.3080E+06     27.6467E+03    -26.9063E-03     53.8307E-03    -26.9244E-03     5.71357E-03    -26.8201E-03     53.3386E-03    -26.8361E-03     5.71131E-03
             502     1.75236E-03     69.4559E-03    -20.1342E+06    -109.568E+06    -18.8370E+06     71.9736E+03    -26.9393E-03     53.8562E-03    -26.9169E-03     10.6008E-03    -26.8542E-03     53.3653E-03    -26.8230E-03     10.5967E-03
             503     2.62854E-03     69.4684E-03    -19.2910E+06    -108.221E+06    -16.4323E+06     251.649E+03    -26.9660E-03     53.8906E-03    -26.9246E-03     15.7923E-03    -26.8826E-03     53.4022E-03    -26.8218E-03     15.7878E-03
             504     3.50474E-03     69.4859E-03    -18.1574E+06    -104.660E+06    -13.7201E+06     140.064E+03    -27.0010E-03     53.9291E-03    -26.9282E-03     21.0956E-03    -26.9218E-03     53.4537E-03    -26.8187E-03     21.0865E-03
             505     4.38094E-03     69.5085E-03    -16.8671E+06    -103.138E+06    -10.4874E+06    -304.400E+03    -27.0595E-03     53.9958E-03    -26.9363E-03     26.4578E-03    -26.9820E-03     53.5227E-03    -26.8147E-03     26.4390E-03
             506     5.25714E-03     69.5362E-03    -15.4317E+06    -100.415E+06    -7.15331E+06    -262.278E+03    -27.1303E-03     54.0732E-03    -26.9429E-03     31.9255E-03    -27.0561E-03     53.6085E-03    -26.8107E-03     31.9026E-03
             507     6.13337E-03     69.5692E-03    -13.8477E+06    -95.5786E+06    -3.94804E+06    -28.2177E+03    -27.2137E-03     54.1588E-03    -26.9452E-03     37.4978E-03    -27.1457E-03     53.7139E-03    -26.8062E-03     37.4721E-03
             508     7.00959E-03     69.6074E-03    -12.3204E+06    -91.9104E+06    -1.70067E+06    -83.0685E+03    -27.3210E-03     54.2653E-03    -26.9442E-03     43.1135E-03    -27.2577E-03     53.8369E-03    -26.8016E-03     43.0797E-03
             509     7.88583E-03     69.6511E-03    -11.0031E+06    -86.5042E+06    -838.502E+03    -226.846E+03    -27.4415E-03     54.3758E-03    -26.9343E-03     48.7657E-03    -27.3861E-03     53.9767E-03    -26.7972E-03     48.7204E-03
             510     8.76207E-03     69.7001E-03    -9.81694E+06    -81.6444E+06    -50.1583E+03    -317.223E+03    -27.5819E-03     54.5072E-03    -26.9253E-03     54.4375E-03    -27.5366E-03     54.1374E-03    -26.7930E-03     54.3788E-03
             511     9.63830E-03     69.7546E-03    -8.83622E+06    -77.6833E+06    -1.63727E+06    -267.514E+03    -27.7526E-03     54.6598E-03    -26.9071E-03     60.0869E-03    -27.7176E-03     54.3223E-03    -26.7899E-03     60.0133E-03
             512     10.5145E-03     69.8143E-03    -8.32683E+06    -71.5275E+06    -5.84054E+06    -113.937E+03    -27.9278E-03     54.8026E-03    -26.8747E-03     65.6101E-03    -27.9106E-03     54.5188E-03    -26.7881E-03     65.5184E-03
             513     11.3908E-03     69.8792E-03    -7.97026E+06    -56.5076E+06    -5.61164E+06     98.9844E+03    -28.1192E-03     54.9712E-03    -26.8520E-03     72.5301E-03    -28.1509E-03     54.7903E-03    -26.7866E-03     72.4153E-03
             514     12.2669E-03     69.9520E-03    -7.45552E+06    -38.3528E+06    -4.56655E+06     387.535E+03    -28.2515E-03     55.0772E-03    -26.8258E-03     79.4502E-03    -28.3494E-03     55.0258E-03    -26.7822E-03     79.3109E-03
             515     13.1430E-03     70.0300E-03    -7.45005E+06    -27.2871E+06    -12.0806E+06     643.438E+03    -28.0271E-03     54.7878E-03    -26.7607E-03     79.1752E-03    -28.1831E-03     54.8556E-03    -26.7708E-03     79.0085E-03
             516     14.0202E-03     70.1018E-03    -8.28084E+06    -8.24307E+06    -25.2312E+06     753.570E+03    -28.6680E-03     55.3218E-03    -26.6538E-03     95.4797E-03    -29.0359E-03     55.7042E-03    -26.7560E-03     95.2589E-03
             517     14.8964E-03     70.2110E-03    -9.63020E+06     47.4976E+06    -30.2363E+06     730.622E+03    -35.0278E-03     61.5676E-03    -26.5398E-03     183.641E-03    -36.8589E-03     63.6208E-03    -26.7459E-03     183.370E-03
             518     15.7728E-03     70.4537E-03    -9.26794E+06     132.509E+06     17.9119E+06     383.085E+03    -44.9326E-03     71.5712E-03    -26.6386E-03     317.701E-03    -54.9131E-03     81.9372E-03    -26.7278E-03     319.215E-03
             519     16.6505E-03     70.8322E-03    -5.64763E+06     188.583E+06     92.1858E+06     30.1161E+03    -42.4380E-03     69.3328E-03    -26.8948E-03     333.917E-03    -58.4549E-03     85.7318E-03    -26.6991E-03     342.992E-03
             520     876.187E-06     70.4485E-03    -20.8037E+06    -110.441E+06    -20.4320E+06     104.434E+03    -26.9186E-03     53.8354E-03    -26.9168E-03     5.73100E-03    -26.8330E-03     53.3432E-03    -26.8286E-03     5.72971E-03
             521     1.75235E-03     70.4561E-03    -20.4066E+06    -109.694E+06    -19.0236E+06     129.103E+03    -26.9420E-03     53.8614E-03    -26.9194E-03     10.5997E-03    -26.8578E-03     53.3705E-03    -26.8259E-03     10.5963E-03
             522     2.62854E-03     70.4686E-03    -19.6111E+06    -108.483E+06    -16.7898E+06     176.439E+03    -26.9683E-03     53.8949E-03    -26.9267E-03     15.7910E-03    -26.8856E-03     53.4062E-03    -26.8249E-03     15.7855E-03
             523     3.50472E-03     70.4861E-03    -18.5188E+06    -104.174E+06    -14.6297E+06    -57.9543E+03    -27.0002E-03     53.9264E-03    -26.9262E-03     21.0952E-03    -26.9222E-03     53.4553E-03    -26.8214E-03     21.0835E-03
             524     4.38093E-03     70.5087E-03    -17.2824E+06    -102.657E+06    -11.3076E+06    -418.212E+03    -27.0578E-03     53.9922E-03    -26.9344E-03     26.4563E-03    -26.9818E-03     53.5232E-03    -26.8170E-03     26.4361E-03
             525     5.25713E-03     70.5364E-03    -15.8304E+06    -100.708E+06    -7.36041E+06    -460.336E+03    -27.1324E-03     54.0774E-03    -26.9450E-03     31.9244E-03    -27.0595E-03     53.6122E-03    -26.8128E-03     31.8989E-03
             526     6.13335E-03     70.5694E-03    -14.1979E+06    -95.6612E+06    -4.29680E+06    -316.606E+03    -27.2152E-03     54.1615E-03    -26.9463E-03     37.4989E-03    -27.1484E-03     53.7171E-03    -26.8085E-03     37.4695E-03
             527     7.00958E-03     70.6077E-03    -12.5488E+06    -91.7421E+06    -2.12025E+06    -325.177E+03    -27.3208E-03     54.2653E-03    -26.9444E-03     43.1147E-03    -27.2583E-03     53.8387E-03    -26.8038E-03     43.0777E-03
             528     7.88581E-03     70.6513E-03    -11.0470E+06    -86.3363E+06    -1.11293E+06    -439.943E+03    -27.4419E-03     54.3767E-03    -26.9348E-03     48.7694E-03    -27.3866E-03     53.9789E-03    -26.7992E-03     48.7214E-03
             529     8.76205E-03     70.7004E-03    -9.81663E+06    -81.5992E+06    -355.215E+03    -486.363E+03    -27.5803E-03     54.5057E-03    -26.9255E-03     54.4506E-03    -27.5346E-03     54.1366E-03    -26.7947E-03     54.3898E-03
             530     9.63829E-03     70.7548E-03    -8.90218E+06    -77.7909E+06    -2.01936E+06    -431.818E+03    -27.7408E-03     54.6472E-03    -26.9063E-03     60.1218E-03    -27.7054E-03     54.3098E-03    -26.7907E-03     60.0462E-03
             531     10.5145E-03     70.8146E-03    -8.28092E+06    -71.7028E+06    -6.19136E+06    -312.495E+03    -27.9175E-03     54.7904E-03    -26.8729E-03     65.6573E-03    -27.8993E-03     54.5062E-03    -26.7879E-03     65.5632E-03
             532     11.3907E-03     70.8794E-03    -7.88785E+06    -56.7421E+06    -6.10432E+06    -197.395E+03    -28.0544E-03     54.9010E-03    -26.8466E-03     72.5412E-03    -28.0844E-03     54.7193E-03    -26.7834E-03     72.4231E-03
             533     12.2671E-03     70.9524E-03    -7.54661E+06    -38.9015E+06    -5.20710E+06     116.292E+03    -28.1224E-03     54.9359E-03    -26.8136E-03     79.3927E-03    -28.2182E-03     54.8820E-03    -26.7723E-03     79.2512E-03
             534     13.1440E-03     71.0299E-03    -7.66324E+06    -27.6259E+06    -12.6290E+06     735.777E+03    -28.1239E-03     54.8723E-03    -26.7484E-03     79.0416E-03    -28.2798E-03     54.9396E-03    -26.7604E-03     78.8754E-03
             535     14.0197E-03     71.1020E-03    -8.39872E+06    -8.24019E+06    -25.5267E+06     1.03862E+06    -28.9413E-03     55.5960E-03    -26.6547E-03     95.2648E-03    -29.3102E-03     55.9799E-03    -26.7582E-03     95.0443E-03
             536     14.8959E-03     71.2115E-03    -9.32666E+06     47.8364E+06    -30.2612E+06     546.331E+03    -35.1723E-03     61.7263E-03    -26.5540E-03     183.455E-03    -37.0042E-03     63.7827E-03    -26.7611E-03     183.179E-03
             537     15.7718E-03     71.4541E-03    -9.13844E+06     132.581E+06     16.8610E+06    -52.7476E+03    -45.0992E-03     71.7582E-03    -26.6590E-03     317.092E-03    -55.0530E-03     82.1014E-03    -26.7537E-03     318.581E-03
             538     16.6485E-03     71.8302E-03    -5.65279E+06     188.470E+06     91.2063E+06     10.6601E+03    -42.2231E-03     69.1396E-03    -26.9165E-03     334.096E-03    -58.2622E-03     85.5632E-03    -26.7256E-03     343.223E-03
             539     876.169E-06     71.4487E-03    -20.9909E+06    -110.730E+06    -20.6578E+06     178.480E+03    -26.9408E-03     53.8446E-03    -26.9038E-03     5.73272E-03    -26.8553E-03     53.3515E-03    -26.8161E-03     5.73239E-03
             540     1.75235E-03     71.4563E-03    -20.5516E+06    -109.840E+06    -19.1663E+06     259.723E+03    -26.9426E-03     53.8658E-03    -26.9232E-03     10.5988E-03    -26.8587E-03     53.3746E-03    -26.8300E-03     10.5972E-03
             541     2.62852E-03     71.4689E-03    -19.6624E+06    -108.309E+06    -16.7956E+06     20.7964E+03    -26.9700E-03     53.8997E-03    -26.9296E-03     15.7914E-03    -26.8879E-03     53.4119E-03    -26.8280E-03     15.7840E-03
             542     3.50472E-03     71.4864E-03    -18.3954E+06    -103.694E+06    -14.2731E+06    -345.878E+03    -27.0031E-03     53.9333E-03    -26.9302E-03     21.0965E-03    -26.9257E-03     53.4639E-03    -26.8245E-03     21.0811E-03
             543     4.38091E-03     71.5090E-03    -17.0672E+06    -102.348E+06    -11.0224E+06      -542.3E+03    -27.0610E-03     53.9992E-03    -26.9381E-03     26.4569E-03    -26.9849E-03     53.5310E-03    -26.8201E-03     26.4351E-03
             544     5.25712E-03     71.5366E-03    -15.7367E+06    -100.749E+06    -7.46735E+06    -543.774E+03    -27.1349E-03     54.0823E-03    -26.9474E-03     31.9263E-03    -27.0613E-03     53.6168E-03    -26.8158E-03     31.8998E-03
             545     6.13333E-03     71.5696E-03    -14.2988E+06    -95.6435E+06    -4.59042E+06    -541.515E+03    -27.2164E-03     54.1641E-03    -26.9478E-03     37.5007E-03    -27.1496E-03     53.7204E-03    -26.8113E-03     37.4684E-03
             546     7.00956E-03     71.6079E-03    -12.7161E+06    -91.4454E+06    -2.60003E+06    -728.605E+03    -27.3202E-03     54.2646E-03    -26.9444E-03     43.1218E-03    -27.2582E-03     53.8404E-03    -26.8063E-03     43.0796E-03
             547     7.88579E-03     71.6516E-03    -11.1764E+06    -86.2796E+06    -1.52375E+06    -818.497E+03    -27.4402E-03     54.3752E-03    -26.9350E-03     48.7771E-03    -27.3849E-03     53.9784E-03    -26.8013E-03     48.7242E-03
             548     8.76204E-03     71.7006E-03    -9.87625E+06    -81.6257E+06    -591.664E+03    -703.442E+03    -27.5735E-03     54.4994E-03    -26.9259E-03     54.4529E-03    -27.5278E-03     54.1306E-03    -26.7962E-03     54.3893E-03
             549     9.63830E-03     71.7551E-03    -8.86321E+06    -77.8120E+06    -2.14763E+06    -652.795E+03    -27.7295E-03     54.6357E-03    -26.9062E-03     60.1126E-03    -27.6936E-03     54.2984E-03    -26.7913E-03     60.0341E-03
             550     10.5146E-03     71.8148E-03    -8.22804E+06    -71.7639E+06    -6.25544E+06    -627.494E+03    -27.8938E-03     54.7654E-03    -26.8716E-03     65.6675E-03    -27.8750E-03     54.4808E-03    -26.7869E-03     65.5694E-03
             551     11.3908E-03     71.8798E-03    -7.80195E+06     -56.886E+06    -5.98321E+06    -512.161E+03    -28.0293E-03     54.8740E-03    -26.8446E-03     72.4024E-03    -28.0588E-03     54.6912E-03    -26.7808E-03     72.2804E-03
             552     12.2673E-03     71.9521E-03    -7.25265E+06    -39.0871E+06    -4.90548E+06    -321.535E+03    -28.2038E-03     55.0188E-03    -26.8150E-03     79.0650E-03    -28.2984E-03     54.9632E-03    -26.7724E-03     78.9171E-03
             553     13.1434E-03     72.0301E-03    -6.59286E+06    -28.0344E+06    -12.1008E+06     97.0080E+03    -28.2629E-03     55.0208E-03    -26.7580E-03     78.8709E-03    -28.4139E-03     55.0840E-03    -26.7683E-03     78.6952E-03
             554     14.0196E-03     72.1029E-03    -6.79381E+06    -9.12511E+06    -25.4809E+06     1.01148E+06    -28.9333E-03     55.5984E-03    -26.6651E-03     95.3752E-03    -29.2932E-03     55.9757E-03    -26.7695E-03     95.1546E-03
             555     14.8955E-03     72.2116E-03    -7.98021E+06     48.2662E+06    -29.8542E+06     1.22730E+06    -35.0413E-03     61.5988E-03    -26.5576E-03     184.002E-03    -36.8667E-03     63.6539E-03    -26.7652E-03     183.737E-03
             556     15.7725E-03     72.4546E-03    -8.39716E+06     133.549E+06     17.3131E+06     506.657E+03    -45.3714E-03     72.0316E-03    -26.6602E-03     318.115E-03    -55.3629E-03     82.4171E-03    -26.7551E-03     319.575E-03
             557     16.6483E-03     72.8315E-03    -5.60741E+06     188.441E+06     90.8734E+06     76.8284E+03    -42.3175E-03     69.2379E-03    -26.9204E-03     334.214E-03    -58.3613E-03     85.6673E-03    -26.7312E-03     343.334E-03
             558     876.168E-06     72.4489E-03    -21.2775E+06    -111.043E+06    -20.9804E+06     99.2218E+03    -26.9437E-03     53.8515E-03    -26.9078E-03     5.73146E-03    -26.8588E-03     53.3578E-03    -26.8209E-03     5.73011E-03
             559     1.75234E-03     72.4566E-03    -20.5675E+06    -109.996E+06    -19.3109E+06     160.803E+03    -26.9457E-03     53.8723E-03    -26.9266E-03     10.6036E-03    -26.8615E-03     53.3806E-03    -26.8338E-03     10.6007E-03
             560     2.62852E-03     72.4691E-03    -19.5885E+06    -107.728E+06    -16.6509E+06    -146.460E+03    -26.9724E-03     53.9053E-03    -26.9329E-03     15.7939E-03    -26.8909E-03     53.4201E-03    -26.8315E-03     15.7843E-03
             561     3.50470E-03     72.4866E-03    -18.4226E+06    -103.155E+06    -14.1629E+06    -641.116E+03    -27.0054E-03     53.9388E-03    -26.9334E-03     21.0970E-03    -26.9291E-03     53.4720E-03    -26.8279E-03     21.0778E-03
             562     4.38090E-03     72.5092E-03    -17.1203E+06    -102.315E+06    -11.0124E+06    -678.519E+03    -27.0645E-03     54.0062E-03    -26.9417E-03     26.4580E-03    -26.9887E-03     53.5383E-03    -26.8236E-03     26.4344E-03
             563     5.25710E-03     72.5369E-03    -15.7097E+06    -100.656E+06    -7.48348E+06    -587.964E+03    -27.1374E-03     54.0880E-03    -26.9506E-03     31.9267E-03    -27.0638E-03     53.6229E-03    -26.8193E-03     31.8996E-03
             564     6.13332E-03     72.5699E-03    -14.1212E+06    -95.3180E+06    -4.64779E+06    -795.343E+03    -27.2175E-03     54.1674E-03    -26.9499E-03     37.5006E-03    -27.1503E-03     53.7252E-03    -26.8145E-03     37.4650E-03
             565     7.00954E-03     72.6082E-03    -12.5894E+06    -91.0794E+06    -2.75070E+06    -1.03440E+06    -27.3221E-03     54.2679E-03    -26.9458E-03     43.1208E-03    -27.2598E-03     53.8456E-03    -26.8092E-03     43.0747E-03
             566     7.88578E-03     72.6518E-03    -11.3004E+06    -86.2458E+06    -1.73220E+06    -1.10343E+06    -27.4400E-03     54.3768E-03    -26.9368E-03     48.7687E-03    -27.3851E-03     53.9807E-03    -26.8040E-03     48.7121E-03
             567     8.76202E-03     72.7009E-03    -10.0853E+06    -81.6723E+06    -840.687E+03    -1.03824E+06    -27.5750E-03     54.5027E-03    -26.9277E-03     54.4346E-03    -27.5300E-03     54.1343E-03    -26.7988E-03     54.3666E-03
             568     9.63827E-03     72.7553E-03    -9.02642E+06    -77.7856E+06    -2.29492E+06    -952.620E+03    -27.7337E-03     54.6421E-03    -26.9085E-03     60.0817E-03    -27.6985E-03     54.3054E-03    -26.7940E-03     59.9992E-03
             569     10.5145E-03     72.8151E-03    -8.44788E+06    -71.8370E+06    -6.45838E+06    -851.703E+03    -27.8758E-03     54.7490E-03    -26.8732E-03     65.5854E-03    -27.8577E-03     54.4647E-03    -26.7891E-03     65.4845E-03
             570     11.3909E-03     72.8799E-03     -8.1408E+06    -56.9276E+06    -6.21648E+06    -763.897E+03    -28.0711E-03     54.9183E-03    -26.8472E-03     72.3195E-03    -28.1019E-03     54.7361E-03    -26.7839E-03     72.1940E-03
             571     12.2670E-03     72.9526E-03    -7.82370E+06    -39.3099E+06    -5.29447E+06    -652.404E+03    -28.3606E-03     55.1848E-03    -26.8242E-03     79.2099E-03    -28.4580E-03     55.1302E-03    -26.7823E-03     79.0564E-03
             572     13.1431E-03     73.0306E-03    -7.86687E+06    -28.7957E+06    -12.6981E+06    -519.844E+03    -28.2362E-03     55.0078E-03    -26.7716E-03     79.0668E-03    -28.3920E-03     55.0702E-03    -26.7819E-03     78.8833E-03
             573     14.0194E-03     73.1029E-03    -7.91152E+06    -10.4061E+06    -25.9428E+06    -22.6540E+03    -28.7107E-03     55.3820E-03    -26.6713E-03     95.4456E-03    -29.0728E-03     55.7543E-03    -26.7745E-03     95.2140E-03
             574     14.8964E-03     73.2119E-03    -8.49237E+06     48.0741E+06    -28.3992E+06     1.17397E+06    -34.8252E-03     61.3837E-03    -26.5585E-03     183.808E-03    -36.6493E-03     63.4307E-03    -26.7579E-03     183.546E-03
             575     15.7727E-03     73.4549E-03    -8.56787E+06     134.939E+06     19.0860E+06     1.26900E+06    -45.0461E-03     71.6899E-03    -26.6438E-03     318.683E-03    -55.0773E-03     82.1144E-03    -26.7316E-03     320.185E-03
             576     16.6495E-03     73.8335E-03    -5.58567E+06     189.058E+06     90.8169E+06     237.111E+03    -42.4966E-03     69.3863E-03    -26.8897E-03     333.991E-03    -58.5073E-03     85.7849E-03    -26.7017E-03     343.056E-03
             577     876.172E-06     73.4492E-03    -21.4524E+06    -111.007E+06    -21.2216E+06    -115.076E+03    -26.9329E-03     53.8583E-03    -26.9254E-03     5.73112E-03    -26.8485E-03     53.3653E-03    -26.8394E-03     5.72700E-03
             578     1.75233E-03     73.4568E-03     -20.858E+06    -110.147E+06    -19.6392E+06    -85.7086E+03    -26.9506E-03     53.8807E-03    -26.9301E-03     10.6046E-03    -26.8671E-03     53.3891E-03    -26.8383E-03     10.5985E-03
             579     2.62851E-03     73.4694E-03    -19.9766E+06    -106.990E+06    -17.5837E+06    -322.377E+03    -26.9731E-03     53.9052E-03    -26.9321E-03     15.7941E-03    -26.8932E-03     53.4256E-03    -26.8360E-03     15.7822E-03
             580     3.50469E-03     73.4868E-03    -18.8844E+06    -102.435E+06    -14.9531E+06    -873.864E+03    -27.0058E-03     53.9387E-03    -26.9330E-03     21.0970E-03    -26.9317E-03     53.4773E-03    -26.8318E-03     21.0748E-03
             581     4.38088E-03     73.5094E-03    -17.5392E+06    -102.504E+06    -11.1391E+06    -898.620E+03    -27.0678E-03     54.0135E-03    -26.9458E-03     26.4579E-03    -26.9936E-03     53.5455E-03    -26.8274E-03     26.4315E-03
             582     5.25708E-03     73.5371E-03    -15.9165E+06    -100.376E+06    -7.58230E+06    -840.249E+03    -27.1398E-03     54.0937E-03    -26.9539E-03     31.9250E-03    -27.0675E-03     53.6305E-03    -26.8232E-03     31.8946E-03
             583     6.13329E-03     73.5701E-03    -14.2771E+06    -94.7966E+06    -4.86417E+06    -1.12093E+06    -27.2205E-03     54.1728E-03    -26.9523E-03     37.4982E-03    -27.1546E-03     53.7337E-03    -26.8184E-03     37.4584E-03
             584     7.00952E-03     73.6084E-03    -12.7524E+06    -90.8484E+06    -3.01290E+06    -1.27913E+06    -27.3261E-03     54.2746E-03    -26.9485E-03     43.1123E-03    -27.2646E-03     53.8540E-03    -26.8133E-03     43.0629E-03
             585     7.88573E-03     73.6521E-03    -11.3815E+06    -86.0568E+06    -2.04745E+06    -1.31607E+06    -27.4471E-03     54.3865E-03    -26.9394E-03     48.7520E-03    -27.3925E-03     53.9919E-03    -26.8083E-03     48.6926E-03
             586     8.76198E-03     73.7011E-03    -10.1630E+06    -81.6029E+06    -1.27758E+06    -1.37558E+06    -27.5838E-03     54.5140E-03    -26.9302E-03     54.4194E-03    -27.5386E-03     54.1467E-03    -26.8035E-03     54.3469E-03
             587     9.63820E-03     73.7555E-03    -9.14900E+06    -77.8726E+06    -2.85415E+06    -1.26920E+06    -27.7398E-03     54.6507E-03    -26.9110E-03     60.0679E-03    -27.7043E-03     54.3146E-03    -26.7991E-03     59.9813E-03
             588     10.5145E-03     73.8152E-03    -8.52421E+06    -71.9670E+06    -6.96321E+06    -1.05871E+06    -27.8978E-03     54.7746E-03    -26.8768E-03     65.5388E-03    -27.8792E-03     54.4905E-03    -26.7949E-03     65.4351E-03
             589     11.3907E-03     73.8801E-03    -8.29643E+06    -57.0560E+06    -6.85095E+06    -837.517E+03    -28.0991E-03     54.9507E-03    -26.8517E-03     72.3870E-03    -28.1296E-03     54.7692E-03    -26.7911E-03     72.2603E-03
             590     12.2670E-03     73.9530E-03    -8.30122E+06    -39.5924E+06    -6.09259E+06    -635.505E+03    -28.2975E-03     55.1240E-03    -26.8265E-03     79.3876E-03    -28.3956E-03     55.0698E-03    -26.7875E-03     79.2348E-03
             591     13.1432E-03     74.0311E-03    -8.66600E+06    -28.6832E+06    -13.6619E+06    -436.532E+03    -28.1893E-03     54.9581E-03    -26.7688E-03     79.0446E-03    -28.3476E-03     55.0234E-03    -26.7829E-03     78.8625E-03
             592     14.0197E-03     74.1027E-03    -9.71523E+06    -11.0698E+06    -27.5898E+06    -311.038E+03    -28.7440E-03     55.4115E-03    -26.6676E-03     95.3445E-03    -29.1117E-03     55.7855E-03    -26.7754E-03     95.1087E-03
             593     14.8955E-03     74.2122E-03    -10.6020E+06     46.4487E+06    -29.9636E+06     120.754E+03    -34.8586E-03     61.4189E-03    -26.5603E-03     183.579E-03    -36.6903E-03     63.4648E-03    -26.7621E-03     183.302E-03
             594     15.7727E-03     74.4542E-03    -9.31606E+06     135.238E+06     18.7251E+06     558.526E+03    -44.7037E-03     71.3465E-03    -26.6428E-03     317.889E-03    -54.7004E-03     81.7360E-03    -26.7318E-03     319.423E-03
             595     16.6507E-03     74.8336E-03    -5.50160E+06     189.888E+06     90.9269E+06     296.563E+03    -42.3921E-03     69.2737E-03    -26.8816E-03     333.915E-03    -58.3976E-03     85.6701E-03    -26.6944E-03     342.992E-03
             596     876.153E-06     74.4494E-03    -21.5682E+06    -110.704E+06    -21.2151E+06    -187.779E+03    -26.9344E-03     53.8703E-03    -26.9359E-03     5.74204E-03    -26.8511E-03     53.3790E-03    -26.8502E-03     5.73696E-03
             597     1.75232E-03     74.4571E-03    -21.0408E+06    -110.074E+06    -19.9048E+06    -277.642E+03    -26.9556E-03     53.8909E-03    -26.9353E-03     10.6040E-03    -26.8727E-03     53.4003E-03    -26.8447E-03     10.5954E-03
             598     2.62849E-03     74.4696E-03    -20.1660E+06    -106.187E+06    -18.2995E+06    -635.987E+03    -26.9746E-03     53.9080E-03    -26.9334E-03     15.7922E-03    -26.8958E-03     53.4337E-03    -26.8417E-03     15.7762E-03
             599     3.50468E-03     74.4871E-03    -19.1588E+06    -101.673E+06    -15.5058E+06    -1.08407E+06    -27.0079E-03     53.9425E-03    -26.9346E-03     21.0951E-03    -26.9355E-03     53.4861E-03    -26.8369E-03     21.0702E-03
             600     4.38086E-03     74.5097E-03    -17.7990E+06    -102.522E+06    -11.1807E+06    -1.21392E+06    -27.0724E-03     54.0234E-03    -26.9510E-03     26.4547E-03    -26.9994E-03     53.5557E-03    -26.8324E-03     26.4242E-03
             601     5.25705E-03     74.5374E-03    -16.1224E+06    -100.024E+06    -7.80587E+06    -1.23018E+06    -27.1438E-03     54.1015E-03    -26.9577E-03     31.9215E-03    -27.0727E-03     53.6407E-03    -26.8283E-03     31.8860E-03
             602     6.13326E-03     74.5704E-03    -14.4749E+06    -94.2646E+06    -5.28890E+06    -1.40387E+06    -27.2256E-03     54.1805E-03    -26.9549E-03     37.4944E-03    -27.1608E-03     53.7450E-03    -26.8237E-03     37.4509E-03
             603     7.00946E-03     74.6087E-03    -12.9485E+06    -90.5772E+06    -3.52879E+06    -1.60963E+06    -27.3317E-03     54.2829E-03    -26.9512E-03     43.1062E-03    -27.2709E-03     53.8647E-03    -26.8187E-03     43.0525E-03
             604     7.88570E-03     74.6523E-03    -11.4736E+06    -85.8103E+06    -2.68072E+06    -1.71850E+06    -27.4538E-03     54.3953E-03    -26.9415E-03     48.7575E-03    -27.3991E-03     54.0030E-03    -26.8138E-03     48.6929E-03
             605     8.76190E-03     74.7014E-03    -10.1535E+06    -81.4390E+06    -1.86033E+06    -1.74597E+06    -27.5899E-03     54.5225E-03    -26.9326E-03     54.4240E-03    -27.5440E-03     54.1569E-03    -26.8091E-03     54.3467E-03
             606     9.63817E-03     74.7557E-03    -9.09149E+06    -77.9821E+06    -3.45458E+06    -1.66012E+06    -27.7407E-03     54.6541E-03    -26.9133E-03     60.0723E-03    -27.7039E-03     54.3182E-03    -26.8044E-03     59.9807E-03
             607     10.5144E-03     74.8156E-03    -8.37615E+06    -72.1422E+06     -7.4778E+06    -1.43007E+06    -27.9117E-03     54.7913E-03    -26.8795E-03     65.5846E-03    -27.8914E-03     54.5068E-03    -26.8002E-03     65.4760E-03
             608     11.3906E-03     74.8804E-03    -7.96814E+06    -57.4697E+06    -7.26740E+06    -971.258E+03    -28.0926E-03     54.9471E-03    -26.8545E-03     72.4805E-03    -28.1203E-03     54.7636E-03    -26.7960E-03     72.3522E-03
             609     12.2668E-03     74.9533E-03    -7.59721E+06    -39.8701E+06    -6.35299E+06    -565.978E+03    -28.2331E-03     55.0594E-03    -26.8262E-03     79.3654E-03    -28.3267E-03     55.0028E-03    -26.7892E-03     79.2141E-03
             610     13.1434E-03     75.0311E-03    -7.60519E+06    -28.6287E+06    -13.9137E+06    -343.224E+03    -28.1934E-03     54.9585E-03    -26.7651E-03     78.9978E-03    -28.3458E-03     55.0226E-03    -26.7821E-03     78.8172E-03
             611     14.0193E-03     75.1034E-03    -8.19724E+06    -11.0093E+06    -27.3648E+06    -100.485E+03    -28.8198E-03     55.4879E-03    -26.6681E-03     95.1751E-03    -29.1807E-03     55.8600E-03    -26.7771E-03     94.9412E-03
             612     14.8963E-03     75.2119E-03    -8.91285E+06     45.8066E+06    -31.6391E+06    -134.860E+03    -35.1210E-03     61.6821E-03    -26.5611E-03     183.619E-03    -36.9477E-03     63.7315E-03    -26.7728E-03     183.332E-03
             613     15.7719E-03     75.4553E-03    -8.77417E+06     134.615E+06     17.4837E+06     18.0185E+03    -45.1399E-03     71.8099E-03    -26.6700E-03     316.773E-03    -55.0732E-03     82.1393E-03    -26.7651E-03     318.257E-03
             614     16.6485E-03     75.8307E-03    -5.59309E+06     190.104E+06     91.8100E+06     261.604E+03    -42.0473E-03     68.9755E-03    -26.9282E-03     333.647E-03    -58.0711E-03     85.3881E-03    -26.7367E-03     342.795E-03
             615     876.164E-06     75.4497E-03    -21.5230E+06    -110.324E+06    -21.2522E+06    -219.247E+03    -26.9477E-03     53.8838E-03    -26.9362E-03     5.74590E-03    -26.8646E-03     53.3944E-03    -26.8513E-03     5.74041E-03
             616     1.75230E-03     75.4573E-03    -20.8470E+06    -109.496E+06    -19.8032E+06    -573.529E+03    -26.9612E-03     53.9029E-03    -26.9417E-03     10.6044E-03    -26.8784E-03     53.4148E-03    -26.8517E-03     10.5919E-03
             617     2.62848E-03     75.4699E-03    -19.9750E+06    -105.421E+06    -17.9744E+06    -958.208E+03    -26.9803E-03     53.9205E-03    -26.9402E-03     15.7931E-03    -26.9022E-03     53.4493E-03    -26.8483E-03     15.7729E-03
             618     3.50464E-03     75.4874E-03    -19.0094E+06    -100.985E+06    -15.3003E+06    -1.23889E+06    -27.0136E-03     53.9545E-03    -26.9409E-03     21.0940E-03    -26.9417E-03     53.5010E-03    -26.8434E-03     21.0671E-03
             619     4.38083E-03     75.5100E-03    -17.7912E+06    -102.179E+06    -11.3836E+06    -1.45371E+06    -27.0776E-03     54.0334E-03    -26.9558E-03     26.4525E-03    -27.0048E-03     53.5677E-03    -26.8388E-03     26.4189E-03
             620     5.25702E-03     75.5376E-03    -16.2721E+06    -99.6401E+06    -8.22368E+06    -1.59244E+06    -27.1493E-03     54.1109E-03    -26.9616E-03     31.9222E-03    -27.0789E-03     53.6529E-03    -26.8346E-03     31.8821E-03
             621     6.13321E-03     75.5706E-03    -14.6045E+06    -93.7066E+06    -5.89608E+06    -1.82002E+06    -27.2281E-03     54.1854E-03    -26.9573E-03     37.4979E-03    -27.1638E-03     53.7537E-03    -26.8297E-03     37.4490E-03
             622     7.00944E-03     75.6089E-03    -12.9403E+06    -90.1258E+06      -4.063E+06    -2.06906E+06    -27.3336E-03     54.2870E-03    -26.9534E-03     43.1161E-03    -27.2726E-03     53.8719E-03    -26.8243E-03     43.0565E-03
             623     7.88564E-03     75.6526E-03    -11.4802E+06    -85.5171E+06    -3.20503E+06    -2.21756E+06    -27.4526E-03     54.3961E-03    -26.9435E-03     48.7752E-03    -27.3976E-03     54.0060E-03    -26.8188E-03     48.7042E-03
             624     8.76190E-03     75.7016E-03    -10.1653E+06    -81.2563E+06    -2.36286E+06    -2.24392E+06    -27.5867E-03     54.5208E-03    -26.9341E-03     54.4498E-03    -27.5405E-03     54.1568E-03    -26.8133E-03     54.3662E-03
             625     9.63809E-03     75.7560E-03    -9.05042E+06    -77.9809E+06    -3.88503E+06    -2.17264E+06    -27.7395E-03     54.6542E-03    -26.9146E-03     60.0933E-03    -27.7019E-03     54.3188E-03    -26.8079E-03     59.9950E-03
             626     10.5144E-03     75.8157E-03    -8.32706E+06    -72.3977E+06    -7.96279E+06    -1.92663E+06    -27.8986E-03     54.7785E-03    -26.8799E-03     65.6372E-03    -27.8769E-03     54.4933E-03    -26.8026E-03     65.5224E-03
             627     11.3906E-03     75.8807E-03    -7.70880E+06    -58.0417E+06    -7.66680E+06    -1.49623E+06    -28.0717E-03     54.9254E-03    -26.8537E-03     72.5087E-03    -28.0967E-03     54.7392E-03    -26.7967E-03     72.3738E-03
             628     12.2670E-03     75.9534E-03    -7.06883E+06    -40.2125E+06    -6.52888E+06    -1.07711E+06    -28.2829E-03     55.1093E-03    -26.8264E-03     79.3886E-03    -28.3732E-03     55.0507E-03    -26.7905E-03     79.2304E-03
             629     13.1430E-03     76.0315E-03    -6.54950E+06    -29.0522E+06    -13.5207E+06    -625.774E+03    -28.1762E-03     54.9444E-03    -26.7683E-03     78.9899E-03    -28.3230E-03     55.0041E-03    -26.7843E-03     78.8059E-03
             630     14.0197E-03     76.1036E-03    -7.01175E+06    -11.1461E+06    -26.5649E+06    -274.703E+03    -28.8524E-03     55.5248E-03    -26.6725E-03     95.2552E-03    -29.2082E-03     55.8933E-03    -26.7790E-03     95.0188E-03
             631     14.8953E-03     76.2122E-03    -8.60325E+06     45.8460E+06    -31.8106E+06    -174.058E+03    -35.3036E-03     61.8697E-03    -26.5662E-03     184.010E-03    -37.1330E-03     63.9237E-03    -26.7792E-03     183.720E-03
             632     15.7717E-03     76.4562E-03    -8.85746E+06     134.155E+06     16.5126E+06     161.868E+03    -45.5602E-03     72.2444E-03    -26.6841E-03     317.573E-03    -55.5300E-03     82.6111E-03    -26.7832E-03     319.019E-03
             633     16.6470E-03     76.8316E-03    -5.31177E+06     190.227E+06     91.4570E+06     418.629E+03    -41.9597E-03     68.9075E-03    -26.9478E-03     333.668E-03    -57.9783E-03     85.3173E-03    -26.7587E-03     342.838E-03
             634     876.134E-06     76.4500E-03    -21.3335E+06    -109.646E+06    -21.1868E+06    -491.389E+03    -26.9522E-03     53.8977E-03    -26.9455E-03     5.73884E-03    -26.8692E-03     53.4113E-03    -26.8615E-03     5.72983E-03
             635     1.75231E-03     76.4576E-03    -20.8126E+06    -108.600E+06    -19.7238E+06    -816.926E+03    -26.9648E-03     53.9125E-03    -26.9477E-03     10.6059E-03    -26.8832E-03     53.4287E-03    -26.8587E-03     10.5903E-03
             636     2.62845E-03     76.4701E-03    -20.0643E+06    -104.705E+06    -17.8729E+06    -1.16388E+06    -26.9860E-03     53.9323E-03    -26.9464E-03     15.7964E-03    -26.9095E-03     53.4647E-03    -26.8548E-03     15.7736E-03
             637     3.50463E-03     76.4877E-03    -19.1612E+06    -100.413E+06    -15.4293E+06    -1.32384E+06    -27.0187E-03     53.9650E-03    -26.9463E-03     21.0971E-03    -26.9482E-03     53.5148E-03    -26.8501E-03     21.0690E-03
             638     4.38080E-03     76.5102E-03    -17.9618E+06    -101.480E+06    -11.7044E+06    -1.62475E+06    -27.0826E-03     54.0427E-03    -26.9601E-03     26.4564E-03    -27.0112E-03     53.5812E-03    -26.8454E-03     26.4206E-03
             639     5.25698E-03     76.5379E-03    -16.3714E+06    -99.0565E+06    -8.68330E+06    -2.01906E+06    -27.1513E-03     54.1162E-03    -26.9649E-03     31.9298E-03    -27.0816E-03     53.6618E-03    -26.8409E-03     31.8842E-03
             640     6.13319E-03     76.5709E-03    -14.6602E+06    -93.0054E+06    -6.42734E+06    -2.36802E+06    -27.2265E-03     54.1857E-03    -26.9592E-03     37.5094E-03    -27.1628E-03     53.7585E-03    -26.8352E-03     37.4534E-03
             641     7.00939E-03     76.6092E-03    -13.0595E+06    -89.6209E+06    -4.55586E+06    -2.63050E+06    -27.3285E-03     54.2833E-03    -26.9549E-03     43.1327E-03    -27.2681E-03     53.8716E-03    -26.8288E-03     43.0658E-03
             642     7.88563E-03     76.6529E-03    -11.5565E+06    -85.0834E+06    -3.57694E+06    -2.77826E+06    -27.4451E-03     54.3895E-03    -26.9444E-03     48.7934E-03    -27.3906E-03     54.0023E-03    -26.8221E-03     48.7152E-03
             643     8.76185E-03     76.7019E-03    -10.1747E+06    -81.0314E+06    -2.71322E+06    -2.86377E+06    -27.5757E-03     54.5097E-03    -26.9340E-03     54.4708E-03    -27.5293E-03     54.1474E-03    -26.8153E-03     54.3793E-03
             644     9.63815E-03     76.7563E-03    -8.97419E+06    -77.8720E+06    -4.19266E+06    -2.80061E+06    -27.7392E-03     54.6533E-03    -26.9141E-03     60.1191E-03    -27.7009E-03     54.3188E-03    -26.8091E-03     60.0128E-03
             645     10.5143E-03     76.8160E-03    -8.13204E+06    -72.6615E+06    -8.25650E+06    -2.56740E+06    -27.8933E-03     54.7726E-03    -26.8793E-03     65.6273E-03    -27.8699E-03     54.4863E-03    -26.8034E-03     65.5042E-03
             646     11.3907E-03     76.8809E-03    -7.49044E+06    -58.4304E+06    -8.01453E+06    -2.23693E+06    -28.0597E-03     54.9118E-03    -26.8522E-03     72.5064E-03    -28.0824E-03     54.7238E-03    -26.7967E-03     72.3621E-03
             647     12.2669E-03     76.9537E-03    -6.90058E+06    -40.6337E+06    -6.86143E+06    -1.76665E+06    -28.2451E-03     55.0681E-03    -26.8230E-03     79.5419E-03    -28.3333E-03     55.0074E-03    -26.7884E-03     79.3753E-03
             648     13.1432E-03     77.0320E-03    -6.61931E+06    -29.9803E+06    -14.0259E+06    -1.18622E+06    -28.1700E-03     54.9332E-03    -26.7632E-03     79.0979E-03    -28.3150E-03     54.9889E-03    -26.7803E-03     78.9068E-03
             649     14.0195E-03     77.1032E-03    -7.11751E+06    -11.8085E+06    -27.1427E+06    -456.388E+03    -28.8859E-03     55.5528E-03    -26.6669E-03     95.5967E-03    -29.2414E-03     55.9198E-03    -26.7752E-03     95.3575E-03
             650     14.8960E-03     77.2137E-03    -8.64886E+06     45.7967E+06    -32.1975E+06     214.429E+03    -35.0402E-03     61.5926E-03    -26.5524E-03     184.560E-03    -36.8677E-03     63.6454E-03    -26.7673E-03     184.284E-03
             651     15.7721E-03     77.4560E-03    -8.91231E+06     134.202E+06     16.0078E+06     370.784E+03    -45.0782E-03     71.7198E-03    -26.6416E-03     319.265E-03    -55.1228E-03     82.1628E-03    -26.7433E-03     320.770E-03
             652     16.6496E-03     77.8345E-03    -5.68925E+06     190.330E+06     90.9195E+06     225.389E+03    -42.3756E-03     69.2713E-03    -26.8958E-03     333.732E-03    -58.3650E-03     85.6526E-03    -26.7089E-03     342.806E-03
             653     876.146E-06     77.4503E-03    -22.2945E+06    -108.632E+06    -21.7586E+06    -603.003E+03    -26.9493E-03     53.8999E-03    -26.9506E-03     5.74258E-03    -26.8718E-03     53.4208E-03    -26.8696E-03     5.73213E-03
             654     1.75228E-03     77.4579E-03    -21.6971E+06    -107.617E+06    -20.5054E+06    -954.188E+03    -26.9676E-03     53.9169E-03    -26.9493E-03     10.6107E-03    -26.8907E-03     53.4404E-03    -26.8644E-03     10.5933E-03
             655     2.62845E-03     77.4704E-03    -20.8748E+06    -103.880E+06    -18.7182E+06    -1.35612E+06    -26.9875E-03     53.9357E-03    -26.9482E-03     15.7979E-03    -26.9150E-03     53.4746E-03    -26.8609E-03     15.7726E-03
             656     3.50460E-03     77.4879E-03    -19.7293E+06    -99.8629E+06    -15.9542E+06    -1.59265E+06    -27.0219E-03     53.9716E-03    -26.9497E-03     21.1014E-03    -26.9543E-03     53.5257E-03    -26.8561E-03     21.0699E-03
             657     4.38078E-03     77.5105E-03    -18.1964E+06    -100.459E+06    -12.0755E+06    -2.00029E+06    -27.0833E-03     54.0462E-03    -26.9628E-03     26.4640E-03    -27.0141E-03     53.5907E-03    -26.8511E-03     26.4233E-03
             658     5.25695E-03     77.5382E-03    -16.4862E+06    -98.1759E+06    -8.99136E+06    -2.55540E+06    -27.1496E-03     54.1168E-03    -26.9672E-03     31.9377E-03    -27.0813E-03     53.6675E-03    -26.8459E-03     31.8852E-03
             659     6.13316E-03     77.5712E-03    -14.8223E+06     -92.245E+06    -6.83908E+06    -2.92509E+06    -27.2219E-03     54.1822E-03    -26.9603E-03     37.5197E-03    -27.1595E-03     53.7595E-03    -26.8392E-03     37.4566E-03
             660     7.00938E-03     77.6095E-03    -13.2231E+06    -88.9562E+06    -4.90791E+06    -3.21837E+06    -27.3212E-03     54.2765E-03    -26.9553E-03     43.1417E-03    -27.2620E-03     53.8688E-03    -26.8317E-03     43.0673E-03
             661     7.88560E-03     77.6531E-03    -11.6881E+06    -84.5647E+06    -3.94496E+06    -3.46463E+06    -27.4341E-03     54.3778E-03    -26.9437E-03     48.8041E-03    -27.3804E-03     53.9939E-03    -26.8238E-03     48.7170E-03
             662     8.76188E-03     77.7021E-03    -10.2549E+06    -80.6377E+06    -3.06858E+06    -3.57772E+06    -27.5682E-03     54.5006E-03    -26.9324E-03     54.4799E-03    -27.5222E-03     54.1409E-03    -26.8160E-03     54.3792E-03
             663     9.63810E-03     77.7565E-03    -9.02809E+06    -77.7788E+06    -4.60369E+06    -3.54252E+06    -27.7274E-03     54.6390E-03    -26.9117E-03     60.1468E-03    -27.6888E-03     54.3057E-03    -26.8088E-03     60.0310E-03
             664     10.5144E-03     77.8163E-03    -8.10453E+06    -72.7456E+06    -8.65011E+06    -3.35528E+06    -27.8936E-03     54.7702E-03    -26.8766E-03     65.6497E-03    -27.8694E-03     54.4840E-03    -26.8026E-03     65.5164E-03
             665     11.3906E-03     77.8810E-03    -7.48453E+06    -58.7174E+06    -8.45747E+06    -3.00434E+06    -28.0449E-03     54.8938E-03    -26.8489E-03     72.5405E-03    -28.0666E-03     54.7050E-03    -26.7952E-03     72.3863E-03
             666     12.2670E-03     77.9540E-03    -6.87283E+06    -41.2650E+06    -7.29142E+06    -2.42002E+06    -28.1594E-03     54.9762E-03    -26.8168E-03     79.5100E-03    -28.2455E-03     54.9126E-03    -26.7835E-03     79.3356E-03
             667     13.1436E-03     78.0318E-03    -6.84696E+06    -30.7187E+06    -14.5185E+06    -1.74219E+06    -28.1700E-03     54.9246E-03    -26.7545E-03     79.1582E-03    -28.3148E-03     54.9780E-03    -26.7726E-03     78.9596E-03
             668     14.0196E-03     78.1042E-03    -7.63827E+06    -12.7849E+06    -27.8608E+06    -779.866E+03    -28.8108E-03     55.4669E-03    -26.6561E-03     95.6058E-03    -29.1668E-03     55.8312E-03    -26.7658E-03     95.3633E-03
             669     14.8958E-03     78.2131E-03    -8.53691E+06     45.0339E+06    -33.5403E+06     238.896E+03    -34.6554E-03     61.1811E-03    -26.5257E-03     184.158E-03    -36.4702E-03     63.2228E-03    -26.7463E-03     183.891E-03
             670     15.7738E-03     78.4562E-03    -8.40173E+06     134.232E+06     15.5537E+06     732.730E+03    -44.5238E-03     71.1199E-03    -26.5961E-03     318.654E-03    -54.5285E-03     81.5262E-03    -26.7008E-03     320.207E-03
             671     16.6514E-03     78.8345E-03    -5.86418E+06     190.816E+06     91.3878E+06     422.312E+03    -42.7404E-03     69.5954E-03    -26.8550E-03     333.513E-03    -58.7146E-03     85.9611E-03    -26.6662E-03     342.522E-03
             672     876.144E-06     78.4506E-03    -23.6690E+06    -107.419E+06    -23.1450E+06    -565.652E+03    -26.9444E-03     53.8952E-03    -26.9508E-03     5.74415E-03    -26.8735E-03     53.4262E-03    -26.8764E-03     5.73418E-03
             673     1.75228E-03     78.4582E-03    -22.8469E+06    -106.423E+06    -21.5628E+06    -1.21890E+06    -26.9694E-03     53.9185E-03    -26.9490E-03     10.6090E-03    -26.8985E-03     53.4511E-03    -26.8694E-03     10.5882E-03
             674     2.62842E-03     78.4707E-03    -21.7832E+06    -102.843E+06    -19.4509E+06    -1.71052E+06    -26.9890E-03     53.9391E-03    -26.9502E-03     15.8016E-03    -26.9215E-03     53.4856E-03    -26.8667E-03     15.7717E-03
             675     3.50458E-03     78.4882E-03    -20.4329E+06    -99.0046E+06    -16.6659E+06    -2.16545E+06    -27.0215E-03     53.9731E-03    -26.9516E-03     21.1062E-03    -26.9577E-03     53.5336E-03    -26.8617E-03     21.0673E-03
             676     4.38075E-03     78.5108E-03    -18.8241E+06    -99.3273E+06    -13.1268E+06    -2.61910E+06    -27.0783E-03     54.0399E-03    -26.9615E-03     26.4686E-03    -27.0123E-03     53.5925E-03    -26.8559E-03     26.4199E-03
             677     5.25694E-03     78.5385E-03    -17.0897E+06    -97.0267E+06    -9.93220E+06    -3.16697E+06    -27.1438E-03     54.1091E-03    -26.9653E-03     31.9419E-03    -27.0788E-03     53.6678E-03    -26.8495E-03     31.8815E-03
             678     6.13314E-03     78.5715E-03    -15.2834E+06    -91.4131E+06    -7.32114E+06    -3.61997E+06    -27.2160E-03     54.1760E-03    -26.9600E-03     37.5236E-03    -27.1564E-03     53.7589E-03    -26.8419E-03     37.4514E-03
             679     7.00937E-03     78.6097E-03    -13.4824E+06    -88.1013E+06    -5.31475E+06    -3.95519E+06    -27.3136E-03     54.2678E-03    -26.9542E-03     43.1454E-03    -27.2564E-03     53.8654E-03    -26.8335E-03     43.0615E-03
             680     7.88561E-03     78.6534E-03    -11.8374E+06    -83.8998E+06    -4.31865E+06    -4.23505E+06    -27.4282E-03     54.3703E-03    -26.9421E-03     48.8016E-03    -27.3757E-03     53.9904E-03    -26.8249E-03     48.7045E-03
             681     8.76186E-03     78.7024E-03    -10.3607E+06    -80.1826E+06    -3.45580E+06    -4.35915E+06    -27.5587E-03     54.4890E-03    -26.9303E-03     54.4830E-03    -27.5134E-03     54.1322E-03    -26.8163E-03     54.3722E-03
             682     9.63813E-03     78.7568E-03    -9.13968E+06    -77.5507E+06    -4.99838E+06    -4.32945E+06    -27.7104E-03     54.6190E-03    -26.9087E-03     60.1422E-03    -27.6721E-03     54.2875E-03    -26.8080E-03     60.0163E-03
             683     10.5144E-03     78.8164E-03    -8.32610E+06    -72.7235E+06    -9.16473E+06    -4.18455E+06    -27.8804E-03     54.7526E-03    -26.8723E-03     65.6641E-03    -27.8565E-03     54.4676E-03    -26.8006E-03     65.5202E-03
             684     11.3907E-03     78.8814E-03    -7.70340E+06    -58.9161E+06    -8.98414E+06    -3.84055E+06    -28.0469E-03     54.8917E-03    -26.8447E-03     72.4619E-03    -28.0687E-03     54.7030E-03    -26.7931E-03     72.2967E-03
             685     12.2670E-03     78.9539E-03    -7.02902E+06    -41.9706E+06    -7.85364E+06    -3.20644E+06    -28.2108E-03     55.0262E-03    -26.8154E-03     79.3538E-03    -28.2962E-03     54.9605E-03    -26.7837E-03     79.1685E-03
             686     13.1433E-03     79.0322E-03    -6.70389E+06    -31.5607E+06    -14.9221E+06    -2.22225E+06    -28.1098E-03     54.8635E-03    -26.7537E-03     79.0995E-03    -28.2519E-03     54.9131E-03    -26.7729E-03     78.8952E-03
             687     14.0198E-03     79.1043E-03    -7.31152E+06    -14.1185E+06    -28.2972E+06    -1.04290E+06    -28.6356E-03     55.2842E-03    -26.6487E-03     95.3414E-03    -28.9853E-03     55.6399E-03    -26.7591E-03     95.0979E-03
             688     14.8966E-03     79.2131E-03    -8.65210E+06     43.8634E+06    -34.3205E+06     38.0738E+03    -34.8469E-03     61.3664E-03    -26.5195E-03     183.505E-03    -36.6567E-03     63.4008E-03    -26.7421E-03     183.229E-03
             689     15.7727E-03     79.4552E-03    -8.69309E+06     133.728E+06     14.4266E+06     662.897E+03    -45.0472E-03     71.6624E-03    -26.6152E-03     317.025E-03    -54.9837E-03     82.0009E-03    -26.7244E-03     318.517E-03
             690     16.6496E-03     79.8335E-03    -5.51822E+06     191.193E+06     91.0105E+06     702.862E+03    -42.4077E-03     69.2964E-03    -26.8887E-03     333.335E-03    -58.3951E-03     85.6791E-03    -26.7029E-03     342.418E-03
             691     876.130E-06     79.4509E-03    -23.4926E+06    -105.940E+06    -23.3144E+06    -741.006E+03    -26.9503E-03     53.9067E-03    -26.9564E-03     5.75083E-03    -26.8804E-03     53.4451E-03    -26.8853E-03     5.73859E-03
             692     1.75226E-03     79.4585E-03    -22.9236E+06    -104.912E+06    -21.6745E+06    -1.49388E+06    -26.9701E-03     53.9234E-03    -26.9533E-03     10.6072E-03    -26.9015E-03     53.4639E-03    -26.8763E-03     10.5829E-03
             693     2.62841E-03     79.4711E-03    -21.9640E+06    -101.553E+06    -19.5687E+06    -2.10496E+06    -26.9904E-03     53.9441E-03    -26.9537E-03     15.8041E-03    -26.9255E-03     53.4975E-03    -26.8724E-03     15.7692E-03
             694     3.50456E-03     79.4885E-03    -20.7455E+06    -97.6607E+06    -17.1552E+06    -2.75111E+06    -27.0193E-03     53.9718E-03    -26.9525E-03     21.1088E-03    -26.9582E-03     53.5402E-03    -26.8666E-03     21.0623E-03
             695     4.38074E-03     79.5111E-03    -19.1951E+06    -98.1399E+06    -13.7477E+06    -3.32636E+06    -27.0746E-03     54.0357E-03    -26.9611E-03     26.4699E-03    -27.0112E-03     53.5957E-03    -26.8597E-03     26.4121E-03
             696     5.25692E-03     79.5388E-03    -17.4272E+06    -95.6916E+06    -10.5003E+06    -3.86842E+06    -27.1382E-03     54.1021E-03    -26.9639E-03     31.9424E-03    -27.0760E-03     53.6688E-03    -26.8524E-03     31.8728E-03
             697     6.13313E-03     79.5718E-03    -15.6040E+06    -90.2948E+06    -7.79122E+06    -4.45231E+06    -27.2112E-03     54.1699E-03    -26.9587E-03     37.5206E-03    -27.1542E-03     53.7595E-03    -26.8441E-03     37.4378E-03
             698     7.00935E-03     79.6100E-03    -13.7799E+06    -87.1702E+06    -5.78517E+06    -4.84996E+06    -27.3100E-03     54.2627E-03    -26.9527E-03     43.1386E-03    -27.2550E-03     53.8661E-03    -26.8352E-03     43.0432E-03
             699     7.88560E-03     79.6536E-03    -12.0737E+06    -83.0886E+06    -4.77204E+06    -5.10125E+06    -27.4247E-03     54.3651E-03    -26.9404E-03     48.7946E-03    -27.3739E-03     53.9903E-03    -26.8263E-03     48.6863E-03
             700     8.76184E-03     79.7026E-03    -10.5319E+06    -79.6496E+06    -3.92352E+06    -5.24791E+06    -27.5532E-03     54.4817E-03    -26.9285E-03     54.4632E-03    -27.5088E-03     54.1285E-03    -26.8173E-03     54.3409E-03
             701     9.63815E-03     79.7570E-03    -9.18426E+06    -77.2367E+06    -5.45547E+06    -5.19994E+06    -27.7103E-03     54.6171E-03    -26.9068E-03     60.1106E-03    -27.6720E-03     54.2879E-03    -26.8088E-03     59.9734E-03
             702     10.5144E-03     79.8167E-03    -8.29927E+06    -72.5776E+06    -9.58671E+06    -5.00247E+06    -27.8731E-03     54.7435E-03    -26.8705E-03     65.6199E-03    -27.8486E-03     54.4598E-03    -26.8011E-03     65.4654E-03
             703     11.3907E-03     79.8815E-03    -7.72139E+06    -59.1589E+06    -9.54807E+06    -4.61563E+06    -28.0712E-03     54.9147E-03    -26.8435E-03     72.4242E-03    -28.0919E-03     54.7257E-03    -26.7943E-03     72.2489E-03
             704     12.2669E-03     79.9543E-03    -7.31655E+06    -42.7074E+06    -8.71065E+06    -3.87538E+06    -28.2508E-03     55.0668E-03    -26.8160E-03     79.3751E-03    -28.3355E-03     54.9992E-03    -26.7870E-03     79.1809E-03
             705     13.1433E-03     80.0323E-03    -7.05367E+06    -32.9360E+06    -15.9775E+06    -2.74046E+06    -28.0826E-03     54.8372E-03    -26.7546E-03     79.0422E-03    -28.2224E-03     54.8814E-03    -26.7765E-03     78.8318E-03
             706     14.0198E-03     80.1042E-03    -7.56567E+06    -15.6225E+06    -29.1864E+06    -1.47320E+06    -28.7202E-03     55.3724E-03    -26.6522E-03     95.0614E-03    -29.0665E-03     55.7210E-03    -26.7645E-03     94.8115E-03
             707     14.8961E-03     80.2130E-03    -8.92308E+06     42.6910E+06    -35.3517E+06    -82.8114E+03    -35.1705E-03     61.7042E-03    -26.5337E-03     183.371E-03    -36.9815E-03     63.7376E-03    -26.7594E-03     183.084E-03
             708     15.7720E-03     80.4566E-03    -9.23710E+06     133.354E+06     12.5360E+06     718.494E+03    -45.4681E-03     72.1088E-03    -26.6407E-03     317.821E-03    -55.4523E-03     82.4973E-03    -26.7580E-03     319.278E-03
             709     16.6469E-03     80.8331E-03    -6.05633E+06     191.547E+06     89.8327E+06     359.731E+03    -42.1955E-03     69.1092E-03    -26.9137E-03     334.511E-03    -58.2624E-03     85.5741E-03    -26.7335E-03     343.658E-03
             710     876.116E-06     80.4512E-03    -23.4693E+06    -104.208E+06    -23.1418E+06    -924.986E+03    -26.9655E-03     53.9172E-03    -26.9517E-03     5.74665E-03    -26.8983E-03     53.4640E-03    -26.8823E-03     5.73204E-03
             711     1.75226E-03     80.4589E-03    -22.9230E+06    -103.145E+06    -21.8178E+06    -1.65395E+06    -26.9706E-03     53.9271E-03    -26.9565E-03     10.6123E-03    -26.9044E-03     53.4767E-03    -26.8828E-03     10.5859E-03
             712     2.62839E-03     80.4714E-03    -22.0738E+06    -99.9338E+06    -20.0041E+06    -2.45963E+06    -26.9885E-03     53.9427E-03    -26.9542E-03     15.8046E-03    -26.9259E-03     53.5050E-03    -26.8773E-03     15.7650E-03
             713     3.50456E-03     80.4889E-03    -20.8632E+06    -95.8775E+06    -17.4777E+06    -3.31035E+06    -27.0172E-03     53.9695E-03    -26.9522E-03     21.1091E-03    -26.9589E-03     53.5474E-03    -26.8703E-03     21.0554E-03
             714     4.38072E-03     80.5114E-03    -19.2853E+06    -96.7118E+06    -13.6876E+06    -4.07368E+06    -27.0737E-03     54.0365E-03    -26.9627E-03     26.4684E-03    -27.0130E-03     53.6036E-03    -26.8630E-03     26.4009E-03
             715     5.25691E-03     80.5391E-03    -17.4872E+06    -94.2892E+06    -10.4812E+06    -4.60837E+06    -27.1367E-03     54.1017E-03    -26.9650E-03     31.9382E-03    -27.0768E-03     53.6754E-03    -26.8553E-03     31.8591E-03
             716     6.13311E-03     80.5720E-03    -15.7294E+06    -88.8114E+06    -8.14219E+06    -5.22358E+06    -27.2094E-03     54.1670E-03    -26.9576E-03     37.5110E-03    -27.1546E-03     53.7647E-03    -26.8467E-03     37.4181E-03
             717     7.00934E-03     80.6103E-03    -14.0134E+06    -86.1065E+06    -6.25779E+06    -5.75317E+06    -27.3096E-03     54.2612E-03    -26.9516E-03     43.1287E-03    -27.2566E-03     53.8709E-03    -26.8377E-03     43.0216E-03
             718     7.88557E-03     80.6539E-03    -12.3149E+06    -82.1274E+06    -5.28792E+06    -6.07888E+06    -27.4220E-03     54.3611E-03    -26.9391E-03     48.7820E-03    -27.3731E-03     53.9922E-03    -26.8286E-03     48.6612E-03
             719     8.76185E-03     80.7028E-03    -10.6745E+06    -78.9591E+06     -4.4178E+06    -6.26945E+06    -27.5583E-03     54.4859E-03    -26.9276E-03     54.4518E-03    -27.5149E-03     54.1371E-03    -26.8197E-03     54.3162E-03
             720     9.63807E-03     80.7572E-03    -9.28666E+06    -76.9204E+06    -6.04286E+06    -6.21102E+06    -27.7179E-03     54.6243E-03    -26.9064E-03     60.1013E-03    -27.6798E-03     54.2977E-03    -26.8116E-03     59.9510E-03
             721     10.5144E-03     80.8169E-03    -8.32789E+06     -72.511E+06    -10.1037E+06    -5.87831E+06    -27.8824E-03     54.7537E-03    -26.8712E-03     65.6080E-03    -27.8575E-03     54.4710E-03    -26.8045E-03     65.4422E-03
             722     11.3906E-03     80.8818E-03    -7.77329E+06    -59.4843E+06    -9.99728E+06    -5.35642E+06    -28.0810E-03     54.9266E-03    -26.8456E-03     72.4590E-03    -28.1009E-03     54.7367E-03    -26.7981E-03     72.2741E-03
             723     12.2670E-03     80.9545E-03    -7.29917E+06    -43.6170E+06    -9.25171E+06    -4.51730E+06    -28.2400E-03     55.0582E-03    -26.8181E-03     79.2784E-03    -28.3223E-03     54.9865E-03    -26.7906E-03     79.0761E-03
             724     13.1433E-03     81.0324E-03    -7.09813E+06    -34.1273E+06    -16.6391E+06    -3.40246E+06    -28.1598E-03     54.9185E-03    -26.7587E-03     78.8634E-03    -28.2971E-03     54.9577E-03    -26.7822E-03     78.6436E-03
             725     14.0195E-03     81.1044E-03    -7.74670E+06    -17.2845E+06    -30.1122E+06    -1.84704E+06    -28.8909E-03     55.5539E-03    -26.6630E-03     95.2401E-03    -29.2361E-03     55.8976E-03    -26.7773E-03     94.9829E-03
             726     14.8953E-03     81.2137E-03    -9.03904E+06     40.6595E+06    -37.4528E+06    -115.199E+03    -35.1028E-03     61.6423E-03    -26.5395E-03     183.951E-03    -36.9129E-03     63.6733E-03    -26.7726E-03     183.667E-03
             727     15.7722E-03     81.4565E-03    -8.97671E+06     133.329E+06     10.9276E+06     624.321E+03    -44.9865E-03     71.6126E-03    -26.6261E-03     318.434E-03    -54.9853E-03     82.0211E-03    -26.7518E-03     319.946E-03
             728     16.6511E-03     81.8353E-03    -5.49842E+06     192.487E+06     89.7780E+06     315.762E+03    -42.2108E-03     69.1018E-03    -26.8910E-03     334.229E-03    -58.2479E-03     85.5424E-03    -26.7133E-03     343.345E-03
             729     876.127E-06     81.4516E-03    -23.9182E+06    -102.204E+06    -23.6488E+06    -1.04589E+06    -26.9678E-03     53.9149E-03    -26.9470E-03     5.73409E-03    -26.9050E-03     53.4730E-03    -26.8824E-03     5.71792E-03
             730     1.75224E-03     81.4592E-03    -23.2381E+06    -101.145E+06    -22.2598E+06    -1.94846E+06    -26.9708E-03     53.9263E-03    -26.9555E-03     10.6121E-03    -26.9085E-03     53.4869E-03    -26.8864E-03     10.5819E-03
             731     2.62839E-03     81.4717E-03    -22.2319E+06    -97.8816E+06    -20.3339E+06    -2.91996E+06    -26.9879E-03     53.9412E-03    -26.9533E-03     15.8034E-03    -26.9286E-03     53.5145E-03    -26.8808E-03     15.7579E-03
             732     3.50454E-03     81.4892E-03    -21.0236E+06    -93.8183E+06    -17.7602E+06    -3.89956E+06    -27.0165E-03     53.9679E-03    -26.9514E-03     21.1050E-03    -26.9615E-03     53.5567E-03    -26.8737E-03     21.0436E-03
             733     4.38072E-03     81.5117E-03    -19.5661E+06    -94.9506E+06    -13.8980E+06    -4.72223E+06    -27.0738E-03     54.0367E-03    -26.9629E-03     26.4609E-03    -27.0167E-03     53.6134E-03    -26.8663E-03     26.3851E-03
             734     5.25688E-03     81.5394E-03    -17.8249E+06    -92.7547E+06    -10.8407E+06    -5.39555E+06    -27.1371E-03     54.1020E-03    -26.9649E-03     31.9289E-03    -27.0807E-03     53.6845E-03    -26.8588E-03     31.8397E-03
             735     6.13310E-03     81.5723E-03    -15.9851E+06    -87.1476E+06    -8.57903E+06    -6.00899E+06    -27.2086E-03     54.1654E-03    -26.9568E-03     37.5030E-03    -27.1569E-03     53.7725E-03    -26.8502E-03     37.4000E-03
             736     7.00931E-03     81.6105E-03    -14.2163E+06    -84.7137E+06    -6.69346E+06    -6.64812E+06    -27.3074E-03     54.2583E-03    -26.9509E-03     43.1195E-03    -27.2568E-03     53.8759E-03    -26.8409E-03     43.0007E-03
             737     7.88556E-03     81.6541E-03    -12.5125E+06    -80.9812E+06    -5.85068E+06    -7.11951E+06    -27.4221E-03     54.3600E-03    -26.9380E-03     48.7778E-03    -27.3750E-03     53.9980E-03    -26.8316E-03     48.6435E-03
             738     8.76178E-03     81.7031E-03    -10.9361E+06    -78.1152E+06    -4.99884E+06    -7.35697E+06    -27.5570E-03     54.4838E-03    -26.9267E-03     54.4624E-03    -27.5154E-03     54.1404E-03    -26.8226E-03     54.3128E-03
             739     9.63809E-03     81.7575E-03    -9.53929E+06    -76.4994E+06    -6.66095E+06    -7.32561E+06    -27.7188E-03     54.6246E-03    -26.9058E-03     60.1171E-03    -27.6817E-03     54.3014E-03    -26.8144E-03     59.9525E-03
             740     10.5143E-03     81.8171E-03    -8.51667E+06    -72.6100E+06    -10.8788E+06    -6.93132E+06    -27.8885E-03     54.7590E-03    -26.8705E-03     65.6441E-03    -27.8633E-03     54.4773E-03    -26.8073E-03     65.4647E-03
             741     11.3906E-03     81.8820E-03    -7.78184E+06    -59.9651E+06    -10.6536E+06    -6.15542E+06    -28.0488E-03     54.8933E-03    -26.8444E-03     72.5379E-03    -28.0670E-03     54.7018E-03    -26.7995E-03     72.3430E-03
             742     12.2668E-03     81.9548E-03    -7.23977E+06    -44.4461E+06    -9.95789E+06    -5.21557E+06    -28.2553E-03     55.0712E-03    -26.8159E-03     79.4315E-03    -28.3351E-03     54.9964E-03    -26.7907E-03     79.2202E-03
             743     13.1431E-03     82.0325E-03    -7.13424E+06    -35.3387E+06    -17.5526E+06    -3.98256E+06    -28.2519E-03     55.0109E-03    -26.7590E-03     79.0928E-03    -28.3871E-03     55.0462E-03    -26.7852E-03     78.8648E-03
             744     14.0193E-03     82.1048E-03    -7.60239E+06    -19.4776E+06    -30.9550E+06    -2.13124E+06    -28.7860E-03     55.4495E-03    -26.6635E-03     95.4984E-03    -29.1261E-03     55.7832E-03    -26.7790E-03     95.2391E-03
             745     14.8961E-03     82.2138E-03    -8.62838E+06     38.8023E+06    -38.5332E+06    -400.674E+03    -34.9526E-03     61.4815E-03    -26.5289E-03     184.223E-03    -36.7567E-03     63.5044E-03    -26.7653E-03     183.938E-03
             746     15.7726E-03     82.4568E-03    -8.63644E+06     133.338E+06     9.82474E+06     243.494E+03    -45.0370E-03     71.6483E-03    -26.6113E-03     317.933E-03    -54.9940E-03     82.0195E-03    -26.7430E-03     319.438E-03
             747     16.6481E-03     82.8333E-03    -5.42299E+06     192.799E+06     89.2433E+06     125.361E+03    -42.1706E-03     69.0547E-03    -26.8842E-03     333.587E-03    -58.1712E-03     85.4617E-03    -26.7096E-03     342.705E-03
             748     876.112E-06     82.4519E-03    -24.0320E+06    -99.7289E+06    -23.8881E+06    -1.37291E+06    -26.9603E-03     53.9117E-03    -26.9514E-03     5.72910E-03    -26.9013E-03     53.4827E-03    -26.8914E-03     5.70870E-03
             749     1.75225E-03     82.4596E-03    -23.3370E+06    -98.7883E+06    -22.4638E+06    -2.39617E+06    -26.9713E-03     53.9254E-03    -26.9541E-03     10.6086E-03    -26.9125E-03     53.4982E-03    -26.8893E-03     10.5726E-03
             750     2.62837E-03     82.4720E-03    -22.4005E+06    -95.5133E+06    -20.5454E+06    -3.43883E+06    -26.9891E-03     53.9417E-03    -26.9526E-03     15.7979E-03    -26.9337E-03     53.5273E-03    -26.8843E-03     15.7456E-03
             751     3.50453E-03     82.4895E-03    -21.2468E+06    -91.5483E+06    -18.0106E+06    -4.44144E+06    -27.0166E-03     53.9677E-03    -26.9511E-03     21.0979E-03    -26.9657E-03     53.5686E-03    -26.8776E-03     21.0295E-03
             752     4.38069E-03     82.5121E-03    -19.7673E+06    -92.9526E+06    -14.2037E+06    -5.32780E+06    -27.0737E-03     54.0363E-03    -26.9626E-03     26.4541E-03    -27.0200E-03     53.6237E-03    -26.8702E-03     26.3704E-03
             753     5.25687E-03     82.5397E-03    -18.0720E+06    -90.8831E+06    -11.1774E+06    -6.11734E+06    -27.1370E-03     54.1017E-03    -26.9647E-03     31.9228E-03    -27.0840E-03     53.6944E-03    -26.8626E-03     31.8242E-03
             754     6.13306E-03     82.5726E-03    -16.2811E+06    -85.3167E+06    -9.05413E+06    -6.92955E+06    -27.2055E-03     54.1614E-03    -26.9559E-03     37.4997E-03    -27.1573E-03     53.7787E-03    -26.8538E-03     37.3848E-03
             755     7.00930E-03     82.6108E-03    -14.4225E+06    -83.0298E+06    -7.13843E+06    -7.63000E+06    -27.3029E-03     54.2526E-03    -26.9497E-03     43.1194E-03    -27.2552E-03     53.8796E-03    -26.8441E-03     42.9880E-03
             756     7.88552E-03     82.6544E-03    -12.7273E+06    -79.6643E+06    -6.35947E+06    -8.14460E+06    -27.4171E-03     54.3535E-03    -26.9364E-03     48.7865E-03    -27.3723E-03     53.9991E-03    -26.8342E-03     48.6390E-03
             757     8.76180E-03     82.7034E-03    -11.1724E+06    -77.0574E+06    -5.56611E+06    -8.44856E+06    -27.5468E-03     54.4712E-03    -26.9245E-03     54.4775E-03    -27.5070E-03     54.1344E-03    -26.8244E-03     54.3139E-03
             758     9.63803E-03     82.7577E-03    -9.77978E+06    -75.9282E+06    -7.25452E+06    -8.50924E+06    -27.7025E-03     54.6053E-03    -26.9029E-03     60.1540E-03    -27.6665E-03     54.2861E-03    -26.8149E-03     59.9742E-03
             759     10.5143E-03     82.8174E-03    -8.71958E+06    -72.6720E+06    -11.6889E+06    -8.11686E+06    -27.8664E-03     54.7321E-03    -26.8657E-03     65.7138E-03    -27.8409E-03     54.4515E-03    -26.8061E-03     65.5193E-03
             760     11.3906E-03     82.8822E-03    -7.87935E+06    -60.6357E+06    -11.5830E+06    -7.31167E+06    -28.0262E-03     54.8641E-03    -26.8379E-03     72.5396E-03    -28.0424E-03     54.6707E-03    -26.7965E-03     72.3299E-03
             761     12.2672E-03     82.9549E-03    -7.06579E+06    -45.2203E+06    -10.5965E+06    -6.14910E+06    -28.2426E-03     55.0518E-03    -26.8093E-03     79.5320E-03    -28.3194E-03     54.9738E-03    -26.7864E-03     79.3088E-03
             762     13.1433E-03     83.0331E-03    -6.62971E+06    -37.0015E+06    -18.1653E+06    -4.60787E+06    -28.1453E-03     54.8944E-03    -26.7491E-03     79.1910E-03    -28.2742E-03     54.9211E-03    -26.7767E-03     78.9560E-03
             763     14.0196E-03     83.1048E-03    -7.21092E+06    -21.9815E+06    -32.0834E+06    -2.64590E+06    -28.7470E-03     55.3946E-03    -26.6476E-03     95.5630E-03    -29.0797E-03     55.7168E-03    -26.7657E-03     95.2975E-03
             764     14.8960E-03     83.2136E-03    -8.68256E+06     37.4202E+06    -39.9645E+06    -841.478E+03    -35.0572E-03     61.5701E-03    -26.5128E-03     184.223E-03    -36.8563E-03     63.5871E-03    -26.7543E-03     183.932E-03
             765     15.7724E-03     83.4576E-03    -8.93620E+06     133.263E+06     8.17305E+06    -99.2261E+03    -45.1331E-03     71.7309E-03    -26.5978E-03     318.176E-03    -55.1080E-03     82.1235E-03    -26.7372E-03     319.657E-03
             766     16.6497E-03     83.8345E-03    -5.82606E+06     192.815E+06     88.0693E+06    -168.987E+03    -42.2622E-03     69.1375E-03    -26.8752E-03     334.155E-03    -58.2905E-03     85.5741E-03    -26.7060E-03     343.248E-03
             767     876.122E-06     83.4523E-03    -24.0740E+06    -96.7112E+06    -23.7718E+06    -1.61487E+06    -26.9576E-03     53.9102E-03    -26.9526E-03     5.73025E-03    -26.9034E-03     53.4962E-03    -26.8963E-03     5.70671E-03
             768     1.75223E-03     83.4599E-03    -23.4048E+06    -95.9307E+06    -22.5159E+06    -2.88975E+06    -26.9725E-03     53.9263E-03    -26.9537E-03     10.6065E-03    -26.9182E-03     53.5136E-03    -26.8933E-03     10.5641E-03
             769     2.62837E-03     83.4724E-03    -22.3567E+06    -92.9508E+06    -20.6542E+06    -4.01770E+06    -26.9893E-03     53.9419E-03    -26.9526E-03     15.7929E-03    -26.9373E-03     53.5404E-03    -26.8886E-03     15.7332E-03
             770     3.50451E-03     83.4899E-03    -21.1983E+06    -89.1756E+06    -18.1551E+06    -4.93228E+06    -27.0162E-03     53.9670E-03    -26.9508E-03     21.0935E-03    -26.9683E-03     53.5799E-03    -26.8816E-03     21.0187E-03
             771     4.38068E-03     83.5124E-03    -19.9048E+06    -90.6870E+06    -14.3952E+06    -5.84456E+06    -27.0721E-03     54.0344E-03    -26.9623E-03     26.4503E-03    -27.0222E-03     53.6336E-03    -26.8739E-03     26.3599E-03
             772     5.25684E-03     83.5400E-03    -18.2178E+06    -88.6030E+06    -11.4150E+06    -6.88487E+06    -27.1329E-03     54.0966E-03    -26.9637E-03     31.9219E-03    -27.0836E-03     53.7012E-03    -26.8659E-03     31.8134E-03
             773     6.13305E-03     83.5729E-03    -16.3357E+06    -83.1548E+06    -9.32140E+06    -7.88549E+06    -27.1994E-03     54.1534E-03    -26.9540E-03     37.5004E-03    -27.1541E-03     53.7820E-03    -26.8564E-03     37.3732E-03
             774     7.00927E-03     83.6111E-03    -14.5565E+06    -81.2403E+06    -7.49419E+06    -8.64492E+06    -27.2941E-03     54.2413E-03    -26.9472E-03     43.1283E-03    -27.2491E-03     53.8780E-03    -26.8458E-03     42.9838E-03
             775     7.88553E-03     83.6547E-03    -12.8497E+06    -78.0667E+06    -6.74120E+06    -9.20744E+06    -27.4045E-03     54.3375E-03    -26.9329E-03     48.8017E-03    -27.3620E-03     53.9918E-03    -26.8348E-03     48.6405E-03
             776     8.76177E-03     83.7035E-03    -11.2396E+06    -75.8508E+06    -6.04585E+06    -9.60502E+06    -27.5281E-03     54.4477E-03    -26.9196E-03     54.4979E-03    -27.4896E-03     54.1176E-03    -26.8235E-03     54.3195E-03
             777     9.63809E-03     83.7579E-03    -9.83358E+06    -75.1313E+06    -7.74188E+06    -9.69635E+06    -27.6734E-03     54.5699E-03    -26.8965E-03     60.1838E-03    -27.6381E-03     54.2554E-03    -26.8120E-03     59.9888E-03
             778     10.5144E-03     83.8175E-03    -8.79146E+06    -72.6218E+06    -12.3295E+06    -9.40523E+06    -27.8367E-03     54.6942E-03    -26.8574E-03     65.7410E-03    -27.8106E-03     54.4148E-03    -26.8010E-03     65.5300E-03
             779     11.3908E-03     83.8824E-03    -7.87662E+06    -61.0289E+06    -12.3927E+06    -8.69449E+06    -28.0471E-03     54.8763E-03    -26.8292E-03     72.5798E-03    -28.0617E-03     54.6822E-03    -26.7913E-03     72.3521E-03
             780     12.2668E-03     83.9550E-03    -6.93738E+06    -46.6341E+06    -11.6291E+06    -7.47078E+06    -28.1514E-03     54.9498E-03    -26.7984E-03     79.5930E-03    -28.2237E-03     54.8657E-03    -26.7789E-03     79.3536E-03
             781     13.1433E-03     84.0333E-03    -6.24477E+06    -39.2801E+06    -19.3305E+06    -5.52806E+06    -28.0413E-03     54.7733E-03    -26.7321E-03     79.2053E-03    -28.1625E-03     54.7890E-03    -26.7627E-03     78.9595E-03
             782     14.0202E-03     84.1044E-03    -7.04894E+06    -23.8449E+06    -32.9629E+06    -3.21906E+06    -28.9231E-03     55.5573E-03    -26.6342E-03     95.5387E-03    -29.2525E-03     55.8727E-03    -26.7543E-03     95.2637E-03
             783     14.8961E-03     84.2148E-03    -8.54511E+06     35.7532E+06    -41.7999E+06    -1.25616E+06    -35.0485E-03     61.5493E-03    -26.5008E-03     184.002E-03    -36.8374E-03     63.5560E-03    -26.7492E-03     183.707E-03
             784     15.7726E-03     84.4568E-03    -8.30979E+06     132.735E+06     5.23547E+06    -373.653E+03    -44.8908E-03     71.4622E-03    -26.5714E-03     318.273E-03    -54.8766E-03     81.8745E-03    -26.7256E-03     319.772E-03
             785     16.6497E-03     84.8348E-03    -5.50668E+06     192.899E+06     86.5668E+06    -117.216E+03    -42.3693E-03     69.2210E-03    -26.8517E-03     334.027E-03    -58.3829E-03     85.6488E-03    -26.6906E-03     343.086E-03
             786     876.112E-06     84.4527E-03    -23.5268E+06    -93.3816E+06    -23.2045E+06    -1.60484E+06    -26.9593E-03     53.9104E-03    -26.9511E-03     5.73892E-03    -26.9080E-03     53.5115E-03    -26.8976E-03     5.71550E-03
             787     1.75223E-03     84.4603E-03    -23.0705E+06    -92.4664E+06    -22.0360E+06    -3.20394E+06    -26.9733E-03     53.9273E-03    -26.9540E-03     10.6047E-03    -26.9231E-03     53.5308E-03    -26.8966E-03     10.5582E-03
             788     2.62835E-03     84.4728E-03    -22.2853E+06    -90.1706E+06    -20.5389E+06    -4.54796E+06    -26.9876E-03     53.9401E-03    -26.9525E-03     15.7907E-03    -26.9394E-03     53.5523E-03    -26.8922E-03     15.7241E-03
             789     3.50451E-03     84.4902E-03    -21.2780E+06    -86.8526E+06    -18.2343E+06    -5.36269E+06    -27.0136E-03     53.9639E-03    -26.9503E-03     21.0903E-03    -26.9694E-03     53.5886E-03    -26.8846E-03     21.0101E-03
             790     4.38066E-03     84.5127E-03    -19.8454E+06    -87.9853E+06    -14.3686E+06    -6.39414E+06    -27.0673E-03     54.0282E-03    -26.9609E-03     26.4494E-03    -27.0210E-03     53.6408E-03    -26.8764E-03     26.3520E-03
             791     5.25684E-03     84.5404E-03    -18.0234E+06    -85.8210E+06    -11.3590E+06    -7.77301E+06    -27.1245E-03     54.0858E-03    -26.9613E-03     31.9231E-03    -27.0784E-03     53.7039E-03    -26.8675E-03     31.8031E-03
             792     6.13305E-03     84.5732E-03    -16.1314E+06    -80.8359E+06    -9.35023E+06    -8.87567E+06    -27.1887E-03     54.1393E-03    -26.9507E-03     37.5050E-03    -27.1457E-03     53.7792E-03    -26.8568E-03     37.3650E-03
             793     7.00928E-03     84.6114E-03    -14.3107E+06    -79.2337E+06    -7.55251E+06    -9.63357E+06    -27.2800E-03     54.2227E-03    -26.9427E-03     43.1372E-03    -27.2365E-03     53.8691E-03    -26.8448E-03     42.9800E-03
             794     7.88553E-03     84.6549E-03    -12.6400E+06    -76.2215E+06    -6.86269E+06    -10.3105E+06    -27.3840E-03     54.3108E-03    -26.9268E-03     48.8215E-03    -27.3430E-03     53.9742E-03    -26.8322E-03     48.6461E-03
             795     8.76183E-03     84.7038E-03    -11.0662E+06    -74.4157E+06    -6.22672E+06    -10.7916E+06    -27.5067E-03     54.4188E-03    -26.9120E-03     54.5145E-03    -27.4692E-03     54.0958E-03    -26.8192E-03     54.3209E-03
             796     9.63813E-03     84.7580E-03    -9.69935E+06    -74.2787E+06    -8.01732E+06    -10.8916E+06    -27.6531E-03     54.5411E-03    -26.8880E-03     60.1879E-03    -27.6179E-03     54.2310E-03    -26.8063E-03     59.9776E-03
             797     10.5145E-03     84.8178E-03    -8.68675E+06    -72.1518E+06    -12.5909E+06    -10.7022E+06    -27.8202E-03     54.6687E-03    -26.8485E-03     65.7616E-03    -27.7938E-03     54.3919E-03    -26.7942E-03     65.5340E-03
             798     11.3907E-03     84.8825E-03    -7.88435E+06    -61.3466E+06    -12.9593E+06    -10.1478E+06    -27.9955E-03     54.8133E-03    -26.8178E-03     72.6845E-03    -28.0086E-03     54.6183E-03    -26.7822E-03     72.4386E-03
             799     12.2673E-03     84.9554E-03    -6.99941E+06    -47.5745E+06    -12.3080E+06    -9.06739E+06    -28.1314E-03     54.9169E-03    -26.7855E-03     79.4464E-03    -28.2015E-03     54.8289E-03    -26.7679E-03     79.1865E-03
             800     13.1441E-03     85.0326E-03    -6.24737E+06    -41.7115E+06    -20.2203E+06    -7.13277E+06    -28.2047E-03     54.9303E-03    -26.7256E-03     79.1505E-03    -28.3219E-03     54.9359E-03    -26.7572E-03     78.8825E-03
             801     14.0196E-03     85.1058E-03    -5.82999E+06    -27.2055E+06    -33.7032E+06    -4.00480E+06    -28.9310E-03     55.5647E-03    -26.6337E-03     95.5362E-03    -29.2477E-03     55.8619E-03    -26.7544E-03     95.2516E-03
             802     14.8959E-03     85.2143E-03    -6.42540E+06     33.9222E+06    -43.1226E+06    -1.44349E+06    -34.9070E-03     61.3970E-03    -26.4900E-03     183.698E-03    -36.6758E-03     63.3885E-03    -26.7455E-03     183.402E-03
             803     15.7732E-03     85.4568E-03    -7.39507E+06     132.003E+06     2.58044E+06    -243.470E+03    -45.0717E-03     71.6272E-03    -26.5555E-03     318.091E-03    -55.0373E-03     82.0278E-03    -26.7233E-03     319.570E-03
             804     16.6497E-03     85.8354E-03    -5.24690E+06     192.964E+06     85.4495E+06     308.593E+03    -42.3260E-03     69.1736E-03    -26.8476E-03     333.871E-03    -58.3298E-03     85.5960E-03    -26.6926E-03     342.956E-03
             805     876.118E-06     85.4531E-03    -22.5594E+06    -89.9603E+06    -22.3225E+06    -1.68851E+06    -26.9560E-03     53.9110E-03    -26.9550E-03     5.74455E-03    -26.9061E-03     53.5265E-03    -26.9034E-03     5.72006E-03
             806     1.75222E-03     85.4607E-03    -22.0126E+06    -88.5784E+06    -20.8777E+06    -3.30787E+06    -26.9702E-03     53.9242E-03    -26.9539E-03     10.6014E-03    -26.9220E-03     53.5439E-03    -26.8980E-03     10.5536E-03
             807     2.62836E-03     85.4732E-03    -21.2915E+06    -87.2384E+06    -18.8761E+06    -4.71254E+06    -26.9895E-03     53.9458E-03    -26.9563E-03     15.7818E-03    -26.9430E-03     53.5688E-03    -26.8933E-03     15.7131E-03
             808     3.50449E-03     85.4906E-03    -20.3413E+06    -84.3662E+06    -17.0104E+06    -5.67814E+06    -27.0128E-03     53.9656E-03    -26.9528E-03     21.0815E-03    -26.9692E-03     53.5996E-03    -26.8861E-03     20.9971E-03
             809     4.38066E-03     85.5131E-03    -18.9854E+06    -84.6915E+06    -13.9157E+06    -7.07484E+06    -27.0577E-03     54.0152E-03    -26.9575E-03     26.4503E-03    -27.0126E-03     53.6424E-03    -26.8767E-03     26.3441E-03
             810     5.25684E-03     85.5407E-03    -17.2873E+06    -82.7348E+06    -10.9561E+06    -8.61021E+06    -27.1115E-03     54.0679E-03    -26.9564E-03     31.9270E-03    -27.0667E-03     53.6998E-03    -26.8661E-03     31.7962E-03
             811     6.13306E-03     85.5735E-03    -15.5721E+06    -78.2937E+06    -9.01153E+06    -9.78425E+06    -27.1723E-03     54.1172E-03    -26.9448E-03     37.5125E-03    -27.1308E-03     53.7685E-03    -26.8538E-03     37.3608E-03
             812     7.00931E-03     85.6116E-03    -13.8566E+06    -77.0001E+06    -7.39200E+06    -10.6794E+06    -27.2593E-03     54.1941E-03    -26.9348E-03     43.1513E-03    -27.2170E-03     53.8507E-03    -26.8400E-03     42.9807E-03
             813     7.88559E-03     85.6551E-03    -12.1772E+06    -74.1562E+06    -6.68388E+06    -11.3877E+06    -27.3602E-03     54.2775E-03    -26.9174E-03     48.8375E-03    -27.3200E-03     53.9503E-03    -26.8256E-03     48.6483E-03
             814     8.76189E-03     85.7040E-03    -10.7305E+06    -72.8467E+06    -6.06261E+06    -11.8534E+06    -27.4841E-03     54.3860E-03    -26.9019E-03     54.5374E-03    -27.4474E-03     54.0701E-03    -26.8110E-03     54.3302E-03
             815     9.63822E-03     85.7583E-03    -9.52430E+06    -73.1862E+06    -7.99036E+06    -12.0191E+06    -27.6453E-03     54.5227E-03    -26.8774E-03     60.2175E-03    -27.6108E-03     54.2177E-03    -26.7974E-03     59.9927E-03
             816     10.5145E-03     85.8178E-03    -8.68948E+06    -71.5331E+06    -12.7064E+06    -11.8847E+06    -27.8038E-03     54.6417E-03    -26.8379E-03     65.7861E-03    -27.7781E-03     54.3681E-03    -26.7851E-03     65.5433E-03
             817     11.3909E-03     85.8828E-03    -8.06773E+06    -61.2048E+06    -13.1575E+06    -11.4963E+06    -27.9670E-03     54.7739E-03    -26.8069E-03     72.6141E-03    -27.9807E-03     54.5799E-03    -26.7723E-03     72.3511E-03
             818     12.2674E-03     85.9551E-03    -7.20241E+06    -48.2538E+06    -12.6004E+06    -10.5978E+06    -28.2606E-03     55.0403E-03    -26.7797E-03     79.3935E-03    -28.3306E-03     54.9500E-03    -26.7623E-03     79.1129E-03
             819     13.1430E-03     86.0333E-03    -6.94990E+06    -43.5717E+06    -20.8191E+06    -8.84127E+06    -28.2630E-03     54.9904E-03    -26.7274E-03     79.3354E-03    -28.3805E-03     54.9889E-03    -26.7582E-03     79.0450E-03
             820     14.0198E-03     86.1057E-03    -6.84713E+06    -31.8680E+06    -35.2886E+06    -5.81897E+06    -28.7790E-03     55.4108E-03    -26.6319E-03     95.6342E-03    -29.0898E-03     55.6865E-03    -26.7522E-03     95.3284E-03
             821     14.8967E-03     86.2143E-03    -7.56933E+06     30.7194E+06     -44.032E+06    -2.17955E+06    -34.9766E-03     61.4636E-03    -26.4869E-03     183.651E-03    -36.7480E-03     63.4448E-03    -26.7407E-03     183.342E-03
             822     15.7724E-03     86.4571E-03    -8.34353E+06     131.600E+06     1.27639E+06    -195.460E+03    -45.1955E-03     71.7458E-03    -26.5503E-03     318.442E-03    -55.1778E-03     82.1620E-03    -26.7226E-03     319.920E-03
             823     16.6489E-03     86.8353E-03    -5.48822E+06     192.667E+06     83.8365E+06     199.404E+03    -42.1257E-03     68.9604E-03    -26.8348E-03     334.212E-03    -58.1341E-03     85.3903E-03    -26.6870E-03     343.324E-03
             824     876.099E-06     86.4535E-03    -21.5171E+06    -86.2752E+06    -21.2299E+06    -1.88421E+06    -26.9537E-03     53.9095E-03    -26.9558E-03     5.74181E-03    -26.9055E-03     53.5403E-03    -26.9056E-03     5.71478E-03
             825     1.75223E-03     86.4611E-03    -20.9231E+06    -84.7636E+06    -19.6419E+06    -3.40419E+06    -26.9636E-03     53.9163E-03    -26.9527E-03     10.5999E-03    -26.9172E-03     53.5517E-03    -26.8977E-03     10.5508E-03
             826     2.62835E-03     86.4736E-03    -20.0374E+06    -84.1383E+06    -17.2330E+06    -4.74907E+06    -26.9861E-03     53.9427E-03    -26.9566E-03     15.7749E-03    -26.9402E-03     53.5770E-03    -26.8917E-03     15.7057E-03
             827     3.50449E-03     86.4910E-03    -18.9169E+06    -81.4920E+06    -15.5038E+06    -5.96745E+06    -27.0066E-03     53.9584E-03    -26.9518E-03     21.0763E-03    -26.9623E-03     53.6026E-03    -26.8837E-03     20.9882E-03
             828     4.38067E-03     86.5134E-03    -17.7787E+06    -81.0167E+06    -13.0911E+06    -7.48059E+06    -27.0427E-03     53.9933E-03    -26.9506E-03     26.4545E-03    -26.9980E-03     53.6358E-03    -26.8728E-03     26.3430E-03
             829     5.25687E-03     86.5410E-03    -16.4537E+06    -79.2722E+06    -10.3510E+06    -9.28162E+06    -27.0915E-03     54.0386E-03    -26.9471E-03     31.9360E-03    -27.0484E-03     53.6858E-03    -26.8601E-03     31.7967E-03
             830     6.13311E-03     86.5738E-03    -14.7340E+06    -75.4427E+06    -8.31718E+06    -10.7165E+06    -27.1496E-03     54.0845E-03    -26.9349E-03     37.5220E-03    -27.1090E-03     53.7479E-03    -26.8457E-03     37.3583E-03
             831     7.00938E-03     86.6119E-03    -13.0242E+06    -74.6049E+06    -6.84176E+06    -11.6239E+06    -27.2326E-03     54.1554E-03    -26.9228E-03     43.1672E-03    -27.1904E-03     53.8220E-03    -26.8300E-03     42.9845E-03
             832     7.88568E-03     86.6553E-03    -11.6812E+06    -72.0301E+06    -6.40419E+06    -12.2459E+06    -27.3321E-03     54.2351E-03    -26.9030E-03     48.8664E-03    -27.2929E-03     53.9173E-03    -26.8136E-03     48.6663E-03
             833     8.76200E-03     86.7042E-03    -10.4884E+06    -71.0727E+06    -5.82450E+06    -12.7473E+06    -27.4575E-03     54.3441E-03    -26.8867E-03     54.5774E-03    -27.4224E-03     54.0364E-03    -26.7975E-03     54.3587E-03
             834     9.63837E-03     86.7584E-03    -9.35254E+06    -71.8253E+06    -7.85459E+06    -13.0586E+06    -27.6279E-03     54.4895E-03    -26.8616E-03     60.2959E-03    -27.5947E-03     54.1909E-03    -26.7832E-03     60.0578E-03
             835     10.5147E-03     86.8181E-03    -8.48865E+06    -70.7222E+06    -12.8013E+06    -13.0320E+06    -27.8048E-03     54.6270E-03    -26.8221E-03     65.8287E-03    -27.7792E-03     54.3572E-03    -26.7713E-03     65.5712E-03
             836     11.3910E-03     86.8826E-03    -7.79282E+06    -60.7951E+06    -13.4111E+06    -12.6251E+06    -28.0072E-03     54.8004E-03    -26.7932E-03     72.7138E-03    -28.0199E-03     54.6085E-03    -26.7608E-03     72.4360E-03
             837     12.2672E-03     86.9556E-03    -7.17994E+06    -49.0784E+06    -13.3363E+06    -11.8191E+06    -28.2524E-03     55.0193E-03    -26.7669E-03     79.8253E-03    -28.3202E-03     54.9261E-03    -26.7520E-03     79.5292E-03
             838     13.1439E-03     87.0336E-03    -6.94186E+06    -45.3870E+06    -21.8696E+06    -10.0023E+06    -28.1999E-03     54.9116E-03    -26.7117E-03     79.5700E-03    -28.3128E-03     54.9021E-03    -26.7451E-03     79.2656E-03
             839     14.0201E-03     87.1055E-03    -7.74069E+06    -35.3986E+06    -37.2297E+06    -7.22053E+06    -28.8634E-03     55.4795E-03    -26.6162E-03     95.6983E-03    -29.1719E-03     55.7429E-03    -26.7398E-03     95.3733E-03
             840     14.8959E-03     87.2147E-03    -8.70794E+06     26.4684E+06    -47.7682E+06    -3.85603E+06    -35.1028E-03     61.5727E-03    -26.4699E-03     183.839E-03    -36.8712E-03     63.5427E-03    -26.7345E-03     183.507E-03
             841     15.7731E-03     87.4572E-03    -7.93927E+06     129.868E+06    -2.51071E+06    -608.072E+03    -44.7962E-03     71.3160E-03    -26.5198E-03     318.463E-03    -54.7638E-03     81.7237E-03    -26.7091E-03     319.981E-03
             842     16.6508E-03     87.8360E-03    -5.12436E+06     192.690E+06     82.3048E+06     529.221E+03    -41.9989E-03     68.7972E-03    -26.7983E-03     334.709E-03    -58.0238E-03     85.2493E-03    -26.6587E-03     343.833E-03
             843     876.116E-06     87.4539E-03    -20.4148E+06    -82.2746E+06    -20.0968E+06    -1.99468E+06    -26.9478E-03     53.8968E-03    -26.9490E-03     5.73048E-03    -26.9015E-03     53.5443E-03    -26.9006E-03     5.70203E-03
             844     1.75223E-03     87.4615E-03    -19.9154E+06    -81.0944E+06    -18.8499E+06    -3.50805E+06    -26.9548E-03     53.8995E-03    -26.9448E-03     10.6059E-03    -26.9098E-03     53.5507E-03    -26.8926E-03     10.5555E-03
             845     2.62837E-03     87.4740E-03    -18.9843E+06    -80.6826E+06    -16.6585E+06    -5.02273E+06    -26.9711E-03     53.9171E-03    -26.9460E-03     15.7802E-03    -26.9258E-03     53.5663E-03    -26.8848E-03     15.7074E-03
             846     3.50453E-03     87.4913E-03    -17.6627E+06    -78.2795E+06    -14.2794E+06    -6.46726E+06    -26.9900E-03     53.9323E-03    -26.9423E-03     21.0782E-03    -26.9458E-03     53.5889E-03    -26.8746E-03     20.9837E-03
             847     4.38072E-03     87.5138E-03    -16.2307E+06    -77.5014E+06    -11.5473E+06    -7.80913E+06    -27.0226E-03     53.9626E-03    -26.9400E-03     26.4588E-03    -26.9776E-03     53.6183E-03    -26.8618E-03     26.3431E-03
             848     5.25694E-03     87.5413E-03    -14.9546E+06    -75.1978E+06    -9.05783E+06    -9.61428E+06    -27.0645E-03     53.9970E-03    -26.9324E-03     31.9497E-03    -27.0218E-03     53.6604E-03    -26.8470E-03     31.8061E-03
             849     6.13319E-03     87.5741E-03    -13.7569E+06    -72.2352E+06    -7.30267E+06    -11.4136E+06    -27.1173E-03     54.0359E-03    -26.9185E-03     37.5401E-03    -27.0779E-03     53.7124E-03    -26.8304E-03     37.3675E-03
             850     7.00949E-03     87.6121E-03    -12.4522E+06    -72.2175E+06    -6.16681E+06    -12.3602E+06    -27.1964E-03     54.1007E-03    -26.9043E-03     43.1980E-03    -27.1558E-03     53.7774E-03    -26.8124E-03     43.0059E-03
             851     7.88583E-03     87.6555E-03    -11.1106E+06    -69.7984E+06    -5.87627E+06    -12.9566E+06    -27.2937E-03     54.1756E-03    -26.8819E-03     48.9157E-03    -27.2556E-03     53.8673E-03    -26.7939E-03     48.7066E-03
             852     8.76219E-03     87.7043E-03    -9.83851E+06    -69.0018E+06    -5.29286E+06    -13.5806E+06    -27.4246E-03     54.2886E-03    -26.8640E-03     54.6552E-03    -27.3900E-03     53.9895E-03    -26.7762E-03     54.4260E-03
             853     9.63854E-03     87.7585E-03    -8.76041E+06    -70.2417E+06    -7.39292E+06    -14.0194E+06    -27.5851E-03     54.4228E-03    -26.8377E-03     60.4076E-03    -27.5518E-03     54.1305E-03    -26.7601E-03     60.1574E-03
             854     10.5150E-03     87.8181E-03    -7.91804E+06    -69.5984E+06    -12.5291E+06    -14.1645E+06    -27.7795E-03     54.5760E-03    -26.7966E-03     66.0223E-03    -27.7528E-03     54.3106E-03    -26.7468E-03     65.7506E-03
             855     11.3912E-03     87.8829E-03    -7.30064E+06    -60.4825E+06    -13.4277E+06    -13.8513E+06    -28.0071E-03     54.7748E-03    -26.7677E-03     72.9807E-03    -28.0178E-03     54.5838E-03    -26.7365E-03     72.6873E-03
             856     12.2678E-03     87.9555E-03    -6.74127E+06    -49.4460E+06    -13.0982E+06    -12.9096E+06    -28.2078E-03     54.9510E-03    -26.7432E-03     79.9816E-03    -28.2731E-03     54.8549E-03    -26.7272E-03     79.6720E-03
             857     13.1439E-03     88.0337E-03    -6.19094E+06    -47.3415E+06    -21.8101E+06    -11.2909E+06    -28.2093E-03     54.8981E-03    -26.6888E-03     79.6151E-03    -28.3156E-03     54.8776E-03    -26.7202E-03     79.2942E-03
             858     14.0202E-03     88.1058E-03    -5.95245E+06    -38.3731E+06    -37.2043E+06    -8.69348E+06    -28.9828E-03     55.5804E-03    -26.5976E-03     95.9458E-03    -29.2800E-03     55.8281E-03    -26.7193E-03     95.6005E-03
             859     14.8969E-03     88.2149E-03    -6.81359E+06     22.2626E+06    -47.7761E+06    -5.00000E+06    -35.1621E-03     61.6196E-03    -26.4575E-03     184.126E-03    -36.9164E-03     63.5673E-03    -26.7188E-03     183.780E-03
             860     15.7726E-03     88.4575E-03    -7.63116E+06     125.937E+06    -4.85651E+06    -1.24978E+06    -44.7740E-03     71.2771E-03    -26.5031E-03     317.374E-03    -54.6765E-03     81.6137E-03    -26.6990E-03     318.880E-03
             861     16.6509E-03     88.8331E-03    -5.17195E+06     192.615E+06     80.8291E+06     707.856E+03    -41.8137E-03     68.5976E-03    -26.7839E-03     334.220E-03    -57.8311E-03     85.0461E-03    -26.6515E-03     343.376E-03
             862     876.120E-06     88.4544E-03    -19.2035E+06    -78.0589E+06    -19.0825E+06    -2.10273E+06    -26.9311E-03     53.8650E-03    -26.9339E-03     5.72918E-03    -26.8863E-03     53.5304E-03    -26.8883E-03     5.69935E-03
             863     1.75226E-03     88.4620E-03    -18.5695E+06    -77.1065E+06    -17.9397E+06    -3.87750E+06    -26.9387E-03     53.8661E-03    -26.9275E-03     10.6091E-03    -26.8941E-03     53.5340E-03    -26.8784E-03     10.5540E-03
             864     2.62841E-03     88.4743E-03    -17.4708E+06    -76.8352E+06    -15.5295E+06    -5.60086E+06    -26.9497E-03     53.8780E-03    -26.9283E-03     15.7867E-03    -26.9040E-03     53.5426E-03    -26.8692E-03     15.7065E-03
             865     3.50458E-03     88.4917E-03    -16.0562E+06    -74.7258E+06    -12.8578E+06    -7.18078E+06    -26.9643E-03     53.8886E-03    -26.9243E-03     21.0858E-03    -26.9193E-03     53.5586E-03    -26.8569E-03     20.9820E-03
             866     4.38080E-03     88.5141E-03    -14.3930E+06    -74.1761E+06    -9.90112E+06    -8.54711E+06    -26.9927E-03     53.9135E-03    -26.9207E-03     26.4699E-03    -26.9457E-03     53.5807E-03    -26.8418E-03     26.3448E-03
             867     5.25704E-03     88.5416E-03    -12.7314E+06    -71.1649E+06    -7.28695E+06    -9.99182E+06    -27.0263E-03     53.9359E-03    -26.9095E-03     31.9709E-03    -26.9808E-03     53.6137E-03    -26.8243E-03     31.8225E-03
             868     6.13336E-03     88.5743E-03    -11.6389E+06    -68.9101E+06    -5.12021E+06    -11.3707E+06    -27.0748E-03     53.9707E-03    -26.8959E-03     37.5594E-03    -27.0328E-03     53.6576E-03    -26.8047E-03     37.3875E-03
             869     7.00968E-03     88.6122E-03    -10.9804E+06    -69.5306E+06    -4.38255E+06    -12.5042E+06    -27.1480E-03     54.0268E-03    -26.8788E-03     43.2383E-03    -27.1065E-03     53.7121E-03    -26.7839E-03     43.0446E-03
             870     7.88606E-03     88.6556E-03    -10.0842E+06    -67.0958E+06    -4.89921E+06    -13.6425E+06    -27.2395E-03     54.0897E-03    -26.8502E-03     49.0010E-03    -27.2015E-03     53.7919E-03    -26.7628E-03     48.7834E-03
             871     8.76246E-03     88.7044E-03    -8.84146E+06    -66.8311E+06    -4.50806E+06    -14.4757E+06    -27.3642E-03     54.1935E-03    -26.8293E-03     54.7918E-03    -27.3287E-03     53.9024E-03    -26.7421E-03     54.5515E-03
             872     9.63890E-03     88.7586E-03    -7.68930E+06    -68.4190E+06    -6.50959E+06    -14.9094E+06    -27.5193E-03     54.3200E-03    -26.8007E-03     60.5685E-03    -27.4843E-03     54.0337E-03    -26.7229E-03     60.3075E-03
             873     10.5153E-03     88.8181E-03    -7.16562E+06    -68.4532E+06    -11.8824E+06    -14.9864E+06    -27.7089E-03     54.4655E-03    -26.7566E-03     66.2562E-03    -27.6808E-03     54.2035E-03    -26.7064E-03     65.9746E-03
             874     11.3919E-03     88.8830E-03    -7.01911E+06    -59.6760E+06    -13.0314E+06    -14.7927E+06    -27.9863E-03     54.7128E-03    -26.7264E-03     73.2671E-03    -27.9973E-03     54.5248E-03    -26.6949E-03     72.9620E-03
             875     12.2680E-03     88.9557E-03    -6.62865E+06    -49.7066E+06    -12.9253E+06    -14.1886E+06    -28.2422E-03     54.9475E-03    -26.7053E-03     80.2307E-03    -28.3068E-03     54.8496E-03    -26.6883E-03     79.9047E-03
             876     13.1445E-03     89.0338E-03    -5.90399E+06    -48.7216E+06    -21.7166E+06    -12.8678E+06    -28.2551E-03     54.9113E-03    -26.6562E-03     79.9972E-03    -28.3582E-03     54.8835E-03    -26.6856E-03     79.6561E-03
             877     14.0209E-03     89.1059E-03    -6.12797E+06    -41.6365E+06    -37.3210E+06    -10.4097E+06    -28.9968E-03     55.5671E-03    -26.5703E-03     96.2523E-03    -29.2892E-03     55.7981E-03    -26.6877E-03     95.8858E-03
             878     14.8966E-03     89.2154E-03    -7.59056E+06     17.2111E+06    -45.7787E+06    -5.93762E+06    -35.1203E-03     61.5644E-03    -26.4441E-03     184.359E-03    -36.8736E-03     63.4846E-03    -26.6870E-03     184.003E-03
             879     15.7738E-03     89.4574E-03    -8.16037E+06     122.099E+06    -5.20128E+06    -1.46645E+06    -45.2749E-03     71.7618E-03    -26.4869E-03     317.850E-03    -55.1894E-03     82.0958E-03    -26.6781E-03     319.296E-03
             880     16.6486E-03     89.8336E-03    -5.43147E+06     191.936E+06     78.3815E+06     428.787E+03    -41.8840E-03     68.6497E-03    -26.7656E-03     334.230E-03    -57.9059E-03     85.1063E-03    -26.6442E-03     343.407E-03
             881     876.144E-06     89.4548E-03    -17.5141E+06    -73.3412E+06    -17.5268E+06    -2.45246E+06    -26.9062E-03     53.8127E-03    -26.9065E-03     5.73604E-03    -26.8621E-03     53.4970E-03    -26.8624E-03     5.70171E-03
             882     1.75230E-03     89.4623E-03    -16.9328E+06    -72.6354E+06    -16.2946E+06    -4.39938E+06    -26.9104E-03     53.8116E-03    -26.9013E-03     10.6143E-03    -26.8665E-03     53.4971E-03    -26.8529E-03     10.5525E-03
             883     2.62847E-03     89.4747E-03    -15.9577E+06    -72.5082E+06    -14.2045E+06    -6.31371E+06    -26.9160E-03     53.8154E-03    -26.8994E-03     15.7986E-03    -26.8710E-03     53.4975E-03    -26.8422E-03     15.7093E-03
             884     3.50469E-03     89.4920E-03    -14.5686E+06    -70.8586E+06    -11.8515E+06    -8.03944E+06    -26.9241E-03     53.8161E-03    -26.8920E-03     21.1062E-03    -26.8787E-03     53.5019E-03    -26.8274E-03     20.9915E-03
             885     4.38093E-03     89.5144E-03    -12.9491E+06    -70.5861E+06     -8.7605E+06    -9.51857E+06    -26.9444E-03     53.8310E-03    -26.8866E-03     26.5002E-03    -26.8970E-03     53.5124E-03    -26.8093E-03     26.3626E-03
             886     5.25723E-03     89.5418E-03    -11.2280E+06    -67.6856E+06    -6.02437E+06    -10.7897E+06    -26.9686E-03     53.8411E-03    -26.8725E-03     32.0132E-03    -26.9224E-03     53.5322E-03    -26.7882E-03     31.8547E-03
             887     6.13358E-03     89.5744E-03    -9.59970E+06    -66.1459E+06    -3.34087E+06    -11.5144E+06    -27.0112E-03     53.8690E-03    -26.8578E-03     37.6107E-03    -26.9655E-03     53.5641E-03    -26.7647E-03     37.4372E-03
             888     7.00997E-03     89.6123E-03    -8.32980E+06    -66.3752E+06    -1.85906E+06    -12.3928E+06    -27.0771E-03     53.9160E-03    -26.8389E-03     43.3116E-03    -27.0304E-03     53.6095E-03    -26.7398E-03     43.1196E-03
             889     7.88643E-03     89.6556E-03    -7.56675E+06    -63.8413E+06    -2.75553E+06    -13.8128E+06    -27.1582E-03     53.9622E-03    -26.8040E-03     49.1285E-03    -27.1153E-03     53.6738E-03    -26.7143E-03     48.9092E-03
             890     8.76292E-03     89.7043E-03    -6.98051E+06    -64.3305E+06    -3.15494E+06    -15.0473E+06    -27.2719E-03     54.0485E-03    -26.7766E-03     54.9712E-03    -27.2325E-03     53.7651E-03    -26.6889E-03     54.7242E-03
             891     9.63944E-03     89.7585E-03    -6.37504E+06    -66.6503E+06    -5.47081E+06    -15.5612E+06    -27.4339E-03     54.1781E-03    -26.7442E-03     60.7938E-03    -27.3962E-03     53.8970E-03    -26.6657E-03     60.5251E-03
             892     10.5160E-03     89.8180E-03    -6.04627E+06    -67.2174E+06    -11.0606E+06    -15.5282E+06    -27.6464E-03     54.3442E-03    -26.6978E-03     66.5346E-03    -27.6155E-03     54.0853E-03    -26.6468E-03     66.2468E-03
             893     11.3924E-03     89.8829E-03    -6.01028E+06    -58.6786E+06    -12.4470E+06    -15.3196E+06    -27.9141E-03     54.5792E-03    -26.6651E-03     73.6819E-03    -27.9218E-03     54.3934E-03    -26.6336E-03     73.3712E-03
             894     12.2689E-03     89.9560E-03    -5.92400E+06    -49.1168E+06    -12.4608E+06    -15.1916E+06    -28.2187E-03     54.8626E-03    -26.6440E-03     80.6624E-03    -28.2811E-03     54.7658E-03    -26.6264E-03     80.3243E-03
             895     13.1452E-03     90.0336E-03    -5.96144E+06    -49.7226E+06    -22.0079E+06    -14.3320E+06    -28.2842E-03     54.8816E-03    -26.5973E-03     80.5336E-03    -28.3860E-03     54.8495E-03    -26.6266E-03     80.1741E-03
             896     14.0211E-03     90.1066E-03     -6.3436E+06    -45.5758E+06    -38.4014E+06    -11.5208E+06    -29.0103E-03     55.5255E-03    -26.5153E-03     96.8487E-03    -29.2962E-03     55.7385E-03    -26.6320E-03     96.4689E-03
             897     14.8981E-03     90.2150E-03    -7.30184E+06     11.5793E+06    -47.0649E+06    -6.68896E+06    -35.1356E-03     61.5270E-03    -26.3915E-03     184.788E-03    -36.8792E-03     63.4223E-03    -26.6330E-03     184.423E-03
             898     15.7740E-03     90.4581E-03    -7.77184E+06     118.190E+06    -8.35439E+06    -1.99772E+06    -45.1252E-03     71.5403E-03    -26.4151E-03     319.063E-03    -55.0792E-03     81.9105E-03    -26.6170E-03     320.531E-03
             899     16.6520E-03     90.8356E-03    -5.32835E+06     191.243E+06     76.1376E+06     228.926E+03    -42.1297E-03     68.8224E-03    -26.6927E-03     334.197E-03    -58.1162E-03     85.2481E-03    -26.5816E-03     343.305E-03
             900     876.177E-06     90.4551E-03    -15.1598E+06    -67.9682E+06    -15.0956E+06    -2.81418E+06    -26.8641E-03     53.7323E-03    -26.8681E-03     5.74302E-03    -26.8196E-03     53.4365E-03    -26.8231E-03     5.70404E-03
             901     1.75237E-03     90.4627E-03    -14.6661E+06    -67.7596E+06    -14.0527E+06    -4.83163E+06    -26.8656E-03     53.7259E-03    -26.8602E-03     10.6245E-03    -26.8208E-03     53.4291E-03    -26.8110E-03     10.5571E-03
             902     2.62859E-03     90.4750E-03    -13.7898E+06    -67.6503E+06    -12.3744E+06    -6.93751E+06    -26.8643E-03     53.7184E-03    -26.8541E-03     15.8192E-03    -26.8181E-03     53.4190E-03    -26.7979E-03     15.7220E-03
             903     3.50484E-03     90.4923E-03    -12.7241E+06    -66.6931E+06    -10.3463E+06    -8.79567E+06    -26.8634E-03     53.7068E-03    -26.8433E-03     21.1388E-03    -26.8170E-03     53.4084E-03    -26.7799E-03     21.0145E-03
             904     4.38115E-03     90.5145E-03    -11.4232E+06    -66.6270E+06    -7.62243E+06    -10.3618E+06    -26.8710E-03     53.7038E-03    -26.8328E-03     26.5531E-03    -26.8233E-03     53.4011E-03    -26.7577E-03     26.4049E-03
             905     5.25750E-03     90.5419E-03    -10.0076E+06    -64.4319E+06    -5.30825E+06    -11.5867E+06    -26.8828E-03     53.6960E-03    -26.8132E-03     32.0904E-03    -26.8362E-03     53.4005E-03    -26.7318E-03     31.9220E-03
             906     6.13394E-03     90.5745E-03    -8.49019E+06    -63.6935E+06    -2.86705E+06    -12.3097E+06    -26.9126E-03     53.7058E-03    -26.7932E-03     37.7238E-03    -26.8655E-03     53.4107E-03    -26.7028E-03     37.5406E-03
             907     7.01043E-03     90.6123E-03    -6.75050E+06    -63.3139E+06    -750.301E+03    -13.0541E+06    -26.9655E-03     53.7354E-03    -26.7699E-03     43.4629E-03    -26.9168E-03     53.4402E-03    -26.6721E-03     43.2630E-03
             908     7.88698E-03     90.6555E-03    -5.30218E+06    -60.6642E+06    -792.741E+03    -14.0163E+06    -27.0391E-03     53.7713E-03    -26.7321E-03     49.3198E-03    -26.9922E-03     53.4924E-03    -26.6405E-03     49.0986E-03
             909     8.76360E-03     90.7042E-03    -4.63895E+06    -61.4863E+06    -1.21353E+06    -15.0188E+06    -27.1515E-03     53.8508E-03    -26.6993E-03     55.2108E-03    -27.1071E-03     53.5751E-03    -26.6095E-03     54.9651E-03
             910     9.64023E-03     90.7583E-03    -4.41471E+06    -64.7099E+06    -3.76311E+06    -15.7650E+06    -27.3273E-03     53.9906E-03    -26.6633E-03     61.1145E-03    -27.2847E-03     53.7135E-03    -26.5819E-03     60.8442E-03
             911     10.5168E-03     90.8178E-03    -4.29615E+06    -65.8171E+06    -9.84835E+06    -16.0033E+06    -27.5626E-03     54.1756E-03    -26.6131E-03     66.9552E-03    -27.5263E-03     53.9190E-03    -26.5606E-03     66.6624E-03
             912     11.3934E-03     90.8828E-03    -4.21618E+06    -57.6242E+06    -11.3034E+06    -15.8759E+06    -27.8176E-03     54.3962E-03    -26.5786E-03     74.1328E-03    -27.8192E-03     54.2110E-03    -26.5454E-03     73.8162E-03
             913     12.2700E-03     90.9557E-03    -4.24001E+06    -48.1271E+06    -10.8870E+06    -15.5522E+06    -28.1468E-03     54.7050E-03    -26.5582E-03     81.2522E-03    -28.2041E-03     54.6080E-03    -26.5367E-03     80.9108E-03
             914     13.1463E-03     91.0341E-03    -4.85777E+06    -50.1315E+06    -20.8923E+06    -14.8671E+06    -28.2416E-03     54.7540E-03    -26.5125E-03     81.0364E-03    -28.3387E-03     54.7165E-03    -26.5372E-03     80.6712E-03
             915     14.0232E-03     91.1062E-03    -6.12970E+06    -48.9153E+06    -38.4415E+06    -12.6451E+06    -29.0496E-03     55.4833E-03    -26.4337E-03     97.3916E-03    -29.3299E-03     55.6797E-03    -26.5461E-03     96.9977E-03
             916     14.8985E-03     91.2160E-03    -7.26640E+06     5.20400E+06    -48.1108E+06    -8.03834E+06    -35.2272E-03     61.5439E-03    -26.3167E-03     185.129E-03    -36.9644E-03     63.4133E-03    -26.5543E-03     184.747E-03
             917     15.7757E-03     91.4576E-03    -7.40474E+06     113.080E+06    -11.1668E+06    -2.56622E+06    -45.0116E-03     71.3447E-03    -26.3332E-03     318.861E-03    -54.9474E-03     81.6881E-03    -26.5422E-03     320.349E-03
             918     16.6530E-03     91.8354E-03    -5.51141E+06     190.645E+06     74.3916E+06     260.315E+03    -42.2859E-03     68.9031E-03    -26.6172E-03     333.692E-03    -58.2325E-03     85.2912E-03    -26.5137E-03     342.760E-03
             919     876.227E-06     91.4554E-03    -12.2345E+06    -62.1445E+06    -12.0974E+06    -2.91573E+06    -26.8018E-03     53.6076E-03    -26.8058E-03     5.75282E-03    -26.7554E-03     53.3324E-03    -26.7585E-03     5.71257E-03
             920     1.75248E-03     91.4629E-03    -11.7664E+06    -62.3514E+06    -11.2991E+06    -5.26599E+06    -26.7959E-03     53.5918E-03    -26.7959E-03     10.6418E-03    -26.7483E-03     53.3139E-03    -26.7450E-03     10.5689E-03
             921     2.62876E-03     91.4752E-03    -11.0331E+06    -62.5529E+06    -9.84277E+06    -7.43474E+06    -26.7860E-03     53.5718E-03    -26.7857E-03     15.8508E-03    -26.7371E-03     53.2902E-03    -26.7283E-03     15.7473E-03
             922     3.50509E-03     91.4924E-03    -10.1177E+06    -62.1778E+06    -8.12566E+06    -9.32627E+06    -26.7732E-03     53.5433E-03    -26.7701E-03     21.1861E-03    -26.7235E-03     53.2605E-03    -26.7059E-03     21.0552E-03
             923     4.38148E-03     91.5146E-03    -9.00095E+06    -62.3767E+06    -6.09197E+06    -11.0559E+06    -26.7647E-03     53.5158E-03    -26.7511E-03     26.6312E-03    -26.7132E-03     53.2286E-03    -26.6781E-03     26.4744E-03
             924     5.25796E-03     91.5418E-03    -7.76383E+06    -61.2441E+06    -4.11502E+06    -12.2169E+06    -26.7616E-03     53.4866E-03    -26.7251E-03     32.1998E-03    -26.7100E-03     53.2020E-03    -26.6456E-03     32.0238E-03
             925     6.13450E-03     91.5743E-03    -6.50809E+06    -60.8214E+06    -1.83197E+06    -13.0458E+06    -26.7740E-03     53.4719E-03    -26.6979E-03     37.8793E-03    -26.7225E-03     53.1866E-03    -26.6094E-03     37.6872E-03
             926     7.01112E-03     91.6120E-03    -5.18284E+06    -60.3395E+06     57.6183E+03    -14.0116E+06    -26.8116E-03     53.4780E-03    -26.6664E-03     43.6766E-03    -26.7603E-03     53.1940E-03    -26.5711E-03     43.4652E-03
             927     7.88783E-03     91.6552E-03    -3.98369E+06    -58.1989E+06     478.204E+03    -14.5829E+06    -26.8775E-03     53.5024E-03    -26.6249E-03     49.5829E-03    -26.8290E-03     53.2318E-03    -26.5324E-03     49.3554E-03
             928     8.76457E-03     91.7038E-03    -3.09445E+06    -58.7229E+06     592.250E+03    -15.1105E+06    -26.9947E-03     53.5826E-03    -26.5879E-03     55.5442E-03    -26.9488E-03     53.3155E-03    -26.4953E-03     55.2985E-03
             929     9.64137E-03     91.7578E-03    -2.47893E+06    -62.3591E+06    -1.69982E+06    -15.9280E+06    -27.1847E-03     53.7335E-03    -26.5487E-03     61.5430E-03    -27.1385E-03     53.4619E-03    -26.4632E-03     61.2719E-03
             930     10.5181E-03     91.8175E-03    -2.43509E+06    -64.3706E+06    -8.15213E+06    -16.2283E+06    -27.4426E-03     53.9379E-03    -26.4953E-03     67.4751E-03    -27.4011E-03     53.6829E-03    -26.4392E-03     67.1809E-03
             931     11.3948E-03     91.8824E-03    -2.85389E+06    -56.3106E+06    -9.91605E+06    -16.1840E+06    -27.7596E-03     54.2205E-03    -26.4609E-03     74.6647E-03    -27.7578E-03     54.0375E-03    -26.4247E-03     74.3454E-03
             932     12.2714E-03     91.9555E-03    -3.02241E+06    -47.3402E+06    -9.18211E+06    -15.9977E+06    -28.0879E-03     54.5336E-03    -26.4458E-03     81.8093E-03    -28.1422E-03     54.4359E-03    -26.4187E-03     81.4635E-03
             933     13.1481E-03     92.0340E-03    -3.33940E+06    -50.7466E+06    -18.7472E+06    -14.7679E+06    -28.2795E-03     54.6888E-03    -26.4093E-03     81.4428E-03    -28.3711E-03     54.6427E-03    -26.4246E-03     81.0795E-03
             934     14.0238E-03     92.1063E-03    -5.15113E+06    -50.6352E+06    -36.3844E+06    -12.8873E+06    -29.1785E-03     55.5218E-03    -26.3433E-03     97.6504E-03    -29.4548E-03     55.7056E-03    -26.4444E-03     97.2534E-03
             935     14.9008E-03     92.2163E-03    -7.51198E+06    -953.837E+03    -48.9809E+06    -9.18040E+06    -35.4101E-03     61.6447E-03    -26.2346E-03     185.134E-03    -37.1373E-03     63.4839E-03    -26.4672E-03     184.735E-03
             936     15.7765E-03     92.4578E-03    -8.39118E+06     106.623E+06    -16.0456E+06    -3.40985E+06    -45.5412E-03     71.7997E-03    -26.2585E-03     318.368E-03    -55.4584E-03     82.1121E-03    -26.4812E-03     319.793E-03
             937     16.6529E-03     92.8353E-03    -5.78487E+06     189.536E+06     71.4736E+06    -142.368E+03    -42.2417E-03     68.8044E-03    -26.5627E-03     333.500E-03    -58.1896E-03     85.1973E-03    -26.4718E-03     342.584E-03
             938     876.311E-06     92.4556E-03    -8.45677E+06    -55.9772E+06    -8.51343E+06    -3.10431E+06    -26.7076E-03     53.4165E-03    -26.7090E-03     5.76490E-03    -26.6564E-03     53.1614E-03    -26.6581E-03     5.72227E-03
             939     1.75265E-03     92.4630E-03    -8.12853E+06    -56.4925E+06    -7.62011E+06    -5.55149E+06    -26.6935E-03     53.3930E-03    -26.6995E-03     10.6693E-03    -26.6416E-03     53.1338E-03    -26.6439E-03     10.5929E-03
             940     2.62903E-03     92.4752E-03    -7.51043E+06    -57.2354E+06    -6.55628E+06    -7.87512E+06    -26.6713E-03     53.3556E-03    -26.6843E-03     15.8948E-03    -26.6172E-03     53.0907E-03    -26.6232E-03     15.7858E-03
             941     3.50546E-03     92.4924E-03    -6.60869E+06    -57.3216E+06    -5.44476E+06    -9.93756E+06    -26.6428E-03     53.3033E-03    -26.6605E-03     21.2547E-03    -26.5865E-03     53.0358E-03    -26.5950E-03     21.1161E-03
             942     4.38199E-03     92.5144E-03    -5.62741E+06    -57.9615E+06    -3.76468E+06    -11.6650E+06    -26.6170E-03     53.2504E-03    -26.6334E-03     26.7325E-03    -26.5583E-03     52.9769E-03    -26.5600E-03     26.5682E-03
             943     5.25859E-03     92.5416E-03    -4.61554E+06    -58.0157E+06    -2.11640E+06    -12.8360E+06    -26.5952E-03     53.1950E-03    -26.5997E-03     32.3402E-03    -26.5354E-03     52.9190E-03    -26.5195E-03     32.1568E-03
             944     6.13531E-03     92.5739E-03    -3.52448E+06    -57.6862E+06    -115.765E+03    -13.6324E+06    -26.5887E-03     53.1515E-03    -26.5629E-03     38.0762E-03    -26.5291E-03     52.8750E-03    -26.4747E-03     37.8774E-03
             945     7.01212E-03     92.6115E-03    -2.65046E+06    -57.4015E+06     1.78163E+06    -14.3569E+06    -26.6124E-03     53.1362E-03    -26.5238E-03     43.9392E-03    -26.5550E-03     52.8604E-03    -26.4278E-03     43.7244E-03
             946     7.88898E-03     92.6546E-03    -2.06823E+06    -56.0556E+06     2.15986E+06    -14.8246E+06    -26.6738E-03     53.1501E-03    -26.4763E-03     49.9149E-03    -26.6209E-03     52.8846E-03    -26.3812E-03     49.6856E-03
             947     8.76596E-03     92.7031E-03    -1.40741E+06    -55.9826E+06     2.41058E+06    -15.4635E+06    -26.7948E-03     53.2278E-03    -26.4330E-03     55.9795E-03    -26.7466E-03     52.9689E-03    -26.3377E-03     55.7308E-03
             948     9.64289E-03     92.7571E-03    -895.274E+03    -60.0444E+06     364.311E+03    -16.1443E+06    -27.0034E-03     53.3947E-03    -26.3913E-03     62.0750E-03    -26.9550E-03     53.1288E-03    -26.3011E-03     61.8030E-03
             949     10.5198E-03     92.8167E-03    -1.00660E+06    -63.0928E+06    -6.52422E+06    -16.1768E+06    -27.3051E-03     53.6409E-03    -26.3358E-03     68.1245E-03    -27.2600E-03     53.3871E-03    -26.2754E-03     67.8328E-03
             950     11.3966E-03     92.8820E-03    -1.59581E+06    -54.8128E+06    -8.64889E+06    -16.0295E+06    -27.7012E-03     54.0034E-03    -26.3022E-03     75.4339E-03    -27.6966E-03     53.8236E-03    -26.2636E-03     75.1183E-03
             951     12.2732E-03     92.9552E-03    -2.26503E+06    -46.2845E+06    -7.69478E+06    -15.9921E+06    -28.1273E-03     54.4254E-03    -26.2980E-03     82.5462E-03    -28.1814E-03     54.3294E-03    -26.2661E-03     82.2016E-03
             952     13.1496E-03     93.0338E-03    -3.24770E+06    -52.3271E+06    -17.9976E+06    -14.7146E+06    -28.4332E-03     54.7100E-03    -26.2768E-03     82.3471E-03    -28.5234E-03     54.6550E-03    -26.2862E-03     81.9850E-03
             953     14.0260E-03     93.1069E-03    -4.77483E+06    -51.8324E+06    -34.0110E+06    -12.4392E+06    -29.4791E-03     55.7178E-03    -26.2387E-03     98.2685E-03    -29.7565E-03     55.8929E-03    -26.3267E-03     97.8756E-03
             954     14.9013E-03     93.2161E-03    -6.78013E+06    -5.75474E+06    -47.4326E+06    -9.25469E+06    -35.7980E-03     61.9534E-03    -26.1554E-03     185.475E-03    -37.5206E-03     63.7691E-03    -26.3744E-03     185.069E-03
             955     15.7775E-03     93.4589E-03    -7.72713E+06     100.141E+06    -20.7320E+06    -4.26306E+06    -45.6712E-03     71.8360E-03    -26.1648E-03     319.349E-03    -55.6122E-03     82.1652E-03    -26.4025E-03     320.785E-03
             956     16.6534E-03     93.8361E-03    -5.23893E+06     188.003E+06     67.8753E+06    -714.954E+03    -42.2447E-03     68.7126E-03    -26.4679E-03     334.212E-03    -58.2236E-03     85.1435E-03    -26.3936E-03     343.325E-03
             957     876.438E-06     93.4555E-03    -5.15740E+06    -49.4351E+06    -5.16913E+06    -3.39786E+06    -26.5594E-03     53.1266E-03    -26.5672E-03     5.79002E-03    -26.5061E-03     52.8946E-03    -26.5139E-03     5.74370E-03
             958     1.75290E-03     93.4629E-03    -4.74851E+06    -50.3411E+06    -4.46599E+06    -5.85433E+06    -26.5417E-03     53.0942E-03    -26.5525E-03     10.7084E-03    -26.4863E-03     52.8562E-03    -26.4949E-03     10.6282E-03
             959     2.62941E-03     93.4751E-03    -4.04014E+06    -51.4346E+06    -3.54002E+06    -8.43802E+06    -26.5053E-03     53.0378E-03    -26.5325E-03     15.9595E-03    -26.4466E-03     52.7925E-03    -26.4697E-03     15.8434E-03
             960     3.50602E-03     93.4920E-03    -3.25629E+06    -52.2216E+06    -2.65093E+06    -10.6188E+06    -26.4602E-03     52.9623E-03    -26.5022E-03     21.3487E-03    -26.3984E-03     52.7113E-03    -26.4350E-03     21.2018E-03
             961     4.38270E-03     93.5140E-03    -2.34905E+06    -53.4250E+06    -1.34024E+06    -12.3811E+06    -26.4137E-03     52.8800E-03    -26.4663E-03     26.8661E-03    -26.3486E-03     52.6208E-03    -26.3921E-03     26.6932E-03
             962     5.25951E-03     93.5410E-03    -1.35169E+06    -54.6858E+06     126.593E+03    -13.5015E+06    -26.3732E-03     52.7976E-03    -26.4245E-03     32.5198E-03    -26.3050E-03     52.5301E-03    -26.3426E-03     32.3285E-03
             963     6.13643E-03     93.5732E-03    -430.603E+03    -54.5840E+06     1.69586E+06    -14.1997E+06    -26.3472E-03     52.7238E-03    -26.3765E-03     38.3247E-03    -26.2791E-03     52.4553E-03    -26.2883E-03     38.1196E-03
             964     7.01346E-03     93.6107E-03     386.000E+03    -55.0498E+06     3.52201E+06    -14.4758E+06    -26.3556E-03     52.6841E-03    -26.3285E-03     44.2667E-03    -26.2885E-03     52.4128E-03    -26.2317E-03     44.0518E-03
             965     7.89060E-03     93.6536E-03     832.482E+03    -53.8157E+06     4.11578E+06    -14.5805E+06    -26.4159E-03     52.6895E-03    -26.2737E-03     50.3536E-03    -26.3541E-03     52.4277E-03    -26.1763E-03     50.1291E-03
             966     8.76775E-03     93.7020E-03     852.277E+03    -53.0690E+06     4.35679E+06    -15.3080E+06    -26.5461E-03     52.7695E-03    -26.2234E-03     56.5442E-03    -26.4930E-03     52.5184E-03    -26.1259E-03     56.2995E-03
             967     9.64498E-03     93.7561E-03     730.773E+03    -58.0369E+06     2.58513E+06    -15.9268E+06    -26.7864E-03     52.9677E-03    -26.1813E-03     62.7709E-03    -26.7352E-03     52.7055E-03    -26.0853E-03     62.5038E-03
             968     10.5220E-03     93.8158E-03     380.358E+03    -61.7219E+06    -4.81578E+06    -16.0351E+06    -27.1368E-03     53.2608E-03    -26.1240E-03     68.9699E-03    -27.0884E-03     53.0086E-03    -26.0591E-03     68.6825E-03
             969     11.3990E-03     93.8812E-03    -216.188E+03    -53.7039E+06    -7.47723E+06    -15.7266E+06    -27.6068E-03     53.6985E-03    -26.0917E-03     76.4723E-03    -27.5978E-03     53.5197E-03    -26.0509E-03     76.1631E-03
             970     12.2757E-03     93.9548E-03    -982.336E+03    -45.0835E+06    -5.83289E+06    -15.4187E+06    -28.2181E-03     54.3206E-03    -26.1025E-03     83.6770E-03    -28.2701E-03     54.2259E-03    -26.0648E-03     83.3410E-03
             971     13.1522E-03     94.0337E-03    -2.30917E+06    -53.8312E+06    -16.9017E+06    -14.1780E+06    -28.6628E-03     54.7652E-03    -26.1024E-03     83.4754E-03    -28.7481E-03     54.7002E-03    -26.1055E-03     83.1205E-03
             972     14.0277E-03     94.1073E-03    -4.44379E+06    -53.5553E+06    -33.0494E+06    -11.6415E+06    -29.8077E-03     55.8975E-03    -26.0898E-03     99.5210E-03    -30.0852E-03     56.0649E-03    -26.1709E-03     99.1368E-03
             973     14.9035E-03     94.2174E-03    -6.94974E+06    -8.97504E+06    -44.7278E+06    -9.19552E+06    -36.1844E-03     62.2284E-03    -26.0440E-03     186.520E-03    -37.9196E-03     64.0367E-03    -26.2445E-03     186.110E-03
             974     15.7792E-03     94.4592E-03    -8.22113E+06     94.3178E+06    -24.6420E+06    -5.81373E+06    -45.5826E-03     71.6212E-03    -26.0386E-03     319.346E-03    -55.5042E-03     81.9199E-03    -26.2866E-03     320.802E-03
             975     16.6581E-03     94.8366E-03    -5.91949E+06     185.137E+06     62.5132E+06    -1.99220E+06    -42.3536E-03     68.6926E-03    -26.3390E-03     333.892E-03    -58.3183E-03     85.1122E-03    -26.2863E-03     342.982E-03
             976     876.616E-06     94.4551E-03    -2.13276E+06    -42.4711E+06    -2.04003E+06    -3.52031E+06    -26.3502E-03     52.7121E-03    -26.3619E-03     5.81992E-03    -26.2964E-03     52.5060E-03    -26.3074E-03     5.77216E-03
             977     1.75326E-03     94.4625E-03    -1.74289E+06    -43.7215E+06    -1.78760E+06    -6.34983E+06    -26.3219E-03     52.6630E-03    -26.3411E-03     10.7628E-03    -26.2650E-03     52.4499E-03    -26.2841E-03     10.6764E-03
             978     2.62998E-03     94.4745E-03    -1.20665E+06    -45.2157E+06    -1.02900E+06    -9.06112E+06    -26.2731E-03     52.5886E-03    -26.3155E-03     16.0458E-03    -26.2129E-03     52.3666E-03    -26.2533E-03     15.9222E-03
             979     3.50677E-03     94.4914E-03    -460.071E+03    -46.8553E+06    -91.5251E+03    -11.3460E+06    -26.2103E-03     52.4903E-03    -26.2799E-03     21.4727E-03    -26.1460E-03     52.2583E-03    -26.2118E-03     21.3170E-03
             980     4.38370E-03     94.5131E-03     305.122E+03    -48.7367E+06     701.170E+03    -13.1214E+06    -26.1420E-03     52.3763E-03    -26.2343E-03     27.0393E-03    -26.0733E-03     52.1336E-03    -26.1606E-03     26.8576E-03
             981     5.26075E-03     94.5400E-03     1.08967E+06    -51.2342E+06     1.69995E+06    -14.2718E+06    -26.0811E-03     52.2639E-03    -26.1827E-03     32.7553E-03    -26.0078E-03     52.0076E-03    -26.1015E-03     32.5551E-03
             982     6.13794E-03     94.5719E-03     1.90572E+06    -51.6712E+06     2.66693E+06    -14.8015E+06    -26.0327E-03     52.1551E-03    -26.1224E-03     38.6458E-03    -25.9581E-03     51.8961E-03    -26.0369E-03     38.4343E-03
             983     7.01528E-03     94.6093E-03     2.69840E+06    -53.0524E+06     4.23008E+06    -14.9437E+06    -26.0259E-03     52.0898E-03    -26.0639E-03     44.6958E-03    -25.9508E-03     51.8236E-03    -25.9697E-03     44.4765E-03
             984     7.89269E-03     94.6520E-03     3.47260E+06    -52.1322E+06     5.14824E+06    -14.6167E+06    -26.0828E-03     52.0834E-03    -26.0006E-03     50.9232E-03    -26.0111E-03     51.8240E-03    -25.9043E-03     50.7004E-03
             985     8.77023E-03     94.7005E-03     3.42100E+06    -50.7112E+06     6.15590E+06    -14.3045E+06    -26.2334E-03     52.1790E-03    -25.9456E-03     57.2682E-03    -26.1726E-03     51.9325E-03    -25.8462E-03     57.0390E-03
             986     9.64765E-03     94.7545E-03     2.56797E+06    -55.5505E+06     5.21415E+06    -14.9711E+06    -26.5173E-03     52.4220E-03    -25.9047E-03     63.6749E-03    -26.4633E-03     52.1648E-03    -25.8018E-03     63.4230E-03
             987     10.5250E-03     94.8144E-03     1.71771E+06    -60.1502E+06    -2.74314E+06    -15.6301E+06    -26.9408E-03     52.7888E-03    -25.8480E-03     70.0489E-03    -26.8900E-03     52.5384E-03    -25.7769E-03     69.7695E-03
             988     11.4021E-03     94.8800E-03     946.837E+03    -52.8332E+06    -6.37150E+06    -15.5084E+06    -27.5213E-03     53.3406E-03    -25.8193E-03     77.7351E-03    -27.5085E-03     53.1620E-03    -25.7759E-03     77.4312E-03
             989     12.2790E-03     94.9542E-03     348.551E+03    -44.2879E+06    -3.92302E+06    -14.9822E+06    -28.2912E-03     54.1399E-03    -25.8488E-03     85.1682E-03    -28.3402E-03     54.0443E-03    -25.8047E-03     84.8396E-03
             990     13.1550E-03     95.0339E-03    -893.113E+03    -55.5504E+06    -15.0993E+06    -13.1155E+06    -28.9311E-03     54.8068E-03    -25.8757E-03     84.9109E-03    -29.0104E-03     54.7295E-03    -25.8694E-03     84.5698E-03
             991     14.0310E-03     95.1077E-03    -3.22872E+06    -55.8324E+06    -31.9339E+06    -10.2246E+06    -30.1518E-03     56.0418E-03    -25.8901E-03     100.919E-03    -30.4246E-03     56.1976E-03    -25.9641E-03     100.552E-03
             992     14.9062E-03     95.2187E-03    -6.17426E+06    -9.80570E+06    -39.9268E+06    -8.54771E+06    -36.5758E-03     62.4669E-03    -25.8911E-03     187.384E-03    -38.3235E-03     64.2736E-03    -26.0676E-03     186.977E-03
             993     15.7816E-03     95.4604E-03    -7.47938E+06     90.2459E+06    -18.5514E+06    -6.52954E+06    -46.3155E-03     72.2546E-03    -25.9391E-03     318.753E-03    -56.2321E-03     82.5188E-03    -26.1519E-03     320.140E-03
             994     16.6563E-03     95.8347E-03    -5.19203E+06     180.697E+06     64.7903E+06    -2.61684E+06    -42.6622E-03     68.9234E-03    -26.2611E-03     333.464E-03    -58.6321E-03     85.3284E-03    -26.1917E-03     342.532E-03
             995     876.850E-06     95.4543E-03     1.31200E+06    -35.0365E+06     1.22437E+06    -3.70118E+06    -26.0663E-03     52.1426E-03    -26.0763E-03     5.84698E-03    -26.0108E-03     51.9639E-03    -26.0213E-03     5.79704E-03
             996     1.75376E-03     95.4616E-03     1.57558E+06    -36.6034E+06     1.58953E+06    -6.76393E+06    -26.0250E-03     52.0794E-03    -26.0544E-03     10.8324E-03    -25.9667E-03     51.8921E-03    -25.9957E-03     10.7410E-03
             997     2.63072E-03     95.4735E-03     1.97333E+06    -38.7103E+06     1.94402E+06    -9.57575E+06    -25.9623E-03     51.9843E-03    -26.0221E-03     16.1508E-03    -25.8998E-03     51.7858E-03    -25.9591E-03     16.0210E-03
             998     3.50782E-03     95.4902E-03     2.39576E+06    -41.1437E+06     2.23567E+06    -11.9737E+06    -25.8798E-03     51.8573E-03    -25.9776E-03     21.6261E-03    -25.8128E-03     51.6463E-03    -25.9102E-03     21.4630E-03
             999     4.38503E-03     95.5117E-03     2.80286E+06    -44.1071E+06     2.53470E+06    -13.6571E+06    -25.7898E-03     51.7124E-03    -25.9227E-03     27.2520E-03    -25.7178E-03     51.4865E-03    -25.8501E-03     27.0643E-03
            1000     5.26241E-03     95.5383E-03     3.20202E+06    -47.3325E+06     2.77045E+06    -14.9076E+06    -25.7020E-03     51.5607E-03    -25.8587E-03     33.0497E-03    -25.6250E-03     51.3190E-03    -25.7809E-03     32.8426E-03
            1001     6.13995E-03     95.5701E-03     3.62587E+06    -49.1710E+06     2.91211E+06    -15.4134E+06    -25.6311E-03     51.4167E-03    -25.7855E-03     39.0443E-03    -25.5516E-03     51.1669E-03    -25.7049E-03     38.8266E-03
            1002     7.01765E-03     95.6072E-03     4.01457E+06    -50.7913E+06     4.03787E+06    -15.4377E+06    -25.6094E-03     51.3238E-03    -25.7145E-03     45.2338E-03    -25.5301E-03     51.0667E-03    -25.6264E-03     45.0103E-03
            1003     7.89548E-03     95.6498E-03     4.25863E+06    -51.2986E+06     4.84078E+06    -14.9366E+06    -25.6661E-03     51.3095E-03    -25.6433E-03     51.6238E-03    -25.5905E-03     51.0528E-03    -25.5509E-03     51.3995E-03
            1004     8.77333E-03     95.6982E-03     4.57770E+06    -49.6859E+06     6.23136E+06    -13.8023E+06    -25.8377E-03     51.4193E-03    -25.5816E-03     58.1756E-03    -25.7716E-03     51.1750E-03    -25.4850E-03     57.9559E-03
            1005     9.65120E-03     95.7524E-03     4.39895E+06    -52.9169E+06     7.27275E+06    -13.6134E+06    -26.1792E-03     51.7229E-03    -25.5436E-03     64.7866E-03    -26.1217E-03     51.4720E-03    -25.4369E-03     64.5556E-03
            1006     10.5288E-03     95.8125E-03     2.86035E+06    -58.3133E+06    -324.297E+03    -14.1740E+06    -26.7344E-03     52.2292E-03    -25.4948E-03     71.3890E-03    -26.6828E-03     51.9816E-03    -25.4160E-03     71.1316E-03
            1007     11.4061E-03     95.8786E-03     949.421E+03    -51.0848E+06    -5.14742E+06    -14.8138E+06    -27.4780E-03     52.9539E-03    -25.4759E-03     79.2852E-03    -27.4686E-03     52.7815E-03    -25.4290E-03     78.9930E-03
            1008     12.2829E-03     95.9533E-03    -101.808E+03    -43.9042E+06    -2.41678E+06    -14.8078E+06    -28.3301E-03     53.8596E-03    -25.5295E-03     86.9198E-03    -28.3837E-03     53.7639E-03    -25.4778E-03     86.5958E-03
            1009     13.1594E-03     96.0340E-03    -684.694E+03    -58.4726E+06    -14.2366E+06    -12.5633E+06    -29.1936E-03     54.7772E-03    -25.5836E-03     86.7638E-03    -29.2697E-03     54.6846E-03    -25.5690E-03     86.4306E-03
            1010     14.0343E-03     96.1085E-03    -2.17883E+06    -58.3849E+06    -30.6384E+06    -9.14433E+06    -30.7411E-03     56.3793E-03    -25.6381E-03     102.494E-03    -31.0115E-03     56.5236E-03    -25.7035E-03     102.137E-03
            1011     14.9092E-03     96.2200E-03    -3.93151E+06    -9.07479E+06    -33.1616E+06    -7.61993E+06    -37.2284E-03     62.9352E-03    -25.7068E-03     188.408E-03    -38.9862E-03     64.7431E-03    -25.8538E-03     188.003E-03
            1012     15.7842E-03     96.4622E-03    -5.13794E+06     87.3682E+06    -9.17261E+06    -5.74672E+06    -46.9891E-03     72.8057E-03    -25.8165E-03     319.563E-03    -56.9663E-03     83.1013E-03    -25.9816E-03     320.925E-03
            1013     16.6600E-03     96.8381E-03    -4.18203E+06     176.354E+06     69.1865E+06    -1.93335E+06    -43.1883E-03     69.3435E-03    -26.1552E-03     333.441E-03    -59.1729E-03     85.7386E-03    -26.0589E-03     342.470E-03
            1014     877.192E-06     96.4528E-03     3.76601E+06    -27.1492E+06     3.70727E+06    -3.91848E+06    -25.6800E-03     51.3760E-03    -25.6960E-03     5.88259E-03    -25.6272E-03     51.2296E-03    -25.6435E-03     5.83005E-03
            1015     1.75441E-03     96.4601E-03     3.94279E+06    -29.1700E+06     3.79183E+06    -7.07003E+06    -25.6322E-03     51.3007E-03    -25.6685E-03     10.9157E-03    -25.5760E-03     51.1439E-03    -25.6129E-03     10.8208E-03
            1016     2.63175E-03     96.4718E-03     4.12294E+06    -31.9082E+06     3.67501E+06    -9.97091E+06    -25.5517E-03     51.1811E-03    -25.6294E-03     16.2793E-03    -25.4908E-03     51.0109E-03    -25.5707E-03     16.1450E-03
            1017     3.50918E-03     96.4883E-03     4.25086E+06    -35.3072E+06     3.40069E+06    -12.3581E+06    -25.4497E-03     51.0257E-03    -25.5760E-03     21.8114E-03    -25.3835E-03     50.8393E-03    -25.5140E-03     21.6441E-03
            1018     4.38679E-03     96.5096E-03     4.34335E+06    -39.4194E+06     3.12017E+06    -14.0699E+06    -25.3342E-03     50.8450E-03    -25.5108E-03     27.5108E-03    -25.2620E-03     50.6392E-03    -25.4443E-03     27.3190E-03
            1019     5.26458E-03     96.5360E-03     4.40041E+06    -43.2247E+06     2.87274E+06    -15.2882E+06    -25.2197E-03     50.6543E-03    -25.4346E-03     33.4018E-03    -25.1425E-03     50.4310E-03    -25.3640E-03     33.1913E-03
            1020     6.14256E-03     96.5674E-03     4.34810E+06    -46.7299E+06     2.54982E+06    -15.7774E+06    -25.1300E-03     50.4806E-03    -25.3506E-03     39.5154E-03    -25.0494E-03     50.2421E-03    -25.2764E-03     39.2949E-03
            1021     7.02072E-03     96.6043E-03     4.12559E+06    -48.7690E+06     2.88303E+06    -15.5305E+06    -25.0943E-03     50.3602E-03    -25.2658E-03     45.8673E-03    -25.0150E-03     50.1140E-03    -25.1867E-03     45.6451E-03
            1022     7.89899E-03     96.6468E-03     3.75126E+06    -50.6307E+06     3.69165E+06    -14.7768E+06    -25.1584E-03     50.3463E-03    -25.1879E-03     52.4515E-03    -25.0836E-03     50.0944E-03    -25.1015E-03     52.2322E-03
            1023     8.77734E-03     96.6951E-03     3.32910E+06    -49.3216E+06     4.38180E+06    -13.7527E+06    -25.3617E-03     50.4794E-03    -25.1176E-03     59.2605E-03    -25.2985E-03     50.2401E-03    -25.0290E-03     59.0451E-03
            1024     9.65558E-03     96.7495E-03     3.04034E+06    -51.5748E+06     6.66858E+06    -12.8388E+06    -25.7841E-03     50.8676E-03    -25.0836E-03     66.1250E-03    -25.7329E-03     50.6248E-03    -24.9799E-03     65.9079E-03
            1025     10.5336E-03     96.8100E-03     2.36531E+06    -56.7321E+06     2.11207E+06    -12.4000E+06    -26.4905E-03     51.5466E-03    -25.0561E-03     73.0161E-03    -26.4458E-03     51.3027E-03    -24.9667E-03     72.7855E-03
            1026     11.4110E-03     96.8767E-03     364.479E+03    -48.5749E+06    -2.54937E+06    -12.8088E+06    -27.4327E-03     52.4883E-03    -25.0556E-03     81.1907E-03    -27.4327E-03     52.3246E-03    -24.9984E-03     80.9274E-03
            1027     12.2879E-03     96.9523E-03    -1.53247E+06    -42.2307E+06     -40.202E+03    -14.0518E+06    -28.4600E-03     53.5992E-03    -25.1392E-03     88.8411E-03    -28.5265E-03     53.5104E-03    -25.0759E-03     88.5287E-03
            1028     13.1639E-03     97.0336E-03    -2.55748E+06    -62.4668E+06    -14.3864E+06    -12.6041E+06    -29.5017E-03     54.7270E-03    -25.2253E-03     88.9273E-03    -29.5820E-03     54.6183E-03    -25.2030E-03     88.5945E-03
            1029     14.0392E-03     97.1101E-03    -3.81612E+06    -60.6947E+06    -30.6620E+06    -9.31677E+06    -31.4343E-03     56.7597E-03    -25.3255E-03     104.688E-03    -31.7157E-03     56.9011E-03    -25.3852E-03     104.324E-03
            1030     14.9130E-03     97.2220E-03    -5.18154E+06    -8.49568E+06    -27.8423E+06    -8.01642E+06    -38.0460E-03     63.5197E-03    -25.4737E-03     189.685E-03    -39.8327E-03     65.3386E-03    -25.5931E-03     189.260E-03
            1031     15.7874E-03     97.4647E-03    -5.94424E+06     83.4220E+06    -9.49792E+06    -5.22717E+06    -47.3657E-03     72.9710E-03    -25.6053E-03     320.066E-03    -57.3794E-03     83.2873E-03    -25.7651E-03     321.447E-03
            1032     16.6630E-03     97.8393E-03    -4.97105E+06     173.272E+06     65.2899E+06    -1.36886E+06    -43.9399E-03     69.9059E-03    -25.9660E-03     332.683E-03    -59.8929E-03     86.2671E-03    -25.8836E-03     341.619E-03
            1033     877.607E-06     97.4506E-03     5.73746E+06    -19.0453E+06     5.29010E+06    -4.03077E+06    -25.1815E-03     50.3824E-03    -25.2009E-03     5.93653E-03    -25.1330E-03     50.2714E-03    -25.1551E-03     5.88279E-03
            1034     1.75528E-03     97.4576E-03     5.36755E+06    -21.4347E+06     4.76486E+06    -7.22108E+06    -25.1238E-03     50.2901E-03    -25.1663E-03     11.0070E-03    -25.0731E-03     50.1685E-03    -25.1192E-03     10.9106E-03
            1035     2.63304E-03     97.4692E-03     5.14122E+06    -25.0048E+06     4.11604E+06    -10.1978E+06    -25.0260E-03     50.1464E-03    -25.1204E-03     16.4286E-03    -24.9706E-03     50.0086E-03    -25.0710E-03     16.2920E-03
            1036     3.51096E-03     97.4855E-03     4.82310E+06    -29.4511E+06     3.27592E+06    -12.5177E+06    -24.9011E-03     49.9593E-03    -25.0582E-03     22.0260E-03    -24.8402E-03     49.8014E-03    -25.0062E-03     21.8577E-03
            1037     4.38904E-03     97.5065E-03     4.38369E+06    -34.6260E+06     2.31416E+06    -14.2169E+06    -24.7600E-03     49.7419E-03    -24.9819E-03     27.8066E-03    -24.6931E-03     49.5610E-03    -24.9265E-03     27.6143E-03
            1038     5.26735E-03     97.5326E-03     3.70951E+06    -39.3794E+06     1.35699E+06    -15.2175E+06    -24.6219E-03     49.5156E-03    -24.8937E-03     33.8036E-03    -24.5512E-03     49.3143E-03    -24.8352E-03     33.5958E-03
            1039     6.14585E-03     97.5638E-03     2.80473E+06    -44.1803E+06     700.753E+03    -15.5443E+06    -24.5164E-03     49.3167E-03    -24.8002E-03     40.0491E-03    -24.4440E-03     49.0953E-03    -24.7368E-03     39.8338E-03
            1040     7.02455E-03     97.6004E-03     1.77603E+06    -47.4170E+06     348.640E+03    -15.0307E+06    -24.4754E-03     49.1805E-03    -24.7051E-03     46.5762E-03    -24.4053E-03     48.9473E-03    -24.6371E-03     46.3632E-03
            1041     7.90341E-03     97.6428E-03     942.565E+03    -49.5901E+06     1.28939E+06    -14.3257E+06    -24.5578E-03     49.1792E-03    -24.6214E-03     53.3845E-03    -24.4940E-03     48.9389E-03    -24.5444E-03     53.1744E-03
            1042     8.78226E-03     97.6911E-03     119.359E+03    -49.6429E+06     2.50290E+06    -12.9173E+06    -24.8249E-03     49.3784E-03    -24.5534E-03     60.4527E-03    -24.7732E-03     49.1435E-03    -24.4691E-03     60.2518E-03
            1043     9.66101E-03     97.7457E-03    -973.125E+03    -50.6137E+06     5.15016E+06    -11.8544E+06    -25.3518E-03     49.8767E-03    -24.5249E-03     67.6574E-03    -25.3182E-03     49.6450E-03    -24.4243E-03     67.4571E-03
            1044     10.5393E-03     97.8067E-03    -1.74894E+06    -56.0415E+06     2.83897E+06    -11.5842E+06    -26.2029E-03     50.7251E-03    -24.5222E-03     74.8759E-03    -26.1791E-03     50.4879E-03    -24.4242E-03     74.6600E-03
            1045     11.4171E-03     97.8743E-03    -2.22032E+06    -46.8038E+06    -349.003E+03    -11.1839E+06    -27.3623E-03     51.9108E-03    -24.5485E-03     83.3698E-03    -27.3798E-03     51.7554E-03    -24.4792E-03     83.1311E-03
            1046     12.2938E-03     97.9511E-03    -3.29913E+06    -38.7561E+06     3.29737E+06    -12.3528E+06    -28.7174E-03     53.3895E-03    -24.6721E-03     91.0948E-03    -28.8030E-03     53.3163E-03    -24.5947E-03     90.8056E-03
            1047     13.1698E-03     98.0334E-03    -4.82048E+06    -65.9011E+06    -13.5714E+06    -12.0904E+06    -30.0788E-03     54.8889E-03    -24.8101E-03     91.1753E-03    -30.1692E-03     54.7677E-03    -24.7755E-03     90.8476E-03
            1048     14.0444E-03     98.1112E-03    -6.04788E+06    -61.5397E+06    -30.9163E+06    -10.2772E+06    -32.1325E-03     57.0937E-03    -24.9612E-03     106.981E-03    -32.4295E-03     57.2404E-03    -25.0178E-03     106.600E-03
            1049     14.9177E-03     98.2258E-03    -6.75921E+06    -8.30396E+06    -23.1122E+06    -8.51204E+06    -38.9281E-03     64.1232E-03    -25.1951E-03     190.794E-03    -40.7501E-03     65.9588E-03    -25.2888E-03     190.346E-03
            1050     15.7916E-03     98.4666E-03    -7.50233E+06     77.8262E+06    -8.77496E+06    -5.07222E+06    -48.4334E-03     73.8214E-03    -25.3881E-03     319.294E-03    -58.4464E-03     84.1097E-03    -25.5339E-03     320.601E-03
            1051     16.6663E-03     98.8424E-03    -5.63626E+06     170.150E+06     62.7045E+06    -1.69053E+06    -44.8741E-03     70.6741E-03    -25.8000E-03     331.658E-03    -60.8109E-03     87.0131E-03    -25.7250E-03     340.482E-03
            1052     878.150E-06     98.4472E-03     6.34199E+06    -10.9263E+06     6.09584E+06    -4.05241E+06    -24.5585E-03     49.1275E-03    -24.5689E-03     5.99735E-03    -24.5199E-03     49.0549E-03    -24.5318E-03     5.94360E-03
            1053     1.75635E-03     98.4542E-03     5.95652E+06    -13.6407E+06     5.07163E+06    -7.13702E+06    -24.4851E-03     49.0202E-03    -24.5351E-03     11.1067E-03    -24.4432E-03     48.9362E-03    -24.4986E-03     11.0118E-03
            1054     2.63468E-03     98.4655E-03     5.16861E+06    -18.1950E+06     3.72762E+06    -10.0211E+06    -24.3709E-03     48.8530E-03    -24.4822E-03     16.5850E-03    -24.3246E-03     48.7497E-03    -24.4447E-03     16.4516E-03
            1055     3.51316E-03     98.4816E-03     4.14496E+06    -23.7423E+06     2.01668E+06    -12.1901E+06    -24.2235E-03     48.6341E-03    -24.4105E-03     22.2493E-03    -24.1723E-03     48.5074E-03    -24.3720E-03     22.0864E-03
            1056     4.39186E-03     98.5023E-03     2.74571E+06    -30.1146E+06     210.256E+03    -13.5877E+06    -24.0606E-03     48.3846E-03    -24.3240E-03     28.1134E-03    -24.0052E-03     48.2313E-03    -24.2833E-03     27.9307E-03
            1057     5.27077E-03     98.5280E-03     928.261E+03    -36.0809E+06    -1.58622E+06    -14.1723E+06    -23.9041E-03     48.1297E-03    -24.2256E-03     34.2213E-03    -23.8474E-03     47.9527E-03    -24.1826E-03     34.0289E-03
            1058     6.14992E-03     98.5589E-03    -1.34032E+06    -42.0158E+06    -2.72206E+06    -14.0196E+06    -23.7899E-03     47.9147E-03    -24.1248E-03     40.6073E-03    -23.7357E-03     47.7144E-03    -24.0755E-03     40.4142E-03
            1059     7.02925E-03     98.5953E-03    -3.69304E+06    -46.2082E+06    -3.16235E+06    -13.4929E+06    -23.7612E-03     47.7874E-03    -24.0262E-03     47.3188E-03    -23.7142E-03     47.5724E-03    -23.9697E-03     47.1286E-03
            1060     7.90870E-03     98.6374E-03    -6.11388E+06    -48.7217E+06    -2.47051E+06    -12.6202E+06    -23.8821E-03     47.8239E-03    -23.9418E-03     54.3682E-03    -23.8481E-03     47.6024E-03    -23.8747E-03     54.1837E-03
            1061     8.78815E-03     98.6859E-03    -8.06930E+06    -50.0633E+06    -856.015E+03    -11.5143E+06    -24.2336E-03     48.1168E-03    -23.8832E-03     61.7385E-03    -24.2157E-03     47.8950E-03    -23.8032E-03     61.5597E-03
            1062     9.66733E-03     98.7408E-03    -8.60709E+06    -49.3602E+06     2.23046E+06    -10.9707E+06    -24.8838E-03     48.7488E-03    -23.8650E-03     69.3261E-03    -24.8842E-03     48.5369E-03    -23.7698E-03     69.1416E-03
            1063     10.5461E-03     98.8026E-03    -8.69699E+06    -55.3523E+06     1.55824E+06    -10.9287E+06    -25.9252E-03     49.8162E-03    -23.8910E-03     76.9035E-03    -25.9335E-03     49.5927E-03    -23.7904E-03     76.7003E-03
            1064     11.4239E-03     98.8712E-03    -8.73489E+06    -45.5381E+06    -727.222E+03    -11.1340E+06    -27.3427E-03     51.2961E-03    -23.9534E-03     85.7380E-03    -27.3931E-03     51.1560E-03    -23.8783E-03     85.5033E-03
            1065     12.3009E-03     98.9496E-03    -7.84143E+06    -35.7017E+06     4.30473E+06    -11.9953E+06    -29.0549E-03     53.1817E-03    -24.1269E-03     93.6078E-03    -29.1699E-03     53.1298E-03    -24.0422E-03     93.3240E-03
            1066     13.1762E-03     99.0335E-03    -6.91978E+06    -67.1007E+06    -12.4294E+06    -12.4316E+06    -30.8709E-03     55.2065E-03    -24.3356E-03     93.7894E-03    -30.9760E-03     55.0850E-03    -24.2904E-03     93.4538E-03
            1067     14.0497E-03     99.1133E-03    -7.15761E+06    -62.6814E+06    -30.7066E+06    -10.7730E+06    -33.1456E-03     57.7054E-03    -24.5598E-03     109.326E-03    -33.4557E-03     57.8566E-03    -24.6120E-03     108.931E-03
            1068     14.9231E-03     99.2287E-03    -8.47383E+06    -9.67115E+06    -19.5547E+06    -8.82035E+06    -40.2540E-03     65.1522E-03    -24.8982E-03     191.952E-03    -42.1144E-03     67.0050E-03    -24.9697E-03     191.468E-03
            1069     15.7948E-03     99.4719E-03    -8.12863E+06     73.2554E+06    -8.63667E+06    -5.91705E+06    -49.8370E-03     75.0098E-03    -25.1728E-03     318.430E-03    -59.8529E-03     85.2820E-03    -25.3104E-03     319.631E-03
            1070     16.6668E-03     99.8441E-03    -5.20954E+06     166.881E+06     59.6078E+06    -2.11303E+06    -45.7855E-03     71.4321E-03    -25.6467E-03     330.862E-03    -61.7298E-03     87.7776E-03    -25.5830E-03     339.573E-03
            1071     878.812E-06     99.4426E-03     5.37903E+06    -2.90956E+06     5.09181E+06    -3.91797E+06    -23.7827E-03     47.5817E-03    -23.7990E-03     6.04875E-03    -23.7590E-03     47.5521E-03    -23.7771E-03     5.99703E-03
            1072     1.75769E-03     99.4493E-03     4.51548E+06    -6.37299E+06     3.66723E+06    -6.70958E+06    -23.7029E-03     47.4629E-03    -23.7600E-03     11.2015E-03    -23.6766E-03     47.4193E-03    -23.7390E-03     11.1128E-03
            1073     2.63669E-03     99.4605E-03     3.14510E+06    -11.7928E+06     1.56956E+06    -9.16438E+06    -23.5746E-03     47.2756E-03    -23.7010E-03     16.7319E-03    -23.5445E-03     47.2102E-03    -23.6806E-03     16.6103E-03
            1074     3.51587E-03     99.4762E-03     1.07102E+06    -18.7619E+06    -1.05106E+06    -10.8544E+06    -23.4121E-03     47.0346E-03    -23.6225E-03     22.4575E-03    -23.3788E-03     46.9415E-03    -23.6021E-03     22.3130E-03
            1075     4.39527E-03     99.4966E-03    -1.65319E+06    -26.3979E+06    -3.86369E+06    -11.6360E+06    -23.2345E-03     46.7631E-03    -23.5286E-03     28.4027E-03    -23.2002E-03     46.6404E-03    -23.5072E-03     28.2467E-03
            1076     5.27490E-03     99.5219E-03    -5.05002E+06    -33.8733E+06    -6.26116E+06    -11.4820E+06    -23.0714E-03     46.4975E-03    -23.4261E-03     34.6142E-03    -23.0406E-03     46.3466E-03    -23.4010E-03     34.4586E-03
            1077     6.15477E-03     99.5525E-03    -8.79521E+06    -40.5663E+06    -7.55425E+06    -10.7918E+06    -22.9660E-03     46.2903E-03    -23.3243E-03     41.1430E-03    -22.9435E-03     46.1144E-03    -23.2905E-03     40.9939E-03
            1078     7.03480E-03     99.5886E-03    -12.5853E+06    -45.1269E+06    -7.44764E+06    -10.0922E+06    -22.9743E-03     46.2057E-03    -23.2314E-03     48.0440E-03    -22.9662E-03     46.0143E-03    -23.1850E-03     47.9006E-03
            1079     7.91492E-03     99.6308E-03    -15.7086E+06    -48.1960E+06    -6.14201E+06    -9.42330E+06    -23.1676E-03     46.3257E-03    -23.1581E-03     55.3438E-03    -23.1758E-03     46.1248E-03    -23.0961E-03     55.2039E-03
            1080     8.79493E-03     99.6793E-03    -17.2669E+06    -48.6694E+06    -3.72746E+06    -9.73556E+06    -23.6250E-03     46.7394E-03    -23.1144E-03     63.0523E-03    -23.6494E-03     46.5406E-03    -23.0375E-03     62.9003E-03
            1081     9.67466E-03     99.7348E-03    -17.4456E+06    -48.0680E+06    -706.914E+03    -10.4765E+06    -24.4293E-03     47.5455E-03    -23.1162E-03     71.0314E-03    -24.4698E-03     47.3554E-03    -23.0247E-03     70.8575E-03
            1082     10.5537E-03     99.7975E-03    -16.5279E+06    -54.1482E+06    -273.080E+03    -10.8647E+06    -25.7046E-03     48.8822E-03    -23.1777E-03     79.0434E-03    -25.7496E-03     48.6772E-03    -23.0765E-03     78.8450E-03
            1083     11.4318E-03     99.8676E-03    -14.5981E+06    -42.7633E+06    -680.072E+03    -12.2052E+06    -27.4403E-03     50.7297E-03    -23.2894E-03     88.2862E-03    -27.5235E-03     50.6114E-03    -23.2097E-03     88.0402E-03
            1084     12.3083E-03     99.9477E-03    -12.0000E+06    -33.6806E+06     4.45090E+06    -13.7747E+06    -29.5144E-03     53.0370E-03    -23.5226E-03     96.4491E-03    -29.6551E-03     53.0027E-03    -23.4341E-03     96.1422E-03
            1085     13.1834E-03     100.034E-03    -10.5500E+06    -67.7210E+06    -11.8253E+06    -13.3799E+06    -31.6775E-03     55.4888E-03    -23.8112E-03     96.6579E-03    -31.8054E-03     55.3732E-03    -23.7569E-03     96.3062E-03
            1086     14.0566E-03     100.116E-03    -10.6898E+06    -64.2127E+06    -29.7144E+06    -11.9343E+06    -34.5230E-03     58.6545E-03    -24.1316E-03     112.027E-03    -34.8639E-03     58.8159E-03    -24.1715E-03     111.602E-03
            1087     14.9272E-03     100.233E-03    -9.20393E+06    -12.2445E+06    -17.0392E+06    -10.2786E+06    -41.9400E-03     66.5218E-03    -24.5817E-03     193.984E-03    -43.8387E-03     68.3938E-03    -24.6358E-03     193.442E-03
            1088     15.7982E-03     100.478E-03    -7.74447E+06     69.1909E+06    -8.40728E+06    -7.15981E+06    -51.2004E-03     76.1455E-03    -24.9451E-03     318.332E-03    -61.2235E-03     86.4112E-03    -25.0763E-03     319.438E-03
            1089     16.6712E-03     100.849E-03    -5.41698E+06     163.511E+06     56.9949E+06    -2.96677E+06    -46.8426E-03     72.3293E-03    -25.4867E-03     329.613E-03    -62.7605E-03     88.6432E-03    -25.4310E-03     338.173E-03
            1090     879.606E-06     100.436E-03     2.74003E+06     4.28370E+06     2.75326E+06    -3.20176E+06    -22.8574E-03     45.7390E-03    -22.8816E-03     6.09621E-03    -22.8540E-03     45.7526E-03    -22.8780E-03     6.05404E-03
            1091     1.75927E-03     100.443E-03     1.21902E+06    -190.258E+03     513.134E+03    -5.46593E+06    -22.7741E-03     45.6109E-03    -22.8368E-03     11.2766E-03    -22.7686E-03     45.6076E-03    -22.8357E-03     11.2045E-03
            1092     2.63908E-03     100.454E-03    -1.38917E+06    -6.70324E+06    -2.53558E+06    -7.08632E+06    -22.6393E-03     45.4135E-03    -22.7742E-03     16.8461E-03    -22.6332E-03     45.3860E-03    -22.7752E-03     16.7523E-03
            1093     3.51907E-03     100.469E-03    -4.94672E+06    -15.2246E+06    -6.06168E+06    -7.83582E+06    -22.4729E-03     45.1669E-03    -22.6941E-03     22.6203E-03    -22.4674E-03     45.1073E-03    -22.6951E-03     22.5160E-03
            1094     4.39927E-03     100.489E-03    -9.41994E+06    -24.2308E+06    -9.46456E+06    -7.66016E+06    -22.2978E-03     44.8992E-03    -22.6014E-03     28.6316E-03    -22.2970E-03     44.8063E-03    -22.5999E-03     28.5285E-03
            1095     5.27971E-03     100.514E-03    -14.3349E+06    -33.0763E+06    -11.7936E+06    -6.76836E+06    -22.1521E-03     44.6577E-03    -22.5056E-03     34.9346E-03    -22.1604E-03     44.5317E-03    -22.4958E-03     34.8417E-03
            1096     6.16035E-03     100.544E-03    -18.8582E+06    -39.5417E+06    -12.2533E+06    -6.11585E+06    -22.0843E-03     44.4988E-03    -22.4145E-03     41.6024E-03    -22.1061E-03     44.3488E-03    -22.3911E-03     41.5160E-03
            1097     7.04113E-03     100.580E-03    -22.0424E+06    -44.3841E+06    -10.7377E+06    -5.90070E+06    -22.1634E-03     44.5024E-03    -22.3390E-03     48.6960E-03    -22.1980E-03     44.3322E-03    -22.2964E-03     48.6094E-03
            1098     7.92189E-03     100.623E-03    -23.3287E+06    -46.4439E+06    -7.61107E+06    -6.66039E+06    -22.4618E-03     44.7493E-03    -22.2874E-03     56.2657E-03    -22.5074E-03     44.5691E-03    -22.2243E-03     56.1645E-03
            1099     8.80248E-03     100.671E-03    -22.8441E+06    -45.7122E+06    -4.09343E+06    -8.57805E+06    -23.0557E-03     45.3240E-03    -22.2683E-03     64.3145E-03    -23.1104E-03     45.1472E-03    -22.1894E-03     64.1810E-03
            1100     9.68262E-03     100.728E-03    -21.5565E+06    -46.6062E+06    -1.08472E+06    -9.76131E+06    -24.0494E-03     46.3513E-03    -22.3018E-03     72.7030E-03    -24.1104E-03     46.1734E-03    -22.2084E-03     72.5420E-03
            1101     10.5620E-03     100.791E-03    -19.8335E+06    -51.2468E+06    -512.060E+03    -11.4888E+06    -25.5542E-03     47.9563E-03    -22.4021E-03     81.2697E-03    -25.6183E-03     47.7695E-03    -22.3016E-03     81.0667E-03
            1102     11.4400E-03     100.863E-03    -17.5465E+06    -39.1623E+06    -206.547E+03    -13.8804E+06    -27.6007E-03     50.1694E-03    -22.5688E-03     91.1040E-03    -27.7043E-03     50.0724E-03    -22.4876E-03     90.8386E-03
            1103     12.3166E-03     100.946E-03    -15.9075E+06    -32.0779E+06     3.86045E+06    -14.7829E+06    -30.0156E-03     52.8826E-03    -22.8669E-03     99.6450E-03    -30.1795E-03     52.8650E-03    -22.7781E-03     99.3246E-03
            1104     13.1909E-03     101.035E-03    -14.4037E+06    -68.3227E+06    -13.0527E+06    -14.8060E+06    -32.6464E-03     55.8843E-03    -23.2379E-03     100.100E-03    -32.7969E-03     55.7791E-03    -23.1832E-03     99.7245E-03
            1105     14.0628E-03     101.119E-03    -12.0994E+06    -63.8250E+06    -29.2802E+06    -14.9707E+06    -35.9957E-03     59.6578E-03    -23.6622E-03     115.524E-03    -36.3623E-03     59.8401E-03    -23.6985E-03     115.043E-03
            1106     14.9333E-03     101.240E-03    -9.94173E+06    -14.9773E+06    -16.7875E+06    -13.4425E+06    -43.6673E-03     67.8932E-03    -24.2260E-03     196.091E-03    -45.5972E-03     69.7836E-03    -24.2738E-03     195.466E-03
            1107     15.8029E-03     101.484E-03    -7.66846E+06     63.6145E+06    -9.50551E+06    -8.27546E+06    -52.5351E-03     77.2223E-03    -24.6872E-03     318.002E-03    -62.5317E-03     87.4451E-03    -24.8159E-03     318.990E-03
            1108     16.6717E-03     101.855E-03    -5.24119E+06     159.650E+06     55.2983E+06    -3.56263E+06    -48.3713E-03     73.6875E-03    -25.3162E-03     328.719E-03    -64.2515E-03     89.9555E-03    -25.2636E-03     337.030E-03
            1109     880.519E-06     101.428E-03    -2.07738E+06     9.19612E+06    -2.05379E+06    -1.63678E+06    -21.7907E-03     43.6016E-03    -21.8110E-03     6.11627E-03    -21.8114E-03     43.6537E-03    -21.8316E-03     6.09458E-03
            1110     1.76112E-03     101.434E-03    -4.85892E+06     3.87501E+06    -4.77933E+06    -2.72869E+06    -21.7091E-03     43.4796E-03    -21.7705E-03     11.3118E-03    -21.7323E-03     43.5130E-03    -21.7929E-03     11.2755E-03
            1111     2.64184E-03     101.445E-03    -8.82246E+06    -4.04551E+06    -8.51548E+06    -3.10389E+06    -21.5816E-03     43.2939E-03    -21.7124E-03     16.8974E-03    -21.6077E-03     43.2990E-03    -21.7363E-03     16.8558E-03
            1112     3.52273E-03     101.460E-03    -13.9266E+06    -14.0110E+06    -12.2586E+06    -2.58182E+06    -21.4321E-03     43.0736E-03    -21.6415E-03     22.7007E-03    -21.4641E-03     43.0418E-03    -21.6623E-03     22.6652E-03
            1113     4.40382E-03     101.480E-03    -19.5986E+06    -24.1671E+06    -14.9632E+06    -1.43094E+06    -21.2901E-03     42.8553E-03    -21.5652E-03     28.7604E-03    -21.3320E-03     42.7852E-03    -21.5766E-03     28.7391E-03
            1114     5.28510E-03     101.505E-03    -24.7665E+06    -33.0234E+06    -15.8679E+06    -663.654E+03    -21.1972E-03     42.6881E-03    -21.4909E-03     35.1497E-03    -21.2513E-03     42.5830E-03    -21.4864E-03     35.1372E-03
            1115     6.16652E-03     101.535E-03    -28.3041E+06    -38.3202E+06    -14.7060E+06    -1.09696E+06    -21.1997E-03     42.6231E-03    -21.4234E-03     41.9553E-03    -21.2663E-03     42.4958E-03    -21.4004E-03     41.9356E-03
            1116     7.04800E-03     101.570E-03    -29.5083E+06    -42.3634E+06    -12.0575E+06    -2.94931E+06    -21.3733E-03     42.7460E-03    -21.3727E-03     49.2604E-03    -21.4454E-03     42.5979E-03    -21.3288E-03     49.2143E-03
            1117     7.92942E-03     101.613E-03    -28.2412E+06    -42.8659E+06    -8.14317E+06    -5.84725E+06    -21.7848E-03     43.1317E-03    -21.3469E-03     57.1302E-03    -21.8583E-03     42.9763E-03    -21.2845E-03     57.0423E-03
            1118     8.81054E-03     101.662E-03    -26.0455E+06    -42.4998E+06    -4.21196E+06    -8.34663E+06    -22.5374E-03     43.8987E-03    -21.3614E-03     65.5552E-03    -22.6112E-03     43.7414E-03    -21.2830E-03     65.4278E-03
            1119     9.69110E-03     101.719E-03    -23.2400E+06    -44.1878E+06    -1.31271E+06    -10.4405E+06    -23.7248E-03     45.1588E-03    -21.4340E-03     74.4253E-03    -23.7960E-03     44.9944E-03    -21.3428E-03     74.2588E-03
            1120     10.5706E-03     101.784E-03    -19.2444E+06    -46.5505E+06     103.017E+03    -13.3456E+06    -25.4316E-03     47.0107E-03    -21.5792E-03     83.6197E-03    -25.4990E-03     46.8443E-03    -21.4832E-03     83.3961E-03
            1121     11.4490E-03     101.858E-03    -16.5864E+06    -37.6793E+06     533.499E+03    -14.2237E+06    -27.7519E-03     49.5570E-03    -21.8051E-03     94.1680E-03    -27.8537E-03     49.4647E-03    -21.7238E-03     93.9005E-03
            1122     12.3251E-03     101.944E-03    -15.4122E+06    -29.9763E+06     4.55842E+06    -14.3099E+06    -30.5734E-03     52.7439E-03    -22.1705E-03     103.145E-03    -30.7415E-03     52.7378E-03    -22.0819E-03     102.829E-03
            1123     13.1994E-03     102.035E-03    -13.8713E+06    -65.8442E+06    -13.5019E+06    -17.0326E+06    -33.7177E-03     56.3398E-03    -22.6221E-03     104.091E-03    -33.8762E-03     56.2546E-03    -22.5740E-03     103.680E-03
            1124     14.0703E-03     102.124E-03    -12.6619E+06    -62.6969E+06    -30.2323E+06    -18.4229E+06    -37.6875E-03     60.8448E-03    -23.1573E-03     119.430E-03    -38.0774E-03     61.0552E-03    -23.1992E-03     118.884E-03
            1125     14.9388E-03     102.247E-03    -10.9462E+06    -17.2680E+06    -17.4278E+06    -16.6957E+06    -45.6155E-03     69.4688E-03    -23.8532E-03     197.911E-03    -47.5753E-03     71.3791E-03    -23.8995E-03     197.194E-03
            1126     15.8059E-03     102.494E-03    -8.32702E+06     55.2188E+06    -13.6876E+06    -11.4822E+06    -54.2293E-03     78.6576E-03    -24.4283E-03     316.245E-03    -64.0927E-03     88.7272E-03    -24.5647E-03     317.038E-03
            1127     16.6783E-03     102.860E-03    -5.12128E+06     153.732E+06     51.5442E+06    -4.49996E+06    -50.0106E-03     75.1773E-03    -25.1667E-03     326.802E-03    -65.7576E-03     91.3024E-03    -25.1244E-03     334.817E-03
            1128     881.585E-06     102.417E-03    -10.7060E+06     9.99547E+06    -10.0953E+06     739.266E+03    -20.5986E-03     41.2139E-03    -20.6152E-03     6.09595E-03    -20.6521E-03     41.2940E-03    -20.6647E-03     6.10518E-03
            1129     1.76318E-03     102.424E-03    -14.0526E+06     4.08357E+06    -12.7042E+06     1.84119E+06    -20.5331E-03     41.1183E-03    -20.5852E-03     11.2778E-03    -20.5910E-03     41.1775E-03    -20.6343E-03     11.3010E-03
            1130     2.64491E-03     102.434E-03    -19.1275E+06    -4.79273E+06    -15.5878E+06     3.10148E+06    -20.4383E-03     40.9845E-03    -20.5462E-03     16.8557E-03    -20.5045E-03     41.0109E-03    -20.5895E-03     16.8949E-03
            1131     3.52677E-03     102.449E-03    -24.6405E+06    -15.5217E+06    -17.8195E+06     4.57150E+06    -20.3368E-03     40.8386E-03    -20.5017E-03     22.6700E-03    -20.4120E-03     40.8227E-03    -20.5326E-03     22.7278E-03
            1132     4.40876E-03     102.468E-03    -29.3986E+06    -25.6438E+06    -18.3302E+06     5.61632E+06    -20.2642E-03     40.7215E-03    -20.4572E-03     28.7798E-03    -20.3479E-03     40.6629E-03    -20.4691E-03     28.8505E-03
            1133     5.29088E-03     102.493E-03    -32.4881E+06    -32.6446E+06    -17.0266E+06     5.17754E+06    -20.2538E-03     40.6689E-03    -20.4151E-03     35.2633E-03    -20.3450E-03     40.5782E-03    -20.4058E-03     35.3275E-03
            1134     6.17306E-03     102.523E-03    -33.7125E+06    -36.1049E+06    -14.7507E+06     2.92559E+06    -20.3490E-03     40.7267E-03    -20.3777E-03     42.2187E-03    -20.4453E-03     40.6178E-03    -20.3502E-03     42.2526E-03
            1135     7.05525E-03     102.559E-03    -33.4259E+06    -37.9616E+06    -12.0818E+06    -940.604E+03    -20.6166E-03     40.9716E-03    -20.3550E-03     49.7531E-03    -20.7139E-03     40.8504E-03    -20.3119E-03     49.7348E-03
            1136     7.93724E-03     102.601E-03    -32.0656E+06    -37.5623E+06    -8.81028E+06    -5.76531E+06    -21.1398E-03     41.5003E-03    -20.3605E-03     57.9426E-03    -21.2381E-03     41.3769E-03    -20.3036E-03     57.8582E-03
            1137     8.81893E-03     102.651E-03    -29.2044E+06    -39.3668E+06    -5.55022E+06    -9.24915E+06    -22.0349E-03     42.4484E-03    -20.4135E-03     66.7985E-03    -22.1259E-03     42.3119E-03    -20.3418E-03     66.6623E-03
            1138     9.69981E-03     102.710E-03    -24.9238E+06    -38.9486E+06    -2.02485E+06    -12.9398E+06    -23.3807E-03     43.9082E-03    -20.5275E-03     76.2480E-03    -23.4653E-03     43.7719E-03    -20.4450E-03     76.0525E-03
            1139     10.5798E-03     102.776E-03    -20.9345E+06    -42.9322E+06    -987.164E+03    -16.0236E+06    -25.2894E-03     46.0107E-03    -20.7213E-03     86.1268E-03    -25.3676E-03     45.8651E-03    -20.6336E-03     85.8718E-03
            1140     11.4580E-03     102.853E-03    -17.3945E+06    -38.3035E+06    -486.974E+03    -15.4645E+06    -27.8947E-03     48.9024E-03    -21.0077E-03     97.4508E-03    -27.9977E-03     48.8092E-03    -20.9293E-03     97.1698E-03
            1141     12.3345E-03     102.941E-03    -13.5133E+06    -26.5322E+06     5.67408E+06    -15.6578E+06    -31.2091E-03     52.6531E-03    -21.4440E-03     107.187E-03    -31.3773E-03     52.6629E-03    -21.3575E-03     106.853E-03
            1142     13.2074E-03     103.037E-03    -11.4079E+06    -61.9447E+06    -11.5440E+06    -18.2649E+06    -34.9065E-03     56.8975E-03    -21.9910E-03     108.402E-03    -35.0702E-03     56.8345E-03    -21.9423E-03     107.967E-03
            1143     14.0777E-03     103.129E-03    -10.3833E+06    -60.0195E+06    -28.1344E+06    -20.5319E+06    -39.3477E-03     61.9871E-03    -22.6393E-03     124.173E-03    -39.7526E-03     62.2240E-03    -22.6779E-03     123.581E-03
            1144     14.9439E-03     103.258E-03    -8.74115E+06    -19.5081E+06    -16.2413E+06    -19.5875E+06    -47.8061E-03     71.2699E-03    -23.4639E-03     200.920E-03    -49.7844E-03     73.1954E-03    -23.5041E-03     200.105E-03
            1145     15.8111E-03     103.502E-03    -7.91739E+06     45.3592E+06    -18.1786E+06    -13.5062E+06    -56.5741E-03     80.7338E-03    -24.1597E-03     316.034E-03    -66.2569E-03     90.6022E-03    -24.3049E-03     316.590E-03
            1146     16.6736E-03     103.869E-03    -5.67796E+06     146.244E+06     47.0555E+06    -5.67606E+06    -52.0485E-03     77.0639E-03    -25.0154E-03     327.248E-03    -67.6645E-03     93.0424E-03    -24.9840E-03     334.974E-03
            1147     882.649E-06     103.405E-03    -21.2888E+06     4.42429E+06    -19.3817E+06     4.93689E+06    -19.3443E-03     38.6935E-03    -19.3492E-03     6.02208E-03    -19.4291E-03     38.7746E-03    -19.4217E-03     6.08568E-03
            1148     1.76540E-03     103.411E-03    -25.0452E+06    -873.650E+03    -21.0081E+06     7.88216E+06    -19.3056E-03     38.6478E-03    -19.3422E-03     11.1563E-03    -19.3991E-03     38.7102E-03    -19.4097E-03     11.2578E-03
            1149     2.64816E-03     103.421E-03    -29.1803E+06    -9.37210E+06    -21.3861E+06     10.5340E+06    -19.2644E-03     38.5978E-03    -19.3334E-03     16.7031E-03    -19.3658E-03     38.6242E-03    -19.3844E-03     16.8387E-03
            1150     3.53099E-03     103.436E-03    -33.0863E+06    -19.1868E+06    -20.5937E+06     12.1646E+06    -19.2415E-03     38.5678E-03    -19.3263E-03     22.5378E-03    -19.3495E-03     38.5498E-03    -19.3535E-03     22.6943E-03
            1151     4.41390E-03     103.455E-03    -35.7033E+06    -27.0541E+06    -18.8739E+06     11.8649E+06    -19.2606E-03     38.5792E-03    -19.3186E-03     28.7132E-03    -19.3728E-03     38.5232E-03    -19.3219E-03     28.8654E-03
            1152     5.29682E-03     103.479E-03    -36.1442E+06    -30.9721E+06    -16.5115E+06     9.12636E+06    -19.3426E-03     38.6516E-03    -19.3090E-03     35.2952E-03    -19.4549E-03     38.5735E-03    -19.2943E-03     35.4115E-03
            1153     6.17978E-03     103.509E-03    -34.6931E+06    -32.6664E+06    -13.9230E+06     5.08709E+06    -19.5305E-03     38.8345E-03    -19.3039E-03     42.4005E-03    -19.6375E-03     38.7426E-03    -19.2759E-03     42.4636E-03
            1154     7.06261E-03     103.545E-03    -32.4834E+06    -32.2655E+06    -10.8340E+06     273.712E+03    -19.8928E-03     39.2080E-03    -19.3153E-03     50.1653E-03    -19.9948E-03     39.1115E-03    -19.2756E-03     50.1643E-03
            1155     7.94527E-03     103.588E-03    -30.8921E+06    -31.8653E+06    -7.80236E+06    -4.36672E+06    -20.5268E-03     39.8855E-03    -19.3587E-03     58.6904E-03    -20.6280E-03     39.7865E-03    -19.3067E-03     58.6260E-03
            1156     8.82734E-03     103.639E-03    -29.5061E+06    -33.3801E+06    -5.38118E+06    -9.83437E+06    -21.5282E-03     40.9784E-03    -19.4503E-03     68.0213E-03    -21.6283E-03     40.8709E-03    -19.3860E-03     67.8802E-03
            1157     9.70881E-03     103.699E-03    -27.0292E+06    -32.6409E+06    -2.91596E+06    -15.0751E+06    -22.9785E-03     42.5813E-03    -19.6028E-03     78.0826E-03    -23.0799E-03     42.4793E-03    -19.5308E-03     77.8628E-03
            1158     10.5890E-03     103.767E-03    -24.1843E+06    -40.0643E+06    -2.71760E+06    -17.7259E+06    -25.0947E-03     44.9384E-03    -19.8436E-03     88.7427E-03    -25.1892E-03     44.8127E-03    -19.7641E-03     88.4693E-03
            1159     11.4676E-03     103.846E-03    -20.4125E+06    -37.5026E+06    -2.79092E+06    -19.1177E+06    -28.0424E-03     48.2263E-03    -20.1839E-03     101.058E-03    -28.1577E-03     48.1443E-03    -20.1139E-03     100.732E-03
            1160     12.3434E-03     103.938E-03    -15.1625E+06    -23.8400E+06     4.45729E+06    -19.7570E+06    -31.7142E-03     52.4008E-03    -20.6866E-03     111.947E-03    -31.8949E-03     52.4303E-03    -20.6078E-03     111.560E-03
            1161     13.2166E-03     104.038E-03    -10.4596E+06    -59.2269E+06    -9.99648E+06    -20.3834E+06    -35.8883E-03     57.2111E-03    -21.3229E-03     114.159E-03    -36.0615E-03     57.1663E-03    -21.2718E-03     113.691E-03
            1162     14.0849E-03     104.136E-03    -8.55524E+06    -55.6958E+06    -24.8826E+06    -21.8847E+06    -41.0980E-03     63.1776E-03    -22.0796E-03     130.261E-03    -41.5280E-03     63.4522E-03    -22.1108E-03     129.629E-03
            1163     14.9524E-03     104.268E-03    -8.38576E+06    -22.2014E+06    -15.1917E+06    -22.0683E+06    -50.2333E-03     73.2715E-03    -23.0382E-03     204.624E-03    -52.2292E-03     75.2032E-03    -23.0698E-03     203.706E-03
            1164     15.8137E-03     104.517E-03    -6.85040E+06     34.7765E+06    -21.5958E+06    -15.6519E+06    -58.2860E-03     82.1335E-03    -23.8475E-03     315.220E-03    -67.6516E-03     91.6607E-03    -23.9960E-03     315.586E-03
            1165     16.6854E-03     104.878E-03    -4.64657E+06     139.029E+06     44.5197E+06    -6.05849E+06    -54.5071E-03     79.3237E-03    -24.8166E-03     328.162E-03    -69.9248E-03     95.0895E-03    -24.7888E-03     335.471E-03
            1166     883.843E-06     104.389E-03    -32.0737E+06    -10.1193E+06    -29.3314E+06     10.0684E+06    -18.1008E-03     36.2021E-03    -18.1013E-03     5.88961E-03    -18.2039E-03     36.2406E-03    -18.1868E-03     6.01955E-03
            1167     1.76757E-03     104.395E-03    -35.0353E+06    -11.1596E+06    -27.2906E+06     15.2524E+06    -18.0993E-03     36.2196E-03    -18.1203E-03     10.9538E-03    -18.2188E-03     36.2542E-03    -18.1898E-03     11.1506E-03
            1168     2.65139E-03     104.405E-03    -37.5067E+06    -16.4928E+06    -24.6100E+06     17.4824E+06    -18.1195E-03     36.2625E-03    -18.1430E-03     16.4647E-03    -18.2475E-03     36.2701E-03    -18.1878E-03     16.6903E-03
            1169     3.53520E-03     104.420E-03    -37.5899E+06    -23.3901E+06    -21.1287E+06     17.5120E+06    -18.1807E-03     36.3491E-03    -18.1683E-03     22.3224E-03    -18.3042E-03     36.3172E-03    -18.1856E-03     22.5483E-03
            1170     4.41898E-03     104.439E-03    -35.7958E+06    -27.5449E+06    -17.5639E+06     15.4444E+06    -18.2942E-03     36.4848E-03    -18.1906E-03     28.5684E-03    -18.4078E-03     36.4245E-03    -18.1866E-03     28.7674E-03
            1171     5.30273E-03     104.464E-03    -33.9185E+06    -28.1644E+06    -14.6880E+06     11.5768E+06    -18.4676E-03     36.6786E-03    -18.2110E-03     35.2451E-03    -18.5753E-03     36.6084E-03    -18.1944E-03     35.3938E-03
            1172     6.18638E-03     104.494E-03    -32.4794E+06    -28.0468E+06    -12.3694E+06     6.40731E+06    -18.7440E-03     36.9836E-03    -18.2396E-03     42.4844E-03    -18.8485E-03     36.9090E-03    -18.2137E-03     42.5655E-03
            1173     7.06994E-03     104.530E-03    -30.7682E+06    -26.3835E+06    -9.66858E+06     925.851E+03    -19.1877E-03     37.4743E-03    -18.2866E-03     50.4596E-03    -19.2908E-03     37.4025E-03    -18.2520E-03     50.4684E-03
            1174     7.95312E-03     104.574E-03    -28.0025E+06    -26.6345E+06    -6.63575E+06    -3.96327E+06    -19.9078E-03     38.2753E-03    -18.3675E-03     59.3173E-03    -20.0030E-03     38.1957E-03    -18.3215E-03     59.2600E-03
            1175     8.83589E-03     104.626E-03    -25.2296E+06    -25.1393E+06    -2.92612E+06    -9.17373E+06    -20.9870E-03     39.4830E-03    -18.4960E-03     69.1199E-03    -21.0800E-03     39.4056E-03    -18.4376E-03     68.9898E-03
            1176     9.71763E-03     104.686E-03    -24.3449E+06    -26.7015E+06    -1.08915E+06    -14.1748E+06    -22.5568E-03     41.2446E-03    -18.6878E-03     79.7912E-03    -22.6543E-03     41.1641E-03    -18.6193E-03     79.5862E-03
            1177     10.5984E-03     104.757E-03    -23.1544E+06    -35.1420E+06    -1.77232E+06    -18.4698E+06    -24.8268E-03     43.7938E-03    -18.9670E-03     91.3672E-03    -24.9226E-03     43.6878E-03    -18.8913E-03     91.0882E-03
            1178     11.4770E-03     104.839E-03    -19.7457E+06    -32.9670E+06    -1.86088E+06    -22.7102E+06    -28.0126E-03     47.3637E-03    -19.3511E-03     104.979E-03    -28.1308E-03     47.3003E-03    -19.2840E-03     104.611E-03
            1179     12.3533E-03     104.935E-03    -15.9152E+06    -23.6935E+06     3.30323E+06    -23.4420E+06    -31.9333E-03     51.8326E-03    -19.8993E-03     117.128E-03    -32.1167E-03     51.8660E-03    -19.8254E-03     116.697E-03
            1180     13.2261E-03     105.040E-03    -12.5557E+06    -56.5285E+06    -9.22596E+06    -23.7686E+06    -36.6005E-03     57.2041E-03    -20.6036E-03     120.439E-03    -36.7943E-03     57.1798E-03    -20.5495E-03     119.925E-03
            1181     14.0957E-03     105.142E-03    -10.1145E+06    -51.8111E+06    -21.4406E+06    -25.3229E+06    -43.1731E-03     64.6479E-03    -21.4748E-03     137.392E-03    -43.6478E-03     64.9657E-03    -21.4922E-03     136.687E-03
            1182     14.9567E-03     105.283E-03    -7.65213E+06    -23.9290E+06    -12.7164E+06    -24.1142E+06    -53.0625E-03     75.6491E-03    -22.5866E-03     208.582E-03    -55.0681E-03     77.5800E-03    -22.6044E-03     207.556E-03
            1183     15.8213E-03     105.530E-03    -5.95890E+06     22.8678E+06    -22.5341E+06    -17.9730E+06    -60.5697E-03     84.1242E-03    -23.5545E-03     311.701E-03    -69.4284E-03     93.1082E-03    -23.6916E-03     311.778E-03
            1184     16.6818E-03     105.886E-03    -4.81328E+06     128.479E+06     42.9189E+06    -6.86853E+06    -56.8464E-03     81.5019E-03    -24.6555E-03     328.297E-03    -71.9459E-03     96.9161E-03    -24.6202E-03     335.128E-03
            1185     884.772E-06     105.371E-03    -47.1901E+06    -31.3545E+06    -45.3869E+06     11.4891E+06    -16.9439E-03     33.9033E-03    -16.9594E-03     5.72495E-03    -17.0685E-03     33.8808E-03    -17.0725E-03     5.87326E-03
            1186     1.76967E-03     105.377E-03    -43.3894E+06    -26.5918E+06    -36.0697E+06     18.9699E+06    -16.9709E-03     33.9579E-03    -16.9869E-03     10.6911E-03    -17.0971E-03     33.9401E-03    -17.0658E-03     10.9360E-03
            1187     2.65441E-03     105.388E-03    -40.2852E+06    -24.5571E+06    -26.7154E+06     21.9274E+06    -17.0454E-03     34.0774E-03    -17.0320E-03     16.1747E-03    -17.1725E-03     34.0517E-03    -17.0716E-03     16.4577E-03
            1188     3.53911E-03     105.402E-03    -37.8512E+06    -26.2990E+06    -20.9828E+06     20.1012E+06    -17.1842E-03     34.2611E-03    -17.0769E-03     22.0659E-03    -17.3049E-03     34.2148E-03    -17.0888E-03     22.3255E-03
            1189     4.42377E-03     105.422E-03    -34.8207E+06    -26.9821E+06    -17.5315E+06     16.1979E+06    -17.3701E-03     34.4886E-03    -17.1185E-03     28.3307E-03    -17.4797E-03     34.4295E-03    -17.1165E-03     28.5398E-03
            1190     5.30834E-03     105.446E-03    -30.9014E+06    -25.3479E+06    -13.9605E+06     11.8091E+06    -17.6167E-03     34.7822E-03    -17.1655E-03     35.0473E-03    -17.7143E-03     34.7205E-03    -17.1538E-03     35.1995E-03
            1191     6.19277E-03     105.477E-03    -27.2949E+06    -23.1746E+06    -10.2547E+06     7.10219E+06    -17.9772E-03     35.2033E-03    -17.2261E-03     42.4099E-03    -18.0655E-03     35.1421E-03    -17.2042E-03     42.5007E-03
            1192     7.07687E-03     105.513E-03    -25.5228E+06    -21.1111E+06    -7.07317E+06     2.37341E+06    -18.5139E-03     35.8223E-03    -17.3084E-03     50.5939E-03    -18.6018E-03     35.7650E-03    -17.2761E-03     50.6225E-03
            1193     7.96074E-03     105.558E-03    -25.2137E+06    -20.0304E+06    -4.62793E+06    -3.19148E+06    -19.2914E-03     36.7140E-03    -17.4225E-03     59.7403E-03    -19.3844E-03     36.6597E-03    -17.3801E-03     59.6946E-03
            1194     8.84390E-03     105.610E-03    -24.1287E+06    -17.9279E+06    -1.65925E+06    -9.02715E+06    -20.4028E-03     37.9835E-03    -17.5807E-03     69.9527E-03    -20.5013E-03     37.9375E-03    -17.5280E-03     69.8268E-03
            1195     9.72649E-03     105.673E-03    -21.7479E+06    -21.4167E+06     862.512E+03    -12.9349E+06    -22.0534E-03     39.8587E-03    -17.8053E-03     81.2710E-03    -22.1464E-03     39.7960E-03    -17.7384E-03     81.0853E-03
            1196     10.6073E-03     105.746E-03    -19.7856E+06    -26.4742E+06     1.84409E+06    -18.4644E+06    -24.4167E-03     42.5306E-03    -18.1139E-03     93.8469E-03    -24.5106E-03     42.4550E-03    -18.0376E-03     93.5725E-03
            1197     11.4868E-03     105.830E-03    -18.8213E+06    -27.3603E+06     751.070E+03    -23.6561E+06    -27.6743E-03     46.1994E-03    -18.5251E-03     108.726E-03    -27.7960E-03     46.1551E-03    -18.4544E-03     108.352E-03
            1198     12.3633E-03     105.931E-03    -18.2194E+06    -23.4696E+06     2.30641E+06    -24.5754E+06    -31.8971E-03     50.9920E-03    -19.0948E-03     122.207E-03    -32.0881E-03     51.0285E-03    -19.0229E-03     121.766E-03
            1199     13.2368E-03     106.040E-03    -15.3038E+06    -50.9325E+06    -7.47054E+06    -27.5095E+06    -37.3700E-03     57.2278E-03    -19.8578E-03     127.419E-03    -37.5919E-03     57.2368E-03    -19.7991E-03     126.856E-03
            1200     14.1032E-03     106.151E-03    -10.9878E+06    -49.4267E+06    -16.5921E+06    -30.9230E+06    -45.1028E-03     65.9451E-03    -20.8423E-03     146.132E-03    -45.6149E-03     66.2918E-03    -20.8377E-03     145.330E-03
            1201     14.9673E-03     106.300E-03    -8.33785E+06    -27.8053E+06    -9.51522E+06    -27.0230E+06    -55.7332E-03     77.8237E-03    -22.0906E-03     214.088E-03    -57.7259E-03     79.7164E-03    -22.0857E-03     212.948E-03
            1202     15.8226E-03     106.548E-03    -7.24582E+06     12.1268E+06    -22.4624E+06    -18.4419E+06    -63.7969E-03     87.0106E-03    -23.2137E-03     311.994E-03    -72.1780E-03     95.4742E-03    -23.3331E-03     311.696E-03
            1203     16.6877E-03     106.898E-03    -4.66572E+06     116.158E+06     42.5220E+06    -7.87257E+06    -60.3039E-03     84.7725E-03    -24.4686E-03     331.782E-03    -75.0874E-03     99.8287E-03    -24.4177E-03     337.992E-03
            1204     885.687E-06     106.351E-03    -76.5401E+06    -48.5810E+06    -76.7018E+06     5.84866E+06    -15.9393E-03     31.9064E-03    -15.9671E-03     5.56370E-03    -16.1403E-03     31.8857E-03    -16.1692E-03     5.63915E-03
            1205     1.77127E-03     106.357E-03    -64.2145E+06    -41.8100E+06    -60.7967E+06     11.0168E+06    -15.9700E-03     31.9625E-03    -15.9925E-03     10.3917E-03    -16.1423E-03     31.9347E-03    -16.1428E-03     10.5339E-03
            1206     2.65704E-03     106.368E-03    -48.5790E+06    -33.7500E+06    -41.2984E+06     15.5616E+06    -16.0566E-03     32.1035E-03    -16.0469E-03     15.7503E-03    -16.1907E-03     32.0650E-03    -16.1340E-03     15.9511E-03
            1207     3.54265E-03     106.382E-03    -35.6931E+06    -29.1674E+06    -26.4079E+06     16.7139E+06    -16.2366E-03     32.3403E-03    -16.1038E-03     21.5958E-03    -16.3344E-03     32.2845E-03    -16.1418E-03     21.8116E-03
            1208     4.42806E-03     106.402E-03    -28.5789E+06    -26.8154E+06    -18.3630E+06     15.0615E+06    -16.4950E-03     32.6547E-03    -16.1597E-03     27.9134E-03    -16.5724E-03     32.5886E-03    -16.1712E-03     28.1080E-03
            1209     5.31333E-03     106.427E-03    -26.1579E+06    -22.8648E+06    -13.5778E+06     11.8397E+06    -16.8221E-03     33.0479E-03    -16.2257E-03     34.6917E-03    -16.9001E-03     32.9911E-03    -16.2225E-03     34.8445E-03
            1210     6.19843E-03     106.458E-03    -25.1163E+06    -18.8359E+06    -9.68678E+06     7.33072E+06    -17.2538E-03     33.5651E-03    -16.3113E-03     42.0999E-03    -17.3382E-03     33.5215E-03    -16.2960E-03     42.1941E-03
            1211     7.08335E-03     106.495E-03    -22.3642E+06    -16.1530E+06    -5.49888E+06     2.34891E+06    -17.8570E-03     34.2800E-03    -16.4230E-03     50.4063E-03    -17.9382E-03     34.2403E-03    -16.3946E-03     50.4352E-03
            1212     7.96761E-03     106.540E-03    -18.6251E+06    -13.4949E+06    -1.00025E+06    -2.40280E+06    -18.6918E-03     35.2582E-03    -16.5664E-03     59.7880E-03    -18.7659E-03     35.2212E-03    -16.5248E-03     59.7536E-03
            1213     8.85148E-03     106.594E-03    -17.8704E+06    -11.9621E+06     2.36306E+06    -6.50588E+06    -19.8548E-03     36.6074E-03    -16.7526E-03     70.3794E-03    -19.9353E-03     36.5752E-03    -16.6975E-03     70.2880E-03
            1214     9.73423E-03     106.658E-03    -18.7979E+06    -14.8898E+06     4.06443E+06    -11.8320E+06    -21.4865E-03     38.4843E-03    -16.9977E-03     82.2769E-03    -21.5767E-03     38.4430E-03    -16.9286E-03     82.1089E-03
            1215     10.6163E-03     106.732E-03    -17.8712E+06    -16.9426E+06     5.65337E+06    -18.0160E+06    -23.8184E-03     41.1378E-03    -17.3194E-03     95.7843E-03    -23.9182E-03     41.0977E-03    -17.2406E-03     95.5212E-03
            1216     11.4958E-03     106.821E-03    -17.2779E+06    -22.8607E+06     4.44931E+06    -21.7913E+06    -27.1853E-03     44.9318E-03    -17.7465E-03     111.762E-03    -27.3054E-03     44.8966E-03    -17.6660E-03     111.420E-03
            1217     12.3735E-03     106.924E-03    -16.6764E+06    -20.2253E+06     4.97754E+06    -23.9130E+06    -31.7034E-03     50.0299E-03    -18.3265E-03     126.852E-03    -31.8888E-03     50.0701E-03    -18.2481E-03     126.428E-03
            1218     13.2464E-03     107.041E-03    -15.7236E+06    -40.5043E+06    -2.32721E+06    -30.1325E+06    -37.7145E-03     56.8379E-03    -19.1234E-03     134.760E-03    -37.9590E-03     56.8901E-03    -19.0535E-03     134.168E-03
            1219     14.1150E-03     107.160E-03    -13.0985E+06    -46.4087E+06    -10.0494E+06    -35.6098E+06    -46.4682E-03     66.6553E-03    -20.1871E-03     156.058E-03    -47.0170E-03     67.0230E-03    -20.1511E-03     155.180E-03
            1220     14.9733E-03     107.318E-03    -8.16534E+06    -36.6318E+06    -5.87258E+06    -31.6139E+06    -57.6432E-03     79.1685E-03    -21.5253E-03     220.587E-03    -59.5696E-03     80.9536E-03    -21.4897E-03     219.331E-03
            1221     15.8355E-03     107.567E-03    -4.86205E+06    -206.539E+03    -18.6528E+06    -20.0402E+06    -66.9903E-03     89.7745E-03    -22.7842E-03     312.447E-03    -74.7623E-03     97.5829E-03    -22.8701E-03     311.710E-03
            1222     16.6922E-03     107.916E-03    -3.97371E+06     105.051E+06     45.7621E+06    -7.16300E+06    -64.7621E-03     88.9863E-03    -24.2241E-03     331.745E-03    -78.8873E-03     103.338E-03    -24.1419E-03     337.043E-03
            1223     886.136E-06     107.329E-03    -96.9038E+06    -52.6206E+06    -96.9282E+06    -1.87409E+06    -15.2255E-03     30.4690E-03    -15.2435E-03     5.39420E-03    -15.4931E-03     30.4870E-03    -15.5113E-03     5.36989E-03
            1224     1.77249E-03     107.335E-03    -88.1219E+06    -47.7333E+06    -85.8845E+06    -2.17187E+06    -15.2346E-03     30.4914E-03    -15.2569E-03     10.0577E-03    -15.4815E-03     30.5051E-03    -15.4893E-03     10.0295E-03
            1225     2.65871E-03     107.346E-03    -74.1481E+06    -40.0226E+06    -70.9123E+06    -612.560E+03    -15.2667E-03     30.5492E-03    -15.2824E-03     15.1891E-03    -15.4767E-03     30.5594E-03    -15.4714E-03     15.1810E-03
            1226     3.54511E-03     107.361E-03    -56.7411E+06    -33.1617E+06    -54.7640E+06     2.02348E+06    -15.3806E-03     30.6953E-03    -15.3147E-03     20.7694E-03    -15.5369E-03     30.6912E-03    -15.4582E-03     20.7953E-03
            1227     4.43150E-03     107.381E-03    -39.3436E+06    -29.2149E+06    -38.0675E+06     4.59596E+06    -15.6334E-03     31.0049E-03    -15.3715E-03     26.9202E-03    -15.7326E-03     30.9711E-03    -15.4624E-03     26.9795E-03
            1228     5.31759E-03     107.406E-03    -25.2923E+06    -23.2260E+06    -22.1882E+06     6.40338E+06    -16.0254E-03     31.4805E-03    -15.4551E-03     33.7083E-03    -16.0860E-03     31.4332E-03    -15.4957E-03     33.7909E-03
            1229     6.20327E-03     107.437E-03    -17.0095E+06    -15.9303E+06    -9.65667E+06     5.87841E+06    -16.5714E-03     32.1356E-03    -15.5641E-03     41.2907E-03    -16.6195E-03     32.0947E-03    -15.5647E-03     41.3663E-03
            1230     7.08844E-03     107.475E-03    -14.7479E+06    -11.3652E+06    -2.44803E+06     2.55233E+06    -17.2752E-03     32.9735E-03    -15.6983E-03     49.7422E-03    -17.3294E-03     32.9421E-03    -15.6727E-03     49.7741E-03
            1231     7.97349E-03     107.521E-03    -15.1290E+06    -8.25687E+06     1.62789E+06    -1.79103E+06    -18.1511E-03     34.0130E-03    -15.8619E-03     59.2150E-03    -18.2187E-03     33.9929E-03    -15.8198E-03     59.1893E-03
            1232     8.85771E-03     107.576E-03    -13.0228E+06    -7.49466E+06     5.81457E+06    -5.50486E+06    -19.3173E-03     35.3848E-03    -16.0675E-03     70.0413E-03    -19.3840E-03     35.3618E-03    -16.0087E-03     69.9646E-03
            1233     9.74131E-03     107.641E-03    -9.85185E+06    -6.61937E+06     10.5340E+06    -9.97826E+06    -20.9177E-03     37.2440E-03    -16.3262E-03     82.4211E-03    -20.9822E-03     37.2194E-03    -16.2497E-03     82.2803E-03
            1234     10.6233E-03     107.718E-03    -10.2127E+06    -9.76117E+06     12.4597E+06    -14.9446E+06    -23.2178E-03     39.8735E-03    -16.6557E-03     96.7029E-03    -23.2952E-03     39.8439E-03    -16.5644E-03     96.4850E-03
            1235     11.5043E-03     107.809E-03    -11.1477E+06    -17.2617E+06     11.4649E+06    -19.0555E+06    -26.6011E-03     43.6867E-03    -17.0856E-03     113.818E-03    -26.7009E-03     43.6525E-03    -16.9871E-03     113.520E-03
            1236     12.3816E-03     107.918E-03    -10.8422E+06    -15.3257E+06     11.3645E+06    -22.4916E+06    -31.2597E-03     48.9189E-03    -17.6592E-03     130.829E-03    -31.4210E-03     48.9546E-03    -17.5644E-03     130.435E-03
            1237     13.2563E-03     108.040E-03    -11.6952E+06    -28.0080E+06     7.09773E+06    -27.6930E+06    -37.6135E-03     56.0762E-03    -18.4627E-03     141.581E-03    -37.8589E-03     56.1607E-03    -18.3696E-03     141.031E-03
            1238     14.1233E-03     108.168E-03    -14.5793E+06    -37.5474E+06    -2.84960E+06    -36.0409E+06    -46.8731E-03     66.4123E-03    -19.5393E-03     165.447E-03    -47.4418E-03     66.8053E-03    -19.4779E-03     164.568E-03
            1239     14.9865E-03     108.338E-03    -14.5599E+06    -45.0346E+06    -5.06161E+06    -37.7691E+06    -59.5086E-03     80.4445E-03    -20.9359E-03     226.843E-03    -61.3716E-03     82.1118E-03    -20.8748E-03     225.444E-03
            1240     15.8398E-03     108.587E-03    -11.4382E+06    -19.3748E+06    -16.2989E+06    -26.4535E+06    -70.2580E-03     92.6054E-03    -22.3473E-03     313.493E-03    -77.3480E-03     99.6336E-03    -22.3841E-03     312.271E-03
            1241     16.6957E-03     108.940E-03    -5.84646E+06     89.2202E+06     47.5259E+06    -8.73964E+06    -69.4508E-03     93.4006E-03    -23.9498E-03     335.010E-03    -82.9307E-03     107.039E-03    -23.8331E-03     339.274E-03
            1242     886.633E-06     108.306E-03    -85.0955E+06    -46.1834E+06    -84.1703E+06    -4.74926E+06    -14.8905E-03     29.7773E-03    -14.8868E-03     5.15348E-03    -15.1269E-03     29.7920E-03    -15.1173E-03     5.09192E-03
            1243     1.77307E-03     108.312E-03    -83.5350E+06    -43.2266E+06    -80.6166E+06    -8.15894E+06    -14.9103E-03     29.8104E-03    -14.9001E-03     9.61224E-03    -15.1485E-03     29.8324E-03    -15.1194E-03     9.50647E-03
            1244     2.65972E-03     108.323E-03    -79.6298E+06    -37.9506E+06    -75.2088E+06    -11.0852E+06    -14.9417E-03     29.8568E-03    -14.9151E-03     14.4642E-03    -15.1759E-03     29.8917E-03    -15.1207E-03     14.3205E-03
            1245     3.54630E-03     108.338E-03    -72.4724E+06    -33.4202E+06    -67.2464E+06    -12.3599E+06    -15.0021E-03     29.9401E-03    -14.9380E-03     19.6515E-03    -15.2187E-03     29.9758E-03    -15.1207E-03     19.4912E-03
            1246     4.43290E-03     108.358E-03    -61.2279E+06    -30.9231E+06    -56.8495E+06    -11.7723E+06    -15.1129E-03     30.0833E-03    -14.9704E-03     25.3496E-03    -15.2920E-03     30.1001E-03    -15.1210E-03     25.1968E-03
            1247     5.31960E-03     108.384E-03    -45.9996E+06    -25.6209E+06    -44.2720E+06    -9.67657E+06    -15.3603E-03     30.3726E-03    -15.0123E-03     31.8037E-03    -15.4893E-03     30.3757E-03    -15.1298E-03     31.6781E-03
            1248     6.20617E-03     108.416E-03    -29.1817E+06    -17.6459E+06    -29.7595E+06    -5.98930E+06    -15.8557E-03     30.9393E-03    -15.0836E-03     39.2510E-03    -15.9333E-03     30.9369E-03    -15.1645E-03     39.1730E-03
            1249     7.09230E-03     108.454E-03    -15.7164E+06    -11.0258E+06    -12.1877E+06    -2.01579E+06    -16.6268E-03     31.8480E-03    -15.2212E-03     47.7790E-03    -16.6724E-03     31.8339E-03    -15.2433E-03     47.7519E-03
            1250     7.97733E-03     108.501E-03    -8.77138E+06    -4.51887E+06     3.20796E+06    -1.46944E+06    -17.6315E-03     33.0425E-03    -15.4111E-03     57.4827E-03    -17.6748E-03     33.0293E-03    -15.3758E-03     57.4615E-03
            1251     8.86200E-03     108.557E-03    -7.47640E+06    -2.25928E+06     10.1054E+06    -5.21677E+06    -18.8509E-03     34.4775E-03    -15.6266E-03     68.5088E-03    -18.9028E-03     34.4655E-03    -15.5619E-03     68.4370E-03
            1252     9.74578E-03     108.623E-03    -7.80285E+06    -1.19535E+06     14.0218E+06    -8.87344E+06    -20.3809E-03     36.2654E-03    -15.8845E-03     81.1184E-03    -20.4458E-03     36.2577E-03    -15.8013E-03     80.9946E-03
            1253     10.6290E-03     108.702E-03    -6.67331E+06    -3.53966E+06     17.9402E+06    -12.0815E+06    -22.6276E-03     38.8408E-03    -16.2132E-03     96.0952E-03    -22.6993E-03     38.8243E-03    -16.1087E-03     95.9197E-03
            1254     11.5094E-03     108.796E-03    -5.36047E+06    -10.1528E+06     19.3827E+06    -17.1090E+06    -25.8779E-03     42.5116E-03    -16.6337E-03     114.237E-03    -25.9602E-03     42.4827E-03    -16.5143E-03     113.974E-03
            1255     12.3890E-03     108.908E-03    -4.54745E+06    -11.2721E+06     19.5911E+06    -20.2058E+06    -30.5137E-03     47.6980E-03    -17.1843E-03     133.171E-03    -30.6442E-03     47.7158E-03    -17.0634E-03     132.822E-03
            1256     13.2633E-03     109.037E-03    -4.94319E+06    -18.6261E+06     17.3606E+06    -22.9424E+06    -36.9349E-03     54.8881E-03    -17.9533E-03     147.117E-03    -37.1524E-03     54.9722E-03    -17.8323E-03     146.649E-03
            1257     14.1331E-03     109.175E-03    -8.18158E+06    -24.2677E+06     7.92531E+06    -29.0439E+06    -46.9693E-03     65.9717E-03    -19.0024E-03     173.671E-03    -47.5101E-03     66.3755E-03    -18.9157E-03     172.897E-03
            1258     14.9932E-03     109.354E-03    -14.4616E+06    -42.5465E+06     1.55142E+06    -34.8796E+06    -61.0862E-03     81.5172E-03    -20.4311E-03     233.881E-03    -62.8584E-03     83.0838E-03    -20.3407E-03     232.476E-03
            1259     15.8488E-03     109.616E-03    -16.7878E+06    -36.2859E+06    -12.6452E+06    -31.3338E+06    -71.9254E-03     93.8561E-03    -21.9308E-03     314.343E-03    -78.1535E-03     99.9327E-03    -21.9171E-03     312.822E-03
            1260     16.7067E-03     109.957E-03    -11.7305E+06     66.9915E+06     43.6520E+06    -16.9164E+06    -74.3631E-03     97.9940E-03    -23.6309E-03     341.443E-03    -87.2931E-03     110.995E-03    -23.4927E-03     344.445E-03
            1261     886.594E-06     109.283E-03    -61.1829E+06    -37.0087E+06    -59.9266E+06    -4.57311E+06    -14.9354E-03     29.8428E-03    -14.9074E-03     4.78211E-03    -15.1007E-03     29.8335E-03    -15.0646E-03     4.72262E-03
            1262     1.77332E-03     109.289E-03    -59.4358E+06    -34.2303E+06    -56.1782E+06    -8.58542E+06    -15.0238E-03     29.9760E-03    -14.9522E-03     8.90994E-03    -15.1900E-03     29.9726E-03    -15.0973E-03     8.79826E-03
            1263     2.65978E-03     109.300E-03    -57.8148E+06    -30.3988E+06    -51.0746E+06    -12.4543E+06    -15.1476E-03     30.1578E-03    -15.0103E-03     13.3711E-03    -15.3187E-03     30.1639E-03    -15.1377E-03     13.2091E-03
            1264     3.54619E-03     109.315E-03    -56.4320E+06    -27.9230E+06    -46.9159E+06    -15.5479E+06    -15.2604E-03     30.3296E-03    -15.0692E-03     18.1175E-03    -15.4345E-03     30.3403E-03    -15.1814E-03     17.9150E-03
            1265     4.43258E-03     109.335E-03    -55.0062E+06    -27.0112E+06    -44.7347E+06    -18.3596E+06    -15.3556E-03     30.4705E-03    -15.1149E-03     23.2821E-03    -15.5272E-03     30.4807E-03    -15.2197E-03     23.0429E-03
            1266     5.31902E-03     109.361E-03    -52.0847E+06    -23.9283E+06    -42.6458E+06    -20.4721E+06    -15.4812E-03     30.6300E-03    -15.1488E-03     29.0860E-03    -15.6460E-03     30.6485E-03    -15.2518E-03     28.8194E-03
            1267     6.20545E-03     109.393E-03    -45.6689E+06    -19.9432E+06    -37.5795E+06    -20.0114E+06    -15.7133E-03     30.9053E-03    -15.1920E-03     35.7925E-03    -15.8593E-03     30.9273E-03    -15.2848E-03     35.5317E-03
            1268     7.09178E-03     109.432E-03    -33.5783E+06    -15.1594E+06    -26.0175E+06    -16.2702E+06    -16.1640E-03     31.4357E-03    -15.2717E-03     43.7833E-03    -16.2735E-03     31.4475E-03    -15.3311E-03     43.5708E-03
            1269     7.97805E-03     109.480E-03    -18.1063E+06    -5.65139E+06    -10.7023E+06    -11.3634E+06    -16.9946E-03     32.3862E-03    -15.3916E-03     53.3676E-03    -17.0630E-03     32.4013E-03    -15.4106E-03     53.2182E-03
            1270     8.86302E-03     109.537E-03    -6.39513E+06    -540.852E+03     5.79985E+06    -7.44158E+06    -18.2541E-03     33.8385E-03    -15.5844E-03     64.5796E-03    -18.2963E-03     33.8394E-03    -15.5454E-03     64.4796E-03
            1271     9.74712E-03     109.604E-03    -1.69380E+06     2.44369E+06     18.8552E+06    -7.32772E+06    -19.9108E-03     35.7530E-03    -15.8421E-03     77.5688E-03    -19.9557E-03     35.7458E-03    -15.7490E-03     77.4670E-03
            1272     10.6299E-03     109.685E-03    -1.13196E+06     1.43945E+06     23.9647E+06    -10.1467E+06    -22.1003E-03     38.2495E-03    -16.1492E-03     93.0234E-03    -22.1553E-03     38.2362E-03    -16.0299E-03     92.8779E-03
            1273     11.5121E-03     109.782E-03    -2.19839E+06    -2.74315E+06     26.9808E+06    -13.7622E+06    -25.1112E-03     41.6556E-03    -16.5444E-03     111.737E-03    -25.1878E-03     41.6366E-03    -16.4024E-03     111.528E-03
            1274     12.3909E-03     109.897E-03    -2.24532E+06    -5.90381E+06     27.7383E+06    -19.0798E+06    -29.4729E-03     46.5246E-03    -17.0517E-03     132.528E-03    -29.5886E-03     46.5312E-03    -16.9012E-03     132.213E-03
            1275     13.2677E-03     110.033E-03     57.4458E+03    -15.1085E+06     25.7925E+06    -21.0936E+06    -35.8603E-03     53.6157E-03    -17.7554E-03     149.181E-03    -36.0348E-03     53.6625E-03    -17.6046E-03     148.765E-03
            1276     14.1381E-03     110.179E-03     1.08496E+06    -13.1593E+06     20.7564E+06    -22.4750E+06    -46.6409E-03     65.3940E-03    -18.7531E-03     179.275E-03    -47.1107E-03     65.7618E-03    -18.6318E-03     178.616E-03
            1277     14.9998E-03     110.374E-03     1.24007E+06    -34.0946E+06     14.2983E+06    -26.4012E+06    -61.2553E-03     81.4007E-03    -20.1454E-03     238.668E-03    -62.7930E-03     82.7814E-03    -20.0263E-03     237.400E-03
            1278     15.8551E-03     110.636E-03    -68.0406E+03    -42.8464E+06    -2.77225E+06    -24.2071E+06    -73.6445E-03     95.3318E-03    -21.6873E-03     310.361E-03    -78.7770E-03     100.321E-03    -21.6389E-03     308.646E-03
            1279     16.7089E-03     110.980E-03    -1.39354E+06     50.3492E+06     44.3239E+06    -14.6656E+06    -78.0195E-03     101.493E-03    -23.4736E-03     344.889E-03    -90.1448E-03     113.665E-03    -23.3230E-03     346.735E-03
            1280     886.365E-06     110.260E-03    -37.4484E+06    -27.9410E+06    -36.5340E+06    -4.48411E+06    -15.5027E-03     30.9626E-03    -15.4599E-03     4.22173E-03    -15.5964E-03     30.9303E-03    -15.5478E-03     4.16309E-03
            1281     1.77247E-03     110.267E-03    -36.7784E+06    -25.4909E+06    -32.9245E+06    -8.02755E+06    -15.6554E-03     31.1849E-03    -15.5294E-03     7.86331E-03    -15.7548E-03     31.1586E-03    -15.6038E-03     7.75823E-03
            1282     2.65851E-03     110.278E-03    -35.9249E+06    -22.5666E+06    -29.2866E+06    -10.9523E+06    -15.8647E-03     31.4837E-03    -15.6189E-03     11.7697E-03    -15.9695E-03     31.4657E-03    -15.6806E-03     11.6261E-03
            1283     3.54438E-03     110.293E-03    -34.8583E+06    -20.3755E+06    -25.9102E+06    -14.0790E+06    -16.1138E-03     31.8366E-03    -15.7228E-03     15.8743E-03    -16.2216E-03     31.8234E-03    -15.7723E-03     15.6894E-03
            1284     4.43005E-03     110.313E-03    -33.1556E+06    -19.6385E+06    -21.9476E+06    -17.3896E+06    -16.3852E-03     32.2257E-03    -15.8405E-03     20.2984E-03    -16.4918E-03     32.2083E-03    -15.8737E-03     20.0697E-03
            1285     5.31545E-03     110.339E-03    -32.0996E+06    -18.2078E+06    -18.2646E+06    -20.1398E+06    -16.6031E-03     32.5603E-03    -15.9572E-03     25.2788E-03    -16.7123E-03     32.5437E-03    -15.9756E-03     25.0137E-03
            1286     6.20077E-03     110.371E-03    -31.9634E+06    -16.7740E+06    -15.6839E+06    -22.3599E+06    -16.7374E-03     32.7954E-03    -16.0580E-03     31.0519E-03    -16.8522E-03     32.7825E-03    -16.0657E-03     30.7576E-03
            1287     7.08625E-03     110.410E-03    -31.0646E+06    -15.0468E+06    -14.7175E+06    -24.0527E+06    -16.8620E-03     32.9939E-03    -16.1318E-03     37.9398E-03    -16.9768E-03     32.9874E-03    -16.1386E-03     37.6234E-03
            1288     7.97166E-03     110.458E-03    -26.9119E+06    -9.01687E+06    -12.0092E+06    -22.6755E+06    -17.1275E-03     33.3202E-03    -16.1926E-03     46.3924E-03    -17.2345E-03     33.3343E-03    -16.2006E-03     46.0940E-03
            1289     8.85742E-03     110.516E-03    -17.3981E+06    -4.75057E+06    -1.18792E+06    -17.8682E+06    -17.8242E-03     34.1242E-03    -16.3000E-03     56.8312E-03    -17.9060E-03     34.1307E-03    -16.2738E-03     56.5950E-03
            1290     9.74216E-03     110.585E-03    -5.91623E+06     1.53895E+06     12.7535E+06    -12.2674E+06    -19.2148E-03     35.6783E-03    -16.4635E-03     69.8327E-03    -19.2697E-03     35.6807E-03    -16.3934E-03     69.6678E-03
            1291     10.6256E-03     110.668E-03     1.49299E+06     4.37626E+06     24.9011E+06    -10.0077E+06    -21.4013E-03     38.1115E-03    -16.7102E-03     85.8145E-03    -21.4446E-03     38.1036E-03    -16.5942E-03     85.6749E-03
            1292     11.5066E-03     110.766E-03     5.80233E+06     2.35173E+06     34.7565E+06    -11.6964E+06    -24.3836E-03     41.4446E-03    -17.0610E-03     105.071E-03    -24.4277E-03     41.4170E-03    -16.8991E-03     104.898E-03
            1293     12.3874E-03     110.885E-03     6.69196E+06     1.94939E+06     37.4318E+06    -15.0758E+06    -28.4642E-03     45.9689E-03    -17.5047E-03     126.757E-03    -28.5356E-03     45.9626E-03    -17.3301E-03     126.515E-03
            1294     13.2641E-03     111.025E-03     5.85269E+06    -11.6064E+06     33.5181E+06    -19.6844E+06    -34.6892E-03     52.8193E-03    -18.1301E-03     146.390E-03    -34.8072E-03     52.8202E-03    -17.9542E-03     146.026E-03
            1295     14.1349E-03     111.182E-03     4.91048E+06    -11.1853E+06     28.0512E+06    -18.6169E+06    -45.2797E-03     64.3137E-03    -19.0341E-03     180.061E-03    -45.6461E-03     64.5775E-03    -18.8847E-03     179.514E-03
            1296     14.9989E-03     111.387E-03     543.049E+03    -20.8628E+06     23.9490E+06    -22.9017E+06    -60.3992E-03     80.7403E-03    -20.3410E-03     238.512E-03    -61.6819E-03     81.8826E-03    -20.1918E-03     237.372E-03
            1297     15.8544E-03     111.660E-03     1.40676E+06     -50.738E+06    -115.644E+03    -25.4041E+06    -74.1497E-03     95.9936E-03    -21.8439E-03     306.665E-03    -78.2702E-03     99.9400E-03    -21.7729E-03     304.785E-03
            1298     16.7027E-03     112.004E-03     4.02208E+06     29.9871E+06     37.2331E+06    -9.82775E+06    -78.1005E-03     101.647E-03    -23.5461E-03     350.229E-03    -89.0980E-03     112.657E-03    -23.4092E-03     351.112E-03
            1299     885.196E-06     111.239E-03    -16.3942E+06    -19.6077E+06    -15.4038E+06    -4.04604E+06    -16.8252E-03     33.5939E-03    -16.7687E-03     3.48034E-03    -16.8565E-03     33.5420E-03    -16.7935E-03     3.42691E-03
            1300     1.77038E-03     111.246E-03    -16.0485E+06    -17.7219E+06    -13.2881E+06    -6.88190E+06    -17.0246E-03     33.8776E-03    -16.8530E-03     6.43052E-03    -17.0602E-03     33.8315E-03    -16.8704E-03     6.33938E-03
            1301     2.65528E-03     111.257E-03    -15.1020E+06    -15.8100E+06    -9.99031E+06    -9.71217E+06    -17.3443E-03     34.3211E-03    -16.9767E-03     9.55734E-03    -17.3830E-03     34.2787E-03    -16.9819E-03     9.42834E-03
            1302     3.53985E-03     111.273E-03    -13.9239E+06    -12.9327E+06    -5.67436E+06    -12.6224E+06    -17.7598E-03     34.8996E-03    -17.1398E-03     12.8086E-03    -17.8034E-03     34.8640E-03    -17.1293E-03     12.6405E-03
            1303     4.42396E-03     111.293E-03    -13.6743E+06    -13.1022E+06    -1.88139E+06    -15.1874E+06    -18.1962E-03     35.5286E-03    -17.3324E-03     16.3120E-03    -18.2444E-03     35.4868E-03    -17.3030E-03     16.1090E-03
            1304     5.30776E-03     111.319E-03    -13.8926E+06    -12.2770E+06     178.013E+03    -17.1272E+06    -18.5724E-03     36.0975E-03    -17.5251E-03     20.2586E-03    -18.6266E-03     36.0578E-03    -17.4862E-03     20.0289E-03
            1305     6.19133E-03     111.351E-03    -13.7150E+06    -10.8972E+06     2.24869E+06    -19.3581E+06    -18.8607E-03     36.5710E-03    -17.7103E-03     24.8490E-03    -18.9198E-03     36.5357E-03    -17.6634E-03     24.5889E-03
            1306     7.07463E-03     111.391E-03    -13.7473E+06    -10.0451E+06     5.61889E+06    -21.4780E+06    -19.0217E-03     36.9061E-03    -17.8844E-03     30.3487E-03    -19.0880E-03     36.8711E-03    -17.8218E-03     30.0600E-03
            1307     7.95807E-03     111.438E-03    -14.9127E+06    -8.58985E+06     8.06588E+06    -22.4051E+06    -19.0278E-03     37.0524E-03    -18.0246E-03     37.1411E-03    -19.1065E-03     37.0236E-03    -17.9502E-03     36.8400E-03
            1308     8.84152E-03     111.496E-03    -16.3497E+06    -6.59461E+06     8.49962E+06    -21.9705E+06    -19.0451E-03     37.1666E-03    -18.1214E-03     45.7494E-03    -19.1352E-03     37.1499E-03    -18.0457E-03     45.4543E-03
            1309     9.72564E-03     111.565E-03    -14.1923E+06    -2.85354E+06     11.3244E+06    -19.5717E+06    -19.4812E-03     37.6902E-03    -18.2090E-03     57.0049E-03    -19.5704E-03     37.6855E-03    -18.1277E-03     56.7416E-03
            1310     10.6095E-03     111.649E-03    -6.91838E+06     3.33006E+06     23.1303E+06    -15.6752E+06    -20.8129E-03     39.1726E-03    -18.3598E-03     71.9317E-03    -20.8929E-03     39.1725E-03    -18.2389E-03     71.7187E-03
            1311     11.4920E-03     111.750E-03    -45.1041E+03     5.39581E+06     35.1617E+06    -14.5248E+06    -23.3019E-03     41.8994E-03    -18.5975E-03     91.0678E-03    -23.3720E-03     41.8866E-03    -18.4295E-03     90.8662E-03
            1312     12.3710E-03     111.871E-03     3.09525E+06     3.13348E+06     40.5307E+06    -12.6280E+06    -27.1263E-03     46.0635E-03    -18.9373E-03     113.839E-03    -27.1987E-03     46.0408E-03    -18.7436E-03     113.648E-03
            1313     13.2481E-03     112.015E-03    -1.65383E+06      -3.484E+06     38.7146E+06    -12.7569E+06    -33.1040E-03     52.5552E-03    -19.4513E-03     136.418E-03    -33.2310E-03     52.5521E-03    -19.2503E-03     136.182E-03
            1314     14.1214E-03     112.180E-03    -7.13101E+06    -12.5463E+06     32.8274E+06    -16.8499E+06    -43.4308E-03     63.6848E-03    -20.2541E-03     171.836E-03    -43.7419E-03     63.8316E-03    -20.0614E-03     171.389E-03
            1315     14.9857E-03     112.397E-03    -6.83392E+06    -7.39124E+06     35.2071E+06    -19.4451E+06    -57.7539E-03     79.1856E-03    -21.4317E-03     230.284E-03    -58.7438E-03     80.0241E-03    -21.2351E-03     229.352E-03
            1316     15.8415E-03     112.679E-03    -15.8431E+06    -47.3919E+06     4.32973E+06    -25.7985E+06    -69.2831E-03     92.0194E-03    -22.7362E-03     295.110E-03    -72.3107E-03     94.8102E-03    -22.6229E-03     293.464E-03
            1317     16.7031E-03     113.022E-03    -22.0164E+06     624.316E+03     11.8900E+06    -23.4763E+06    -69.9509E-03     93.9351E-03    -23.9842E-03     346.455E-03    -78.6296E-03     102.504E-03    -23.8938E-03     346.639E-03
            1318     883.364E-06     112.221E-03     2.77845E+06    -12.4193E+06     3.21089E+06    -3.20368E+06    -19.1497E-03     38.1954E-03    -19.0457E-03     2.53687E-03    -19.1227E-03     38.1245E-03    -19.0157E-03     2.49375E-03
            1319     1.76648E-03     112.228E-03     2.74384E+06    -10.8152E+06     4.27535E+06    -6.01038E+06    -19.4174E-03     38.5884E-03    -19.1709E-03     4.60210E-03    -19.3948E-03     38.5239E-03    -19.1379E-03     4.52109E-03
            1320     2.64931E-03     112.240E-03     3.10195E+06    -9.42931E+06     7.48710E+06     -8.7689E+06    -19.8472E-03     39.1914E-03    -19.3442E-03     6.77075E-03    -19.8297E-03     39.1290E-03    -19.2976E-03     6.65220E-03
            1321     3.53161E-03     112.256E-03     2.88411E+06    -7.74369E+06     10.7568E+06    -10.1996E+06    -20.3650E-03     39.9285E-03    -19.5635E-03     9.02736E-03    -20.3562E-03     39.8704E-03    -19.5027E-03     8.88817E-03
            1322     4.41347E-03     112.278E-03     2.09707E+06    -7.57624E+06     13.7172E+06    -11.5596E+06    -20.9480E-03     40.7672E-03    -19.8192E-03     11.4481E-03    -20.9482E-03     40.7073E-03    -19.7427E-03     11.2888E-03
            1323     5.29474E-03     112.304E-03     1.74865E+06    -6.93255E+06     15.9186E+06    -13.9321E+06    -21.5461E-03     41.6414E-03    -20.0953E-03     14.1791E-03    -21.5529E-03     41.5827E-03    -20.0082E-03     13.9865E-03
            1324     6.17541E-03     112.337E-03     1.24085E+06    -5.68173E+06     18.0795E+06    -15.8167E+06    -22.0779E-03     42.4607E-03    -20.3828E-03     17.3932E-03    -22.0932E-03     42.4067E-03    -20.2860E-03     17.1735E-03
            1325     7.05570E-03     112.376E-03    -696.890E+03    -6.40808E+06     20.0212E+06    -16.3165E+06    -22.4815E-03     43.1528E-03    -20.6713E-03     21.2747E-03    -22.5094E-03     43.0962E-03    -20.5609E-03     21.0460E-03
            1326     7.93562E-03     112.424E-03    -3.32894E+06    -5.44594E+06     21.9313E+06    -16.4329E+06    -22.7185E-03     43.6599E-03    -20.9415E-03     26.0893E-03    -22.7651E-03     43.6103E-03    -20.8191E-03     25.8568E-03
            1327     8.81562E-03     112.480E-03    -4.68326E+06    -3.89330E+06     24.4493E+06    -17.6040E+06    -22.7864E-03     43.9709E-03    -21.1845E-03     32.2272E-03    -22.8472E-03     43.9285E-03    -21.0498E-03     31.9781E-03
            1328     9.69552E-03     112.549E-03    -5.25542E+06    -2.99765E+06     27.4593E+06     -18.591E+06    -22.7582E-03     44.1550E-03    -21.3968E-03     40.3802E-03    -22.8289E-03     44.1147E-03    -21.2476E-03     40.1180E-03
            1329     10.5758E-03     112.632E-03    -6.22694E+06     363.108E+03     31.4523E+06    -17.3122E+06    -22.8343E-03     44.4169E-03    -21.5826E-03     51.6608E-03    -22.9213E-03     44.3897E-03    -21.4168E-03     51.4167E-03
            1330     11.4563E-03     112.733E-03    -7.56846E+06     5.14117E+06     35.5150E+06    -13.6998E+06    -23.5258E-03     45.2866E-03    -21.7607E-03     67.3747E-03    -23.6327E-03     45.2800E-03    -21.5796E-03     67.1800E-03
            1331     12.3372E-03     112.856E-03    -9.09314E+06     933.191E+03     39.7893E+06    -10.9169E+06    -25.6103E-03     47.6058E-03    -21.9956E-03     88.3821E-03    -25.7269E-03     47.5769E-03    -21.7848E-03     88.2236E-03
            1332     13.2148E-03     113.003E-03    -6.19744E+06    -1.34437E+06     45.8710E+06    -7.46156E+06    -30.8138E-03     53.1942E-03    -22.3804E-03     112.939E-03    -30.9389E-03     53.1595E-03    -22.1402E-03     112.805E-03
            1333     14.0851E-03     113.177E-03    -3.77819E+06    -3.36699E+06     46.3232E+06    -10.2581E+06    -40.4429E-03     63.4763E-03    -23.0334E-03     149.711E-03    -40.6502E-03     63.5245E-03    -22.7914E-03     149.440E-03
            1334     14.9493E-03     113.399E-03    -10.5736E+06    -6.54174E+06     39.0539E+06    -11.8243E+06    -52.9524E-03     76.9582E-03    -24.0058E-03     205.890E-03    -53.5781E-03     77.4098E-03    -23.7857E-03     205.283E-03
            1335     15.8121E-03     113.687E-03    -14.5286E+06    -27.7853E+06     27.7734E+06    -13.5777E+06    -61.0387E-03     86.1748E-03    -25.1362E-03     261.962E-03    -62.8169E-03     87.7221E-03    -24.9359E-03     260.878E-03
            1336     16.6694E-03     114.022E-03    -8.50163E+06    -5.22542E+06     19.5693E+06    -26.0417E+06    -44.6290E-03     70.1966E-03    -25.5676E-03     313.737E-03    -49.2525E-03     74.7251E-03    -25.4499E-03     313.874E-03
            1337     880.320E-06     113.209E-03     18.8766E+06    -6.61906E+06     19.6030E+06    -2.20674E+06    -22.7389E-03     45.2465E-03    -22.5076E-03     1.49793E-03    -22.6640E-03     45.1571E-03    -22.4274E-03     1.46719E-03
            1338     1.76041E-03     113.217E-03     18.0939E+06    -4.92605E+06     19.8604E+06    -4.64920E+06    -23.0601E-03     45.7864E-03    -22.7263E-03     2.42376E-03    -22.9922E-03     45.7062E-03    -22.6461E-03     2.35936E-03
            1339     2.63999E-03     113.229E-03     16.8230E+06    -4.33602E+06     20.9779E+06    -6.44664E+06    -23.5168E-03     46.4577E-03    -22.9409E-03     3.46915E-03    -23.4579E-03     46.3808E-03    -22.8542E-03     3.37917E-03
            1340     3.51914E-03     113.246E-03     15.9125E+06    -4.68380E+06     23.1394E+06    -7.22953E+06    -24.1167E-03     47.3199E-03    -23.2032E-03     4.59933E-03    -24.0653E-03     47.2396E-03    -23.1038E-03     4.49657E-03
            1341     4.39758E-03     113.268E-03     15.6312E+06    -3.31644E+06     26.3418E+06    -8.16929E+06    -24.8608E-03     48.3774E-03    -23.5166E-03     5.83709E-03    -24.8178E-03     48.3001E-03    -23.4027E-03     5.71916E-03
            1342     5.27522E-03     113.296E-03     14.5720E+06    -2.17226E+06     29.8994E+06    -9.70461E+06    -25.6997E-03     49.5820E-03    -23.8823E-03     7.25282E-03    -25.6694E-03     49.5072E-03    -23.7508E-03     7.11161E-03
            1343     6.15205E-03     113.329E-03     12.3758E+06    -2.48381E+06     31.4403E+06    -10.5409E+06    -26.5717E-03     50.8550E-03    -24.2833E-03     8.92274E-03    -26.5549E-03     50.7801E-03    -24.1405E-03     8.76690E-03
            1344     7.02802E-03     113.369E-03     10.4233E+06    -4.34919E+06     32.7501E+06    -10.4539E+06    -27.4517E-03     52.1699E-03    -24.7181E-03     10.9195E-03    -27.4450E-03     52.0872E-03    -24.5632E-03     10.7606E-03
            1345     7.90318E-03     113.417E-03     9.56902E+06    -2.75018E+06     36.3062E+06    -10.8761E+06    -28.2861E-03     53.4695E-03    -25.1834E-03     13.4016E-03    -28.2925E-03     53.3918E-03    -25.0117E-03     13.2326E-03
            1346     8.77728E-03     113.474E-03     8.19179E+06    -208.529E+03     39.8319E+06    -11.8296E+06    -29.0169E-03     54.6828E-03    -25.6659E-03     16.6223E-03    -29.0407E-03     54.6157E-03    -25.4783E-03     16.4363E-03
            1347     9.65071E-03     113.542E-03     5.18213E+06    -1.25840E+06     41.7240E+06    -11.9094E+06    -29.5109E-03     55.6653E-03    -26.1544E-03     20.9877E-03    -29.5530E-03     55.5957E-03    -25.9515E-03     20.7966E-03
            1348     10.5237E-03     113.624E-03     2.12943E+06    -69.2452E+03     43.5315E+06    -11.2071E+06    -29.5222E-03     56.1469E-03    -26.6247E-03     27.1036E-03    -29.5859E-03     56.0859E-03    -26.4100E-03     26.9192E-03
            1349     11.3968E-03     113.722E-03     333.091E+03     624.216E+03     43.6889E+06    -8.17187E+06    -28.9363E-03     55.9781E-03    -27.0418E-03     36.0783E-03    -29.0118E-03     55.9235E-03    -26.8247E-03     35.9347E-03
            1350     12.2702E-03     113.843E-03     222.082E+03     1.35751E+06     48.9552E+06    -5.35108E+06    -28.3680E-03     55.7960E-03    -27.4280E-03     49.8742E-03    -28.4533E-03     55.7378E-03    -27.1855E-03     49.7723E-03
            1351     13.1449E-03     113.989E-03     2.65012E+06    -1.69238E+06     56.6087E+06    -7.28415E+06    -29.8802E-03     57.7176E-03    -27.8374E-03     71.0623E-03    -29.9625E-03     57.6336E-03    -27.5558E-03     70.9375E-03
            1352     14.0168E-03     114.170E-03     5.82602E+06    -399.286E+03     55.6452E+06    -4.06836E+06    -35.7946E-03     64.1494E-03    -28.3548E-03     105.176E-03    -35.8906E-03     64.0999E-03    -28.0845E-03     105.059E-03
            1353     14.8819E-03     114.395E-03     6.64136E+06    -4.54316E+06     56.1566E+06     922.444E+03    -45.9995E-03     75.1794E-03    -29.1799E-03     156.199E-03    -46.2521E-03     75.2746E-03    -28.9021E-03     155.980E-03
            1354     15.7354E-03     114.685E-03     18.7609E+06    -10.6386E+06     61.1577E+06    -9.45486E+06    -47.2127E-03     77.2486E-03    -30.0358E-03     205.165E-03    -47.8337E-03     77.7234E-03    -29.7418E-03     204.594E-03
            1355     16.6023E-03     115.006E-03     20.9586E+06     1.66107E+06     42.4968E+06    -14.5623E+06    -12.6949E-03     42.3171E-03    -29.6222E-03     223.167E-03    -13.8825E-03     43.4622E-03    -29.4425E-03     223.200E-03
            1356     876.183E-06     114.205E-03     30.0882E+06    -2.39220E+06     30.4166E+06    -1.61567E+06    -27.6210E-03     55.3170E-03    -27.6959E-03    -115.721E-06    -27.5124E-03     55.2161E-03    -27.5840E-03    -138.650E-06
            1357     1.75170E-03     114.213E-03     29.2708E+06    -1.22058E+06     31.2046E+06    -2.40181E+06    -27.9908E-03     55.7452E-03    -27.7544E-03    -225.102E-06    -27.8893E-03     55.6501E-03    -27.6391E-03    -259.997E-06
            1358     2.62702E-03     114.226E-03     27.8849E+06    -1.30574E+06     32.7033E+06    -3.02280E+06    -28.4960E-03     56.4574E-03    -27.9614E-03    -306.537E-06    -28.4036E-03     56.3617E-03    -27.8364E-03    -351.470E-06
            1359     3.50169E-03     114.244E-03     26.5690E+06    -2.17478E+06     34.4553E+06    -3.94463E+06    -29.2187E-03     57.4687E-03    -28.2500E-03    -361.210E-06    -29.1342E-03     57.3681E-03    -28.1131E-03    -420.326E-06
            1360     4.37556E-03     114.267E-03     25.2920E+06    -851.184E+03     36.3529E+06    -4.60813E+06    -30.1485E-03     58.7662E-03    -28.6177E-03    -422.586E-06    -30.0753E-03     58.6713E-03    -28.4714E-03    -492.848E-06
            1361     5.24845E-03     114.296E-03     23.7286E+06     118.079E+03     39.3256E+06    -4.47242E+06    -31.3133E-03     60.3900E-03    -29.0767E-03    -518.657E-06    -31.2539E-03     60.2980E-03    -28.9147E-03    -590.182E-06
            1362     6.12005E-03     114.331E-03     21.8832E+06    -628.935E+03     43.3675E+06    -4.41531E+06    -32.7337E-03     62.3695E-03    -29.6357E-03    -686.538E-06    -32.6888E-03     62.2704E-03    -29.4497E-03    -760.990E-06
            1363     6.99011E-03     114.372E-03     20.3493E+06    -2.46396E+06     46.5853E+06    -5.03023E+06    -34.3471E-03     64.6339E-03    -30.2869E-03    -919.643E-06    -34.3124E-03     64.5232E-03    -30.0799E-03    -1.00654E-03
            1364     7.85833E-03     114.421E-03     19.0781E+06    -577.367E+03     49.2065E+06    -5.77809E+06    -36.0725E-03     67.0940E-03    -31.0216E-03    -1.14737E-03    -36.0515E-03     66.9906E-03    -30.8024E-03    -1.24929E-03
            1365     8.72480E-03     114.479E-03     17.4389E+06     779.164E+03     51.6325E+06    -5.10391E+06    -37.8840E-03     69.7303E-03    -31.8463E-03    -1.32389E-03    -37.8777E-03     69.6323E-03    -31.6146E-03    -1.42334E-03
            1366     9.58904E-03     114.549E-03     15.6871E+06     35.4499E+03     53.5172E+06    -4.25140E+06    -39.6205E-03     72.3774E-03    -32.7569E-03    -1.43992E-03    -39.6260E-03     72.2750E-03    -32.5121E-03    -1.53520E-03
            1367     10.4510E-03     114.630E-03     13.8186E+06    -106.826E+03     55.1604E+06    -3.61373E+06    -40.8030E-03     74.5315E-03    -33.7285E-03    -1.30342E-03    -40.8218E-03     74.4282E-03    -33.4726E-03    -1.39696E-03
            1368     11.3110E-03     114.727E-03     12.6573E+06    -1.41572E+06     55.7547E+06    -2.71160E+06    -40.8630E-03     75.5736E-03    -34.7106E-03    -223.608E-06    -40.8888E-03     75.4635E-03    -34.4481E-03    -310.397E-06
            1369     12.1709E-03     114.843E-03     14.0081E+06    -392.714E+03     59.9603E+06    -1.71463E+06    -39.6054E-03     75.2708E-03    -35.6653E-03     3.61401E-03    -39.6347E-03     75.1563E-03    -35.3853E-03     3.53881E-03
            1370     13.0305E-03     114.984E-03     13.1911E+06     2.88609E+06     67.0804E+06    -2.27542E+06    -37.9859E-03     74.5775E-03    -36.5916E-03     12.5516E-03    -38.0375E-03     74.4683E-03    -36.2796E-03     12.4714E-03
            1371     13.8918E-03     115.159E-03     10.7822E+06    -7.15292E+06     60.0407E+06    -1.15270E+06    -38.1667E-03     75.6891E-03    -37.5224E-03     30.6995E-03    -38.2113E-03     75.5441E-03    -37.2274E-03     30.6332E-03
            1372     14.7492E-03     115.385E-03     21.0559E+06    -8.66460E+06     66.9156E+06     546.761E+03    -38.3588E-03     76.9482E-03    -38.5895E-03     64.2831E-03    -38.3931E-03     76.8061E-03    -38.2729E-03     64.2041E-03
            1373     15.6056E-03     115.670E-03     21.2345E+06     6.96978E+06     72.6282E+06    -7.35072E+06    -22.0354E-03     61.2066E-03    -39.1713E-03     94.7547E-03    -22.1589E-03     61.2064E-03    -38.8490E-03     94.5528E-03
            1374     16.4896E-03     115.953E-03     9.30016E+06     4.84276E+06     36.5120E+06    -4.31430E+06     9.69809E-03     28.5813E-03    -38.2794E-03     84.1453E-03     9.58889E-03     28.6245E-03    -38.1174E-03     84.0578E-03
            1375     16.6503E-03     57.8277E-03    -5.62550E+06     184.492E+06     91.7852E+06     217.450E+03    -42.4490E-03     69.3558E-03    -26.9068E-03     333.547E-03    -58.4400E-03     85.7156E-03    -26.7072E-03     342.612E-03
            1376     15.7727E-03     57.4497E-03    -8.82249E+06     129.874E+06     19.5726E+06     22.3612E+03    -45.0143E-03     71.6681E-03    -26.6538E-03     317.419E-03    -54.9827E-03     82.0095E-03    -26.7315E-03     318.909E-03
            1377     14.8959E-03     57.2079E-03    -9.10908E+06     47.6266E+06    -28.7839E+06     372.456E+03    -34.9301E-03     61.4795E-03    -26.5493E-03     183.557E-03    -36.7565E-03     63.5261E-03    -26.7491E-03     183.283E-03
            1378     14.0200E-03     57.0988E-03    -8.17944E+06    -6.74357E+06    -24.6982E+06     695.401E+03    -28.7776E-03     55.4344E-03    -26.6567E-03     95.5221E-03    -29.1487E-03     55.8240E-03    -26.7586E-03     95.2989E-03
            1379     13.1433E-03     57.0265E-03    -7.48556E+06    -25.5125E+06    -11.0956E+06     479.123E+03    -28.1624E-03     54.9198E-03    -26.7574E-03     79.1174E-03    -28.3233E-03     54.9957E-03    -26.7650E-03     78.9472E-03
            1380     12.2672E-03     56.9484E-03    -7.49393E+06    -36.9751E+06    -3.81070E+06     355.700E+03    -28.2487E-03     55.0647E-03    -26.8160E-03     79.1301E-03    -28.3493E-03     55.0185E-03    -26.7706E-03     78.9906E-03
            1381     11.3909E-03     56.8760E-03    -7.73686E+06    -55.0790E+06    -4.70196E+06     442.046E+03    -28.0749E-03     54.9173E-03    -26.8425E-03     72.2343E-03    -28.1083E-03     54.7414E-03    -26.7749E-03     72.1244E-03
            1382     10.5146E-03     56.8111E-03    -7.93289E+06    -70.2573E+06    -4.82540E+06     519.658E+03    -27.9152E-03     54.7815E-03    -26.8663E-03     65.4998E-03    -27.8991E-03     54.5018E-03    -26.7770E-03     65.4165E-03
            1383     9.63842E-03     56.7515E-03    -8.35773E+06    -76.6636E+06    -649.833E+03     469.286E+03    -27.7472E-03     54.6455E-03    -26.8982E-03     60.0100E-03    -27.7126E-03     54.3109E-03    -26.7782E-03     59.9460E-03
            1384     8.76217E-03     56.6971E-03    -9.15878E+06    -80.7978E+06     1.03163E+06     437.462E+03    -27.5810E-03     54.4968E-03    -26.9159E-03     54.3617E-03    -27.5352E-03     54.1287E-03    -26.7803E-03     54.3129E-03
            1385     7.88594E-03     56.6481E-03    -10.2107E+06    -85.7997E+06     327.004E+03     375.487E+03    -27.4432E-03     54.3669E-03    -26.9237E-03     48.6962E-03    -27.3865E-03     53.9685E-03    -26.7829E-03     48.6587E-03
            1386     7.00970E-03     56.6045E-03    -11.4441E+06    -90.9479E+06    -581.445E+03     308.726E+03    -27.3190E-03     54.2502E-03    -26.9311E-03     43.0529E-03    -27.2543E-03     53.8237E-03    -26.7856E-03     43.0242E-03
            1387     6.13347E-03     56.5662E-03    -12.8130E+06    -94.2288E+06    -2.81427E+06     272.486E+03    -27.2071E-03     54.1368E-03    -26.9297E-03     37.4463E-03    -27.1376E-03     53.6955E-03    -26.7886E-03     37.4246E-03
            1388     5.25724E-03     56.5333E-03    -14.1972E+06    -98.8538E+06    -5.89152E+06     238.748E+03    -27.1202E-03     54.0463E-03    -26.9261E-03     31.8773E-03    -27.0439E-03     53.5858E-03    -26.7917E-03     31.8609E-03
            1389     4.38103E-03     56.5056E-03    -15.5330E+06    -102.965E+06    -8.70073E+06     186.766E+03    -27.0481E-03     53.9709E-03    -26.9228E-03     26.4139E-03    -26.9667E-03     53.4941E-03    -26.7945E-03     26.4016E-03
            1390     3.50480E-03     56.4831E-03    -16.8026E+06    -104.430E+06    -11.8289E+06     125.839E+03    -26.9860E-03     53.9002E-03    -26.9142E-03     21.0687E-03    -26.9031E-03     53.4212E-03    -26.7975E-03     21.0594E-03
            1391     2.62860E-03     56.4655E-03    -17.9080E+06    -106.506E+06    -14.9749E+06     80.5702E+03    -26.9460E-03     53.8520E-03    -26.9060E-03     15.7691E-03    -26.8603E-03     53.3681E-03    -26.8005E-03     15.7624E-03
            1392     1.75240E-03     56.4531E-03    -18.7061E+06    -107.830E+06    -17.4154E+06     52.1208E+03    -26.9162E-03     53.8159E-03    -26.8996E-03     10.5896E-03    -26.8286E-03     53.3295E-03    -26.8032E-03     10.5853E-03
            1393     876.185E-06     56.4454E-03    -19.1730E+06    -108.616E+06    -18.8715E+06     47.8026E+03    -26.9085E-03     53.7994E-03    -26.8908E-03     5.74667E-03    -26.8197E-03     53.3116E-03    -26.7999E-03     5.74464E-03
            1394     16.6501E-03     56.8282E-03    -5.54847E+06     184.399E+06     91.4682E+06     116.285E+03    -42.5663E-03     69.4618E-03    -26.8955E-03     334.191E-03    -58.5833E-03     85.8485E-03    -26.6975E-03     343.257E-03
            1395     15.7727E-03     56.4503E-03    -8.68602E+06     129.753E+06     19.4657E+06     554.486E+03    -44.9088E-03     71.5582E-03    -26.6494E-03     318.228E-03    -54.8950E-03     81.9178E-03    -26.7277E-03     319.734E-03
            1396     14.8961E-03     56.2073E-03    -9.39670E+06     47.7562E+06    -28.6260E+06     620.377E+03    -34.9466E-03     61.4997E-03    -26.5531E-03     183.606E-03    -36.7745E-03     63.5468E-03    -26.7518E-03     183.336E-03
            1397     14.0195E-03     56.0987E-03    -8.41633E+06    -6.65029E+06    -24.7426E+06     306.429E+03    -28.8549E-03     55.5117E-03    -26.6568E-03     95.3716E-03    -29.2269E-03     55.9020E-03    -26.7587E-03     95.1425E-03
            1398     13.1437E-03     56.0261E-03    -7.39738E+06    -25.6444E+06    -11.2088E+06     280.564E+03    -28.1715E-03     54.9255E-03    -26.7540E-03     79.2101E-03    -28.3315E-03     55.0007E-03    -26.7621E-03     79.0375E-03
            1399     12.2672E-03     55.9483E-03    -7.21638E+06    -36.8877E+06    -3.67472E+06     476.957E+03    -28.2366E-03     55.0502E-03    -26.8136E-03     79.2327E-03    -28.3361E-03     55.0038E-03    -26.7680E-03     79.0950E-03
            1400     11.3909E-03     55.8757E-03    -7.57566E+06    -55.1039E+06    -4.56536E+06     464.962E+03    -28.0883E-03     54.9286E-03    -26.8404E-03     72.2640E-03    -28.1210E-03     54.7521E-03    -26.7723E-03     72.1545E-03
            1401     10.5147E-03     55.8109E-03    -7.83305E+06    -70.1751E+06    -4.72953E+06     449.578E+03    -27.9180E-03     54.7811E-03    -26.8631E-03     65.4718E-03    -27.9017E-03     54.5015E-03    -26.7736E-03     65.3876E-03
            1402     9.63844E-03     55.7512E-03    -8.26638E+06    -76.5425E+06    -594.728E+03     426.230E+03    -27.7459E-03     54.6403E-03    -26.8944E-03     59.9816E-03    -27.7111E-03     54.3061E-03    -26.7744E-03     59.9171E-03
            1403     8.76222E-03     55.6969E-03    -9.09272E+06    -80.7251E+06     1.00625E+06     387.694E+03    -27.5817E-03     54.4930E-03    -26.9113E-03     54.3480E-03    -27.5356E-03     54.1252E-03    -26.7760E-03     54.2985E-03
            1404     7.88597E-03     55.6479E-03    -10.1667E+06    -85.6762E+06     292.590E+03     363.025E+03    -27.4404E-03     54.3592E-03    -26.9187E-03     48.6856E-03    -27.3836E-03     53.9613E-03    -26.7783E-03     48.6480E-03
            1405     7.00974E-03     55.6043E-03    -11.4304E+06    -90.8253E+06    -607.083E+03     298.882E+03    -27.3158E-03     54.2418E-03    -26.9260E-03     43.0402E-03    -27.2512E-03     53.8159E-03    -26.7807E-03     43.0114E-03
            1406     6.13350E-03     55.5660E-03    -12.8004E+06    -94.1464E+06    -2.77856E+06     228.507E+03    -27.2044E-03     54.1290E-03    -26.9246E-03     37.4330E-03    -27.1350E-03     53.6880E-03    -26.7834E-03     37.4107E-03
            1407     5.25728E-03     55.5331E-03    -14.1393E+06    -98.7642E+06    -5.87156E+06     186.583E+03    -27.1158E-03     54.0364E-03    -26.9206E-03     31.8680E-03    -27.0394E-03     53.5762E-03    -26.7862E-03     31.8509E-03
            1408     4.38105E-03     55.5054E-03    -15.4698E+06    -102.873E+06    -8.69883E+06     157.364E+03    -27.0444E-03     53.9613E-03    -26.9169E-03     26.4085E-03    -26.9629E-03     53.4849E-03    -26.7888E-03     26.3958E-03
            1409     3.50484E-03     55.4829E-03    -16.7685E+06    -104.342E+06    -11.8272E+06     125.537E+03    -26.9810E-03     53.8890E-03    -26.9080E-03     21.0610E-03    -26.8981E-03     53.4104E-03    -26.7915E-03     21.0518E-03
            1410     2.62861E-03     55.4654E-03    -17.8768E+06    -106.425E+06    -14.9696E+06     86.4017E+03    -26.9377E-03     53.8378E-03    -26.9001E-03     15.7656E-03    -26.8520E-03     53.3542E-03    -26.7947E-03     15.7590E-03
            1411     1.75240E-03     55.4529E-03    -18.7082E+06    -107.765E+06    -17.4039E+06     48.4410E+03    -26.9112E-03     53.8052E-03    -26.8940E-03     10.5788E-03    -26.8236E-03     53.3192E-03    -26.7977E-03     10.5745E-03
            1412     876.204E-06     55.4452E-03    -19.2153E+06    -108.567E+06    -18.8623E+06     44.6459E+03    -26.9055E-03     53.7877E-03    -26.8822E-03     5.76291E-03    -26.8169E-03     53.3003E-03    -26.7912E-03     5.76082E-03
            1413     16.6484E-03     55.8266E-03    -5.91714E+06     184.003E+06     90.9155E+06    -70.9410E+03    -42.3127E-03     69.2264E-03    -26.9137E-03     333.852E-03    -58.3249E-03     85.6072E-03    -26.7174E-03     342.975E-03
            1414     15.7726E-03     55.4502E-03    -9.52792E+06     129.390E+06     19.2575E+06     426.376E+03    -45.2406E-03     71.9055E-03    -26.6650E-03     317.905E-03    -55.2133E-03     82.2479E-03    -26.7425E-03     319.394E-03
            1415     14.8959E-03     55.2071E-03    -9.19438E+06     47.8953E+06    -27.9018E+06     419.643E+03    -35.0408E-03     61.5995E-03    -26.5587E-03     183.796E-03    -36.8730E-03     63.6500E-03    -26.7543E-03     183.521E-03
            1416     14.0201E-03     55.0982E-03    -7.59335E+06    -6.71790E+06    -24.5017E+06     214.617E+03    -28.7989E-03     55.4584E-03    -26.6595E-03     95.4721E-03    -29.1665E-03     55.8463E-03    -26.7613E-03     95.2429E-03
            1417     13.1434E-03     55.0261E-03    -7.34319E+06    -25.7822E+06    -11.3968E+06     410.987E+03    -28.2221E-03     54.9786E-03    -26.7564E-03     79.3360E-03    -28.3815E-03     55.0534E-03    -26.7654E-03     79.1648E-03
            1418     12.2671E-03     54.9479E-03    -7.45584E+06    -36.9450E+06    -3.92635E+06     433.458E+03    -28.3109E-03     55.1227E-03    -26.8118E-03     79.1697E-03    -28.4112E-03     55.0768E-03    -26.7671E-03     79.0310E-03
            1419     11.3910E-03     54.8754E-03    -7.50740E+06    -54.9917E+06    -4.64594E+06     482.824E+03    -28.1011E-03     54.9363E-03    -26.8352E-03     72.1824E-03    -28.1335E-03     54.7603E-03    -26.7678E-03     72.0731E-03
            1420     10.5147E-03     54.8106E-03    -7.75769E+06    -70.1109E+06    -4.81111E+06     461.559E+03    -27.9064E-03     54.7638E-03    -26.8575E-03     65.4368E-03    -27.8896E-03     54.4845E-03    -26.7686E-03     65.3529E-03
            1421     9.63851E-03     54.7510E-03    -8.30577E+06    -76.4142E+06    -668.333E+03     414.571E+03    -27.7369E-03     54.6261E-03    -26.8893E-03     59.9698E-03    -27.7022E-03     54.2927E-03    -26.7698E-03     59.9052E-03
            1422     8.76224E-03     54.6966E-03    -9.17756E+06    -80.6719E+06     935.404E+03     371.818E+03    -27.5777E-03     54.4842E-03    -26.9065E-03     54.3401E-03    -27.5320E-03     54.1168E-03    -26.7715E-03     54.2904E-03
            1423     7.88602E-03     54.6477E-03    -10.2315E+06    -85.5866E+06     229.918E+03     337.005E+03    -27.4385E-03     54.3522E-03    -26.9136E-03     48.6759E-03    -27.3821E-03     53.9549E-03    -26.7735E-03     48.6381E-03
            1424     7.00977E-03     54.6041E-03    -11.4199E+06    -90.6470E+06    -600.671E+03     244.269E+03    -27.3135E-03     54.2341E-03    -26.9206E-03     43.0315E-03    -27.2491E-03     53.8091E-03    -26.7756E-03     43.0020E-03
            1425     6.13355E-03     54.5658E-03    -12.7198E+06    -94.0779E+06    -2.82160E+06     163.840E+03    -27.1996E-03     54.1183E-03    -26.9188E-03     37.4220E-03    -27.1298E-03     53.6776E-03    -26.7780E-03     37.3989E-03
            1426     5.25730E-03     54.5329E-03    -14.0949E+06    -98.7211E+06    -5.91722E+06     167.297E+03    -27.1101E-03     54.0250E-03    -26.9148E-03     31.8623E-03    -27.0335E-03     53.5650E-03    -26.7808E-03     31.8450E-03
            1427     4.38108E-03     54.5052E-03    -15.4772E+06    -102.804E+06    -8.72067E+06     166.486E+03    -27.0393E-03     53.9506E-03    -26.9113E-03     26.4056E-03    -26.9579E-03     53.4745E-03    -26.7834E-03     26.3930E-03
            1428     3.50485E-03     54.4827E-03    -16.7811E+06    -104.251E+06    -11.8259E+06     130.678E+03    -26.9775E-03     53.8796E-03    -26.9021E-03     21.0562E-03    -26.8947E-03     53.4015E-03    -26.7858E-03     21.0470E-03
            1429     2.62864E-03     54.4652E-03    -17.8846E+06    -106.349E+06    -14.9435E+06     90.6146E+03    -26.9351E-03     53.8284E-03    -26.8934E-03     15.7657E-03    -26.8495E-03     53.3452E-03    -26.7879E-03     15.7592E-03
            1430     1.75242E-03     54.4527E-03    -18.6913E+06    -107.695E+06    -17.3907E+06     61.3322E+03    -26.9077E-03     53.7929E-03    -26.8852E-03     10.5757E-03    -26.8202E-03     53.3071E-03    -26.7889E-03     10.5715E-03
            1431     876.207E-06     54.4451E-03    -19.2017E+06    -108.510E+06    -18.8748E+06     20.1552E+03    -26.8905E-03     53.7673E-03    -26.8768E-03     5.75578E-03    -26.8019E-03     53.2801E-03    -26.7860E-03     5.75338E-03
            1432     16.6494E-03     54.8263E-03    -5.91718E+06     184.091E+06     91.0591E+06     307.293E+03    -42.1652E-03     69.0744E-03    -26.9092E-03     333.458E-03    -58.1556E-03     85.4333E-03    -26.7122E-03     342.573E-03
            1433     15.7721E-03     54.4497E-03    -9.03051E+06     129.296E+06     18.8605E+06    -128.679E+03    -45.0182E-03     71.6829E-03    -26.6647E-03     317.734E-03    -55.0020E-03     82.0390E-03    -26.7448E-03     319.251E-03
            1434     14.8962E-03     54.2066E-03    -8.68132E+06     47.3296E+06    -28.3905E+06    -19.3871E+03    -35.0973E-03     61.6591E-03    -26.5617E-03     183.639E-03    -36.9256E-03     63.7068E-03    -26.7597E-03     183.355E-03
            1435     14.0192E-03     54.0984E-03    -7.74646E+06    -6.79240E+06    -24.4276E+06     525.834E+03    -28.8815E-03     55.5424E-03    -26.6609E-03     95.3099E-03    -29.2498E-03     55.9299E-03    -26.7619E-03     95.0837E-03
            1436     13.1434E-03     54.0253E-03    -7.29132E+06    -25.3365E+06    -11.1420E+06     602.849E+03    -28.2892E-03     55.0412E-03    -26.7520E-03     79.0061E-03    -28.4491E-03     55.1176E-03    -26.7604E-03     78.8368E-03
            1437     12.2674E-03     53.9477E-03    -7.40147E+06    -36.9131E+06    -3.98825E+06     466.474E+03    -28.2871E-03     55.0909E-03    -26.8038E-03     78.9754E-03    -28.3869E-03     55.0450E-03    -26.7595E-03     78.8372E-03
            1438     11.3910E-03     53.8751E-03    -7.79022E+06    -55.1108E+06    -4.95914E+06     450.756E+03    -28.0713E-03     54.8991E-03    -26.8278E-03     72.1708E-03    -28.1045E-03     54.7233E-03    -26.7614E-03     72.0612E-03
            1439     10.5148E-03     53.8104E-03    -7.92298E+06    -70.0192E+06    -4.89998E+06     473.253E+03    -27.8891E-03     54.7411E-03    -26.8520E-03     65.4434E-03    -27.8731E-03     54.4626E-03    -26.7635E-03     65.3597E-03
            1440     9.63852E-03     53.7508E-03    -8.37659E+06    -76.3162E+06    -698.499E+03     442.927E+03    -27.7293E-03     54.6138E-03    -26.8846E-03     59.9771E-03    -27.6951E-03     54.2810E-03    -26.7653E-03     59.9129E-03
            1441     8.76231E-03     53.6964E-03    -9.26095E+06    -80.5564E+06     943.388E+03     378.299E+03    -27.5740E-03     54.4760E-03    -26.9020E-03     54.3332E-03    -27.5288E-03     54.1093E-03    -26.7671E-03     54.2837E-03
            1442     7.88604E-03     53.6475E-03    -10.3069E+06    -85.4078E+06     93.3361E+03     232.940E+03    -27.4359E-03     54.3440E-03    -26.9081E-03     48.6719E-03    -27.3798E-03     53.9479E-03    -26.7689E-03     48.6327E-03
            1443     7.00982E-03     53.6039E-03    -11.4164E+06    -90.5296E+06    -798.956E+03     116.337E+03    -27.3097E-03     54.2243E-03    -26.9145E-03     43.0252E-03    -27.2451E-03     53.8001E-03    -26.7707E-03     42.9941E-03
            1444     6.13356E-03     53.5657E-03    -12.7304E+06    -94.0869E+06    -2.90947E+06     142.817E+03    -27.1952E-03     54.1085E-03    -26.9134E-03     37.4142E-03    -27.1252E-03     53.6679E-03    -26.7730E-03     37.3909E-03
            1445     5.25733E-03     53.5327E-03    -14.1308E+06    -98.7052E+06    -5.94599E+06     190.312E+03    -27.1061E-03     54.0156E-03    -26.9096E-03     31.8541E-03    -27.0296E-03     53.5558E-03    -26.7757E-03     31.8372E-03
            1446     4.38110E-03     53.5051E-03    -15.4917E+06    -102.722E+06    -8.73022E+06     177.011E+03    -27.0332E-03     53.9391E-03    -26.9060E-03     26.3991E-03    -26.9519E-03     53.4635E-03    -26.7782E-03     26.3867E-03
            1447     3.50487E-03     53.4825E-03    -16.7802E+06    -104.149E+06    -11.8252E+06     121.557E+03    -26.9736E-03     53.8703E-03    -26.8966E-03     21.0518E-03    -26.8911E-03     53.3927E-03    -26.7804E-03     21.0425E-03
            1448     2.62864E-03     53.4650E-03    -17.8812E+06    -106.285E+06    -14.9370E+06     80.3955E+03    -26.9329E-03     53.8199E-03    -26.8871E-03     15.7625E-03    -26.8474E-03     53.3370E-03    -26.7817E-03     15.7559E-03
            1449     1.75243E-03     53.4525E-03    -18.6900E+06    -107.636E+06    -17.3855E+06     58.7759E+03    -26.9047E-03     53.7816E-03    -26.8769E-03     10.5798E-03    -26.8172E-03     53.2961E-03    -26.7807E-03     10.5755E-03
            1450     876.229E-06     53.4449E-03    -19.1538E+06    -108.426E+06    -18.8571E+06     38.2133E+03    -26.8786E-03     53.7481E-03    -26.8694E-03     5.73016E-03    -26.7899E-03     53.2613E-03    -26.7787E-03     5.72802E-03
            1451     16.6501E-03     53.8287E-03    -4.64228E+06     184.466E+06     91.3698E+06     566.193E+03    -42.4438E-03     69.3530E-03    -26.9092E-03     334.100E-03    -58.4599E-03     85.7425E-03    -26.7131E-03     343.181E-03
            1452     15.7725E-03     53.4488E-03    -7.77409E+06     129.797E+06     19.1652E+06     227.653E+03    -45.2550E-03     71.9106E-03    -26.6556E-03     317.998E-03    -55.2600E-03     82.2932E-03    -26.7367E-03     319.469E-03
            1453     14.8956E-03     53.2067E-03    -8.78621E+06     46.8807E+06    -28.6965E+06     347.377E+03    -35.0880E-03     61.6338E-03    -26.5458E-03     182.894E-03    -36.9074E-03     63.6716E-03    -26.7446E-03     182.614E-03
            1454     14.0203E-03     53.0975E-03    -8.23381E+06    -6.56075E+06    -24.5585E+06     557.428E+03    -28.8515E-03     55.4944E-03    -26.6429E-03     94.9777E-03    -29.2216E-03     55.8832E-03    -26.7442E-03     94.7521E-03
            1455     13.1441E-03     53.0253E-03    -7.52880E+06    -25.4259E+06    -11.3567E+06     510.776E+03    -28.1680E-03     54.9050E-03    -26.7370E-03     79.0170E-03    -28.3285E-03     54.9814E-03    -26.7460E-03     78.8475E-03
            1456     12.2673E-03     52.9474E-03    -7.46393E+06    -36.8903E+06    -3.91712E+06     618.089E+03    -28.2036E-03     54.9998E-03    -26.7962E-03     79.0661E-03    -28.3036E-03     54.9537E-03    -26.7515E-03     78.9306E-03
            1457     11.3911E-03     52.8750E-03    -7.62958E+06    -54.9184E+06    -4.70692E+06     500.244E+03    -28.0416E-03     54.8659E-03    -26.8244E-03     72.2079E-03    -28.0745E-03     54.6905E-03    -26.7572E-03     72.0991E-03
            1458     10.5148E-03     52.8102E-03    -7.91836E+06    -70.0491E+06    -4.89380E+06     385.940E+03    -27.8877E-03     54.7367E-03    -26.8490E-03     65.4817E-03    -27.8716E-03     54.4580E-03    -26.7604E-03     65.3970E-03
            1459     9.63860E-03     52.7505E-03    -8.28807E+06    -76.2264E+06    -647.468E+03     419.442E+03    -27.7341E-03     54.6152E-03    -26.8811E-03     59.9895E-03    -27.6996E-03     54.2825E-03    -26.7618E-03     59.9250E-03
            1460     8.76231E-03     52.6962E-03    -9.04844E+06    -80.3898E+06     1.00753E+06     349.126E+03    -27.5748E-03     54.4726E-03    -26.8978E-03     54.3357E-03    -27.5289E-03     54.1063E-03    -26.7631E-03     54.2859E-03
            1461     7.88610E-03     52.6472E-03    -10.0854E+06    -85.1473E+06     175.624E+03     187.148E+03    -27.4334E-03     54.3370E-03    -26.9035E-03     48.6630E-03    -27.3768E-03     53.9417E-03    -26.7646E-03     48.6233E-03
            1462     7.00983E-03     52.6037E-03    -11.3902E+06    -90.5281E+06    -882.335E+03     115.292E+03    -27.3052E-03     54.2149E-03    -26.9097E-03     43.0152E-03    -27.2403E-03     53.7908E-03    -26.7664E-03     42.9841E-03
            1463     6.13360E-03     52.5655E-03    -12.8032E+06    -94.1245E+06    -2.96851E+06     150.438E+03    -27.1940E-03     54.1027E-03    -26.9086E-03     37.4039E-03    -27.1244E-03     53.6620E-03    -26.7684E-03     37.3807E-03
            1464     5.25735E-03     52.5326E-03    -14.1654E+06    -98.6736E+06    -5.95621E+06     167.719E+03    -27.1041E-03     54.0084E-03    -26.9043E-03     31.8407E-03    -27.0278E-03     53.5488E-03    -26.7705E-03     31.8235E-03
            1465     4.38112E-03     52.5049E-03    -15.4803E+06    -102.639E+06    -8.74680E+06     151.685E+03    -27.0297E-03     53.9297E-03    -26.9000E-03     26.3880E-03    -26.9485E-03     53.4545E-03    -26.7724E-03     26.3753E-03
            1466     3.50488E-03     52.4824E-03    -16.7463E+06    -104.054E+06    -11.8309E+06     117.691E+03    -26.9686E-03     53.8588E-03    -26.8902E-03     21.0432E-03    -26.8859E-03     53.3817E-03    -26.7742E-03     21.0339E-03
            1467     2.62867E-03     52.4649E-03    -17.8578E+06    -106.227E+06    -14.9461E+06     82.0813E+03    -26.9256E-03     53.8063E-03    -26.8807E-03     15.7516E-03    -26.8401E-03     53.3237E-03    -26.7756E-03     15.7450E-03
            1468     1.75244E-03     52.4524E-03    -18.6825E+06    -107.571E+06    -17.3762E+06     59.0924E+03    -26.8981E-03     53.7692E-03    -26.8710E-03     10.5831E-03    -26.8108E-03     53.2840E-03    -26.7748E-03     10.5789E-03
            1469     876.228E-06     52.4447E-03    -19.1628E+06    -108.351E+06    -18.8244E+06     29.5530E+03    -26.8745E-03     53.7366E-03    -26.8621E-03     5.68782E-03    -26.7860E-03     53.2501E-03    -26.7713E-03     5.68561E-03
            1470     16.6474E-03     52.8254E-03    -5.50665E+06     183.797E+06     90.4202E+06    -51.6354E+03    -42.6434E-03     69.5536E-03    -26.9102E-03     333.878E-03    -58.6632E-03     85.9441E-03    -26.7166E-03     342.951E-03
            1471     15.7729E-03     52.4489E-03    -9.28875E+06     129.415E+06     18.7386E+06     417.023E+03    -45.5248E-03     72.1660E-03    -26.6412E-03     317.107E-03    -55.4753E-03     82.4886E-03    -26.7217E-03     318.532E-03
            1472     14.8974E-03     52.2061E-03    -9.75650E+06     47.5077E+06    -28.6093E+06     422.491E+03    -34.9293E-03     61.4542E-03    -26.5249E-03     183.314E-03    -36.7573E-03     63.4992E-03    -26.7227E-03     183.040E-03
            1473     14.0203E-03     52.0977E-03    -8.30270E+06    -6.52340E+06    -24.9207E+06     544.380E+03    -28.7291E-03     55.3571E-03    -26.6281E-03     95.4653E-03    -29.0998E-03     55.7475E-03    -26.7312E-03     95.2414E-03
            1474     13.1434E-03     52.0251E-03    -7.45398E+06    -25.6249E+06    -11.2199E+06     559.271E+03    -28.0818E-03     54.8137E-03    -26.7319E-03     79.1559E-03    -28.2417E-03     54.8887E-03    -26.7400E-03     78.9876E-03
            1475     12.2676E-03     51.9472E-03    -7.49713E+06    -36.7135E+06    -3.84416E+06     444.732E+03    -28.1556E-03     54.9507E-03    -26.7951E-03     79.1778E-03    -28.2560E-03     54.9053E-03    -26.7502E-03     79.0404E-03
            1476     11.3910E-03     51.8748E-03    -7.57687E+06    -54.7971E+06    -4.72987E+06     419.709E+03    -28.0543E-03     54.8785E-03    -26.8242E-03     72.3174E-03    -28.0871E-03     54.7036E-03    -26.7575E-03     72.2076E-03
            1477     10.5149E-03     51.8099E-03    -7.69412E+06    -69.9251E+06    -4.82027E+06     377.213E+03    -27.9125E-03     54.7603E-03    -26.8477E-03     65.4982E-03    -27.8956E-03     54.4817E-03    -26.7593E-03     65.4134E-03
            1478     9.63857E-03     51.7503E-03    -8.15925E+06    -76.2122E+06    -643.332E+03     326.546E+03    -27.7437E-03     54.6219E-03    -26.8783E-03     59.9850E-03    -27.7086E-03     54.2892E-03    -26.7591E-03     59.9194E-03
            1479     8.76237E-03     51.6959E-03    -8.92791E+06    -80.1817E+06     1.02399E+06     269.389E+03    -27.5779E-03     54.4718E-03    -26.8939E-03     54.3262E-03    -27.5317E-03     54.1063E-03    -26.7596E-03     54.2754E-03
            1480     7.88611E-03     51.6471E-03    -9.99173E+06    -85.0675E+06     280.622E+03     239.523E+03    -27.4313E-03     54.3312E-03    -26.8999E-03     48.6497E-03    -27.3744E-03     53.9360E-03    -26.7606E-03     48.6107E-03
            1481     7.00987E-03     51.6035E-03    -11.2954E+06    -90.4732E+06    -734.709E+03     243.358E+03    -27.3068E-03     54.2126E-03    -26.9058E-03     42.9990E-03    -27.2417E-03     53.7884E-03    -26.7619E-03     42.9696E-03
            1482     6.13362E-03     51.5653E-03    -12.7279E+06    -94.0741E+06    -3.00229E+06     177.509E+03    -27.1939E-03     54.0970E-03    -26.9031E-03     37.3841E-03    -27.1239E-03     53.6565E-03    -26.7632E-03     37.3613E-03
            1483     5.25739E-03     51.5324E-03    -14.1194E+06    -98.6381E+06    -5.99030E+06     137.577E+03    -27.1039E-03     54.0019E-03    -26.8980E-03     31.8207E-03    -27.0274E-03     53.5425E-03    -26.7644E-03     31.8031E-03
            1484     4.38115E-03     51.5048E-03    -15.4640E+06    -102.581E+06    -8.76834E+06     131.036E+03    -27.0281E-03     53.9208E-03    -26.8926E-03     26.3697E-03    -26.9469E-03     53.4459E-03    -26.7653E-03     26.3568E-03
            1485     3.50492E-03     51.4822E-03    -16.7491E+06    -103.987E+06    -11.8622E+06     118.974E+03    -26.9611E-03     53.8433E-03    -26.8822E-03     21.0295E-03    -26.8785E-03     53.3666E-03    -26.7665E-03     21.0203E-03
            1486     2.62868E-03     51.4647E-03    -17.8452E+06    -106.148E+06    -14.9437E+06     94.9420E+03    -26.9191E-03     53.7916E-03    -26.8725E-03     15.7389E-03    -26.8336E-03     53.3093E-03    -26.7674E-03     15.7325E-03
            1487     1.75245E-03     51.4523E-03    -18.6661E+06    -107.502E+06    -17.3709E+06     60.5845E+03    -26.8886E-03     53.7514E-03    -26.8628E-03     10.5653E-03    -26.8013E-03     53.2666E-03    -26.7667E-03     10.5611E-03
            1488     876.230E-06     51.4446E-03    -19.1489E+06    -108.282E+06    -18.8147E+06         580.801    -26.8596E-03     53.7209E-03    -26.8613E-03     5.66365E-03    -26.7712E-03     53.2347E-03    -26.7706E-03     5.66107E-03
            1489     16.6507E-03     51.8248E-03    -6.02401E+06     183.186E+06     90.4954E+06    -221.802E+03    -42.6142E-03     69.4881E-03    -26.8739E-03     333.245E-03    -58.5839E-03     85.8243E-03    -26.6783E-03     342.275E-03
            1490     15.7736E-03     51.4484E-03    -9.01132E+06     128.720E+06     18.3510E+06     418.581E+03    -44.7417E-03     71.3625E-03    -26.6207E-03     317.283E-03    -54.6803E-03     81.6728E-03    -26.7025E-03     318.810E-03
            1491     14.8958E-03     51.2064E-03    -9.04960E+06     47.8011E+06    -28.6854E+06     709.572E+03    -34.8563E-03     61.3856E-03    -26.5293E-03     183.862E-03    -36.6833E-03     63.4333E-03    -26.7289E-03     183.595E-03
            1492     14.0199E-03     51.0972E-03    -8.27562E+06    -6.55604E+06    -24.8244E+06     528.353E+03    -28.7794E-03     55.4172E-03    -26.6378E-03     95.6587E-03    -29.1506E-03     55.8077E-03    -26.7404E-03     95.4336E-03
            1493     13.1443E-03     51.0250E-03    -7.61140E+06    -25.4840E+06    -11.4626E+06     452.477E+03    -28.1185E-03     54.8568E-03    -26.7383E-03     79.2969E-03    -28.2790E-03     54.9330E-03    -26.7476E-03     79.1271E-03
            1494     12.2672E-03     50.9473E-03    -7.23901E+06    -36.5186E+06    -3.86730E+06     328.257E+03    -28.2208E-03     55.0201E-03    -26.7993E-03     79.3963E-03    -28.3204E-03     54.9755E-03    -26.7552E-03     79.2571E-03
            1495     11.3910E-03     50.8744E-03    -7.53353E+06    -54.7564E+06    -4.82315E+06     309.808E+03    -28.1112E-03     54.9358E-03    -26.8247E-03     72.2855E-03    -28.1437E-03     54.7612E-03    -26.7585E-03     72.1740E-03
            1496     10.5148E-03     50.8098E-03    -7.71114E+06    -69.8716E+06    -4.91798E+06     341.908E+03    -27.9239E-03     54.7693E-03    -26.8454E-03     65.4486E-03    -27.9069E-03     54.4912E-03    -26.7575E-03     65.3633E-03
            1497     9.63864E-03     50.7500E-03    -8.12292E+06    -76.1045E+06    -677.359E+03     303.215E+03    -27.7507E-03     54.6257E-03    -26.8750E-03     59.9628E-03    -27.7155E-03     54.2934E-03    -26.7563E-03     59.8969E-03
            1498     8.76238E-03     50.6958E-03    -9.00615E+06    -80.1174E+06     959.879E+03     269.239E+03    -27.5777E-03     54.4677E-03    -26.8900E-03     54.3025E-03    -27.5319E-03     54.1027E-03    -26.7560E-03     54.2518E-03
            1499     7.88614E-03     50.6468E-03    -10.1220E+06    -85.0418E+06     164.367E+03     272.206E+03    -27.4360E-03     54.3311E-03    -26.8951E-03     48.6303E-03    -27.3796E-03     53.9363E-03    -26.7563E-03     48.5917E-03
            1500     7.00990E-03     50.6033E-03    -11.3278E+06    -90.4127E+06    -751.639E+03     260.546E+03    -27.3104E-03     54.2106E-03    -26.9001E-03     42.9701E-03    -27.2456E-03     53.7867E-03    -26.7564E-03     42.9409E-03
            1501     6.13367E-03     50.5651E-03    -12.6664E+06    -93.9399E+06    -2.96980E+06     228.903E+03    -27.1944E-03     54.0906E-03    -26.8962E-03     37.3550E-03    -27.1243E-03     53.6507E-03    -26.7565E-03     37.3329E-03
            1502     5.25742E-03     50.5322E-03    -14.0786E+06    -98.5887E+06    -6.02089E+06     167.078E+03    -27.1020E-03     53.9920E-03    -26.8899E-03     31.7943E-03    -27.0253E-03     53.5327E-03    -26.7567E-03     31.7771E-03
            1503     4.38119E-03     50.5046E-03    -15.4552E+06    -102.538E+06    -8.79015E+06     148.287E+03    -27.0240E-03     53.9076E-03    -26.8837E-03     26.3457E-03    -26.9426E-03     53.4329E-03    -26.7565E-03     26.3330E-03
            1504     3.50495E-03     50.4821E-03    -16.7481E+06    -103.914E+06    -11.8738E+06     125.722E+03    -26.9558E-03     53.8280E-03    -26.8722E-03     21.0082E-03    -26.8733E-03     53.3516E-03    -26.7566E-03     20.9990E-03
            1505     2.62871E-03     50.4646E-03    -17.8463E+06    -106.074E+06    -14.9362E+06     88.9910E+03    -26.9091E-03     53.7709E-03    -26.8618E-03     15.7275E-03    -26.8238E-03     53.2890E-03    -26.7568E-03     15.7209E-03
            1506     1.75250E-03     50.4521E-03    -18.6397E+06    -107.429E+06    -17.3632E+06     54.7830E+03    -26.8723E-03     53.7261E-03    -26.8538E-03     10.5574E-03    -26.7850E-03     53.2415E-03    -26.7578E-03     10.5532E-03
            1507     876.237E-06     50.4445E-03    -19.1014E+06    -108.215E+06    -18.8180E+06     18.8143E+03    -26.8323E-03     53.7066E-03    -26.8743E-03     5.68672E-03    -26.7437E-03     53.2207E-03    -26.7837E-03     5.68436E-03
            1508     16.6517E-03     50.8279E-03    -5.40178E+06     182.919E+06     90.6391E+06    -108.173E+03    -42.5500E-03     69.4358E-03    -26.8858E-03     334.482E-03    -58.5609E-03     85.8140E-03    -26.6900E-03     343.555E-03
            1509     15.7721E-03     50.4484E-03    -8.46440E+06     128.393E+06     18.7651E+06     640.563E+03    -45.0053E-03     71.6479E-03    -26.6426E-03     318.764E-03    -55.0014E-03     82.0153E-03    -26.7227E-03     320.272E-03
            1510     14.8966E-03     50.2063E-03    -9.02653E+06     47.4297E+06    -28.5979E+06     1.09060E+06    -35.0309E-03     61.5767E-03    -26.5458E-03     183.647E-03    -36.8541E-03     63.6191E-03    -26.7444E-03     183.381E-03
            1511     14.0201E-03     50.0968E-03    -7.72086E+06    -6.60798E+06    -24.5382E+06     580.703E+03    -28.7513E-03     55.4015E-03    -26.6502E-03     95.4801E-03    -29.1183E-03     55.7888E-03    -26.7521E-03     95.2561E-03
            1512     13.1429E-03     50.0251E-03    -7.00417E+06    -24.8668E+06    -11.0146E+06     324.034E+03    -28.1957E-03     54.9449E-03    -26.7492E-03     79.2792E-03    -28.3549E-03     55.0230E-03    -26.7581E-03     79.1072E-03
            1513     12.2674E-03     49.9466E-03    -7.38360E+06    -36.5048E+06    -4.00452E+06     302.133E+03    -28.3695E-03     55.1712E-03    -26.8017E-03     79.2466E-03    -28.4702E-03     55.1277E-03    -26.7581E-03     79.1058E-03
            1514     11.3912E-03     49.8743E-03    -7.53992E+06    -54.7327E+06    -4.83781E+06     261.794E+03    -28.1168E-03     54.9383E-03    -26.8215E-03     72.1757E-03    -28.1493E-03     54.7637E-03    -26.7554E-03     72.0636E-03
            1515     10.5149E-03     49.8094E-03    -7.77453E+06    -69.8323E+06    -5.00896E+06     308.078E+03    -27.9180E-03     54.7595E-03    -26.8415E-03     65.4392E-03    -27.9012E-03     54.4817E-03    -26.7540E-03     65.3535E-03
            1516     9.63866E-03     49.7499E-03    -8.20879E+06    -76.0658E+06    -793.661E+03     297.824E+03    -27.7531E-03     54.6238E-03    -26.8707E-03     59.9289E-03    -27.7182E-03     54.2920E-03    -26.7525E-03     59.8630E-03
            1517     8.76242E-03     49.6955E-03    -9.02612E+06    -80.0789E+06     896.463E+03     303.162E+03    -27.5879E-03     54.4726E-03    -26.8847E-03     54.2659E-03    -27.5421E-03     54.1079E-03    -26.7510E-03     54.2155E-03
            1518     7.88619E-03     49.6466E-03    -10.0908E+06    -84.9704E+06     125.619E+03     281.642E+03    -27.4425E-03     54.3307E-03    -26.8882E-03     48.5842E-03    -27.3860E-03     53.9363E-03    -26.7497E-03     48.5458E-03
            1519     7.00996E-03     49.6031E-03    -11.3399E+06    -90.3436E+06    -776.609E+03     241.168E+03    -27.3098E-03     54.2019E-03    -26.8921E-03     42.9307E-03    -27.2450E-03     53.7784E-03    -26.7485E-03     42.9013E-03
            1520     6.13372E-03     49.5650E-03    -12.6928E+06    -93.8772E+06    -2.90795E+06     224.898E+03    -27.1921E-03     54.0797E-03    -26.8876E-03     37.3197E-03    -27.1223E-03     53.6400E-03    -26.7476E-03     37.2975E-03
            1521     5.25748E-03     49.5321E-03    -14.0660E+06    -98.5009E+06    -5.94619E+06     227.801E+03    -27.0954E-03     53.9758E-03    -26.8804E-03     31.7634E-03    -27.0188E-03     53.5169E-03    -26.7469E-03     31.7471E-03
            1522     4.38123E-03     49.5045E-03    -15.4475E+06    -102.462E+06    -8.77325E+06     177.647E+03    -27.0162E-03     53.8894E-03    -26.8733E-03     26.3236E-03    -26.9349E-03     53.4151E-03    -26.7462E-03     26.3113E-03
            1523     3.50500E-03     49.4820E-03    -16.7295E+06    -103.824E+06      -11.84E+06     123.643E+03    -26.9493E-03     53.8102E-03    -26.8609E-03     20.9927E-03    -26.8669E-03     53.3341E-03    -26.7453E-03     20.9835E-03
            1524     2.62875E-03     49.4645E-03    -17.8145E+06    -106.007E+06    -14.9341E+06     80.5222E+03    -26.8945E-03     53.7448E-03    -26.8503E-03     15.7116E-03    -26.8091E-03     53.2631E-03    -26.7454E-03     15.7050E-03
            1525     1.75247E-03     49.4521E-03    -18.6020E+06    -107.350E+06    -17.3468E+06     53.3487E+03    -26.8576E-03     53.7017E-03    -26.8441E-03     10.5470E-03    -26.7702E-03     53.2174E-03    -26.7482E-03     10.5428E-03
            1526     876.227E-06     49.4444E-03    -19.0803E+06    -108.149E+06    -18.8018E+06     56.7505E+03    -26.8347E-03     53.6899E-03    -26.8552E-03     5.66743E-03    -26.7462E-03     53.2043E-03    -26.7647E-03     5.66560E-03
            1527     16.6455E-03     49.8236E-03    -6.26728E+06     182.523E+06     90.2644E+06    -116.243E+03    -42.1795E-03     69.1132E-03    -26.9337E-03     333.914E-03    -58.1938E-03     85.4915E-03    -26.7380E-03     343.067E-03
            1528     15.7726E-03     49.4484E-03    -10.2555E+06     127.290E+06     17.9471E+06     10.7476E+03    -45.6234E-03     72.2988E-03    -26.6754E-03     317.394E-03    -55.5663E-03     82.6050E-03    -26.7553E-03     318.824E-03
            1529     14.8958E-03     49.2050E-03    -9.47885E+06     47.5369E+06    -28.1355E+06     269.316E+03    -35.0946E-03     61.6514E-03    -26.5569E-03     183.421E-03    -36.9240E-03     63.6976E-03    -26.7527E-03     183.142E-03
            1530     14.0196E-03     49.0976E-03    -7.99523E+06    -6.34238E+06    -24.2464E+06     445.350E+03    -28.8419E-03     55.4965E-03    -26.6547E-03     95.2660E-03    -29.2119E-03     55.8859E-03    -26.7551E-03     95.0396E-03
            1531     13.1440E-03     49.0242E-03    -7.37935E+06    -24.7962E+06    -11.2272E+06     464.835E+03    -28.2812E-03     55.0263E-03    -26.7452E-03     79.1742E-03    -28.4422E-03     55.1057E-03    -26.7547E-03     79.0034E-03
            1532     12.2675E-03     48.9465E-03    -7.25995E+06    -36.3300E+06    -3.90844E+06     380.088E+03    -28.3161E-03     55.1127E-03    -26.7966E-03     79.0775E-03    -28.4161E-03     55.0693E-03    -26.7529E-03     78.9382E-03
            1533     11.3911E-03     48.8739E-03    -7.51504E+06    -54.8472E+06    -4.92495E+06     324.027E+03    -28.1062E-03     54.9241E-03    -26.8178E-03     72.2024E-03    -28.1382E-03     54.7490E-03    -26.7520E-03     72.0913E-03
            1534     10.5150E-03     48.8093E-03    -7.75005E+06    -69.7317E+06    -4.98886E+06     317.232E+03    -27.9391E-03     54.7764E-03    -26.8373E-03     65.4173E-03    -27.9224E-03     54.4991E-03    -26.7499E-03     65.3317E-03
            1535     9.63869E-03     48.7496E-03    -8.23563E+06    -76.0194E+06    -845.524E+03     287.410E+03    -27.7674E-03     54.6316E-03    -26.8643E-03     59.8805E-03    -27.7325E-03     54.3001E-03    -26.7463E-03     59.8144E-03
            1536     8.76251E-03     48.6953E-03    -9.05138E+06    -80.0597E+06     863.116E+03     279.207E+03    -27.5971E-03     54.4736E-03    -26.8765E-03     54.2022E-03    -27.5514E-03     54.1090E-03    -26.7429E-03     54.1516E-03
            1537     7.88627E-03     48.6464E-03    -10.0972E+06    -84.8913E+06     108.730E+03     284.910E+03    -27.4407E-03     54.3191E-03    -26.8784E-03     48.5357E-03    -27.3842E-03     53.9251E-03    -26.7402E-03     48.4974E-03
            1538     7.01003E-03     48.6029E-03    -11.3149E+06    -90.2585E+06    -747.023E+03     250.389E+03    -27.3061E-03     54.1876E-03    -26.8815E-03     42.8882E-03    -27.2414E-03     53.7645E-03    -26.7380E-03     42.8590E-03
            1539     6.13379E-03     48.5648E-03    -12.6835E+06    -93.8370E+06    -2.89831E+06     223.276E+03    -27.1846E-03     54.0608E-03    -26.8762E-03     37.2799E-03    -27.1147E-03     53.6212E-03    -26.7362E-03     37.2578E-03
            1540     5.25754E-03     48.5320E-03    -14.0566E+06    -98.4474E+06    -5.89936E+06     219.702E+03    -27.0883E-03     53.9566E-03    -26.8683E-03     31.7243E-03    -27.0118E-03     53.4978E-03    -26.7347E-03     31.7079E-03
            1541     4.38129E-03     48.5044E-03    -15.3778E+06    -102.331E+06    -8.70379E+06     196.826E+03    -27.0066E-03     53.8668E-03    -26.8602E-03     26.2864E-03    -26.9253E-03     53.3929E-03    -26.7331E-03     26.2743E-03
            1542     3.50503E-03     48.4819E-03    -16.6692E+06    -103.734E+06    -11.8337E+06     128.996E+03    -26.9341E-03     53.7816E-03    -26.8474E-03     20.9607E-03    -26.8516E-03     53.3059E-03    -26.7320E-03     20.9516E-03
            1543     2.62877E-03     48.4644E-03    -17.7714E+06    -105.932E+06    -14.9039E+06     96.5624E+03    -26.8863E-03     53.7224E-03    -26.8361E-03     15.6794E-03    -26.8008E-03     53.2410E-03    -26.7313E-03     15.6731E-03
            1544     1.75254E-03     48.4520E-03    -18.6068E+06    -107.296E+06    -17.3272E+06     77.7242E+03    -26.8534E-03     53.6787E-03    -26.8252E-03     10.5223E-03    -26.7662E-03     53.1947E-03    -26.7293E-03     10.5183E-03
            1545     876.271E-06     48.4443E-03    -19.0964E+06    -108.072E+06    -18.7635E+06     59.3753E+03    -26.8444E-03     53.6444E-03    -26.8000E-03     5.64882E-03    -26.7561E-03     53.1591E-03    -26.7094E-03     5.64704E-03
            1546     16.6507E-03     48.8235E-03    -5.76387E+06     183.180E+06     91.2122E+06     728.247E+03    -42.2004E-03     69.1040E-03    -26.9036E-03     333.286E-03    -58.1764E-03     85.4454E-03    -26.7048E-03     342.379E-03
            1547     15.7722E-03     48.4475E-03    -9.29161E+06     127.534E+06     17.5420E+06    -4.90056E+03    -44.8475E-03     71.4983E-03    -26.6507E-03     316.522E-03    -54.7595E-03     81.7791E-03    -26.7345E-03     318.028E-03
            1548     14.8962E-03     48.2053E-03    -9.19762E+06     46.9938E+06    -29.4589E+06    -408.015E+03    -35.0307E-03     61.5779E-03    -26.5472E-03     183.085E-03    -36.8541E-03     63.6209E-03    -26.7493E-03     182.798E-03
            1549     14.0200E-03     48.0966E-03    -8.02381E+06    -6.10351E+06    -24.2554E+06     71.2630E+03    -28.9173E-03     55.5663E-03    -26.6489E-03     95.1941E-03    -29.2888E-03     55.9579E-03    -26.7497E-03     94.9615E-03
            1550     13.1436E-03     48.0241E-03    -7.36342E+06    -25.0361E+06    -11.4203E+06     453.907E+03    -28.2642E-03     55.0012E-03    -26.7369E-03     79.2771E-03    -28.4244E-03     55.0794E-03    -26.7470E-03     79.1063E-03
            1551     12.2673E-03     47.9462E-03    -7.07791E+06    -36.4123E+06    -3.77155E+06     480.686E+03    -28.2732E-03     55.0645E-03    -26.7914E-03     79.0928E-03    -28.3721E-03     55.0201E-03    -26.7472E-03     78.9551E-03
            1552     11.3912E-03     47.8737E-03    -7.35033E+06    -54.6393E+06    -4.68464E+06     457.248E+03    -28.1213E-03     54.9346E-03    -26.8133E-03     72.1060E-03    -28.1531E-03     54.7599E-03    -26.7468E-03     71.9965E-03
            1553     10.5150E-03     47.8090E-03    -7.70375E+06    -69.6889E+06    -4.89635E+06     335.367E+03    -27.9565E-03     54.7869E-03    -26.8303E-03     65.3380E-03    -27.9397E-03     54.5095E-03    -26.7426E-03     65.2525E-03
            1554     9.63884E-03     47.7494E-03    -8.15407E+06    -75.9101E+06    -719.630E+03     284.259E+03    -27.7823E-03     54.6373E-03    -26.8549E-03     59.8104E-03    -27.7474E-03     54.3060E-03    -26.7367E-03     59.7442E-03
            1555     8.76260E-03     47.6951E-03    -8.98830E+06    -80.0623E+06     926.187E+03     270.233E+03    -27.5930E-03     54.4584E-03    -26.8654E-03     54.1467E-03    -27.5470E-03     54.0935E-03    -26.7316E-03     54.0960E-03
            1556     7.88636E-03     47.6463E-03    -10.0322E+06    -84.8452E+06     171.137E+03     272.320E+03    -27.4396E-03     54.3058E-03    -26.8662E-03     48.4848E-03    -27.3830E-03     53.9118E-03    -26.7277E-03     48.4463E-03
            1557     7.01013E-03     47.6028E-03    -11.2491E+06    -90.1833E+06    -721.479E+03     264.078E+03    -27.3010E-03     54.1687E-03    -26.8677E-03     42.8326E-03    -27.2361E-03     53.7458E-03    -26.7242E-03     42.8036E-03
            1558     6.13388E-03     47.5647E-03    -12.6205E+06    -93.7673E+06    -2.85805E+06     239.755E+03    -27.1776E-03     54.0388E-03    -26.8612E-03     37.2261E-03    -27.1076E-03     53.5994E-03    -26.7213E-03     37.2042E-03
            1559     5.25762E-03     47.5318E-03    -14.0029E+06    -98.3897E+06    -5.90940E+06     204.696E+03    -27.0816E-03     53.9332E-03    -26.8516E-03     31.6728E-03    -27.0049E-03     53.4747E-03    -26.7182E-03     31.6563E-03
            1560     4.38138E-03     47.5043E-03    -15.3406E+06    -102.245E+06    -8.71605E+06     183.228E+03    -26.9970E-03     53.8387E-03    -26.8417E-03     26.2305E-03    -26.9156E-03     53.3652E-03    -26.7148E-03     26.2183E-03
            1561     3.50510E-03     47.4818E-03    -16.6036E+06    -103.629E+06    -11.8182E+06     172.590E+03    -26.9183E-03     53.7458E-03    -26.8275E-03     20.9049E-03    -26.8356E-03     53.2706E-03    -26.7123E-03     20.8965E-03
            1562     2.62883E-03     47.4644E-03    -17.7416E+06    -105.869E+06    -14.8736E+06     141.749E+03    -26.8702E-03     53.6851E-03    -26.8150E-03     15.6471E-03    -26.7847E-03     53.2040E-03    -26.7101E-03     15.6414E-03
            1563     1.75256E-03     47.4519E-03    -18.5788E+06    -107.193E+06    -17.2598E+06     102.847E+03    -26.8353E-03     53.6372E-03    -26.8019E-03     10.5021E-03    -26.7481E-03     53.1536E-03    -26.7058E-03     10.4985E-03
            1564     876.297E-06     47.4444E-03    -19.0582E+06    -107.967E+06    -18.7265E+06     43.9502E+03    -26.8105E-03     53.5947E-03    -26.7842E-03     5.66962E-03    -26.7222E-03     53.1098E-03    -26.6936E-03     5.66760E-03
            1565     16.6509E-03     47.8267E-03    -4.98315E+06     183.361E+06     91.4916E+06     872.609E+03    -42.6017E-03     69.4804E-03    -26.8787E-03     334.149E-03    -58.5872E-03     85.8338E-03    -26.6799E-03     343.200E-03
            1566     15.7731E-03     47.4475E-03    -7.80839E+06     128.965E+06     18.8862E+06     741.513E+03    -44.8152E-03     71.4454E-03    -26.6303E-03     318.093E-03    -54.7824E-03     81.7880E-03    -26.7115E-03     319.611E-03
            1567     14.8962E-03     47.2050E-03    -8.56471E+06     46.8640E+06    -29.2711E+06     88.1265E+03    -34.9504E-03     61.4851E-03    -26.5347E-03     183.238E-03    -36.7675E-03     63.5230E-03    -26.7365E-03     182.959E-03
            1568     14.0200E-03     47.0963E-03    -7.56108E+06    -6.44151E+06    -24.3636E+06     75.3360E+03    -28.8380E-03     55.4784E-03    -26.6404E-03     95.2726E-03    -29.2051E-03     55.8665E-03    -26.7419E-03     95.0410E-03
            1569     13.1438E-03     47.0239E-03    -7.00984E+06    -25.0561E+06    -11.1613E+06     266.516E+03    -28.2559E-03     54.9883E-03    -26.7324E-03     79.1391E-03    -28.4146E-03     55.0655E-03    -26.7418E-03     78.9659E-03
            1570     12.2676E-03     46.9458E-03     -7.1407E+06    -36.5465E+06    -3.73523E+06     465.890E+03    -28.3171E-03     55.1017E-03    -26.7845E-03     78.9983E-03    -28.4163E-03     55.0566E-03    -26.7399E-03     78.8601E-03
            1571     11.3913E-03     46.8735E-03    -7.34615E+06    -54.4181E+06    -4.55335E+06     487.908E+03    -28.1336E-03     54.9370E-03    -26.8034E-03     72.0784E-03    -28.1658E-03     54.7631E-03    -26.7366E-03     71.9693E-03
            1572     10.5151E-03     46.8087E-03    -7.50447E+06    -69.5102E+06    -4.71441E+06     367.922E+03    -27.9593E-03     54.7782E-03    -26.8189E-03     65.2873E-03    -27.9419E-03     54.5010E-03    -26.7308E-03     65.2023E-03
            1573     9.63893E-03     46.7491E-03    -7.97895E+06    -75.8971E+06    -607.331E+03     319.934E+03    -27.7706E-03     54.6133E-03    -26.8427E-03     59.7441E-03    -27.7349E-03     54.2816E-03    -26.7241E-03     59.6785E-03
            1574     8.76271E-03     46.6949E-03    -8.86155E+06    -79.9786E+06     989.714E+03     295.680E+03    -27.5992E-03     54.4509E-03    -26.8517E-03     54.0982E-03    -27.5527E-03     54.0862E-03    -26.7180E-03     54.0479E-03
            1575     7.88650E-03     46.6461E-03    -9.94663E+06    -84.8247E+06     215.629E+03     274.780E+03    -27.4433E-03     54.2937E-03    -26.8504E-03     48.4144E-03    -27.3863E-03     53.8996E-03    -26.7119E-03     48.3760E-03
            1576     7.01025E-03     46.6027E-03    -11.1840E+06    -90.1217E+06    -757.190E+03     283.269E+03    -27.2984E-03     54.1477E-03    -26.8493E-03     42.7607E-03    -27.2331E-03     53.7250E-03    -26.7062E-03     42.7321E-03
            1577     6.13400E-03     46.5645E-03    -12.5387E+06    -93.6917E+06    -2.86031E+06     261.253E+03    -27.1713E-03     54.0121E-03    -26.8408E-03     37.1576E-03    -27.1010E-03     53.5730E-03    -26.7011E-03     37.1360E-03
            1578     5.25774E-03     46.5318E-03    -13.9389E+06    -98.3036E+06    -5.89590E+06     234.695E+03    -27.0699E-03     53.8991E-03    -26.8293E-03     31.6113E-03    -26.9930E-03     53.4409E-03    -26.6960E-03     31.5952E-03
            1579     4.38147E-03     46.5042E-03    -15.3199E+06    -102.195E+06    -8.75631E+06     213.834E+03    -26.9832E-03     53.8003E-03    -26.8171E-03     26.1720E-03    -26.9017E-03     53.3270E-03    -26.6905E-03     26.1603E-03
            1580     3.50521E-03     46.4818E-03    -16.6178E+06    -103.551E+06    -11.8089E+06     203.814E+03    -26.9029E-03     53.7034E-03    -26.8005E-03     20.8540E-03    -26.8203E-03     53.2285E-03    -26.6853E-03     20.8459E-03
            1581     2.62891E-03     46.4644E-03    -17.7004E+06    -105.748E+06    -14.8275E+06     171.304E+03    -26.8410E-03     53.6276E-03    -26.7866E-03     15.6146E-03    -26.7555E-03     53.1469E-03    -26.6817E-03     15.6093E-03
            1582     1.75261E-03     46.4520E-03    -18.4775E+06    -107.070E+06    -17.2179E+06     100.365E+03    -26.7970E-03     53.5739E-03    -26.7769E-03     10.4692E-03    -26.7096E-03     53.0907E-03    -26.6809E-03     10.4656E-03
            1583     876.291E-06     46.4444E-03    -18.9341E+06    -107.830E+06    -18.6457E+06     54.4117E+03    -26.7628E-03     53.5518E-03    -26.7890E-03     5.65520E-03    -26.6742E-03     53.0673E-03    -26.6984E-03     5.65333E-03
            1584     16.6481E-03     46.8240E-03    -5.34972E+06     182.595E+06     90.8448E+06     159.217E+03    -42.5483E-03     69.4528E-03    -26.9045E-03     333.451E-03    -58.5043E-03     85.7746E-03    -26.7073E-03     342.507E-03
            1585     15.7729E-03     46.4478E-03    -8.52604E+06     129.154E+06     19.1701E+06     465.342E+03    -45.3685E-03     72.0124E-03    -26.6439E-03     317.957E-03    -55.3347E-03     82.3512E-03    -26.7229E-03     319.420E-03
            1586     14.8966E-03     46.2046E-03    -8.63779E+06     47.5933E+06    -28.5614E+06     531.218E+03    -35.0079E-03     61.5398E-03    -26.5319E-03     183.500E-03    -36.8302E-03     63.5832E-03    -26.7312E-03     183.226E-03
            1587     14.0201E-03     46.0963E-03    -7.89103E+06    -6.55464E+06    -24.9126E+06     388.906E+03    -28.8629E-03     55.4939E-03    -26.6310E-03     95.3159E-03    -29.2305E-03     55.8825E-03    -26.7346E-03     95.0883E-03
            1588     13.1438E-03     46.0232E-03    -7.31292E+06    -25.4441E+06    -11.6249E+06     313.795E+03    -28.2530E-03     54.9757E-03    -26.7227E-03     79.1164E-03    -28.4120E-03     55.0520E-03    -26.7333E-03     78.9437E-03
            1589     12.2676E-03     45.9458E-03    -7.17765E+06    -36.4181E+06    -3.88042E+06     343.060E+03    -28.3124E-03     55.0873E-03    -26.7749E-03     79.0501E-03    -28.4116E-03     55.0430E-03    -26.7311E-03     78.9106E-03
            1590     11.3914E-03     45.8731E-03    -7.35430E+06    -54.3073E+06    -4.77300E+06     373.358E+03    -28.1742E-03     54.9655E-03    -26.7913E-03     72.0867E-03    -28.2063E-03     54.7926E-03    -26.7258E-03     71.9759E-03
            1591     10.5153E-03     45.8085E-03    -7.48319E+06    -69.4682E+06    -4.80310E+06     377.068E+03    -27.9622E-03     54.7670E-03    -26.8049E-03     65.2143E-03    -27.9445E-03     54.4901E-03    -26.7173E-03     65.1295E-03
            1592     9.63905E-03     45.7489E-03    -7.95044E+06    -75.8044E+06    -624.187E+03     371.664E+03    -27.7712E-03     54.5986E-03    -26.8274E-03     59.7027E-03    -27.7354E-03     54.2672E-03    -26.7091E-03     59.6379E-03
            1593     8.76286E-03     45.6947E-03    -8.78608E+06    -79.9026E+06     979.200E+03     332.842E+03    -27.6088E-03     54.4430E-03    -26.8342E-03     54.0188E-03    -27.5620E-03     54.0785E-03    -26.7007E-03     53.9690E-03
            1594     7.88665E-03     45.6460E-03    -9.88154E+06    -84.7746E+06     198.637E+03     323.877E+03    -27.4472E-03     54.2771E-03    -26.8300E-03     48.3303E-03    -27.3898E-03     53.8832E-03    -26.6917E-03     48.2927E-03
            1595     7.01042E-03     45.6025E-03    -11.1404E+06    -90.0568E+06    -776.212E+03     315.678E+03    -27.2984E-03     54.1243E-03    -26.8259E-03     42.6819E-03    -27.2329E-03     53.7018E-03    -26.6830E-03     42.6537E-03
            1596     6.13417E-03     45.5645E-03    -12.5240E+06    -93.6154E+06    -2.92284E+06     299.461E+03    -27.1638E-03     53.9780E-03    -26.8142E-03     37.0816E-03    -27.0934E-03     53.5393E-03    -26.6750E-03     37.0606E-03
            1597     5.25788E-03     45.5317E-03    -13.9276E+06    -98.2530E+06    -5.88898E+06     294.051E+03    -27.0541E-03     53.8546E-03    -26.8005E-03     31.5369E-03    -26.9772E-03     53.3965E-03    -26.6673E-03     31.5216E-03
            1598     4.38162E-03     45.5042E-03    -15.3068E+06    -102.083E+06    -8.72101E+06     278.892E+03    -26.9586E-03     53.7451E-03    -26.7865E-03     26.1027E-03    -26.8773E-03     53.2724E-03    -26.6599E-03     26.0918E-03
            1599     3.50531E-03     45.4818E-03    -16.5968E+06    -103.434E+06    -11.7819E+06     204.672E+03    -26.8753E-03     53.6438E-03    -26.7685E-03     20.8020E-03    -26.7928E-03     53.1694E-03    -26.6534E-03     20.7941E-03
            1600     2.62901E-03     45.4645E-03    -17.6365E+06    -105.623E+06    -14.7576E+06     138.908E+03    -26.8122E-03     53.5654E-03    -26.7533E-03     15.5725E-03    -26.7267E-03     53.0852E-03    -26.6483E-03     15.5667E-03
            1601     1.75266E-03     45.4521E-03    -18.3953E+06    -106.950E+06    -17.1542E+06     93.3602E+03    -26.7625E-03     53.5053E-03    -26.7428E-03     10.4360E-03    -26.6749E-03     53.0225E-03    -26.6468E-03     10.4323E-03
            1602     876.327E-06     45.4445E-03    -18.8443E+06    -107.746E+06    -18.5429E+06     39.8648E+03    -26.7395E-03     53.4841E-03    -26.7447E-03     5.63876E-03    -26.6507E-03     52.9998E-03    -26.6538E-03     5.63671E-03
            1603     16.6498E-03     45.8242E-03    -5.67417E+06     182.316E+06     90.5453E+06    -13.9325E+03    -42.5535E-03     69.4695E-03    -26.9160E-03     333.696E-03    -58.5403E-03     85.8208E-03    -26.7194E-03     342.757E-03
            1604     15.7725E-03     45.4465E-03    -9.00745E+06     128.905E+06     18.7778E+06     60.5862E+03    -45.4071E-03     72.0575E-03    -26.6504E-03     317.098E-03    -55.3453E-03     82.3668E-03    -26.7304E-03     318.535E-03
            1605     14.8963E-03     45.2048E-03    -9.35519E+06     47.5220E+06    -29.2321E+06     421.635E+03    -35.1031E-03     61.6319E-03    -26.5288E-03     183.342E-03    -36.9287E-03     63.6777E-03    -26.7303E-03     183.066E-03
            1606     14.0202E-03     45.0955E-03    -8.20490E+06    -6.56036E+06    -25.2816E+06     583.113E+03    -28.9014E-03     55.5250E-03    -26.6236E-03     95.3795E-03    -29.2705E-03     55.9150E-03    -26.7286E-03     95.1541E-03
            1607     13.1441E-03     45.0234E-03    -7.25770E+06    -25.3166E+06    -11.5455E+06     416.375E+03    -28.2534E-03     54.9687E-03    -26.7153E-03     79.1039E-03    -28.4120E-03     55.0451E-03    -26.7258E-03     78.9328E-03
            1608     12.2676E-03     44.9453E-03    -7.26193E+06    -36.3800E+06    -4.14167E+06     296.945E+03    -28.3611E-03     55.1249E-03    -26.7638E-03     79.0504E-03    -28.4604E-03     55.0813E-03    -26.7212E-03     78.9100E-03
            1609     11.3917E-03     44.8728E-03    -7.47968E+06    -54.3201E+06    -4.98914E+06     265.158E+03    -28.1841E-03     54.9615E-03    -26.7774E-03     71.9539E-03    -28.2163E-03     54.7888E-03    -26.7128E-03     71.8418E-03
            1610     10.5154E-03     44.8083E-03    -7.67915E+06    -69.4876E+06    -5.01456E+06     339.658E+03    -27.9733E-03     54.7621E-03    -26.7887E-03     65.1335E-03    -27.9562E-03     54.4855E-03    -26.7019E-03     65.0484E-03
            1611     9.63927E-03     44.7487E-03    -8.05797E+06    -75.7234E+06    -720.490E+03     345.044E+03    -27.7993E-03     54.6074E-03    -26.8081E-03     59.6246E-03    -27.7640E-03     54.2767E-03    -26.6902E-03     59.5595E-03
            1612     8.76306E-03     44.6946E-03    -8.84107E+06    -79.8423E+06     915.973E+03     338.535E+03    -27.6120E-03     54.4233E-03    -26.8113E-03     53.9244E-03    -27.5654E-03     54.0592E-03    -26.6781E-03     53.8747E-03
            1613     7.88685E-03     44.6458E-03    -9.87095E+06    -84.7526E+06     182.895E+03     351.862E+03    -27.4466E-03     54.2509E-03    -26.8043E-03     48.2255E-03    -27.3892E-03     53.8570E-03    -26.6662E-03     48.1882E-03
            1614     7.01061E-03     44.6025E-03    -11.0988E+06    -89.9777E+06    -731.528E+03     372.274E+03    -27.2928E-03     54.0901E-03    -26.7973E-03     42.5859E-03    -27.2273E-03     53.6679E-03    -26.6544E-03     42.5585E-03
            1615     6.13436E-03     44.5644E-03    -12.5112E+06    -93.5461E+06    -2.90466E+06     367.242E+03    -27.1534E-03     53.9358E-03    -26.7823E-03     36.9935E-03    -27.0830E-03     53.4973E-03    -26.6431E-03     36.9735E-03
            1616     5.25809E-03     44.5317E-03    -13.9219E+06    -98.1838E+06    -5.87191E+06     353.825E+03    -27.0325E-03     53.7982E-03    -26.7657E-03     31.4559E-03    -26.9557E-03     53.3405E-03    -26.6325E-03     31.4414E-03
            1617     4.38177E-03     44.5043E-03    -15.2471E+06    -101.927E+06    -8.61914E+06     292.438E+03    -26.9292E-03     53.6791E-03    -26.7499E-03     26.0352E-03    -26.8479E-03     53.2068E-03    -26.6231E-03     26.0246E-03
            1618     3.50545E-03     44.4819E-03    -16.4984E+06    -103.255E+06    -11.6649E+06     198.813E+03    -26.8424E-03     53.5727E-03    -26.7302E-03     20.7350E-03    -26.7599E-03     53.0989E-03    -26.6149E-03     20.7270E-03
            1619     2.62909E-03     44.4646E-03    -17.5840E+06    -105.498E+06    -14.6647E+06     102.439E+03    -26.7780E-03     53.4911E-03    -26.7131E-03     15.5102E-03    -26.6925E-03     53.0112E-03    -26.6080E-03     15.5040E-03
            1620     1.75276E-03     44.4522E-03    -18.3539E+06    -106.857E+06    -17.0006E+06     18.1067E+03    -26.7318E-03     53.4299E-03    -26.6981E-03     10.3966E-03    -26.6444E-03     52.9473E-03    -26.6016E-03     10.3920E-03
            1621     876.374E-06     44.4447E-03    -18.7765E+06    -107.728E+06    -18.4423E+06    -9.97674E+03    -26.7164E-03     53.3868E-03    -26.6703E-03     5.62793E-03    -26.6275E-03     52.9023E-03    -26.5791E-03     5.62525E-03
            1622     16.6480E-03     44.8217E-03    -5.41129E+06     182.360E+06     90.8398E+06     104.473E+03    -42.5073E-03     69.4129E-03    -26.9056E-03     333.731E-03    -58.4955E-03     85.7659E-03    -26.7080E-03     342.812E-03
            1623     15.7730E-03     44.4466E-03    -8.89356E+06     128.709E+06     18.8641E+06     276.950E+03    -45.1905E-03     71.8355E-03    -26.6451E-03     316.858E-03    -55.0992E-03     82.1149E-03    -26.7245E-03     318.330E-03
            1624     14.8966E-03     44.2042E-03    -9.34757E+06     47.3338E+06    -29.1526E+06     419.877E+03    -35.1734E-03     61.6998E-03    -26.5264E-03     183.293E-03    -36.9990E-03     63.7448E-03    -26.7273E-03     183.015E-03
            1625     14.0203E-03     44.0954E-03    -8.10375E+06    -6.50532E+06    -25.0602E+06     469.483E+03    -28.9423E-03     55.5599E-03    -26.6176E-03     95.2039E-03    -29.3110E-03     55.9494E-03    -26.7218E-03     94.9764E-03
            1626     13.1438E-03     44.0231E-03    -7.45665E+06    -25.1153E+06    -11.6874E+06     381.330E+03    -28.3164E-03     55.0197E-03    -26.7033E-03     79.0137E-03    -28.4759E-03     55.0975E-03    -26.7145E-03     78.8418E-03
            1627     12.2681E-03     43.9448E-03    -7.38813E+06    -36.3971E+06    -4.27798E+06     312.371E+03    -28.3914E-03     55.1390E-03    -26.7477E-03     78.9436E-03    -28.4910E-03     55.0956E-03    -26.7056E-03     78.8033E-03
            1628     11.3917E-03     43.8726E-03    -7.50550E+06    -54.3649E+06    -4.98761E+06     285.521E+03    -28.1716E-03     54.9313E-03    -26.7597E-03     71.8505E-03    -28.2037E-03     54.7582E-03    -26.6949E-03     71.7389E-03
            1629     10.5156E-03     43.8079E-03    -7.70206E+06    -69.4116E+06    -4.99983E+06     275.673E+03    -28.0024E-03     54.7707E-03    -26.7683E-03     65.0377E-03    -27.9854E-03     54.4945E-03    -26.6815E-03     64.9517E-03
            1630     9.63948E-03     43.7485E-03    -8.12466E+06    -75.7421E+06    -786.415E+03     289.440E+03    -27.8158E-03     54.5990E-03    -26.7832E-03     59.4934E-03    -27.7805E-03     54.2683E-03    -26.6655E-03     59.4276E-03
            1631     8.76331E-03     43.6944E-03    -8.91729E+06    -79.7930E+06     931.572E+03     311.908E+03    -27.6150E-03     54.3979E-03    -26.7829E-03     53.8126E-03    -27.5688E-03     54.0340E-03    -26.6496E-03     53.7627E-03
            1632     7.88711E-03     43.6457E-03    -9.94292E+06    -84.7305E+06     192.086E+03     319.353E+03    -27.4402E-03     54.2127E-03    -26.7726E-03     48.1153E-03    -27.3831E-03     53.8190E-03    -26.6343E-03     48.0778E-03
            1633     7.01086E-03     43.6024E-03    -11.1148E+06    -89.9752E+06    -680.047E+03     355.227E+03    -27.2824E-03     54.0449E-03    -26.7624E-03     42.4759E-03    -27.2170E-03     53.6226E-03    -26.6193E-03     42.4484E-03
            1634     6.13460E-03     43.5644E-03    -12.3972E+06    -93.4970E+06    -2.83730E+06     426.289E+03    -27.1319E-03     53.8762E-03    -26.7443E-03     36.8863E-03    -27.0611E-03     53.4376E-03    -26.6049E-03     36.8671E-03
            1635     5.25828E-03     43.5318E-03    -13.7978E+06    -98.0424E+06    -5.80079E+06     435.194E+03    -27.0036E-03     53.7288E-03    -26.7252E-03     31.3598E-03    -26.9265E-03     53.2714E-03    -26.5920E-03     31.3465E-03
            1636     4.38196E-03     43.5044E-03     -15.249E+06    -101.717E+06    -8.53936E+06     329.319E+03    -26.9010E-03     53.6077E-03    -26.7067E-03     25.9589E-03    -26.8201E-03     53.1364E-03    -26.5798E-03     25.9488E-03
            1637     3.50561E-03     43.4821E-03    -16.5346E+06    -103.041E+06    -11.5488E+06     147.307E+03    -26.8101E-03     53.4938E-03    -26.6837E-03     20.6538E-03    -26.7282E-03     53.0209E-03    -26.5680E-03     20.6451E-03
            1638     2.62925E-03     43.4648E-03    -17.5235E+06    -105.369E+06    -14.5081E+06    -15.8697E+03    -26.7336E-03     53.3973E-03    -26.6637E-03     15.4450E-03    -26.6482E-03     52.9177E-03    -26.5580E-03     15.4373E-03
            1639     1.75282E-03     43.4524E-03    -18.2262E+06    -106.849E+06    -16.9151E+06    -59.4151E+03    -26.6850E-03     53.3311E-03    -26.6461E-03     10.3646E-03    -26.5971E-03     52.8482E-03    -26.5493E-03     10.3590E-03
            1640     876.450E-06     43.4449E-03    -18.7369E+06    -107.750E+06    -18.4088E+06    -26.4477E+03    -26.6551E-03     53.2798E-03    -26.6247E-03     5.60288E-03    -26.5659E-03     52.7951E-03    -26.5333E-03     5.60001E-03
            1641     16.6513E-03     43.8233E-03    -5.77150E+06     182.071E+06     90.7701E+06     151.014E+03    -42.4635E-03     69.3526E-03    -26.8891E-03     333.508E-03    -58.4231E-03     85.6748E-03    -26.6908E-03     342.566E-03
            1642     15.7723E-03     43.4461E-03    -9.28841E+06     128.555E+06     18.8769E+06     371.309E+03    -45.0006E-03     71.6371E-03    -26.6364E-03     317.364E-03    -54.9383E-03     81.9434E-03    -26.7150E-03     318.876E-03
            1643     14.8964E-03     43.2033E-03    -9.41226E+06     47.4346E+06    -29.1208E+06     322.707E+03    -35.2545E-03     61.7759E-03    -26.5214E-03     183.179E-03    -37.0775E-03     63.8184E-03    -26.7222E-03     182.895E-03
            1644     14.0204E-03     43.0953E-03    -8.21371E+06    -6.42830E+06    -25.0489E+06     273.203E+03    -29.0555E-03     55.6614E-03    -26.6059E-03     95.0145E-03    -29.4247E-03     56.0512E-03    -26.7099E-03     94.7831E-03
            1645     13.1446E-03     43.0225E-03    -7.44929E+06    -25.0393E+06    -11.5596E+06     343.987E+03    -28.3610E-03     55.0464E-03    -26.6855E-03     78.9283E-03    -28.5207E-03     55.1243E-03    -26.6962E-03     78.7556E-03
            1646     12.2681E-03     42.9447E-03    -7.42386E+06    -36.3931E+06    -4.26197E+06     242.704E+03    -28.3706E-03     55.0977E-03    -26.7270E-03     78.8397E-03    -28.4701E-03     55.0539E-03    -26.6848E-03     78.6989E-03
            1647     11.3921E-03     42.8722E-03    -7.55101E+06    -54.3329E+06    -4.95716E+06     215.243E+03    -28.2052E-03     54.9418E-03    -26.7366E-03     71.7638E-03    -28.2374E-03     54.7687E-03    -26.6717E-03     71.6513E-03
            1648     10.5159E-03     42.8077E-03    -7.71745E+06    -69.3958E+06    -4.92454E+06     252.270E+03    -28.0206E-03     54.7616E-03    -26.7411E-03     64.9069E-03    -28.0036E-03     54.4853E-03    -26.6539E-03     64.8207E-03
            1649     9.63979E-03     42.7483E-03    -8.15364E+06    -75.7266E+06    -761.686E+03     249.019E+03    -27.8175E-03     54.5694E-03    -26.7519E-03     59.3576E-03    -27.7823E-03     54.2386E-03    -26.6341E-03     59.2914E-03
            1650     8.76363E-03     42.6943E-03    -8.95807E+06    -79.7973E+06     939.565E+03     277.918E+03    -27.6110E-03     54.3591E-03    -26.7481E-03     53.6773E-03    -27.5649E-03     53.9952E-03    -26.6147E-03     53.6271E-03
            1651     7.88739E-03     42.6456E-03    -9.99829E+06    -84.6784E+06     163.078E+03     286.640E+03    -27.4316E-03     54.1656E-03    -26.7340E-03     47.9982E-03    -27.3748E-03     53.7722E-03    -26.5959E-03     47.9604E-03
            1652     7.01116E-03     42.6024E-03    -11.1990E+06    -89.9732E+06    -745.679E+03     291.662E+03    -27.2660E-03     53.9861E-03    -26.7201E-03     42.3480E-03    -27.2009E-03     53.5640E-03    -26.5772E-03     42.3197E-03
            1653     6.13487E-03     42.5645E-03    -12.4562E+06    -93.5369E+06    -2.85119E+06     349.618E+03    -27.1018E-03     53.8010E-03    -26.6992E-03     36.7628E-03    -27.0312E-03     53.3624E-03    -26.5598E-03     36.7427E-03
            1654     5.25854E-03     42.5320E-03    -13.7069E+06    -98.0197E+06    -5.75745E+06     480.913E+03    -26.9730E-03     53.6502E-03    -26.6772E-03     31.2515E-03    -26.8955E-03     53.1928E-03    -26.5440E-03     31.2389E-03
            1655     4.38219E-03     42.5046E-03    -15.0574E+06    -101.341E+06    -8.33702E+06     424.665E+03    -26.8642E-03     53.5200E-03    -26.6558E-03     25.8628E-03    -26.7831E-03     53.0499E-03    -26.5287E-03     25.8541E-03
            1656     3.50581E-03     42.4823E-03    -16.3610E+06    -102.677E+06    -11.3245E+06     45.7511E+03    -26.7632E-03     53.3936E-03    -26.6304E-03     20.5768E-03    -26.6813E-03     52.9220E-03    -26.5144E-03     20.5670E-03
            1657     2.62938E-03     42.4651E-03    -17.4116E+06    -105.387E+06    -14.5016E+06    -129.160E+03    -26.6882E-03     53.2953E-03    -26.6072E-03     15.3858E-03    -26.6022E-03     52.8155E-03    -26.5016E-03     15.3767E-03
            1658     1.75295E-03     42.4528E-03    -18.2278E+06    -106.931E+06    -17.0074E+06    -28.0609E+03    -26.6295E-03     53.2161E-03    -26.5866E-03     10.3174E-03    -26.5413E-03     52.7329E-03    -26.4902E-03     10.3123E-03
            1659     876.458E-06     42.4453E-03    -18.7466E+06    -107.769E+06    -18.4669E+06     29.9893E+03    -26.5842E-03     53.1594E-03    -26.5752E-03     5.52126E-03    -26.4950E-03     52.6747E-03    -26.4841E-03     5.51919E-03
            1660     16.6487E-03     42.8237E-03    -5.92177E+06     181.891E+06     90.4387E+06     366.901E+03    -42.7081E-03     69.6047E-03    -26.8966E-03     333.699E-03    -58.6806E-03     85.9396E-03    -26.6996E-03     342.728E-03
            1661     15.7732E-03     42.4455E-03    -8.96491E+06     128.599E+06     18.9094E+06     279.733E+03    -45.4731E-03     72.1002E-03    -26.6271E-03     317.377E-03    -55.4316E-03     82.4286E-03    -26.7061E-03     318.816E-03
            1662     14.8968E-03     42.2033E-03    -8.73668E+06     47.7230E+06    -28.4775E+06     286.828E+03    -35.1466E-03     61.6494E-03    -26.5029E-03     182.734E-03    -36.9579E-03     63.6817E-03    -26.7018E-03     182.451E-03
            1663     14.0207E-03     42.0943E-03    -8.09869E+06    -6.48365E+06    -24.8783E+06     335.882E+03    -28.9742E-03     55.5637E-03    -26.5894E-03     94.9529E-03    -29.3414E-03     55.9512E-03    -26.6927E-03     94.7237E-03
            1664     13.1445E-03     42.0224E-03    -7.68970E+06    -25.1114E+06    -11.6782E+06     223.592E+03    -28.4011E-03     55.0692E-03    -26.6681E-03     78.9344E-03    -28.5619E-03     55.1474E-03    -26.6790E-03     78.7598E-03
            1665     12.2685E-03     41.9443E-03    -7.33031E+06    -36.1440E+06    -4.06470E+06     169.454E+03    -28.4443E-03     55.1492E-03    -26.7049E-03     78.8151E-03    -28.5439E-03     55.1063E-03    -26.6622E-03     78.6730E-03
            1666     11.3924E-03     41.8720E-03    -7.49510E+06    -54.3538E+06    -4.88207E+06     159.274E+03    -28.2440E-03     54.9522E-03    -26.7082E-03     71.6696E-03    -28.2759E-03     54.7786E-03    -26.6429E-03     71.5563E-03
            1667     10.5163E-03     41.8075E-03    -7.66809E+06    -69.4438E+06    -4.86791E+06     197.286E+03    -28.0315E-03     54.7393E-03    -26.7078E-03     64.7893E-03    -28.0142E-03     54.4624E-03    -26.6204E-03     64.7025E-03
            1668     9.64017E-03     41.7481E-03    -8.06808E+06    -75.6868E+06    -726.735E+03     253.284E+03    -27.8194E-03     54.5338E-03    -26.7144E-03     59.2246E-03    -27.7837E-03     54.2029E-03    -26.5966E-03     59.1586E-03
            1669     8.76397E-03     41.6942E-03    -8.90536E+06    -79.8080E+06     913.974E+03     262.929E+03    -27.6106E-03     54.3169E-03    -26.7062E-03     53.5312E-03    -27.5641E-03     53.9528E-03    -26.5730E-03     53.4810E-03
            1670     7.88777E-03     41.6456E-03    -9.98282E+06    -84.6539E+06     167.925E+03     305.455E+03    -27.4207E-03     54.1085E-03    -26.6878E-03     47.8500E-03    -27.3637E-03     53.7151E-03    -26.5498E-03     47.8125E-03
            1671     7.01150E-03     41.6024E-03    -11.2342E+06    -89.9085E+06    -762.793E+03     306.658E+03    -27.2396E-03     53.9096E-03    -26.6700E-03     42.1928E-03    -27.1747E-03     53.4878E-03    -26.5272E-03     42.1649E-03
            1672     6.13519E-03     41.5647E-03    -12.6411E+06    -93.5356E+06    -2.84793E+06     283.590E+03    -27.0727E-03     53.7184E-03    -26.6457E-03     36.6136E-03    -27.0029E-03     53.2800E-03    -26.5060E-03     36.5928E-03
            1673     5.25883E-03     41.5322E-03    -14.0640E+06    -98.2397E+06    -5.85931E+06     457.863E+03    -26.9346E-03     53.5545E-03    -26.6199E-03     31.1246E-03    -26.8584E-03     53.0966E-03    -26.4863E-03     31.1117E-03
            1674     4.38246E-03     41.5049E-03    -15.3661E+06    -100.803E+06    -9.05639E+06     442.405E+03    -26.8095E-03     53.4009E-03    -26.5915E-03     25.7432E-03    -26.7297E-03     52.9350E-03    -26.4683E-03     25.7347E-03
            1675     3.50600E-03     41.4827E-03    -16.5363E+06    -102.174E+06    -12.1582E+06    -13.3502E+03    -26.7046E-03     53.2685E-03    -26.5638E-03     20.4765E-03    -26.6231E-03     52.8008E-03    -26.4525E-03     20.4660E-03
            1676     2.62954E-03     41.4655E-03    -17.5669E+06    -105.654E+06    -14.7828E+06    -120.961E+03    -26.6339E-03     53.1760E-03    -26.5421E-03     15.2961E-03    -26.5479E-03     52.6955E-03    -26.4373E-03     15.2872E-03
            1677     1.75306E-03     41.4533E-03    -18.3835E+06    -106.968E+06    -17.1287E+06     29.1587E+03    -26.5686E-03     53.0868E-03    -26.5182E-03     10.2466E-03    -26.4809E-03     52.6038E-03    -26.4221E-03     10.2422E-03
            1678     876.565E-06     41.4458E-03    -18.8465E+06    -107.730E+06    -18.4976E+06     26.1910E+03    -26.5249E-03     53.0184E-03    -26.4935E-03     5.47589E-03    -26.4362E-03     52.5341E-03    -26.4025E-03     5.47379E-03
            1679     16.6489E-03     41.8210E-03    -5.04475E+06     181.898E+06     90.3448E+06     487.547E+03    -42.8433E-03     69.7389E-03    -26.8955E-03     333.230E-03    -58.7956E-03     86.0570E-03    -26.7003E-03     342.251E-03
            1680     15.7734E-03     41.4449E-03    -8.32206E+06     128.859E+06     18.8835E+06     516.335E+03    -45.5880E-03     72.2017E-03    -26.6137E-03     316.620E-03    -55.4867E-03     82.4736E-03    -26.6941E-03     318.039E-03
            1681     14.8976E-03     41.2031E-03    -8.65275E+06     47.6649E+06    -28.5730E+06     693.152E+03    -35.1637E-03     61.6475E-03    -26.4838E-03     183.147E-03    -36.9789E-03     63.6840E-03    -26.6832E-03     182.872E-03
            1682     14.0209E-03     41.0944E-03    -7.75157E+06    -6.12300E+06    -24.8730E+06     501.545E+03    -28.9938E-03     55.5628E-03    -26.5690E-03     95.0206E-03    -29.3599E-03     55.9517E-03    -26.6732E-03     94.7933E-03
            1683     13.1448E-03     41.0217E-03    -7.29677E+06    -24.8785E+06    -11.6005E+06     118.966E+03    -28.4109E-03     55.0568E-03    -26.6459E-03     78.7236E-03    -28.5696E-03     55.1349E-03    -26.6572E-03     78.5477E-03
            1684     12.2688E-03     40.9440E-03    -7.26665E+06    -36.1811E+06    -4.16770E+06     41.6177E+03    -28.5103E-03     55.1881E-03    -26.6778E-03     78.6544E-03    -28.6094E-03     55.1451E-03    -26.6357E-03     78.5102E-03
            1685     11.3927E-03     40.8717E-03    -7.40699E+06    -54.3640E+06    -4.99766E+06     126.842E+03    -28.2851E-03     54.9595E-03    -26.6744E-03     71.5367E-03    -28.3162E-03     54.7858E-03    -26.6098E-03     71.4230E-03
            1686     10.5167E-03     40.8073E-03    -7.58719E+06    -69.5121E+06    -4.96542E+06     195.072E+03    -28.0484E-03     54.7171E-03    -26.6688E-03     64.6425E-03    -28.0302E-03     54.4397E-03    -26.5818E-03     64.5558E-03
            1687     9.64056E-03     40.7480E-03    -8.09589E+06    -75.7044E+06     -808.14E+03     266.322E+03    -27.8321E-03     54.5023E-03    -26.6702E-03     59.0651E-03    -27.7963E-03     54.1714E-03    -26.5527E-03     58.9995E-03
            1688     8.76442E-03     40.6941E-03    -8.96706E+06    -79.7730E+06     837.081E+03     310.601E+03    -27.6142E-03     54.2705E-03    -26.6564E-03     53.3568E-03    -27.5678E-03     53.9067E-03    -26.5235E-03     53.3073E-03
            1689     7.88820E-03     40.6457E-03    -10.0776E+06    -84.6712E+06     134.566E+03     336.880E+03    -27.4037E-03     54.0367E-03    -26.6330E-03     47.6695E-03    -27.3470E-03     53.6433E-03    -26.4949E-03     47.6327E-03
            1690     7.01192E-03     40.6026E-03    -11.3518E+06    -89.8429E+06    -796.546E+03     373.776E+03    -27.2104E-03     53.8210E-03    -26.6106E-03     42.0217E-03    -27.1460E-03     53.3996E-03    -26.4678E-03     41.9949E-03
            1691     6.13559E-03     40.5649E-03    -12.8330E+06    -93.4876E+06    -2.87488E+06     397.420E+03    -27.0397E-03     53.6215E-03    -26.5818E-03     36.4479E-03    -26.9709E-03     53.1836E-03    -26.4420E-03     36.4287E-03
            1692     5.25921E-03     40.5325E-03    -14.3716E+06    -98.4105E+06    -5.90709E+06     485.754E+03    -26.8879E-03     53.4396E-03    -26.5517E-03     30.9657E-03    -26.8128E-03     52.9812E-03    -26.4177E-03     30.9533E-03
            1693     4.38276E-03     40.5053E-03    -15.6914E+06    -100.269E+06    -9.76027E+06     399.332E+03    -26.7471E-03     53.2626E-03    -26.5155E-03     25.5981E-03    -26.6687E-03     52.8008E-03    -26.3962E-03     25.5892E-03
            1694     3.50628E-03     40.4832E-03    -16.7886E+06    -101.711E+06    -12.9902E+06     43.3414E+03    -26.6375E-03     53.1222E-03    -26.4847E-03     20.3618E-03    -26.5567E-03     52.6584E-03    -26.3779E-03     20.3521E-03
            1695     2.62976E-03     40.4661E-03    -17.7810E+06    -105.922E+06    -15.0513E+06    -105.422E+03    -26.5597E-03     53.0248E-03    -26.4651E-03     15.2018E-03    -26.4741E-03     52.5437E-03    -26.3610E-03     15.1932E-03
            1696     1.75320E-03     40.4539E-03    -18.4993E+06    -106.958E+06    -17.2122E+06    -23.4574E+03    -26.4907E-03     52.9317E-03    -26.4410E-03     10.1685E-03    -26.4035E-03     52.4491E-03    -26.3452E-03     10.1635E-03
            1697     876.594E-06     40.4465E-03    -18.8981E+06    -107.705E+06    -18.5982E+06    -33.3774E+03    -26.4366E-03     52.8639E-03    -26.4273E-03     5.43817E-03    -26.3480E-03     52.3799E-03    -26.3368E-03     5.43532E-03
            1698     16.6504E-03     40.8201E-03    -5.72966E+06     181.538E+06     90.2104E+06     226.703E+03    -42.8340E-03     69.7110E-03    -26.8771E-03     333.575E-03    -58.7904E-03     86.0300E-03    -26.6810E-03     342.579E-03
            1699     15.7735E-03     40.4449E-03    -9.17232E+06     128.601E+06     18.1504E+06     734.074E+03    -45.2516E-03     71.8550E-03    -26.6034E-03     316.880E-03    -55.1569E-03     82.1317E-03    -26.6859E-03     318.361E-03
            1700     14.8965E-03     40.2023E-03    -9.76876E+06     47.6626E+06    -29.7642E+06     569.150E+03    -35.4427E-03     61.9153E-03    -26.4725E-03     182.960E-03    -37.2652E-03     63.9585E-03    -26.6763E-03     182.675E-03
            1701     14.0214E-03     40.0939E-03    -8.20241E+06    -5.50621E+06    -25.0687E+06     176.952E+03    -29.1809E-03     55.7259E-03    -26.5449E-03     94.7362E-03    -29.5497E-03     56.1187E-03    -26.6504E-03     94.5025E-03
            1702     13.1454E-03     40.0217E-03    -6.93698E+06    -24.5002E+06    -11.4710E+06     116.766E+03    -28.4429E-03     55.0563E-03    -26.6133E-03     78.6548E-03    -28.6000E-03     55.1350E-03    -26.6251E-03     78.4791E-03
            1703     12.2692E-03     39.9435E-03    -7.07335E+06    -36.2741E+06    -4.34826E+06     123.520E+03    -28.5043E-03     55.1456E-03    -26.6413E-03     78.5058E-03    -28.6015E-03     55.1015E-03    -26.6002E-03     78.3631E-03
            1704     11.3932E-03     39.8714E-03    -7.45113E+06    -54.4718E+06    -5.18543E+06     160.655E+03    -28.3109E-03     54.9451E-03    -26.6341E-03     71.3085E-03    -28.3415E-03     54.7708E-03    -26.5703E-03     71.1954E-03
            1705     10.5171E-03     39.8071E-03    -7.75781E+06    -69.5475E+06    -5.12913E+06     244.788E+03    -28.0734E-03     54.6961E-03    -26.6227E-03     64.4540E-03    -28.0556E-03     54.4187E-03    -26.5362E-03     64.3681E-03
            1706     9.64108E-03     39.7479E-03    -8.21970E+06    -75.7506E+06    -885.663E+03     284.394E+03    -27.8454E-03     54.4634E-03    -26.6180E-03     58.8644E-03    -27.8098E-03     54.1323E-03    -26.5007E-03     58.7991E-03
            1707     8.76492E-03     39.6941E-03    -9.07107E+06    -79.7875E+06     759.863E+03     362.673E+03    -27.6075E-03     54.2054E-03    -26.5979E-03     53.1561E-03    -27.5613E-03     53.8416E-03    -26.4653E-03     53.1075E-03
            1708     7.88871E-03     39.6458E-03    -10.1953E+06    -84.6575E+06     67.7974E+03     418.566E+03    -27.3853E-03     53.9542E-03    -26.5689E-03     47.4648E-03    -27.3290E-03     53.5610E-03    -26.4310E-03     47.4292E-03
            1709     7.01241E-03     39.6029E-03    -11.5247E+06    -89.8036E+06    -844.318E+03     438.332E+03    -27.1802E-03     53.7212E-03    -26.5410E-03     41.8310E-03    -27.1165E-03     53.3003E-03    -26.3983E-03     41.8051E-03
            1710     6.13605E-03     39.5653E-03    -12.9140E+06    -93.4524E+06    -2.94832E+06     469.004E+03    -26.9954E-03     53.5022E-03    -26.5067E-03     36.2692E-03    -26.9269E-03     53.0646E-03    -26.3673E-03     36.2511E-03
            1711     5.25962E-03     39.5330E-03    -14.2368E+06    -98.3691E+06    -5.91616E+06     462.766E+03    -26.8335E-03     53.3054E-03    -26.4719E-03     30.7930E-03    -26.7578E-03     52.8471E-03    -26.3382E-03     30.7805E-03
            1712     4.38315E-03     39.5059E-03    -15.4632E+06    -99.8937E+06    -9.50238E+06     371.189E+03    -26.6814E-03     53.1136E-03    -26.4322E-03     25.4564E-03    -26.6028E-03     52.6530E-03    -26.3124E-03     25.4473E-03
            1713     3.50658E-03     39.4838E-03    -16.6020E+06    -101.347E+06    -12.7209E+06     194.560E+03    -26.5590E-03     52.9574E-03    -26.3984E-03     20.2456E-03    -26.4781E-03     52.4947E-03    -26.2910E-03     20.2380E-03
            1714     2.62998E-03     39.4668E-03    -17.6758E+06    -105.895E+06    -15.0607E+06    -8.16364E+03    -26.4731E-03     52.8495E-03    -26.3764E-03     15.0989E-03    -26.3869E-03     52.3683E-03    -26.2725E-03     15.0917E-03
            1715     1.75335E-03     39.4547E-03    -18.5096E+06    -107.037E+06    -17.3240E+06    -84.9815E+03    -26.4013E-03     52.7532E-03    -26.3519E-03     10.0856E-03    -26.3139E-03     52.2703E-03    -26.2564E-03     10.0799E-03
            1716     876.703E-06     39.4473E-03    -18.9437E+06    -107.744E+06    -18.6808E+06    -38.9155E+03    -26.3319E-03     52.6861E-03    -26.3541E-03     5.36424E-03    -26.2434E-03     52.2021E-03    -26.2638E-03     5.36137E-03
            1717     16.6501E-03     39.8216E-03    -6.29778E+06     181.024E+06     90.2045E+06     414.326E+03    -42.9260E-03     69.8123E-03    -26.8863E-03     333.631E-03    -58.8787E-03     86.1237E-03    -26.6886E-03     342.612E-03
            1718     15.7726E-03     39.4435E-03    -9.86090E+06     128.519E+06     18.5729E+06     390.914E+03    -45.6863E-03     72.2882E-03    -26.6019E-03     316.950E-03    -55.6190E-03     82.5882E-03    -26.6811E-03     318.374E-03
            1719     14.8982E-03     39.2017E-03    -9.45089E+06     48.1854E+06    -29.1096E+06    -4.06591E+03    -35.5549E-03     62.0075E-03    -26.4526E-03     182.333E-03    -37.3700E-03     64.0445E-03    -26.6543E-03     182.036E-03
            1720     14.0216E-03     39.0933E-03    -7.73681E+06    -5.63834E+06    -24.9241E+06    -1.63867E+03    -29.1988E-03     55.7144E-03    -26.5156E-03     94.4813E-03    -29.5635E-03     56.1039E-03    -26.6208E-03     94.2457E-03
            1721     13.1457E-03     39.0213E-03    -6.98794E+06    -24.5440E+06    -11.4754E+06     200.399E+03    -28.5201E-03     55.0983E-03    -26.5782E-03     78.5328E-03    -28.6771E-03     55.1767E-03    -26.5898E-03     78.3577E-03
            1722     12.2698E-03     38.9432E-03    -7.12033E+06    -36.2077E+06    -4.21695E+06     333.619E+03    -28.5347E-03     55.1348E-03    -26.6001E-03     78.4408E-03    -28.6321E-03     55.0906E-03    -26.5583E-03     78.3009E-03
            1723     11.3937E-03     38.8712E-03    -7.46886E+06    -54.4734E+06    -5.06941E+06     339.089E+03    -28.3323E-03     54.9197E-03    -26.5874E-03     71.1459E-03    -28.3628E-03     54.7450E-03    -26.5229E-03     71.0353E-03
            1724     10.5177E-03     38.8069E-03    -7.74416E+06    -69.5308E+06    -5.08284E+06     287.680E+03    -28.1073E-03     54.6759E-03    -26.5686E-03     64.2259E-03    -28.0892E-03     54.3983E-03    -26.4820E-03     64.1406E-03
            1725     9.64167E-03     38.7479E-03    -8.22759E+06    -75.7758E+06    -869.563E+03     318.179E+03    -27.8478E-03     54.4045E-03    -26.5567E-03     58.6378E-03    -27.8120E-03     54.0730E-03    -26.4392E-03     58.5732E-03
            1726     8.76551E-03     38.6942E-03    -9.06520E+06    -79.8556E+06     793.321E+03     381.605E+03    -27.5974E-03     54.1278E-03    -26.5303E-03     52.9221E-03    -27.5510E-03     53.7634E-03    -26.3974E-03     52.8740E-03
            1727     7.88928E-03     38.6460E-03    -10.1339E+06    -84.6457E+06     132.364E+03     478.573E+03    -27.3641E-03     53.8589E-03    -26.4948E-03     47.2265E-03    -27.3075E-03     53.4654E-03    -26.3567E-03     47.1919E-03
            1728     7.01298E-03     38.6032E-03    -11.3507E+06    -89.6907E+06    -698.843E+03     475.399E+03    -27.1444E-03     53.6051E-03    -26.4606E-03     41.6070E-03    -27.0802E-03     53.1842E-03    -26.3176E-03     41.5818E-03
            1729     6.13658E-03     38.5658E-03    -12.7066E+06    -93.4084E+06    -2.90884E+06     444.131E+03    -26.9396E-03     53.3600E-03    -26.4204E-03     36.0599E-03    -26.8700E-03     52.9222E-03    -26.2811E-03     36.0417E-03
            1730     5.26011E-03     38.5336E-03    -14.1104E+06    -98.2257E+06    -5.93420E+06     436.475E+03    -26.7621E-03     53.1432E-03    -26.3811E-03     30.6018E-03    -26.6858E-03     52.6854E-03    -26.2479E-03     30.5892E-03
            1731     4.38354E-03     38.5066E-03    -15.4243E+06    -99.6770E+06    -9.38829E+06     370.686E+03    -26.6051E-03     52.9434E-03    -26.3382E-03     25.2976E-03    -26.5267E-03     52.4836E-03    -26.2183E-03     25.2886E-03
            1732     3.50693E-03     38.4847E-03    -16.5455E+06    -101.083E+06    -12.5443E+06     283.612E+03    -26.4720E-03     52.7731E-03    -26.3011E-03     20.1089E-03    -26.3915E-03     52.3114E-03    -26.1932E-03     20.1025E-03
            1733     2.63026E-03     38.4677E-03    -17.5499E+06    -105.690E+06    -14.9232E+06     162.073E+03    -26.3744E-03     52.6514E-03    -26.2770E-03     14.9942E-03    -26.2881E-03     52.1708E-03    -26.1729E-03     14.9892E-03
            1734     1.75354E-03     38.4556E-03    -18.4281E+06    -107.021E+06    -17.3219E+06     37.5238E+03    -26.2988E-03     52.5516E-03    -26.2528E-03     10.0112E-03    -26.2110E-03     52.0686E-03    -26.1575E-03     10.0071E-03
            1735     876.765E-06     38.4483E-03    -18.9791E+06    -107.794E+06    -18.6990E+06    -45.5813E+03    -26.2421E-03     52.4897E-03    -26.2476E-03     5.32747E-03    -26.1536E-03     52.0055E-03    -26.1573E-03     5.32455E-03
            1736     16.6480E-03     38.8191E-03    -5.26724E+06     181.063E+06     90.5514E+06     823.857E+03    -43.1392E-03     70.0241E-03    -26.8849E-03     332.832E-03    -59.0624E-03     86.3088E-03    -26.6870E-03     341.795E-03
            1737     15.7747E-03     38.4427E-03    -8.02041E+06     129.498E+06     20.0805E+06     289.368E+03    -45.8866E-03     72.4717E-03    -26.5852E-03     316.151E-03    -55.7658E-03     82.7239E-03    -26.6609E-03     317.538E-03
            1738     14.8975E-03     38.2010E-03    -7.97812E+06     48.3002E+06    -28.1375E+06     138.748E+03    -35.4880E-03     61.9155E-03    -26.4275E-03     182.434E-03    -37.2952E-03     63.9475E-03    -26.6267E-03     182.142E-03
            1739     14.0223E-03     38.0930E-03    -7.43765E+06    -5.94719E+06    -24.9064E+06     340.421E+03    -29.2902E-03     55.7763E-03    -26.4861E-03     94.3848E-03    -29.6529E-03     56.1637E-03    -26.5912E-03     94.1525E-03
            1740     13.1463E-03     38.0207E-03    -7.20568E+06    -24.7207E+06    -11.5562E+06     353.033E+03    -28.5809E-03     55.1223E-03    -26.5414E-03     78.4094E-03    -28.7386E-03     55.2002E-03    -26.5529E-03     78.2359E-03
            1741     12.2702E-03     37.9430E-03    -7.14237E+06    -36.2232E+06    -4.26950E+06     394.218E+03    -28.6164E-03     55.1711E-03    -26.5547E-03     78.3037E-03    -28.7137E-03     55.1269E-03    -26.5132E-03     78.1643E-03
            1742     11.3943E-03     37.8708E-03    -7.33797E+06    -54.3477E+06    -5.01784E+06     429.747E+03    -28.3938E-03     54.9266E-03    -26.5327E-03     70.9714E-03    -28.4237E-03     54.7520E-03    -26.4684E-03     70.8618E-03
            1743     10.5184E-03     37.8068E-03    -7.60980E+06    -69.4528E+06    -5.00014E+06     406.639E+03    -28.1336E-03     54.6391E-03    -26.5054E-03     63.9528E-03    -28.1149E-03     54.3612E-03    -26.4187E-03     63.8692E-03
            1744     9.64235E-03     37.7479E-03    -8.17184E+06    -75.7418E+06    -854.602E+03     394.358E+03    -27.8577E-03     54.3429E-03    -26.4852E-03     58.3725E-03    -27.8215E-03     54.0113E-03    -26.3678E-03     58.3092E-03
            1745     8.76621E-03     37.6944E-03    -9.10461E+06    -79.9097E+06     765.137E+03     445.251E+03    -27.5854E-03     54.0365E-03    -26.4511E-03     52.6444E-03    -27.5388E-03     53.6717E-03    -26.3182E-03     52.5974E-03
            1746     7.88998E-03     37.6464E-03    -10.1802E+06    -84.5661E+06    -28.9649E+03     430.528E+03    -27.3320E-03     53.7396E-03    -26.4076E-03     46.9594E-03    -27.2753E-03     53.3466E-03    -26.2704E-03     46.9245E-03
            1747     7.01362E-03     37.6037E-03    -11.3324E+06    -89.6164E+06    -898.862E+03     419.878E+03    -27.0953E-03     53.4620E-03    -26.3667E-03     41.3546E-03    -27.0307E-03     53.0416E-03    -26.2248E-03     41.3290E-03
            1748     6.13719E-03     37.5664E-03    -12.6661E+06    -93.3614E+06    -2.92649E+06     471.760E+03    -26.8723E-03     53.1941E-03    -26.3219E-03     35.8212E-03    -26.8025E-03     52.7564E-03    -26.1828E-03     35.8036E-03
            1749     5.26063E-03     37.5344E-03    -14.0469E+06    -98.0544E+06    -5.89796E+06     442.526E+03    -26.6815E-03     52.9594E-03    -26.2779E-03     30.3861E-03    -26.6052E-03     52.5022E-03    -26.1448E-03     30.3737E-03
            1750     4.38403E-03     37.5075E-03    -15.2998E+06    -99.5311E+06    -9.34599E+06     386.756E+03    -26.5116E-03     52.7429E-03    -26.2313E-03     25.1085E-03    -26.4328E-03     52.2835E-03    -26.1115E-03     25.0999E-03
            1751     3.50731E-03     37.4857E-03    -16.4432E+06    -100.911E+06    -12.4518E+06     355.208E+03    -26.3660E-03     52.5583E-03    -26.1923E-03     19.9549E-03    -26.2854E-03     52.0971E-03    -26.0844E-03     19.9495E-03
            1752     2.63053E-03     37.4688E-03    -17.5046E+06    -105.461E+06    -14.7939E+06     300.752E+03    -26.2644E-03     52.4321E-03    -26.1677E-03     14.8882E-03    -26.1784E-03     51.9525E-03    -26.0634E-03     14.8851E-03
            1753     1.75371E-03     37.4568E-03    -18.3486E+06    -106.827E+06    -17.1947E+06     198.467E+03    -26.1881E-03     52.3317E-03    -26.1436E-03     9.92240E-03    -26.1004E-03     51.8494E-03    -26.0481E-03     9.92050E-03
            1754     876.866E-06     37.4496E-03    -18.8749E+06    -107.692E+06    -18.6955E+06     88.9336E+03    -26.1407E-03     52.2712E-03    -26.1305E-03     5.29356E-03    -26.0519E-03     51.7874E-03    -26.0404E-03     5.29241E-03
            1755     16.6515E-03     37.8169E-03    -4.09239E+06     181.032E+06     90.4012E+06     489.257E+03    -43.2806E-03     70.1351E-03    -26.8545E-03     332.996E-03    -59.1933E-03     86.4138E-03    -26.6591E-03     341.909E-03
            1756     15.7738E-03     37.4429E-03    -7.28078E+06     129.858E+06     19.8465E+06     811.545E+03    -45.6780E-03     72.2339E-03    -26.5559E-03     316.149E-03    -55.5537E-03     82.4872E-03    -26.6344E-03     317.583E-03
            1757     14.8985E-03     37.1999E-03    -8.11938E+06     48.4159E+06    -28.3052E+06     900.518E+03    -35.6209E-03     62.0209E-03    -26.3999E-03     182.086E-03    -37.4264E-03     64.0515E-03    -26.5999E-03     181.799E-03
            1758     14.0225E-03     37.0924E-03    -7.45848E+06    -5.53388E+06    -24.7597E+06     595.886E+03    -29.3135E-03     55.7653E-03    -26.4517E-03     94.0042E-03    -29.6752E-03     56.1526E-03    -26.5567E-03     93.7754E-03
            1759     13.1467E-03     37.0204E-03    -7.01512E+06    -24.8469E+06    -11.5674E+06     399.724E+03    -28.6867E-03     55.1859E-03    -26.4992E-03     78.1994E-03    -28.8431E-03     55.2628E-03    -26.5108E-03     78.0258E-03
            1760     12.2709E-03     36.9426E-03    -7.00660E+06    -36.1722E+06    -4.27576E+06     441.749E+03    -28.7180E-03     55.2193E-03    -26.5013E-03     78.0508E-03    -28.8144E-03     55.1749E-03    -26.4601E-03     77.9117E-03
            1761     11.3951E-03     36.8706E-03    -7.26872E+06    -54.2975E+06    -4.99098E+06     471.206E+03    -28.4504E-03     54.9191E-03    -26.4687E-03     70.6730E-03    -28.4796E-03     54.7442E-03    -26.4044E-03     70.5641E-03
            1762     10.5192E-03     36.8067E-03    -7.52041E+06    -69.3596E+06    -4.92084E+06     508.320E+03    -28.1549E-03     54.5871E-03    -26.4322E-03     63.6541E-03    -28.1356E-03     54.3092E-03    -26.3453E-03     63.5722E-03
            1763     9.64316E-03     36.7480E-03    -8.03380E+06    -75.6814E+06    -833.364E+03     523.448E+03    -27.8694E-03     54.2720E-03    -26.4027E-03     58.0593E-03    -27.8323E-03     53.9402E-03    -26.2854E-03     57.9980E-03
            1764     8.76702E-03     36.6947E-03      -8.905E+06    -79.8785E+06     734.725E+03     516.126E+03    -27.5688E-03     53.9283E-03    -26.3595E-03     52.3429E-03    -27.5211E-03     53.5632E-03    -26.2271E-03     52.2972E-03
            1765     7.89075E-03     36.6468E-03    -10.0266E+06    -84.4392E+06    -72.5804E+03     515.869E+03    -27.2944E-03     53.6024E-03    -26.3080E-03     46.6630E-03    -27.2369E-03     53.2097E-03    -26.1713E-03     46.6295E-03
            1766     7.01438E-03     36.6043E-03    -11.3848E+06    -89.5348E+06    -1.03377E+06     453.772E+03    -27.0361E-03     53.2959E-03    -26.2599E-03     41.0600E-03    -26.9715E-03     52.8761E-03    -26.1187E-03     41.0351E-03
            1767     6.13786E-03     36.5672E-03    -12.7039E+06    -93.3061E+06    -3.05793E+06     402.112E+03    -26.7974E-03     53.0060E-03    -26.2086E-03     35.5415E-03    -26.7276E-03     52.5687E-03    -26.0702E-03     35.5233E-03
            1768     5.26127E-03     36.5353E-03    -13.9700E+06    -97.9390E+06    -5.97872E+06     427.206E+03    -26.5919E-03     52.7508E-03    -26.1588E-03     30.1340E-03    -26.5152E-03     52.2941E-03    -26.0265E-03     30.1217E-03
            1769     4.38455E-03     36.5086E-03    -15.2824E+06    -99.4119E+06    -9.44430E+06     448.759E+03    -26.4022E-03     52.5101E-03    -26.1079E-03     24.8821E-03    -26.3233E-03     52.0515E-03    -25.9888E-03     24.8744E-03
            1770     3.50773E-03     36.4869E-03    -16.4208E+06    -100.750E+06    -12.4894E+06     430.320E+03    -26.2471E-03     52.3135E-03    -26.0664E-03     19.7598E-03    -26.1664E-03     51.8531E-03    -25.9590E-03     19.7556E-03
            1771     2.63086E-03     36.4702E-03    -17.3925E+06    -105.252E+06    -14.7490E+06     397.973E+03    -26.1423E-03     52.1822E-03    -26.0399E-03     14.7295E-03    -26.0561E-03     51.7034E-03    -25.9358E-03     14.7278E-03
            1772     1.75394E-03     36.4582E-03    -18.2446E+06    -106.561E+06    -17.1151E+06     354.190E+03    -26.0623E-03     52.0759E-03    -26.0136E-03     9.80811E-03    -25.9745E-03     51.5947E-03    -25.9182E-03     9.80831E-03
            1773     876.981E-06     36.4510E-03    -18.8032E+06    -107.341E+06    -18.5329E+06     249.125E+03    -26.0052E-03     52.0088E-03    -26.0036E-03     5.24021E-03    -25.9168E-03     51.5264E-03    -25.9134E-03     5.24118E-03
            1774     16.6500E-03     36.8191E-03    -5.61928E+06     179.882E+06     89.3179E+06    -537.655E+03    -43.6014E-03     70.4541E-03    -26.8526E-03     333.470E-03    -59.5177E-03     86.7300E-03    -26.6587E-03     342.331E-03
            1775     15.7742E-03     36.4399E-03      -8.847E+06     128.892E+06     18.8532E+06     647.613E+03    -46.2044E-03     72.7387E-03    -26.5343E-03     315.959E-03    -56.0940E-03     82.9998E-03    -26.6141E-03     317.323E-03
            1776     14.8992E-03     36.2000E-03    -8.95405E+06     48.8468E+06    -28.5123E+06     974.805E+03    -35.6332E-03     61.9934E-03    -26.3602E-03     181.309E-03    -37.4309E-03     64.0155E-03    -26.5606E-03     181.023E-03
            1777     14.0232E-03     36.0916E-03    -7.50613E+06    -5.32398E+06    -25.0212E+06     675.701E+03    -29.2994E-03     55.7048E-03    -26.4055E-03     93.9717E-03    -29.6599E-03     56.0924E-03    -26.5120E-03     93.7450E-03
            1778     13.1475E-03     36.0199E-03    -6.88627E+06    -24.5247E+06    -11.7050E+06     580.910E+03    -28.7911E-03     55.2379E-03    -26.4468E-03     77.9857E-03    -28.9467E-03     55.3159E-03    -26.4598E-03     77.8140E-03
            1779     12.2717E-03     35.9421E-03    -7.15412E+06    -36.1614E+06    -4.58053E+06     515.125E+03    -28.8176E-03     55.2550E-03    -26.4374E-03     77.8123E-03    -28.9140E-03     55.2109E-03    -26.3975E-03     77.6738E-03
            1780     11.3959E-03     35.8704E-03    -7.29127E+06    -54.2768E+06    -5.21635E+06     522.239E+03    -28.4975E-03     54.8913E-03    -26.3938E-03     70.3447E-03    -28.5261E-03     54.7164E-03    -26.3306E-03     70.2367E-03
            1781     10.5201E-03     35.8066E-03    -7.48755E+06    -69.3489E+06    -5.08303E+06     597.671E+03    -28.1781E-03     54.5257E-03    -26.3476E-03     63.3539E-03    -28.1580E-03     54.2475E-03    -26.2616E-03     63.2735E-03
            1782     9.64406E-03     35.7481E-03    -8.01735E+06    -75.6073E+06    -967.829E+03     640.972E+03    -27.8725E-03     54.1809E-03    -26.3084E-03     57.7207E-03    -27.8349E-03     53.8493E-03    -26.1920E-03     57.6612E-03
            1783     8.76791E-03     35.6950E-03    -8.92135E+06    -79.7894E+06     605.158E+03     613.047E+03    -27.5569E-03     53.8124E-03    -26.2555E-03     51.9993E-03    -27.5089E-03     53.4477E-03    -26.1238E-03     51.9552E-03
            1784     7.89165E-03     35.6474E-03    -10.0253E+06    -84.3780E+06    -190.221E+03     623.257E+03    -27.2576E-03     53.4519E-03    -26.1943E-03     46.3120E-03    -27.1998E-03     53.0595E-03    -26.0583E-03     46.2802E-03
            1785     7.01522E-03     35.6051E-03    -11.2189E+06    -89.2778E+06    -1.06854E+06     560.338E+03    -26.9755E-03     53.1126E-03    -26.1371E-03     40.7126E-03    -26.9102E-03     52.6937E-03    -25.9967E-03     40.6894E-03
            1786     6.13868E-03     35.5682E-03    -12.6371E+06    -93.1906E+06    -3.20618E+06     415.364E+03    -26.7160E-03     52.7935E-03    -26.0775E-03     35.2149E-03    -26.6457E-03     52.3568E-03    -25.9401E-03     35.1971E-03
            1787     5.26197E-03     35.5365E-03    -14.0603E+06    -97.9336E+06    -6.15273E+06     415.248E+03    -26.4895E-03     52.5102E-03    -26.0207E-03     29.8302E-03    -26.4129E-03     52.0539E-03    -25.8891E-03     29.8180E-03
            1788     4.38518E-03     35.5100E-03    -15.2347E+06    -99.3024E+06    -9.50110E+06     472.771E+03    -26.2856E-03     52.2492E-03    -25.9636E-03     24.6042E-03    -26.2064E-03     51.7910E-03    -25.8451E-03     24.5971E-03
            1789     3.50827E-03     35.4884E-03    -16.2931E+06    -100.611E+06    -12.5747E+06     506.165E+03    -26.1173E-03     52.0334E-03    -25.9161E-03     19.5330E-03    -26.0361E-03     51.5736E-03    -25.8094E-03     19.5299E-03
            1790     2.63128E-03     35.4718E-03    -17.3397E+06    -105.063E+06    -14.8172E+06     550.928E+03    -25.9969E-03     51.8823E-03    -25.8854E-03     14.5572E-03    -25.9106E-03     51.4044E-03    -25.7820E-03     14.5576E-03
            1791     1.75421E-03     35.4599E-03    -18.1695E+06    -106.156E+06    -17.0228E+06     473.606E+03    -25.9086E-03     51.7656E-03    -25.8570E-03     9.69312E-03    -25.8212E-03     51.2862E-03    -25.7618E-03     9.69494E-03
            1792     877.119E-06     35.4528E-03    -18.6042E+06    -106.836E+06    -18.3499E+06     284.126E+03    -25.8505E-03     51.6938E-03    -25.8432E-03     5.15775E-03    -25.7621E-03     51.2133E-03    -25.7531E-03     5.15922E-03
            1793     16.6488E-03     35.8144E-03    -6.15629E+06     179.312E+06     89.3955E+06     -523.49E+03    -43.9243E-03     70.7587E-03    -26.8345E-03     331.867E-03    -59.7582E-03     86.9481E-03    -26.6386E-03     340.652E-03
            1794     15.7758E-03     35.4391E-03    -9.21800E+06     127.516E+06     18.5025E+06    -277.379E+03    -46.0436E-03     72.5407E-03    -26.4970E-03     314.585E-03    -55.8484E-03     82.7117E-03    -26.5761E-03     315.931E-03
            1795     14.8995E-03     35.1993E-03    -8.93324E+06     48.8208E+06    -28.8105E+06     549.859E+03    -35.5383E-03     61.8586E-03    -26.3202E-03     181.407E-03    -37.3317E-03     63.8771E-03    -26.5221E-03     181.121E-03
            1796     14.0239E-03     35.0912E-03    -7.81052E+06    -5.30771E+06    -25.3312E+06     893.979E+03    -29.5465E-03     55.9051E-03    -26.3587E-03     93.9624E-03    -29.9093E-03     56.2948E-03    -26.4663E-03     93.7353E-03
            1797     13.1481E-03     35.0193E-03    -7.27643E+06    -24.1585E+06    -11.9411E+06     780.447E+03    -28.8899E-03     55.2751E-03    -26.3852E-03     77.8078E-03    -29.0471E-03     55.3553E-03    -26.3993E-03     77.6382E-03
            1798     12.2726E-03     34.9416E-03    -7.16552E+06    -35.9783E+06    -4.79337E+06     557.308E+03    -28.8811E-03     55.2458E-03    -26.3647E-03     77.4438E-03    -28.9767E-03     55.2022E-03    -26.3261E-03     77.3060E-03
            1799     11.3969E-03     34.8702E-03    -7.39287E+06    -54.3601E+06    -5.57841E+06     566.439E+03    -28.5466E-03     54.8566E-03    -26.3100E-03     70.0091E-03    -28.5744E-03     54.6814E-03    -26.2484E-03     69.9019E-03
            1800     10.5210E-03     34.8066E-03    -7.65495E+06    -69.3929E+06    -5.37570E+06     686.648E+03    -28.2214E-03     54.4739E-03    -26.2525E-03     62.9927E-03    -28.2012E-03     54.1957E-03    -26.1676E-03     62.9138E-03
            1801     9.64506E-03     34.7484E-03    -8.11122E+06    -75.5229E+06    -1.10773E+06     732.268E+03    -27.8860E-03     54.0876E-03    -26.2016E-03     57.3172E-03    -27.8485E-03     53.7564E-03    -26.0859E-03     57.2593E-03
            1802     8.76895E-03     34.6955E-03    -9.00839E+06    -79.6848E+06     485.405E+03     757.399E+03    -27.5480E-03     53.6846E-03    -26.1366E-03     51.5710E-03    -27.5001E-03     53.3205E-03    -26.0056E-03     51.5291E-03
            1803     7.89266E-03     34.6481E-03    -10.0727E+06    -84.1852E+06    -492.102E+03     630.592E+03    -27.2191E-03     53.2817E-03    -26.0626E-03     45.8910E-03    -27.1612E-03     52.8906E-03    -25.9284E-03     45.8598E-03
            1804     7.01622E-03     34.6061E-03    -11.2476E+06    -89.1683E+06    -1.43295E+06     592.976E+03    -26.9119E-03     52.9061E-03    -25.9942E-03     40.3095E-03    -26.8463E-03     52.4881E-03    -25.8558E-03     40.2871E-03
            1805     6.13958E-03     34.5695E-03    -12.6445E+06    -92.9870E+06    -3.22077E+06     637.129E+03    -26.6272E-03     52.5530E-03    -25.9258E-03     34.8242E-03    -26.5571E-03     52.1173E-03    -25.7888E-03     34.8096E-03
            1806     5.26283E-03     34.5380E-03    -14.1194E+06    -97.7157E+06    -6.15306E+06     439.794E+03    -26.3764E-03     52.2361E-03    -25.8597E-03     29.4724E-03    -26.3003E-03     51.7809E-03    -25.7283E-03     29.4607E-03
            1807     4.38592E-03     34.5117E-03    -15.3475E+06    -99.3588E+06    -9.78379E+06     387.612E+03    -26.1500E-03     51.9434E-03    -25.7934E-03     24.2932E-03    -26.0709E-03     51.4855E-03    -25.6760E-03     24.2852E-03
            1808     3.50889E-03     34.4903E-03    -16.3642E+06    -100.608E+06    -12.8244E+06     644.050E+03    -25.9606E-03     51.7000E-03    -25.7394E-03     19.2851E-03    -25.8793E-03     51.2407E-03    -25.6339E-03     19.2840E-03
            1809     2.63174E-03     34.4737E-03    -17.3131E+06    -104.691E+06    -14.7534E+06     678.065E+03    -25.8263E-03     51.5312E-03    -25.7050E-03     14.3712E-03    -25.7404E-03     51.0550E-03    -25.6018E-03     14.3734E-03
            1810     1.75454E-03     34.4619E-03    -18.0100E+06    -105.647E+06    -16.8067E+06     444.471E+03    -25.7288E-03     51.4027E-03    -25.6740E-03     9.57259E-03    -25.6416E-03     50.9253E-03    -25.5787E-03     9.57412E-03
            1811     877.286E-06     34.4548E-03    -18.3956E+06    -106.323E+06    -18.0795E+06     235.043E+03    -25.6709E-03     51.3255E-03    -25.6546E-03     5.09067E-03    -25.5826E-03     50.8469E-03    -25.5641E-03     5.09155E-03
            1812     16.6538E-03     34.8127E-03    -5.28299E+06     179.833E+06     90.1358E+06    -79.8518E+03    -44.0637E-03     70.8589E-03    -26.7952E-03     331.551E-03    -59.8473E-03     87.0007E-03    -26.5976E-03     340.268E-03
            1813     15.7757E-03     34.4400E-03    -8.53199E+06     126.899E+06     18.2234E+06    -53.0940E+03    -45.6028E-03     72.0656E-03    -26.4629E-03     315.203E-03    -55.4095E-03     82.2397E-03    -26.5434E-03     316.625E-03
            1814     14.8996E-03     34.1977E-03    -9.25380E+06     48.0976E+06    -29.6725E+06     591.928E+03    -35.9174E-03     62.2048E-03    -26.2875E-03     181.577E-03    -37.7135E-03     64.2249E-03    -26.4921E-03     181.279E-03
            1815     14.0245E-03     34.0907E-03    -8.22618E+06    -4.99527E+06    -25.2986E+06     815.386E+03    -29.8506E-03     56.1570E-03    -26.3063E-03     93.4498E-03    -30.2150E-03     56.5478E-03    -26.4136E-03     93.2181E-03
            1816     13.1493E-03     34.0185E-03    -7.09402E+06    -23.9441E+06    -11.8451E+06     685.793E+03    -29.0198E-03     55.3330E-03    -26.3132E-03     77.3602E-03    -29.1755E-03     55.4128E-03    -26.3274E-03     77.1889E-03
            1817     12.2736E-03     33.9413E-03    -7.00755E+06    -35.8983E+06    -4.68083E+06     720.697E+03    -28.8876E-03     55.1697E-03    -26.2820E-03     77.0816E-03    -28.9817E-03     55.1249E-03    -26.2432E-03     76.9467E-03
            1818     11.3979E-03     33.8699E-03    -7.35096E+06    -54.3975E+06    -5.54888E+06     706.352E+03    -28.6203E-03     54.8369E-03    -26.2166E-03     69.6137E-03    -28.6473E-03     54.6608E-03    -26.1548E-03     69.5085E-03
            1819     10.5222E-03     33.8067E-03    -7.63411E+06    -69.3319E+06    -5.37977E+06     731.635E+03    -28.2813E-03     54.4256E-03    -26.1442E-03     62.4956E-03    -28.2606E-03     54.1472E-03    -26.0595E-03     62.4175E-03
            1820     9.64626E-03     33.7487E-03    -8.03114E+06    -75.4729E+06    -1.11206E+06     741.032E+03    -27.9117E-03     53.9899E-03    -26.0782E-03     56.8274E-03    -27.8734E-03     53.6584E-03    -25.9627E-03     56.7700E-03
            1821     8.77015E-03     33.6961E-03    -8.67926E+06    -79.5546E+06     569.397E+03     726.343E+03    -27.5373E-03     53.5361E-03    -25.9988E-03     51.0584E-03    -27.4877E-03     53.1717E-03    -25.8680E-03     51.0166E-03
            1822     7.89386E-03     33.6491E-03    -9.66249E+06    -84.0054E+06    -311.326E+03     764.057E+03    -27.1775E-03     53.0889E-03    -25.9115E-03     45.3840E-03    -27.1177E-03     52.6976E-03    -25.7772E-03     45.3549E-03
            1823     7.01735E-03     33.6073E-03    -11.0029E+06    -89.1150E+06    -1.39926E+06     782.301E+03    -26.8395E-03     52.6693E-03    -25.8298E-03     39.8218E-03    -26.7726E-03     52.2510E-03    -25.6916E-03     39.8023E-03
            1824     6.14069E-03     33.5709E-03    -12.3872E+06    -92.7926E+06    -3.29928E+06     743.614E+03    -26.5236E-03     52.2721E-03    -25.7486E-03     34.3746E-03    -26.4522E-03     51.8370E-03    -25.6126E-03     34.3616E-03
            1825     5.26381E-03     33.5397E-03    -13.6629E+06    -97.1552E+06    -6.00634E+06     497.633E+03    -26.2430E-03     51.9151E-03    -25.6722E-03     29.0714E-03    -26.1655E-03     51.4617E-03    -25.5415E-03     29.0607E-03
            1826     4.38679E-03     33.5136E-03    -14.9019E+06    -99.5782E+06    -9.06165E+06     371.514E+03    -25.9918E-03     51.5928E-03    -25.6010E-03     23.9472E-03    -25.9112E-03     51.1320E-03    -25.4803E-03     23.9393E-03
            1827     3.50959E-03     33.4924E-03    -16.0002E+06    -100.775E+06    -11.9979E+06     727.484E+03    -25.7839E-03     51.3238E-03    -25.5399E-03     19.0002E-03    -25.7017E-03     50.8618E-03    -25.4306E-03     19.0003E-03
            1828     2.63231E-03     33.4760E-03    -16.9600E+06    -104.021E+06    -14.3730E+06     732.170E+03    -25.6291E-03     51.1253E-03    -25.4962E-03     14.1517E-03    -25.5429E-03     50.6514E-03    -25.3927E-03     14.1547E-03
            1829     1.75490E-03     33.4644E-03    -17.7206E+06    -105.162E+06    -16.5119E+06     387.693E+03    -25.5141E-03     50.9779E-03    -25.4639E-03     9.43460E-03    -25.4265E-03     50.5021E-03    -25.3683E-03     9.43548E-03
            1830     877.460E-06     33.4573E-03    -18.1640E+06    -105.891E+06    -17.8574E+06     172.090E+03    -25.4521E-03     50.9067E-03    -25.4546E-03     5.04573E-03    -25.3636E-03     50.4296E-03    -25.3640E-03     5.04581E-03
            1831     16.6503E-03     33.8136E-03    -5.69631E+06     179.792E+06     89.4669E+06    -252.196E+03    -44.0723E-03     70.9001E-03    -26.8279E-03     331.960E-03    -59.8503E-03     87.0368E-03    -26.6330E-03     340.683E-03
            1832     15.7748E-03     33.4371E-03    -9.37484E+06     126.534E+06     17.7383E+06     265.384E+03    -46.7499E-03     73.2218E-03    -26.4719E-03     315.334E-03    -56.5822E-03     83.4186E-03    -26.5531E-03     316.643E-03
            1833     14.9009E-03     33.1974E-03    -9.77220E+06     47.8313E+06    -29.6076E+06     608.245E+03    -36.4876E-03     62.7365E-03    -26.2489E-03     180.857E-03    -38.2814E-03     64.7513E-03    -26.4521E-03     180.545E-03
            1834     14.0255E-03     33.0889E-03    -8.27433E+06    -4.89915E+06    -25.5188E+06     516.826E+03    -29.9988E-03     56.2364E-03    -26.2377E-03     92.9227E-03    -30.3594E-03     56.6243E-03    -26.3461E-03     92.6865E-03
            1835     13.1504E-03     33.0182E-03    -7.13689E+06    -24.0527E+06    -12.1314E+06     546.454E+03    -29.0885E-03     55.3202E-03    -26.2316E-03     76.8919E-03    -29.2423E-03     55.3984E-03    -26.2471E-03     76.7191E-03
            1836     12.2746E-03     32.9410E-03    -7.10019E+06    -35.9817E+06    -4.85154E+06     775.963E+03    -29.0104E-03     55.1979E-03    -26.1875E-03     76.8172E-03    -29.1040E-03     55.1526E-03    -26.1493E-03     76.6828E-03
            1837     11.3992E-03     32.8697E-03    -7.20230E+06    -54.2064E+06    -5.53061E+06     840.027E+03    -28.7154E-03     54.8211E-03    -26.1056E-03     69.0912E-03    -28.7413E-03     54.6450E-03    -26.0443E-03     68.9879E-03
            1838     10.5235E-03     32.8068E-03    -7.38388E+06    -69.2681E+06    -5.38817E+06     789.829E+03    -28.3333E-03     54.3496E-03    -26.0164E-03     61.9239E-03    -28.3107E-03     54.0706E-03    -25.9322E-03     61.8470E-03
            1839     9.64763E-03     32.7491E-03    -7.80931E+06    -75.3362E+06    -1.14167E+06     742.119E+03    -27.9365E-03     53.8701E-03    -25.9336E-03     56.2481E-03    -27.8968E-03     53.5385E-03    -25.8187E-03     56.1912E-03
            1840     8.77157E-03     32.6969E-03    -8.66441E+06    -79.4884E+06     527.394E+03     720.147E+03    -27.5236E-03     53.3617E-03    -25.8380E-03     50.4662E-03    -27.4736E-03     52.9972E-03    -25.7076E-03     50.4248E-03
            1841     7.89524E-03     32.6502E-03    -9.70016E+06    -84.0415E+06    -377.071E+03     839.089E+03    -27.1248E-03     52.8598E-03    -25.7350E-03     44.8037E-03    -27.0648E-03     52.4682E-03    -25.6010E-03     44.7760E-03
            1842     7.01872E-03     32.6088E-03    -10.7354E+06    -88.9126E+06    -1.44132E+06     904.282E+03    -26.7459E-03     52.3842E-03    -25.6383E-03     39.2767E-03    -26.6777E-03     51.9664E-03    -25.5010E-03     39.2592E-03
            1843     6.14192E-03     32.5727E-03    -11.8939E+06    -92.5277E+06    -3.44788E+06     769.081E+03    -26.3958E-03     51.9393E-03    -25.5436E-03     33.8785E-03    -26.3220E-03     51.5048E-03    -25.4094E-03     33.8663E-03
            1844     5.26495E-03     32.5418E-03    -13.1171E+06    -96.6045E+06    -5.95999E+06     525.649E+03    -26.0846E-03     51.5414E-03    -25.4568E-03     28.6227E-03    -26.0052E-03     51.0898E-03    -25.3275E-03     28.6128E-03
            1845     4.38775E-03     32.5160E-03    -14.3989E+06    -99.7674E+06    -8.14005E+06     466.091E+03    -25.8127E-03     51.1939E-03    -25.3812E-03     23.5579E-03    -25.7306E-03     50.7300E-03    -25.2563E-03     23.5514E-03
            1846     3.51043E-03     32.4950E-03    -15.6653E+06    -100.947E+06    -11.0085E+06     727.453E+03    -25.5811E-03     50.8927E-03    -25.3117E-03     18.6849E-03    -25.4984E-03     50.4280E-03    -25.1976E-03     18.6853E-03
            1847     2.63293E-03     32.4788E-03    -16.6532E+06    -103.296E+06    -13.9554E+06     732.278E+03    -25.4027E-03     50.6600E-03    -25.2572E-03     13.9146E-03    -25.3167E-03     50.1885E-03    -25.1531E-03     13.9177E-03
            1848     1.75534E-03     32.4672E-03    -17.3714E+06    -104.674E+06    -16.3044E+06     425.769E+03    -25.2749E-03     50.4954E-03    -25.2205E-03     9.27088E-03    -25.1866E-03     50.0211E-03    -25.1251E-03     9.27236E-03
            1849     877.657E-06     32.4603E-03    -17.8393E+06    -105.453E+06    -17.6742E+06     251.226E+03    -25.2085E-03     50.4185E-03    -25.2100E-03     4.98870E-03    -25.1193E-03     49.9429E-03    -25.1196E-03     4.98984E-03
            1850     16.6477E-03     32.8075E-03    -5.79239E+06     179.838E+06     89.6388E+06     247.483E+03    -44.2075E-03     71.0544E-03    -26.8470E-03     330.413E-03    -59.9242E-03     87.1291E-03    -26.6511E-03     339.104E-03
            1851     15.7761E-03     32.4352E-03    -9.73321E+06     126.356E+06     17.7408E+06     61.8369E+03    -47.3852E-03     73.8372E-03    -26.4520E-03     312.664E-03    -57.1024E-03     83.9170E-03    -26.5324E-03     313.883E-03
            1852     14.9012E-03     32.1952E-03    -9.57179E+06     47.8296E+06    -29.7992E+06     153.884E+03    -36.7002E-03     62.8880E-03    -26.1878E-03     179.860E-03    -38.4810E-03     64.8911E-03    -26.3923E-03     179.535E-03
            1853     14.0269E-03     32.0882E-03    -8.26904E+06    -4.95658E+06    -25.8247E+06     427.778E+03    -30.0565E-03     56.2171E-03    -26.1607E-03     92.2941E-03    -30.4134E-03     56.6020E-03    -26.2706E-03     92.0567E-03
            1854     13.1512E-03     32.0176E-03    -7.52068E+06    -24.3393E+06    -12.5334E+06     469.099E+03    -29.1998E-03     55.3426E-03    -26.1429E-03     76.4828E-03    -29.3535E-03     55.4196E-03    -26.1593E-03     76.3087E-03
            1855     12.2761E-03     31.9403E-03    -7.19588E+06    -36.0795E+06    -5.18848E+06     587.711E+03    -29.2191E-03     55.2985E-03    -26.0794E-03     76.3865E-03    -29.3124E-03     55.2531E-03    -26.0425E-03     76.2488E-03
            1856     11.4007E-03     31.8696E-03    -7.16775E+06    -54.1231E+06    -5.76946E+06     776.928E+03    -28.8337E-03     54.8091E-03    -25.9754E-03     68.5339E-03    -28.8584E-03     54.6330E-03    -25.9154E-03     68.4300E-03
            1857     10.5250E-03     31.8069E-03    -7.23712E+06    -69.2082E+06    -5.52919E+06     877.522E+03    -28.3991E-03     54.2656E-03    -25.8665E-03     61.2862E-03    -28.3751E-03     53.9862E-03    -25.7833E-03     61.2108E-03
            1858     9.64928E-03     31.7497E-03    -7.74048E+06    -75.1794E+06    -1.20922E+06     908.615E+03    -27.9526E-03     53.7177E-03    -25.7651E-03     55.5716E-03    -27.9122E-03     53.3864E-03    -25.6509E-03     55.5174E-03
            1859     8.77318E-03     31.6979E-03    -8.71467E+06    -79.3787E+06     550.001E+03     895.694E+03    -27.4949E-03     53.1471E-03    -25.6522E-03     49.7961E-03    -27.4449E-03     52.7829E-03    -25.5218E-03     49.7575E-03
            1860     7.89687E-03     31.6516E-03    -9.76686E+06    -83.9352E+06    -456.432E+03     797.650E+03    -27.0505E-03     52.5825E-03    -25.5320E-03     44.1609E-03    -26.9906E-03     52.1913E-03    -25.3984E-03     44.1333E-03
            1861     7.02021E-03     31.6106E-03    -10.7304E+06    -88.7859E+06    -1.73583E+06     732.539E+03    -26.6306E-03     52.0496E-03    -25.4189E-03     38.6800E-03    -26.5619E-03     51.6326E-03    -25.2833E-03     38.6607E-03
            1862     6.14337E-03     31.5749E-03    -11.7173E+06    -92.2741E+06    -3.59759E+06     756.883E+03    -26.2439E-03     51.5549E-03    -25.3110E-03     33.3251E-03    -26.1692E-03     51.1215E-03    -25.1782E-03     33.3132E-03
            1863     5.26621E-03     31.5443E-03    -12.9711E+06    -96.2448E+06    -6.05373E+06     696.288E+03    -25.9025E-03     51.1149E-03    -25.2123E-03     28.1259E-03    -25.8227E-03     50.6648E-03    -25.0843E-03     28.1186E-03
            1864     4.38890E-03     31.5188E-03    -14.4408E+06    -99.7795E+06    -8.14480E+06     670.508E+03    -25.6047E-03     50.7318E-03    -25.1271E-03     23.1295E-03    -25.5226E-03     50.2679E-03    -25.0022E-03     23.1260E-03
            1865     3.51134E-03     31.4981E-03    -15.7610E+06    -100.850E+06    -10.8368E+06     643.059E+03    -25.3469E-03     50.3960E-03    -25.0491E-03     18.3286E-03    -25.2650E-03     49.9316E-03    -24.9342E-03     18.3281E-03
            1866     2.63365E-03     31.4820E-03    -16.6684E+06    -102.822E+06    -13.8468E+06     557.816E+03    -25.1493E-03     50.1353E-03    -24.9860E-03     13.6469E-03    -25.0642E-03     49.6661E-03    -24.8819E-03     13.6479E-03
            1867     1.75582E-03     31.4707E-03    -17.2903E+06    -104.191E+06    -16.1503E+06     473.911E+03    -25.0144E-03     49.9551E-03    -24.9407E-03     9.09077E-03    -24.9266E-03     49.4829E-03    -24.8453E-03     9.09298E-03
            1868     877.946E-06     31.4637E-03    -17.7190E+06    -104.933E+06    -17.4211E+06     298.094E+03    -24.9360E-03     49.8481E-03    -24.9122E-03     4.92433E-03    -24.8472E-03     49.3746E-03    -24.8214E-03     4.92611E-03
            1869     16.6531E-03     31.8056E-03    -5.60180E+06     180.150E+06     90.5745E+06     683.338E+03    -44.9299E-03     71.7189E-03    -26.7891E-03     330.498E-03    -60.6340E-03     87.7801E-03    -26.5893E-03     339.048E-03
            1870     15.7767E-03     31.4330E-03    -8.70251E+06     126.891E+06     18.6551E+06     408.466E+03    -47.0943E-03     73.4704E-03    -26.3761E-03     311.966E-03    -56.7824E-03     83.5240E-03    -26.4542E-03     313.222E-03
            1871     14.9030E-03     31.1933E-03    -8.92805E+06     47.6137E+06    -30.0505E+06     209.963E+03    -36.6729E-03     62.7800E-03    -26.1072E-03     178.662E-03    -38.4299E-03     64.7616E-03    -26.3135E-03     178.335E-03
            1872     14.0275E-03     31.0875E-03    -7.91305E+06    -4.89111E+06    -25.7265E+06     396.184E+03    -30.0986E-03     56.1708E-03    -26.0722E-03     91.4890E-03    -30.4510E-03     56.5524E-03    -26.1823E-03     91.2514E-03
            1873     13.1529E-03     31.0168E-03    -7.25059E+06    -24.2557E+06    -12.5367E+06     439.074E+03    -29.3981E-03     55.4363E-03    -26.0381E-03     75.9980E-03    -29.5496E-03     55.5122E-03    -26.0551E-03     75.8226E-03
            1874     12.2775E-03     30.9399E-03    -7.15748E+06    -36.2051E+06    -5.50322E+06     448.245E+03    -29.3788E-03     55.3310E-03    -25.9522E-03     75.8328E-03    -29.4704E-03     55.2846E-03    -25.9168E-03     75.6929E-03
            1875     11.4023E-03     30.8693E-03    -7.21319E+06    -54.3112E+06    -5.95715E+06     623.770E+03    -28.9780E-03     54.8040E-03    -25.8259E-03     67.7904E-03    -29.0016E-03     54.6264E-03    -25.7665E-03     67.6845E-03
            1876     10.5269E-03     30.8073E-03    -7.34025E+06    -69.2237E+06    -5.57013E+06     939.727E+03    -28.4623E-03     54.1568E-03    -25.6945E-03     60.5336E-03    -28.4379E-03     53.8768E-03    -25.6114E-03     60.4595E-03
            1877     9.65111E-03     30.7504E-03    -7.76580E+06    -75.0580E+06    -1.25278E+06     1.05014E+06    -27.9549E-03     53.5271E-03    -25.5722E-03     54.8448E-03    -27.9140E-03     53.1958E-03    -25.4584E-03     54.7930E-03
            1878     8.77509E-03     30.6991E-03    -8.51142E+06    -79.1752E+06     733.758E+03     986.472E+03    -27.4471E-03     52.8882E-03    -25.4411E-03     49.0697E-03    -27.3962E-03     52.5239E-03    -25.3103E-03     49.0330E-03
            1879     7.89864E-03     30.6532E-03    -9.56120E+06    -83.6362E+06    -201.500E+03     877.426E+03    -26.9589E-03     52.2624E-03    -25.3035E-03     43.4553E-03    -26.8984E-03     51.8716E-03    -25.1693E-03     43.4293E-03
            1880     7.02199E-03     30.6127E-03    -10.8030E+06    -88.5714E+06    -1.67887E+06      698.25E+03    -26.4980E-03     51.6714E-03    -25.1734E-03     38.0113E-03    -26.4298E-03     51.2553E-03    -25.0377E-03     37.9923E-03
            1881     6.14494E-03     30.5774E-03    -11.9915E+06    -92.2342E+06    -3.93296E+06     647.736E+03    -26.0703E-03     51.1194E-03    -25.0491E-03     32.7144E-03    -25.9964E-03     50.6868E-03    -24.9176E-03     32.7016E-03
            1882     5.26768E-03     30.5472E-03    -13.0241E+06    -96.1098E+06    -6.29135E+06     800.176E+03    -25.6942E-03     50.6314E-03    -24.9372E-03     27.5796E-03    -25.6144E-03     50.1824E-03    -24.8104E-03     27.5740E-03
            1883     4.39012E-03     30.5221E-03    -14.1093E+06    -99.5068E+06    -7.89283E+06     761.233E+03    -25.3673E-03     50.2095E-03    -24.8422E-03     22.6585E-03    -25.2843E-03     49.7460E-03    -24.7169E-03     22.6565E-03
            1884     3.51240E-03     30.5016E-03    -15.3039E+06    -100.574E+06    -10.5730E+06     625.578E+03    -25.0884E-03     49.8422E-03    -24.7538E-03     17.9348E-03    -25.0049E-03     49.3780E-03    -24.6386E-03     17.9344E-03
            1885     2.63445E-03     30.4859E-03    -16.5035E+06    -102.521E+06    -13.8413E+06     570.573E+03    -24.8681E-03     49.5487E-03    -24.6806E-03     13.3472E-03    -24.7825E-03     49.0807E-03    -24.5773E-03     13.3486E-03
            1886     1.75638E-03     30.4746E-03    -17.3489E+06    -103.721E+06    -16.0768E+06     404.908E+03    -24.7123E-03     49.3409E-03    -24.6286E-03     8.90824E-03    -24.6256E-03     48.8710E-03    -24.5335E-03     8.90967E-03
            1887     878.215E-06     30.4678E-03    -17.7413E+06    -104.425E+06    -17.4128E+06     231.614E+03    -24.6139E-03     49.2168E-03    -24.6029E-03     4.83937E-03    -24.5260E-03     48.7458E-03    -24.5128E-03     4.84034E-03
            1888     16.6515E-03     30.8052E-03    -5.04277E+06     180.009E+06     90.6613E+06     544.728E+03    -45.7290E-03     72.4814E-03    -26.7524E-03     330.644E-03    -61.3840E-03     88.4947E-03    -26.5528E-03     339.035E-03
            1889     15.7783E-03     30.4288E-03    -8.44768E+06     127.237E+06     19.3186E+06     807.813E+03    -47.5156E-03     73.8279E-03    -26.3123E-03     312.165E-03    -57.2147E-03     83.8927E-03    -26.3880E-03     313.363E-03
            1890     14.9041E-03     30.1929E-03    -8.88391E+06     47.7443E+06    -29.7724E+06     690.825E+03    -36.8353E-03     62.8565E-03    -26.0212E-03     177.706E-03    -38.5738E-03     64.8193E-03    -26.2264E-03     177.384E-03
            1891     14.0295E-03     30.0860E-03    -7.76299E+06    -4.73070E+06    -25.8639E+06     462.029E+03    -30.3348E-03     56.2973E-03    -25.9625E-03     90.7881E-03    -30.6834E-03     56.6765E-03    -26.0737E-03     90.5496E-03
            1892     13.1543E-03     30.0164E-03    -7.13149E+06    -24.1737E+06    -12.6227E+06     481.493E+03    -29.5570E-03     55.4637E-03    -25.9067E-03     75.2972E-03    -29.7060E-03     55.5381E-03    -25.9244E-03     75.1222E-03
            1893     12.2794E-03     29.9391E-03    -7.12805E+06    -36.0302E+06    -5.50601E+06     479.415E+03    -29.5183E-03     55.3175E-03    -25.7993E-03     75.1180E-03    -29.6087E-03     55.2707E-03    -25.7642E-03     74.9786E-03
            1894     11.4044E-03     29.8692E-03    -7.46581E+06    -54.5276E+06    -6.14897E+06     629.561E+03    -29.0427E-03     54.6940E-03    -25.6513E-03     66.9155E-03    -29.0657E-03     54.5148E-03    -25.5921E-03     66.8103E-03
            1895     10.5289E-03     29.8077E-03    -7.54172E+06    -69.4288E+06    -5.85363E+06     820.186E+03    -28.4938E-03     53.9922E-03    -25.4985E-03     59.7377E-03    -28.4688E-03     53.7110E-03    -25.4162E-03     59.6628E-03
            1896     9.65325E-03     29.7513E-03    -7.69084E+06    -74.9838E+06    -1.42108E+06     975.866E+03    -27.9468E-03     53.3018E-03    -25.3550E-03     54.0562E-03    -27.9047E-03     52.9704E-03    -25.2422E-03     54.0043E-03
            1897     8.77711E-03     29.7005E-03    -8.45359E+06    -79.0482E+06     703.342E+03     1.08554E+06    -27.3891E-03     52.5932E-03    -25.2042E-03     48.2781E-03    -27.3375E-03     52.2290E-03    -25.0738E-03     48.2435E-03
            1898     7.90073E-03     29.6552E-03    -9.62432E+06    -83.3378E+06    -143.333E+03     1.08071E+06    -26.8536E-03     51.9012E-03    -25.0476E-03     42.6850E-03    -26.7936E-03     51.5116E-03    -24.9135E-03     42.6623E-03
            1899     7.02387E-03     29.6152E-03    -10.9449E+06    -88.1659E+06    -1.53101E+06     895.619E+03    -26.3458E-03     51.2458E-03    -24.9000E-03     37.2816E-03    -26.2788E-03     50.8314E-03    -24.7639E-03     37.2657E-03
            1900     6.14677E-03     29.5804E-03    -12.3049E+06    -92.1220E+06    -4.15819E+06     697.372E+03    -25.8747E-03     50.6328E-03    -24.7582E-03     32.0481E-03    -25.8019E-03     50.2014E-03    -24.6276E-03     32.0365E-03
            1901     5.26927E-03     29.5507E-03    -13.4077E+06    -95.9704E+06    -6.72967E+06     559.469E+03    -25.4580E-03     50.0892E-03    -24.6311E-03     27.0023E-03    -25.3795E-03     49.6419E-03    -24.5062E-03     26.9941E-03
            1902     4.39156E-03     29.5259E-03    -14.2701E+06    -99.2763E+06    -8.09141E+06     521.812E+03    -25.0998E-03     49.6247E-03    -24.5248E-03     22.1611E-03    -25.0175E-03     49.1627E-03    -24.4006E-03     22.1565E-03
            1903     3.51352E-03     29.5058E-03    -15.3018E+06    -100.504E+06    -10.7503E+06     682.773E+03    -24.7962E-03     49.2223E-03    -24.4261E-03     17.5203E-03    -24.7125E-03     48.7587E-03    -24.3120E-03     17.5209E-03
            1904     2.63535E-03     29.4902E-03    -16.3214E+06    -102.081E+06    -13.6857E+06     717.299E+03    -24.5543E-03     48.8994E-03    -24.3451E-03     13.0272E-03    -24.4687E-03     48.4331E-03    -24.2418E-03     13.0307E-03
            1905     1.75698E-03     29.4792E-03    -17.1664E+06    -103.206E+06    -16.0029E+06     463.108E+03    -24.3763E-03     48.6633E-03    -24.2870E-03     8.70282E-03    -24.2895E-03     48.1956E-03    -24.1925E-03     8.70514E-03
            1906     878.508E-06     29.4724E-03    -17.7166E+06    -103.938E+06    -17.4801E+06     212.918E+03    -24.2621E-03     48.5300E-03    -24.2679E-03     4.71384E-03    -24.1747E-03     48.0615E-03    -24.1789E-03     4.71465E-03
            1907     16.6519E-03     29.7987E-03    -5.65303E+06     179.428E+06     90.1439E+06     212.210E+03    -46.2164E-03     72.9541E-03    -26.7377E-03     329.389E-03    -61.7816E-03     88.8747E-03    -26.5389E-03     337.672E-03
            1908     15.7791E-03     29.4274E-03    -8.95762E+06     126.894E+06     19.0503E+06     764.883E+03    -48.0701E-03     74.3287E-03    -26.2586E-03     310.508E-03    -57.6824E-03     84.3044E-03    -26.3343E-03     311.637E-03
            1909     14.9051E-03     29.1899E-03    -9.01793E+06     48.1237E+06    -29.8367E+06     825.058E+03    -37.1866E-03     63.1155E-03    -25.9290E-03     176.633E-03    -38.9112E-03     65.0655E-03    -26.1349E-03     176.304E-03
            1910     14.0313E-03     29.0854E-03    -8.00562E+06    -4.17302E+06    -26.1192E+06     609.516E+03    -30.7138E-03     56.5506E-03    -25.8368E-03     89.9328E-03    -31.0609E-03     56.9302E-03    -25.9497E-03     89.6929E-03
            1911     13.1566E-03     29.0154E-03    -7.53577E+06    -24.0447E+06    -13.0963E+06     580.670E+03    -29.7657E-03     55.5168E-03    -25.7510E-03     74.7425E-03    -29.9147E-03     55.5916E-03    -25.7707E-03     74.5682E-03
            1912     12.2818E-03     28.9386E-03    -7.42499E+06    -36.1313E+06    -6.00182E+06     624.782E+03    -29.5877E-03     55.2090E-03    -25.6213E-03     74.5241E-03    -29.6771E-03     55.1612E-03    -25.5882E-03     74.3877E-03
            1913     11.4065E-03     28.8693E-03    -7.51955E+06    -54.5134E+06    -6.46748E+06     736.312E+03    -29.0886E-03     54.5425E-03    -25.4539E-03     66.1624E-03    -29.1100E-03     54.3625E-03    -25.3963E-03     66.0598E-03
            1914     10.5313E-03     28.8082E-03    -7.63317E+06    -69.4157E+06    -6.34086E+06     705.479E+03    -28.5275E-03     53.8061E-03    -25.2786E-03     58.8738E-03    -28.5013E-03     53.5247E-03    -25.1986E-03     58.7984E-03
            1915     9.65551E-03     28.7525E-03    -7.94573E+06    -75.2088E+06    -1.93126E+06     862.168E+03    -27.9264E-03     53.0393E-03    -25.1129E-03     53.1686E-03    -27.8838E-03     52.7071E-03    -25.0019E-03     53.1162E-03
            1916     8.77948E-03     28.7023E-03    -8.66995E+06     -79.073E+06     414.544E+03     1.20803E+06    -27.3177E-03     52.2587E-03    -24.9410E-03     47.4037E-03    -27.2662E-03     51.8945E-03    -24.8117E-03     47.3715E-03
            1917     7.90290E-03     28.6576E-03    -9.68317E+06    -82.9894E+06    -194.507E+03     1.20213E+06    -26.7301E-03     51.4944E-03    -24.7643E-03     41.8383E-03    -26.6704E-03     51.1063E-03    -24.6309E-03     41.8181E-03
            1918     7.02605E-03     28.6182E-03    -10.8278E+06    -87.8255E+06    -1.62832E+06     1.06588E+06    -26.1721E-03     50.7694E-03    -24.5973E-03     36.4857E-03    -26.1046E-03     50.3564E-03    -24.4624E-03     36.4727E-03
            1919     6.14869E-03     28.5840E-03    -12.0801E+06      -91.73E+06    -4.31353E+06     900.896E+03    -25.6559E-03     50.0940E-03    -24.4381E-03     31.3216E-03    -25.5822E-03     49.6642E-03    -24.3091E-03     31.3133E-03
            1920     5.27106E-03     28.5547E-03    -13.3328E+06    -95.5099E+06    -6.99688E+06     513.478E+03    -25.1973E-03     49.4932E-03    -24.2959E-03     26.3727E-03    -25.1185E-03     49.0483E-03    -24.1730E-03     26.3644E-03
            1921     4.39303E-03     28.5303E-03    -14.5744E+06    -99.3288E+06    -8.87804E+06     363.660E+03    -24.8047E-03     48.9804E-03    -24.1758E-03     21.6265E-03    -24.7226E-03     48.5197E-03    -24.0550E-03     21.6202E-03
            1922     3.51481E-03     28.5105E-03    -15.5984E+06    -100.563E+06    -11.3358E+06     564.455E+03    -24.4724E-03     48.5401E-03    -24.0677E-03     17.0749E-03    -24.3892E-03     48.0774E-03    -23.9560E-03     17.0743E-03
            1923     2.63629E-03     28.4954E-03    -16.3977E+06    -101.679E+06    -13.7623E+06     649.497E+03    -24.2080E-03     48.1881E-03    -23.9801E-03     12.6841E-03    -24.1232E-03     47.7240E-03    -23.8777E-03     12.6870E-03
            1924     1.75765E-03     28.4845E-03    -17.0674E+06    -102.640E+06    -15.7963E+06     563.131E+03    -24.0213E-03     47.9359E-03    -23.9146E-03     8.46748E-03    -23.9352E-03     47.4706E-03    -23.8200E-03     8.47125E-03
            1925     878.846E-06     28.4780E-03    -17.5636E+06    -103.366E+06    -17.3207E+06     328.516E+03    -23.8985E-03     47.7745E-03    -23.8760E-03     4.57388E-03    -23.8114E-03     47.3084E-03    -23.7872E-03     4.57629E-03
            1926     16.6527E-03     28.7945E-03    -5.50827E+06     179.028E+06     89.6582E+06     389.559E+03    -46.8333E-03     73.5290E-03    -26.6958E-03     328.234E-03    -62.2962E-03     89.3480E-03    -26.4991E-03     336.369E-03
            1927     15.7800E-03     28.4233E-03    -8.69153E+06     126.652E+06     18.7514E+06     667.497E+03    -48.3317E-03     74.5124E-03    -26.1808E-03     308.654E-03    -57.8519E-03     84.3971E-03    -26.2580E-03     309.747E-03
            1928     14.9073E-03     28.1884E-03    -9.08725E+06     48.4171E+06    -30.1240E+06     962.755E+03    -37.5316E-03     63.3502E-03    -25.8185E-03     175.246E-03    -39.2383E-03     65.2838E-03    -26.0262E-03     174.907E-03
            1929     14.0329E-03     28.0834E-03    -8.18510E+06    -3.64830E+06    -26.6888E+06     929.022E+03    -30.9341E-03     56.6296E-03    -25.6955E-03     88.9173E-03    -31.2764E-03     57.0073E-03    -25.8118E-03     88.6805E-03
            1930     13.1588E-03     28.0147E-03    -7.65591E+06    -23.9690E+06    -13.6570E+06     686.140E+03    -29.9563E-03     55.5417E-03    -25.5853E-03     74.1328E-03    -30.1038E-03     55.6165E-03    -25.6078E-03     73.9594E-03
            1931     12.2838E-03     27.9383E-03    -7.49261E+06    -36.3491E+06    -6.59674E+06     683.847E+03    -29.7459E-03     55.1762E-03    -25.4303E-03     73.9617E-03    -29.8332E-03     55.1270E-03    -25.3997E-03     73.8263E-03
            1932     11.4090E-03     27.8693E-03    -7.52886E+06    -54.4298E+06    -6.73544E+06     786.850E+03    -29.2055E-03     54.4426E-03    -25.2371E-03     65.2495E-03    -29.2254E-03     54.2620E-03    -25.1809E-03     65.1482E-03
            1933     10.5338E-03     27.8090E-03    -7.74007E+06    -69.2384E+06    -6.62794E+06     839.174E+03    -28.5530E-03     53.5883E-03    -25.0353E-03     57.8714E-03    -28.5260E-03     53.3073E-03    -24.9568E-03     57.7988E-03
            1934     9.65816E-03     27.7539E-03    -8.29422E+06    -75.4849E+06    -2.42734E+06     964.132E+03    -27.8893E-03     52.7349E-03    -24.8456E-03     52.1990E-03    -27.8465E-03     52.4017E-03    -24.7362E-03     52.1489E-03
            1935     8.78195E-03     27.7044E-03    -9.01217E+06    -79.0688E+06    -178.834E+03     1.07749E+06    -27.2262E-03     51.8764E-03    -24.6501E-03     46.4512E-03    -27.1750E-03     51.5130E-03    -24.5233E-03     46.4184E-03
            1936     7.90543E-03     27.6604E-03    -9.70360E+06    -82.6929E+06    -589.418E+03     1.05987E+06    -26.5834E-03     51.0357E-03    -24.4523E-03     40.9228E-03    -26.5232E-03     50.6492E-03    -24.3213E-03     40.9016E-03
            1937     7.02831E-03     27.6217E-03    -10.6288E+06    -87.7095E+06    -1.84904E+06     1.12001E+06    -25.9767E-03     50.2434E-03    -24.2667E-03     35.6216E-03    -25.9077E-03     49.8306E-03    -24.1333E-03     35.6101E-03
            1938     6.15088E-03     27.5880E-03    -11.7425E+06    -91.2072E+06    -4.39817E+06     1.05376E+06    -25.4146E-03     49.5042E-03    -24.0896E-03     30.5300E-03    -25.3396E-03     49.0764E-03    -23.9623E-03     30.5243E-03
            1939     5.27294E-03     27.5593E-03    -12.9665E+06    -95.0018E+06    -7.02028E+06     813.404E+03    -24.9138E-03     48.8457E-03    -23.9320E-03     25.6666E-03    -24.8337E-03     48.4027E-03    -23.8105E-03     25.6628E-03
            1940     4.39473E-03     27.5354E-03    -14.2974E+06    -99.2094E+06    -9.34266E+06     634.942E+03    -24.4828E-03     48.2799E-03    -23.7971E-03     21.0241E-03    -24.3987E-03     47.8200E-03    -23.6793E-03     21.0218E-03
            1941     3.51613E-03     27.5161E-03    -15.5631E+06    -100.518E+06    -11.9850E+06     556.259E+03    -24.1200E-03     47.7980E-03    -23.6781E-03     16.5817E-03    -24.0357E-03     47.3364E-03    -23.5697E-03     16.5813E-03
            1942     2.63736E-03     27.5011E-03    -16.4847E+06    -101.400E+06    -14.1657E+06     542.723E+03    -23.8341E-03     47.4169E-03    -23.5828E-03     12.3088E-03    -23.7495E-03     46.9549E-03    -23.4827E-03     12.3106E-03
            1943     1.75833E-03     27.4906E-03    -17.0666E+06    -102.179E+06    -15.9430E+06     471.221E+03    -23.6306E-03     47.1415E-03    -23.5109E-03     8.22056E-03    -23.5449E-03     46.6787E-03    -23.4177E-03     8.22330E-03
            1944     879.241E-06     27.4841E-03    -17.3710E+06    -102.694E+06    -17.0834E+06      371.74E+03    -23.4951E-03     46.9625E-03    -23.4674E-03     4.43769E-03    -23.4083E-03     46.4991E-03    -23.3787E-03     4.44074E-03
            1945     16.6541E-03     27.7900E-03    -5.38311E+06     178.749E+06     89.6187E+06     609.224E+03    -47.6993E-03     74.3583E-03    -26.6589E-03     327.377E-03    -63.0731E-03     90.0876E-03    -26.4622E-03     335.340E-03
            1946     15.7818E-03     27.4197E-03    -8.71680E+06     126.094E+06     18.5911E+06     890.574E+03    -48.9166E-03     75.0125E-03    -26.0959E-03     307.247E-03    -58.3502E-03     84.8089E-03    -26.1731E-03     308.259E-03
            1947     14.9086E-03     27.1855E-03    -9.26890E+06     48.8076E+06    -30.1742E+06     1.15575E+06    -37.8932E-03     63.5865E-03    -25.6933E-03     173.819E-03    -39.5782E-03     65.4994E-03    -25.9015E-03     173.473E-03
            1948     14.0356E-03     27.0822E-03    -8.34077E+06    -3.14639E+06    -26.8070E+06     1.01287E+06    -31.1110E-03     56.6514E-03    -25.5404E-03     87.7056E-03    -31.4479E-03     57.0253E-03    -25.6578E-03     87.4693E-03
            1949     13.1607E-03     27.0139E-03    -7.39588E+06    -23.8784E+06    -13.7265E+06     706.439E+03    -30.1175E-03     55.5237E-03    -25.4062E-03     73.2972E-03    -30.2617E-03     55.5967E-03    -25.4295E-03     73.1239E-03
            1950     12.2865E-03     26.9378E-03    -7.28505E+06     -36.305E+06    -6.76842E+06     691.068E+03    -30.0003E-03     55.2212E-03    -25.2209E-03     73.0383E-03    -30.0852E-03     55.1710E-03    -25.1915E-03     72.9025E-03
            1951     11.4118E-03     26.8695E-03    -7.44321E+06    -54.5018E+06    -6.87789E+06     853.058E+03    -29.3047E-03     54.3007E-03    -24.9960E-03     64.1222E-03    -29.3222E-03     54.1183E-03    -24.9406E-03     64.0227E-03
            1952     10.5367E-03     26.8100E-03    -7.63483E+06    -69.2065E+06    -6.74971E+06     1.07334E+06    -28.5456E-03     53.3132E-03    -24.7677E-03     56.8018E-03    -28.5167E-03     53.0311E-03    -24.6900E-03     56.7336E-03
            1953     9.66090E-03     26.7557E-03    -8.05265E+06    -75.4908E+06    -2.63416E+06     1.15202E+06    -27.8401E-03     52.3932E-03    -24.5531E-03     51.1548E-03    -27.7949E-03     52.0590E-03    -24.4451E-03     51.1084E-03
            1954     8.78480E-03     26.7069E-03    -8.79756E+06    -78.7482E+06    -577.918E+03     1.00511E+06    -27.1156E-03     51.4483E-03    -24.3327E-03     45.4147E-03    -27.0624E-03     51.0860E-03    -24.2087E-03     45.3821E-03
            1955     7.90802E-03     26.6637E-03    -9.73101E+06    -82.6012E+06    -1.13243E+06     899.763E+03    -26.4160E-03     50.5289E-03    -24.1129E-03     39.9310E-03    -26.3547E-03     50.1431E-03    -23.9847E-03     39.9088E-03
            1956     7.03089E-03     26.6256E-03    -10.6673E+06    -87.7293E+06    -2.03084E+06     1.04288E+06    -25.7610E-03     49.6698E-03    -23.9088E-03     34.6826E-03    -25.6915E-03     49.2569E-03    -23.7763E-03     34.6710E-03
            1957     6.15315E-03     26.5927E-03    -11.7068E+06    -90.8706E+06    -4.44842E+06     1.16569E+06    -25.1493E-03     48.8623E-03    -23.7129E-03     29.6672E-03    -25.0743E-03     48.4360E-03    -23.5864E-03     29.6637E-03
            1958     5.27506E-03     26.5646E-03    -12.9098E+06    -94.6675E+06    -7.10156E+06     1.17541E+06    -24.6032E-03     48.1417E-03    -23.5385E-03     24.9032E-03    -24.5231E-03     47.7003E-03    -23.4180E-03     24.9047E-03
            1959     4.39649E-03     26.5412E-03    -14.2655E+06    -98.8220E+06    -9.42622E+06     1.10589E+06    -24.1342E-03     47.5235E-03    -23.3893E-03     20.3700E-03    -24.0503E-03     47.0655E-03    -23.2725E-03     20.3743E-03
            1960     3.51765E-03     26.5223E-03    -15.5232E+06    -100.101E+06    -12.2174E+06     844.537E+03    -23.7381E-03     46.9958E-03    -23.2577E-03     16.0427E-03    -23.6538E-03     46.5365E-03    -23.1512E-03     16.0464E-03
            1961     2.63846E-03     26.5078E-03    -16.4736E+06    -101.066E+06    -14.5475E+06     555.014E+03    -23.4268E-03     46.5797E-03    -23.1529E-03     11.9011E-03    -23.3421E-03     46.1198E-03    -23.0552E-03     11.9033E-03
            1962     1.75913E-03     26.4974E-03    -17.0387E+06    -101.775E+06    -16.2271E+06     399.160E+03    -23.1993E-03     46.2764E-03    -23.0771E-03     7.94363E-03    -23.1137E-03     45.8160E-03    -22.9859E-03     7.94562E-03
            1963     879.555E-06     26.4912E-03    -17.3250E+06    -102.120E+06    -17.1122E+06     247.648E+03    -23.0536E-03     46.0959E-03    -23.0423E-03     4.28146E-03    -22.9673E-03     45.6353E-03    -22.9547E-03     4.28300E-03
            1964     16.6529E-03     26.7812E-03    -5.83913E+06     178.036E+06     89.3667E+06     457.948E+03    -48.4761E-03     75.1069E-03    -26.6308E-03     326.281E-03    -63.7542E-03     90.7371E-03    -26.4337E-03     334.079E-03
            1965     15.7829E-03     26.4159E-03    -9.47686E+06     125.669E+06     18.9279E+06     1.02024E+06    -49.7329E-03     75.7454E-03    -26.0125E-03     304.613E-03    -59.0321E-03     85.4023E-03    -26.0864E-03     305.519E-03
            1966     14.9112E-03     26.1822E-03    -9.14312E+06     49.2584E+06    -29.5588E+06     1.29718E+06    -38.2087E-03     63.7663E-03    -25.5576E-03     171.876E-03    -39.8649E-03     65.6507E-03    -25.7636E-03     171.522E-03
            1967     14.0375E-03     26.0809E-03    -7.84994E+06    -2.67293E+06    -26.7149E+06     1.00134E+06    -31.3278E-03     56.6979E-03    -25.3701E-03     86.4213E-03    -31.6570E-03     57.0672E-03    -25.4884E-03     86.1846E-03
            1968     13.1638E-03     26.0131E-03    -7.27425E+06    -23.6334E+06    -14.0647E+06     786.744E+03    -30.4145E-03     55.6180E-03    -25.2035E-03     72.5984E-03    -30.5560E-03     55.6905E-03    -25.2290E-03     72.4254E-03
            1969     12.2893E-03     25.9371E-03    -6.95363E+06    -36.2634E+06    -7.13785E+06     791.308E+03    -30.1564E-03     55.1421E-03    -24.9857E-03     72.1215E-03    -30.2372E-03     55.0902E-03    -24.9587E-03     71.9877E-03
            1970     11.4149E-03     25.8699E-03    -7.12040E+06    -54.6858E+06    -7.15506E+06     1.01882E+06    -29.3708E-03     54.1036E-03    -24.7328E-03     62.9648E-03    -29.3842E-03     53.9183E-03    -24.6789E-03     62.8687E-03
            1971     10.5396E-03     25.8113E-03    -7.22722E+06    -69.2425E+06    -6.91560E+06     1.23666E+06    -28.5537E-03     53.0308E-03    -24.4771E-03     55.7074E-03    -28.5211E-03     52.7468E-03    -24.4008E-03     55.6427E-03
            1972     9.66405E-03     25.7577E-03    -7.52849E+06    -75.2718E+06    -2.76061E+06     1.28317E+06    -27.7800E-03     52.0158E-03    -24.2358E-03     50.0290E-03    -27.7313E-03     51.6812E-03    -24.1296E-03     49.9856E-03
            1973     8.78772E-03     25.7099E-03    -8.29029E+06    -78.4099E+06    -663.563E+03     1.21773E+06    -26.9896E-03     50.9803E-03    -23.9908E-03     44.2932E-03    -26.9335E-03     50.6184E-03    -23.8684E-03     44.2646E-03
            1974     7.91099E-03     25.6674E-03    -9.44589E+06    -82.4151E+06    -1.28916E+06     1.14397E+06    -26.2336E-03     49.9816E-03    -23.7480E-03     38.8575E-03    -26.1704E-03     49.5961E-03    -23.6213E-03     38.8395E-03
            1975     7.03354E-03     25.6302E-03    -10.7581E+06    -87.6883E+06    -2.37861E+06     1.09238E+06    -25.5221E-03     49.0444E-03    -23.5223E-03     33.6750E-03    -25.4523E-03     48.6320E-03    -23.3914E-03     33.6650E-03
            1976     6.15570E-03     25.5980E-03    -11.9168E+06    -90.8506E+06    -4.82631E+06     1.24367E+06    -24.8588E-03     48.1658E-03    -23.3070E-03     28.7439E-03    -24.7840E-03     47.7402E-03    -23.1821E-03     28.7422E-03
            1977     5.27725E-03     25.5707E-03    -13.0841E+06    -94.5194E+06    -7.33472E+06     1.53138E+06    -24.2680E-03     47.3837E-03    -23.1157E-03     24.0848E-03    -24.1885E-03     46.9434E-03    -22.9963E-03     24.0916E-03
            1978     4.39845E-03     25.5478E-03    -14.3256E+06    -98.2123E+06    -9.32495E+06     1.47578E+06    -23.7596E-03     46.7117E-03    -22.9521E-03     19.6672E-03    -23.6770E-03     46.2565E-03    -22.8355E-03     19.6768E-03
            1979     3.51921E-03     25.5294E-03    -15.4538E+06    -99.3997E+06    -12.0955E+06     1.10412E+06    -23.3281E-03     46.1355E-03    -22.8074E-03     15.4651E-03    -23.2447E-03     45.6794E-03    -22.7013E-03     15.4726E-03
            1980     2.63971E-03     25.5152E-03    -16.3725E+06    -100.521E+06    -14.5669E+06     750.405E+03    -22.9860E-03     45.6787E-03    -22.6927E-03     11.4646E-03    -22.9014E-03     45.2214E-03    -22.5960E-03     11.4696E-03
            1981     1.75991E-03     25.5053E-03    -17.0543E+06    -101.308E+06    -16.3201E+06     458.333E+03    -22.7441E-03     45.3543E-03    -22.6101E-03     7.64020E-03    -22.6591E-03     44.8963E-03    -22.5201E-03     7.64316E-03
            1982     880.031E-06     25.4991E-03    -17.3606E+06    -101.636E+06    -17.2481E+06     201.019E+03    -22.5931E-03     45.1555E-03    -22.5624E-03     4.11978E-03    -22.5075E-03     44.6976E-03    -22.4761E-03     4.12082E-03
            1983     16.6549E-03     25.7745E-03    -5.94652E+06     177.544E+06     88.9784E+06     606.104E+03    -49.3508E-03     75.9254E-03    -26.5746E-03     324.965E-03    -64.4794E-03     91.4051E-03    -26.3785E-03     332.559E-03
            1984     15.7849E-03     25.4091E-03    -8.98929E+06     125.775E+06     19.2184E+06     911.590E+03    -50.1121E-03     76.0203E-03    -25.9082E-03     301.655E-03    -59.2435E-03     85.5106E-03    -25.9814E-03     302.492E-03
            1985     14.9135E-03     25.1803E-03    -9.17111E+06     49.1395E+06    -29.9386E+06     1.27706E+06    -38.5451E-03     63.9543E-03    -25.4092E-03     169.752E-03    -40.1678E-03     65.8057E-03    -25.6168E-03     169.393E-03
            1986     14.0402E-03     25.0790E-03    -7.92495E+06    -2.45626E+06    -27.4724E+06     1.25747E+06    -31.6811E-03     56.8625E-03    -25.1814E-03     85.1850E-03    -32.0036E-03     57.2279E-03    -25.3037E-03     84.9501E-03
            1987     13.1664E-03     25.0122E-03    -6.76830E+06    -22.9517E+06    -14.1849E+06     961.633E+03    -30.6655E-03     55.6470E-03    -24.9816E-03     71.6498E-03    -30.8027E-03     55.7199E-03    -25.0094E-03     71.4788E-03
            1988     12.2925E-03     24.9366E-03    -6.82777E+06    -36.4026E+06    -7.72595E+06     933.454E+03    -30.2738E-03     55.0060E-03    -24.7322E-03     71.1348E-03    -30.3505E-03     54.9517E-03    -24.7082E-03     71.0042E-03
            1989     11.4179E-03     24.8705E-03    -6.86000E+06    -54.8337E+06    -7.51654E+06     1.14489E+06    -29.4394E-03     53.8906E-03    -24.4512E-03     61.7028E-03    -29.4487E-03     53.7027E-03    -24.3993E-03     61.6099E-03
            1990     10.5430E-03     24.8127E-03    -6.91758E+06    -69.2178E+06    -7.18907E+06     1.34540E+06    -28.5733E-03     52.7392E-03    -24.1659E-03     54.4934E-03    -28.5374E-03     52.4539E-03    -24.0914E-03     54.4315E-03
            1991     9.66724E-03     24.7602E-03    -7.23180E+06    -75.1236E+06    -3.05910E+06     1.45003E+06    -27.7119E-03     51.6075E-03    -23.8957E-03     48.8249E-03    -27.6603E-03     51.2725E-03    -23.7915E-03     48.7852E-03
            1992     8.79103E-03     24.7132E-03    -7.95327E+06    -78.1855E+06    -913.461E+03     1.49954E+06    -26.8527E-03     50.4772E-03    -23.6245E-03     43.1075E-03    -26.7941E-03     50.1155E-03    -23.5042E-03     43.0839E-03
            1993     7.91399E-03     24.6718E-03    -8.97627E+06    -82.2457E+06    -1.41368E+06     1.56334E+06    -26.0350E-03     49.3930E-03    -23.3580E-03     37.7173E-03    -25.9690E-03     49.0072E-03    -23.2328E-03     37.7059E-03
            1994     7.03651E-03     24.6354E-03    -10.1806E+06    -87.2159E+06    -2.37483E+06     1.43711E+06    -25.2628E-03     48.3729E-03    -23.1101E-03     32.6040E-03    -25.1904E-03     47.9616E-03    -22.9807E-03     32.5993E-03
            1995     6.15830E-03     24.6041E-03    -11.4814E+06    -91.0585E+06    -4.22451E+06     1.41703E+06    -24.5510E-03     47.4298E-03    -22.8788E-03     27.7644E-03    -24.4743E-03     47.0013E-03    -22.7512E-03     27.7657E-03
            1996     5.27968E-03     24.5774E-03    -12.7345E+06    -94.5291E+06    -6.52753E+06     1.84105E+06    -23.9129E-03     46.5828E-03    -22.6699E-03     23.2121E-03    -23.8325E-03     46.1406E-03    -22.5470E-03     23.2235E-03
            1997     4.40048E-03     24.5553E-03    -14.0280E+06    -97.3004E+06    -9.10890E+06     1.78679E+06    -23.3569E-03     45.8432E-03    -22.4863E-03     18.9259E-03    -23.2742E-03     45.3917E-03    -22.3705E-03     18.9401E-03
            1998     3.52093E-03     24.5374E-03    -15.2186E+06    -98.6755E+06    -11.9021E+06     1.35013E+06    -22.8912E-03     45.2203E-03    -22.3291E-03     14.8552E-03    -22.8078E-03     44.7671E-03    -22.2235E-03     14.8663E-03
            1999     2.64097E-03     24.5237E-03    -16.1936E+06    -99.7773E+06    -14.3575E+06     1.03363E+06    -22.5221E-03     44.7263E-03    -22.2042E-03     10.9982E-03    -22.4380E-03     44.2721E-03    -22.1079E-03     11.0072E-03
            2000     1.76083E-03     24.5139E-03    -16.9086E+06    -100.638E+06    -16.2268E+06     646.140E+03    -22.2570E-03     44.3712E-03    -22.1142E-03     7.33517E-03    -22.1723E-03     43.9162E-03    -22.0249E-03     7.34075E-03
            2001     880.441E-06     24.5080E-03    -17.3357E+06    -101.083E+06    -17.2465E+06     299.805E+03    -22.0996E-03     44.1582E-03    -22.0586E-03     3.97629E-03    -22.0147E-03     43.7030E-03    -21.9731E-03     3.97871E-03
            2002     16.6562E-03     24.7657E-03    -4.84923E+06     177.463E+06     89.1357E+06     993.299E+03    -50.3476E-03     76.8495E-03    -26.5019E-03     323.217E-03    -65.2755E-03     92.1318E-03    -26.3065E-03     330.587E-03
            2003     15.7866E-03     24.4038E-03    -7.87502E+06     125.716E+06     19.3359E+06     1.27728E+06    -50.3610E-03     76.1494E-03    -25.7884E-03     299.274E-03    -59.3520E-03     85.5026E-03    -25.8625E-03     300.080E-03
            2004     14.9153E-03     24.1764E-03    -8.82502E+06     49.1105E+06    -29.8082E+06     1.45940E+06    -38.9647E-03     64.2158E-03    -25.2511E-03     167.040E-03    -40.5471E-03     66.0277E-03    -25.4585E-03     166.672E-03
            2005     14.0432E-03     24.0774E-03    -8.02074E+06    -1.59787E+06    -27.3339E+06     1.45209E+06    -32.0287E-03     57.0089E-03    -24.9802E-03     83.7049E-03    -32.3454E-03     57.3707E-03    -25.1029E-03     83.4707E-03
            2006     13.1698E-03     24.0112E-03    -6.98931E+06    -22.6986E+06    -14.7566E+06     1.13772E+06    -30.8765E-03     55.6193E-03    -24.7428E-03     70.6646E-03    -31.0116E-03     55.6918E-03    -24.7735E-03     70.4961E-03
            2007     12.2957E-03     23.9365E-03    -6.79661E+06    -36.3649E+06    -8.26826E+06     1.09522E+06    -30.4092E-03     54.8710E-03    -24.4618E-03     69.9876E-03    -30.4823E-03     54.8149E-03    -24.4405E-03     69.8605E-03
            2008     11.4215E-03     23.8711E-03    -6.66125E+06    -54.9549E+06    -7.93264E+06     1.22923E+06    -29.5055E-03     53.6557E-03    -24.1502E-03     60.4037E-03    -29.5108E-03     53.4653E-03    -24.1005E-03     60.3136E-03
            2009     10.5464E-03     23.8146E-03    -6.70188E+06    -69.2398E+06    -7.54951E+06     1.47467E+06    -28.5743E-03     52.4086E-03    -23.8343E-03     53.1459E-03    -28.5352E-03     52.1218E-03    -23.7619E-03     53.0872E-03
            2010     9.67082E-03     23.7630E-03    -6.94636E+06    -75.0496E+06    -3.44296E+06     1.64449E+06    -27.6308E-03     51.1654E-03    -23.5346E-03     47.5282E-03    -27.5762E-03     50.8297E-03    -23.4329E-03     47.4927E-03
            2011     8.79433E-03     23.7172E-03    -7.60365E+06    -78.0615E+06    -1.31913E+06     1.75869E+06    -26.7073E-03     49.9432E-03    -23.2359E-03     41.8391E-03    -26.6457E-03     49.5813E-03    -23.1182E-03     41.8202E-03
            2012     7.91735E-03     23.6766E-03    -8.48440E+06    -82.1020E+06    -1.70862E+06     1.86412E+06    -25.8201E-03     48.7644E-03    -22.9443E-03     36.4969E-03    -25.7508E-03     48.3785E-03    -22.8215E-03     36.4906E-03
            2013     7.03951E-03     23.6414E-03    -9.54775E+06    -86.6222E+06    -2.43260E+06     1.80927E+06    -24.9876E-03     47.6612E-03    -22.6737E-03     31.4622E-03    -24.9123E-03     47.2517E-03    -22.5464E-03     31.4634E-03
            2014     6.16118E-03     23.6108E-03    -10.8751E+06    -91.1565E+06    -3.58788E+06     1.84606E+06    -24.2222E-03     46.6482E-03    -22.4260E-03     26.7206E-03    -24.1430E-03     46.2172E-03    -22.2960E-03     26.7284E-03
            2015     5.28215E-03     23.5850E-03    -12.3579E+06    -94.5627E+06    -5.83173E+06     2.16477E+06    -23.5329E-03     45.7318E-03    -22.1990E-03     22.2908E-03    -23.4514E-03     45.2877E-03    -22.0731E-03     22.3071E-03
            2016     4.40267E-03     23.5635E-03    -13.6807E+06    -96.2545E+06    -8.87496E+06     2.12824E+06    -22.9311E-03     44.9268E-03    -21.9957E-03     18.1363E-03    -22.8485E-03     44.4796E-03    -21.8807E-03     18.1554E-03
            2017     3.52267E-03     23.5463E-03    -14.8800E+06    -97.8634E+06    -11.7412E+06     1.70824E+06    -22.4294E-03     44.2550E-03    -21.8255E-03     14.2086E-03    -22.3457E-03     43.8050E-03    -21.7208E-03     14.2247E-03
            2018     2.64237E-03     23.5330E-03    -15.8863E+06    -98.9110E+06    -14.1138E+06     1.31785E+06    -22.0324E-03     43.7233E-03    -21.6910E-03     10.5078E-03    -21.9483E-03     43.2727E-03    -21.5951E-03     10.5208E-03
            2019     1.76171E-03     23.5237E-03    -16.6171E+06    -99.7215E+06    -15.8674E+06     902.618E+03    -21.7444E-03     43.3394E-03    -21.5950E-03     7.00677E-03    -21.6600E-03     42.8880E-03    -21.5057E-03     7.01585E-03
            2020     880.899E-06     23.5179E-03    -17.0779E+06    -100.252E+06    -16.9577E+06     504.229E+03    -21.5740E-03     43.1148E-03    -21.5408E-03     3.79983E-03    -21.4895E-03     42.6630E-03    -21.4554E-03     3.80499E-03
            2021     16.6579E-03     23.7589E-03    -4.41425E+06     176.750E+06     89.1811E+06     553.881E+03    -51.5677E-03     78.0033E-03    -26.4356E-03     320.074E-03    -66.2215E-03     93.0104E-03    -26.2396E-03     327.134E-03
            2022     15.7883E-03     23.3964E-03    -7.90889E+06     125.354E+06     19.7027E+06     1.82587E+06    -50.9788E-03     76.6328E-03    -25.6540E-03     296.135E-03    -59.8153E-03     85.8292E-03    -25.7258E-03     296.837E-03
            2023     14.9190E-03     23.1729E-03    -8.66081E+06     49.9078E+06    -29.1327E+06     2.16976E+06    -39.0476E-03     64.1197E-03    -25.0721E-03     164.097E-03    -40.5767E-03     65.8798E-03    -25.2775E-03     163.736E-03
            2024     14.0460E-03     23.0755E-03    -8.00613E+06    -590.780E+03    -27.2672E+06     1.68893E+06    -32.2400E-03     57.0082E-03    -24.7683E-03     82.4265E-03    -32.5490E-03     57.3659E-03    -24.8921E-03     82.1962E-03
            2025     13.1728E-03     23.0101E-03    -7.03590E+06    -22.7123E+06    -15.5490E+06     1.17884E+06    -31.1917E-03     55.6853E-03    -24.4936E-03     69.6329E-03    -31.3232E-03     55.7564E-03    -24.5282E-03     69.4642E-03
            2026     12.2994E-03     22.9364E-03    -6.55408E+06    -36.2353E+06    -8.82135E+06     1.16456E+06    -30.5957E-03     54.7711E-03    -24.1753E-03     68.7600E-03    -30.6643E-03     54.7134E-03    -24.1574E-03     68.6350E-03
            2027     11.4249E-03     22.8721E-03    -6.50212E+06    -55.0940E+06    -8.44779E+06     1.38953E+06    -29.5710E-03     53.4011E-03    -23.8301E-03     58.9934E-03    -29.5723E-03     53.2082E-03    -23.7830E-03     58.9073E-03
            2028     10.5502E-03     22.8166E-03    -6.41295E+06    -69.3183E+06    -7.96908E+06     1.62221E+06    -28.5501E-03     52.0332E-03    -23.4832E-03     51.6998E-03    -28.5072E-03     51.7446E-03    -23.4132E-03     51.6449E-03
            2029     9.67438E-03     22.7664E-03    -6.64967E+06    -74.9888E+06    -3.94952E+06     1.82864E+06    -27.5452E-03     50.6983E-03    -23.1531E-03     46.1342E-03    -27.4874E-03     50.3621E-03    -23.0544E-03     46.1026E-03
            2030     8.79803E-03     22.7215E-03    -7.18099E+06    -78.0054E+06    -1.81383E+06     2.00726E+06    -26.5432E-03     49.3694E-03    -22.8261E-03     40.4689E-03    -26.4781E-03     49.0071E-03    -22.7117E-03     40.4547E-03
            2031     7.92070E-03     22.6823E-03    -8.07513E+06    -81.9446E+06    -2.17793E+06     2.20289E+06    -25.5919E-03     48.1005E-03    -22.5086E-03     35.1942E-03    -25.5195E-03     47.7148E-03    -22.3889E-03     35.1935E-03
            2032     7.04281E-03     22.6478E-03    -9.29004E+06    -86.2365E+06    -2.88890E+06     2.33764E+06    -24.6945E-03     46.9084E-03    -22.2140E-03     30.2407E-03    -24.6174E-03     46.5007E-03    -22.0899E-03     30.2498E-03
            2033     6.16408E-03     22.6185E-03    -10.8070E+06    -91.0161E+06    -4.05967E+06     2.45834E+06    -23.8656E-03     45.8114E-03    -21.9458E-03     25.6057E-03    -23.7853E-03     45.3814E-03    -21.8185E-03     25.6222E-03
            2034     5.28481E-03     22.5934E-03    -12.2321E+06    -94.2673E+06    -6.12348E+06     2.50808E+06    -23.1273E-03     44.8287E-03    -21.7014E-03     21.3168E-03    -23.0450E-03     44.3861E-03    -21.5776E-03     21.3382E-03
            2035     4.40491E-03     22.5728E-03    -13.4454E+06    -95.3791E+06    -8.86826E+06     2.40741E+06    -22.4850E-03     43.9679E-03    -21.4829E-03     17.3036E-03    -22.4024E-03     43.5246E-03    -21.3694E-03     17.3268E-03
            2036     3.52457E-03     22.5561E-03    -14.5219E+06    -96.8352E+06    -11.5573E+06     2.08679E+06    -21.9458E-03     43.2460E-03    -21.3002E-03     13.5288E-03    -21.8619E-03     42.8003E-03    -21.1965E-03     13.5502E-03
            2037     2.64375E-03     22.5435E-03    -15.4755E+06    -97.8612E+06    -13.7854E+06     1.62537E+06    -21.5204E-03     42.6768E-03    -21.1564E-03     9.98851E-03    -21.4362E-03     42.2302E-03    -21.0610E-03     10.0057E-03
            2038     1.76269E-03     22.5344E-03    -16.1930E+06    -98.6242E+06    -15.4238E+06     1.14522E+06    -21.2223E-03     42.2732E-03    -21.0509E-03     6.65491E-03    -21.1381E-03     41.8260E-03    -20.9615E-03     6.66732E-03
            2039     881.409E-06     22.5289E-03    -16.6173E+06    -99.1031E+06    -16.4486E+06     661.893E+03    -21.0230E-03     42.0143E-03    -20.9913E-03     3.59548E-03    -20.9386E-03     41.5668E-03    -20.9057E-03     3.60278E-03
            2040     16.6579E-03     22.7478E-03    -5.88030E+06     174.934E+06     88.5450E+06    -55.0046E+03    -52.9225E-03     79.3092E-03    -26.3867E-03     317.598E-03    -67.3561E-03     94.0863E-03    -26.1891E-03     324.379E-03
            2041     15.7924E-03     22.3892E-03    -8.86638E+06     124.060E+06     19.7497E+06     1.84327E+06    -51.9259E-03     77.4510E-03    -25.5251E-03     292.561E-03    -60.5589E-03     86.4359E-03    -25.5934E-03     293.116E-03
            2042     14.9210E-03     22.1701E-03    -8.57137E+06     50.9026E+06    -28.5768E+06     2.28772E+06    -39.2669E-03     64.1503E-03    -24.8835E-03     161.454E-03    -40.7443E-03     65.8611E-03    -25.0877E-03     161.093E-03
            2043     14.0490E-03     22.0732E-03    -7.33163E+06     406.032E+03    -26.9591E+06     1.72419E+06    -32.5508E-03     57.0916E-03    -24.5408E-03     80.7510E-03    -32.8487E-03     57.4432E-03    -24.6656E-03     80.5212E-03
            2044     13.1764E-03     22.0090E-03    -6.53782E+06    -22.1726E+06    -15.9821E+06     1.25698E+06    -31.4125E-03     55.6398E-03    -24.2272E-03     68.1907E-03    -31.5376E-03     55.7093E-03    -24.2655E-03     68.0238E-03
            2045     12.3028E-03     21.9362E-03    -6.26463E+06    -36.2982E+06    -9.53106E+06     1.23131E+06    -30.7954E-03     54.6672E-03    -23.8718E-03     67.2893E-03    -30.8586E-03     54.6070E-03    -23.8577E-03     67.1662E-03
            2046     11.4291E-03     21.8733E-03    -6.19967E+06    -55.1660E+06    -8.95270E+06     1.55456E+06    -29.6278E-03     53.1191E-03    -23.4913E-03     57.3738E-03    -29.6242E-03     52.9236E-03    -23.4471E-03     57.2918E-03
            2047     10.5539E-03     21.8192E-03    -6.19629E+06    -69.3836E+06    -8.59625E+06     1.81938E+06    -28.5066E-03     51.6186E-03    -23.1121E-03     50.1853E-03    -28.4598E-03     51.3285E-03    -23.0455E-03     50.1350E-03
            2048     9.67838E-03     21.7700E-03    -6.29517E+06    -74.9645E+06    -4.52238E+06     2.02856E+06    -27.4420E-03     50.1940E-03    -22.7520E-03     44.6106E-03    -27.3804E-03     49.8571E-03    -22.6568E-03     44.5834E-03
            2049     8.80168E-03     21.7267E-03    -6.87032E+06    -78.0223E+06    -2.49489E+06     2.30336E+06    -26.3580E-03     48.7545E-03    -22.3965E-03     39.0182E-03    -26.2894E-03     48.3918E-03    -22.2859E-03     39.0094E-03
            2050     7.92438E-03     21.6884E-03    -7.74392E+06    -81.9774E+06    -2.81127E+06     2.71375E+06    -25.3409E-03     47.3944E-03    -22.0535E-03     33.8223E-03    -25.2653E-03     47.0084E-03    -21.9374E-03     33.8295E-03
            2051     7.04611E-03     21.6553E-03    -8.97895E+06    -85.9838E+06    -3.39150E+06     3.09422E+06    -24.3793E-03     46.1150E-03    -21.7357E-03     28.9622E-03    -24.2999E-03     45.7084E-03    -21.6150E-03     28.9822E-03
            2052     6.16721E-03     21.6268E-03    -10.3653E+06    -90.5033E+06    -4.39411E+06     3.12107E+06    -23.4955E-03     44.9423E-03    -21.4468E-03     24.4462E-03    -23.4130E-03     44.5144E-03    -21.3225E-03     24.4721E-03
            2053     5.28752E-03     21.6029E-03    -11.7927E+06    -93.6314E+06    -6.35110E+06     2.96896E+06    -22.7042E-03     43.8885E-03    -21.1844E-03     20.2905E-03    -22.6201E-03     43.4486E-03    -21.0633E-03     20.3186E-03
            2054     4.40727E-03     21.5829E-03    -13.0957E+06    -94.5075E+06    -8.96571E+06     2.73021E+06    -22.0143E-03     42.9656E-03    -20.9514E-03     16.4302E-03    -21.9308E-03     42.5262E-03    -20.8402E-03     16.4581E-03
            2055     3.52645E-03     21.5671E-03    -14.1595E+06    -95.7148E+06    -11.3544E+06     2.38329E+06    -21.4459E-03     42.2033E-03    -20.7574E-03     12.8193E-03    -21.3621E-03     41.7623E-03    -20.6548E-03     12.8449E-03
            2056     2.64525E-03     21.5548E-03    -14.9734E+06    -96.6157E+06    -13.4344E+06     1.90696E+06    -20.9981E-03     41.6005E-03    -20.6024E-03     9.44520E-03    -20.9137E-03     41.1590E-03    -20.5078E-03     9.46634E-03
            2057     1.76368E-03     21.5463E-03    -15.5948E+06    -97.3071E+06    -14.9482E+06     1.36160E+06    -20.6757E-03     41.1630E-03    -20.4873E-03     6.29645E-03    -20.5911E-03     40.7209E-03    -20.3983E-03     6.31185E-03
            2058     881.919E-06     21.5409E-03    -15.9856E+06     -97.666E+06    -15.8333E+06     733.706E+03    -20.4622E-03     40.8790E-03    -20.4168E-03     3.35912E-03    -20.3776E-03     40.4369E-03    -20.3312E-03     3.36747E-03
            2059     16.6583E-03     21.7317E-03    -6.16568E+06     173.930E+06     88.3585E+06     323.644E+03    -53.8991E-03     80.2287E-03    -26.3296E-03     314.474E-03    -68.0538E-03     94.7228E-03    -26.1310E-03     320.983E-03
            2060     15.7924E-03     21.3814E-03    -9.47935E+06     122.466E+06     19.8410E+06     779.568E+03    -52.5514E-03     77.9477E-03    -25.3963E-03     286.876E-03    -60.9101E-03     86.6502E-03    -25.4609E-03     287.331E-03
            2061     14.9244E-03     21.1657E-03    -8.51016E+06     51.2695E+06    -28.2238E+06     1.49284E+06    -39.8807E-03     64.5615E-03    -24.6807E-03     157.592E-03    -41.3043E-03     66.2188E-03    -24.8839E-03     157.206E-03
            2062     14.0532E-03     21.0712E-03    -6.83956E+06     1.27117E+06    -27.4161E+06     1.86200E+06    -32.7884E-03     57.0704E-03    -24.2821E-03     78.7336E-03    -33.0722E-03     57.4141E-03    -24.4111E-03     78.5068E-03
            2063     13.1799E-03     21.0082E-03    -6.22170E+06    -21.6755E+06    -16.7982E+06     1.49770E+06    -31.5202E-03     55.4556E-03    -23.9354E-03     66.9084E-03    -31.6386E-03     55.5238E-03    -23.9789E-03     66.7466E-03
            2064     12.3071E-03     20.9359E-03    -6.01995E+06    -36.3557E+06    -10.4262E+06     1.50737E+06    -30.8995E-03     54.4490E-03    -23.5495E-03     65.8055E-03    -30.9568E-03     54.3861E-03    -23.5402E-03     65.6880E-03
            2065     11.4328E-03     20.8750E-03    -6.05162E+06    -55.2901E+06    -9.75483E+06     1.79508E+06    -29.6892E-03     52.8246E-03    -23.1355E-03     55.6466E-03    -29.6808E-03     52.6269E-03    -23.0953E-03     55.5698E-03
            2066     10.5582E-03     20.8219E-03    -6.00144E+06    -69.2757E+06    -9.30062E+06     2.08075E+06    -28.4602E-03     51.1833E-03    -22.7231E-03     48.5861E-03    -28.4098E-03     50.8926E-03    -22.6604E-03     48.5414E-03
            2067     9.68227E-03     20.7744E-03    -6.22133E+06    -74.9930E+06    -5.39136E+06     2.28965E+06    -27.2979E-03     49.6311E-03    -22.3332E-03     43.0291E-03    -27.2334E-03     49.2939E-03    -22.2424E-03     43.0072E-03
            2068     8.80571E-03     20.7321E-03    -6.70028E+06    -78.1718E+06    -3.22132E+06     2.65122E+06    -26.1525E-03     48.1039E-03    -21.9514E-03     37.4991E-03    -26.0809E-03     47.7404E-03    -21.8444E-03     37.4964E-03
            2069     7.92802E-03     20.6954E-03    -7.49323E+06    -82.2899E+06    -3.64101E+06     3.28706E+06    -25.0612E-03     46.6444E-03    -21.5833E-03     32.4009E-03    -24.9820E-03     46.2571E-03    -21.4713E-03     32.4169E-03
            2070     7.04962E-03     20.6633E-03    -8.50585E+06    -85.7368E+06    -4.08441E+06     3.82030E+06    -24.0454E-03     45.2883E-03    -21.2429E-03     27.6399E-03    -23.9626E-03     44.8828E-03    -21.1267E-03     27.6703E-03
            2071     6.17031E-03     20.6362E-03    -9.82124E+06    -89.6774E+06    -4.72616E+06     3.87377E+06    -23.1144E-03     44.0486E-03    -20.9342E-03     23.2467E-03    -23.0296E-03     43.6243E-03    -20.8135E-03     23.2832E-03
            2072     5.29036E-03     20.6131E-03    -11.2122E+06    -92.6918E+06    -6.35264E+06     3.57035E+06    -22.2727E-03     42.9271E-03    -20.6543E-03     19.2219E-03    -22.1869E-03     42.4908E-03    -20.5354E-03     19.2584E-03
            2073     4.40966E-03     20.5942E-03    -12.4679E+06    -93.4149E+06    -8.81797E+06     3.18211E+06    -21.5365E-03     41.9422E-03    -20.4057E-03     15.5168E-03    -21.4516E-03     41.5070E-03    -20.2963E-03     15.5511E-03
            2074     3.52844E-03     20.5789E-03    -13.5161E+06    -94.4777E+06    -11.1327E+06     2.70074E+06    -20.9324E-03     41.1311E-03    -20.1987E-03     12.0694E-03    -20.8474E-03     40.6950E-03    -20.0978E-03     12.0995E-03
            2075     2.64674E-03     20.5674E-03    -14.3534E+06    -95.2250E+06    -13.0078E+06     2.17807E+06    -20.4580E-03     40.4916E-03    -20.0336E-03     8.87612E-03    -20.3732E-03     40.0555E-03    -19.9397E-03     8.90105E-03
            2076     1.76471E-03     20.5591E-03    -14.9300E+06    -95.7556E+06    -14.3906E+06     1.56831E+06    -20.1085E-03     40.0200E-03    -19.9115E-03     5.90536E-03    -20.0236E-03     39.5838E-03    -19.8229E-03     5.92361E-03
            2077     882.408E-06     20.5542E-03    -15.2377E+06    -96.0297E+06    -15.1905E+06     864.506E+03    -19.8898E-03     39.7234E-03    -19.8336E-03     3.13790E-03    -19.8047E-03     39.2874E-03    -19.7482E-03     3.14804E-03
            2078     16.6615E-03     20.7205E-03    -5.05204E+06     174.108E+06     89.6883E+06     906.079E+03    -55.4217E-03     81.6688E-03    -26.2470E-03     310.949E-03    -69.2276E-03     95.8149E-03    -26.0437E-03     317.080E-03
            2079     15.7964E-03     20.3711E-03    -8.26231E+06     122.303E+06     21.4935E+06     715.662E+03    -53.0594E-03     78.2908E-03    -25.2314E-03     281.102E-03    -61.1148E-03     86.6891E-03    -25.2893E-03     281.436E-03
            2080     14.9284E-03     20.1615E-03    -8.90842E+06     50.6727E+06    -29.5755E+06     1.24153E+06    -40.0182E-03     64.4668E-03    -24.4486E-03     153.398E-03    -41.3712E-03     66.0540E-03    -24.6570E-03     153.006E-03
            2081     14.0564E-03     20.0693E-03    -7.62397E+06     2.17290E+06    -29.1559E+06     1.87083E+06    -32.9536E-03     56.9642E-03    -24.0105E-03     77.1922E-03    -33.2270E-03     57.3028E-03    -24.1484E-03     76.9690E-03
            2082     13.1843E-03     20.0072E-03    -6.54464E+06    -21.6033E+06    -18.2819E+06     1.62030E+06    -31.7435E-03     55.3759E-03    -23.6324E-03     65.8277E-03    -31.8574E-03     55.4430E-03    -23.6830E-03     65.6687E-03
            2083     12.3107E-03     19.9363E-03    -6.18685E+06    -36.5081E+06     -11.581E+06     1.87601E+06    -31.0146E-03     54.2270E-03    -23.2123E-03     64.2478E-03    -31.0672E-03     54.1616E-03    -23.2083E-03     64.1374E-03
            2084     11.4373E-03     19.8764E-03    -6.17686E+06    -55.2161E+06    -10.5183E+06     2.23246E+06    -29.6849E-03     52.4515E-03    -22.7666E-03     53.7907E-03    -29.6733E-03     52.2525E-03    -22.7302E-03     53.7222E-03
            2085     10.5623E-03     19.8255E-03    -6.30376E+06    -69.2012E+06    -10.2477E+06     2.37004E+06    -28.3836E-03     50.7064E-03    -22.3229E-03     46.9380E-03    -28.3316E-03     50.4162E-03    -22.2646E-03     46.8992E-03
            2086     9.68655E-03     19.7789E-03    -6.34606E+06    -74.9372E+06    -6.25609E+06     2.52693E+06    -27.1438E-03     49.0483E-03    -21.9045E-03     41.4464E-03    -27.0773E-03     48.7114E-03    -21.8179E-03     41.4296E-03
            2087     8.80960E-03     19.7386E-03    -6.71641E+06    -78.5268E+06    -4.06998E+06     3.00007E+06    -25.9270E-03     47.4239E-03    -21.4969E-03     35.9471E-03    -25.8528E-03     47.0589E-03    -21.3936E-03     35.9506E-03
            2088     7.93187E-03     19.7029E-03    -7.30876E+06    -82.6945E+06    -4.36463E+06     3.74260E+06    -24.7797E-03     45.8844E-03    -21.1046E-03     30.9293E-03    -24.6974E-03     45.4952E-03    -20.9960E-03     30.9526E-03
            2089     7.05309E-03     19.6724E-03    -8.09845E+06    -85.6053E+06    -4.83040E+06     4.44876E+06    -23.7079E-03     44.4480E-03    -20.7401E-03     26.2573E-03    -23.6217E-03     44.0432E-03    -20.6284E-03     26.2969E-03
            2090     6.17356E-03     19.6462E-03    -9.09351E+06    -88.6675E+06    -5.01221E+06     4.60038E+06    -22.7224E-03     43.1332E-03    -20.4109E-03     21.9653E-03    -22.6347E-03     42.7130E-03    -20.2942E-03     22.0121E-03
            2091     5.29317E-03     19.6244E-03    -10.3046E+06    -91.4723E+06    -6.20058E+06     4.22566E+06    -21.8365E-03     41.9499E-03    -20.1134E-03     18.0785E-03    -21.7480E-03     41.5181E-03    -19.9969E-03     18.1242E-03
            2092     4.41213E-03     19.6063E-03    -11.5042E+06    -92.1153E+06    -8.57543E+06     3.74884E+06    -21.0595E-03     40.9069E-03    -19.8474E-03     14.5353E-03    -20.9720E-03     40.4764E-03    -19.7400E-03     14.5775E-03
            2093     3.53046E-03     19.5920E-03    -12.6106E+06    -93.0004E+06    -10.7446E+06     3.24168E+06    -20.4080E-03     40.0343E-03    -19.6263E-03     11.2734E-03    -20.3212E-03     39.6037E-03    -19.5269E-03     11.3109E-03
            2094     2.64829E-03     19.5810E-03    -13.5385E+06    -93.5690E+06    -12.3947E+06     2.54489E+06    -19.9017E-03     39.3531E-03    -19.4514E-03     8.26785E-03    -19.8160E-03     38.9231E-03    -19.3581E-03     8.29780E-03
            2095     1.76574E-03     19.5733E-03    -14.1443E+06    -94.0056E+06    -13.6605E+06     1.76954E+06    -19.5310E-03     38.8530E-03    -19.3220E-03     5.46842E-03    -19.4457E-03     38.4234E-03    -19.2335E-03     5.48945E-03
            2096     882.948E-06     19.5685E-03    -14.4564E+06    -94.1862E+06    -14.3715E+06     999.543E+03    -19.3060E-03     38.5378E-03    -19.2318E-03     2.90615E-03    -19.2209E-03     38.1088E-03    -19.1461E-03     2.91812E-03
            2097     16.6613E-03     19.7026E-03    -4.87811E+06     173.427E+06     89.5201E+06     898.729E+03    -57.0807E-03     83.2421E-03    -26.1614E-03     307.327E-03    -70.5127E-03     97.0131E-03    -25.9582E-03     313.084E-03
            2098     15.7997E-03     19.3610E-03    -8.02537E+06     122.033E+06     22.3212E+06     1.66074E+06    -53.6790E-03     78.7402E-03    -25.0613E-03     275.278E-03    -61.3923E-03     86.7940E-03    -25.1150E-03     275.484E-03
            2099     14.9311E-03     19.1576E-03    -9.16648E+06     51.3537E+06    -29.7633E+06     1.75219E+06    -39.9812E-03     64.2031E-03    -24.2219E-03     149.359E-03    -41.2602E-03     65.7184E-03    -24.4319E-03     148.978E-03
            2100     14.0604E-03     19.0671E-03    -8.93315E+06     3.12735E+06    -31.0282E+06     1.59814E+06    -33.2546E-03     56.9972E-03    -23.7426E-03     75.5147E-03    -33.5204E-03     57.3324E-03    -23.8894E-03     75.2902E-03
            2101     13.1876E-03     19.0065E-03    -7.79540E+06    -21.6934E+06    -20.1647E+06     1.41828E+06    -32.0854E-03     55.4090E-03    -23.3236E-03     64.4261E-03    -32.1985E-03     55.4759E-03    -23.3817E-03     64.2648E-03
            2102     12.3156E-03     18.9362E-03    -7.02363E+06    -36.9894E+06    -12.9138E+06     2.01344E+06    -31.1183E-03     53.9839E-03    -22.8657E-03     62.5072E-03    -31.1684E-03     53.9153E-03    -22.8664E-03     62.4011E-03
            2103     11.4414E-03     18.8790E-03    -6.75987E+06    -55.1840E+06    -11.3184E+06     2.55680E+06    -29.6165E-03     52.0066E-03    -22.3901E-03     51.9825E-03    -29.6036E-03     51.8068E-03    -22.3569E-03     51.9213E-03
            2104     10.5666E-03     18.8289E-03    -6.50291E+06    -68.8888E+06    -10.9872E+06     2.62050E+06    -28.2867E-03     50.2047E-03    -21.9179E-03     45.2310E-03    -28.2332E-03     49.9154E-03    -21.8636E-03     45.1979E-03
            2105     9.69061E-03     18.7845E-03    -6.52820E+06    -75.0367E+06    -7.13710E+06     2.77661E+06    -26.9950E-03     48.4658E-03    -21.4709E-03     39.7398E-03    -26.9266E-03     48.1287E-03    -21.3883E-03     39.7283E-03
            2106     8.81369E-03     18.7452E-03    -6.80298E+06    -78.8205E+06    -4.90011E+06     3.25597E+06    -25.7096E-03     46.7456E-03    -21.0360E-03     34.2881E-03    -25.6332E-03     46.3796E-03    -20.9364E-03     34.2967E-03
            2107     7.93564E-03     18.7115E-03    -7.30509E+06    -83.3008E+06    -5.17573E+06     4.13529E+06    -24.5076E-03     45.1254E-03    -20.6179E-03     29.3394E-03    -24.4225E-03     44.7338E-03    -20.5124E-03     29.3692E-03
            2108     7.05673E-03     18.6820E-03    -7.85951E+06    -85.4078E+06    -5.65593E+06     4.87421E+06    -23.3732E-03     43.6001E-03    -20.2268E-03     24.7691E-03    -23.2845E-03     43.1967E-03    -20.1199E-03     24.8154E-03
            2109     6.17681E-03     18.6574E-03    -8.43419E+06    -87.6838E+06    -5.56027E+06     5.01320E+06    -22.3287E-03     42.2034E-03    -19.8746E-03     20.5962E-03    -22.2381E-03     41.7876E-03    -19.7630E-03     20.6492E-03
            2110     5.29612E-03     18.6365E-03    -9.24170E+06    -90.2185E+06    -6.31924E+06     4.90147E+06    -21.3952E-03     40.9530E-03    -19.5579E-03     16.8467E-03    -21.3028E-03     40.5259E-03    -19.4452E-03     16.9018E-03
            2111     4.41465E-03     18.6196E-03    -10.4267E+06    -90.6292E+06    -8.29374E+06     4.58985E+06    -20.5680E-03     39.8433E-03    -19.2753E-03     13.4631E-03    -20.4775E-03     39.4181E-03    -19.1702E-03     13.5167E-03
            2112     3.53251E-03     18.6060E-03    -11.5799E+06    -91.1574E+06    -10.0557E+06     3.90908E+06    -19.8751E-03     38.9156E-03    -19.0405E-03     10.4068E-03    -19.7867E-03     38.4916E-03    -18.9418E-03     10.4533E-03
            2113     2.64987E-03     18.5958E-03    -12.4551E+06    -91.5722E+06    -11.5267E+06     3.00539E+06    -19.3343E-03     38.1884E-03    -18.8540E-03     7.61139E-03    -19.2473E-03     37.7655E-03    -18.7608E-03     7.64755E-03
            2114     1.76682E-03     18.5885E-03    -13.0964E+06    -91.9374E+06    -12.6333E+06     2.02291E+06    -18.9419E-03     37.6574E-03    -18.7155E-03     5.00208E-03    -18.8559E-03     37.2351E-03    -18.6263E-03     5.02656E-03
            2115     883.481E-06     18.5841E-03    -13.4614E+06    -92.1078E+06    -13.3088E+06     1.05908E+06    -18.7047E-03     37.3150E-03    -18.6103E-03     2.65460E-03    -18.6192E-03     36.8934E-03    -18.5237E-03     2.66743E-03
            2116     16.6641E-03     18.6838E-03    -5.29995E+06     172.073E+06     88.5812E+06     883.332E+03    -58.2219E-03     84.3060E-03    -26.0840E-03     303.483E-03    -71.2245E-03     97.6439E-03    -25.8829E-03     308.885E-03
            2117     15.8016E-03     18.3498E-03    -9.17631E+06     120.959E+06     22.5811E+06     2.12934E+06    -54.1413E-03     79.0573E-03    -24.9160E-03     268.182E-03    -61.4672E-03     86.7151E-03    -24.9652E-03     268.281E-03
            2118     14.9351E-03     18.1534E-03    -10.6295E+06     52.4501E+06    -29.8013E+06     2.62641E+06    -40.4502E-03     64.4566E-03    -24.0064E-03     144.548E-03    -41.6624E-03     65.9041E-03    -24.2161E-03     144.170E-03
            2119     14.0635E-03     18.0652E-03    -10.0852E+06     5.00461E+06    -32.6491E+06     1.80487E+06    -33.6201E-03     57.0849E-03    -23.4648E-03     73.5610E-03    -33.8781E-03     57.4196E-03    -23.6207E-03     73.3414E-03
            2120     13.1926E-03     18.0049E-03    -9.13575E+06    -21.9228E+06    -22.1094E+06     1.01236E+06    -32.2658E-03     55.2736E-03    -23.0078E-03     62.9421E-03    -32.3768E-03     55.3386E-03    -23.0733E-03     62.7781E-03
            2121     12.3193E-03     17.9373E-03    -8.03086E+06    -38.0931E+06    -14.9139E+06     1.67825E+06    -31.2032E-03     53.7187E-03    -22.5155E-03     60.7156E-03    -31.2494E-03     53.6445E-03    -22.5232E-03     60.6085E-03
            2122     11.4459E-03     17.8811E-03    -7.05644E+06    -55.1433E+06    -12.3364E+06     2.43533E+06    -29.6279E-03     51.6363E-03    -22.0084E-03     50.0348E-03    -29.6119E-03     51.4354E-03    -21.9799E-03     49.9752E-03
            2123     10.5708E-03     17.8334E-03    -6.59920E+06    -68.7536E+06    -11.7801E+06     2.79398E+06    -28.2136E-03     49.7181E-03    -21.5045E-03     43.3374E-03    -28.1575E-03     49.4287E-03    -21.4541E-03     43.3092E-03
            2124     9.69491E-03     17.7901E-03    -6.49344E+06    -75.0911E+06    -8.04821E+06     3.10227E+06    -26.8541E-03     47.8801E-03    -21.0260E-03     37.8009E-03    -26.7827E-03     47.5425E-03    -20.9480E-03     37.7958E-03
            2125     8.81777E-03     17.7530E-03    -6.90485E+06    -79.1537E+06    -5.73915E+06     3.63090E+06    -25.5036E-03     46.0658E-03    -20.5622E-03     32.4098E-03    -25.4251E-03     45.6984E-03    -20.4661E-03     32.4251E-03
            2126     7.93962E-03     17.7203E-03    -7.30776E+06    -83.7921E+06    -6.09264E+06     4.36506E+06    -24.2291E-03     44.3446E-03    -20.1155E-03     27.5595E-03    -24.1413E-03     43.9511E-03    -20.0138E-03     27.5938E-03
            2127     7.06039E-03     17.6928E-03    -7.47001E+06    -85.1977E+06    -6.67264E+06     5.02934E+06    -23.0275E-03     42.7241E-03    -19.6965E-03     23.1141E-03    -22.9352E-03     42.3222E-03    -19.5955E-03     23.1637E-03
            2128     6.18020E-03     17.6692E-03    -7.89681E+06    -86.9171E+06    -6.55161E+06     5.43796E+06    -21.9230E-03     41.2432E-03    -19.3202E-03     19.0936E-03    -21.8291E-03     40.8316E-03    -19.2154E-03     19.1531E-03
            2129     5.29913E-03     17.6498E-03    -8.77798E+06    -89.1696E+06    -6.87900E+06     5.61554E+06    -20.9273E-03     39.9124E-03    -18.9851E-03     15.5163E-03    -20.8331E-03     39.4904E-03    -18.8775E-03     15.5813E-03
            2130     4.41722E-03     17.6338E-03    -9.63188E+06    -88.8214E+06    -7.97011E+06     5.30914E+06    -20.0555E-03     38.7439E-03    -18.6884E-03     12.3362E-03    -19.9640E-03     38.3260E-03    -18.5855E-03     12.3995E-03
            2131     3.53467E-03     17.6213E-03    -10.3318E+06    -88.9396E+06    -9.15323E+06     4.47616E+06    -19.3274E-03     37.7678E-03    -18.4404E-03     9.49123E-03    -19.2372E-03     37.3517E-03    -18.3422E-03     9.54544E-03
            2132     2.65150E-03     17.6116E-03    -10.9969E+06    -89.2533E+06    -10.4263E+06     3.49540E+06    -18.7492E-03     36.9925E-03    -18.2433E-03     6.92387E-03    -18.6598E-03     36.5774E-03    -18.1501E-03     6.96661E-03
            2133     1.76792E-03     17.6049E-03    -11.5791E+06    -89.5450E+06    -11.4325E+06     2.42667E+06    -18.3361E-03     36.4341E-03    -18.0980E-03     4.54232E-03    -18.2477E-03     36.0198E-03    -18.0085E-03     4.57217E-03
            2134     884.067E-06     17.6008E-03    -12.0189E+06    -89.6621E+06    -12.0739E+06     1.30569E+06    -18.0711E-03     36.0760E-03    -18.0049E-03     2.38889E-03    -17.9837E-03     35.6627E-03    -17.9178E-03     2.40498E-03
            2135     16.6641E-03     17.6646E-03    -5.71897E+06     170.748E+06     88.2217E+06     1.43014E+06    -59.5075E-03     85.5222E-03    -26.0147E-03     299.269E-03    -72.0526E-03     98.3976E-03    -25.8129E-03     304.303E-03
            2136     15.8039E-03     17.3366E-03    -10.0854E+06     119.586E+06     23.9154E+06     3.17629E+06    -54.6767E-03     79.4502E-03    -24.7735E-03     259.999E-03    -61.5761E-03     86.6697E-03    -24.8127E-03     259.979E-03
            2137     14.9376E-03     17.1485E-03    -11.6357E+06     54.2446E+06    -29.6858E+06     3.35679E+06    -40.7782E-03     64.5641E-03    -23.7859E-03     138.974E-03    -41.9156E-03     65.9392E-03    -23.9961E-03     138.605E-03
            2138     14.0686E-03     17.0626E-03    -10.8705E+06     7.15612E+06    -34.4863E+06     1.79321E+06    -33.9848E-03     57.1682E-03    -23.1834E-03     71.6784E-03    -34.2335E-03     57.5039E-03    -23.3505E-03     71.4613E-03
            2139     13.1957E-03     17.0046E-03    -9.14805E+06    -22.2929E+06    -23.8806E+06     804.294E+03    -32.5095E-03     55.1972E-03    -22.6877E-03     61.3475E-03    -32.6114E-03     55.2568E-03    -22.7615E-03     61.1835E-03
            2140     12.3239E-03     16.9374E-03    -8.06910E+06    -38.8923E+06    -16.7831E+06     1.34358E+06    -31.3466E-03     53.5026E-03    -22.1560E-03     58.4490E-03    -31.3840E-03     53.4221E-03    -22.1719E-03     58.3409E-03
            2141     11.4502E-03     16.8843E-03    -7.51569E+06    -55.6419E+06    -13.8329E+06     2.17247E+06    -29.6799E-03     51.2921E-03    -21.6122E-03     47.7589E-03    -29.6598E-03     51.0880E-03    -21.5898E-03     47.6991E-03
            2142     10.5754E-03     16.8376E-03    -6.89563E+06    -68.7861E+06    -12.7810E+06     2.80412E+06    -28.1876E-03     49.2598E-03    -21.0722E-03     41.1714E-03    -28.1292E-03     48.9700E-03    -21.0264E-03     41.1460E-03
            2143     9.69935E-03     16.7968E-03    -6.59754E+06    -75.3867E+06    -9.13570E+06     3.36956E+06    -26.7274E-03     47.2852E-03    -20.5578E-03     35.6039E-03    -26.6529E-03     46.9463E-03    -20.4846E-03     35.6046E-03
            2144     8.82214E-03     16.7609E-03    -6.79920E+06    -79.4858E+06    -6.47841E+06     4.16102E+06    -25.2921E-03     45.3547E-03    -20.0626E-03     30.2768E-03    -25.2104E-03     44.9855E-03    -19.9698E-03     30.3009E-03
            2145     7.94377E-03     16.7304E-03    -7.26876E+06    -83.7306E+06    -6.53591E+06     4.61696E+06    -23.9310E-03     43.5178E-03    -19.5868E-03     25.5274E-03    -23.8417E-03     43.1245E-03    -19.4876E-03     25.5666E-03
            2146     7.06427E-03     16.7041E-03    -7.55046E+06    -85.2731E+06    -7.79524E+06     5.10940E+06    -22.6491E-03     41.7876E-03    -19.1385E-03     21.2428E-03    -22.5549E-03     41.3866E-03    -19.0429E-03     21.2947E-03
            2147     6.18376E-03     16.6822E-03    -7.82652E+06    -86.5848E+06    -7.70023E+06     5.98469E+06    -21.4667E-03     40.2062E-03    -18.7395E-03     17.4013E-03    -21.3709E-03     39.7976E-03    -18.6411E-03     17.4689E-03
            2148     5.30223E-03     16.6639E-03    -8.27276E+06    -87.7877E+06    -7.03536E+06     6.13980E+06    -20.4084E-03     38.7994E-03    -18.3909E-03     14.0569E-03    -20.3133E-03     38.3836E-03    -18.2868E-03     14.1294E-03
            2149     4.41990E-03     16.6492E-03    -8.62771E+06    -86.8589E+06    -7.57486E+06     5.54434E+06    -19.4988E-03     37.5821E-03    -18.0833E-03     11.1351E-03    -19.4056E-03     37.1719E-03    -17.9827E-03     11.2020E-03
            2150     3.53680E-03     16.6375E-03    -8.96540E+06    -86.6599E+06    -8.39560E+06     4.88683E+06    -18.7433E-03     36.5706E-03    -17.8272E-03     8.53734E-03    -18.6506E-03     36.1627E-03    -17.7306E-03     8.59723E-03
            2151     2.65316E-03     16.6288E-03    -9.40097E+06    -86.6676E+06    -9.23350E+06     3.95966E+06    -18.1421E-03     35.7682E-03    -17.6262E-03     6.22159E-03    -18.0502E-03     35.3620E-03    -17.5330E-03     6.27058E-03
            2152     1.76901E-03     16.6225E-03    -9.71535E+06    -86.8660E+06    -9.98280E+06     2.86507E+06    -17.7150E-03     35.1965E-03    -17.4815E-03     4.08914E-03    -17.6232E-03     34.7908E-03    -17.3914E-03     4.12480E-03
            2153     884.574E-06     16.6188E-03    -9.80602E+06    -86.5817E+06    -10.1577E+06     1.78761E+06    -17.4764E-03     34.8502E-03    -17.3738E-03     2.08654E-03    -17.3851E-03     34.4463E-03    -17.2849E-03     2.10895E-03
            2154     16.6658E-03     16.6410E-03    -5.30740E+06     168.959E+06     86.6238E+06     2.51279E+06    -60.9955E-03     86.9131E-03    -25.9176E-03     293.254E-03    -72.9924E-03     99.2402E-03    -25.7217E-03     297.876E-03
            2155     15.8075E-03     16.3242E-03    -9.82753E+06     118.633E+06     24.0699E+06     4.52717E+06    -54.8694E-03     79.4660E-03    -24.5967E-03     250.916E-03    -61.2901E-03     86.2039E-03    -24.6341E-03     250.812E-03
            2156     14.9420E-03     16.1428E-03    -10.6183E+06     56.5433E+06    -27.6791E+06     3.77182E+06    -40.9513E-03     64.5070E-03    -23.5557E-03     133.108E-03    -42.0041E-03     65.8035E-03    -23.7607E-03     132.745E-03
            2157     14.0707E-03     16.0608E-03    -9.17111E+06     9.69622E+06    -34.4395E+06     1.92320E+06    -34.4011E-03     57.2951E-03    -22.8940E-03     68.7537E-03    -34.6301E-03     57.6260E-03    -23.0670E-03     68.5400E-03
            2158     13.2009E-03     16.0028E-03    -8.32887E+06    -22.0851E+06    -24.7196E+06     1.09207E+06    -32.8240E-03     55.1745E-03    -22.3505E-03     59.1019E-03    -32.9142E-03     55.2284E-03    -22.4300E-03     58.9437E-03
            2159     12.3284E-03     15.9390E-03    -8.13040E+06    -39.5916E+06    -18.0479E+06     1.44371E+06    -31.4982E-03     53.2728E-03    -21.7746E-03     55.8622E-03    -31.5276E-03     53.1853E-03    -21.7956E-03     55.7589E-03
            2160     11.4550E-03     15.8870E-03    -7.68819E+06    -56.2879E+06    -14.7563E+06     2.21268E+06    -29.7486E-03     50.9390E-03    -21.1905E-03     45.2250E-03    -29.7234E-03     50.7296E-03    -21.1715E-03     45.1692E-03
            2161     10.5802E-03     15.8430E-03    -7.28483E+06    -68.9421E+06    -13.6268E+06     2.79231E+06    -28.1979E-03     48.8058E-03    -20.6079E-03     38.6371E-03    -28.1376E-03     48.5145E-03    -20.5655E-03     38.6143E-03
            2162     9.70418E-03     15.8035E-03    -6.88931E+06    -75.8883E+06    -9.96313E+06     3.42281E+06    -26.6200E-03     46.6723E-03    -20.0523E-03     33.0411E-03    -26.5434E-03     46.3308E-03    -19.9820E-03     33.0450E-03
            2163     8.82688E-03     15.7700E-03    -6.72900E+06    -80.1046E+06    -7.16126E+06     4.42920E+06    -25.0602E-03     44.5805E-03    -19.5203E-03     27.8109E-03    -24.9751E-03     44.2080E-03    -19.4302E-03     27.8406E-03
            2164     7.94826E-03     15.7409E-03    -6.97849E+06    -83.1936E+06     -6.6213E+06     5.11335E+06    -23.5895E-03     42.6035E-03    -19.0140E-03     23.1928E-03    -23.4986E-03     42.2118E-03    -18.9164E-03     23.2401E-03
            2165     7.06851E-03     15.7166E-03    -7.38024E+06    -85.2888E+06    -7.54386E+06     5.37214E+06    -22.2016E-03     40.7449E-03    -18.5432E-03     19.1192E-03    -22.1065E-03     40.3427E-03    -18.4466E-03     19.1758E-03
            2166     6.18751E-03     15.6960E-03    -7.34362E+06    -86.5463E+06    -7.52617E+06     6.01732E+06    -20.9385E-03     39.0639E-03    -18.1254E-03     15.5397E-03    -20.8403E-03     38.6542E-03    -18.0269E-03     15.6087E-03
            2167     5.30558E-03     15.6794E-03    -7.15658E+06    -86.0349E+06    -6.60303E+06     6.24134E+06    -19.8243E-03     37.5875E-03    -17.7632E-03     12.4614E-03    -19.7266E-03     37.1782E-03    -17.6611E-03     12.5359E-03
            2168     4.42265E-03     15.6657E-03    -7.32545E+06    -84.9842E+06    -7.05375E+06     5.74135E+06    -18.8716E-03     36.3221E-03    -17.4505E-03     9.82444E-03    -18.7753E-03     35.9185E-03    -17.3519E-03     9.89443E-03
            2169     3.53905E-03     15.6551E-03    -7.53337E+06    -84.4764E+06    -7.78954E+06     5.14659E+06    -18.1023E-03     35.2968E-03    -17.1945E-03     7.51379E-03    -18.0065E-03     34.8969E-03    -17.1001E-03     7.57740E-03
            2170     2.65477E-03     15.6470E-03    -7.69783E+06    -83.9913E+06    -8.08197E+06     4.38739E+06    -17.5091E-03     34.5062E-03    -16.9970E-03     5.45800E-03    -17.4143E-03     34.1092E-03    -16.9045E-03     5.51275E-03
            2171     1.77011E-03     15.6414E-03    -8.06469E+06    -83.9149E+06    -8.20744E+06     3.39645E+06    -17.0836E-03     33.9409E-03    -16.8573E-03     3.58405E-03    -16.9904E-03     33.5449E-03    -16.7650E-03     3.62672E-03
            2172     885.130E-06     15.6379E-03    -8.56836E+06    -82.7387E+06    -8.43988E+06     2.12514E+06    -16.8585E-03     33.5991E-03    -16.7405E-03     1.84631E-03    -16.7691E-03     33.2101E-03    -16.6503E-03     1.87315E-03
            2173     16.6692E-03     15.6181E-03    -3.80771E+06     165.249E+06     90.1378E+06     2.51529E+06    -62.6475E-03     88.4790E-03    -25.8316E-03     286.949E-03    -74.0441E-03     100.188E-03    -25.6150E-03     291.105E-03
            2174     15.8101E-03     15.3105E-03    -6.29107E+06     118.097E+06     32.1409E+06     5.70111E+06    -55.1446E-03     79.5782E-03    -24.4336E-03     241.567E-03    -61.0849E-03     85.8230E-03    -24.4350E-03     241.377E-03
            2175     14.9448E-03     15.1370E-03    -8.01533E+06     59.7380E+06    -23.2772E+06     5.45008E+06    -41.1249E-03     64.4358E-03    -23.3109E-03     126.761E-03    -42.0860E-03     65.6484E-03    -23.5023E-03     126.420E-03
            2176     14.0774E-03     15.0579E-03    -8.81616E+06     12.0846E+06    -34.6234E+06     3.26422E+06    -34.7360E-03     57.3197E-03    -22.5837E-03     66.3175E-03    -34.9510E-03     57.6468E-03    -22.7615E-03     66.1249E-03
            2177     13.2050E-03     15.0023E-03    -8.34602E+06    -21.3457E+06    -25.6914E+06     1.85782E+06    -33.2318E-03     55.2215E-03    -21.9897E-03     57.0402E-03    -33.3149E-03     55.2738E-03    -22.0751E-03     56.8943E-03
            2178     12.3335E-03     14.9396E-03    -7.81798E+06    -40.0936E+06    -18.7726E+06     1.89957E+06    -31.7630E-03     53.1259E-03    -21.3629E-03     52.9888E-03    -31.7831E-03     53.0304E-03    -21.3872E-03     52.8951E-03
            2179     11.4602E-03     14.8908E-03    -7.66090E+06    -56.6160E+06    -15.1996E+06     2.50137E+06    -29.9164E-03     50.6438E-03    -20.7274E-03     42.3781E-03    -29.8862E-03     50.4296E-03    -20.7102E-03     42.3295E-03
            2180     10.5856E-03     14.8480E-03    -7.28833E+06    -69.1200E+06    -13.9544E+06     2.92848E+06    -28.2436E-03     48.3369E-03    -20.0933E-03     35.6806E-03    -28.1801E-03     48.0427E-03    -20.0522E-03     35.6626E-03
            2181     9.70968E-03     14.8114E-03    -7.12294E+06    -76.3592E+06    -10.3841E+06     3.56738E+06    -26.5042E-03     45.9941E-03    -19.4899E-03     30.0552E-03    -26.4257E-03     45.6495E-03    -19.4208E-03     30.0636E-03
            2182     8.83215E-03     14.7795E-03    -7.17297E+06    -80.8986E+06    -7.60870E+06     4.49492E+06    -24.7838E-03     43.7016E-03    -18.9178E-03     24.9989E-03    -24.6979E-03     43.3252E-03    -18.8282E-03     25.0316E-03
            2183     7.95336E-03     14.7527E-03    -7.10610E+06    -82.7445E+06    -6.98194E+06     5.24153E+06    -23.1634E-03     41.5415E-03    -18.3781E-03     20.5752E-03    -23.0726E-03     41.1520E-03    -18.2827E-03     20.6258E-03
            2184     7.07308E-03     14.7300E-03    -6.99544E+06    -84.9030E+06    -6.91242E+06     5.53845E+06    -21.6670E-03     39.5563E-03    -17.8893E-03     16.7451E-03    -21.5710E-03     39.1541E-03    -17.7906E-03     16.8052E-03
            2185     6.19169E-03     14.7113E-03    -6.99169E+06    -86.2458E+06    -6.93835E+06     5.81538E+06    -20.3271E-03     37.7840E-03    -17.4569E-03     13.4743E-03    -20.2282E-03     37.3742E-03    -17.3564E-03     13.5417E-03
            2186     5.30910E-03     14.6958E-03    -6.84433E+06    -84.5929E+06    -6.42683E+06     5.96109E+06    -19.1637E-03     36.2468E-03    -17.0831E-03     10.6978E-03    -19.0666E-03     35.8437E-03    -16.9826E-03     10.7695E-03
            2187     4.42567E-03     14.6836E-03    -6.51979E+06    -83.1843E+06    -6.36828E+06     5.74016E+06    -18.1847E-03     34.9537E-03    -16.7690E-03     8.33804E-03    -18.0879E-03     34.5568E-03    -16.6707E-03     8.40851E-03
            2188     3.54134E-03     14.6738E-03    -6.29551E+06    -82.3631E+06    -7.00378E+06     5.25449E+06    -17.3988E-03     33.9138E-03    -16.5150E-03     6.33526E-03    -17.3010E-03     33.5215E-03    -16.4214E-03     6.40063E-03
            2189     2.65656E-03     14.6666E-03    -6.12105E+06    -81.4654E+06    -6.84503E+06     4.66035E+06    -16.8157E-03     33.1405E-03    -16.3248E-03     4.58913E-03    -16.7184E-03     32.7521E-03    -16.2320E-03     4.64767E-03
            2190     1.77126E-03     14.6614E-03    -6.01386E+06    -80.4693E+06    -5.88372E+06     3.64262E+06    -16.4093E-03     32.6032E-03    -16.1939E-03     3.01542E-03    -16.3142E-03     32.2181E-03    -16.0979E-03     3.06144E-03
            2191     885.710E-06     14.6584E-03    -5.99111E+06    -78.6371E+06    -5.56026E+06     1.95868E+06    -16.1798E-03     32.2759E-03    -16.0962E-03     1.56228E-03    -16.0876E-03     31.8996E-03    -16.0013E-03     1.58707E-03
            2192     16.6692E-03     14.5923E-03    -5.31609E+06     161.709E+06     87.9649E+06     1.25718E+06    -64.1871E-03     89.9353E-03    -25.7482E-03     280.227E-03    -74.9684E-03     101.017E-03    -25.5352E-03     283.898E-03
            2193     15.8142E-03     14.2951E-03    -8.87100E+06     115.167E+06     33.6220E+06     4.49544E+06    -55.9749E-03     80.2397E-03    -24.2648E-03     231.848E-03    -61.4626E-03     86.0083E-03    -24.2508E-03     231.485E-03
            2194     14.9508E-03     14.1318E-03    -8.98130E+06     61.6281E+06    -18.0017E+06     6.27799E+06    -41.4812E-03     64.5529E-03    -23.0717E-03     120.427E-03    -42.3677E-03     65.6790E-03    -23.2380E-03     120.095E-03
            2195     14.0789E-03     14.0556E-03    -8.01299E+06     15.8902E+06    -31.3618E+06     4.62962E+06    -35.2386E-03     57.5091E-03    -22.2705E-03     63.6358E-03    -35.4442E-03     57.8338E-03    -22.4388E-03     63.4634E-03
            2196     13.2105E-03     14.0002E-03    -7.94896E+06    -20.2845E+06    -25.6966E+06     2.81385E+06    -33.7762E-03     55.3797E-03    -21.6034E-03     54.2107E-03    -33.8514E-03     55.4293E-03    -21.6910E-03     54.0785E-03
            2197     12.3390E-03     13.9415E-03    -8.02795E+06    -40.4650E+06    -19.4101E+06     2.70364E+06    -32.2010E-03     53.1096E-03    -20.9086E-03     49.6792E-03    -32.2146E-03     53.0075E-03    -20.9353E-03     49.5991E-03
            2198     11.4661E-03     13.8939E-03    -7.83142E+06    -56.4325E+06    -15.2846E+06     2.85664E+06    -30.1920E-03     50.3995E-03    -20.2074E-03     39.1045E-03    -30.1589E-03     50.1827E-03    -20.1907E-03     39.0637E-03
            2199     10.5919E-03     13.8542E-03    -7.64213E+06    -69.2602E+06    -14.0487E+06     3.14085E+06    -28.2860E-03     47.7985E-03    -19.5125E-03     32.3337E-03    -28.2213E-03     47.5017E-03    -19.4713E-03     32.3215E-03
            2200     9.71576E-03     13.8194E-03    -7.55463E+06    -76.9897E+06    -10.3424E+06     3.92575E+06    -26.3415E-03     45.2002E-03    -18.8586E-03     26.7706E-03    -26.2627E-03     44.8513E-03    -18.7878E-03     26.7863E-03
            2201     8.83825E-03     13.7902E-03    -7.69872E+06    -81.1608E+06    -7.26642E+06     4.65458E+06    -24.4476E-03     42.6925E-03    -18.2449E-03     21.9139E-03    -24.3634E-03     42.3140E-03    -18.1524E-03     21.9508E-03
            2202     7.95893E-03     13.7653E-03    -7.85920E+06    -82.6003E+06    -7.07971E+06     5.05699E+06    -22.6766E-03     40.3459E-03    -17.6694E-03     17.7021E-03    -22.5889E-03     39.9577E-03    -17.5736E-03     17.7520E-03
            2203     7.07832E-03     13.7448E-03    -7.91881E+06    -84.4307E+06    -6.92555E+06     5.49638E+06    -21.0685E-03     38.2246E-03    -17.1561E-03     14.1091E-03    -20.9773E-03     37.8257E-03    -17.0569E-03     14.1699E-03
            2204     6.19624E-03     13.7277E-03    -7.76355E+06    -85.3100E+06    -6.45948E+06     5.46931E+06    -19.6473E-03     36.3556E-03    -16.7083E-03     11.1278E-03    -19.5540E-03     35.9506E-03    -16.6057E-03     11.1916E-03
            2205     5.31313E-03     13.7139E-03    -7.12556E+06    -83.4447E+06    -6.38982E+06     5.17531E+06    -18.4292E-03     34.7502E-03    -16.3210E-03     8.68029E-03    -18.3351E-03     34.3531E-03    -16.2216E-03     8.74249E-03
            2206     4.42896E-03     13.7027E-03      -6.374E+06    -81.7987E+06    -6.07925E+06     5.16334E+06    -17.4306E-03     33.4320E-03    -16.0013E-03     6.65061E-03    -17.3354E-03     33.0413E-03    -15.9039E-03     6.71412E-03
            2207     3.54413E-03     13.6941E-03    -5.75229E+06    -80.3074E+06    -5.65275E+06     4.93890E+06    -16.6308E-03     32.3784E-03    -15.7475E-03     4.97950E-03    -16.5351E-03     31.9935E-03    -15.6510E-03     5.04114E-03
            2208     2.65851E-03     13.6875E-03    -4.87406E+06    -78.8473E+06    -4.92103E+06     4.05007E+06    -16.0313E-03     31.5904E-03    -15.5590E-03     3.58258E-03    -15.9343E-03     31.2104E-03    -15.4622E-03     3.63350E-03
            2209     1.77258E-03     13.6829E-03    -3.47329E+06    -77.0243E+06    -3.57922E+06     2.70048E+06    -15.6319E-03     31.0649E-03    -15.4330E-03     2.34354E-03    -15.5324E-03     30.6900E-03    -15.3342E-03     2.37757E-03
            2210     886.341E-06     13.6801E-03    -2.21340E+06    -75.2426E+06    -2.31584E+06     1.37017E+06    -15.4444E-03     30.7715E-03    -15.3271E-03     1.24139E-03    -15.3430E-03     30.4019E-03    -15.2264E-03     1.25866E-03
            2211     16.6707E-03     13.5633E-03    -5.49827E+06     159.469E+06     86.0644E+06     1.88148E+06    -65.8643E-03     91.5442E-03    -25.6799E-03     273.746E-03    -76.1062E-03     102.084E-03    -25.4728E-03     276.961E-03
            2212     15.8159E-03     13.2779E-03    -9.75082E+06     112.450E+06     31.2904E+06     3.87822E+06    -56.8227E-03     80.9028E-03    -24.0802E-03     219.013E-03    -61.7712E-03     86.1267E-03    -24.0726E-03     218.470E-03
            2213     14.9522E-03     13.1257E-03    -10.1368E+06     61.4364E+06    -16.4715E+06     4.88103E+06    -41.9818E-03     64.7916E-03    -22.8098E-03     113.177E-03    -42.7851E-03     65.8253E-03    -22.9666E-03     112.829E-03
            2214     14.0872E-03     13.0520E-03    -8.32488E+06     18.7429E+06    -29.0132E+06     5.07586E+06    -36.0966E-03     58.0283E-03    -21.9316E-03     60.8984E-03    -36.2973E-03     58.3502E-03    -22.0918E-03     60.7316E-03
            2215     13.2157E-03     12.9993E-03    -7.92451E+06    -18.4295E+06    -25.5659E+06     4.37369E+06    -34.4969E-03     55.6710E-03    -21.1740E-03     51.4058E-03    -34.5672E-03     55.7220E-03    -21.2636E-03     51.2954E-03
            2216     12.3452E-03     12.9420E-03    -8.27156E+06    -40.0689E+06    -19.4668E+06     3.61405E+06    -32.7633E-03     53.1626E-03    -20.3992E-03     45.9390E-03    -32.7725E-03     53.0568E-03    -20.4265E-03     45.8736E-03
            2217     11.4731E-03     12.8980E-03    -8.33042E+06    -56.0671E+06    -15.0552E+06     3.50062E+06    -30.4735E-03     50.0962E-03    -19.6228E-03     35.4474E-03    -30.4398E-03     49.8779E-03    -19.6047E-03     35.4185E-03
            2218     10.5987E-03     12.8602E-03    -8.58361E+06    -69.3105E+06    -13.8160E+06     3.64088E+06    -28.2886E-03     47.1520E-03    -18.8634E-03     28.7048E-03    -28.2263E-03     46.8534E-03    -18.8196E-03     28.7023E-03
            2219     9.72283E-03     12.8287E-03    -8.55344E+06    -77.3840E+06    -10.2234E+06     3.99857E+06    -26.1242E-03     44.2795E-03    -18.1553E-03     23.2869E-03    -26.0483E-03     43.9283E-03    -18.0818E-03     23.3062E-03
            2220     8.84479E-03     12.8017E-03    -8.23810E+06    -81.0400E+06    -6.68801E+06     4.40056E+06    -24.0666E-03     41.5641E-03    -17.4974E-03     18.6476E-03    -23.9852E-03     41.1852E-03    -17.4014E-03     18.6834E-03
            2221     7.96537E-03     12.7794E-03    -8.09137E+06    -82.6386E+06    -5.30956E+06     4.95571E+06    -22.1559E-03     39.0465E-03    -16.8905E-03     14.6800E-03    -22.0713E-03     38.6552E-03    -16.7855E-03     14.7303E-03
            2222     7.08410E-03     12.7608E-03    -8.25577E+06    -83.8099E+06    -4.88394E+06     5.27852E+06    -20.4288E-03     36.7773E-03    -16.3485E-03     11.4022E-03    -20.3429E-03     36.3787E-03    -16.2394E-03     11.4613E-03
            2223     6.20162E-03     12.7457E-03    -8.15511E+06    -83.7522E+06    -5.08597E+06     4.75691E+06    -18.9181E-03     34.7920E-03    -15.8738E-03     8.76375E-03    -18.8308E-03     34.3932E-03    -15.7660E-03     8.81910E-03
            2224     5.31774E-03     12.7334E-03    -7.79344E+06    -82.4549E+06    -5.93651E+06     4.17885E+06    -17.6349E-03     33.1022E-03    -15.4673E-03     6.67592E-03    -17.5461E-03     32.7103E-03    -15.3661E-03     6.72575E-03
            2225     4.43293E-03     12.7236E-03    -7.03613E+06    -80.7651E+06    -5.71300E+06     4.02401E+06    -16.5890E-03     31.7261E-03    -15.1371E-03     5.01483E-03    -16.4990E-03     31.3410E-03    -15.0384E-03     5.06396E-03
            2226     3.54720E-03     12.7158E-03    -5.85442E+06    -78.3511E+06    -4.10335E+06     3.58487E+06    -15.7770E-03     30.6569E-03    -14.8799E-03     3.70935E-03    -15.6869E-03     30.2797E-03    -14.7784E-03     3.75372E-03
            2227     2.66102E-03     12.7101E-03    -4.52029E+06    -76.2154E+06    -3.29036E+06     2.49468E+06    -15.1719E-03     29.8538E-03    -14.6819E-03     2.66086E-03    -15.0793E-03     29.4841E-03    -14.5813E-03     2.69182E-03
            2228     1.77420E-03     12.7059E-03    -3.42058E+06    -74.6625E+06    -3.28926E+06     1.36260E+06    -14.7550E-03     29.2958E-03    -14.5408E-03     1.72120E-03    -14.6591E-03     28.9322E-03    -14.4441E-03     1.73804E-03
            2229     887.165E-06     12.7035E-03    -2.63299E+06    -73.2014E+06    -2.64092E+06     699.101E+03    -14.5460E-03     28.9734E-03    -14.4274E-03     922.172E-06    -14.4492E-03     28.6151E-03    -14.3306E-03     930.813E-06
            2230     16.6702E-03     12.5251E-03    -4.54927E+06     156.419E+06     89.3925E+06     1.61736E+06    -67.6048E-03     93.2113E-03    -25.6065E-03     267.322E-03    -77.3608E-03     103.248E-03    -25.3797E-03     270.064E-03
            2231     15.8215E-03     12.2631E-03    -7.23909E+06     109.780E+06     36.9972E+06     4.50761E+06    -57.1710E-03     81.0772E-03    -23.9062E-03     204.146E-03    -61.4986E-03     85.6634E-03    -23.8699E-03     203.496E-03
            2232     14.9592E-03     12.1178E-03    -8.77666E+06     61.5790E+06    -14.1357E+06     6.07696E+06    -42.5333E-03     65.0649E-03    -22.5316E-03     106.663E-03    -43.2532E-03     66.0137E-03    -22.6788E-03     106.336E-03
            2233     14.0888E-03     12.0490E-03    -9.75332E+06     20.0327E+06    -29.0675E+06     5.63856E+06    -37.2760E-03     58.8340E-03    -21.5580E-03     57.7552E-03    -37.4724E-03     59.1514E-03    -21.7182E-03     57.5935E-03
            2234     13.2222E-03     11.9962E-03    -9.41874E+06    -16.2438E+06    -25.2157E+06     5.00288E+06    -35.4941E-03     56.1927E-03    -20.6985E-03     47.8517E-03    -35.5674E-03     56.2482E-03    -20.7874E-03     47.7497E-03
            2235     12.3526E-03     11.9436E-03    -8.91242E+06    -39.3952E+06    -19.2291E+06     4.47715E+06    -33.2943E-03     53.1243E-03    -19.8300E-03     41.7882E-03    -33.3016E-03     53.0162E-03    -19.8561E-03     41.7376E-03
            2236     11.4803E-03     11.9016E-03    -9.19577E+06    -55.5372E+06    -14.7198E+06     4.33786E+06    -30.6802E-03     49.6569E-03    -18.9767E-03     31.5100E-03    -30.6483E-03     49.4381E-03    -18.9564E-03     31.4959E-03
            2237     10.6066E-03     11.8676E-03    -9.25560E+06    -68.9145E+06    -13.0997E+06     4.19537E+06    -28.2234E-03     46.3779E-03    -18.1545E-03     24.9241E-03    -28.1637E-03     46.0789E-03    -18.1066E-03     24.9322E-03
            2238     9.73018E-03     11.8385E-03    -9.46284E+06    -77.1318E+06    -9.79281E+06     4.08809E+06    -25.8464E-03     43.2384E-03    -17.3920E-03     19.7576E-03    -25.7746E-03     42.8877E-03    -17.3154E-03     19.7808E-03
            2239     8.85229E-03     11.8146E-03    -9.82996E+06    -80.8373E+06    -6.21312E+06     4.13062E+06    -23.5845E-03     40.2775E-03    -16.6930E-03     15.4564E-03    -23.5111E-03     39.9004E-03    -16.5926E-03     15.4907E-03
            2240     7.97211E-03     11.7946E-03     -9.9279E+06    -82.5643E+06    -4.87935E+06     4.29105E+06    -21.5239E-03     37.5789E-03    -16.0550E-03     11.9226E-03    -21.4488E-03     37.1896E-03    -15.9452E-03     11.9656E-03
            2241     7.09053E-03     11.7784E-03    -9.29416E+06    -82.8926E+06    -4.22883E+06     4.25200E+06    -19.6953E-03     35.1844E-03    -15.4891E-03     9.09431E-03    -19.6166E-03     34.7907E-03    -15.3766E-03     9.14097E-03
            2242     6.20718E-03     11.7651E-03    -8.92133E+06    -82.3598E+06    -3.85581E+06     3.96341E+06    -18.1194E-03     33.1195E-03    -15.0001E-03     6.89678E-03    -18.0396E-03     32.7269E-03    -14.8871E-03     6.94235E-03
            2243     5.32272E-03     11.7546E-03    -8.88884E+06    -81.1163E+06    -4.38050E+06     3.27860E+06    -16.7996E-03     31.3828E-03    -14.5832E-03     5.17748E-03    -16.7205E-03     30.9968E-03    -14.4745E-03     5.21590E-03
            2244     4.43707E-03     11.7461E-03    -8.39865E+06    -79.5493E+06    -4.74450E+06     2.33145E+06    -15.7208E-03     29.9609E-03    -14.2401E-03     3.86316E-03    -15.6408E-03     29.5824E-03    -14.1363E-03     3.89053E-03
            2245     3.55064E-03     11.7395E-03    -7.32252E+06    -76.8055E+06    -4.10538E+06     1.49498E+06    -14.8865E-03     28.8557E-03    -13.9692E-03     2.84495E-03    -14.8059E-03     28.4884E-03    -13.8678E-03     2.86235E-03
            2246     2.66343E-03     11.7343E-03    -6.51592E+06    -74.6681E+06    -4.31684E+06     949.839E+03    -14.2774E-03     28.0341E-03    -13.7567E-03     2.01997E-03    -14.1955E-03     27.6765E-03    -13.6606E-03     2.03094E-03
            2247     1.77596E-03     11.7309E-03    -6.15612E+06    -73.3851E+06    -5.31167E+06     523.012E+03    -13.8420E-03     27.4389E-03    -13.5969E-03     1.30910E-03    -13.7587E-03     27.0886E-03    -13.5081E-03     1.31505E-03
            2248     888.087E-06     11.7286E-03    -5.93968E+06    -72.4218E+06    -5.65796E+06     104.009E+03    -13.5945E-03     27.0588E-03    -13.4644E-03     705.099E-06    -13.5109E-03     26.7136E-03    -13.3790E-03     706.037E-06
            2249     16.6752E-03     11.4882E-03    -6.03303E+06     153.521E+06     86.3287E+06     1.10683E+06    -68.6870E-03     94.1423E-03    -25.4553E-03     260.230E-03    -77.8743E-03     103.604E-03    -25.2375E-03     262.506E-03
            2250     15.8230E-03     11.2445E-03    -9.86755E+06     105.965E+06     35.9899E+06     3.47283E+06    -56.9542E-03     80.6497E-03    -23.6955E-03     190.111E-03    -60.7181E-03     84.6520E-03    -23.6549E-03     189.439E-03
            2251     14.9605E-03     11.1112E-03    -10.5449E+06     61.2392E+06    -8.74023E+06     6.39595E+06    -44.0513E-03     66.3033E-03    -22.2520E-03     99.3485E-03    -44.7239E-03     67.1819E-03    -22.3692E-03     99.0114E-03
            2252     14.0981E-03     11.0426E-03    -9.53065E+06     22.2289E+06    -24.6248E+06     6.54302E+06    -38.5210E-03     59.6687E-03    -21.1477E-03     53.5421E-03    -38.7090E-03     59.9734E-03    -21.2892E-03     53.3920E-03
            2253     13.2296E-03     10.9944E-03    -9.43258E+06    -14.9812E+06    -24.2792E+06     5.65111E+06    -36.3448E-03     56.5132E-03    -20.1684E-03     43.9449E-03    -36.4131E-03     56.5655E-03    -20.2544E-03     43.8533E-03
            2254     12.3600E-03     10.9440E-03     -9.6351E+06    -38.8515E+06    -18.4616E+06     5.36647E+06    -33.7713E-03     52.9815E-03    -19.2102E-03     37.2598E-03    -33.7779E-03     52.8699E-03    -19.2322E-03     37.2249E-03
            2255     11.4889E-03     10.9065E-03    -9.64429E+06    -54.4958E+06    -13.6148E+06     5.05528E+06    -30.7144E-03     48.9992E-03    -18.2848E-03     27.3997E-03    -30.6840E-03     48.7809E-03    -18.2599E-03     27.3995E-03
            2256     10.6143E-03     10.8753E-03    -9.99241E+06    -68.0451E+06    -11.8442E+06     4.53233E+06    -27.9902E-03     45.4003E-03    -17.4101E-03     21.2123E-03    -27.9352E-03     45.1028E-03    -17.3562E-03     21.2282E-03
            2257     9.73838E-03     10.8497E-03    -10.0763E+06    -76.5956E+06    -8.28736E+06     4.27590E+06    -25.3583E-03     41.9688E-03    -16.6105E-03     16.4934E-03    -25.2913E-03     41.6183E-03    -16.5263E-03     16.5215E-03
            2258     8.85952E-03     10.8286E-03    -10.4884E+06    -80.2698E+06    -4.87840E+06     4.15325E+06    -22.8937E-03     38.7821E-03    -15.8883E-03     12.7947E-03    -22.8258E-03     38.4062E-03    -15.7811E-03     12.8310E-03
            2259     7.97905E-03     10.8114E-03    -10.8335E+06    -81.5296E+06    -3.72857E+06     3.41778E+06    -20.7088E-03     35.9496E-03    -15.2408E-03     9.85261E-03    -20.6411E-03     35.5649E-03    -15.1255E-03     9.88534E-03
            2260     7.09643E-03     10.7975E-03    -10.9389E+06    -82.2756E+06    -3.43923E+06     2.81600E+06    -18.8353E-03     33.5107E-03    -14.6755E-03     7.55829E-03    -18.7667E-03     33.1212E-03    -14.5575E-03     7.58694E-03
            2261     6.21251E-03     10.7864E-03    -10.5566E+06    -81.3987E+06    -2.64328E+06     2.58600E+06    -17.2605E-03     31.4527E-03    -14.1922E-03     5.79810E-03    -17.1920E-03     31.0654E-03    -14.0721E-03     5.82608E-03
            2262     5.32715E-03     10.7774E-03    -10.0958E+06    -79.6224E+06    -2.78942E+06     1.94765E+06    -15.9569E-03     29.7368E-03    -13.7800E-03     4.42155E-03    -15.8882E-03     29.3578E-03    -13.6638E-03     4.44280E-03
            2263     4.44086E-03     10.7703E-03    -9.95940E+06    -77.9681E+06    -4.21426E+06     808.414E+03    -14.9120E-03     28.3450E-03    -13.4329E-03     3.39055E-03    -14.8429E-03     27.9759E-03    -13.3265E-03     3.39818E-03
            2264     3.55362E-03     10.7647E-03    -10.0220E+06    -76.0363E+06    -6.00334E+06    -125.753E+03    -14.0885E-03     27.2370E-03    -13.1485E-03     2.56086E-03    -14.0198E-03     26.8802E-03    -13.0537E-03     2.55723E-03
            2265     2.66588E-03     10.7605E-03    -9.86526E+06    -74.4075E+06    -7.55373E+06    -308.031E+03    -13.4565E-03     26.3825E-03    -12.9260E-03     1.84367E-03    -13.3871E-03     26.0358E-03    -12.8416E-03     1.83831E-03
            2266     1.77749E-03     10.7574E-03    -9.57369E+06    -73.0664E+06    -8.51572E+06    -270.079E+03    -13.0080E-03     25.7731E-03    -12.7651E-03     1.20640E-03    -12.9376E-03     25.4340E-03    -12.6878E-03     1.20203E-03
            2267     888.818E-06     10.7557E-03    -9.46797E+06    -72.3631E+06    -9.13781E+06    -152.207E+03    -12.7602E-03     25.3941E-03    -12.6339E-03     679.799E-06    -12.6894E-03     25.0594E-03    -12.5609E-03     677.374E-06
            2268     16.6782E-03     10.4548E-03    -5.40181E+06     151.672E+06     85.5415E+06     2.54584E+06    -70.2980E-03     95.6254E-03    -25.3274E-03     252.693E-03    -78.8460E-03     104.446E-03    -25.1118E-03     254.487E-03
            2269     15.8259E-03     10.2267E-03    -9.77376E+06     104.401E+06     36.3792E+06     3.72684E+06    -58.2768E-03     81.7289E-03    -23.4522E-03     176.339E-03    -61.5632E-03     85.2473E-03    -23.4075E-03     175.559E-03
            2270     14.9696E-03     10.0986E-03    -11.2192E+06     60.5778E+06    -5.62609E+06     5.01654E+06    -45.3866E-03     67.2775E-03    -21.8909E-03     89.7097E-03    -45.9927E-03     68.0761E-03    -21.9906E-03     89.3457E-03
            2271     14.1027E-03     10.0391E-03    -10.9002E+06     22.1478E+06    -22.3744E+06     6.57205E+06    -39.3645E-03     60.0389E-03    -20.6744E-03     49.6566E-03    -39.5451E-03     60.3246E-03    -20.8025E-03     49.5125E-03
            2272     13.2366E-03     9.98992E-03    -9.84572E+06    -13.8673E+06    -22.6783E+06     6.78630E+06    -37.1500E-03     56.7461E-03    -19.5961E-03     39.8774E-03    -37.2166E-03     56.7946E-03    -19.6751E-03     39.8028E-03
            2273     12.3691E-03     9.94578E-03    -9.77731E+06    -37.4658E+06    -16.4730E+06     6.26375E+06    -33.9675E-03     52.5246E-03    -18.5570E-03     32.1523E-03    -33.9734E-03     52.4109E-03    -18.5709E-03     32.1345E-03
            2274     11.4967E-03     9.91150E-03    -10.3067E+06    -53.1970E+06    -11.8800E+06     5.60016E+06    -30.4184E-03     47.9980E-03    -17.5796E-03     23.5042E-03    -30.3926E-03     47.7815E-03    -17.5469E-03     23.5161E-03
            2275     10.6230E-03     9.88425E-03    -10.4610E+06    -66.4844E+06    -9.43115E+06     4.70313E+06    -27.3638E-03     44.0473E-03    -16.6835E-03     17.9328E-03    -27.3151E-03     43.7531E-03    -16.6191E-03     17.9545E-03
            2276     9.74556E-03     9.86216E-03    -10.6545E+06    -76.0672E+06    -5.96260E+06     4.02181E+06    -24.5014E-03     40.3850E-03    -15.8835E-03     13.9915E-03    -24.4407E-03     40.0339E-03    -15.7876E-03     14.0186E-03
            2277     8.86642E-03     9.84427E-03    -10.4541E+06    -79.1855E+06    -2.75143E+06     3.48392E+06    -21.9379E-03     37.1123E-03    -15.1744E-03     10.9949E-03    -21.8741E-03     36.7384E-03    -15.0581E-03     11.0239E-03
            2278     7.98466E-03     9.82988E-03    -10.6745E+06    -80.2110E+06    -813.199E+03     2.87737E+06    -19.7135E-03     34.2714E-03    -14.5579E-03     8.70296E-03    -19.6510E-03     33.8887E-03    -14.4302E-03     8.72947E-03
            2279     7.10144E-03     9.81833E-03    -11.3599E+06    -81.1691E+06    -397.437E+03     1.89497E+06    -17.8791E-03     31.9081E-03    -14.0290E-03     6.97506E-03    -17.8186E-03     31.5203E-03    -13.8968E-03     6.99214E-03
            2280     6.21654E-03     9.80910E-03    -11.7715E+06    -80.4860E+06    -1.51815E+06     766.351E+03    -16.3814E-03     29.9551E-03    -13.5737E-03     5.64914E-03    -16.3220E-03     29.5726E-03    -13.4476E-03     5.65373E-03
            2281     5.33056E-03     9.80177E-03    -11.6501E+06    -78.7586E+06    -2.50912E+06     139.968E+03    -15.1738E-03     28.3652E-03    -13.1914E-03     4.58622E-03    -15.1146E-03     27.9924E-03    -13.0729E-03     4.58413E-03
            2282     4.44349E-03     9.79596E-03    -11.6910E+06    -76.8192E+06    -4.81007E+06    -382.594E+03    -14.2215E-03     27.0892E-03    -12.8677E-03     3.73442E-03    -14.1619E-03     26.7293E-03    -12.7634E-03     3.72660E-03
            2283     3.55579E-03     9.79140E-03    -12.0565E+06    -75.7414E+06    -8.05576E+06    -935.119E+03    -13.4664E-03     26.0658E-03    -12.5994E-03     2.98888E-03    -13.4053E-03     25.7164E-03    -12.5124E-03     2.97471E-03
            2284     2.66732E-03     9.78798E-03    -12.4078E+06    -74.7436E+06    -10.4241E+06    -1.15522E+06    -12.8767E-03     25.2692E-03    -12.3925E-03     2.27843E-03    -12.8153E-03     24.9286E-03    -12.3183E-03     2.26206E-03
            2285     1.77850E-03     9.78557E-03    -12.5202E+06    -73.6764E+06    -11.5546E+06    -937.127E+03    -12.4633E-03     24.7106E-03    -12.2473E-03     1.55464E-03    -12.4023E-03     24.3771E-03    -12.1801E-03     1.54162E-03
            2286     889.352E-06     9.78407E-03    -12.4992E+06    -73.0502E+06    -11.9985E+06    -480.313E+03    -12.2288E-03     24.3743E-03    -12.1455E-03     847.406E-06    -12.1679E-03     24.0447E-03    -12.0815E-03     840.710E-06
            2287     16.6762E-03     9.41973E-03    -5.11687E+06     149.457E+06     85.9388E+06     2.56811E+06    -72.8590E-03     98.0562E-03    -25.1972E-03     241.858E-03    -80.7358E-03     106.197E-03    -24.9768E-03     243.115E-03
            2288     15.8330E-03     9.19979E-03    -7.91726E+06     103.223E+06     38.3754E+06     4.23305E+06    -59.7875E-03     82.9523E-03    -23.1648E-03     161.788E-03    -62.6048E-03     85.9987E-03    -23.1111E-03     160.873E-03
            2289     14.9745E-03     9.09115E-03    -9.86355E+06     59.6858E+06    -3.44797E+06     5.80897E+06    -46.4668E-03     67.9434E-03    -21.4766E-03     81.2347E-03    -46.9990E-03     68.6635E-03    -21.5661E-03     80.8849E-03
            2290     14.1113E-03     9.03213E-03    -10.5306E+06     22.2675E+06    -19.6881E+06     6.67408E+06    -40.5373E-03     60.6903E-03    -20.1530E-03     44.8997E-03    -40.7048E-03     60.9571E-03    -20.2685E-03     44.7593E-03
            2291     13.2462E-03     8.98631E-03    -10.4881E+06    -13.4677E+06    -20.1812E+06     7.41107E+06    -37.2788E-03     56.2702E-03    -18.9914E-03     35.1272E-03    -37.3434E-03     56.3087E-03    -19.0576E-03     35.0687E-03
            2292     12.3768E-03     8.94777E-03    -10.6787E+06    -35.7792E+06    -13.5228E+06     7.16548E+06    -33.5160E-03     51.4316E-03    -17.9156E-03     27.4446E-03    -33.5274E-03     51.3177E-03    -17.9158E-03     27.4461E-03
            2293     11.5055E-03     8.91779E-03    -10.9153E+06    -50.8010E+06    -8.62828E+06     5.65113E+06    -29.5856E-03     46.5190E-03    -16.9335E-03     20.3322E-03    -29.5684E-03     46.3080E-03    -16.8871E-03     20.3506E-03
            2294     10.6296E-03     8.89478E-03    -10.8680E+06    -65.1448E+06    -6.23178E+06     4.33967E+06    -26.2428E-03     42.3058E-03    -16.0630E-03     15.6837E-03    -26.2016E-03     42.0130E-03    -15.9839E-03     15.7047E-03
            2295     9.75190E-03     8.87624E-03    -10.6464E+06    -74.6341E+06    -2.26597E+06     3.34688E+06    -23.2962E-03     38.6079E-03    -15.3117E-03     12.5403E-03    -23.2424E-03     38.2581E-03    -15.1994E-03     12.5611E-03
            2296     8.87113E-03     8.86162E-03    -10.9726E+06    -78.2589E+06     1.10417E+06     2.44543E+06    -20.7208E-03     35.3874E-03    -14.6666E-03     10.2983E-03    -20.6664E-03     35.0131E-03    -14.5317E-03     10.3152E-03
            2297     7.98871E-03     8.84993E-03    -11.2124E+06    -79.1548E+06     2.33671E+06     1.83731E+06    -18.5865E-03     32.7043E-03    -14.1178E-03     8.68799E-03    -18.5328E-03     32.3231E-03    -13.9751E-03     8.70177E-03
            2298     7.10424E-03     8.84062E-03    -11.4335E+06    -79.5038E+06     1.38623E+06     825.214E+03    -16.8809E-03     30.5374E-03    -13.6565E-03     7.50897E-03    -16.8259E-03     30.1556E-03    -13.5177E-03     7.51259E-03
            2299     6.21863E-03     8.83315E-03    -11.9841E+06    -79.3319E+06    -755.238E+03    -474.091E+03    -15.5562E-03     28.8295E-03    -13.2733E-03     6.53598E-03    -15.5007E-03     28.4521E-03    -13.1447E-03     6.52472E-03
            2300     5.33185E-03     8.82726E-03    -12.6676E+06    -78.3515E+06    -3.21028E+06    -1.41294E+06    -14.5363E-03     27.4935E-03    -12.9572E-03     5.69827E-03    -14.4818E-03     27.1253E-03    -12.8413E-03     5.67623E-03
            2301     4.44438E-03     8.82255E-03    -12.9281E+06    -76.7646E+06    -6.08791E+06    -1.69549E+06    -13.7474E-03     26.4434E-03    -12.6960E-03     4.88633E-03    -13.6922E-03     26.0874E-03    -12.5964E-03     4.86162E-03
            2302     3.55615E-03     8.81894E-03    -13.1181E+06    -75.9401E+06    -9.13764E+06    -1.59620E+06    -13.1357E-03     25.6227E-03    -12.4870E-03     4.04959E-03    -13.0781E-03     25.2755E-03    -12.4036E-03     4.02694E-03
            2303     2.66756E-03     8.81619E-03    -13.4581E+06    -75.3193E+06    -11.4390E+06    -1.52978E+06    -12.6867E-03     25.0168E-03    -12.3300E-03     3.16925E-03    -12.6283E-03     24.6764E-03    -12.2585E-03     3.14809E-03
            2304     1.77854E-03     8.81426E-03    -13.7130E+06    -74.7437E+06    -12.8481E+06    -1.32013E+06    -12.3786E-03     24.5992E-03    -12.2206E-03     2.21951E-03    -12.3202E-03     24.2641E-03    -12.1566E-03     2.20158E-03
            2305     889.303E-06     8.81308E-03    -13.8779E+06    -74.4326E+06    -13.4573E+06    -889.657E+03    -12.2186E-03     24.3512E-03    -12.1326E-03     1.21935E-03    -12.1605E-03     24.0187E-03    -12.0718E-03     1.20739E-03
            2306     16.6848E-03     8.37215E-03    -4.23343E+06     146.851E+06     87.1411E+06     1.36897E+06    -75.5422E-03     100.544E-03    -25.0021E-03     231.153E-03    -82.8260E-03     108.083E-03    -24.7732E-03     231.797E-03
            2307     15.8371E-03     8.18235E-03    -6.05788E+06     101.178E+06     40.8852E+06     4.53678E+06    -60.2140E-03     83.0503E-03    -22.8364E-03     145.142E-03    -62.5455E-03     85.6036E-03    -22.7699E-03     144.198E-03
            2308     14.9802E-03     8.07509E-03    -8.46017E+06     59.3496E+06    -746.328E+03     7.33284E+06    -47.3861E-03     68.4355E-03    -21.0494E-03     72.7255E-03    -47.8464E-03     69.0796E-03    -21.1270E-03     72.4103E-03
            2309     14.1206E-03     8.02625E-03    -10.5948E+06     21.4840E+06    -18.1427E+06     8.32013E+06    -41.2880E-03     60.9210E-03    -19.6330E-03     40.4411E-03    -41.4423E-03     61.1672E-03    -19.7395E-03     40.3293E-03
            2310     13.2534E-03     7.98406E-03    -11.9094E+06    -12.7709E+06    -17.8325E+06     9.02596E+06    -36.8019E-03     55.2306E-03    -18.4287E-03     31.7158E-03    -36.8689E-03     55.2622E-03    -18.4821E-03     31.6919E-03
            2311     12.3850E-03     7.95051E-03    -12.4924E+06    -32.5229E+06    -9.85051E+06     7.30495E+06    -32.3110E-03     49.6836E-03    -17.3726E-03     23.8677E-03    -32.3366E-03     49.5784E-03    -17.3566E-03     23.8814E-03
            2312     11.5109E-03     7.92628E-03    -12.3089E+06    -48.4664E+06    -4.98802E+06     4.94953E+06    -28.1590E-03     44.6053E-03    -16.4463E-03     18.2588E-03    -28.1554E-03     44.4007E-03    -16.3831E-03     18.2748E-03
            2313     10.6348E-03     7.90676E-03    -11.8152E+06    -63.2380E+06    -1.98599E+06     3.29251E+06    -24.7146E-03     40.3730E-03    -15.6583E-03     14.6707E-03    -24.6862E-03     40.0841E-03    -15.5594E-03     14.6824E-03
            2314     9.75512E-03     7.89232E-03    -11.4572E+06    -73.1557E+06     1.57060E+06     1.95900E+06    -21.7782E-03     36.7826E-03    -15.0044E-03     12.3873E-03    -21.7359E-03     36.4355E-03    -14.8738E-03     12.3927E-03
            2315     8.87349E-03     7.88050E-03    -11.0787E+06    -77.2322E+06     5.11091E+06     1.03205E+06    -19.3427E-03     33.8141E-03    -14.4714E-03     10.9518E-03    -19.2961E-03     33.4393E-03    -14.3178E-03     10.9519E-03
            2316     7.98952E-03     7.87149E-03    -11.2125E+06    -78.2931E+06     5.18906E+06     215.296E+03    -17.4393E-03     31.4725E-03    -14.0332E-03     9.94654E-03    -17.3911E-03     31.0916E-03    -13.8775E-03     9.94020E-03
            2317     7.10433E-03     7.86398E-03    -11.5690E+06    -78.1935E+06     2.84159E+06    -688.144E+03    -16.0050E-03     29.6833E-03    -13.6784E-03     9.12723E-03    -15.9547E-03     29.3062E-03    -13.5340E-03     9.11182E-03
            2318     6.21785E-03     7.85810E-03    -11.9034E+06    -78.2924E+06     134.042E+03    -1.70434E+06    -14.9473E-03     28.3478E-03    -13.4005E-03     8.30485E-03    -14.8942E-03     27.9742E-03    -13.2691E-03     8.27808E-03
            2319     5.33069E-03     7.85322E-03    -12.2479E+06    -78.0406E+06    -3.33172E+06    -2.55029E+06    -14.1910E-03     27.3711E-03    -13.1801E-03     7.45127E-03    -14.1347E-03     27.0040E-03    -13.0659E-03     7.41482E-03
            2320     4.44286E-03     7.84944E-03    -12.7354E+06    -77.4324E+06    -6.59490E+06    -2.79745E+06    -13.6424E-03     26.6512E-03    -13.0088E-03     6.47389E-03    -13.5846E-03     26.2924E-03    -12.9110E-03     6.43518E-03
            2321     3.55473E-03     7.84642E-03    -12.9535E+06    -76.8151E+06    -8.84801E+06    -2.52568E+06    -13.2484E-03     26.1300E-03    -12.8817E-03     5.39081E-03    -13.1891E-03     25.7778E-03    -12.7957E-03     5.35635E-03
            2322     2.66620E-03     7.84417E-03    -12.9455E+06    -76.2760E+06    -10.5568E+06    -2.09459E+06    -12.9789E-03     25.7689E-03    -12.7900E-03     4.21786E-03    -12.9178E-03     25.4217E-03    -12.7134E-03     4.18957E-03
            2323     1.77757E-03     7.84252E-03    -13.0304E+06    -76.1096E+06    -11.9325E+06    -1.62103E+06    -12.8130E-03     25.5391E-03    -12.7261E-03     2.93013E-03    -12.7506E-03     25.1948E-03    -12.6565E-03     2.90842E-03
            2324     888.833E-06     7.84155E-03    -13.1807E+06    -76.2487E+06    -12.8673E+06    -1.01299E+06    -12.7145E-03     25.3956E-03    -12.6811E-03     1.60955E-03    -12.6512E-03     25.0522E-03    -12.6158E-03     1.59606E-03
            2325     16.6849E-03     7.32753E-03    -4.80440E+06     143.113E+06     87.3000E+06     405.466E+03    -77.5833E-03     102.434E-03    -24.8508E-03     223.363E-03    -84.2801E-03     109.371E-03    -24.6149E-03     223.478E-03
            2326     15.8443E-03     7.15760E-03    -7.64936E+06     97.3810E+06     43.5572E+06     4.14610E+06    -62.0914E-03     84.6510E-03    -22.5595E-03     130.733E-03    -64.0459E-03     86.8003E-03    -22.4719E-03     129.734E-03
            2327     14.9896E-03     7.06358E-03    -10.0344E+06     56.3129E+06       92.85E+03     9.17462E+06    -47.9825E-03     68.6289E-03    -20.6464E-03     64.6016E-03    -48.3879E-03     69.1998E-03    -20.7130E-03     64.3278E-03
            2328     14.1244E-03     7.01879E-03    -12.6179E+06     21.4576E+06    -18.0997E+06     11.8136E+06    -40.6217E-03     59.8114E-03    -19.1897E-03     36.1431E-03    -40.7697E-03     60.0438E-03    -19.2930E-03     36.0985E-03
            2329     13.2609E-03     6.98238E-03    -15.5585E+06    -8.64620E+06    -15.0385E+06     10.2437E+06    -35.7362E-03     53.7553E-03    -18.0190E-03     27.8716E-03    -35.8235E-03     53.8008E-03    -18.0591E-03     27.8777E-03
            2330     12.3890E-03     6.95629E-03    -15.8177E+06    -28.3703E+06    -5.89811E+06     6.42861E+06    -30.4585E-03     47.4972E-03    -17.0386E-03     21.6411E-03    -30.5084E-03     47.4076E-03    -17.0041E-03     21.6555E-03
            2331     11.5146E-03     6.93581E-03    -15.0166E+06    -45.1432E+06    -901.158E+03     3.21297E+06    -26.1971E-03     42.4268E-03    -16.2297E-03     17.5425E-03    -26.2162E-03     42.2353E-03    -16.1470E-03     17.5430E-03
            2332     10.6359E-03     6.92136E-03    -13.9241E+06    -61.4578E+06     1.95129E+06     983.322E+03    -22.8046E-03     38.3864E-03    -15.5817E-03     15.2437E-03    -22.7945E-03     38.1032E-03    -15.4627E-03     15.2300E-03
            2333     9.75504E-03     6.90969E-03    -12.8236E+06     -71.796E+06     4.70775E+06    -295.340E+03    -20.1222E-03     35.1969E-03    -15.0747E-03     13.8069E-03    -20.0931E-03     34.8539E-03    -14.9285E-03     13.7858E-03
            2334     8.87160E-03     6.90112E-03    -12.2915E+06    -76.4633E+06     6.43515E+06    -1.27113E+06    -18.0486E-03     32.7334E-03    -14.6848E-03     12.9495E-03    -18.0111E-03     32.3622E-03    -14.5239E-03     12.9215E-03
            2335     7.98682E-03     6.89375E-03    -11.8307E+06    -77.6899E+06     5.88045E+06    -1.91447E+06    -16.5582E-03     30.9432E-03    -14.3850E-03     12.2269E-03    -16.5149E-03     30.5651E-03    -14.2258E-03     12.1940E-03
            2336     7.10077E-03     6.88797E-03    -11.5068E+06    -77.3740E+06     3.70425E+06    -2.64927E+06    -15.5078E-03     29.6659E-03    -14.1581E-03     11.4011E-03    -15.4596E-03     29.2915E-03    -14.0107E-03     11.3611E-03
            2337     6.21408E-03     6.88297E-03    -11.2998E+06    -77.7674E+06     914.716E+03    -3.53247E+06    -14.7965E-03     28.7894E-03    -13.9929E-03     10.4618E-03    -14.7423E-03     28.4164E-03    -13.8592E-03     10.4120E-03
            2338     5.32679E-03     6.87895E-03    -11.2122E+06    -78.3153E+06    -2.38848E+06    -3.92106E+06    -14.3381E-03     28.2101E-03    -13.8720E-03     9.31493E-03    -14.2776E-03     27.8387E-03    -13.7541E-03     9.26123E-03
            2339     4.43928E-03     6.87557E-03    -11.1056E+06    -78.3627E+06    -5.23026E+06    -3.87914E+06    -14.0445E-03     27.8301E-03    -13.7856E-03     7.99369E-03    -13.9791E-03     27.4622E-03    -13.6821E-03     7.94137E-03
            2340     3.55151E-03     6.87296E-03    -11.0473E+06    -78.1492E+06    -7.12703E+06    -3.58054E+06    -13.8635E-03     27.5902E-03    -13.7267E-03     6.55815E-03    -13.7953E-03     27.2259E-03    -13.6330E-03     6.51034E-03
            2341     2.66373E-03     6.87088E-03    -11.0274E+06    -77.8874E+06    -8.39416E+06    -2.96824E+06    -13.7526E-03     27.4391E-03    -13.6865E-03     5.05078E-03    -13.6827E-03     27.0779E-03    -13.5996E-03     5.01140E-03
            2342     1.77583E-03     6.86938E-03    -11.0069E+06    -78.0400E+06    -9.75392E+06    -2.09874E+06    -13.6827E-03     27.3412E-03    -13.6585E-03     3.46626E-03    -13.6105E-03     26.9811E-03    -13.5781E-03     3.43851E-03
            2343     887.937E-06     6.86844E-03    -10.8763E+06    -78.3535E+06    -10.7154E+06    -1.16082E+06    -13.6352E-03     27.2913E-03    -13.6561E-03     1.88419E-03    -13.5604E-03     26.9309E-03    -13.5803E-03     1.86885E-03
            2344     16.6861E-03     6.28476E-03    -6.28578E+06     140.210E+06     83.3721E+06     1.87237E+06    -79.2706E-03     103.995E-03    -24.7243E-03     210.900E-03    -85.1809E-03     110.141E-03    -24.5016E-03     210.568E-03
            2345     15.8444E-03     6.12268E-03    -12.7272E+06     90.3757E+06     36.3202E+06     4.17289E+06    -62.8105E-03     85.1321E-03    -22.3216E-03     114.450E-03    -64.4177E-03     86.9122E-03    -22.2526E-03     113.456E-03
            2346     14.9930E-03     6.05475E-03    -16.0430E+06     51.0795E+06     2.00551E+06     10.8183E+06    -48.3383E-03     68.7189E-03    -20.3807E-03     54.4056E-03    -48.7153E-03     69.2164E-03    -20.4214E-03     54.1702E-03
            2347     14.1321E-03     6.01092E-03    -18.6447E+06     22.8188E+06    -12.7134E+06     14.7028E+06    -39.0605E-03     58.0009E-03    -18.9404E-03     33.1603E-03    -39.2335E-03     58.2263E-03    -19.0100E-03     33.1803E-03
            2348     13.2625E-03     5.98444E-03    -19.7151E+06    -1.46920E+06    -11.1312E+06     10.4875E+06    -33.2695E-03     51.1311E-03    -17.8615E-03     25.4834E-03    -33.3865E-03     51.2056E-03    -17.8865E-03     25.5127E-03
            2349     12.3905E-03     5.96272E-03    -19.7332E+06    -22.2855E+06    -1.37282E+06     4.53777E+06    -28.0163E-03     45.0593E-03    -17.0430E-03     21.2377E-03    -28.0982E-03     44.9965E-03    -16.9889E-03     21.2392E-03
            2350     11.5129E-03     5.94881E-03    -18.4655E+06    -41.3713E+06     3.17016E+06    -254.583E+03    -23.8311E-03     40.2452E-03    -16.4141E-03     19.0575E-03    -23.8779E-03     40.0706E-03    -16.3115E-03     19.0202E-03
            2351     10.6325E-03     5.93705E-03    -16.3629E+06    -60.2205E+06     5.34348E+06    -2.76101E+06    -20.9242E-03     36.8760E-03    -15.9519E-03     17.6760E-03    -20.9325E-03     36.5971E-03    -15.8141E-03     17.6182E-03
            2352     9.74973E-03     5.92894E-03    -14.6416E+06    -71.1332E+06     6.63181E+06    -3.52918E+06    -18.7808E-03     34.3934E-03    -15.6126E-03     16.5264E-03    -18.7643E-03     34.0532E-03    -15.4550E-03     16.4661E-03
            2353     8.86546E-03     5.92199E-03    -13.3889E+06    -75.8481E+06     6.94904E+06    -4.20862E+06    -17.2970E-03     32.6658E-03    -15.3688E-03     15.7530E-03    -17.2665E-03     32.2984E-03    -15.2047E-03     15.6887E-03
            2354     7.98005E-03     5.91628E-03    -12.2623E+06    -77.5122E+06     5.89880E+06    -5.07691E+06    -16.3203E-03     31.5147E-03    -15.1943E-03     14.8004E-03    -16.2794E-03     31.1379E-03    -15.0347E-03     14.7279E-03
            2355     7.09405E-03     5.91127E-03    -10.9805E+06    -77.4025E+06     3.51620E+06    -5.45331E+06    -15.6905E-03     30.7586E-03    -15.0681E-03     13.5945E-03    -15.6393E-03     30.3834E-03    -14.9224E-03     13.5191E-03
            2356     6.20754E-03     5.90700E-03    -10.2155E+06    -78.0638E+06     712.952E+03    -5.53782E+06    -15.3083E-03     30.2904E-03    -14.9821E-03     12.1971E-03    -15.2479E-03     29.9144E-03    -14.8505E-03     12.1220E-03
            2357     5.32092E-03     5.90322E-03    -9.85187E+06    -79.2110E+06    -2.38491E+06    -5.61750E+06    -15.0836E-03     30.0065E-03    -14.9229E-03     10.6174E-03    -15.0150E-03     29.6285E-03    -14.8057E-03     10.5423E-03
            2358     4.43413E-03     5.90014E-03    -9.46230E+06    -79.8280E+06    -4.61631E+06    -5.29288E+06    -14.9641E-03     29.8484E-03    -14.8843E-03     8.92688E-03    -14.8893E-03     29.4699E-03    -14.7779E-03     8.85665E-03
            2359     3.54735E-03     5.89756E-03    -9.12562E+06    -79.9602E+06    -5.98420E+06    -4.60957E+06    -14.9016E-03     29.7603E-03    -14.8587E-03     7.17758E-03    -14.8228E-03     29.3825E-03    -14.7595E-03     7.11672E-03
            2360     2.66051E-03     5.89559E-03    -9.05647E+06    -80.1440E+06    -7.06412E+06    -3.73781E+06    -14.8597E-03     29.7005E-03    -14.8408E-03     5.44344E-03    -14.7787E-03     29.3232E-03    -14.7467E-03     5.39427E-03
            2361     1.77370E-03     5.89411E-03    -9.09356E+06    -80.5549E+06    -8.23546E+06    -2.62057E+06    -14.8300E-03     29.6590E-03    -14.8289E-03     3.68722E-03    -14.7469E-03     29.2813E-03    -14.7401E-03     3.65283E-03
            2362     886.788E-06     5.89328E-03    -9.12063E+06    -80.9516E+06    -8.91360E+06    -1.37823E+06    -14.8281E-03     29.6481E-03    -14.8200E-03     1.99567E-03    -14.7434E-03     29.2695E-03    -14.7340E-03     1.97758E-03
            2363     16.6934E-03     5.24037E-03    -6.19754E+06     137.901E+06     81.8049E+06     4.82896E+06    -81.7496E-03     106.418E-03    -24.6689E-03     198.958E-03    -86.8606E-03     111.763E-03    -24.4508E-03     198.205E-03
            2364     15.8502E-03     5.09531E-03    -14.9181E+06     84.0334E+06     36.2618E+06     9.73021E+06    -62.5022E-03     84.6975E-03    -22.1953E-03     99.4496E-03    -63.7880E-03     86.1264E-03    -22.1142E-03     98.5915E-03
            2365     14.9961E-03     5.03833E-03    -22.0937E+06     45.2472E+06     7.59421E+06     14.0274E+06    -46.1128E-03     66.4445E-03    -20.3317E-03     43.6158E-03    -46.4501E-03     66.8439E-03    -20.3273E-03     43.4855E-03
            2366     14.1308E-03     5.01079E-03    -24.8329E+06     26.4942E+06    -4.61249E+06     14.9364E+06    -36.0658E-03     55.1001E-03    -19.0342E-03     32.0888E-03    -36.2757E-03     55.3300E-03    -19.0597E-03     32.1431E-03
            2367     13.2607E-03     4.98608E-03    -24.4746E+06     8.65893E+06    -5.09795E+06     8.62826E+06    -30.0081E-03     48.1468E-03    -18.1387E-03     26.6748E-03    -30.1666E-03     48.2645E-03    -18.1413E-03     26.7024E-03
            2368     12.3847E-03     4.97387E-03    -22.2992E+06    -15.0313E+06     2.86598E+06     311.752E+03    -25.2913E-03     42.8287E-03    -17.5373E-03     23.5752E-03    -25.4004E-03     42.7973E-03    -17.4689E-03     23.5332E-03
            2369     11.5049E-03     4.96244E-03    -19.9085E+06    -38.3962E+06     6.47430E+06    -4.52448E+06    -21.9615E-03     39.0776E-03    -17.1161E-03     22.5017E-03    -22.0233E-03     38.9138E-03    -16.9992E-03     22.4157E-03
            2370     10.6230E-03     4.95447E-03    -18.3659E+06    -59.0336E+06     7.21694E+06    -6.87008E+06    -19.7991E-03     36.6264E-03    -16.8273E-03     21.0586E-03    -19.8211E-03     36.3528E-03    -16.6790E-03     20.9517E-03
            2371     9.73953E-03     4.94789E-03    -16.3392E+06    -71.4481E+06      6.5648E+06    -8.12207E+06    -18.4083E-03     35.0306E-03    -16.6223E-03     19.5888E-03    -18.3992E-03     34.6908E-03    -16.4622E-03     19.4717E-03
            2372     8.85511E-03     4.94250E-03    -13.5420E+06    -75.9450E+06     5.82042E+06    -8.43692E+06    -17.5502E-03     34.0242E-03    -16.4740E-03     18.2607E-03    -17.5183E-03     33.6577E-03    -16.3151E-03     18.1433E-03
            2373     7.97018E-03     4.93737E-03    -11.4703E+06    -78.0338E+06     4.68073E+06    -8.58722E+06    -17.0225E-03     33.3892E-03    -16.3666E-03     16.6188E-03    -16.9749E-03     33.0101E-03    -16.2135E-03     16.5019E-03
            2374     7.08492E-03     4.93300E-03    -10.3439E+06    -78.6113E+06     1.90790E+06    -8.40287E+06    -16.6953E-03     32.9746E-03    -16.2793E-03     14.8239E-03    -16.6367E-03     32.5945E-03    -16.1408E-03     14.7111E-03
            2375     6.19958E-03     4.92885E-03    -9.31291E+06    -79.5461E+06    -967.401E+03    -7.78393E+06    -16.4872E-03     32.6980E-03    -16.2108E-03     12.9090E-03    -16.4176E-03     32.3156E-03    -16.0868E-03     12.8054E-03
            2376     5.31405E-03     4.92542E-03    -8.64630E+06    -80.8302E+06    -3.97014E+06    -6.98168E+06    -16.3391E-03     32.4949E-03    -16.1558E-03     10.9611E-03    -16.2597E-03     32.1093E-03    -16.0459E-03     10.8688E-03
            2377     4.42848E-03     4.92228E-03    -8.54709E+06    -81.8637E+06    -6.16360E+06    -6.25049E+06    -16.2439E-03     32.3584E-03    -16.1145E-03     9.03874E-03    -16.1593E-03     31.9705E-03    -16.0142E-03     8.95644E-03
            2378     3.54284E-03     4.91986E-03    -8.57029E+06    -82.4130E+06    -7.22499E+06    -5.28986E+06    -16.1712E-03     32.2552E-03    -16.0840E-03     7.14022E-03    -16.0843E-03     31.8661E-03    -15.9882E-03     7.07076E-03
            2379     2.65719E-03     4.91787E-03    -8.69127E+06    -82.8958E+06    -8.03475E+06    -4.03509E+06    -16.1075E-03     32.1682E-03    -16.0606E-03     5.33337E-03    -16.0193E-03     31.7779E-03    -15.9680E-03     5.28049E-03
            2380     1.77144E-03     4.91651E-03    -9.00834E+06    -83.4230E+06    -8.71079E+06    -2.69162E+06    -16.0698E-03     32.1129E-03    -16.0431E-03     3.58006E-03    -15.9814E-03     31.7215E-03    -15.9526E-03     3.54482E-03
            2381     885.808E-06     4.91555E-03    -9.28810E+06    -83.8146E+06    -9.20663E+06    -1.45220E+06    -16.0347E-03     32.0687E-03    -16.0340E-03     1.94341E-03    -15.9463E-03     31.6765E-03    -15.9450E-03     1.92442E-03
            2382     16.6834E-03     4.18913E-03    -7.50225E+06     130.486E+06     79.4670E+06     7.61455E+06    -83.6290E-03     108.378E-03    -24.7487E-03     181.755E-03    -87.8505E-03     112.809E-03    -24.5297E-03     180.583E-03
            2383     15.8496E-03     4.06085E-03    -13.1589E+06     78.1750E+06     47.4079E+06     15.5803E+06    -60.0069E-03     82.3313E-03    -22.3244E-03     81.7258E-03    -60.9746E-03     83.3964E-03    -22.1816E-03     81.0852E-03
            2384     14.9934E-03     4.03436E-03    -19.0895E+06     45.4668E+06     24.1150E+06     18.7184E+06    -40.9672E-03     61.6488E-03    -20.6816E-03     36.5102E-03    -41.2557E-03     61.9629E-03    -20.5993E-03     36.5329E-03
            2385     14.1236E-03     4.00781E-03    -22.7623E+06     34.4636E+06     7.85351E+06     12.9077E+06    -31.5973E-03     51.2557E-03    -19.6584E-03     34.4223E-03    -31.8174E-03     51.4953E-03    -19.6361E-03     34.4847E-03
            2386     13.2492E-03     3.99487E-03    -20.4807E+06     19.4275E+06     2.81180E+06     3.37277E+06    -27.1014E-03     46.1101E-03    -19.0088E-03     30.6184E-03    -27.2611E-03     46.2584E-03    -18.9932E-03     30.5984E-03
            2387     12.3704E-03     3.98409E-03    -18.1815E+06    -9.45485E+06     4.96609E+06    -3.74465E+06    -23.7805E-03     42.3780E-03    -18.5975E-03     27.2892E-03    -23.8772E-03     42.3622E-03    -18.5326E-03     27.2046E-03
            2388     11.4905E-03     3.97759E-03    -17.6364E+06    -36.0164E+06     6.18912E+06    -7.70285E+06    -21.5044E-03     39.8283E-03    -18.3239E-03     25.9098E-03    -21.5564E-03     39.6719E-03    -18.2151E-03     25.7880E-03
            2389     10.6082E-03     3.97051E-03    -17.0920E+06    -57.6562E+06     4.58094E+06    -10.5130E+06    -20.1674E-03     38.2947E-03    -18.1274E-03     23.7451E-03    -20.1801E-03     38.0287E-03    -17.9961E-03     23.5947E-03
            2390     9.72547E-03     3.96571E-03    -15.4163E+06    -71.5240E+06     2.82312E+06    -12.7682E+06    -19.4217E-03     37.3953E-03    -17.9736E-03     21.4703E-03    -19.4018E-03     37.0584E-03    -17.8334E-03     21.2953E-03
            2391     8.84223E-03     3.96051E-03    -13.0824E+06    -77.6082E+06     1.76479E+06    -13.3429E+06    -18.9922E-03     36.8317E-03    -17.8396E-03     19.2411E-03    -18.9493E-03     36.4615E-03    -17.6992E-03     19.0617E-03
            2392     7.95882E-03     3.95615E-03    -10.4835E+06     -80.202E+06     800.483E+03    -12.1774E+06    -18.6425E-03     36.3590E-03    -17.7165E-03     16.8646E-03    -18.5808E-03     35.9729E-03    -17.5810E-03     16.7023E-03
            2393     7.07517E-03     3.95184E-03    -8.76424E+06    -80.8988E+06    -1.63800E+06    -10.7772E+06    -18.3493E-03     35.9469E-03    -17.5975E-03     14.5840E-03    -18.2742E-03     35.5579E-03    -17.4757E-03     14.4412E-03
            2394     6.19127E-03     3.94813E-03    -8.18367E+06    -82.3264E+06    -4.46467E+06    -9.30882E+06    -18.0907E-03     35.5811E-03    -17.4904E-03     12.3901E-03    -18.0062E-03     35.1881E-03    -17.3815E-03     12.2673E-03
            2395     5.30725E-03     3.94478E-03    -8.10968E+06    -83.4861E+06    -6.49348E+06    -7.67889E+06    -17.8640E-03     35.2619E-03    -17.3979E-03     10.3170E-03    -17.7743E-03     34.8658E-03    -17.2976E-03     10.2160E-03
            2396     4.42301E-03     3.94196E-03    -8.26501E+06    -84.3506E+06    -8.02119E+06    -6.26360E+06    -17.6546E-03     34.9733E-03    -17.3188E-03     8.37003E-03    -17.5621E-03     34.5753E-03    -17.2246E-03     8.28783E-03
            2397     3.53861E-03     3.93957E-03    -8.82921E+06    -85.2305E+06    -9.21548E+06    -4.98273E+06    -17.4778E-03     34.7317E-03    -17.2539E-03     6.51426E-03    -17.3851E-03     34.3318E-03    -17.1636E-03     6.44895E-03
            2398     2.65407E-03     3.93783E-03    -9.49987E+06    -85.7675E+06    -9.68303E+06    -3.62771E+06    -17.3378E-03     34.5417E-03    -17.2039E-03     4.81221E-03    -17.2470E-03     34.1406E-03    -17.1142E-03     4.76471E-03
            2399     1.76949E-03     3.93643E-03    -9.98756E+06    -86.2007E+06    -10.1404E+06    -2.35504E+06    -17.2266E-03     34.3929E-03    -17.1663E-03     3.20946E-03    -17.1369E-03     33.9910E-03    -17.0775E-03     3.17864E-03
            2400     884.691E-06     3.93569E-03    -10.3150E+06    -86.5012E+06    -10.4911E+06    -1.24135E+06    -17.1527E-03     34.3029E-03    -17.1501E-03     1.71722E-03    -17.0636E-03     33.9006E-03    -17.0622E-03     1.70098E-03
            2401     16.6934E-03     3.13104E-03    -7.47200E+06     120.884E+06     74.6206E+06     10.4525E+06    -83.9923E-03     109.004E-03    -25.0115E-03     158.440E-03    -87.1388E-03     112.344E-03    -24.8029E-03     156.866E-03
            2402     15.8458E-03     3.04158E-03    -10.6913E+06     71.9501E+06     51.5237E+06     17.6280E+06    -51.0826E-03     73.9128E-03    -22.8302E-03     64.4773E-03    -51.7119E-03     74.6151E-03    -22.6614E-03     64.1484E-03
            2403     14.9800E-03     3.02773E-03    -11.8440E+06     51.4509E+06     41.0996E+06     17.6146E+06    -34.0819E-03     55.7635E-03    -21.6816E-03     38.6969E-03    -34.3357E-03     56.0399E-03    -21.5335E-03     38.7877E-03
            2404     14.1058E-03     3.01588E-03    -9.89781E+06     46.6451E+06     25.2283E+06     8.92908E+06    -29.3825E-03     50.3531E-03    -20.9706E-03     40.9588E-03    -29.5710E-03     50.5989E-03    -20.8977E-03     40.9970E-03
            2405     13.2276E-03     2.99920E-03    -9.22503E+06     27.4472E+06     8.00838E+06     524.788E+03    -26.3584E-03     46.8031E-03    -20.4446E-03     33.8587E-03    -26.4732E-03     46.9593E-03    -20.4310E-03     33.8188E-03
            2406     12.3513E-03     2.99637E-03    -10.7121E+06    -5.10111E+06     2.89170E+06    -5.12359E+06    -24.2750E-03     44.3898E-03    -20.1148E-03     29.6520E-03    -24.3339E-03     44.3840E-03    -20.0774E-03     29.5578E-03
            2407     11.4706E-03     2.98891E-03    -11.4587E+06    -33.8380E+06     130.166E+03    -9.29416E+06    -23.1265E-03     42.9874E-03    -19.8609E-03     27.0673E-03    -23.1400E-03     42.8394E-03    -19.7946E-03     26.9294E-03
            2408     10.5910E-03     2.98487E-03    -10.7918E+06    -55.6222E+06    -3.89215E+06    -12.8096E+06    -22.2268E-03     41.8576E-03    -19.6307E-03     23.6791E-03    -22.1974E-03     41.6033E-03    -19.5539E-03     23.5020E-03
            2409     9.70990E-03     2.97952E-03    -9.93301E+06    -71.2555E+06    -7.44263E+06    -15.4997E+06    -21.7044E-03     41.1225E-03    -19.4181E-03     20.7692E-03    -21.6418E-03     40.7929E-03    -19.3376E-03     20.5610E-03
            2410     8.82914E-03     2.97551E-03    -8.83199E+06    -80.0803E+06    -8.27295E+06    -16.1388E+06    -21.2734E-03     40.4899E-03    -19.2166E-03     17.8401E-03    -21.1906E-03     40.1152E-03    -19.1290E-03     17.6260E-03
            2411     7.94772E-03     2.97124E-03    -7.83372E+06    -84.0957E+06    -8.10549E+06    -14.7210E+06    -20.7741E-03     39.7952E-03    -19.0211E-03     15.2372E-03    -20.6803E-03     39.3983E-03    -18.9283E-03     15.0431E-03
            2412     7.06600E-03     2.96776E-03    -7.04358E+06    -84.9828E+06    -8.46246E+06    -11.9109E+06    -20.2782E-03     39.1106E-03    -18.8324E-03     12.8478E-03    -20.1784E-03     38.7084E-03    -18.7413E-03     12.6911E-03
            2413     6.18378E-03     2.96435E-03    -7.05293E+06    -85.9870E+06    -9.18682E+06    -9.15376E+06    -19.8054E-03     38.4653E-03    -18.6598E-03     10.6918E-03    -19.7030E-03     38.0590E-03    -18.5709E-03     10.5716E-03
            2414     5.30118E-03     2.96154E-03    -7.74328E+06    -86.6762E+06     -9.7054E+06    -7.15958E+06    -19.3723E-03     37.8801E-03    -18.5078E-03     8.75711E-03    -19.2714E-03     37.4720E-03    -18.4194E-03     8.66324E-03
            2415     4.41824E-03     2.95902E-03    -8.61769E+06    -87.3138E+06    -10.2070E+06    -5.41623E+06    -18.9876E-03     37.3644E-03    -18.3768E-03     7.01924E-03    -18.8894E-03     36.9551E-03    -18.2888E-03     6.94829E-03
            2416     3.53497E-03     2.95709E-03    -9.46176E+06    -87.8856E+06    -10.6948E+06    -3.87460E+06    -18.6673E-03     36.9351E-03    -18.2678E-03     5.42034E-03    -18.5717E-03     36.5249E-03    -18.1801E-03     5.36958E-03
            2417     2.65148E-03     2.95547E-03    -10.2220E+06    -88.1936E+06    -10.8661E+06    -2.77005E+06    -18.4147E-03     36.5965E-03    -18.1817E-03     3.96993E-03    -18.3223E-03     36.1861E-03    -18.0934E-03     3.93366E-03
            2418     1.76774E-03     2.95441E-03    -10.8573E+06    -88.5263E+06    -11.1462E+06    -1.79525E+06    -18.2245E-03     36.3420E-03    -18.1176E-03     2.62495E-03    -18.1342E-03     35.9313E-03    -18.0292E-03     2.60145E-03
            2419     883.949E-06     2.95367E-03    -11.1497E+06    -88.6820E+06    -11.3122E+06    -916.408E+03    -18.1016E-03     36.1837E-03    -18.0821E-03     1.41303E-03    -18.0122E-03     35.7729E-03    -17.9940E-03     1.40102E-03
            2420     16.6775E-03     2.07464E-03    -5.27508E+06     110.458E+06     72.3131E+06     12.6175E+06    -80.1537E-03     106.183E-03    -26.0292E-03     133.912E-03    -82.2325E-03     108.439E-03    -25.8202E-03     132.398E-03
            2421     15.8278E-03     2.03580E-03    -4.65814E+06     71.1300E+06     57.5408E+06     16.6574E+06    -42.4706E-03     66.6806E-03    -24.2100E-03     59.5533E-03    -42.8630E-03     67.1455E-03    -24.0186E-03     59.4773E-03
            2422     14.9479E-03     2.03294E-03    -3.60110E+06     59.8417E+06     49.8080E+06     10.0861E+06    -32.1107E-03     55.5257E-03    -23.4149E-03     47.1121E-03    -32.3257E-03     55.7947E-03    -23.2474E-03     47.1589E-03
            2423     14.0757E-03     2.01065E-03      32.064E+03     54.3159E+06     31.2185E+06     3.25810E+06    -31.3753E-03     54.1614E-03    -22.7861E-03     42.7484E-03    -31.5195E-03     54.4076E-03    -22.7088E-03     42.7361E-03
            2424     13.2058E-03     2.00863E-03     663.363E+03     32.5971E+06     4.95759E+06     744.388E+03    -29.0009E-03     51.1831E-03    -22.1822E-03     32.4633E-03    -29.0612E-03     51.3467E-03    -22.2057E-03     32.4405E-03
            2425     12.3260E-03     2.00115E-03     10.4391E+03    -270.032E+03    -7.42247E+06    -4.11754E+06    -27.1795E-03     48.9242E-03    -21.7447E-03     27.3209E-03    -27.1735E-03     48.9382E-03    -21.7814E-03     27.2474E-03
            2426     11.4519E-03     1.99779E-03    -489.290E+03    -30.9201E+06    -13.0228E+06    -9.08580E+06    -26.2450E-03     47.6278E-03    -21.3828E-03     23.2037E-03    -26.1866E-03     47.4952E-03    -21.4023E-03     23.0732E-03
            2427     10.5738E-03     1.99360E-03    -874.441E+03    -53.8663E+06    -19.5180E+06    -12.5572E+06    -25.3950E-03     46.4162E-03    -21.0212E-03     19.7718E-03    -25.2946E-03     46.1778E-03    -21.0395E-03     19.6011E-03
            2428     9.69650E-03     1.98994E-03    -1.33455E+06    -71.3699E+06    -23.7324E+06    -14.4170E+06    -24.5471E-03     45.2260E-03    -20.6789E-03     16.5932E-03    -24.4169E-03     44.9063E-03    -20.6922E-03     16.4012E-03
            2429     8.81767E-03     1.98620E-03    -2.70536E+06    -82.5385E+06    -23.4432E+06    -14.5510E+06    -23.6457E-03     44.0178E-03    -20.3721E-03     13.8871E-03    -23.5061E-03     43.6434E-03    -20.3657E-03     13.6952E-03
            2430     7.93851E-03     1.98334E-03    -4.42019E+06    -88.2652E+06    -21.0770E+06    -13.2857E+06    -22.8468E-03     42.9374E-03    -20.0906E-03     11.6362E-03    -22.7107E-03     42.5333E-03    -20.0616E-03     11.4619E-03
            2431     7.05840E-03     1.98038E-03    -5.77726E+06    -90.2613E+06    -17.6479E+06    -10.6644E+06    -22.0618E-03     41.8929E-03    -19.8311E-03     9.63475E-03    -21.9344E-03     41.4757E-03    -19.7801E-03     9.49514E-03
            2432     6.17777E-03     1.97804E-03    -6.65313E+06    -90.0130E+06    -14.5399E+06    -7.62996E+06    -21.3120E-03     40.9063E-03    -19.5942E-03     7.89602E-03    -21.1938E-03     40.4870E-03    -19.5267E-03     7.79616E-03
            2433     5.29642E-03     1.97582E-03    -7.66373E+06    -89.9046E+06    -13.1248E+06    -5.29503E+06    -20.6422E-03     40.0240E-03    -19.3818E-03     6.40358E-03    -20.5312E-03     39.6046E-03    -19.3059E-03     6.33427E-03
            2434     4.41451E-03     1.97406E-03    -8.90981E+06    -89.9638E+06    -12.3485E+06    -3.66150E+06    -20.0758E-03     39.2763E-03    -19.2004E-03     5.07599E-03    -19.9721E-03     38.8573E-03    -19.1188E-03     5.02805E-03
            2435     3.53217E-03     1.97253E-03    -9.96526E+06    -89.9899E+06    -11.9008E+06    -2.57581E+06    -19.6129E-03     38.6633E-03    -19.0504E-03     3.90376E-03    -19.5150E-03     38.2451E-03    -18.9650E-03     3.87003E-03
            2436     2.64944E-03     1.97142E-03    -10.7435E+06    -89.9485E+06    -11.5242E+06    -1.74106E+06    -19.2514E-03     38.1839E-03    -18.9325E-03     2.83855E-03    -19.1580E-03     37.7665E-03    -18.8442E-03     2.81574E-03
            2437     1.76648E-03     1.97058E-03    -11.3564E+06    -90.1329E+06    -11.6838E+06    -1.13906E+06    -18.9926E-03     37.8368E-03    -18.8442E-03     1.87560E-03    -18.9018E-03     37.4195E-03    -18.7554E-03     1.86069E-03
            2438     883.276E-06     1.97009E-03    -11.5685E+06    -90.2085E+06    -11.8457E+06    -600.059E+03    -18.8158E-03     37.6165E-03    -18.8007E-03     1.01222E-03    -18.7255E-03     37.1995E-03    -18.7123E-03     1.00436E-03
            2439     16.6459E-03     1.03552E-03     2.96697E+06     102.649E+06     78.0842E+06     11.0965E+06    -76.4651E-03     104.822E-03    -28.3564E-03     105.155E-03    -77.5248E-03     106.042E-03    -28.1192E-03     104.146E-03
            2440     15.7775E-03     1.03463E-03     3.44006E+06     76.4929E+06     65.3918E+06     9.10250E+06    -47.7383E-03     74.2548E-03    -26.5166E-03     54.7305E-03    -47.9918E-03     74.5997E-03    -26.3055E-03     54.7209E-03
            2441     14.9173E-03     1.02203E-03     6.37248E+06     68.4946E+06     49.0098E+06     2.73127E+06    -41.0351E-03     66.4086E-03    -25.3736E-03     41.1793E-03    -41.1882E-03     66.6837E-03    -25.2371E-03     41.1718E-03
            2442     14.0506E-03     1.00921E-03     6.90145E+06     54.5621E+06     21.0577E+06     92.8118E+03    -36.1003E-03     60.5219E-03    -24.4216E-03     29.3129E-03    -36.1825E-03     60.7612E-03    -24.4054E-03     29.2850E-03
            2443     13.1771E-03     1.00515E-03     9.02548E+06     34.1903E+06    -4.80249E+06    -156.843E+03    -32.8117E-03     56.4618E-03    -23.6501E-03     20.1358E-03    -32.8123E-03     56.6295E-03    -23.7368E-03     20.1175E-03
            2444     12.3113E-03     1.00349E-03     10.6641E+06     4.22809E+06    -20.1793E+06    -2.13262E+06    -31.0661E-03     54.0975E-03    -23.0314E-03     16.9691E-03    -30.9915E-03     54.1339E-03    -23.1539E-03     16.9302E-03
            2445     11.4353E-03     1.00072E-03     9.86224E+06    -27.8456E+06    -28.3252E+06    -5.65552E+06    -29.4729E-03     51.9728E-03    -22.4999E-03     13.8606E-03    -29.3431E-03     51.8612E-03    -22.6155E-03     13.7807E-03
            2446     10.5623E-03     998.020E-06     7.77279E+06    -52.5928E+06    -35.1870E+06    -8.09992E+06    -28.1714E-03     50.1721E-03    -22.0007E-03     11.3369E-03    -28.0058E-03     49.9493E-03    -22.1117E-03     11.2276E-03
            2447     9.68672E-03     996.050E-06     4.89972E+06    -72.4392E+06    -38.1479E+06    -8.65245E+06    -26.8143E-03     48.3615E-03    -21.5472E-03     9.32959E-03    -26.6297E-03     48.0478E-03    -21.6400E-03     9.21476E-03
            2448     8.81021E-03     994.269E-06     1.47497E+06    -84.4059E+06    -35.9976E+06    -8.28352E+06    -25.5181E-03     46.6659E-03    -21.1478E-03     7.72557E-03    -25.3364E-03     46.2941E-03    -21.2075E-03     7.61659E-03
            2449     7.93217E-03     992.317E-06    -1.84789E+06    -91.0252E+06    -31.1170E+06    -7.76073E+06    -24.3483E-03     45.1421E-03    -20.7938E-03     6.30249E-03    -24.1805E-03     44.7349E-03    -20.8147E-03     6.20088E-03
            2450     7.05358E-03     990.865E-06    -4.59424E+06    -94.3727E+06    -24.8847E+06    -6.51187E+06    -23.2853E-03     43.7655E-03    -20.4802E-03     5.14769E-03    -23.1354E-03     43.3365E-03    -20.4612E-03     5.06262E-03
            2451     6.17380E-03     989.528E-06    -6.83143E+06    -93.6028E+06    -19.4809E+06    -4.53726E+06    -22.3262E-03     42.5226E-03    -20.1964E-03     4.20767E-03    -22.1964E-03     42.0927E-03    -20.1481E-03     4.14842E-03
            2452     5.29334E-03     988.421E-06    -8.35840E+06    -92.5564E+06    -15.7344E+06    -2.75535E+06    -21.4976E-03     41.4420E-03    -19.9443E-03     3.39153E-03    -21.3824E-03     41.0141E-03    -19.8767E-03     3.35550E-03
            2453     4.41216E-03     987.431E-06    -9.45157E+06    -91.6042E+06     -13.224E+06    -1.66586E+06    -20.7931E-03     40.5209E-03    -19.7277E-03     2.67139E-03    -20.6884E-03     40.0957E-03    -19.6473E-03     2.64956E-03
            2454     3.53040E-03     986.652E-06    -10.3332E+06    -91.1798E+06    -12.2116E+06    -1.15495E+06    -20.2225E-03     39.7690E-03    -19.5465E-03     2.03657E-03    -20.1242E-03     39.3458E-03    -19.4604E-03     2.02143E-03
            2455     2.64820E-03     986.032E-06    -11.0333E+06    -90.9710E+06    -11.6710E+06     -844.27E+03    -19.7824E-03     39.1873E-03    -19.4048E-03     1.47458E-03    -19.6888E-03     38.7653E-03    -19.3153E-03     1.46351E-03
            2456     1.76564E-03     985.599E-06    -11.4791E+06    -91.0111E+06    -11.7867E+06    -540.216E+03    -19.4711E-03     38.7717E-03    -19.3007E-03     963.603E-06    -19.3794E-03     38.3504E-03    -19.2110E-03     956.523E-06
            2457     882.878E-06     985.360E-06    -11.8705E+06    -91.1581E+06    -11.9663E+06    -311.996E+03    -19.2830E-03     38.5178E-03    -19.2348E-03     516.492E-06    -19.1926E-03     38.0967E-03    -19.1452E-03     512.429E-06


