********************************************************************************
Field Output Report, written Tue May 28 23:01:08 2024

Source 1
---------

   ODB: G:/Abaqus_calc_2019/1740/Vel_10/odb/zeides_2a_8_red_250_cal_75_vel_10_fric_050.odb
   Step: Step-1
   Frame: Increment   7015514: Step Time =   0.9124

Loc 1 : Nodal values from source 1

Output sorted by column "Nodal Label".

Field Output reported at nodes for region: DIE_2A_8_D0_36-1.Region_1
   Computation algorithm: EXTRAPOLATE_COMPUTE_AVERAGE
   Averaged at nodes
   Averaging regions: ODB_REGIONS

      Node Label     COORD.COOR1     COORD.COOR2
                          @Loc 1          @Loc 1
-------------------------------------------------
               1     18.7742E-03     116.110E-03


Field Output reported at nodes for region: DIE_2A_8_D0_36-1.Region_2
   Computation algorithm: EXTRAPOLATE_COMPUTE_AVERAGE
   Averaged at nodes
   Averaging regions: ODB_REGIONS

      Node Label     COORD.COOR1     COORD.COOR2
                          @Loc 1          @Loc 1
-------------------------------------------------
               1     18.7742E-03     116.110E-03


Field Output reported at nodes for part: WIRE-1
   Computation algorithm: EXTRAPOLATE_COMPUTE_AVERAGE
   Averaged at nodes
   Averaging regions: ODB_REGIONS

      Node Label     COORD.COOR1     COORD.COOR2           S.S11           S.S22           S.S33           S.S12         PE.PE11         PE.PE22         PE.PE33         PE.PE12         LE.LE11         LE.LE22         LE.LE33         LE.LE12
                          @Loc 1          @Loc 1          @Loc 1          @Loc 1          @Loc 1          @Loc 1          @Loc 1          @Loc 1          @Loc 1          @Loc 1          @Loc 1          @Loc 1          @Loc 1          @Loc 1
-------------------------------------------------------------------------------------------------------------------------------------------------------------------------------------------------------------------------------------------------
               1     5.51255E-09     57.4979E-03    -47.0927E+06    -129.155E+06    -47.0962E+06     2.04030E+03    -25.8661E-03     51.7129E-03    -25.8468E-03     3.35953E-03    -25.8460E-03     51.2038E-03    -25.8268E-03     3.35760E-03
               2     17.5449E-03     58.1885E-03    -1.71772E+06     111.298E+06     70.6118E+06     63.7017E+03    -24.9318E-03     50.7425E-03    -25.8107E-03     11.3737E-03    -25.2352E-03     51.2301E-03    -25.6165E-03     11.3248E-03
               3     17.5016E-03     116.401E-03    -26.8503E+06     23.3178E+06     25.6309E+06    -58.8769E+03     10.5812E-03     16.8943E-03    -27.4755E-03     12.3072E-03     10.3930E-03     17.0298E-03    -27.3422E-03     12.3064E-03
               4    -1.08435E-06     115.184E-03     28.2537E+06    -1.45781E+06     26.1941E+06    -813.005E+03    -25.7135E-03     52.2901E-03    -26.5766E-03    -639.168E-06    -25.6095E-03     52.2026E-03    -26.4845E-03    -650.248E-06
               5    -16.9904E-09    -603.684E-18    -23.4579E+06    -102.939E+06    -23.7456E+06    -131.271E+03    -24.2413E-03     48.5079E-03    -24.2666E-03     207.734E-06    -24.1749E-03     48.0617E-03    -24.2021E-03     206.028E-06
               6     17.4499E-03    -603.684E-18     183.672E+03     90.2134E+06     65.7405E+06     1.44752E+06    -28.5190E-03     58.5319E-03    -30.0129E-03     35.5713E-03    -28.7638E-03     58.9045E-03    -29.8153E-03     35.5350E-03
               7     877.047E-06     57.5011E-03    -46.5112E+06    -128.051E+06    -45.3502E+06     6.53060E+03    -25.8620E-03     51.7175E-03    -25.8555E-03     5.58619E-03    -25.8433E-03     51.2106E-03    -25.8291E-03     5.58298E-03
               8     1.75410E-03     57.5085E-03    -44.8578E+06    -124.965E+06    -40.5514E+06     19.7751E+03    -25.8598E-03     51.7315E-03    -25.8717E-03     10.2445E-03    -25.8446E-03     51.2311E-03    -25.8283E-03     10.2386E-03
               9     2.63117E-03     57.5205E-03    -42.3287E+06    -120.345E+06    -33.5826E+06     29.9290E+03    -25.8667E-03     51.7554E-03    -25.8887E-03     15.1095E-03    -25.8563E-03     51.2649E-03    -25.8207E-03     15.1003E-03
              10     3.50826E-03     57.5371E-03    -39.1943E+06    -114.122E+06    -25.7665E+06     37.5933E+03    -25.8810E-03     51.7857E-03    -25.9047E-03     19.9440E-03    -25.8763E-03     51.3115E-03    -25.8113E-03     19.9308E-03
              11     4.38538E-03     57.5583E-03    -35.7852E+06    -106.567E+06    -18.4467E+06     48.0862E+03    -25.9055E-03     51.8203E-03    -25.9147E-03     24.6965E-03    -25.9069E-03     51.3697E-03    -25.8006E-03     24.6788E-03
              12     5.26251E-03     57.5839E-03    -32.3724E+06    -98.0128E+06    -12.1480E+06     55.7076E+03    -25.9405E-03     51.8581E-03    -25.9176E-03     29.3398E-03    -25.9484E-03     51.4384E-03    -25.7893E-03     29.3168E-03
              13     6.13967E-03     57.6139E-03    -29.0962E+06    -89.8423E+06    -6.79481E+06     59.2565E+03    -25.9878E-03     51.9043E-03    -25.9164E-03     33.8400E-03    -26.0019E-03     51.5158E-03    -25.7780E-03     33.8107E-03
              14     7.01684E-03     57.6481E-03    -26.0231E+06    -81.6843E+06    -2.41865E+06     68.6743E+03    -26.0442E-03     51.9553E-03    -25.9111E-03     38.1718E-03    -26.0650E-03     51.6007E-03    -25.7670E-03     38.1351E-03
              15     7.89404E-03     57.6863E-03    -23.2085E+06    -74.2568E+06     874.582E+03     88.3637E+03    -26.1091E-03     52.0113E-03    -25.9022E-03     42.2754E-03    -26.1366E-03     51.6902E-03    -25.7565E-03     42.2302E-03
              16     8.77123E-03     57.7282E-03    -20.6897E+06    -67.8808E+06     2.94907E+06     85.6614E+03    -26.1799E-03     52.0700E-03    -25.8901E-03     46.0938E-03    -26.2140E-03     51.7811E-03    -25.7469E-03     46.0385E-03
              17     9.64844E-03     57.7736E-03    -18.4909E+06    -59.9566E+06     3.86078E+06     69.9852E+03    -26.2440E-03     52.1150E-03    -25.8710E-03     49.5875E-03    -26.2891E-03     51.8705E-03    -25.7379E-03     49.5205E-03
              18     10.5257E-03     57.8222E-03    -16.6034E+06    -51.7670E+06     4.33382E+06     68.9460E+03    -26.2980E-03     52.1483E-03    -25.8503E-03     52.6382E-03    -26.3583E-03     51.9533E-03    -25.7295E-03     52.5583E-03
              19     11.4029E-03     57.8734E-03    -15.0050E+06    -41.7265E+06     3.77263E+06     66.3652E+03    -26.3305E-03     52.1529E-03    -25.8224E-03     55.0904E-03    -26.4124E-03     52.0224E-03    -25.7212E-03     54.9963E-03
              20     12.2801E-03     57.9266E-03    -13.6386E+06    -26.6026E+06     4.02695E+06     53.6893E+03    -26.3236E-03     52.1148E-03    -25.7912E-03     57.0565E-03    -26.4420E-03     52.0786E-03    -25.7127E-03     56.9476E-03
              21     13.1574E-03     57.9814E-03    -12.4680E+06    -8.31599E+06     3.02329E+06     40.1920E+03    -26.2948E-03     52.0434E-03    -25.7485E-03     58.8101E-03    -26.4627E-03     52.1287E-03    -25.7033E-03     58.6859E-03
              22     14.0347E-03     58.0379E-03    -11.2529E+06     37.1910E+06     10.1364E+06     27.7037E+03    -26.1417E-03     51.8456E-03    -25.7039E-03     60.6484E-03    -26.4148E-03     52.1814E-03    -25.6908E-03     60.5173E-03
              23     14.9122E-03     58.0963E-03    -9.43652E+06     88.1170E+06     28.1073E+06     48.7934E+03    -25.7561E-03     51.4553E-03    -25.6991E-03     55.3461E-03    -26.1269E-03     52.0238E-03    -25.6727E-03     55.2279E-03
              24     15.7897E-03     58.1427E-03    -6.76326E+06     110.278E+06     48.0930E+06     109.778E+03    -25.3269E-03     51.0678E-03    -25.7409E-03     43.0493E-03    -25.7297E-03     51.6987E-03    -25.6505E-03     42.9525E-03
              25     16.6673E-03     58.1778E-03    -3.47039E+06     114.450E+06     64.9482E+06     102.898E+03    -25.0379E-03     50.8294E-03    -25.7916E-03     24.2112E-03    -25.3978E-03     51.3950E-03    -25.6277E-03     24.1430E-03
              26     17.5449E-03     59.1866E-03    -1.81669E+06     111.551E+06     70.7897E+06     165.266E+03    -24.9268E-03     50.7381E-03    -25.8113E-03     11.3702E-03    -25.2313E-03     51.2269E-03    -25.6165E-03     11.3226E-03
              27     17.5449E-03     60.1847E-03    -1.89949E+06     111.818E+06     70.9744E+06     78.1101E+03    -24.9228E-03     50.7346E-03    -25.8118E-03     11.3648E-03    -25.2284E-03     51.2246E-03    -25.6163E-03     11.3160E-03
              28     17.5449E-03     61.1828E-03    -1.82044E+06     111.888E+06     70.9972E+06    -7.29726E+03    -24.9254E-03     50.7371E-03    -25.8117E-03     11.3591E-03    -25.2307E-03     51.2273E-03    -25.6163E-03     11.3093E-03
              29     17.5449E-03     62.1808E-03    -1.81970E+06     111.868E+06     70.9565E+06    -6.02493E+03    -24.9279E-03     50.7395E-03    -25.8116E-03     11.3559E-03    -25.2331E-03     51.2296E-03    -25.6163E-03     11.3060E-03
              30     17.5449E-03     63.1789E-03    -1.82308E+06     111.845E+06     70.9267E+06    -8.61082E+03    -24.9299E-03     50.7413E-03    -25.8114E-03     11.3520E-03    -25.2350E-03     51.2313E-03    -25.6163E-03     11.3022E-03
              31     17.5449E-03     64.1770E-03    -1.82035E+06     111.811E+06     70.8987E+06    -14.2715E+03    -24.9318E-03     50.7432E-03    -25.8113E-03     11.3477E-03    -25.2369E-03     51.2331E-03    -25.6163E-03     11.2977E-03
              32     17.5449E-03     65.1751E-03    -1.81869E+06     111.770E+06     70.8748E+06    -15.9546E+03    -24.9335E-03     50.7448E-03    -25.8113E-03     11.3449E-03    -25.2384E-03     51.2345E-03    -25.6163E-03     11.2949E-03
              33     17.5449E-03     66.1732E-03    -1.81491E+06     111.729E+06     70.7954E+06    -13.2654E+03    -24.9372E-03     50.7482E-03    -25.8110E-03     11.3414E-03    -25.2420E-03     51.2378E-03    -25.6164E-03     11.2914E-03
              34     17.5449E-03     67.1713E-03    -1.79398E+06     111.720E+06     70.7019E+06     10.0500E+03    -24.9413E-03     50.7520E-03    -25.8107E-03     11.3379E-03    -25.2458E-03     51.2417E-03    -25.6166E-03     11.2882E-03
              35     17.5449E-03     68.1694E-03    -1.80510E+06     111.775E+06     70.7140E+06     41.1992E+03    -24.9416E-03     50.7523E-03    -25.8108E-03     11.3350E-03    -25.2462E-03     51.2423E-03    -25.6166E-03     11.2858E-03
              36     17.5449E-03     69.1675E-03    -1.81795E+06     111.866E+06     70.8105E+06     50.6469E+03    -24.9405E-03     50.7515E-03    -25.8110E-03     11.3326E-03    -25.2455E-03     51.2418E-03    -25.6165E-03     11.2834E-03
              37     17.5449E-03     70.1656E-03    -1.82563E+06     111.957E+06     70.9069E+06     40.9348E+03    -24.9391E-03     50.7503E-03    -25.8112E-03     11.3289E-03    -25.2443E-03     51.2409E-03    -25.6164E-03     11.2796E-03
              38     17.5449E-03     71.1637E-03    -1.83620E+06     112.018E+06     70.8988E+06     16.3313E+03    -24.9393E-03     50.7506E-03    -25.8113E-03     11.3262E-03    -25.2447E-03     51.2416E-03    -25.6166E-03     11.2766E-03
              39     17.5449E-03     72.1618E-03    -1.85869E+06     111.972E+06     70.7340E+06    -51.6461E+03    -24.9445E-03     50.7553E-03    -25.8109E-03     11.3243E-03    -25.2497E-03     51.2463E-03    -25.6169E-03     11.2738E-03
              40     17.5449E-03     73.1599E-03    -1.70403E+06     111.931E+06     70.6728E+06     21.0963E+03    -24.9488E-03     50.7593E-03    -25.8105E-03     11.3233E-03    -25.2530E-03     51.2499E-03    -25.6170E-03     11.2737E-03
              41     17.5449E-03     74.1580E-03    -1.81587E+06     112.103E+06     70.8494E+06     140.959E+03    -24.9429E-03     50.7542E-03    -25.8112E-03     11.3225E-03    -25.2483E-03     51.2456E-03    -25.6169E-03     11.2745E-03
              42     17.5449E-03     75.1561E-03    -1.92308E+06     112.285E+06     70.9864E+06     31.6562E+03    -24.9385E-03     50.7503E-03    -25.8118E-03     11.3194E-03    -25.2448E-03     51.2426E-03    -25.6169E-03     11.2700E-03
              43     17.5449E-03     76.1542E-03    -1.75306E+06     112.309E+06     70.8600E+06    -5.45976E+03    -24.9451E-03     50.7564E-03    -25.8113E-03     11.3177E-03    -25.2504E-03     51.2487E-03    -25.6173E-03     11.2678E-03
              44     17.5449E-03     77.1523E-03    -1.84714E+06     112.326E+06     70.6316E+06     25.4561E+03    -24.9511E-03     50.7618E-03    -25.8107E-03     11.3170E-03    -25.2566E-03     51.2547E-03    -25.6178E-03     11.2674E-03
              45     17.5449E-03     78.1504E-03    -1.74376E+06     112.415E+06     70.5739E+06     56.0617E+03    -24.9536E-03     50.7641E-03    -25.8105E-03     11.3186E-03    -25.2586E-03     51.2573E-03    -25.6181E-03     11.2695E-03
              46     17.5449E-03     79.1485E-03    -1.85996E+06     112.550E+06     70.6340E+06     72.1937E+03    -24.9504E-03     50.7612E-03    -25.8108E-03     11.3200E-03    -25.2562E-03     51.2552E-03    -25.6182E-03     11.2710E-03
              47     17.5449E-03     80.1467E-03    -1.90503E+06     112.527E+06     70.6606E+06    -80.3767E+03    -24.9470E-03     50.7581E-03    -25.8111E-03     11.3209E-03    -25.2531E-03     51.2520E-03    -25.6182E-03     11.2699E-03
              48     17.5449E-03     81.1448E-03    -1.65063E+06     112.429E+06     70.5672E+06     1.54916E+03    -24.9508E-03     50.7613E-03    -25.8105E-03     11.3235E-03    -25.2553E-03     51.2544E-03    -25.6183E-03     11.2736E-03
              49     17.5449E-03     82.1429E-03    -1.79198E+06     112.640E+06     70.5873E+06     194.921E+03    -24.9479E-03     50.7583E-03    -25.8105E-03     11.3249E-03    -25.2535E-03     51.2528E-03    -25.6183E-03     11.2775E-03
              50     17.5449E-03     83.1410E-03    -1.91422E+06     112.971E+06     70.6327E+06     104.012E+03    -24.9438E-03     50.7542E-03    -25.8105E-03     11.3278E-03    -25.2505E-03     51.2504E-03    -25.6183E-03     11.2792E-03
              51     17.5449E-03     84.1391E-03    -1.79690E+06     113.082E+06     70.5132E+06     2.62915E+03    -24.9469E-03     50.7563E-03    -25.8093E-03     11.3336E-03    -25.2531E-03     51.2530E-03    -25.6181E-03     11.2837E-03
              52     17.5449E-03     85.1372E-03    -1.83799E+06     113.043E+06     70.3468E+06    -21.6095E+03    -24.9508E-03     50.7586E-03    -25.8078E-03     11.3419E-03    -25.2569E-03     51.2554E-03    -25.6173E-03     11.2916E-03
              53     17.5449E-03     86.1353E-03    -1.76662E+06     112.981E+06     70.3450E+06    -21.2831E+03    -24.9511E-03     50.7573E-03    -25.8062E-03     11.3515E-03    -25.2568E-03     51.2538E-03    -25.6157E-03     11.3012E-03
              54     17.5450E-03     87.1334E-03    -1.84493E+06     112.921E+06     70.3470E+06    -18.9519E+03    -24.9526E-03     50.7566E-03    -25.8040E-03     11.3652E-03    -25.2586E-03     51.2529E-03    -25.6133E-03     11.3149E-03
              55     17.5450E-03     88.1315E-03    -1.78309E+06     112.824E+06     70.3530E+06    -42.8323E+03    -24.9602E-03     50.7607E-03    -25.8005E-03     11.3838E-03    -25.2658E-03     51.2565E-03    -25.6097E-03     11.3330E-03
              56     17.5451E-03     89.1297E-03    -1.90912E+06     112.595E+06     70.3506E+06    -132.656E+03    -24.9736E-03     50.7692E-03    -25.7957E-03     11.4092E-03    -25.2795E-03     51.2640E-03    -25.6044E-03     11.3571E-03
              57     17.5452E-03     90.1278E-03    -1.78478E+06     112.148E+06     70.4489E+06    -223.188E+03    -24.9989E-03     50.7878E-03    -25.7889E-03     11.4466E-03    -25.3038E-03     51.2802E-03    -25.5967E-03     11.3931E-03
              58     17.5454E-03     91.1259E-03    -1.84459E+06     111.590E+06     70.6177E+06    -224.974E+03    -25.0439E-03     50.8238E-03    -25.7799E-03     11.4959E-03    -25.3486E-03     51.3133E-03    -25.5859E-03     11.4421E-03
              59     17.5456E-03     92.1241E-03    -1.80200E+06     110.994E+06     70.7066E+06    -241.618E+03    -25.1208E-03     50.8874E-03    -25.7666E-03     11.5626E-03    -25.4247E-03     51.3738E-03    -25.5714E-03     11.5082E-03
              60     17.5459E-03     93.1224E-03    -1.95409E+06     110.214E+06     70.4140E+06    -377.364E+03    -25.2404E-03     50.9876E-03    -25.7473E-03     11.6531E-03    -25.5436E-03     51.4710E-03    -25.5522E-03     11.5962E-03
              61     17.5462E-03     94.1208E-03    -1.74017E+06     109.165E+06     70.3484E+06    -450.493E+03    -25.4219E-03     51.1453E-03    -25.7234E-03     11.7759E-03    -25.7226E-03     51.6234E-03    -25.5274E-03     11.7172E-03
              62     17.5467E-03     95.1194E-03    -2.01358E+06     107.872E+06     70.1376E+06    -584.595E+03    -25.6902E-03     51.3835E-03    -25.6933E-03     11.9415E-03    -25.9904E-03     51.8561E-03    -25.4961E-03     11.8798E-03
              63     17.5471E-03     96.1182E-03    -1.69539E+06     106.294E+06     69.7304E+06    -680.700E+03    -26.0791E-03     51.7325E-03    -25.6534E-03     12.1647E-03    -26.3752E-03     52.1978E-03    -25.4564E-03     12.1000E-03
              64     17.5478E-03     97.1176E-03    -2.03897E+06     104.407E+06     69.0285E+06    -814.574E+03    -26.6244E-03     52.2274E-03    -25.6030E-03     12.4630E-03    -26.9191E-03     52.6854E-03    -25.4063E-03     12.3941E-03
              65     17.5485E-03     98.1175E-03    -1.67724E+06     102.147E+06     68.7319E+06    -965.138E+03    -27.3559E-03     52.8987E-03    -25.5428E-03     12.8560E-03    -27.6459E-03     53.3460E-03    -25.3448E-03     12.7820E-03
              66     17.5494E-03     99.1182E-03    -1.93655E+06     99.6899E+06     68.9116E+06    -951.076E+03    -28.3399E-03     53.8156E-03    -25.4757E-03     13.3590E-03    -28.6289E-03     54.2518E-03    -25.2729E-03     13.2808E-03
              67     17.5501E-03     100.120E-03    -1.95625E+06     96.8601E+06     69.5253E+06    -1.26320E+06    -29.6330E-03     55.0367E-03    -25.4037E-03     13.9900E-03    -29.9202E-03     55.4592E-03    -25.1937E-03     13.9018E-03
              68     17.5510E-03     101.123E-03    -2.60534E+06     92.5142E+06     68.4528E+06    -2.28671E+06    -31.3093E-03     56.6348E-03    -25.3255E-03     14.7499E-03    -31.5936E-03     57.0398E-03    -25.1136E-03     14.6408E-03
              69     17.5511E-03     102.129E-03    -739.081E+03     87.2884E+06     67.2650E+06    -2.08520E+06    -33.3120E-03     58.5608E-03    -25.2488E-03     15.7124E-03    -33.5799E-03     58.9410E-03    -25.0380E-03     15.5963E-03
              70     17.5517E-03     103.136E-03    -2.36524E+06     82.7424E+06     65.9462E+06    -1.74588E+06    -35.4562E-03     60.6363E-03    -25.1801E-03     16.9361E-03    -35.7264E-03     61.0007E-03    -24.9669E-03     16.8129E-03
              71     17.5515E-03     104.146E-03    -878.189E+03     78.7720E+06     66.5114E+06    -1.58993E+06    -37.6999E-03     62.8158E-03    -25.1158E-03     18.4112E-03    -37.9610E-03     63.1606E-03    -24.8962E-03     18.2765E-03
              72     17.5522E-03     105.158E-03    -2.77460E+06     74.6569E+06     66.6970E+06    -1.82753E+06    -40.1368E-03     65.1865E-03    -25.0497E-03     20.1699E-03    -40.4057E-03     65.5173E-03    -24.8205E-03     20.0160E-03
              73     17.5520E-03     106.172E-03    -627.501E+03     70.2730E+06     67.5092E+06    -1.72296E+06    -42.8854E-03     67.8568E-03    -24.9714E-03     22.3080E-03    -43.1435E-03     68.1666E-03    -24.7349E-03     22.1355E-03
              74     17.5529E-03     107.190E-03    -3.56643E+06     64.8951E+06     66.0017E+06    -2.65094E+06    -45.9433E-03     70.8225E-03    -24.8792E-03     24.8402E-03    -46.2132E-03     71.1190E-03    -24.6381E-03     24.6293E-03
              75     17.5527E-03     108.211E-03      807.75E+03     59.4389E+06     67.2966E+06    -1.66894E+06    -49.4547E-03     74.2292E-03    -24.7744E-03     28.1256E-03    -49.7057E-03     74.4992E-03    -24.5253E-03     27.8950E-03
              76     17.5541E-03     109.236E-03    -5.15934E+06     52.8844E+06     65.2829E+06    -3.00147E+06    -53.5051E-03     78.1572E-03    -24.6521E-03     32.6269E-03    -53.7837E-03     78.4165E-03    -24.3949E-03     32.3426E-03
              77     17.5536E-03     110.267E-03     1.04605E+06     43.8916E+06     64.0789E+06    -4.50771E+06    -57.6217E-03     82.1251E-03    -24.5034E-03     38.4790E-03    -57.8643E-03     82.3422E-03    -24.2482E-03     38.1426E-03
              78     17.5564E-03     111.301E-03     739.284E+03     35.6599E+06     62.3063E+06    -3.00014E+06    -62.0618E-03     86.4097E-03    -24.3479E-03     44.5234E-03    -62.3010E-03     86.5985E-03    -24.0892E-03     44.1758E-03
              79     17.5549E-03     112.340E-03     844.557E+03     37.8744E+06     64.9152E+06     3.66472E+06    -65.7626E-03     89.9902E-03    -24.2276E-03     48.3094E-03    -66.0232E-03     90.2007E-03    -23.9591E-03     47.9961E-03
              80     17.5580E-03     113.379E-03    -9.22838E+06     36.6166E+06     54.6908E+06    -3.48583E+06    -67.1670E-03     91.2854E-03    -24.1184E-03     57.5974E-03    -67.4857E-03     91.5455E-03    -23.8847E-03     57.1434E-03
              81     17.5564E-03     114.433E-03     1.63221E+06     15.1117E+06     30.9291E+06    -12.9552E+06    -58.4336E-03     82.6648E-03    -24.2312E-03     75.5523E-03    -58.6451E-03     82.8525E-03    -24.1008E-03     75.0342E-03
              82     17.5576E-03     115.471E-03     13.9566E+06     11.9614E+06     27.2113E+06    -3.65800E+06    -19.4795E-03     45.4202E-03    -25.9407E-03     48.7783E-03    -19.5336E-03     45.5082E-03    -25.8422E-03     48.5919E-03
              83     16.5665E-03     116.339E-03    -15.8929E+06    -7.62797E+06     27.0124E+06    -2.65475E+06    -5.84995E-03     33.7970E-03    -27.9471E-03     18.6097E-03    -5.95278E-03     33.7539E-03    -27.7779E-03     18.5650E-03
              84     15.6949E-03     116.198E-03    -930.641E+03    -5.06127E+06     39.6433E+06    -5.74749E+06    -19.3209E-03     47.7923E-03    -28.4714E-03     24.7848E-03    -19.3820E-03     47.7163E-03    -28.2645E-03     24.6917E-03
              85     14.8153E-03     116.061E-03     5.89277E+06     1.59041E+06     48.5028E+06    -3.54243E+06    -16.6231E-03     45.3143E-03    -28.6913E-03     19.0046E-03    -16.6710E-03     45.2473E-03    -28.4596E-03     18.9429E-03
              86     13.9378E-03     115.943E-03     11.0711E+06    -2.61948E+06     55.3991E+06    -1.44300E+06    -19.1449E-03     48.1057E-03    -28.9608E-03     10.4142E-03    -19.1711E-03     47.9968E-03    -28.6961E-03     10.3791E-03
              87     13.0668E-03     115.832E-03     14.8558E+06     954.187E+03     60.3548E+06    -1.45344E+06    -22.9654E-03     52.0347E-03    -29.0693E-03     5.73131E-03    -22.9854E-03     51.9288E-03    -28.7905E-03     5.69431E-03
              88     12.1982E-03     115.734E-03     16.9759E+06    -2.24168E+06     60.3934E+06    -864.258E+03    -25.4598E-03     54.4825E-03    -29.0227E-03     2.97524E-03    -25.4641E-03     54.3569E-03    -28.7421E-03     2.94598E-03
              89     11.3303E-03     115.646E-03     17.7696E+06     1.05379E+06     60.7271E+06    -877.948E+03    -27.1973E-03     56.0746E-03    -28.8773E-03     1.25910E-03    -27.2020E-03     55.9638E-03    -28.6009E-03     1.23090E-03
              90     10.4621E-03     115.569E-03     18.3819E+06    -1.38203E+06     59.0456E+06    -1.05495E+06    -28.4548E-03     57.1088E-03    -28.6539E-03     100.444E-06    -28.4498E-03     56.9874E-03    -28.3834E-03     71.3652E-06
              91     9.59440E-03     115.501E-03     19.0039E+06     421.277E+03     56.9311E+06    -1.09366E+06    -28.9986E-03     57.3657E-03    -28.3671E-03    -566.878E-06    -28.9896E-03     57.2555E-03    -28.1106E-03    -594.751E-06
              92     8.72579E-03     115.441E-03     19.1432E+06    -693.307E+03     52.9520E+06    -1.06792E+06    -29.0697E-03     57.1212E-03    -28.0514E-03    -919.303E-06    -29.0522E-03     57.0112E-03    -27.8134E-03    -945.015E-06
              93     7.85641E-03     115.389E-03     19.3830E+06     548.875E+03     50.6501E+06    -1.45531E+06    -28.9229E-03     56.6564E-03    -27.7335E-03    -1.12635E-03    -28.9023E-03     56.5558E-03    -27.5092E-03    -1.15539E-03
              94     6.98620E-03     115.344E-03     20.0129E+06    -547.826E+03     47.3523E+06    -1.78068E+06    -28.5695E-03     55.9878E-03    -27.4183E-03    -1.20468E-03    -28.5391E-03     55.8857E-03    -27.2097E-03    -1.23638E-03
              95     6.11509E-03     115.305E-03     20.9464E+06     133.661E+03     43.5596E+06    -1.87673E+06    -28.0906E-03     55.2081E-03    -27.1174E-03    -1.18942E-03    -28.0509E-03     55.1137E-03    -26.9302E-03    -1.22096E-03
              96     5.24309E-03     115.273E-03     21.9174E+06    -549.237E+03     39.8256E+06    -1.81362E+06    -27.5968E-03     54.4462E-03    -26.8494E-03    -1.12970E-03    -27.5457E-03     54.3526E-03    -26.6813E-03    -1.15915E-03
              97     4.37028E-03     115.245E-03     23.0055E+06     172.188E+03     37.0511E+06    -1.89552E+06    -27.1364E-03     53.7567E-03    -26.6203E-03    -1.04689E-03    -27.0767E-03     53.6691E-03    -26.4686E-03    -1.07626E-03
              98     3.49692E-03     115.224E-03     24.3109E+06    -576.094E+03     33.5675E+06    -1.95460E+06    -26.7349E-03     53.1661E-03    -26.4311E-03    -945.089E-06    -26.6625E-03     53.0780E-03    -26.2977E-03    -974.188E-06
              99     2.62296E-03     115.206E-03     25.8429E+06    -243.015E+03     30.8080E+06    -1.80959E+06    -26.4171E-03     52.7092E-03    -26.2921E-03    -837.036E-06    -26.3335E-03     52.6246E-03    -26.1752E-03    -863.286E-06
             100     1.74872E-03     115.194E-03     27.2575E+06    -906.162E+03     29.6720E+06    -1.53795E+06    -26.2324E-03     52.4442E-03    -26.2118E-03    -738.098E-06    -26.1391E-03     52.3559E-03    -26.1017E-03    -759.906E-06
             101     874.155E-06     115.187E-03     28.0348E+06    -650.517E+03     28.1663E+06    -1.04101E+06    -25.9487E-03     52.3303E-03    -26.3816E-03    -666.302E-06    -25.8497E-03     52.2443E-03    -26.2805E-03    -680.779E-06
             102     325.518E-09     114.184E-03     24.9368E+06    -1.83388E+06     25.2998E+06    -838.990E+03    -23.5770E-03     47.3603E-03    -23.7833E-03     271.346E-06    -23.4872E-03     47.2774E-03    -23.6903E-03     259.795E-06
             103     89.4324E-09     113.196E-03     16.8512E+06    -6.03805E+06     17.2290E+06    -1.50814E+06    -19.7323E-03     39.2420E-03    -19.5097E-03     1.37941E-03    -19.6646E-03     39.1621E-03    -19.4392E-03     1.35910E-03
             104    -104.733E-09     112.212E-03     3.06728E+06    -12.1220E+06     3.43724E+06    -1.65141E+06    -17.0419E-03     34.0706E-03    -17.0287E-03     1.93506E-03    -17.0141E-03     34.0004E-03    -16.9984E-03     1.91305E-03
             105     147.628E-09     111.234E-03    -14.3074E+06    -19.2186E+06    -13.5545E+06    -2.54341E+06    -15.5544E-03     31.0988E-03    -15.5444E-03     2.53797E-03    -15.5784E-03     31.0431E-03    -15.5635E-03     2.50465E-03
             106    -166.669E-09     110.256E-03    -32.7214E+06    -27.5672E+06    -33.0319E+06    -2.58863E+06    -14.9415E-03     29.8973E-03    -14.9558E-03     2.96911E-03    -15.0172E-03     29.8548E-03    -15.0335E-03     2.93538E-03
             107     152.825E-09     109.280E-03    -53.7350E+06    -35.5786E+06    -53.2504E+06    -2.39198E+06    -14.9923E-03     30.0044E-03    -15.0121E-03     3.28432E-03    -15.1321E-03     29.9817E-03    -15.1488E-03     3.25324E-03
             108    -173.340E-09     108.302E-03    -73.9036E+06    -43.2039E+06    -74.2756E+06    -2.16119E+06    -15.4934E-03     31.0070E-03    -15.5136E-03     3.49274E-03    -15.6925E-03     31.0059E-03    -15.7152E-03     3.46472E-03
             109     148.393E-09     107.323E-03    -86.0018E+06    -48.3113E+06    -86.2161E+06    -944.400E+03    -16.3225E-03     32.6600E-03    -16.3375E-03     3.63031E-03    -16.5575E-03     32.6682E-03    -16.5738E-03     3.61803E-03
             110    -158.022E-09     106.342E-03    -76.0615E+06    -48.5891E+06    -76.8750E+06     782.030E+03    -17.4262E-03     34.8591E-03    -17.4330E-03     3.72603E-03    -17.6246E-03     34.8380E-03    -17.6366E-03     3.73601E-03
             111     140.481E-09     105.359E-03    -53.4590E+06    -44.1853E+06    -53.1611E+06     1.80064E+06    -18.7151E-03     37.4280E-03    -18.7129E-03     3.78039E-03    -18.8413E-03     37.3617E-03    -18.8371E-03     3.80344E-03
             112    -121.569E-09     104.373E-03    -36.7733E+06    -40.4628E+06    -36.2994E+06     492.505E+03    -20.0246E-03     40.0408E-03    -20.0162E-03     3.78325E-03    -20.0973E-03     39.9445E-03    -20.0857E-03     3.78926E-03
             113     117.020E-09     103.385E-03    -29.5612E+06    -40.9102E+06    -29.3073E+06    -791.288E+03    -21.2293E-03     42.4460E-03    -21.2167E-03     3.74527E-03    -21.2753E-03     42.3268E-03    -21.2611E-03     3.73450E-03
             114    -93.3707E-09     102.395E-03    -26.8096E+06    -44.8209E+06    -26.7579E+06    -1.49103E+06    -22.2772E-03     44.5393E-03    -22.2621E-03     3.68791E-03    -22.3075E-03     44.3929E-03    -22.2920E-03     3.66786E-03
             115     91.1861E-09     101.403E-03    -27.0576E+06    -50.0004E+06    -27.1134E+06    -1.60307E+06    -23.1519E-03     46.2875E-03    -23.1355E-03     3.62500E-03    -23.1755E-03     46.1160E-03    -23.1593E-03     3.60328E-03
             116    -66.4220E-09     100.409E-03    -28.6515E+06    -55.8143E+06    -28.5882E+06    -1.81070E+06    -23.8604E-03     47.7031E-03    -23.8427E-03     3.56478E-03    -23.8814E-03     47.5071E-03    -23.8632E-03     3.54017E-03
             117     67.9885E-09     99.4138E-03    -31.2650E+06    -62.0964E+06    -31.3313E+06    -1.91216E+06    -24.4151E-03     48.8119E-03    -24.3968E-03     3.51220E-03    -24.4360E-03     48.5922E-03    -24.4181E-03     3.48610E-03
             118    -43.6185E-09     98.4178E-03    -34.7973E+06    -68.7852E+06    -34.7664E+06    -2.01133E+06    -24.8380E-03     49.6572E-03    -24.8193E-03     3.46991E-03    -24.8618E-03     49.4142E-03    -24.8429E-03     3.44238E-03
             119     47.0892E-09     97.4211E-03    -37.5864E+06    -75.3216E+06    -37.7528E+06    -1.84814E+06    -25.1560E-03     50.2929E-03    -25.1369E-03     3.43583E-03    -25.1800E-03     50.0256E-03    -25.1619E-03     3.41029E-03
             120    -24.1626E-09     96.4240E-03    -40.4609E+06    -81.3741E+06    -40.4460E+06    -1.69923E+06    -25.3905E-03     50.7615E-03    -25.3711E-03     3.41022E-03    -25.4162E-03     50.4721E-03    -25.3966E-03     3.38651E-03
             121     30.2822E-09     95.4264E-03    -43.1308E+06    -86.8541E+06    -43.2702E+06    -1.52817E+06    -25.5572E-03     51.0945E-03    -25.5373E-03     3.39177E-03    -25.5843E-03     50.7856E-03    -25.5652E-03     3.37020E-03
             122    -8.20921E-09     94.4286E-03    -45.8532E+06    -91.9377E+06    -45.7985E+06    -1.45816E+06    -25.6731E-03     51.3262E-03    -25.6531E-03     3.37987E-03    -25.7027E-03     50.9995E-03    -25.6823E-03     3.35916E-03
             123     16.7841E-09     93.4306E-03    -47.4886E+06    -96.7318E+06    -47.6128E+06    -1.35747E+06    -25.7542E-03     51.4885E-03    -25.7343E-03     3.37131E-03    -25.7824E-03     51.1428E-03    -25.7633E-03     3.35186E-03
             124     2.96485E-09     92.4325E-03    -49.2034E+06    -101.216E+06    -49.1520E+06    -1.27850E+06    -25.8088E-03     51.5979E-03    -25.7890E-03     3.36585E-03    -25.8369E-03     51.2345E-03    -25.8167E-03     3.34740E-03
             125     7.57697E-09     91.4343E-03    -50.2514E+06    -105.399E+06    -50.3674E+06    -1.17513E+06    -25.8454E-03     51.6707E-03    -25.8252E-03     3.36238E-03    -25.8709E-03     51.2897E-03    -25.8514E-03     3.34525E-03
             126     10.9016E-09     90.4362E-03    -51.2436E+06    -109.228E+06    -51.2001E+06    -1.07856E+06    -25.8688E-03     51.7172E-03    -25.8485E-03     3.36076E-03    -25.8924E-03     51.3197E-03    -25.8718E-03     3.34487E-03
             127     1.68068E-09     89.4379E-03    -51.7069E+06    -112.796E+06    -51.7897E+06    -1.01372E+06    -25.8830E-03     51.7459E-03    -25.8629E-03     3.35996E-03    -25.9029E-03     51.3321E-03    -25.8834E-03     3.34490E-03
             128     14.8897E-09     88.4397E-03    -52.0644E+06    -116.060E+06    -52.0522E+06    -906.844E+03    -25.8913E-03     51.7627E-03    -25.8714E-03     3.35944E-03    -25.9079E-03     51.3335E-03    -25.8879E-03     3.34575E-03
             129    -1.42899E-09     87.4414E-03    -52.0547E+06    -119.002E+06    -52.1182E+06    -818.774E+03    -25.8955E-03     51.7708E-03    -25.8753E-03     3.35943E-03    -25.9077E-03     51.3270E-03    -25.8879E-03     3.34689E-03
             130     17.6340E-09     86.4433E-03    -51.9464E+06    -121.616E+06    -51.9435E+06    -720.674E+03    -25.8974E-03     51.7743E-03    -25.8769E-03     3.35982E-03    -25.9055E-03     51.3170E-03    -25.8850E-03     3.34853E-03
             131    -3.01980E-09     85.4450E-03    -51.6228E+06    -123.937E+06    -51.6714E+06    -641.335E+03    -25.8977E-03     51.7750E-03    -25.8774E-03     3.36025E-03    -25.9012E-03     51.3052E-03    -25.8812E-03     3.34999E-03
             132     18.3789E-09     84.4469E-03    -51.3217E+06    -125.943E+06    -51.3326E+06    -541.663E+03    -25.8968E-03     51.7735E-03    -25.8767E-03     3.36051E-03    -25.8964E-03     51.2927E-03    -25.8764E-03     3.35154E-03
             133    -3.81886E-09     83.4487E-03    -50.8882E+06    -127.641E+06    -50.9271E+06    -454.795E+03    -25.8955E-03     51.7708E-03    -25.8753E-03     3.36083E-03    -25.8911E-03     51.2803E-03    -25.8711E-03     3.35298E-03
             134     19.0756E-09     82.4505E-03    -50.4819E+06    -129.042E+06    -50.4900E+06    -373.877E+03    -25.8941E-03     51.7678E-03    -25.8737E-03     3.36133E-03    -25.8862E-03     51.2690E-03    -25.8658E-03     3.35453E-03
             135    -3.73032E-09     81.4523E-03    -50.0154E+06    -130.170E+06    -50.0565E+06    -289.024E+03    -25.8927E-03     51.7650E-03    -25.8723E-03     3.36173E-03    -25.8815E-03     51.2593E-03    -25.8614E-03     3.35603E-03
             136     18.4416E-09     80.4542E-03    -49.5823E+06    -130.906E+06    -49.6220E+06    -149.148E+03    -25.8913E-03     51.7624E-03    -25.8711E-03     3.36182E-03    -25.8775E-03     51.2519E-03    -25.8575E-03     3.35793E-03
             137    -3.24411E-09     79.4561E-03    -49.1015E+06    -131.176E+06    -49.1430E+06    -10.9464E+03    -25.8895E-03     51.7588E-03    -25.8693E-03     3.36194E-03    -25.8736E-03     51.2455E-03    -25.8536E-03     3.35984E-03
             138     17.8406E-09     78.4580E-03    -48.7846E+06    -131.118E+06    -48.7686E+06     35.7544E+03    -25.8861E-03     51.7523E-03    -25.8661E-03     3.36200E-03    -25.8693E-03     51.2382E-03    -25.8491E-03     3.36050E-03
             139    -2.27225E-09     77.4598E-03    -48.5745E+06    -131.018E+06    -48.5816E+06     18.9137E+03    -25.8821E-03     51.7440E-03    -25.8619E-03     3.36189E-03    -25.8647E-03     51.2299E-03    -25.8444E-03     3.36017E-03
             140     17.0403E-09     76.4617E-03    -48.4395E+06    -130.901E+06    -48.4486E+06     43.0710E+03    -25.8785E-03     51.7366E-03    -25.8581E-03     3.36244E-03    -25.8607E-03     51.2226E-03    -25.8403E-03     3.36104E-03
             141    -1.18798E-09     75.4636E-03    -48.3153E+06    -130.754E+06    -48.3088E+06     39.9993E+03    -25.8755E-03     51.7311E-03    -25.8556E-03     3.36307E-03    -25.8575E-03     51.2175E-03    -25.8375E-03     3.36163E-03
             142     15.1995E-09     74.4655E-03    -48.1307E+06    -130.602E+06    -48.1362E+06     43.5418E+03    -25.8729E-03     51.7262E-03    -25.8532E-03     3.36251E-03    -25.8545E-03     51.2128E-03    -25.8347E-03     3.36111E-03
             143     225.648E-12     73.4674E-03    -47.9978E+06    -130.449E+06    -47.9946E+06     47.1082E+03    -25.8705E-03     51.7206E-03    -25.8501E-03     3.36234E-03    -25.8518E-03     51.2077E-03    -25.8313E-03     3.36099E-03
             144     15.1382E-09     72.4693E-03    -47.8265E+06    -130.252E+06    -47.8253E+06     51.5993E+03    -25.8691E-03     51.7176E-03    -25.8485E-03     3.36297E-03    -25.8501E-03     51.2052E-03    -25.8294E-03     3.36168E-03
             145     453.323E-12     71.4712E-03    -47.6797E+06    -130.074E+06    -47.6715E+06     50.5649E+03    -25.8683E-03     51.7170E-03    -25.8487E-03     3.36324E-03    -25.8490E-03     51.2050E-03    -25.8293E-03     3.36193E-03
             146     13.2426E-09     70.4731E-03    -47.5806E+06    -129.950E+06    -47.5772E+06     21.3666E+03    -25.8677E-03     51.7161E-03    -25.8484E-03     3.36278E-03    -25.8482E-03     51.2044E-03    -25.8288E-03     3.36110E-03
             147     1.83590E-09     69.4750E-03    -47.4702E+06    -129.831E+06    -47.4823E+06     16.9336E+03    -25.8673E-03     51.7144E-03    -25.8471E-03     3.36247E-03    -25.8476E-03     51.2030E-03    -25.8274E-03     3.36073E-03
             148     13.2510E-09     68.4769E-03    -47.4015E+06    -129.743E+06    -47.3961E+06     32.9116E+03    -25.8671E-03     51.7140E-03    -25.8469E-03     3.36290E-03    -25.8473E-03     51.2028E-03    -25.8270E-03     3.36136E-03
             149     2.03015E-09     67.4788E-03    -47.3369E+06    -129.661E+06    -47.3405E+06     24.5292E+03    -25.8670E-03     51.7150E-03    -25.8480E-03     3.36262E-03    -25.8471E-03     51.2041E-03    -25.8280E-03     3.36098E-03
             150     10.9026E-09     66.4808E-03    -47.2527E+06    -129.558E+06    -47.2559E+06     32.2279E+03    -25.8672E-03     51.7155E-03    -25.8483E-03     3.36172E-03    -25.8471E-03     51.2048E-03    -25.8282E-03     3.36018E-03
             151     4.17773E-09     65.4827E-03    -47.2246E+06    -129.493E+06    -47.2030E+06     22.4691E+03    -25.8674E-03     51.7150E-03    -25.8475E-03     3.36188E-03    -25.8474E-03     51.2045E-03    -25.8273E-03     3.36021E-03
             152     10.8407E-09     64.4846E-03    -47.1511E+06    -129.421E+06    -47.1697E+06     8.89537E+03    -25.8680E-03     51.7157E-03    -25.8477E-03     3.36235E-03    -25.8477E-03     51.2055E-03    -25.8276E-03     3.36051E-03
             153     4.31920E-09     63.4865E-03    -47.1165E+06    -129.341E+06    -47.1137E+06     14.9190E+03    -25.8686E-03     51.7175E-03    -25.8489E-03     3.36175E-03    -25.8484E-03     51.2075E-03    -25.8286E-03     3.35999E-03
             154     10.0799E-09     62.4884E-03    -47.1121E+06    -129.287E+06    -47.1067E+06     11.9921E+03    -25.8689E-03     51.7183E-03    -25.8494E-03     3.36100E-03    -25.8487E-03     51.2085E-03    -25.8292E-03     3.35921E-03
             155     4.64228E-09     61.4903E-03    -47.0861E+06    -129.249E+06    -47.1017E+06     4.28537E+03    -25.8691E-03     51.7189E-03    -25.8498E-03     3.36105E-03    -25.8489E-03     51.2093E-03    -25.8296E-03     3.35915E-03
             156     9.36002E-09     60.4922E-03    -47.0707E+06    -129.223E+06    -47.0735E+06     14.1257E+03    -25.8693E-03     51.7193E-03    -25.8500E-03     3.36087E-03    -25.8491E-03     51.2098E-03    -25.8298E-03     3.35910E-03
             157     5.26145E-09     59.4941E-03    -47.0974E+06    -129.213E+06    -47.0891E+06     8.11297E+03    -25.8686E-03     51.7176E-03    -25.8490E-03     3.36017E-03    -25.8485E-03     51.2082E-03    -25.8288E-03     3.35832E-03
             158     9.57523E-09     58.4960E-03    -47.0930E+06    -129.186E+06    -47.0872E+06    -2.29882E+03    -25.8676E-03     51.7153E-03    -25.8477E-03     3.36004E-03    -25.8475E-03     51.2060E-03    -25.8275E-03     3.35806E-03
             159     7.99131E-09     56.4998E-03    -47.0926E+06    -129.131E+06    -47.1043E+06     8.15950E+03    -25.8639E-03     51.7090E-03    -25.8451E-03     3.35811E-03    -25.8439E-03     51.2000E-03    -25.8251E-03     3.35627E-03
             160     6.19984E-09     55.5017E-03    -47.1072E+06    -129.111E+06    -47.1015E+06     12.5195E+03    -25.8609E-03     51.7026E-03    -25.8418E-03     3.35693E-03    -25.8410E-03     51.1938E-03    -25.8218E-03     3.35514E-03
             161     8.08866E-09     54.5036E-03    -47.1110E+06    -129.090E+06    -47.1169E+06     6.55037E+03    -25.8569E-03     51.6943E-03    -25.8375E-03     3.35618E-03    -25.8370E-03     51.1856E-03    -25.8176E-03     3.35432E-03
             162     6.42276E-09     53.5056E-03    -47.1071E+06    -129.058E+06    -47.1064E+06     8.75094E+03    -25.8521E-03     51.6850E-03    -25.8329E-03     3.35490E-03    -25.8323E-03     51.1764E-03    -25.8130E-03     3.35307E-03
             163     7.65019E-09     52.5075E-03    -47.1153E+06    -129.053E+06    -47.1096E+06     6.65603E+03    -25.8470E-03     51.6751E-03    -25.8281E-03     3.35368E-03    -25.8272E-03     51.1665E-03    -25.8082E-03     3.35182E-03
             164     6.32356E-09     51.5095E-03    -47.1359E+06    -129.053E+06    -47.1356E+06    -12.0921E+03    -25.8424E-03     51.6664E-03    -25.8240E-03     3.35302E-03    -25.8227E-03     51.1580E-03    -25.8042E-03     3.35092E-03
             165     6.81448E-09     50.5114E-03    -47.1650E+06    -129.067E+06    -47.1726E+06    -15.5250E+03    -25.8390E-03     51.6597E-03    -25.8208E-03     3.35199E-03    -25.8193E-03     51.1512E-03    -25.8011E-03     3.34985E-03
             166     6.80901E-09     49.5134E-03    -47.1655E+06    -129.062E+06    -47.1695E+06         936.729    -25.8358E-03     51.6533E-03    -25.8175E-03     3.35075E-03    -25.8162E-03     51.1449E-03    -25.7979E-03     3.34882E-03
             167     6.50817E-09     48.5153E-03    -47.1798E+06    -129.063E+06    -47.1814E+06     9.70864E+03    -25.8306E-03     51.6434E-03    -25.8128E-03     3.34805E-03    -25.8110E-03     51.1350E-03    -25.7932E-03     3.34624E-03
             168     6.32202E-09     47.5173E-03    -47.1789E+06    -129.043E+06    -47.1605E+06     5.20111E+03    -25.8220E-03     51.6266E-03    -25.8046E-03     3.34388E-03    -25.8024E-03     51.1183E-03    -25.7849E-03     3.34201E-03
             169     6.42569E-09     46.5193E-03    -47.1368E+06    -129.003E+06    -47.1465E+06     12.5375E+03    -25.8086E-03     51.6002E-03    -25.7916E-03     3.33889E-03    -25.7889E-03     51.0920E-03    -25.7719E-03     3.33712E-03
             170     5.50679E-09     45.5214E-03    -47.1390E+06    -129.000E+06    -47.1444E+06     3.60936E+03    -25.7901E-03     51.5636E-03    -25.7735E-03     3.33362E-03    -25.7704E-03     51.0554E-03    -25.7539E-03     3.33173E-03
             171     6.43760E-09     44.5234E-03    -47.1409E+06    -128.983E+06    -47.1367E+06        -687.075    -25.7662E-03     51.5162E-03    -25.7500E-03     3.32719E-03    -25.7466E-03     51.0081E-03    -25.7303E-03     3.32525E-03
             172     5.09861E-09     43.5256E-03    -47.1598E+06    -128.985E+06    -47.1696E+06     7.04713E+03    -25.7364E-03     51.4570E-03    -25.7206E-03     3.32020E-03    -25.7169E-03     50.9489E-03    -25.7010E-03     3.31837E-03
             173     6.13909E-09     42.5278E-03    -47.1663E+06    -128.979E+06    -47.1641E+06    -2.13253E+03    -25.7005E-03     51.3860E-03    -25.6854E-03     3.31144E-03    -25.6810E-03     50.8780E-03    -25.6659E-03     3.30949E-03
             174     4.17173E-09     41.5300E-03    -47.1691E+06    -128.975E+06    -47.1769E+06        -376.513    -25.6570E-03     51.2994E-03    -25.6424E-03     3.30004E-03    -25.6375E-03     50.7914E-03    -25.6229E-03     3.29813E-03
             175     6.19236E-09     40.5324E-03    -47.2038E+06    -128.976E+06    -47.1913E+06     2.03141E+03    -25.6049E-03     51.1956E-03    -25.5907E-03     3.28804E-03    -25.5855E-03     50.6877E-03    -25.5712E-03     3.28617E-03
             176     3.56784E-09     39.5349E-03    -47.1976E+06    -128.962E+06    -47.2228E+06    -3.82840E+03    -25.5430E-03     51.0725E-03    -25.5295E-03     3.27257E-03    -25.5236E-03     50.5647E-03    -25.5102E-03     3.27063E-03
             177     5.30576E-09     38.5375E-03    -47.2161E+06    -128.946E+06    -47.2221E+06     10.0469E+03    -25.4704E-03     50.9269E-03    -25.4565E-03     3.25478E-03    -25.4511E-03     50.4192E-03    -25.4372E-03     3.25304E-03
             178     5.40039E-09     37.5403E-03    -47.2374E+06    -128.919E+06    -47.2307E+06     13.8604E+03    -25.3859E-03     50.7580E-03    -25.3721E-03     3.23586E-03    -25.3668E-03     50.2505E-03    -25.3528E-03     3.23418E-03
             179     3.54946E-09     36.5433E-03    -47.2407E+06    -128.879E+06    -47.2518E+06     4.49383E+03    -25.2882E-03     50.5630E-03    -25.2748E-03     3.21243E-03    -25.2691E-03     50.0557E-03    -25.2557E-03     3.21065E-03
             180     6.13711E-09     35.5464E-03    -47.2562E+06    -128.833E+06    -47.2599E+06     2.86981E+03    -25.1754E-03     50.3373E-03    -25.1619E-03     3.18535E-03    -25.1564E-03     49.8302E-03    -25.1428E-03     3.18356E-03
             181     3.24930E-09     34.5498E-03    -47.2492E+06    -128.768E+06    -47.2740E+06     15.8780E+03    -25.0463E-03     50.0785E-03    -25.0321E-03     3.15495E-03    -25.0274E-03     49.5718E-03    -25.0133E-03     3.15336E-03
             182     7.50467E-09     33.5535E-03    -47.2645E+06    -128.687E+06    -47.2653E+06     36.0899E+03    -24.9000E-03     49.7853E-03    -24.8854E-03     3.12118E-03    -24.8812E-03     49.2790E-03    -24.8666E-03     3.11988E-03
             183     2.96368E-09     32.5575E-03    -47.2812E+06    -128.599E+06    -47.2871E+06     34.3639E+03    -24.7344E-03     49.4543E-03    -24.7199E-03     3.08218E-03    -24.7158E-03     48.9485E-03    -24.7013E-03     3.08088E-03
             184     7.69877E-09     31.5619E-03    -47.2484E+06    -128.467E+06    -47.2637E+06     40.8192E+03    -24.5479E-03     49.0807E-03    -24.5328E-03     3.03729E-03    -24.5294E-03     48.5755E-03    -24.5143E-03     3.03611E-03
             185     3.94942E-09     30.5666E-03    -47.1591E+06    -128.269E+06    -47.1624E+06     58.2234E+03    -24.3381E-03     48.6600E-03    -24.3220E-03     2.98729E-03    -24.3196E-03     48.1556E-03    -24.3034E-03     2.98637E-03
             186     8.72860E-09     29.5718E-03    -47.1146E+06    -128.061E+06    -47.1282E+06     58.2062E+03    -24.1033E-03     48.1887E-03    -24.0854E-03     2.93162E-03    -24.0849E-03     47.6852E-03    -24.0671E-03     2.93075E-03
             187     5.96135E-09     28.5775E-03    -47.0786E+06    -127.837E+06    -47.0918E+06     73.1892E+03    -23.8436E-03     47.6679E-03    -23.8242E-03     2.87106E-03    -23.8254E-03     47.1653E-03    -23.8061E-03     2.87042E-03
             188     9.63073E-09     27.5837E-03    -47.0107E+06    -127.576E+06    -47.0112E+06     74.8473E+03    -23.5606E-03     47.0999E-03    -23.5392E-03     2.80504E-03    -23.5426E-03     46.5984E-03    -23.5211E-03     2.80447E-03
             189     8.89971E-09     26.5905E-03    -46.9734E+06    -127.310E+06    -47.0012E+06     73.0941E+03    -23.2547E-03     46.4856E-03    -23.2310E-03     2.73368E-03    -23.2368E-03     45.9854E-03    -23.2132E-03     2.73314E-03
             190     10.6664E-09     25.5980E-03    -46.9430E+06    -126.984E+06    -46.9466E+06     110.977E+03    -22.9290E-03     45.8315E-03    -22.9025E-03     2.65808E-03    -22.9115E-03     45.3328E-03    -22.8851E-03     2.65808E-03
             191     13.0904E-09     24.6061E-03    -46.8435E+06    -126.579E+06    -46.8441E+06     125.958E+03    -22.5896E-03     45.1486E-03    -22.5591E-03     2.57930E-03    -22.5724E-03     44.6516E-03    -22.5418E-03     2.57955E-03
             192     13.8612E-09     23.6150E-03    -46.6809E+06    -126.048E+06    -46.7346E+06     196.549E+03    -22.2429E-03     44.4512E-03    -22.2083E-03     2.49903E-03    -22.2258E-03     43.9565E-03    -22.1916E-03     2.50024E-03
             193     16.6023E-09     22.6245E-03    -46.4457E+06    -125.304E+06    -46.4238E+06     232.741E+03    -21.8966E-03     43.7536E-03    -21.8569E-03     2.41658E-03    -21.8799E-03     43.2618E-03    -21.8400E-03     2.41832E-03
             194     20.5296E-09     21.6347E-03    -46.0878E+06    -124.490E+06    -46.1172E+06     236.715E+03    -21.5569E-03     43.0681E-03    -21.5112E-03     2.33222E-03    -21.5400E-03     42.5794E-03    -21.4944E-03     2.33407E-03
             195     20.2453E-09     20.6455E-03    -45.5973E+06    -123.454E+06    -45.6520E+06     378.997E+03    -21.2275E-03     42.4034E-03    -21.1759E-03     2.24310E-03    -21.2104E-03     41.9185E-03    -21.1590E-03     2.24685E-03
             196     27.1157E-09     19.6570E-03    -44.9292E+06    -121.995E+06    -44.9500E+06     496.853E+03    -20.8984E-03     41.7410E-03    -20.8426E-03     2.13896E-03    -20.8810E-03     41.2614E-03    -20.8253E-03     2.14429E-03
             197     21.6153E-09     18.6692E-03    -43.8689E+06    -120.018E+06    -43.9714E+06     669.320E+03    -20.5469E-03     41.0335E-03    -20.4866E-03     2.00820E-03    -20.5285E-03     40.5608E-03    -20.4688E-03     2.01582E-03
             198     33.0842E-09     17.6821E-03     -42.316E+06    -117.533E+06    -42.3325E+06     788.863E+03    -20.1452E-03     40.2208E-03    -20.0756E-03     1.84660E-03    -20.1250E-03     39.7559E-03    -20.0555E-03     1.85584E-03
             199     33.2242E-09     16.6959E-03    -40.2777E+06    -114.662E+06    -40.4065E+06     927.289E+03    -19.6635E-03     39.2408E-03    -19.5773E-03     1.65456E-03    -19.6401E-03     38.7845E-03    -19.5546E-03     1.66566E-03
             200     50.1375E-09     15.7107E-03    -38.2003E+06    -111.426E+06    -38.1929E+06     988.829E+03    -19.0630E-03     38.0238E-03    -18.9608E-03     1.42819E-03    -19.0371E-03     37.5775E-03    -18.9348E-03     1.44017E-03
             201     46.3238E-09     14.7269E-03    -36.3999E+06    -108.312E+06    -36.4547E+06     862.857E+03    -18.2822E-03     36.4831E-03    -18.2008E-03     1.16023E-03    -18.2544E-03     36.0472E-03    -18.1733E-03     1.17068E-03
             202     121.463E-12     13.7448E-03    -34.7152E+06    -105.258E+06    -34.8723E+06     999.867E+03    -17.2934E-03     34.5380E-03    -17.2445E-03     836.225E-06    -17.2639E-03     34.1126E-03    -17.2159E-03     848.572E-06
             203     38.3025E-09     12.7648E-03    -32.2735E+06    -101.428E+06    -32.4414E+06     1.33301E+06    -16.1229E-03     32.1780E-03    -16.0551E-03     551.609E-06    -16.0902E-03     31.7647E-03    -16.0235E-03     568.377E-06
             204     41.9974E-09     11.7872E-03    -30.7839E+06    -96.9066E+06     -30.746E+06     1.38746E+06    -14.8087E-03     29.5133E-03    -14.7046E-03     341.772E-06    -14.7776E-03     29.1179E-03    -14.6732E-03     359.277E-06
             205     63.6400E-09     10.8124E-03    -33.1861E+06    -94.3378E+06    -32.3121E+06     79.3864E+03    -13.5315E-03     26.9534E-03    -13.4219E-03     253.773E-06    -13.5139E-03     26.5767E-03    -13.3986E-03     254.367E-06
             206     36.0415E-09     9.84000E-03    -37.6511E+06    -96.0042E+06    -37.4223E+06    -1.04984E+06    -12.7136E-03     25.3559E-03    -12.6422E-03     457.508E-06    -12.7084E-03     24.9847E-03    -12.6355E-03     443.522E-06
             207    -6.10806E-09     8.86818E-03    -39.5056E+06    -98.5691E+06    -39.5645E+06    -430.288E+03    -12.7774E-03     25.5326E-03    -12.7552E-03     874.416E-06    -12.7747E-03     25.1544E-03    -12.7528E-03     868.480E-06
             208     14.9121E-09     7.89532E-03    -36.8570E+06    -99.9337E+06    -36.4167E+06    -321.984E+03    -13.7766E-03     27.5563E-03    -13.7797E-03     1.25756E-03    -13.7633E-03     27.1628E-03    -13.7634E-03     1.25307E-03
             209    -23.8024E-09     6.91952E-03    -33.8347E+06    -101.646E+06    -33.8180E+06    -662.134E+03    -15.3842E-03     30.7833E-03    -15.3991E-03     1.47854E-03    -15.3572E-03     30.3731E-03    -15.3717E-03     1.46969E-03
             210     7.03006E-09     5.94022E-03    -33.1106E+06    -103.652E+06    -33.0978E+06    -603.860E+03    -17.2264E-03     34.4703E-03    -17.2439E-03     1.54797E-03    -17.1938E-03     34.0480E-03    -17.2111E-03     1.53987E-03
             211    -20.6614E-09     4.95728E-03    -32.2957E+06    -105.184E+06    -32.5356E+06    -292.048E+03    -19.0720E-03     38.1631E-03    -19.0911E-03     1.49828E-03    -19.0339E-03     37.7311E-03    -19.0545E-03     1.49422E-03
             212    -1.83060E-09     3.97074E-03    -30.3285E+06    -105.363E+06    -30.4426E+06     122.902E+03    -20.7842E-03     41.5889E-03    -20.8048E-03     1.34705E-03    -20.7390E-03     41.1502E-03    -20.7602E-03     1.34836E-03
             213    -13.0189E-09     2.98109E-03    -27.7752E+06    -104.748E+06    -27.8864E+06     185.534E+03    -22.2356E-03     44.4930E-03    -22.2574E-03     1.10401E-03    -22.1822E-03     44.0499E-03    -22.2047E-03     1.10618E-03
             214    -11.6080E-09     1.98884E-03    -25.5401E+06    -103.866E+06    -25.7077E+06     308.752E+03    -23.3284E-03     46.6803E-03    -23.3519E-03     783.854E-06    -23.2683E-03     46.2352E-03    -23.2928E-03     787.671E-06
             215    -6.85026E-09     994.899E-06    -24.0828E+06    -103.096E+06    -24.0343E+06     141.984E+03    -24.0094E-03     48.0432E-03    -24.0338E-03     407.944E-06    -23.9455E-03     47.5975E-03    -23.9696E-03     409.710E-06
             216     878.387E-06    -603.684E-18    -23.4708E+06    -102.905E+06    -23.5280E+06    -24.8819E+03    -24.3178E-03     48.6021E-03    -24.2843E-03     350.430E-06    -24.2519E-03     48.1557E-03    -24.2187E-03     350.059E-06
             217     1.75665E-03    -603.684E-18    -23.5348E+06    -102.789E+06    -22.8741E+06     246.529E+03    -24.5283E-03     48.8780E-03    -24.3498E-03     653.756E-06    -24.4637E-03     48.4314E-03    -24.2810E-03     656.811E-06
             218     2.63466E-03    -603.684E-18    -23.7174E+06    -102.803E+06    -22.1938E+06     466.428E+03    -24.8592E-03     49.3255E-03    -24.4662E-03     991.981E-06    -24.7966E-03     48.8780E-03    -24.3938E-03     997.801E-06
             219     3.51232E-03    -603.684E-18    -24.0517E+06    -103.086E+06    -21.8227E+06     566.345E+03    -25.3123E-03     49.9362E-03    -24.6239E-03     1.35815E-03    -25.2514E-03     49.4873E-03    -24.5487E-03     1.36517E-03
             220     4.38950E-03    -603.684E-18    -24.4889E+06    -104.037E+06    -22.5851E+06     509.854E+03    -25.8825E-03     50.7001E-03    -24.8176E-03     1.75837E-03    -25.8214E-03     50.2482E-03    -24.7442E-03     1.76455E-03
             221     5.26611E-03    -603.684E-18    -24.4822E+06    -105.728E+06    -24.9538E+06    -266.606E+03    -26.5645E-03     51.6069E-03    -25.0424E-03     2.20867E-03    -26.4974E-03     51.1499E-03    -24.9783E-03     2.20468E-03
             222     6.14208E-03    -603.684E-18    -23.3397E+06    -105.824E+06    -28.3296E+06    -1.38716E+06    -27.3473E-03     52.6420E-03    -25.2947E-03     2.70501E-03    -27.2695E-03     52.1878E-03    -25.2490E-03     2.68634E-03
             223     7.01729E-03    -603.684E-18    -21.2754E+06    -101.352E+06    -32.6003E+06    -2.07495E+06    -28.2166E-03     53.7854E-03    -25.5688E-03     3.27627E-03    -28.1288E-03     53.3568E-03    -25.5540E-03     3.24845E-03
             224     7.89164E-03    -603.684E-18    -18.7958E+06    -92.8105E+06    -37.5699E+06    -2.68714E+06    -29.1535E-03     55.0180E-03    -25.8645E-03     3.92137E-03    -29.0584E-03     54.6357E-03    -25.8905E-03     3.88526E-03
             225     8.76517E-03    -603.684E-18    -15.7526E+06    -81.8102E+06    -42.7559E+06    -3.45210E+06    -30.1494E-03     56.3327E-03    -26.1833E-03     4.64291E-03    -30.0476E-03     56.0085E-03    -26.2556E-03     4.59634E-03
             226     9.63771E-03    -603.684E-18    -11.9408E+06    -67.9753E+06    -47.2696E+06    -4.16793E+06    -31.1891E-03     57.7149E-03    -26.5258E-03     5.51441E-03    -31.0818E-03     57.4610E-03    -26.6462E-03     5.45788E-03
             227     10.5092E-03    -603.684E-18    -7.91711E+06    -50.5783E+06    -50.3300E+06    -4.26992E+06    -32.2290E-03     59.1204E-03    -26.8914E-03     6.50834E-03    -32.1224E-03     58.9521E-03    -27.0582E-03     6.44936E-03
             228     11.3799E-03    -603.684E-18    -4.31023E+06    -29.0335E+06    -50.6643E+06    -3.85547E+06    -33.2402E-03     60.5215E-03    -27.2813E-03     7.65152E-03    -33.1464E-03     60.4563E-03    -27.4863E-03     7.59633E-03
             229     12.2494E-03    -603.684E-18    -1.13041E+06    -1.75759E+06    -45.6262E+06    -3.44274E+06    -34.1854E-03     61.8863E-03    -27.7008E-03     9.15592E-03    -34.1228E-03     61.9457E-03    -27.9248E-03     9.10394E-03
             230     13.1178E-03    -603.684E-18     1.01338E+06     34.3254E+06    -35.1122E+06    -2.09907E+06    -34.9309E-03     63.0687E-03    -28.1378E-03     10.9605E-03    -34.9254E-03     63.2904E-03    -28.3646E-03     10.9227E-03
             231     13.9856E-03    -603.684E-18     1.45164E+06     66.5637E+06    -12.7724E+06     131.229E+03    -35.5146E-03     64.1479E-03    -28.6334E-03     13.4769E-03    -35.5867E-03     64.4983E-03    -28.7958E-03     13.4633E-03
             232     14.8521E-03    -603.684E-18     1.37473E+06     83.9573E+06     22.7348E+06     1.39003E+06    -35.6273E-03     64.8204E-03    -29.1931E-03     17.2755E-03    -35.7775E-03     65.2071E-03    -29.2032E-03     17.2736E-03
             233     15.7171E-03    -603.684E-18     2.32271E+06     92.5703E+06     55.9854E+06     1.74141E+06    -34.7374E-03     64.4313E-03    -29.6939E-03     24.0058E-03    -34.9469E-03     64.8141E-03    -29.5516E-03     23.9967E-03
             234     16.5816E-03    -603.684E-18     1.66861E+06     92.7751E+06     67.7653E+06     1.69267E+06    -31.2697E-03     61.2318E-03    -29.9621E-03     32.0471E-03    -31.5082E-03     61.6070E-03    -29.7602E-03     32.0207E-03
             235     17.4931E-03     1.00131E-03    -1.51579E+06     91.1061E+06     64.8166E+06     3.91254E+06    -28.0045E-03     56.9749E-03    -28.9703E-03     30.1365E-03    -28.2583E-03     57.3584E-03    -28.7762E-03     30.1308E-03
             236     17.5217E-03     2.00281E-03    -2.31625E+06     94.0025E+06     65.2016E+06     5.33190E+06    -33.1001E-03     60.2638E-03    -27.1637E-03     17.7852E-03    -33.3619E-03     60.6636E-03    -26.9707E-03     17.7748E-03
             237     17.5360E-03     3.01806E-03    -1.82188E+06     97.9804E+06     67.5019E+06     2.73872E+06    -42.4093E-03     68.4250E-03    -26.0157E-03     7.75200E-03    -42.6768E-03     68.8391E-03    -25.8177E-03     7.66663E-03
             238     17.5418E-03     4.04021E-03    -1.85061E+06     100.334E+06     68.7886E+06     321.651E+03    -47.1880E-03     72.6864E-03    -25.4983E-03     3.86195E-03    -47.4616E-03     73.1106E-03    -25.2972E-03     3.71777E-03
             239     17.5433E-03     5.06322E-03    -1.37520E+06     100.596E+06     68.9068E+06    -579.202E+03    -47.8566E-03     73.2092E-03    -25.3526E-03     2.87074E-03    -48.1285E-03     73.6337E-03    -25.1519E-03     2.70939E-03
             240     17.5433E-03     6.08384E-03    -1.46967E+06     100.327E+06     68.4482E+06    -392.053E+03    -46.3640E-03     71.7346E-03    -25.3706E-03     2.37620E-03    -46.6345E-03     72.1576E-03    -25.1717E-03     2.22576E-03
             241     17.5430E-03     7.10165E-03    -1.41456E+06     100.294E+06     68.0179E+06     101.498E+03    -44.0104E-03     69.4495E-03    -25.4391E-03     1.72488E-03    -44.2788E-03     69.8716E-03    -25.2424E-03     1.59372E-03
             242     17.5428E-03     8.11703E-03    -1.73519E+06     101.021E+06     67.5724E+06     485.571E+03    -41.5501E-03     67.0648E-03    -25.5147E-03     1.13572E-03    -41.8194E-03     67.4906E-03    -25.3208E-03     1.02182E-03
             243     17.5424E-03     9.13008E-03    -1.88989E+06     102.108E+06     67.4048E+06     460.167E+03    -39.4613E-03     65.0445E-03    -25.5832E-03     960.647E-06    -39.7324E-03     65.4759E-03    -25.3915E-03     856.137E-06
             244     17.5422E-03     10.1416E-03    -1.72745E+06     102.978E+06     67.5095E+06     401.322E+03    -37.8792E-03     63.5134E-03    -25.6341E-03     1.28600E-03    -38.1512E-03     63.9490E-03    -25.4434E-03     1.18719E-03
             245     17.5422E-03     11.1520E-03    -1.75298E+06     103.852E+06     67.7442E+06     482.869E+03    -36.6995E-03     62.3636E-03    -25.6641E-03     1.98478E-03    -36.9739E-03     62.8041E-03    -25.4734E-03     1.89106E-03
             246     17.5424E-03     12.1616E-03    -1.76290E+06     104.867E+06     68.2657E+06     503.432E+03    -35.8271E-03     61.5036E-03    -25.6765E-03     2.89774E-03    -36.1050E-03     61.9495E-03    -25.4846E-03     2.80689E-03
             247     17.5428E-03     13.1704E-03    -1.92839E+06     105.705E+06     68.5991E+06     333.051E+03    -35.1861E-03     60.8608E-03    -25.6746E-03     3.85703E-03    -35.4678E-03     61.3119E-03    -25.4821E-03     3.76550E-03
             248     17.5431E-03     14.1788E-03    -1.75249E+06     106.100E+06     68.7025E+06     128.663E+03    -34.6831E-03     60.3493E-03    -25.6662E-03     4.74470E-03    -34.9659E-03     60.8033E-03    -25.4740E-03     4.65156E-03
             249     17.5435E-03     15.1867E-03    -1.75477E+06     106.268E+06     68.7606E+06     92.8351E+03    -34.1917E-03     59.8513E-03    -25.6596E-03     5.60738E-03    -34.4762E-03     60.3074E-03    -25.4673E-03     5.51498E-03
             250     17.5437E-03     16.1941E-03    -1.73148E+06     106.414E+06     68.8083E+06     77.2962E+03    -33.6527E-03     59.3099E-03    -25.6572E-03     6.42515E-03    -33.9387E-03     59.7679E-03    -25.4649E-03     6.33420E-03
             251     17.5440E-03     17.2009E-03    -1.74111E+06     106.574E+06     68.8223E+06     78.0856E+03    -33.0502E-03     58.7097E-03    -25.6596E-03     7.16254E-03    -33.3376E-03     59.1698E-03    -25.4675E-03     7.07382E-03
             252     17.5441E-03     18.2070E-03    -1.78609E+06     106.711E+06     68.7688E+06     38.8425E+03    -32.4056E-03     58.0713E-03    -25.6657E-03     7.83773E-03    -32.6944E-03     58.5332E-03    -25.4740E-03     7.75115E-03
             253     17.5443E-03     19.2124E-03    -1.57388E+06     106.994E+06     68.8434E+06     202.011E+03    -31.7516E-03     57.4258E-03    -25.6742E-03     8.42502E-03    -32.0409E-03     57.8897E-03    -25.4828E-03     8.34345E-03
             254     17.5444E-03     20.2171E-03    -1.76543E+06     107.693E+06     69.1665E+06     401.539E+03    -31.0932E-03     56.7786E-03    -25.6853E-03     8.92186E-03    -31.3857E-03     57.2465E-03    -25.4931E-03     8.84590E-03
             255     17.5444E-03     21.2211E-03    -1.94826E+06     108.403E+06     69.4432E+06     209.935E+03    -30.4550E-03     56.1522E-03    -25.6972E-03     9.34823E-03    -30.7505E-03     56.6243E-03    -25.5044E-03     9.27281E-03
             256     17.5445E-03     22.2244E-03    -1.77344E+06     108.680E+06     69.3737E+06     25.2641E+03    -29.8640E-03     55.5718E-03    -25.7078E-03     9.71185E-03    -30.1596E-03     56.0457E-03    -25.5159E-03     9.63699E-03
             257     17.5446E-03     23.2272E-03    -1.72912E+06     108.804E+06     69.2525E+06     77.3711E+03    -29.3102E-03     55.0284E-03    -25.7182E-03     10.0230E-03    -29.6061E-03     55.5035E-03    -25.5272E-03     9.95160E-03
             258     17.5446E-03     24.2294E-03    -1.78481E+06     109.044E+06     69.3949E+06     122.442E+03    -28.7867E-03     54.5158E-03    -25.7291E-03     10.2847E-03    -29.0838E-03     54.9924E-03    -25.5377E-03     10.2165E-03
             259     17.5446E-03     25.2311E-03    -1.79484E+06     109.310E+06     69.6252E+06     110.808E+03    -28.3056E-03     54.0450E-03    -25.7395E-03     10.5006E-03    -28.6038E-03     54.5230E-03    -25.5472E-03     10.4348E-03
             260     17.5447E-03     26.2324E-03    -1.80869E+06     109.529E+06     69.8234E+06     82.7434E+03    -27.8678E-03     53.6169E-03    -25.7490E-03     10.6763E-03    -28.1670E-03     54.0960E-03    -25.5561E-03     10.6123E-03
             261     17.5447E-03     27.2332E-03    -1.77596E+06     109.734E+06     69.9529E+06     91.0206E+03    -27.4729E-03     53.2307E-03    -25.7578E-03     10.8206E-03    -27.7726E-03     53.7108E-03    -25.5646E-03     10.7588E-03
             262     17.5447E-03     28.2336E-03    -1.80432E+06     109.965E+06     70.0006E+06     108.758E+03    -27.1219E-03     52.8875E-03    -25.7656E-03     10.9393E-03    -27.4223E-03     53.3689E-03    -25.5724E-03     10.8795E-03
             263     17.5448E-03     29.2337E-03    -1.85762E+06     110.131E+06     70.0306E+06     36.1598E+03    -26.8113E-03     52.5839E-03    -25.7725E-03     11.0359E-03    -27.1125E-03     53.0663E-03    -25.5794E-03     10.9769E-03
             264     17.5448E-03     30.2335E-03    -1.79247E+06     110.151E+06     70.0568E+06    -20.0217E+03    -26.5388E-03     52.3175E-03    -25.7787E-03     11.1140E-03    -26.8398E-03     52.8000E-03    -25.5855E-03     11.0558E-03
             265     17.5448E-03     31.2331E-03    -1.81104E+06     110.097E+06     70.0074E+06    -23.7348E+03    -26.3023E-03     52.0862E-03    -25.7839E-03     11.1770E-03    -26.6034E-03     52.5687E-03    -25.5909E-03     11.1199E-03
             266     17.5448E-03     32.2324E-03    -1.67846E+06     110.182E+06     70.0255E+06     97.4534E+03    -26.0956E-03     51.8841E-03    -25.7885E-03     11.2282E-03    -26.3962E-03     52.3668E-03    -25.5958E-03     11.1738E-03
             267     17.5448E-03     33.2315E-03    -1.78405E+06     110.583E+06     70.2346E+06     251.776E+03    -25.9063E-03     51.6999E-03    -25.7935E-03     11.2696E-03    -26.2084E-03     52.1845E-03    -25.6001E-03     11.2182E-03
             268     17.5448E-03     34.2305E-03    -1.93026E+06     111.023E+06     70.4670E+06     141.075E+03    -25.7419E-03     51.5400E-03    -25.7980E-03     11.3052E-03    -26.0457E-03     52.0267E-03    -25.6039E-03     11.2531E-03
             269     17.5448E-03     35.2293E-03    -1.81146E+06     111.187E+06     70.5614E+06     8.55461E+03    -25.6078E-03     51.4091E-03    -25.8012E-03     11.3349E-03    -25.9115E-03     51.8964E-03    -25.6070E-03     11.2819E-03
             270     17.5448E-03     36.2280E-03    -1.80729E+06     111.213E+06     70.5634E+06     14.3118E+03    -25.4936E-03     51.2976E-03    -25.8040E-03     11.3574E-03    -25.7972E-03     51.7850E-03    -25.6098E-03     11.3050E-03
             271     17.5448E-03     37.2266E-03    -1.81742E+06     111.244E+06     70.5592E+06     14.1805E+03    -25.3968E-03     51.2033E-03    -25.8064E-03     11.3764E-03    -25.7006E-03     51.6909E-03    -25.6123E-03     11.3245E-03
             272     17.5448E-03     38.2251E-03    -1.81149E+06     111.268E+06     70.5614E+06     6.80873E+03    -25.3148E-03     51.1233E-03    -25.8084E-03     11.3918E-03    -25.6186E-03     51.6110E-03    -25.6143E-03     11.3402E-03
             273     17.5448E-03     39.2236E-03    -1.81705E+06     111.276E+06     70.5856E+06     3.04272E+03    -25.2466E-03     51.0568E-03    -25.8102E-03     11.4023E-03    -25.5505E-03     51.5445E-03    -25.6160E-03     11.3510E-03
             274     17.5448E-03     40.2220E-03    -1.81701E+06     111.271E+06     70.6466E+06    -2.36849E+03    -25.1972E-03     51.0093E-03    -25.8120E-03     11.4090E-03    -25.5012E-03     51.4969E-03    -25.6175E-03     11.3580E-03
             275     17.5448E-03     41.2203E-03    -1.81137E+06     111.263E+06     70.6473E+06    -15.0679E+03    -25.1490E-03     50.9625E-03    -25.8135E-03     11.4134E-03    -25.4529E-03     51.4501E-03    -25.6190E-03     11.3625E-03
             276     17.5448E-03     42.2185E-03    -1.81432E+06     111.229E+06     70.5453E+06    -12.4088E+03    -25.1011E-03     50.9146E-03    -25.8135E-03     11.4204E-03    -25.4049E-03     51.4022E-03    -25.6194E-03     11.3697E-03
             277     17.5448E-03     43.2168E-03    -1.79948E+06     111.182E+06     70.5141E+06    -9.55813E+03    -25.0605E-03     50.8729E-03    -25.8124E-03     11.4253E-03    -25.3641E-03     51.3603E-03    -25.6184E-03     11.3749E-03
             278     17.5449E-03     44.2150E-03    -1.80990E+06     111.153E+06     70.5151E+06         322.306    -25.0186E-03     50.8296E-03    -25.8110E-03     11.4273E-03    -25.3222E-03     51.3168E-03    -25.6170E-03     11.3771E-03
             279     17.5449E-03     45.2131E-03    -1.80128E+06     111.171E+06     70.4878E+06     21.3637E+03    -24.9969E-03     50.8066E-03    -25.8097E-03     11.4186E-03    -25.3005E-03     51.2940E-03    -25.6158E-03     11.3688E-03
             280     17.5449E-03     46.2113E-03    -1.79815E+06     111.234E+06     70.5475E+06     36.3259E+03    -24.9867E-03     50.7957E-03    -25.8090E-03     11.4090E-03    -25.2904E-03     51.2833E-03    -25.6149E-03     11.3594E-03
             281     17.5450E-03     47.2094E-03    -1.85004E+06     111.255E+06     70.6146E+06     7.82461E+03    -24.9727E-03     50.7814E-03    -25.8087E-03     11.4017E-03    -25.2768E-03     51.2691E-03    -25.6143E-03     11.3518E-03
             282     17.5450E-03     48.2076E-03    -1.81444E+06     111.219E+06     70.6500E+06    -36.8289E+03    -24.9640E-03     50.7733E-03    -25.8093E-03     11.4035E-03    -25.2679E-03     51.2607E-03    -25.6147E-03     11.3530E-03
             283     17.5449E-03     49.2057E-03    -1.76479E+06     111.216E+06     70.6694E+06     15.5130E+03    -24.9560E-03     50.7662E-03    -25.8103E-03     11.4132E-03    -25.2596E-03     51.2535E-03    -25.6156E-03     11.3635E-03
             284     17.5449E-03     50.2038E-03    -1.82110E+06     111.297E+06     70.6810E+06     63.3013E+03    -24.9508E-03     50.7614E-03    -25.8106E-03     11.4076E-03    -25.2549E-03     51.2492E-03    -25.6159E-03     11.3586E-03
             285     17.5449E-03     51.2019E-03    -1.84073E+06     111.384E+06     70.7231E+06     24.1086E+03    -24.9496E-03     50.7603E-03    -25.8107E-03     11.4021E-03    -25.2540E-03     51.2484E-03    -25.6159E-03     11.3526E-03
             286     17.5449E-03     52.2000E-03    -1.81254E+06     111.402E+06     70.7354E+06    -4.46841E+03    -24.9466E-03     50.7573E-03    -25.8107E-03     11.4008E-03    -25.2509E-03     51.2455E-03    -25.6159E-03     11.3509E-03
             287     17.5449E-03     53.1981E-03    -1.81654E+06     111.387E+06     70.7208E+06    -5.38628E+03    -24.9409E-03     50.7517E-03    -25.8108E-03     11.3981E-03    -25.2451E-03     51.2398E-03    -25.6161E-03     11.3483E-03
             288     17.5449E-03     54.1962E-03    -1.81560E+06     111.367E+06     70.7118E+06    -9.44388E+03    -24.9347E-03     50.7456E-03    -25.8109E-03     11.3939E-03    -25.2389E-03     51.2336E-03    -25.6162E-03     11.3440E-03
             289     17.5449E-03     55.1943E-03    -1.80881E+06     111.346E+06     70.6965E+06    -4.04236E+03    -24.9306E-03     50.7416E-03    -25.8110E-03     11.3875E-03    -25.2346E-03     51.2295E-03    -25.6163E-03     11.3377E-03
             290     17.5449E-03     56.1923E-03    -1.82479E+06     111.322E+06     70.6763E+06    -11.2309E+03    -24.9288E-03     50.7398E-03    -25.8110E-03     11.3822E-03    -25.2328E-03     51.2276E-03    -25.6164E-03     11.3323E-03
             291     17.5449E-03     57.1904E-03    -1.82018E+06     111.268E+06     70.6134E+06    -32.1667E+03    -24.9300E-03     50.7409E-03    -25.8109E-03     11.3777E-03    -25.2339E-03     51.2285E-03    -25.6165E-03     11.3276E-03
             292     877.045E-06     58.4992E-03    -46.5115E+06    -128.081E+06    -45.3466E+06     9.23414E+03    -25.8635E-03     51.7200E-03    -25.8565E-03     5.58710E-03    -25.8448E-03     51.2130E-03    -25.8301E-03     5.58393E-03
             293     1.75410E-03     58.5066E-03    -44.8528E+06    -124.993E+06    -40.5540E+06     22.3625E+03    -25.8613E-03     51.7343E-03    -25.8730E-03     10.2463E-03    -25.8460E-03     51.2337E-03    -25.8295E-03     10.2404E-03
             294     2.63117E-03     58.5186E-03    -42.3181E+06    -120.370E+06    -33.5810E+06     28.4466E+03    -25.8681E-03     51.7580E-03    -25.8900E-03     15.1125E-03    -25.8576E-03     51.2674E-03    -25.8220E-03     15.1032E-03
             295     3.50826E-03     58.5352E-03    -39.1840E+06    -114.156E+06    -25.7579E+06     41.8012E+03    -25.8820E-03     51.7881E-03    -25.9060E-03     19.9480E-03    -25.8773E-03     51.3136E-03    -25.8125E-03     19.9349E-03
             296     4.38537E-03     58.5564E-03    -35.7780E+06    -106.596E+06    -18.4382E+06     55.8134E+03    -25.9062E-03     51.8221E-03    -25.9159E-03     24.7014E-03    -25.9075E-03     51.3715E-03    -25.8017E-03     24.6839E-03
             297     5.26251E-03     58.5820E-03    -32.3666E+06    -98.0387E+06    -12.1418E+06     65.8877E+03    -25.9410E-03     51.8596E-03    -25.9187E-03     29.3454E-03    -25.9488E-03     51.4398E-03    -25.7903E-03     29.3225E-03
             298     6.13967E-03     58.6120E-03    -29.1032E+06    -89.8594E+06    -6.79012E+06     70.6910E+03    -25.9882E-03     51.9056E-03    -25.9174E-03     33.8460E-03    -26.0022E-03     51.5170E-03    -25.7789E-03     33.8168E-03
             299     7.01684E-03     58.6462E-03    -26.0535E+06    -81.7148E+06    -2.43089E+06     75.2265E+03    -26.0442E-03     51.9561E-03    -25.9119E-03     38.1780E-03    -26.0650E-03     51.6014E-03    -25.7678E-03     38.1414E-03
             300     7.89403E-03     58.6844E-03    -23.2370E+06    -74.2846E+06     853.115E+03     78.1817E+03    -26.1084E-03     52.0113E-03    -25.9029E-03     42.2821E-03    -26.1360E-03     51.6902E-03    -25.7572E-03     42.2369E-03
             301     8.77123E-03     58.7263E-03    -20.6987E+06    -67.8813E+06     2.94275E+06     76.5961E+03    -26.1790E-03     52.0696E-03    -25.8906E-03     46.1002E-03    -26.2132E-03     51.7807E-03    -25.7474E-03     46.0448E-03
             302     9.64844E-03     58.7718E-03    -18.5013E+06    -59.9693E+06     3.85940E+06     79.2639E+03    -26.2432E-03     52.1146E-03    -25.8714E-03     49.5929E-03    -26.2883E-03     51.8700E-03    -25.7383E-03     49.5261E-03
             303     10.5257E-03     58.8203E-03    -16.6249E+06    -51.7748E+06     4.33062E+06     75.7429E+03    -26.2970E-03     52.1475E-03    -25.8506E-03     52.6426E-03    -26.3574E-03     51.9526E-03    -25.7297E-03     52.5628E-03
             304     11.4029E-03     58.8715E-03    -15.0329E+06    -41.7221E+06     3.77148E+06     59.4884E+03    -26.3293E-03     52.1519E-03    -25.8226E-03     55.0931E-03    -26.4114E-03     52.0215E-03    -25.7214E-03     54.9990E-03
             305     12.2801E-03     58.9247E-03    -13.6764E+06    -26.5957E+06     4.01967E+06     42.2040E+03    -26.3225E-03     52.1137E-03    -25.7913E-03     57.0575E-03    -26.4410E-03     52.0777E-03    -25.7128E-03     56.9484E-03
             306     13.1574E-03     58.9796E-03    -12.5256E+06    -8.30335E+06     3.01295E+06     20.4240E+03    -26.2938E-03     52.0424E-03    -25.7486E-03     58.8087E-03    -26.4619E-03     52.1278E-03    -25.7033E-03     58.6843E-03
             307     14.0347E-03     59.0360E-03    -11.3366E+06     37.1916E+06     10.1115E+06     4.99725E+03    -26.1410E-03     51.8449E-03    -25.7039E-03     60.6442E-03    -26.4145E-03     52.1808E-03    -25.6908E-03     60.5128E-03
             308     14.9122E-03     59.0944E-03    -9.55735E+06     88.0688E+06     28.0447E+06     9.66275E+03    -25.7559E-03     51.4549E-03    -25.6991E-03     55.3401E-03    -26.1270E-03     52.0235E-03    -25.6727E-03     55.2214E-03
             309     15.7897E-03     59.1408E-03    -6.92971E+06     110.142E+06     47.9848E+06     91.0193E+03    -25.3267E-03     51.0675E-03    -25.7408E-03     43.0427E-03    -25.7300E-03     51.6981E-03    -25.6506E-03     42.9457E-03
             310     16.6673E-03     59.1759E-03    -3.61320E+06     114.478E+06     64.9704E+06     166.115E+03    -25.0352E-03     50.8270E-03    -25.7918E-03     24.2063E-03    -25.3960E-03     51.3929E-03    -25.6277E-03     24.1389E-03
             311     877.045E-06     59.4973E-03    -46.5108E+06    -128.106E+06    -45.3431E+06     11.0816E+03    -25.8644E-03     51.7222E-03    -25.8577E-03     5.58773E-03    -25.8457E-03     51.2150E-03    -25.8312E-03     5.58458E-03
             312     1.75410E-03     59.5047E-03    -44.8476E+06    -125.019E+06    -40.5512E+06     17.6020E+03    -25.8620E-03     51.7361E-03    -25.8740E-03     10.2479E-03    -25.8467E-03     51.2353E-03    -25.8305E-03     10.2419E-03
             313     2.63117E-03     59.5167E-03    -42.3180E+06    -120.402E+06    -33.5844E+06     29.6808E+03    -25.8687E-03     51.7595E-03    -25.8909E-03     15.1149E-03    -25.8582E-03     51.2688E-03    -25.8228E-03     15.1057E-03
             314     3.50826E-03     59.5333E-03    -39.1888E+06    -114.194E+06    -25.7593E+06     46.7377E+03    -25.8824E-03     51.7893E-03    -25.9068E-03     19.9514E-03    -25.8776E-03     51.3147E-03    -25.8132E-03     19.9383E-03
             315     4.38537E-03     59.5545E-03    -35.7811E+06    -106.632E+06    -18.4396E+06     64.0258E+03    -25.9064E-03     51.8230E-03    -25.9166E-03     24.7056E-03    -25.9076E-03     51.3722E-03    -25.8023E-03     24.6881E-03
             316     5.26251E-03     59.5802E-03    -32.3705E+06    -98.0697E+06    -12.1431E+06     78.1250E+03    -25.9411E-03     51.8604E-03    -25.9193E-03     29.3501E-03    -25.9489E-03     51.4404E-03    -25.7908E-03     29.3274E-03
             317     6.13966E-03     59.6101E-03    -29.1033E+06    -89.8871E+06    -6.78867E+06     91.4403E+03    -25.9882E-03     51.9061E-03    -25.9179E-03     33.8510E-03    -26.0022E-03     51.5174E-03    -25.7793E-03     33.8221E-03
             318     7.01684E-03     59.6443E-03    -26.0427E+06    -81.7279E+06    -2.42255E+06     90.8504E+03    -26.0439E-03     51.9562E-03    -25.9123E-03     38.1832E-03    -26.0647E-03     51.6014E-03    -25.7681E-03     38.1468E-03
             319     7.89403E-03     59.6825E-03    -23.2365E+06    -74.2885E+06     857.763E+03     73.2273E+03    -26.1078E-03     52.0110E-03    -25.9032E-03     42.2875E-03    -26.1353E-03     51.6898E-03    -25.7575E-03     42.2421E-03
             320     8.77123E-03     59.7244E-03    -20.7296E+06    -67.9106E+06     2.93241E+06     78.0791E+03    -26.1782E-03     52.0690E-03    -25.8908E-03     46.1051E-03    -26.2125E-03     51.7801E-03    -25.7476E-03     46.0497E-03
             321     9.64844E-03     59.7699E-03    -18.5433E+06    -59.9893E+06     3.85052E+06     93.4178E+03    -26.2424E-03     52.1139E-03    -25.8715E-03     49.5970E-03    -26.2877E-03     51.8693E-03    -25.7384E-03     49.5303E-03
             322     10.5257E-03     59.8184E-03    -16.6611E+06    -51.7704E+06     4.32592E+06     85.7073E+03    -26.2961E-03     52.1467E-03    -25.8506E-03     52.6457E-03    -26.3567E-03     51.9519E-03    -25.7297E-03     52.5660E-03
             323     11.4029E-03     59.8696E-03    -15.0761E+06    -41.7123E+06     3.76343E+06     67.9186E+03    -26.3284E-03     52.1510E-03    -25.8225E-03     55.0945E-03    -26.4107E-03     52.0207E-03    -25.7214E-03     55.0005E-03
             324     12.2801E-03     59.9228E-03    -13.7351E+06    -26.5838E+06     4.00345E+06     47.7036E+03    -26.3217E-03     52.1128E-03    -25.7912E-03     57.0573E-03    -26.4405E-03     52.0769E-03    -25.7127E-03     56.9483E-03
             325     13.1574E-03     59.9777E-03    -12.6041E+06    -8.29056E+06     2.98966E+06     32.8173E+03    -26.2932E-03     52.0416E-03    -25.7484E-03     58.8064E-03    -26.4617E-03     52.1273E-03    -25.7032E-03     58.6821E-03
             326     14.0347E-03     60.0341E-03    -11.4410E+06     37.2024E+06     10.0754E+06     15.3848E+03    -26.1407E-03     51.8444E-03    -25.7037E-03     60.6399E-03    -26.4147E-03     52.1806E-03    -25.6907E-03     60.5086E-03
             327     14.9122E-03     60.0925E-03    -9.70503E+06     88.0197E+06     27.9689E+06     33.7970E+03    -25.7557E-03     51.4546E-03    -25.6989E-03     55.3336E-03    -26.1274E-03     52.0232E-03    -25.6726E-03     55.2153E-03
             328     15.7897E-03     60.1389E-03    -7.11843E+06     109.990E+06     47.8618E+06     114.027E+03    -25.3262E-03     51.0668E-03    -25.7407E-03     43.0359E-03    -25.7300E-03     51.6971E-03    -25.6505E-03     42.9392E-03
             329     16.6673E-03     60.1739E-03    -3.75498E+06     114.507E+06     64.9910E+06     119.922E+03    -25.0328E-03     50.8248E-03    -25.7920E-03     24.2006E-03    -25.3943E-03     51.3910E-03    -25.6277E-03     24.1326E-03
             330     877.042E-06     60.4954E-03    -46.4945E+06    -128.128E+06     -45.338E+06     11.2806E+03    -25.8649E-03     51.7235E-03    -25.8585E-03     5.58880E-03    -25.8461E-03     51.2162E-03    -25.8320E-03     5.58565E-03
             331     1.75410E-03     60.5028E-03    -44.8492E+06    -125.053E+06    -40.5526E+06     20.5512E+03    -25.8623E-03     51.7368E-03    -25.8746E-03     10.2498E-03    -25.8469E-03     51.2359E-03    -25.8310E-03     10.2438E-03
             332     2.63117E-03     60.5148E-03    -42.3282E+06    -120.438E+06    -33.5859E+06     38.8104E+03    -25.8688E-03     51.7601E-03    -25.8913E-03     15.1176E-03    -25.8583E-03     51.2692E-03    -25.8232E-03     15.1084E-03
             333     3.50826E-03     60.5314E-03    -39.1997E+06    -114.233E+06    -25.7658E+06     52.8169E+03    -25.8826E-03     51.7898E-03    -25.9072E-03     19.9544E-03    -25.8778E-03     51.3150E-03    -25.8135E-03     19.9415E-03
             334     4.38537E-03     60.5526E-03    -35.7915E+06    -106.674E+06    -18.4451E+06     70.6183E+03    -25.9065E-03     51.8234E-03    -25.9169E-03     24.7091E-03    -25.9077E-03     51.3724E-03    -25.8026E-03     24.6917E-03
             335     5.26251E-03     60.5783E-03    -32.3757E+06    -98.1064E+06    -12.1466E+06     87.8209E+03    -25.9409E-03     51.8604E-03    -25.9195E-03     29.3541E-03    -25.9487E-03     51.4402E-03    -25.7910E-03     29.3315E-03
             336     6.13966E-03     60.6082E-03    -29.0978E+06    -89.9216E+06    -6.78780E+06     98.9356E+03    -25.9877E-03     51.9058E-03    -25.9181E-03     33.8554E-03    -26.0017E-03     51.5169E-03    -25.7794E-03     33.8266E-03
             337     7.01684E-03     60.6424E-03    -26.0290E+06    -81.7334E+06    -2.40580E+06     97.8965E+03    -26.0434E-03     51.9558E-03    -25.9124E-03     38.1875E-03    -26.0642E-03     51.6010E-03    -25.7682E-03     38.1512E-03
             338     7.89403E-03     60.6806E-03    -23.2297E+06    -74.2971E+06     877.900E+03     96.7425E+03    -26.1074E-03     52.0107E-03    -25.9032E-03     42.2910E-03    -26.1350E-03     51.6894E-03    -25.7574E-03     42.2460E-03
             339     8.77123E-03     60.7226E-03    -20.7357E+06    -67.9479E+06     2.93472E+06     105.927E+03    -26.1778E-03     52.0686E-03    -25.8907E-03     46.1083E-03    -26.2121E-03     51.7795E-03    -25.7475E-03     46.0533E-03
             340     9.64844E-03     60.7680E-03    -18.5555E+06    -60.0039E+06     3.84867E+06     108.595E+03    -26.2419E-03     52.1133E-03    -25.8714E-03     49.6003E-03    -26.2872E-03     51.8686E-03    -25.7383E-03     49.5338E-03
             341     10.5257E-03     60.8165E-03    -16.6791E+06    -51.7703E+06     4.32648E+06     102.033E+03    -26.2956E-03     52.1460E-03    -25.8504E-03     52.6477E-03    -26.3563E-03     51.9512E-03    -25.7296E-03     52.5682E-03
             342     11.4029E-03     60.8677E-03    -15.1000E+06    -41.7066E+06     3.75937E+06     91.3475E+03    -26.3279E-03     52.1502E-03    -25.8223E-03     55.0953E-03    -26.4103E-03     52.0200E-03    -25.7212E-03     55.0016E-03
             343     12.2801E-03     60.9209E-03    -13.7703E+06    -26.5717E+06     3.99565E+06     76.6969E+03    -26.3212E-03     52.1122E-03    -25.7909E-03     57.0566E-03    -26.4403E-03     52.0764E-03    -25.7125E-03     56.9480E-03
             344     13.1574E-03     60.9758E-03    -12.6474E+06    -8.28791E+06     2.96980E+06     63.0142E+03    -26.2929E-03     52.0411E-03    -25.7482E-03     58.8041E-03    -26.4616E-03     52.1269E-03    -25.7030E-03     58.6802E-03
             345     14.0347E-03     61.0322E-03    -11.4933E+06     37.2093E+06     10.0524E+06     59.4690E+03    -26.1406E-03     51.8441E-03    -25.7035E-03     60.6357E-03    -26.4148E-03     52.1804E-03    -25.6905E-03     60.5050E-03
             346     14.9122E-03     61.0906E-03    -9.75442E+06     87.9497E+06     27.9307E+06     85.7763E+03    -25.7560E-03     51.4548E-03    -25.6987E-03     55.3271E-03    -26.1278E-03     52.0232E-03    -25.6725E-03     55.2094E-03
             347     15.7897E-03     61.1370E-03    -7.08912E+06     109.947E+06     47.8581E+06     85.9661E+03    -25.3267E-03     51.0672E-03    -25.7405E-03     43.0287E-03    -25.7303E-03     51.6972E-03    -25.6504E-03     42.9316E-03
             348     16.6673E-03     61.1720E-03    -3.66777E+06     114.581E+06     65.0288E+06     27.4715E+03    -25.0342E-03     50.8261E-03    -25.7919E-03     24.1943E-03    -25.3954E-03     51.3925E-03    -25.6276E-03     24.1251E-03
             349     877.045E-06     61.4935E-03    -46.5104E+06    -128.160E+06    -45.3472E+06     13.1326E+03    -25.8649E-03     51.7233E-03    -25.8584E-03     5.58919E-03    -25.8460E-03     51.2159E-03    -25.8319E-03     5.58607E-03
             350     1.75410E-03     61.5009E-03    -44.8611E+06    -125.094E+06    -40.5539E+06     30.5934E+03    -25.8623E-03     51.7369E-03    -25.8746E-03     10.2508E-03    -25.8470E-03     51.2358E-03    -25.8309E-03     10.2450E-03
             351     2.63117E-03     61.5129E-03    -42.3330E+06    -120.477E+06    -33.5940E+06     47.4430E+03    -25.8688E-03     51.7601E-03    -25.8913E-03     15.1193E-03    -25.8583E-03     51.2690E-03    -25.8232E-03     15.1103E-03
             352     3.50826E-03     61.5295E-03    -39.2041E+06    -114.272E+06    -25.7651E+06     62.3983E+03    -25.8826E-03     51.7899E-03    -25.9072E-03     19.9569E-03    -25.8778E-03     51.3149E-03    -25.8135E-03     19.9440E-03
             353     4.38537E-03     61.5507E-03    -35.7965E+06    -106.718E+06    -18.4441E+06     77.3898E+03    -25.9064E-03     51.8234E-03    -25.9170E-03     24.7119E-03    -25.9076E-03     51.3722E-03    -25.8026E-03     24.6946E-03
             354     5.26251E-03     61.5764E-03    -32.3805E+06    -98.1469E+06    -12.1492E+06     93.0898E+03    -25.9405E-03     51.8600E-03    -25.9195E-03     29.3572E-03    -25.9483E-03     51.4396E-03    -25.7910E-03     29.3347E-03
             355     6.13966E-03     61.6064E-03    -29.1065E+06    -89.9523E+06      -6.787E+06     103.329E+03    -25.9872E-03     51.9052E-03    -25.9180E-03     33.8587E-03    -26.0011E-03     51.5161E-03    -25.7793E-03     33.8299E-03
             356     7.01684E-03     61.6405E-03    -26.0468E+06    -81.7524E+06    -2.40660E+06     109.196E+03    -26.0428E-03     51.9551E-03    -25.9122E-03     38.1908E-03    -26.0636E-03     51.6002E-03    -25.7680E-03     38.1546E-03
             357     7.89403E-03     61.6787E-03    -23.2453E+06    -74.3310E+06     875.233E+03     122.276E+03    -26.1071E-03     52.0101E-03    -25.9030E-03     42.2938E-03    -26.1346E-03     51.6887E-03    -25.7572E-03     42.2491E-03
             358     8.77123E-03     61.7207E-03    -20.7366E+06    -67.9728E+06     2.93591E+06     131.331E+03    -26.1776E-03     52.0681E-03    -25.8905E-03     46.1110E-03    -26.2118E-03     51.7789E-03    -25.7472E-03     46.0563E-03
             359     9.64844E-03     61.7661E-03    -18.5508E+06    -60.0153E+06     3.84771E+06     128.372E+03    -26.2415E-03     52.1126E-03    -25.8712E-03     49.6031E-03    -26.2868E-03     51.8679E-03    -25.7380E-03     49.5368E-03
             360     10.5257E-03     61.8147E-03    -16.6758E+06    -51.7812E+06     4.32837E+06     125.262E+03    -26.2953E-03     52.1454E-03    -25.8502E-03     52.6493E-03    -26.3559E-03     51.9505E-03    -25.7293E-03     52.5701E-03
             361     11.4029E-03     61.8658E-03    -15.0978E+06    -41.7088E+06     3.76486E+06     120.761E+03    -26.3277E-03     52.1497E-03    -25.8221E-03     55.0954E-03    -26.4100E-03     52.0195E-03    -25.7209E-03     55.0020E-03
             362     12.2801E-03     61.9190E-03    -13.7646E+06    -26.5718E+06     4.00264E+06     114.677E+03    -26.3211E-03     52.1118E-03    -25.7907E-03     57.0554E-03    -26.4401E-03     52.0760E-03    -25.7122E-03     56.9473E-03
             363     13.1574E-03     61.9739E-03    -12.6427E+06    -8.28060E+06     2.97874E+06     102.270E+03    -26.2929E-03     52.0409E-03    -25.7479E-03     58.8011E-03    -26.4616E-03     52.1267E-03    -25.7027E-03     58.6777E-03
             364     14.0347E-03     62.0304E-03    -11.4774E+06     37.1874E+06     10.0570E+06     101.680E+03    -26.1408E-03     51.8440E-03    -25.7033E-03     60.6306E-03    -26.4148E-03     52.1802E-03    -25.6903E-03     60.5004E-03
             365     14.9122E-03     62.0887E-03    -9.67585E+06     87.9470E+06     27.9686E+06     77.8205E+03    -25.7567E-03     51.4553E-03    -25.6986E-03     55.3205E-03    -26.1281E-03     52.0235E-03    -25.6723E-03     55.2028E-03
             366     15.7897E-03     62.1351E-03    -6.98740E+06     110.000E+06     47.9227E+06     10.4506E+03    -25.3284E-03     51.0689E-03    -25.7405E-03     43.0220E-03    -25.7316E-03     51.6989E-03    -25.6503E-03     42.9239E-03
             367     16.6673E-03     62.1701E-03    -3.62834E+06     114.602E+06     65.0364E+06    -14.9857E+03    -25.0367E-03     50.8285E-03    -25.7918E-03     24.1894E-03    -25.3977E-03     51.3949E-03    -25.6276E-03     24.1197E-03
             368     877.043E-06     62.4916E-03    -46.5294E+06    -128.202E+06    -45.3554E+06     18.8891E+03    -25.8647E-03     51.7229E-03    -25.8581E-03     5.58921E-03    -25.8459E-03     51.2153E-03    -25.8316E-03     5.58616E-03
             369     1.75410E-03     62.4990E-03    -44.8713E+06    -125.140E+06    -40.5681E+06     36.2460E+03    -25.8623E-03     51.7366E-03    -25.8744E-03     10.2511E-03    -25.8469E-03     51.2353E-03    -25.8307E-03     10.2453E-03
             370     2.63117E-03     62.5110E-03    -42.3442E+06    -120.523E+06    -33.6068E+06     55.0909E+03    -25.8686E-03     51.7598E-03    -25.8911E-03     15.1204E-03    -25.8581E-03     51.2685E-03    -25.8230E-03     15.1114E-03
             371     3.50826E-03     62.5276E-03    -39.2129E+06    -114.313E+06    -25.7691E+06     70.3514E+03    -25.8823E-03     51.7894E-03    -25.9071E-03     19.9588E-03    -25.8774E-03     51.3142E-03    -25.8133E-03     19.9461E-03
             372     4.38537E-03     62.5488E-03    -35.8029E+06    -106.763E+06    -18.4418E+06     86.4807E+03    -25.9061E-03     51.8230E-03    -25.9168E-03     24.7141E-03    -25.9073E-03     51.3715E-03    -25.8023E-03     24.6970E-03
             373     5.26251E-03     62.5745E-03    -32.3919E+06    -98.1906E+06    -12.1490E+06     104.335E+03    -25.9403E-03     51.8596E-03    -25.9193E-03     29.3596E-03    -25.9480E-03     51.4390E-03    -25.7907E-03     29.3372E-03
             374     6.13967E-03     62.6044E-03    -29.1233E+06    -89.9825E+06    -6.79319E+06     115.047E+03    -25.9868E-03     51.9045E-03    -25.9178E-03     33.8612E-03    -26.0008E-03     51.5154E-03    -25.7790E-03     33.8325E-03
             375     7.01684E-03     62.6386E-03    -26.0623E+06    -81.7870E+06    -2.41731E+06     125.105E+03    -26.0423E-03     51.9543E-03    -25.9120E-03     38.1932E-03    -26.0631E-03     51.5992E-03    -25.7677E-03     38.1573E-03
             376     7.89403E-03     62.6768E-03    -23.2556E+06    -74.3708E+06     866.408E+03     138.111E+03    -26.1066E-03     52.0093E-03    -25.9028E-03     42.2960E-03    -26.1341E-03     51.6878E-03    -25.7569E-03     42.2515E-03
             377     8.77124E-03     62.7188E-03    -20.7423E+06    -67.9966E+06     2.93337E+06     145.723E+03    -26.1772E-03     52.0674E-03    -25.8902E-03     46.1130E-03    -26.2114E-03     51.7780E-03    -25.7469E-03     46.0585E-03
             378     9.64845E-03     62.7642E-03    -18.5517E+06    -60.0306E+06     3.84505E+06     146.381E+03    -26.2413E-03     52.1121E-03    -25.8708E-03     49.6050E-03    -26.2866E-03     51.8673E-03    -25.7376E-03     49.5390E-03
             379     10.5257E-03     62.8128E-03    -16.6723E+06    -51.7998E+06     4.32704E+06     145.772E+03    -26.2952E-03     52.1450E-03    -25.8499E-03     52.6502E-03    -26.3558E-03     51.9500E-03    -25.7289E-03     52.5713E-03
             380     11.4029E-03     62.8639E-03    -15.0895E+06    -41.7237E+06     3.77092E+06     148.709E+03    -26.3276E-03     52.1494E-03    -25.8218E-03     55.0947E-03    -26.4100E-03     52.0191E-03    -25.7206E-03     55.0017E-03
             381     12.2802E-03     62.9171E-03    -13.7514E+06    -26.5786E+06     4.01281E+06     145.361E+03    -26.3212E-03     52.1116E-03    -25.7904E-03     57.0535E-03    -26.4401E-03     52.0757E-03    -25.7119E-03     56.9458E-03
             382     13.1574E-03     62.9720E-03    -12.6163E+06    -8.27953E+06     3.00038E+06     137.051E+03    -26.2931E-03     52.0409E-03    -25.7477E-03     58.7974E-03    -26.4617E-03     52.1266E-03    -25.7024E-03     58.6745E-03
             383     14.0347E-03     63.0285E-03    -11.4204E+06     37.1965E+06     10.0913E+06     104.386E+03    -26.1412E-03     51.8443E-03    -25.7031E-03     60.6254E-03    -26.4150E-03     52.1804E-03    -25.6900E-03     60.4953E-03
             384     14.9122E-03     63.0868E-03    -9.61679E+06     88.0157E+06     28.0211E+06     34.9430E+03    -25.7572E-03     51.4557E-03    -25.6985E-03     55.3144E-03    -26.1285E-03     52.0241E-03    -25.6721E-03     55.1961E-03
             385     15.7897E-03     63.1332E-03    -6.97038E+06     110.045E+06     47.9579E+06    -16.6009E+03    -25.3295E-03     51.0699E-03    -25.7405E-03     43.0157E-03    -25.7327E-03     51.7000E-03    -25.6501E-03     42.9173E-03
             386     16.6673E-03     63.1682E-03    -3.63298E+06     114.574E+06     65.0223E+06    -18.3331E+03    -25.0385E-03     50.8303E-03    -25.7918E-03     24.1846E-03    -25.3995E-03     51.3966E-03    -25.6275E-03     24.1148E-03
             387     877.046E-06     63.4897E-03    -46.5338E+06    -128.254E+06    -45.3745E+06     25.7262E+03    -25.8645E-03     51.7221E-03    -25.8576E-03     5.59014E-03    -25.8455E-03     51.2143E-03    -25.8311E-03     5.58718E-03
             388     1.75410E-03     63.4971E-03    -44.8862E+06    -125.191E+06    -40.5945E+06     44.3903E+03    -25.8620E-03     51.7360E-03    -25.8739E-03     10.2523E-03    -25.8466E-03     51.2345E-03    -25.8303E-03     10.2466E-03
             389     2.63117E-03     63.5091E-03    -42.3651E+06    -120.572E+06    -33.6223E+06     61.3717E+03    -25.8684E-03     51.7592E-03    -25.8908E-03     15.1219E-03    -25.8578E-03     51.2677E-03    -25.8227E-03     15.1130E-03
             390     3.50826E-03     63.5257E-03    -39.2334E+06    -114.358E+06    -25.7803E+06     78.1332E+03    -25.8819E-03     51.7886E-03    -25.9068E-03     19.9606E-03    -25.8770E-03     51.3133E-03    -25.8129E-03     19.9480E-03
             391     4.38537E-03     63.5469E-03    -35.8251E+06    -106.814E+06    -18.4502E+06     98.4828E+03    -25.9057E-03     51.8222E-03    -25.9165E-03     24.7160E-03    -25.9069E-03     51.3705E-03    -25.8020E-03     24.6990E-03
             392     5.26251E-03     63.5726E-03    -32.4093E+06    -98.2360E+06    -12.1556E+06     117.243E+03    -25.9400E-03     51.8590E-03    -25.9190E-03     29.3616E-03    -25.9478E-03     51.4382E-03    -25.7903E-03     29.3394E-03
             393     6.13967E-03     63.6026E-03    -29.1350E+06    -90.0159E+06    -6.80426E+06     127.691E+03    -25.9866E-03     51.9040E-03    -25.9174E-03     33.8634E-03    -26.0006E-03     51.5147E-03    -25.7787E-03     33.8349E-03
             394     7.01684E-03     63.6367E-03    -26.0710E+06    -81.8265E+06    -2.42890E+06     136.863E+03    -26.0421E-03     51.9537E-03    -25.9116E-03     38.1954E-03    -26.0629E-03     51.5985E-03    -25.7673E-03     38.1596E-03
             395     7.89404E-03     63.6749E-03    -23.2599E+06    -74.4083E+06     859.020E+03     147.932E+03    -26.1062E-03     52.0086E-03    -25.9024E-03     42.2979E-03    -26.1337E-03     51.6869E-03    -25.7565E-03     42.2535E-03
             396     8.77124E-03     63.7169E-03    -20.7418E+06    -68.0254E+06     2.93180E+06     156.142E+03    -26.1769E-03     52.0668E-03    -25.8899E-03     46.1145E-03    -26.2110E-03     51.7773E-03    -25.7465E-03     46.0601E-03
             397     9.64845E-03     63.7623E-03    -18.5476E+06    -60.0520E+06     3.84535E+06     159.433E+03    -26.2411E-03     52.1116E-03    -25.8705E-03     49.6064E-03    -26.2864E-03     51.8667E-03    -25.7373E-03     49.5406E-03
             398     10.5257E-03     63.8109E-03    -16.6659E+06    -51.8242E+06     4.32584E+06     162.983E+03    -26.2951E-03     52.1447E-03    -25.8496E-03     52.6508E-03    -26.3557E-03     51.9496E-03    -25.7286E-03     52.5721E-03
             399     11.4029E-03     63.8621E-03    -15.0770E+06    -41.7474E+06     3.77331E+06     166.951E+03    -26.3277E-03     52.1492E-03    -25.8215E-03     55.0941E-03    -26.4099E-03     52.0188E-03    -25.7202E-03     55.0014E-03
             400     12.2802E-03     63.9152E-03    -13.7283E+06    -26.5905E+06     4.02217E+06     167.973E+03    -26.3213E-03     52.1115E-03    -25.7902E-03     57.0522E-03    -26.4401E-03     52.0755E-03    -25.7116E-03     56.9447E-03
             401     13.1574E-03     63.9701E-03    -12.5789E+06    -8.27213E+06     3.02128E+06     148.666E+03    -26.2933E-03     52.0409E-03    -25.7475E-03     58.7949E-03    -26.4618E-03     52.1265E-03    -25.7022E-03     58.6721E-03
             402     14.0347E-03     64.0266E-03    -11.3882E+06     37.2505E+06     10.1259E+06     98.6892E+03    -26.1416E-03     51.8445E-03    -25.7029E-03     60.6214E-03    -26.4154E-03     52.1808E-03    -25.6898E-03     60.4912E-03
             403     14.9122E-03     64.0849E-03    -9.61637E+06     88.0961E+06     28.0500E+06     28.2136E+03    -25.7577E-03     51.4561E-03    -25.6983E-03     55.3085E-03    -26.1292E-03     52.0248E-03    -25.6719E-03     55.1901E-03
             404     15.7897E-03     64.1313E-03    -6.97931E+06     110.068E+06     47.9642E+06    -24.5037E+03    -25.3302E-03     51.0705E-03    -25.7404E-03     43.0093E-03    -25.7335E-03     51.7008E-03    -25.6500E-03     42.9108E-03
             405     16.6673E-03     64.1663E-03    -3.63314E+06     114.543E+06     65.0055E+06    -26.2311E+03    -25.0400E-03     50.8316E-03    -25.7917E-03     24.1795E-03    -25.4009E-03     51.3978E-03    -25.6275E-03     24.1096E-03
             406     877.044E-06     64.4877E-03    -46.5744E+06    -128.321E+06    -45.4128E+06     25.0455E+03    -25.8638E-03     51.7205E-03    -25.8567E-03     5.59106E-03    -25.8449E-03     51.2125E-03    -25.8302E-03     5.58809E-03
             407     1.75410E-03     64.4952E-03    -44.9212E+06    -125.245E+06    -40.6165E+06     51.1457E+03    -25.8616E-03     51.7349E-03    -25.8733E-03     10.2535E-03    -25.8462E-03     51.2332E-03    -25.8296E-03     10.2479E-03
             408     2.63117E-03     64.5072E-03    -42.3958E+06    -120.627E+06    -33.6511E+06     71.5568E+03    -25.8683E-03     51.7585E-03    -25.8902E-03     15.1231E-03    -25.8577E-03     51.2668E-03    -25.8221E-03     15.1143E-03
             409     3.50826E-03     64.5238E-03    -39.2710E+06    -114.409E+06    -25.8076E+06     92.3983E+03    -25.8817E-03     51.7881E-03    -25.9063E-03     19.9618E-03    -25.8770E-03     51.3126E-03    -25.8125E-03     19.9493E-03
             410     4.38537E-03     64.5450E-03    -35.8608E+06    -106.866E+06    -18.4738E+06     109.014E+03    -25.9053E-03     51.8215E-03    -25.9162E-03     24.7173E-03    -25.9066E-03     51.3697E-03    -25.8016E-03     24.7004E-03
             411     5.26251E-03     64.5707E-03    -32.4380E+06    -98.2811E+06    -12.1780E+06     122.311E+03    -25.9396E-03     51.8582E-03    -25.9186E-03     29.3632E-03    -25.9474E-03     51.4373E-03    -25.7900E-03     29.3411E-03
             412     6.13967E-03     64.6007E-03    -29.1559E+06    -90.0543E+06    -6.82118E+06     134.000E+03    -25.9863E-03     51.9033E-03    -25.9171E-03     33.8652E-03    -26.0003E-03     51.5139E-03    -25.7783E-03     33.8368E-03
             413     7.01685E-03     64.6348E-03    -26.0852E+06    -81.8644E+06    -2.44410E+06     143.495E+03    -26.0419E-03     51.9531E-03    -25.9113E-03     38.1974E-03    -26.0627E-03     51.5978E-03    -25.7670E-03     38.1617E-03
             414     7.89404E-03     64.6731E-03    -23.2690E+06    -74.4445E+06     845.469E+03     151.144E+03    -26.1061E-03     52.0082E-03    -25.9021E-03     42.2999E-03    -26.1336E-03     51.6863E-03    -25.7562E-03     42.2556E-03
             415     8.77124E-03     64.7150E-03    -20.7438E+06    -68.0576E+06     2.92373E+06     158.620E+03    -26.1768E-03     52.0664E-03    -25.8896E-03     46.1165E-03    -26.2109E-03     51.7768E-03    -25.7462E-03     46.0621E-03
             416     9.64845E-03     64.7604E-03    -18.5411E+06    -60.0796E+06     3.84214E+06     165.492E+03    -26.2410E-03     52.1112E-03    -25.8702E-03     49.6081E-03    -26.2862E-03     51.8662E-03    -25.7370E-03     49.5423E-03
             417     10.5257E-03     64.8090E-03    -16.6495E+06    -51.8543E+06     4.32442E+06     172.421E+03    -26.2950E-03     52.1443E-03    -25.8493E-03     52.6517E-03    -26.3555E-03     51.9490E-03    -25.7283E-03     52.5731E-03
             418     11.4029E-03     64.8602E-03    -15.0540E+06    -41.7715E+06     3.77619E+06     177.263E+03    -26.3277E-03     52.1489E-03    -25.8212E-03     55.0941E-03    -26.4097E-03     52.0183E-03    -25.7199E-03     55.0015E-03
             419     12.2802E-03     64.9133E-03    -13.6982E+06    -26.6096E+06     4.03061E+06     176.867E+03    -26.3213E-03     52.1112E-03    -25.7899E-03     57.0512E-03    -26.4400E-03     52.0751E-03    -25.7113E-03     56.9439E-03
             420     13.1574E-03     64.9682E-03    -12.5559E+06    -8.25471E+06     3.04222E+06     162.978E+03    -26.2935E-03     52.0408E-03    -25.7473E-03     58.7928E-03    -26.4619E-03     52.1265E-03    -25.7019E-03     58.6702E-03
             421     14.0347E-03     65.0247E-03    -11.3807E+06     37.3157E+06     10.1585E+06     111.263E+03    -26.1419E-03     51.8447E-03    -25.7028E-03     60.6177E-03    -26.4158E-03     52.1812E-03    -25.6896E-03     60.4877E-03
             422     14.9122E-03     65.0830E-03    -9.59891E+06     88.1801E+06     28.0817E+06     30.1790E+03    -25.7582E-03     51.4564E-03    -25.6982E-03     55.3031E-03    -26.1297E-03     52.0254E-03    -25.6717E-03     55.1848E-03
             423     15.7897E-03     65.1294E-03    -6.95865E+06     110.099E+06     47.9779E+06    -29.7795E+03    -25.3312E-03     51.0714E-03    -25.7402E-03     43.0038E-03    -25.7345E-03     51.7017E-03    -25.6499E-03     42.9052E-03
             424     16.6673E-03     65.1644E-03    -3.62535E+06     114.506E+06     64.9927E+06    -31.4594E+03    -25.0415E-03     50.8331E-03    -25.7916E-03     24.1756E-03    -25.4023E-03     51.3990E-03    -25.6274E-03     24.1057E-03
             425     877.048E-06     65.4858E-03    -46.6349E+06    -128.389E+06    -45.4526E+06     32.2403E+03    -25.8632E-03     51.7196E-03    -25.8564E-03     5.59072E-03    -25.8445E-03     51.2114E-03    -25.8298E-03     5.58784E-03
             426     1.75410E-03     65.4932E-03    -44.9751E+06    -125.311E+06    -40.6648E+06     57.3897E+03    -25.8610E-03     51.7338E-03    -25.8728E-03     10.2534E-03    -25.8457E-03     51.2320E-03    -25.8292E-03     10.2479E-03
             427     2.63117E-03     65.5053E-03    -42.4507E+06    -120.692E+06    -33.6942E+06     86.6501E+03    -25.8679E-03     51.7577E-03    -25.8898E-03     15.1233E-03    -25.8575E-03     51.2658E-03    -25.8217E-03     15.1147E-03
             428     3.50826E-03     65.5219E-03    -39.3183E+06    -114.464E+06    -25.8444E+06     106.604E+03    -25.8815E-03     51.7874E-03    -25.9059E-03     19.9623E-03    -25.8768E-03     51.3118E-03    -25.8122E-03     19.9501E-03
             429     4.38538E-03     65.5431E-03    -35.9026E+06    -106.910E+06    -18.5074E+06     116.390E+03    -25.9051E-03     51.8209E-03    -25.9158E-03     24.7184E-03    -25.9065E-03     51.3690E-03    -25.8013E-03     24.7016E-03
             430     5.26251E-03     65.5688E-03    -32.4776E+06    -98.3238E+06    -12.2077E+06     123.408E+03    -25.9392E-03     51.8575E-03    -25.9183E-03     29.3646E-03    -25.9471E-03     51.4365E-03    -25.7897E-03     29.3424E-03
             431     6.13967E-03     65.5988E-03    -29.1901E+06    -90.0941E+06    -6.84816E+06     131.494E+03    -25.9858E-03     51.9025E-03    -25.9167E-03     33.8667E-03    -25.9999E-03     51.5130E-03    -25.7780E-03     33.8383E-03
             432     7.01685E-03     65.6329E-03    -26.1080E+06    -81.9005E+06    -2.46741E+06     138.636E+03    -26.0415E-03     51.9524E-03    -25.9109E-03     38.1991E-03    -26.0623E-03     51.5970E-03    -25.7666E-03     38.1633E-03
             433     7.89404E-03     65.6712E-03    -23.2790E+06    -74.4776E+06     826.780E+03     144.114E+03    -26.1059E-03     52.0076E-03    -25.9017E-03     42.3019E-03    -26.1334E-03     51.6857E-03    -25.7559E-03     42.2575E-03
             434     8.77124E-03     65.7131E-03    -20.7443E+06    -68.0917E+06     2.90981E+06     150.325E+03    -26.1767E-03     52.0660E-03    -25.8893E-03     46.1187E-03    -26.2108E-03     51.7763E-03    -25.7459E-03     46.0642E-03
             435     9.64846E-03     65.7585E-03    -18.5321E+06    -60.1133E+06     3.83327E+06     159.605E+03    -26.2410E-03     52.1109E-03    -25.8699E-03     49.6100E-03    -26.2861E-03     51.8657E-03    -25.7367E-03     49.5442E-03
             436     10.5257E-03     65.8071E-03    -16.6306E+06    -51.8866E+06     4.32084E+06     168.383E+03    -26.2949E-03     52.1439E-03    -25.8490E-03     52.6529E-03    -26.3552E-03     51.9484E-03    -25.7280E-03     52.5742E-03
             437     11.4029E-03     65.8583E-03    -15.0222E+06    -41.7995E+06     3.77889E+06     175.515E+03    -26.3276E-03     52.1485E-03    -25.8209E-03     55.0943E-03    -26.4095E-03     52.0177E-03    -25.7197E-03     55.0016E-03
             438     12.2802E-03     65.9115E-03    -13.6562E+06    -26.6260E+06     4.04213E+06     175.346E+03    -26.3213E-03     52.1110E-03    -25.7896E-03     57.0503E-03    -26.4398E-03     52.0747E-03    -25.7110E-03     56.9430E-03
             439     13.1574E-03     65.9663E-03    -12.4958E+06    -8.26281E+06     3.05609E+06     174.342E+03    -26.2937E-03     52.0407E-03    -25.7470E-03     58.7914E-03    -26.4618E-03     52.1262E-03    -25.7016E-03     58.6689E-03
             440     14.0347E-03     66.0228E-03    -11.3222E+06     37.3763E+06     10.1936E+06     149.649E+03    -26.1423E-03     51.8448E-03    -25.7025E-03     60.6149E-03    -26.4161E-03     52.1815E-03    -25.6893E-03     60.4854E-03
             441     14.9122E-03     66.0811E-03    -9.58524E+06     88.3003E+06     28.1318E+06     50.5540E+03    -25.7588E-03     51.4568E-03    -25.6980E-03     55.2980E-03    -26.1304E-03     52.0263E-03    -25.6715E-03     55.1799E-03
             442     15.7897E-03     66.1275E-03    -6.96234E+06     110.133E+06     47.9962E+06    -36.1379E+03    -25.3324E-03     51.0725E-03    -25.7401E-03     42.9980E-03    -25.7357E-03     51.7029E-03    -25.6498E-03     42.8994E-03
             443     16.6673E-03     66.1625E-03    -3.62167E+06     114.461E+06     64.9499E+06    -32.7009E+03    -25.0442E-03     50.8357E-03    -25.7914E-03     24.1711E-03    -25.4048E-03     51.4014E-03    -25.6274E-03     24.1011E-03
             444     877.043E-06     66.4839E-03    -46.6760E+06    -128.464E+06    -45.5117E+06     44.9763E+03    -25.8630E-03     51.7198E-03    -25.8568E-03     5.59059E-03    -25.8443E-03     51.2113E-03    -25.8304E-03     5.58788E-03
             445     1.75410E-03     66.4914E-03    -45.0289E+06    -125.391E+06    -40.7249E+06     71.1227E+03    -25.8606E-03     51.7334E-03    -25.8728E-03     10.2537E-03    -25.8454E-03     51.2313E-03    -25.8293E-03     10.2484E-03
             446     2.63117E-03     66.5034E-03    -42.5033E+06    -120.766E+06    -33.7436E+06     97.6523E+03    -25.8672E-03     51.7569E-03    -25.8896E-03     15.1240E-03    -25.8569E-03     51.2648E-03    -25.8216E-03     15.1155E-03
             447     3.50826E-03     66.5200E-03    -39.3663E+06    -114.519E+06    -25.8859E+06     116.685E+03    -25.8809E-03     51.7866E-03    -25.9057E-03     19.9633E-03    -25.8764E-03     51.3108E-03    -25.8120E-03     19.9512E-03
             448     4.38538E-03     66.5412E-03    -35.9466E+06    -106.948E+06    -18.5445E+06     121.304E+03    -25.9048E-03     51.8203E-03    -25.9155E-03     24.7197E-03    -25.9062E-03     51.3682E-03    -25.8010E-03     24.7030E-03
             449     5.26252E-03     66.5669E-03    -32.5152E+06    -98.3590E+06    -12.2411E+06     120.377E+03    -25.9390E-03     51.8570E-03    -25.9180E-03     29.3662E-03    -25.9470E-03     51.4359E-03    -25.7894E-03     29.3440E-03
             450     6.13967E-03     66.5969E-03    -29.2199E+06    -90.1276E+06    -6.88042E+06     120.134E+03    -25.9855E-03     51.9019E-03    -25.9164E-03     33.8685E-03    -25.9996E-03     51.5123E-03    -25.7778E-03     33.8399E-03
             451     7.01685E-03     66.6311E-03    -26.1300E+06    -81.9315E+06    -2.49731E+06     120.969E+03    -26.0411E-03     51.9517E-03    -25.9106E-03     38.2011E-03    -26.0619E-03     51.5961E-03    -25.7664E-03     38.1650E-03
             452     7.89404E-03     66.6693E-03    -23.2927E+06    -74.5082E+06     800.182E+03     123.756E+03    -26.1055E-03     52.0069E-03    -25.9014E-03     42.3041E-03    -26.1330E-03     51.6849E-03    -25.7556E-03     42.2593E-03
             453     8.77125E-03     66.7112E-03    -20.7479E+06    -68.1244E+06     2.88766E+06     129.554E+03    -26.1766E-03     52.0655E-03    -25.8889E-03     46.1208E-03    -26.2106E-03     51.7756E-03    -25.7456E-03     46.0661E-03
             454     9.64846E-03     66.7567E-03    -18.5256E+06    -60.1506E+06     3.81584E+06     139.464E+03    -26.2409E-03     52.1105E-03    -25.8696E-03     49.6118E-03    -26.2859E-03     51.8651E-03    -25.7364E-03     49.5457E-03
             455     10.5257E-03     66.8052E-03    -16.6118E+06    -51.9175E+06     4.31108E+06     148.656E+03    -26.2948E-03     52.1435E-03    -25.8487E-03     52.6540E-03    -26.3550E-03     51.9479E-03    -25.7277E-03     52.5751E-03
             456     11.4029E-03     66.8564E-03    -14.9894E+06    -41.8300E+06     3.77543E+06     153.984E+03    -26.3275E-03     52.1482E-03    -25.8206E-03     55.0946E-03    -26.4092E-03     52.0172E-03    -25.7194E-03     55.0017E-03
             457     12.2802E-03     66.9096E-03    -13.6061E+06    -26.6443E+06     4.05033E+06     156.876E+03    -26.3213E-03     52.1107E-03    -25.7894E-03     57.0495E-03    -26.4396E-03     52.0743E-03    -25.7108E-03     56.9420E-03
             458     13.1574E-03     66.9644E-03    -12.4234E+06    -8.28097E+06     3.07511E+06     151.442E+03    -26.2938E-03     52.0406E-03    -25.7468E-03     58.7897E-03    -26.4616E-03     52.1259E-03    -25.7014E-03     58.6669E-03
             459     14.0348E-03     67.0209E-03    -11.2051E+06     37.3625E+06     10.2312E+06     170.405E+03    -26.1427E-03     51.8450E-03    -25.7023E-03     60.6118E-03    -26.4158E-03     52.1813E-03    -25.6891E-03     60.4826E-03
             460     14.9122E-03     67.0792E-03    -9.44848E+06     88.4507E+06     28.2379E+06     124.199E+03    -25.7595E-03     51.4574E-03    -25.6979E-03     55.2932E-03    -26.1308E-03     52.0273E-03    -25.6713E-03     55.1760E-03
             461     15.7898E-03     67.1256E-03    -6.88103E+06     110.212E+06     48.0674E+06    -2.10206E+03    -25.3352E-03     51.0753E-03    -25.7401E-03     42.9928E-03    -25.7383E-03     51.7059E-03    -25.6496E-03     42.8946E-03
             462     16.6673E-03     67.1606E-03    -3.59026E+06     114.393E+06     64.8974E+06    -23.2288E+03    -25.0486E-03     50.8399E-03    -25.7913E-03     24.1670E-03    -25.4089E-03     51.4053E-03    -25.6275E-03     24.0971E-03
             463     877.047E-06     67.4820E-03    -46.7484E+06    -128.559E+06    -45.5831E+06     42.6662E+03    -25.8629E-03     51.7195E-03    -25.8566E-03     5.59171E-03    -25.8443E-03     51.2108E-03    -25.8303E-03     5.58897E-03
             464     1.75410E-03     67.4894E-03    -45.0852E+06    -125.476E+06    -40.7824E+06     77.2050E+03    -25.8606E-03     51.7332E-03    -25.8727E-03     10.2551E-03    -25.8454E-03     51.2309E-03    -25.8293E-03     10.2498E-03
             465     2.63117E-03     67.5015E-03    -42.5548E+06    -120.844E+06    -33.7976E+06      107.34E+03    -25.8670E-03     51.7565E-03    -25.8895E-03     15.1253E-03    -25.8567E-03     51.2642E-03    -25.8216E-03     15.1170E-03
             466     3.50826E-03     67.5181E-03    -39.4177E+06    -114.572E+06    -25.9384E+06     123.697E+03    -25.8805E-03     51.7859E-03    -25.9055E-03     19.9645E-03    -25.8760E-03     51.3100E-03    -25.8119E-03     19.9524E-03
             467     4.38538E-03     67.5393E-03    -35.9941E+06    -106.977E+06    -18.5966E+06     121.333E+03    -25.9043E-03     51.8195E-03    -25.9152E-03     24.7209E-03    -25.9059E-03     51.3675E-03    -25.8009E-03     24.7042E-03
             468     5.26251E-03     67.5650E-03    -32.5572E+06    -98.3812E+06    -12.2904E+06     108.713E+03    -25.9386E-03     51.8563E-03    -25.9177E-03     29.3677E-03    -25.9468E-03     51.4352E-03    -25.7893E-03     29.3453E-03
             469     6.13968E-03     67.5950E-03    -29.2538E+06    -90.1492E+06    -6.92566E+06     97.4241E+03    -25.9852E-03     51.9013E-03    -25.9161E-03     33.8703E-03    -25.9994E-03     51.5117E-03    -25.7776E-03     33.8414E-03
             470     7.01685E-03     67.6292E-03    -26.1562E+06    -81.9571E+06    -2.53966E+06     93.5215E+03    -26.0408E-03     51.9510E-03    -25.9103E-03     38.2031E-03    -26.0617E-03     51.5955E-03    -25.7662E-03     38.1667E-03
             471     7.89405E-03     67.6674E-03    -23.3131E+06    -74.5323E+06     761.833E+03     93.0445E+03    -26.1052E-03     52.0063E-03    -25.9011E-03     42.3063E-03    -26.1327E-03     51.6842E-03    -25.7554E-03     42.2612E-03
             472     8.77125E-03     67.7093E-03    -20.7627E+06    -68.1555E+06     2.85180E+06     96.3745E+03    -26.1763E-03     52.0649E-03    -25.8886E-03     46.1230E-03    -26.2103E-03     51.7749E-03    -25.7454E-03     46.0679E-03
             473     9.64846E-03     67.7548E-03    -18.5322E+06    -60.1847E+06     3.78370E+06     104.994E+03    -26.2407E-03     52.1100E-03    -25.8693E-03     49.6135E-03    -26.2857E-03     51.8645E-03    -25.7362E-03     49.5470E-03
             474     10.5257E-03     67.8033E-03    -16.6103E+06    -51.9479E+06     4.28506E+06     113.171E+03    -26.2947E-03     52.1431E-03    -25.8484E-03     52.6551E-03    -26.3548E-03     51.9474E-03    -25.7275E-03     52.5758E-03
             475     11.4029E-03     67.8545E-03    -14.9834E+06    -41.8565E+06     3.75667E+06     119.001E+03    -26.3275E-03     52.1478E-03    -25.8204E-03     55.0947E-03    -26.4091E-03     52.0168E-03    -25.7192E-03     55.0013E-03
             476     12.2802E-03     67.9077E-03    -13.5991E+06    -26.6671E+06     4.03536E+06     121.452E+03    -26.3214E-03     52.1105E-03    -25.7891E-03     57.0486E-03    -26.4395E-03     52.0740E-03    -25.7105E-03     56.9406E-03
             477     13.1575E-03     67.9626E-03    -12.4182E+06    -8.28135E+06     3.07388E+06     110.412E+03    -26.2939E-03     52.0405E-03    -25.7466E-03     58.7877E-03    -26.4616E-03     52.1258E-03    -25.7012E-03     58.6645E-03
             478     14.0348E-03     68.0190E-03    -11.1599E+06     37.3137E+06     10.2302E+06     98.0932E+03    -26.1430E-03     51.8451E-03    -25.7021E-03     60.6087E-03    -26.4158E-03     52.1812E-03    -25.6889E-03     60.4785E-03
             479     14.9122E-03     68.0773E-03    -9.28588E+06     88.4858E+06     28.2887E+06     121.657E+03    -25.7602E-03     51.4579E-03    -25.6977E-03     55.2884E-03    -26.1308E-03     52.0277E-03    -25.6711E-03     55.1712E-03
             480     15.7898E-03     68.1237E-03    -6.68977E+06     110.282E+06     48.1434E+06     135.404E+03    -25.3381E-03     51.0782E-03    -25.7401E-03     42.9879E-03    -25.7405E-03     51.7087E-03    -25.6496E-03     42.8914E-03
             481     16.6673E-03     68.1587E-03    -3.52514E+06     114.394E+06     64.9197E+06     82.6239E+03    -25.0512E-03     50.8426E-03    -25.7913E-03     24.1636E-03    -25.4112E-03     51.4079E-03    -25.6275E-03     24.0950E-03
             482     877.044E-06     68.4801E-03    -46.8213E+06    -128.651E+06    -45.6526E+06     41.3340E+03    -25.8629E-03     51.7187E-03    -25.8558E-03     5.59208E-03    -25.8445E-03     51.2097E-03    -25.8296E-03     5.58932E-03
             483     1.75410E-03     68.4875E-03    -45.1617E+06    -125.571E+06    -40.8548E+06     74.1196E+03    -25.8606E-03     51.7330E-03    -25.8724E-03     10.2556E-03    -25.8456E-03     51.2304E-03    -25.8291E-03     10.2503E-03
             484     2.63117E-03     68.4996E-03    -42.6246E+06    -120.929E+06    -33.8559E+06     114.742E+03    -25.8671E-03     51.7566E-03    -25.8894E-03     15.1258E-03    -25.8570E-03     51.2640E-03    -25.8215E-03     15.1176E-03
             485     3.50826E-03     68.5162E-03    -39.4852E+06    -114.622E+06    -26.0083E+06     130.443E+03    -25.8804E-03     51.7857E-03    -25.9053E-03     19.9651E-03    -25.8761E-03     51.3098E-03    -25.8119E-03     19.9532E-03
             486     4.38538E-03     68.5374E-03    -36.0613E+06    -106.988E+06    -18.6782E+06     113.485E+03    -25.9039E-03     51.8189E-03    -25.9149E-03     24.7218E-03    -25.9057E-03     51.3670E-03    -25.8009E-03     24.7050E-03
             487     5.26252E-03     68.5631E-03    -32.6153E+06    -98.3842E+06    -12.3630E+06     83.3319E+03    -25.9382E-03     51.8555E-03    -25.9174E-03     29.3687E-03    -25.9465E-03     51.4346E-03    -25.7892E-03     29.3461E-03
             488     6.13967E-03     68.5931E-03    -29.3023E+06    -90.1597E+06    -6.99075E+06     62.9844E+03    -25.9848E-03     51.9006E-03    -25.9158E-03     33.8715E-03    -25.9992E-03     51.5111E-03    -25.7775E-03     33.8422E-03
             489     7.01685E-03     68.6273E-03    -26.1972E+06    -81.9750E+06    -2.59960E+06     54.5491E+03    -26.0405E-03     51.9505E-03    -25.9100E-03     38.2046E-03    -26.0615E-03     51.5950E-03    -25.7661E-03     38.1677E-03
             490     7.89404E-03     68.6655E-03    -23.3454E+06    -74.5491E+06     706.606E+03     50.9507E+03    -26.1049E-03     52.0057E-03    -25.9008E-03     42.3081E-03    -26.1325E-03     51.6837E-03    -25.7553E-03     42.2625E-03
             491     8.77125E-03     68.7074E-03    -20.7867E+06    -68.1812E+06     2.80092E+06     52.3664E+03    -26.1760E-03     52.0643E-03    -25.8883E-03     46.1249E-03    -26.2100E-03     51.7743E-03    -25.7453E-03     46.0691E-03
             492     9.64846E-03     68.7529E-03    -18.5522E+06    -60.2158E+06     3.73465E+06     60.9783E+03    -26.2404E-03     52.1094E-03    -25.8689E-03     49.6151E-03    -26.2853E-03     51.8638E-03    -25.7361E-03     49.5480E-03
             493     10.5257E-03     68.8014E-03    -16.6312E+06    -51.9764E+06     4.23852E+06     71.5777E+03    -26.2945E-03     52.1425E-03    -25.8480E-03     52.6561E-03    -26.3546E-03     51.9468E-03    -25.7274E-03     52.5762E-03
             494     11.4029E-03     68.8526E-03    -15.0090E+06    -41.8852E+06     3.71081E+06     82.4151E+03    -26.3274E-03     52.1474E-03    -25.8201E-03     55.0949E-03    -26.4090E-03     52.0163E-03    -25.7190E-03     55.0010E-03
             495     12.2802E-03     68.9058E-03    -13.6327E+06    -26.6846E+06     3.99020E+06     87.4949E+03    -26.3213E-03     52.1102E-03    -25.7888E-03     57.0481E-03    -26.4395E-03     52.0737E-03    -25.7104E-03     56.9397E-03
             496     13.1575E-03     68.9607E-03    -12.4703E+06    -8.28207E+06     3.02878E+06     83.0271E+03    -26.2940E-03     52.0403E-03    -25.7463E-03     58.7865E-03    -26.4620E-03     52.1258E-03    -25.7011E-03     58.6629E-03
             497     14.0348E-03     69.0171E-03    -11.2791E+06     37.3549E+06     10.1742E+06     29.2984E+03    -26.1433E-03     51.8452E-03    -25.7019E-03     60.6062E-03    -26.4167E-03     52.1817E-03    -25.6888E-03     60.4751E-03
             498     14.9122E-03     69.0754E-03    -9.52425E+06     88.3248E+06     28.1294E+06     83.1901E+03    -25.7608E-03     51.4584E-03    -25.6975E-03     55.2840E-03    -26.1322E-03     52.0279E-03    -25.6711E-03     55.1663E-03
             499     15.7898E-03     69.1218E-03    -6.93592E+06     110.213E+06     48.0004E+06     239.983E+03    -25.3359E-03     51.0757E-03    -25.7398E-03     42.9829E-03    -25.7392E-03     51.7064E-03    -25.6496E-03     42.8878E-03
             500     16.6673E-03     69.1568E-03    -3.62418E+06     114.571E+06     64.9529E+06     171.836E+03    -25.0480E-03     50.8393E-03    -25.7913E-03     24.1602E-03    -25.4088E-03     51.4056E-03    -25.6274E-03     24.0928E-03
             501     877.048E-06     69.4782E-03    -46.8924E+06    -128.743E+06    -45.7325E+06     42.1095E+03    -25.8631E-03     51.7191E-03    -25.8560E-03     5.59162E-03    -25.8447E-03     51.2099E-03    -25.8300E-03     5.58886E-03
             502     1.75410E-03     69.4856E-03    -45.2431E+06    -125.669E+06    -40.9242E+06     81.9781E+03    -25.8607E-03     51.7333E-03    -25.8726E-03     10.2552E-03    -25.8459E-03     51.2304E-03    -25.8294E-03     10.2500E-03
             503     2.63117E-03     69.4977E-03    -42.7079E+06    -121.026E+06    -33.9209E+06     118.677E+03    -25.8672E-03     51.7568E-03    -25.8896E-03     15.1257E-03    -25.8572E-03     51.2640E-03    -25.8218E-03     15.1175E-03
             504     3.50826E-03     69.5143E-03    -39.5586E+06    -114.661E+06    -26.0856E+06     131.440E+03    -25.8804E-03     51.7857E-03    -25.9053E-03     19.9654E-03    -25.8763E-03     51.3098E-03    -25.8122E-03     19.9535E-03
             505     4.38538E-03     69.5355E-03    -36.1242E+06    -106.970E+06    -18.7674E+06     94.0330E+03    -25.9037E-03     51.8185E-03    -25.9148E-03     24.7226E-03    -25.9057E-03     51.3669E-03    -25.8011E-03     24.7055E-03
             506     5.26251E-03     69.5612E-03    -32.6748E+06    -98.3686E+06    -12.4501E+06     46.6812E+03    -25.9378E-03     51.8550E-03    -25.9172E-03     29.3698E-03    -25.9463E-03     51.4344E-03    -25.7894E-03     29.3466E-03
             507     6.13968E-03     69.5912E-03    -29.3586E+06    -90.1573E+06    -7.07191E+06     17.7364E+03    -25.9845E-03     51.9001E-03    -25.9156E-03     33.8725E-03    -25.9990E-03     51.5108E-03    -25.7776E-03     33.8426E-03
             508     7.01685E-03     69.6254E-03    -26.2452E+06    -81.9801E+06    -2.67593E+06     1.36350E+03    -26.0401E-03     51.9499E-03    -25.9097E-03     38.2058E-03    -26.0613E-03     51.5946E-03    -25.7662E-03     38.1682E-03
             509     7.89405E-03     69.6636E-03    -23.3837E+06    -74.5602E+06     633.441E+03    -5.43291E+03    -26.1046E-03     52.0051E-03    -25.9005E-03     42.3097E-03    -26.1322E-03     51.6831E-03    -25.7553E-03     42.2633E-03
             510     8.77125E-03     69.7055E-03    -20.8185E+06    -68.2025E+06     2.73160E+06    -2.17394E+03    -26.1756E-03     52.0636E-03    -25.8880E-03     46.1265E-03    -26.2096E-03     51.7737E-03    -25.7453E-03     46.0701E-03
             511     9.64846E-03     69.7510E-03    -18.5784E+06    -60.2445E+06     3.66831E+06     8.42340E+03    -26.2400E-03     52.1087E-03    -25.8687E-03     49.6166E-03    -26.2849E-03     51.8631E-03    -25.7360E-03     49.5487E-03
             512     10.5257E-03     69.7995E-03    -16.6532E+06    -52.0111E+06     4.17438E+06     27.4238E+03    -26.2941E-03     52.1419E-03    -25.8477E-03     52.6572E-03    -26.3542E-03     51.9460E-03    -25.7273E-03     52.5767E-03
             513     11.4029E-03     69.8507E-03    -15.0319E+06    -41.9184E+06     3.64966E+06     48.8668E+03    -26.3271E-03     52.1468E-03    -25.8197E-03     55.0952E-03    -26.4087E-03     52.0157E-03    -25.7189E-03     55.0009E-03
             514     12.2802E-03     69.9039E-03    -13.6692E+06    -26.7133E+06     3.92785E+06     70.5968E+03    -26.3213E-03     52.1098E-03    -25.7885E-03     57.0477E-03    -26.4395E-03     52.0733E-03    -25.7103E-03     56.9390E-03
             515     13.1575E-03     69.9588E-03    -12.5373E+06    -8.30203E+06     2.96409E+06     91.5431E+03    -26.2942E-03     52.0402E-03    -25.7460E-03     58.7852E-03    -26.4623E-03     52.1258E-03    -25.7010E-03     58.6617E-03
             516     14.0348E-03     70.0152E-03    -11.4436E+06     37.3903E+06     10.0966E+06     111.608E+03    -26.1436E-03     51.8452E-03    -25.7017E-03     60.6036E-03    -26.4178E-03     52.1823E-03    -25.6888E-03     60.4736E-03
             517     14.9122E-03     70.0735E-03    -9.80015E+06     88.1532E+06     27.9545E+06     163.273E+03    -25.7614E-03     51.4587E-03    -25.6973E-03     55.2801E-03    -26.1336E-03     52.0280E-03    -25.6712E-03     55.1634E-03
             518     15.7897E-03     70.1199E-03    -7.15609E+06     110.147E+06     47.8635E+06     182.594E+03    -25.3337E-03     51.0733E-03    -25.7396E-03     42.9787E-03    -25.7378E-03     51.7042E-03    -25.6496E-03     42.8829E-03
             519     16.6673E-03     70.1549E-03    -3.69574E+06     114.762E+06     64.9931E+06     101.216E+03    -25.0447E-03     50.8360E-03    -25.7913E-03     24.1564E-03    -25.4062E-03     51.4033E-03    -25.6274E-03     24.0880E-03
             520     877.041E-06     70.4763E-03    -46.9949E+06    -128.852E+06    -45.8158E+06     46.7353E+03    -25.8634E-03     51.7205E-03    -25.8571E-03     5.59200E-03    -25.8453E-03     51.2110E-03    -25.8312E-03     5.58931E-03
             521     1.75410E-03     70.4837E-03    -45.3297E+06    -125.770E+06    -40.9989E+06     93.2617E+03    -25.8608E-03     51.7341E-03    -25.8733E-03     10.2556E-03    -25.8462E-03     51.2310E-03    -25.8302E-03     10.2505E-03
             522     2.63117E-03     70.4958E-03    -42.7931E+06    -121.125E+06    -33.9921E+06     129.896E+03    -25.8672E-03     51.7573E-03    -25.8901E-03     15.1262E-03    -25.8574E-03     51.2642E-03    -25.8224E-03     15.1182E-03
             523     3.50826E-03     70.5124E-03    -39.6469E+06    -114.677E+06    -26.1781E+06     123.610E+03    -25.8802E-03     51.7858E-03    -25.9055E-03     19.9663E-03    -25.8764E-03     51.3100E-03    -25.8126E-03     19.9542E-03
             524     4.38537E-03     70.5336E-03    -36.2097E+06    -106.917E+06    -18.8846E+06     60.1696E+03    -25.9035E-03     51.8182E-03    -25.9146E-03     24.7236E-03    -25.9059E-03     51.3672E-03    -25.8015E-03     24.7061E-03
             525     5.26251E-03     70.5593E-03    -32.7501E+06    -98.3342E+06    -12.5604E+06    -4.68343E+03    -25.9377E-03     51.8547E-03    -25.9171E-03     29.3711E-03    -25.9464E-03     51.4346E-03    -25.7898E-03     29.3472E-03
             526     6.13967E-03     70.5893E-03    -29.4193E+06    -90.1353E+06    -7.17501E+06    -45.0968E+03    -25.9842E-03     51.8997E-03    -25.9154E-03     33.8740E-03    -25.9989E-03     51.5108E-03    -25.7780E-03     33.8433E-03
             527     7.01685E-03     70.6235E-03    -26.2940E+06    -81.9720E+06    -2.77225E+06    -68.3214E+03    -26.0398E-03     51.9494E-03    -25.9096E-03     38.2074E-03    -26.0610E-03     51.5943E-03    -25.7665E-03     38.1689E-03
             528     7.89404E-03     70.6617E-03    -23.4252E+06    -74.5650E+06     540.631E+03    -75.7065E+03    -26.1041E-03     52.0044E-03    -25.9003E-03     42.3117E-03    -26.1318E-03     51.6827E-03    -25.7555E-03     42.2644E-03
             529     8.77125E-03     70.7036E-03    -20.8520E+06    -68.2213E+06     2.64303E+06    -70.2822E+03    -26.1751E-03     52.0629E-03    -25.8878E-03     46.1286E-03    -26.2092E-03     51.7731E-03    -25.7454E-03     46.0713E-03
             530     9.64846E-03     70.7491E-03    -18.6074E+06    -60.2742E+06     3.58417E+06    -52.7339E+03    -26.2396E-03     52.1080E-03    -25.8684E-03     49.6183E-03    -26.2845E-03     51.8624E-03    -25.7361E-03     49.5498E-03
             531     10.5257E-03     70.7977E-03    -16.6794E+06    -52.0534E+06     4.09304E+06    -26.4194E+03    -26.2937E-03     52.1412E-03    -25.8475E-03     52.6584E-03    -26.3537E-03     51.9453E-03    -25.7273E-03     52.5773E-03
             532     11.4029E-03     70.8489E-03    -15.0536E+06    -41.9683E+06     3.57386E+06     11.8275E+03    -26.3269E-03     52.1463E-03    -25.8195E-03     55.0957E-03    -26.4084E-03     52.0151E-03    -25.7189E-03     55.0009E-03
             533     12.2802E-03     70.9020E-03    -13.6851E+06    -26.7706E+06     3.85830E+06     60.1492E+03    -26.3212E-03     52.1095E-03    -25.7882E-03     57.0471E-03    -26.4394E-03     52.0728E-03    -25.7103E-03     56.9382E-03
             534     13.1575E-03     70.9569E-03    -12.5501E+06    -8.36981E+06     2.89659E+06     124.113E+03    -26.2943E-03     52.0401E-03    -25.7458E-03     58.7840E-03    -26.4623E-03     52.1254E-03    -25.7010E-03     58.6609E-03
             535     14.0348E-03     71.0133E-03    -11.4111E+06     37.2741E+06     10.0329E+06     243.124E+03    -26.1439E-03     51.8454E-03    -25.7014E-03     60.6016E-03    -26.4177E-03     52.1819E-03    -25.6888E-03     60.4733E-03
             536     14.9122E-03     71.0717E-03    -9.67922E+06     88.1664E+06     27.9611E+06     255.694E+03    -25.7618E-03     51.4590E-03    -25.6972E-03     55.2767E-03    -26.1334E-03     52.0282E-03    -25.6712E-03     55.1612E-03
             537     15.7898E-03     71.1180E-03    -7.03729E+06     110.257E+06     47.9025E+06     95.4878E+03    -25.3358E-03     51.0753E-03    -25.7395E-03     42.9752E-03    -25.7395E-03     51.7065E-03    -25.6497E-03     42.8782E-03
             538     16.6673E-03     71.1530E-03    -3.66145E+06     114.806E+06     64.9920E+06     9.87584E+03    -25.0468E-03     50.8381E-03    -25.7913E-03     24.1534E-03    -25.4081E-03     51.4055E-03    -25.6275E-03     24.0839E-03
             539     877.047E-06     71.4744E-03    -47.1000E+06    -128.977E+06    -45.9159E+06     67.7073E+03    -25.8640E-03     51.7215E-03    -25.8575E-03     5.59254E-03    -25.8461E-03     51.2116E-03    -25.8317E-03     5.59011E-03
             540     1.75409E-03     71.4818E-03    -45.4425E+06    -125.885E+06    -41.0891E+06     106.437E+03    -25.8613E-03     51.7352E-03    -25.8738E-03     10.2563E-03    -25.8470E-03     51.2318E-03    -25.8309E-03     10.2514E-03
             541     2.63117E-03     71.4938E-03    -42.8887E+06    -121.214E+06    -34.0472E+06     137.796E+03    -25.8677E-03     51.7585E-03    -25.8908E-03     15.1269E-03    -25.8582E-03     51.2652E-03    -25.8231E-03     15.1189E-03
             542     3.50826E-03     71.5105E-03    -39.7212E+06    -114.658E+06    -26.2563E+06     108.125E+03    -25.8805E-03     51.7864E-03    -25.9059E-03     19.9667E-03    -25.8770E-03     51.3110E-03    -25.8133E-03     19.9544E-03
             543     4.38537E-03     71.5317E-03    -36.2778E+06    -106.824E+06    -19.0060E+06     14.2449E+03    -25.9036E-03     51.8182E-03    -25.9146E-03     24.7240E-03    -25.9062E-03     51.3679E-03    -25.8022E-03     24.7058E-03
             544     5.26251E-03     71.5574E-03    -32.8162E+06    -98.2714E+06    -12.6879E+06    -75.4119E+03    -25.9376E-03     51.8546E-03    -25.9170E-03     29.3718E-03    -25.9466E-03     51.4350E-03    -25.7904E-03     29.3471E-03
             545     6.13967E-03     71.5874E-03    -29.4807E+06    -90.0923E+06    -7.30439E+06    -128.510E+03    -25.9839E-03     51.8993E-03    -25.9153E-03     33.8752E-03    -25.9988E-03     51.5109E-03    -25.7785E-03     33.8434E-03
             546     7.01685E-03     71.6216E-03    -26.3493E+06    -81.9511E+06    -2.89458E+06    -155.635E+03    -26.0394E-03     51.9488E-03    -25.9094E-03     38.2089E-03    -26.0608E-03     51.5941E-03    -25.7669E-03     38.1693E-03
             547     7.89404E-03     71.6598E-03    -23.4718E+06    -74.5629E+06     425.456E+03    -162.887E+03    -26.1036E-03     52.0038E-03    -25.9001E-03     42.3135E-03    -26.1314E-03     51.6823E-03    -25.7558E-03     42.2650E-03
             548     8.77124E-03     71.7018E-03    -20.8928E+06    -68.2380E+06     2.53249E+06    -152.757E+03    -26.1746E-03     52.0621E-03    -25.8876E-03     46.1306E-03    -26.2086E-03     51.7724E-03    -25.7457E-03     46.0722E-03
             549     9.64846E-03     71.7472E-03    -18.6421E+06    -60.3102E+06     3.47899E+06    -126.020E+03    -26.2390E-03     52.1072E-03    -25.8681E-03     49.6201E-03    -26.2839E-03     51.8617E-03    -25.7363E-03     49.5505E-03
             550     10.5257E-03     71.7958E-03    -16.7110E+06    -52.0997E+06     3.99279E+06    -88.0891E+03    -26.2933E-03     52.1405E-03    -25.8472E-03     52.6599E-03    -26.3533E-03     51.9446E-03    -25.7274E-03     52.5779E-03
             551     11.4029E-03     71.8470E-03    -15.0797E+06     -42.036E+06     3.47388E+06    -40.6680E+03    -26.3266E-03     52.1458E-03    -25.8192E-03     55.0968E-03    -26.4080E-03     52.0144E-03    -25.7190E-03     55.0014E-03
             552     12.2802E-03     71.9001E-03    -13.6915E+06    -26.8568E+06     3.76575E+06     25.1596E+03    -26.3211E-03     52.1091E-03    -25.7880E-03     57.0475E-03    -26.4391E-03     52.0722E-03    -25.7103E-03     56.9382E-03
             553     13.1575E-03     71.9550E-03    -12.5067E+06    -8.48860E+06     2.81905E+06     113.231E+03    -26.2944E-03     52.0399E-03    -25.7455E-03     58.7837E-03    -26.4619E-03     52.1247E-03    -25.7010E-03     58.6605E-03
             554     14.0348E-03     72.0114E-03    -11.2379E+06     37.0973E+06     9.98766E+06     215.754E+03    -26.1443E-03     51.8455E-03    -25.7012E-03     60.6005E-03    -26.4169E-03     52.1809E-03    -25.6888E-03     60.4718E-03
             555     14.9122E-03     72.0698E-03    -9.40125E+06     88.1980E+06     28.0261E+06     282.592E+03    -25.7626E-03     51.4595E-03    -25.6970E-03     55.2739E-03    -26.1329E-03     52.0284E-03    -25.6711E-03     55.1588E-03
             556     15.7897E-03     72.1161E-03    -6.86388E+06     110.472E+06     48.0019E+06     186.672E+03    -25.3383E-03     51.0777E-03    -25.7394E-03     42.9719E-03    -25.7416E-03     51.7096E-03    -25.6496E-03     42.8761E-03
             557     16.6673E-03     72.1511E-03    -3.64671E+06     114.866E+06     64.9340E+06     12.2291E+03    -25.0514E-03     50.8425E-03    -25.7911E-03     24.1511E-03    -25.4127E-03     51.4102E-03    -25.6277E-03     24.0816E-03
             558     877.040E-06     72.4725E-03    -47.2388E+06    -129.135E+06    -46.0524E+06     82.3685E+03    -25.8648E-03     51.7224E-03    -25.8576E-03     5.59229E-03    -25.8471E-03     51.2122E-03    -25.8322E-03     5.59005E-03
             559     1.75410E-03     72.4799E-03    -45.5656E+06    -126.008E+06    -41.1817E+06     131.122E+03    -25.8623E-03     51.7369E-03    -25.8746E-03     10.2560E-03    -25.8482E-03     51.2332E-03    -25.8317E-03     10.2514E-03
             560     2.63116E-03     72.4919E-03    -43.0032E+06    -121.283E+06    -34.1114E+06     140.971E+03    -25.8687E-03     51.7605E-03    -25.8918E-03     15.1266E-03    -25.8596E-03     51.2671E-03    -25.8241E-03     15.1187E-03
             561     3.50826E-03     72.5086E-03    -39.8211E+06    -114.589E+06    -26.3654E+06     72.4486E+03    -25.8810E-03     51.7875E-03    -25.9065E-03     19.9664E-03    -25.8779E-03     51.3127E-03    -25.8144E-03     19.9537E-03
             562     4.38537E-03     72.5298E-03    -36.3593E+06    -106.688E+06    -19.1640E+06    -56.9078E+03    -25.9036E-03     51.8183E-03    -25.9148E-03     24.7239E-03    -25.9066E-03     51.3691E-03    -25.8032E-03     24.7048E-03
             563     5.26251E-03     72.5555E-03    -32.8878E+06    -98.1766E+06    -12.8447E+06    -164.026E+03    -25.9374E-03     51.8544E-03    -25.9170E-03     29.3719E-03    -25.9466E-03     51.4356E-03    -25.7912E-03     29.3460E-03
             564     6.13966E-03     72.5855E-03    -29.5493E+06    -90.0241E+06    -7.45805E+06    -229.521E+03    -25.9836E-03     51.8988E-03    -25.9153E-03     33.8756E-03    -25.9987E-03     51.5111E-03    -25.7792E-03     33.8425E-03
             565     7.01684E-03     72.6197E-03    -26.4115E+06    -81.9162E+06    -3.04325E+06    -263.236E+03    -26.0389E-03     51.9482E-03    -25.9093E-03     38.2097E-03    -26.0604E-03     51.5940E-03    -25.7675E-03     38.1687E-03
             566     7.89404E-03     72.6579E-03    -23.5274E+06    -74.5525E+06     284.967E+03    -268.825E+03    -26.1030E-03     52.0030E-03    -25.9000E-03     42.3147E-03    -26.1309E-03     51.6818E-03    -25.7563E-03     42.2649E-03
             567     8.77124E-03     72.6999E-03    -20.9399E+06    -68.2549E+06     2.39831E+06    -252.250E+03    -26.1739E-03     52.0612E-03    -25.8874E-03     46.1322E-03    -26.2080E-03     51.7717E-03    -25.7460E-03     46.0725E-03
             568     9.64846E-03     72.7453E-03    -18.6817E+06    -60.3504E+06     3.35015E+06    -215.909E+03    -26.2383E-03     52.1062E-03    -25.8679E-03     49.6219E-03    -26.2831E-03     51.8608E-03    -25.7366E-03     49.5512E-03
             569     10.5257E-03     72.7939E-03    -16.7392E+06    -52.1562E+06     3.87190E+06    -165.717E+03    -26.2927E-03     52.1395E-03    -25.8469E-03     52.6617E-03    -26.3525E-03     51.9436E-03    -25.7276E-03     52.5787E-03
             570     11.4029E-03     72.8451E-03    -15.1013E+06    -42.1089E+06     3.35929E+06    -105.487E+03    -26.3261E-03     52.1450E-03    -25.8189E-03     55.0984E-03    -26.4074E-03     52.0134E-03    -25.7191E-03     55.0021E-03
             571     12.2802E-03     72.8982E-03    -13.7094E+06    -26.9526E+06     3.65163E+06    -38.9011E+03    -26.3210E-03     52.1086E-03    -25.7876E-03     57.0484E-03    -26.4387E-03     52.0714E-03    -25.7104E-03     56.9383E-03
             572     13.1575E-03     72.9531E-03    -12.4998E+06    -8.60041E+06     2.71634E+06     27.9105E+03    -26.2945E-03     52.0397E-03    -25.7452E-03     58.7840E-03    -26.4617E-03     52.1241E-03    -25.7010E-03     58.6597E-03
             573     14.0348E-03     73.0096E-03    -11.2266E+06     36.9886E+06     9.89694E+06     77.1518E+03    -26.1446E-03     51.8456E-03    -25.7009E-03     60.5998E-03    -26.4169E-03     52.1806E-03    -25.6888E-03     60.4693E-03
             574     14.9122E-03     73.0679E-03    -9.34452E+06     88.0310E+06     27.9386E+06     202.019E+03    -25.7635E-03     51.4602E-03    -25.6968E-03     55.2715E-03    -26.1332E-03     52.0283E-03    -25.6712E-03     55.1553E-03
             575     15.7898E-03     73.1142E-03    -6.65096E+06     110.591E+06     48.0549E+06     292.127E+03    -25.3391E-03     51.0783E-03    -25.7393E-03     42.9684E-03    -25.7415E-03     51.7104E-03    -25.6497E-03     42.8740E-03
             576     16.6673E-03     73.1492E-03    -3.41200E+06     115.078E+06     64.9988E+06     148.447E+03    -25.0536E-03     50.8445E-03    -25.7908E-03     24.1488E-03    -25.4141E-03     51.4129E-03    -25.6278E-03     24.0811E-03
             577     877.046E-06     73.4706E-03    -47.3943E+06    -129.312E+06    -46.2029E+06     80.3253E+03    -25.8662E-03     51.7254E-03    -25.8592E-03     5.59160E-03    -25.8489E-03     51.2148E-03    -25.8340E-03     5.58934E-03
             578     1.75409E-03     73.4780E-03    -45.6993E+06    -126.156E+06    -41.3103E+06     145.939E+03    -25.8636E-03     51.7397E-03    -25.8761E-03     10.2550E-03    -25.8498E-03     51.2356E-03    -25.8334E-03     10.2507E-03
             579     2.63116E-03     73.4900E-03    -43.1235E+06    -121.310E+06    -34.2491E+06     142.849E+03    -25.8696E-03     51.7625E-03    -25.8930E-03     15.1258E-03    -25.8608E-03     51.2694E-03    -25.8258E-03     15.1180E-03
             580     3.50825E-03     73.5067E-03    -39.9337E+06    -114.438E+06    -26.5421E+06     10.4500E+03    -25.8813E-03     51.7883E-03    -25.9070E-03     19.9663E-03    -25.8787E-03     51.3147E-03    -25.8159E-03     19.9527E-03
             581     4.38536E-03     73.5279E-03    -36.4651E+06    -106.510E+06    -19.3600E+06    -160.301E+03    -25.9036E-03     51.8186E-03    -25.9150E-03     24.7240E-03    -25.9071E-03     51.3707E-03    -25.8045E-03     24.7036E-03
             582     5.26250E-03     73.5536E-03    -32.9822E+06    -98.0493E+06    -13.0307E+06    -282.133E+03    -25.9372E-03     51.8545E-03    -25.9172E-03     29.3722E-03    -25.9469E-03     51.4367E-03    -25.7924E-03     29.3448E-03
             583     6.13966E-03     73.5836E-03    -29.6277E+06    -89.9290E+06    -7.63619E+06    -355.749E+03    -25.9831E-03     51.8985E-03    -25.9154E-03     33.8761E-03    -25.9985E-03     51.5116E-03    -25.7802E-03     33.8413E-03
             584     7.01683E-03     73.6178E-03    -26.4798E+06    -81.8621E+06    -3.21538E+06    -393.959E+03    -26.0382E-03     51.9476E-03    -25.9094E-03     38.2105E-03    -26.0599E-03     51.5940E-03    -25.7683E-03     38.1678E-03
             585     7.89403E-03     73.6560E-03    -23.5846E+06    -74.5352E+06     120.161E+03    -397.800E+03    -26.1022E-03     52.0021E-03    -25.8999E-03     42.3160E-03    -26.1301E-03     51.6814E-03    -25.7570E-03     42.2645E-03
             586     8.77124E-03     73.6980E-03    -20.9866E+06    -68.2689E+06     2.24247E+06    -374.093E+03    -26.1729E-03     52.0602E-03    -25.8872E-03     46.1339E-03    -26.2070E-03     51.7709E-03    -25.7466E-03     46.0726E-03
             587     9.64846E-03     73.7434E-03    -18.7159E+06    -60.3955E+06     3.20202E+06    -327.694E+03    -26.2374E-03     52.1050E-03    -25.8677E-03     49.6238E-03    -26.2821E-03     51.8596E-03    -25.7370E-03     49.5516E-03
             588     10.5257E-03     73.7920E-03    -16.7668E+06    -52.2231E+06     3.73174E+06    -261.946E+03    -26.2918E-03     52.1384E-03    -25.8466E-03     52.6636E-03    -26.3515E-03     51.9424E-03    -25.7279E-03     52.5794E-03
             589     11.4029E-03     73.8432E-03    -15.1240E+06    -42.1945E+06     3.22734E+06    -183.467E+03    -26.3255E-03     52.1441E-03    -25.8185E-03     55.0998E-03    -26.4066E-03     52.0123E-03    -25.7193E-03     55.0025E-03
             590     12.2802E-03     73.8963E-03    -13.7385E+06    -27.0402E+06     3.52523E+06    -104.746E+03    -26.3206E-03     52.1079E-03    -25.7873E-03     57.0494E-03    -26.4382E-03     52.0705E-03    -25.7105E-03     56.9384E-03
             591     13.1575E-03     73.9512E-03    -12.5770E+06    -8.67206E+06     2.58565E+06    -49.5517E+03    -26.2945E-03     52.0394E-03    -25.7449E-03     58.7845E-03    -26.4618E-03     52.1237E-03    -25.7011E-03     58.6592E-03
             592     14.0348E-03     74.0077E-03    -11.3894E+06     36.9222E+06     9.74671E+06    -3.86235E+03    -26.1450E-03     51.8457E-03    -25.7007E-03     60.5994E-03    -26.4178E-03     52.1809E-03    -25.6889E-03     60.4679E-03
             593     14.9122E-03     74.0660E-03    -9.62790E+06     87.7842E+06     27.6931E+06     112.360E+03    -25.7642E-03     51.4607E-03    -25.6965E-03     55.2701E-03    -26.1347E-03     52.0283E-03    -25.6714E-03     55.1527E-03
             594     15.7897E-03     74.1123E-03    -6.99935E+06     110.516E+06     47.8313E+06     257.461E+03    -25.3365E-03     51.0755E-03    -25.7390E-03     42.9664E-03    -25.7403E-03     51.7080E-03    -25.6499E-03     42.8715E-03
             595     16.6673E-03     74.1473E-03    -3.64233E+06     115.302E+06     65.0263E+06     226.172E+03    -25.0477E-03     50.8387E-03    -25.7910E-03     24.1474E-03    -25.4097E-03     51.4085E-03    -25.6278E-03     24.0807E-03
             596     877.035E-06     74.4687E-03    -47.5422E+06    -129.478E+06    -46.3641E+06     72.3578E+03    -25.8684E-03     51.7303E-03    -25.8619E-03     5.59167E-03    -25.8513E-03     51.2193E-03    -25.8371E-03     5.58931E-03
             597     1.75409E-03     74.4761E-03    -45.8507E+06    -126.327E+06    -41.4769E+06     139.580E+03    -25.8653E-03     51.7436E-03    -25.8783E-03     10.2549E-03    -25.8517E-03     51.2391E-03    -25.8360E-03     10.2505E-03
             598     2.63115E-03     74.4881E-03    -43.2548E+06    -121.270E+06    -34.4633E+06     107.242E+03    -25.8702E-03     51.7645E-03    -25.8943E-03     15.1257E-03    -25.8619E-03     51.2720E-03    -25.8280E-03     15.1174E-03
             599     3.50824E-03     74.5048E-03    -40.0482E+06    -114.185E+06    -26.7948E+06    -89.5397E+03    -25.8813E-03     51.7888E-03    -25.9074E-03     19.9663E-03    -25.8794E-03     51.3170E-03    -25.8178E-03     19.9515E-03
             600     4.38535E-03     74.5260E-03    -36.5669E+06    -106.290E+06    -19.5788E+06    -299.852E+03    -25.9037E-03     51.8190E-03    -25.9154E-03     24.7240E-03    -25.9077E-03     51.3727E-03    -25.8061E-03     24.7018E-03
             601     5.26249E-03     74.5517E-03    -33.0743E+06    -97.8863E+06    -13.2379E+06    -431.358E+03    -25.9371E-03     51.8546E-03    -25.9175E-03     29.3723E-03    -25.9472E-03     51.4382E-03    -25.7938E-03     29.3429E-03
             602     6.13965E-03     74.5817E-03    -29.7148E+06    -89.8052E+06    -7.84028E+06    -512.759E+03    -25.9827E-03     51.8983E-03    -25.9156E-03     33.8766E-03    -25.9984E-03     51.5124E-03    -25.7815E-03     33.8398E-03
             603     7.01683E-03     74.6159E-03    -26.5550E+06    -81.7873E+06    -3.41269E+06    -553.632E+03    -26.0376E-03     51.9470E-03    -25.9094E-03     38.2113E-03    -26.0595E-03     51.5942E-03    -25.7694E-03     38.1665E-03
             604     7.89402E-03     74.6541E-03    -23.6484E+06    -74.5066E+06    -70.9176E+03    -555.387E+03    -26.1013E-03     52.0012E-03    -25.8999E-03     42.3172E-03    -26.1293E-03     51.6809E-03    -25.7579E-03     42.2637E-03
             605     8.77123E-03     74.6961E-03    -21.0362E+06    -68.2798E+06     2.06120E+06    -524.570E+03    -26.1719E-03     52.0590E-03    -25.8871E-03     46.1354E-03    -26.2059E-03     51.7700E-03    -25.7473E-03     46.0722E-03
             606     9.64845E-03     74.7415E-03    -18.7538E+06    -60.4445E+06     3.02964E+06    -465.331E+03    -26.2363E-03     52.1038E-03    -25.8675E-03     49.6256E-03    -26.2810E-03     51.8585E-03    -25.7375E-03     49.5517E-03
             607     10.5257E-03     74.7901E-03    -16.7922E+06    -52.3072E+06     3.56682E+06    -378.822E+03    -26.2909E-03     52.1372E-03    -25.8463E-03     52.6655E-03    -26.3504E-03     51.9411E-03    -25.7283E-03     52.5798E-03
             608     11.4029E-03     74.8413E-03    -15.1447E+06    -42.2974E+06     3.07142E+06    -274.653E+03    -26.3248E-03     52.1430E-03    -25.8182E-03     55.1015E-03    -26.4056E-03     52.0110E-03    -25.7196E-03     55.0031E-03
             609     12.2802E-03     74.8945E-03    -13.7646E+06    -27.1490E+06     3.37676E+06    -163.901E+03    -26.3201E-03     52.1070E-03    -25.7869E-03     57.0507E-03    -26.4375E-03     52.0694E-03    -25.7107E-03     56.9390E-03
             610     13.1574E-03     74.9493E-03    -12.6406E+06    -8.76222E+06     2.44150E+06    -50.5954E+03    -26.2943E-03     52.0389E-03    -25.7445E-03     58.7854E-03    -26.4616E-03     52.1231E-03    -25.7013E-03     58.6601E-03
             611     14.0348E-03     75.0058E-03    -11.5438E+06     36.8493E+06     9.58703E+06     35.1616E+03    -26.1453E-03     51.8456E-03    -25.7003E-03     60.5998E-03    -26.4185E-03     52.1809E-03    -25.6891E-03     60.4688E-03
             612     14.9122E-03     75.0641E-03    -9.86633E+06     87.5829E+06     27.4688E+06     141.088E+03    -25.7648E-03     51.4610E-03    -25.6962E-03     55.2695E-03    -26.1358E-03     52.0283E-03    -25.6715E-03     55.1526E-03
             613     15.7897E-03     75.1104E-03    -7.25045E+06     110.434E+06     47.6326E+06     206.192E+03    -25.3350E-03     51.0737E-03    -25.7387E-03     42.9651E-03    -25.7396E-03     51.7064E-03    -25.6501E-03     42.8695E-03
             614     16.6673E-03     75.1454E-03    -3.80983E+06     115.473E+06     65.0331E+06     114.599E+03    -25.0436E-03     50.8348E-03    -25.7912E-03     24.1451E-03    -25.4067E-03     51.4057E-03    -25.6279E-03     24.0769E-03
             615     877.041E-06     75.4668E-03    -47.7084E+06    -129.630E+06    -46.5087E+06     66.0703E+03    -25.8709E-03     51.7354E-03    -25.8645E-03     5.59217E-03    -25.8542E-03     51.2240E-03    -25.8399E-03     5.58972E-03
             616     1.75408E-03     75.4742E-03    -45.9858E+06    -126.472E+06    -41.5981E+06     108.902E+03    -25.8675E-03     51.7484E-03    -25.8809E-03     10.2554E-03    -25.8543E-03     51.2436E-03    -25.8388E-03     10.2505E-03
             617     2.63115E-03     75.4863E-03    -43.3728E+06    -121.138E+06    -34.6823E+06     22.4561E+03    -25.8715E-03     51.7672E-03    -25.8957E-03     15.1261E-03    -25.8636E-03     51.2759E-03    -25.8306E-03     15.1167E-03
             618     3.50823E-03     75.5029E-03    -40.1676E+06    -113.825E+06    -27.1005E+06    -239.127E+03    -25.8815E-03     51.7893E-03    -25.9078E-03     19.9666E-03    -25.8802E-03     51.3200E-03    -25.8200E-03     19.9499E-03
             619     4.38535E-03     75.5241E-03    -36.6907E+06    -106.024E+06    -19.8583E+06    -478.178E+03    -25.9036E-03     51.8193E-03    -25.9157E-03     24.7240E-03    -25.9083E-03     51.3749E-03    -25.8081E-03     24.6995E-03
             620     5.26248E-03     75.5498E-03    -33.1934E+06    -97.6854E+06    -13.4886E+06    -614.655E+03    -25.9369E-03     51.8548E-03    -25.9179E-03     29.3720E-03    -25.9475E-03     51.4398E-03    -25.7955E-03     29.3403E-03
             621     6.13964E-03     75.5798E-03    -29.8200E+06    -89.6461E+06    -8.07663E+06    -702.290E+03    -25.9823E-03     51.8980E-03    -25.9158E-03     33.8765E-03    -25.9984E-03     51.5135E-03    -25.7829E-03     33.8373E-03
             622     7.01682E-03     75.6140E-03    -26.6492E+06    -81.6893E+06    -3.64228E+06    -747.003E+03    -26.0369E-03     51.9464E-03    -25.9095E-03     38.2116E-03    -26.0590E-03     51.5945E-03    -25.7707E-03     38.1643E-03
             623     7.89402E-03     75.6522E-03    -23.7261E+06    -74.4608E+06    -292.143E+03    -747.695E+03    -26.1003E-03     52.0002E-03    -25.8999E-03     42.3179E-03    -26.1285E-03     51.6807E-03    -25.7590E-03     42.2619E-03
             624     8.77122E-03     75.6942E-03    -21.0967E+06    -68.2852E+06     1.84819E+06    -710.593E+03    -26.1708E-03     52.0577E-03    -25.8870E-03     46.1366E-03    -26.2048E-03     51.7691E-03    -25.7481E-03     46.0709E-03
             625     9.64845E-03     75.7396E-03    -18.7948E+06    -60.5005E+06     2.82668E+06    -635.105E+03    -26.2352E-03     52.1024E-03    -25.8673E-03     49.6272E-03    -26.2796E-03     51.8572E-03    -25.7382E-03     49.5511E-03
             626     10.5257E-03     75.7882E-03    -16.8166E+06    -52.4076E+06     3.37341E+06    -526.984E+03    -26.2898E-03     52.1358E-03    -25.8460E-03     52.6675E-03    -26.3490E-03     51.9395E-03    -25.7288E-03     52.5799E-03
             627     11.4029E-03     75.8394E-03    -15.1494E+06    -42.4325E+06     2.88916E+06    -389.769E+03    -26.3238E-03     52.1417E-03    -25.8179E-03     55.1036E-03    -26.4042E-03     52.0093E-03    -25.7199E-03     55.0036E-03
             628     12.2802E-03     75.8926E-03    -13.7557E+06    -27.3038E+06     3.20849E+06    -231.404E+03    -26.3194E-03     52.1060E-03    -25.7865E-03     57.0526E-03    -26.4363E-03     52.0678E-03    -25.7110E-03     56.9400E-03
             629     13.1575E-03     75.9474E-03    -12.6014E+06    -8.94573E+06     2.28988E+06    -49.2486E+03    -26.2941E-03     52.0382E-03    -25.7441E-03     58.7871E-03    -26.4607E-03     52.1216E-03    -25.7014E-03     58.6618E-03
             630     14.0347E-03     76.0039E-03    -11.4775E+06     36.6980E+06     9.46869E+06     147.084E+03    -26.1454E-03     51.8454E-03    -25.6999E-03     60.6009E-03    -26.4179E-03     52.1800E-03    -25.6892E-03     60.4714E-03
             631     14.9122E-03     76.0622E-03    -9.77824E+06     87.5382E+06     27.3976E+06     189.712E+03    -25.7654E-03     51.4613E-03    -25.6958E-03     55.2698E-03    -26.1358E-03     52.0283E-03    -25.6716E-03     55.1535E-03
             632     15.7897E-03     76.1085E-03    -7.06118E+06     110.503E+06     47.6332E+06     65.9259E+03    -25.3372E-03     51.0756E-03    -25.7384E-03     42.9649E-03    -25.7409E-03     51.7084E-03    -25.6502E-03     42.8675E-03
             633     16.6673E-03     76.1435E-03    -3.59601E+06     115.549E+06     64.9928E+06    -6.53820E+03    -25.0487E-03     50.8395E-03    -25.7908E-03     24.1441E-03    -25.4107E-03     51.4105E-03    -25.6281E-03     24.0743E-03
             634     877.030E-06     76.4649E-03    -47.8322E+06    -129.760E+06    -46.6255E+06     55.7475E+03    -25.8738E-03     51.7410E-03    -25.8672E-03     5.59149E-03    -25.8574E-03     51.2294E-03    -25.8428E-03     5.58890E-03
             635     1.75408E-03     76.4723E-03    -46.0834E+06    -126.534E+06    -41.6680E+06     49.9667E+03    -25.8703E-03     51.7541E-03    -25.8838E-03     10.2547E-03    -25.8573E-03     51.2492E-03    -25.8419E-03     10.2491E-03
             636     2.63114E-03     76.4843E-03    -43.4349E+06    -120.878E+06    -34.8512E+06    -116.165E+03    -25.8731E-03     51.7706E-03    -25.8975E-03     15.1256E-03    -25.8656E-03     51.2809E-03    -25.8335E-03     15.1144E-03
             637     3.50823E-03     76.5010E-03    -40.2400E+06    -113.380E+06    -27.3973E+06    -419.620E+03    -25.8820E-03     51.7904E-03    -25.9084E-03     19.9662E-03    -25.8813E-03     51.3238E-03    -25.8226E-03     19.9471E-03
             638     4.38533E-03     76.5222E-03    -36.8051E+06    -105.705E+06    -20.1571E+06    -671.246E+03    -25.9038E-03     51.8200E-03    -25.9162E-03     24.7235E-03    -25.9090E-03     51.3777E-03    -25.8103E-03     24.6965E-03
             639     5.26247E-03     76.5479E-03    -33.3298E+06    -97.4304E+06    -13.7741E+06    -828.304E+03    -25.9367E-03     51.8550E-03    -25.9182E-03     29.3714E-03    -25.9480E-03     51.4420E-03    -25.7975E-03     29.3369E-03
             640     6.13963E-03     76.5779E-03    -29.9552E+06    -89.4496E+06    -8.34946E+06    -928.693E+03    -25.9818E-03     51.8979E-03    -25.9161E-03     33.8759E-03    -25.9985E-03     51.5149E-03    -25.7847E-03     33.8338E-03
             641     7.01681E-03     76.6121E-03    -26.7669E+06    -81.5567E+06    -3.90621E+06    -979.343E+03    -26.0361E-03     51.9459E-03    -25.9097E-03     38.2111E-03    -26.0587E-03     51.5952E-03    -25.7722E-03     38.1608E-03
             642     7.89400E-03     76.6503E-03    -23.8234E+06    -74.3927E+06    -548.605E+03    -983.906E+03    -26.0993E-03     51.9993E-03    -25.9000E-03     42.3179E-03    -26.1277E-03     51.6806E-03    -25.7603E-03     42.2589E-03
             643     8.77122E-03     76.6923E-03    -21.1694E+06    -68.2821E+06     1.60090E+06    -939.244E+03    -26.1695E-03     52.0564E-03    -25.8869E-03     46.1373E-03    -26.2035E-03     51.7683E-03    -25.7492E-03     46.0687E-03
             644     9.64843E-03     76.7377E-03    -18.8433E+06    -60.5602E+06     2.58980E+06    -849.956E+03    -26.2337E-03     52.1008E-03    -25.8671E-03     49.6287E-03    -26.2780E-03     51.8557E-03    -25.7390E-03     49.5498E-03
             645     10.5257E-03     76.7863E-03    -16.8357E+06    -52.5242E+06     3.14970E+06    -718.448E+03    -26.2883E-03     52.1341E-03    -25.8458E-03     52.6697E-03    -26.3471E-03     51.9375E-03    -25.7294E-03     52.5796E-03
             646     11.4029E-03     76.8375E-03    -15.1391E+06    -42.5996E+06     2.67845E+06    -551.575E+03    -26.3226E-03     52.1401E-03    -25.8175E-03     55.1061E-03    -26.4024E-03     52.0071E-03    -25.7204E-03     55.0041E-03
             647     12.2802E-03     76.8907E-03    -13.7013E+06    -27.5174E+06     3.01782E+06    -348.654E+03    -26.3186E-03     52.1047E-03    -25.7861E-03     57.0552E-03    -26.4346E-03     52.0656E-03    -25.7113E-03     56.9411E-03
             648     13.1574E-03     76.9455E-03    -12.4925E+06    -9.19691E+06     2.12615E+06    -121.866E+03    -26.2938E-03     52.0374E-03    -25.7437E-03     58.7895E-03    -26.4592E-03     52.1197E-03    -25.7016E-03     58.6632E-03
             649     14.0348E-03     77.0020E-03    -11.2317E+06     36.4158E+06     9.35971E+06     126.572E+03    -26.1458E-03     51.8453E-03    -25.6995E-03     60.6025E-03    -26.4165E-03     52.1783E-03    -25.6892E-03     60.4727E-03
             650     14.9122E-03     77.0603E-03    -9.40626E+06     87.6454E+06     27.4582E+06     195.513E+03    -25.7662E-03     51.4616E-03    -25.6954E-03     55.2705E-03    -26.1350E-03     52.0285E-03    -25.6716E-03     55.1543E-03
             651     15.7897E-03     77.1066E-03    -6.85481E+06     110.686E+06     47.6752E+06     31.6254E+03    -25.3415E-03     51.0796E-03    -25.7381E-03     42.9648E-03    -25.7446E-03     51.7130E-03    -25.6503E-03     42.8670E-03
             652     16.6673E-03     77.1416E-03    -3.62451E+06     115.486E+06     64.8285E+06    -19.0381E+03    -25.0556E-03     50.8460E-03    -25.7904E-03     24.1433E-03    -25.4174E-03     51.4170E-03    -25.6285E-03     24.0734E-03
             653     877.035E-06     77.4630E-03    -47.9578E+06    -129.859E+06    -46.7487E+06     35.0153E+03    -25.8773E-03     51.7483E-03    -25.8709E-03     5.59075E-03    -25.8612E-03     51.2365E-03    -25.8468E-03     5.58790E-03
             654     1.75407E-03     77.4704E-03    -46.1958E+06    -126.446E+06    -41.8395E+06    -45.0996E+03    -25.8728E-03     51.7595E-03    -25.8868E-03     10.2539E-03    -25.8603E-03     51.2555E-03    -25.8456E-03     10.2470E-03
             655     2.63113E-03     77.4825E-03    -43.5575E+06    -120.471E+06    -35.1433E+06    -306.417E+03    -25.8741E-03     51.7731E-03    -25.8989E-03     15.1248E-03    -25.8675E-03     51.2860E-03    -25.8368E-03     15.1111E-03
             656     3.50821E-03     77.4991E-03    -40.3920E+06    -112.894E+06    -27.7406E+06    -621.116E+03    -25.8823E-03     51.7914E-03    -25.9091E-03     19.9653E-03    -25.8826E-03     51.3279E-03    -25.8255E-03     19.9435E-03
             657     4.38533E-03     77.5203E-03    -36.9731E+06    -105.309E+06    -20.4844E+06    -879.152E+03    -25.9039E-03     51.8207E-03    -25.9168E-03     24.7225E-03    -25.9101E-03     51.3812E-03    -25.8129E-03     24.6928E-03
             658     5.26246E-03     77.5460E-03    -33.5006E+06    -97.1049E+06    -14.0929E+06    -1.06824E+06    -25.9366E-03     51.8554E-03    -25.9187E-03     29.3705E-03    -25.9487E-03     51.4447E-03    -25.7998E-03     29.3329E-03
             659     6.13962E-03     77.5760E-03    -30.1168E+06    -89.2001E+06    -8.65686E+06    -1.19307E+06    -25.9814E-03     51.8979E-03    -25.9165E-03     33.8750E-03    -25.9988E-03     51.5168E-03    -25.7867E-03     33.8294E-03
             660     7.01679E-03     77.6102E-03    -26.9118E+06    -81.3801E+06    -4.20691E+06    -1.25897E+06    -26.0354E-03     51.9453E-03    -25.9100E-03     38.2105E-03    -26.0585E-03     51.5962E-03    -25.7740E-03     38.1566E-03
             661     7.89400E-03     77.6484E-03    -23.9445E+06    -74.2941E+06    -843.138E+03    -1.26772E+06    -26.0981E-03     51.9982E-03    -25.9001E-03     42.3179E-03    -26.1268E-03     51.6806E-03    -25.7618E-03     42.2552E-03
             662     8.77120E-03     77.6904E-03    -21.2655E+06    -68.2633E+06     1.31338E+06    -1.22100E+06    -26.1679E-03     52.0548E-03    -25.8869E-03     46.1381E-03    -26.2021E-03     51.7673E-03    -25.7505E-03     46.0659E-03
             663     9.64843E-03     77.7358E-03    -18.9076E+06    -60.6172E+06     2.31254E+06    -1.11896E+06    -26.2319E-03     52.0988E-03    -25.8669E-03     49.6306E-03    -26.2760E-03     51.8539E-03    -25.7400E-03     49.5482E-03
             664     10.5257E-03     77.7844E-03    -16.8678E+06    -52.6514E+06     2.88481E+06    -969.145E+03    -26.2866E-03     52.1320E-03    -25.8454E-03     52.6725E-03    -26.3450E-03     51.9352E-03    -25.7302E-03     52.5791E-03
             665     11.4029E-03     77.8356E-03    -15.1329E+06    -42.7914E+06     2.42843E+06    -773.799E+03    -26.3211E-03     52.1382E-03    -25.8170E-03     55.1094E-03    -26.4003E-03     52.0046E-03    -25.7209E-03     55.0045E-03
             666     12.2802E-03     77.8888E-03    -13.6577E+06    -27.7696E+06     2.78556E+06    -541.311E+03    -26.3177E-03     52.1033E-03    -25.7856E-03     57.0585E-03    -26.4328E-03     52.0632E-03    -25.7116E-03     56.9419E-03
             667     13.1574E-03     77.9437E-03    -12.3981E+06    -9.48547E+06     1.92326E+06    -282.832E+03    -26.2936E-03     52.0367E-03    -25.7432E-03     58.7926E-03    -26.4578E-03     52.1178E-03    -25.7018E-03     58.6643E-03
             668     14.0347E-03     78.0001E-03    -11.1046E+06     36.1301E+06     9.18811E+06    -51.2896E+03    -26.1465E-03     51.8455E-03    -25.6990E-03     60.6049E-03    -26.4159E-03     52.1771E-03    -25.6894E-03     60.4728E-03
             669     14.9122E-03     78.0584E-03    -9.23365E+06     87.6266E+06     27.3758E+06     99.2492E+03    -25.7671E-03     51.4620E-03    -25.6949E-03     55.2715E-03    -26.1349E-03     52.0287E-03    -25.6717E-03     55.1540E-03
             670     15.7897E-03     78.1048E-03    -6.61843E+06     110.774E+06     47.6542E+06     170.001E+03    -25.3445E-03     51.0822E-03    -25.7377E-03     42.9651E-03    -25.7465E-03     51.7157E-03    -25.6504E-03     42.8691E-03
             671     16.6673E-03     78.1398E-03    -3.45151E+06     115.495E+06     64.7787E+06     119.015E+03    -25.0595E-03     50.8496E-03    -25.7902E-03     24.1443E-03    -25.4204E-03     51.4205E-03    -25.6287E-03     24.0762E-03
             672     877.022E-06     78.4611E-03    -48.1513E+06    -129.883E+06    -46.9677E+06    -7.52848E+03    -25.8808E-03     51.7555E-03    -25.8746E-03     5.59087E-03    -25.8653E-03     51.2442E-03    -25.8513E-03     5.58746E-03
             673     1.75407E-03     78.4686E-03    -46.3866E+06    -126.154E+06    -42.1819E+06    -194.754E+03    -25.8747E-03     51.7636E-03    -25.8889E-03     10.2539E-03    -25.8631E-03     51.2618E-03    -25.8496E-03     10.2451E-03
             674     2.63112E-03     78.4806E-03    -43.7880E+06    -119.935E+06    -35.5572E+06    -520.580E+03    -25.8747E-03     51.7746E-03    -25.8999E-03     15.1245E-03    -25.8694E-03     51.2912E-03    -25.8403E-03     15.1080E-03
             675     3.50821E-03     78.4972E-03    -40.6493E+06    -112.361E+06    -28.1161E+06    -849.434E+03    -25.8827E-03     51.7925E-03    -25.9098E-03     19.9645E-03    -25.8844E-03     51.3326E-03    -25.8285E-03     19.9398E-03
             676     4.38531E-03     78.5184E-03    -37.2229E+06    -104.823E+06    -20.8404E+06    -1.12803E+06    -25.9041E-03     51.8215E-03    -25.9174E-03     24.7214E-03    -25.9117E-03     51.3853E-03    -25.8157E-03     24.6885E-03
             677     5.26245E-03     78.5441E-03    -33.7263E+06    -96.6961E+06    -14.4454E+06    -1.35114E+06    -25.9365E-03     51.8557E-03    -25.9192E-03     29.3692E-03    -25.9498E-03     51.4479E-03    -25.8024E-03     29.3280E-03
             678     6.13960E-03     78.5741E-03    -30.3191E+06    -88.8801E+06    -9.00523E+06    -1.50451E+06    -25.9809E-03     51.8978E-03    -25.9169E-03     33.8739E-03    -25.9993E-03     51.5191E-03    -25.7891E-03     33.8243E-03
             679     7.01678E-03     78.6083E-03    -27.0889E+06    -81.1495E+06    -4.54754E+06    -1.58830E+06    -26.0344E-03     51.9447E-03    -25.9103E-03     38.2096E-03    -26.0583E-03     51.5975E-03    -25.7761E-03     38.1515E-03
             680     7.89398E-03     78.6465E-03    -24.0953E+06    -74.1551E+06    -1.17901E+06    -1.60687E+06    -26.0967E-03     51.9969E-03    -25.9002E-03     42.3176E-03    -26.1259E-03     51.6807E-03    -25.7636E-03     42.2505E-03
             681     8.77119E-03     78.6885E-03    -21.3843E+06    -68.2176E+06     983.776E+03    -1.56009E+06    -26.1661E-03     52.0529E-03    -25.8868E-03     46.1388E-03    -26.2004E-03     51.7663E-03    -25.7520E-03     46.0622E-03
             682     9.64841E-03     78.7339E-03    -18.9953E+06    -60.6636E+06     1.98999E+06    -1.45069E+06    -26.2298E-03     52.0964E-03    -25.8667E-03     49.6325E-03    -26.2738E-03     51.8519E-03    -25.7412E-03     49.5459E-03
             683     10.5257E-03     78.7825E-03    -16.9217E+06    -52.7814E+06     2.57352E+06    -1.28094E+06    -26.2845E-03     52.1295E-03    -25.8450E-03     52.6757E-03    -26.3425E-03     51.9326E-03    -25.7311E-03     52.5784E-03
             684     11.4029E-03     78.8337E-03    -15.1623E+06    -43.0040E+06     2.12456E+06    -1.05653E+06    -26.3195E-03     52.1360E-03    -25.8165E-03     55.1136E-03    -26.3980E-03     52.0019E-03    -25.7215E-03     55.0051E-03
             685     12.2802E-03     78.8869E-03    -13.6647E+06    -28.0379E+06     2.49694E+06    -792.536E+03    -26.3167E-03     52.1017E-03    -25.7850E-03     57.0630E-03    -26.4311E-03     52.0608E-03    -25.7121E-03     56.9431E-03
             686     13.1574E-03     78.9417E-03    -12.3961E+06    -9.80009E+06     1.64684E+06    -507.034E+03    -26.2935E-03     52.0361E-03    -25.7426E-03     58.7972E-03    -26.4569E-03     52.1159E-03    -25.7021E-03     58.6659E-03
             687     14.0347E-03     78.9982E-03    -11.1479E+06     35.8388E+06     8.92274E+06    -210.179E+03    -26.1473E-03     51.8458E-03    -25.6985E-03     60.6089E-03    -26.4162E-03     52.1764E-03    -25.6897E-03     60.4747E-03
             688     14.9122E-03     79.0565E-03    -9.47749E+06     87.3708E+06     27.0436E+06     94.2710E+03    -25.7681E-03     51.4624E-03    -25.6943E-03     55.2741E-03    -26.1363E-03     52.0287E-03    -25.6720E-03     55.1565E-03
             689     15.7897E-03     79.1029E-03    -7.01809E+06     110.728E+06     47.3344E+06     251.879E+03    -25.3417E-03     51.0787E-03    -25.7370E-03     42.9666E-03    -25.7451E-03     51.7130E-03    -25.6507E-03     42.8716E-03
             690     16.6673E-03     79.1379E-03    -3.70228E+06     115.658E+06     64.6977E+06     165.998E+03    -25.0546E-03     50.8447E-03    -25.7900E-03     24.1455E-03    -25.4170E-03     51.4168E-03    -25.6289E-03     24.0780E-03
             691     877.027E-06     79.4593E-03    -48.4869E+06    -129.724E+06    -47.4012E+06    -116.962E+03    -25.8832E-03     51.7602E-03    -25.8770E-03     5.59083E-03    -25.8690E-03     51.2508E-03    -25.8556E-03     5.58600E-03
             692     1.75405E-03     79.4667E-03    -46.7437E+06    -125.645E+06    -42.6613E+06    -406.859E+03    -25.8757E-03     51.7657E-03    -25.8900E-03     10.2538E-03    -25.8659E-03     51.2677E-03    -25.8534E-03     10.2423E-03
             693     2.63112E-03     79.4787E-03    -44.1420E+06    -119.297E+06    -35.9957E+06    -766.582E+03    -25.8754E-03     51.7761E-03    -25.9007E-03     15.1240E-03    -25.8721E-03     51.2970E-03    -25.8437E-03     15.1043E-03
             694     3.50819E-03     79.4953E-03    -40.9869E+06    -111.735E+06    -28.5156E+06    -1.11407E+06    -25.8832E-03     51.7939E-03    -25.9106E-03     19.9634E-03    -25.8870E-03     51.3382E-03    -25.8318E-03     19.9353E-03
             695     4.38530E-03     79.5166E-03    -37.5306E+06    -104.233E+06    -21.2239E+06    -1.43079E+06    -25.9043E-03     51.8224E-03    -25.9181E-03     24.7200E-03    -25.9137E-03     51.3902E-03    -25.8187E-03     24.6831E-03
             696     5.26243E-03     79.5422E-03    -34.0036E+06    -96.1939E+06    -14.8293E+06    -1.68868E+06    -25.9363E-03     51.8561E-03    -25.9198E-03     29.3675E-03    -25.9511E-03     51.4518E-03    -25.8052E-03     29.3218E-03
             697     6.13959E-03     79.5722E-03    -30.5669E+06    -88.4786E+06    -9.39133E+06    -1.86998E+06    -25.9802E-03     51.8975E-03    -25.9173E-03     33.8721E-03    -25.9999E-03     51.5218E-03    -25.7916E-03     33.8178E-03
             698     7.01676E-03     79.6064E-03    -27.3056E+06    -80.8510E+06    -4.93108E+06    -1.97764E+06    -26.0332E-03     51.9437E-03    -25.9105E-03     38.2082E-03    -26.0580E-03     51.5989E-03    -25.7784E-03     38.1449E-03
             699     7.89397E-03     79.6446E-03    -24.2748E+06    -73.9654E+06    -1.55749E+06    -2.00881E+06    -26.0950E-03     51.9952E-03    -25.9003E-03     42.3168E-03    -26.1248E-03     51.6808E-03    -25.7656E-03     42.2444E-03
             700     8.77117E-03     79.6866E-03    -21.5277E+06    -68.1352E+06     610.689E+03    -1.96579E+06    -26.1638E-03     52.0505E-03    -25.8867E-03     46.1392E-03    -26.1985E-03     51.7651E-03    -25.7536E-03     46.0573E-03
             701     9.64841E-03     79.7320E-03    -19.1006E+06    -60.6920E+06     1.62336E+06    -1.84720E+06    -26.2273E-03     52.0936E-03    -25.8663E-03     49.6346E-03    -26.2713E-03     51.8496E-03    -25.7425E-03     49.5428E-03
             702     10.5256E-03     79.7806E-03    -16.9996E+06    -52.9176E+06     2.21171E+06    -1.65188E+06    -26.2821E-03     52.1266E-03    -25.8445E-03     52.6796E-03    -26.3398E-03     51.9297E-03    -25.7321E-03     52.5774E-03
             703     11.4029E-03     79.8318E-03    -15.2143E+06    -43.2319E+06     1.77079E+06    -1.39102E+06    -26.3176E-03     52.1335E-03    -25.8159E-03     55.1190E-03    -26.3956E-03     51.9988E-03    -25.7223E-03     55.0061E-03
             704     12.2801E-03     79.8850E-03    -13.7114E+06    -28.3398E+06     2.14768E+06    -1.07700E+06    -26.3158E-03     52.1001E-03    -25.7843E-03     57.0691E-03    -26.4294E-03     52.0582E-03    -25.7126E-03     56.9456E-03
             705     13.1574E-03     79.9399E-03    -12.4675E+06    -10.1423E+06     1.30177E+06    -732.668E+03    -26.2935E-03     52.0354E-03    -25.7418E-03     58.8034E-03    -26.4563E-03     52.1141E-03    -25.7025E-03     58.6693E-03
             706     14.0347E-03     79.9963E-03    -11.2668E+06     35.3904E+06     8.55405E+06    -311.091E+03    -26.1483E-03     51.8461E-03    -25.6978E-03     60.6144E-03    -26.4165E-03     52.1752E-03    -25.6900E-03     60.4790E-03
             707     14.9122E-03     80.0546E-03    -9.56121E+06     86.8880E+06     26.6632E+06     192.912E+03    -25.7693E-03     51.4628E-03    -25.6936E-03     55.2781E-03    -26.1366E-03     52.0273E-03    -25.6724E-03     55.1618E-03
             708     15.7897E-03     80.1010E-03    -7.03848E+06     110.810E+06     47.1439E+06     345.299E+03    -25.3400E-03     51.0762E-03    -25.7362E-03     42.9691E-03    -25.7434E-03     51.7113E-03    -25.6510E-03     42.8753E-03
             709     16.6673E-03     80.1360E-03    -3.74209E+06     115.934E+06     64.7000E+06     77.7415E+03    -25.0508E-03     50.8407E-03    -25.7898E-03     24.1469E-03    -25.4138E-03     51.4143E-03    -25.6290E-03     24.0782E-03
             710     877.014E-06     80.4574E-03    -48.9504E+06    -129.270E+06    -47.8839E+06    -299.953E+03    -25.8846E-03     51.7630E-03    -25.8784E-03     5.59049E-03    -25.8727E-03     51.2572E-03    -25.8594E-03     5.58330E-03
             711     1.75405E-03     80.4648E-03    -47.1997E+06    -124.931E+06    -43.1433E+06    -651.025E+03    -25.8765E-03     51.7675E-03    -25.8909E-03     10.2530E-03    -25.8694E-03     51.2743E-03    -25.8571E-03     10.2383E-03
             712     2.63110E-03     80.4768E-03    -44.5963E+06    -118.540E+06    -36.4633E+06    -1.04960E+06    -25.8761E-03     51.7776E-03    -25.9015E-03     15.1227E-03    -25.8755E-03     51.3036E-03    -25.8473E-03     15.0994E-03
             713     3.50818E-03     80.4935E-03    -41.4044E+06    -110.983E+06    -28.9675E+06    -1.43478E+06    -25.8837E-03     51.7951E-03    -25.9114E-03     19.9619E-03    -25.8900E-03     51.3444E-03    -25.8353E-03     19.9297E-03
             714     4.38528E-03     80.5147E-03    -37.9056E+06    -103.523E+06    -21.6584E+06    -1.79250E+06    -25.9043E-03     51.8231E-03    -25.9188E-03     24.7182E-03    -25.9160E-03     51.3956E-03    -25.8221E-03     24.6766E-03
             715     5.26242E-03     80.5403E-03    -34.3399E+06    -95.5919E+06    -15.2498E+06    -2.08289E+06    -25.9359E-03     51.8564E-03    -25.9205E-03     29.3652E-03    -25.9527E-03     51.4562E-03    -25.8083E-03     29.3145E-03
             716     6.13957E-03     80.5703E-03    -30.8654E+06    -87.9766E+06    -9.81424E+06    -2.29870E+06    -25.9793E-03     51.8970E-03    -25.9178E-03     33.8698E-03    -26.0005E-03     51.5249E-03    -25.7945E-03     33.8099E-03
             717     7.01675E-03     80.6045E-03    -27.5604E+06    -80.4706E+06    -5.35563E+06    -2.43708E+06    -26.0316E-03     51.9424E-03    -25.9108E-03     38.2062E-03    -26.0576E-03     51.6004E-03    -25.7809E-03     38.1370E-03
             718     7.89394E-03     80.6427E-03    -24.4865E+06    -73.7142E+06    -1.98067E+06    -2.48500E+06    -26.0928E-03     51.9930E-03    -25.9003E-03     42.3155E-03    -26.1234E-03     51.6808E-03    -25.7678E-03     42.2371E-03
             719     8.77116E-03     80.6847E-03    -21.6955E+06    -68.0082E+06     192.102E+03    -2.44434E+06    -26.1611E-03     52.0476E-03    -25.8865E-03     46.1394E-03    -26.1962E-03     51.7636E-03    -25.7554E-03     46.0514E-03
             720     9.64838E-03     80.7301E-03    -19.2307E+06    -60.6988E+06     1.20770E+06    -2.31571E+06    -26.2244E-03     52.0902E-03    -25.8658E-03     49.6368E-03    -26.2684E-03     51.8470E-03    -25.7439E-03     49.5390E-03
             721     10.5256E-03     80.7787E-03    -17.0856E+06    -53.0620E+06     1.80039E+06    -2.09104E+06    -26.2794E-03     52.1232E-03    -25.8438E-03     52.6842E-03    -26.3367E-03     51.9263E-03    -25.7331E-03     52.5764E-03
             722     11.4029E-03     80.8299E-03    -15.2751E+06    -43.4930E+06     1.36283E+06    -1.77452E+06    -26.3156E-03     52.1306E-03    -25.8150E-03     55.1257E-03    -26.3929E-03     51.9954E-03    -25.7230E-03     55.0079E-03
             723     12.2801E-03     80.8831E-03    -13.7597E+06    -28.6956E+06     1.74589E+06    -1.38888E+06    -26.3147E-03     52.0981E-03    -25.7834E-03     57.0768E-03    -26.4275E-03     52.0551E-03    -25.7131E-03     56.9493E-03
             724     13.1574E-03     80.9379E-03    -12.5384E+06    -10.5884E+06     897.938E+03    -928.191E+03    -26.2936E-03     52.0345E-03    -25.7409E-03     58.8114E-03    -26.4555E-03     52.1117E-03    -25.7029E-03     58.6747E-03
             725     14.0347E-03     80.9944E-03    -11.3526E+06     34.8221E+06     8.13931E+06    -412.237E+03    -26.1494E-03     51.8464E-03    -25.6970E-03     60.6218E-03    -26.4166E-03     52.1733E-03    -25.6903E-03     60.4850E-03
             726     14.9122E-03     81.0527E-03    -9.51554E+06     86.3176E+06     26.2699E+06     69.5297E+03    -25.7703E-03     51.4629E-03    -25.6926E-03     55.2841E-03    -26.1360E-03     52.0251E-03    -25.6726E-03     55.1663E-03
             727     15.7897E-03     81.0991E-03    -6.72529E+06     110.915E+06     47.0405E+06     264.382E+03    -25.3392E-03     51.0745E-03    -25.7353E-03     42.9738E-03    -25.7410E-03     51.7098E-03    -25.6512E-03     42.8790E-03
             728     16.6673E-03     81.1341E-03    -3.37550E+06     116.243E+06     64.7369E+06     122.957E+03    -25.0517E-03     50.8408E-03    -25.7891E-03     24.1503E-03    -25.4133E-03     51.4154E-03    -25.6291E-03     24.0822E-03
             729     877.021E-06     81.4556E-03    -49.4021E+06    -128.468E+06    -48.3145E+06    -480.699E+03    -25.8859E-03     51.7656E-03    -25.8797E-03     5.59013E-03    -25.8768E-03     51.2651E-03    -25.8633E-03     5.58061E-03
             730     1.75404E-03     81.4629E-03    -47.6546E+06    -124.022E+06    -43.5762E+06    -901.009E+03    -25.8777E-03     51.7699E-03    -25.8922E-03     10.2521E-03    -25.8735E-03     51.2826E-03    -25.8611E-03     10.2342E-03
             731     2.63110E-03     81.4750E-03    -45.0319E+06    -117.616E+06    -36.9089E+06    -1.35368E+06    -25.8770E-03     51.7796E-03    -25.9026E-03     15.1212E-03    -25.8793E-03     51.3115E-03    -25.8513E-03     15.0940E-03
             732     3.50816E-03     81.4916E-03    -41.8296E+06    -110.076E+06    -29.4280E+06    -1.80084E+06    -25.8839E-03     51.7963E-03    -25.9123E-03     19.9601E-03    -25.8930E-03     51.3514E-03    -25.8392E-03     19.9231E-03
             733     4.38527E-03     81.5128E-03    -38.3098E+06    -102.684E+06    -22.1184E+06    -2.20449E+06    -25.9041E-03     51.8237E-03    -25.9196E-03     24.7159E-03    -25.9184E-03     51.4016E-03    -25.8258E-03     24.6691E-03
             734     5.26239E-03     81.5384E-03    -34.7114E+06    -94.8674E+06    -15.7001E+06    -2.53805E+06    -25.9353E-03     51.8565E-03    -25.9212E-03     29.3624E-03    -25.9544E-03     51.4611E-03    -25.8118E-03     29.3058E-03
             735     6.13956E-03     81.5684E-03    -31.1910E+06    -87.3554E+06    -10.2653E+06    -2.79854E+06    -25.9780E-03     51.8962E-03    -25.9182E-03     33.8670E-03    -26.0011E-03     51.5283E-03    -25.7976E-03     33.8006E-03
             736     7.01672E-03     81.6026E-03    -27.8437E+06    -79.9950E+06    -5.81655E+06    -2.97043E+06    -26.0296E-03     51.9405E-03    -25.9110E-03     38.2037E-03    -26.0570E-03     51.6020E-03    -25.7837E-03     38.1277E-03
             737     7.89393E-03     81.6408E-03    -24.7273E+06    -73.3859E+06    -2.44701E+06    -3.03918E+06    -26.0900E-03     51.9901E-03    -25.9001E-03     42.3142E-03    -26.1216E-03     51.6805E-03    -25.7701E-03     42.2286E-03
             738     8.77114E-03     81.6827E-03    -21.8904E+06    -67.8285E+06    -274.271E+03    -3.00723E+06    -26.1578E-03     52.0439E-03    -25.8860E-03     46.1399E-03    -26.1934E-03     51.7618E-03    -25.7573E-03     46.0446E-03
             739     9.64838E-03     81.7282E-03    -19.3709E+06    -60.6780E+06     744.621E+03    -2.86781E+06    -26.2209E-03     52.0861E-03    -25.8652E-03     49.6399E-03    -26.2650E-03     51.8438E-03    -25.7454E-03     49.5350E-03
             740     10.5256E-03     81.7767E-03    -17.1843E+06    -53.2149E+06     1.33497E+06    -2.61015E+06    -26.2763E-03     52.1192E-03    -25.8429E-03     52.6904E-03    -26.3332E-03     51.9223E-03    -25.7342E-03     52.5759E-03
             741     11.4029E-03     81.8280E-03    -15.3253E+06    -43.8090E+06     897.739E+03    -2.22813E+06    -26.3133E-03     52.1273E-03    -25.8139E-03     55.1348E-03    -26.3897E-03     51.9912E-03    -25.7237E-03     55.0111E-03
             742     12.2801E-03     81.8811E-03    -13.7871E+06     -29.142E+06     1.28758E+06    -1.73529E+06    -26.3135E-03     52.0957E-03    -25.7822E-03     57.0872E-03    -26.4251E-03     52.0512E-03    -25.7135E-03     56.9552E-03
             743     13.1574E-03     81.9360E-03    -12.5371E+06    -11.1762E+06     447.494E+03    -1.15211E+06    -26.2936E-03     52.0334E-03    -25.7398E-03     58.8224E-03    -26.4540E-03     52.1083E-03    -25.7032E-03     58.6828E-03
             744     14.0347E-03     81.9925E-03    -11.3526E+06     34.1700E+06     7.70632E+06    -513.907E+03    -26.1506E-03     51.8466E-03    -25.6960E-03     60.6323E-03    -26.4163E-03     52.1709E-03    -25.6905E-03     60.4943E-03
             745     14.9122E-03     82.0508E-03    -9.64462E+06     85.9552E+06     25.8400E+06    -110.999E+03    -25.7711E-03     51.4625E-03    -25.6913E-03     55.2930E-03    -26.1364E-03     52.0237E-03    -25.6728E-03     55.1728E-03
             746     15.7897E-03     82.0972E-03    -7.01142E+06     110.833E+06     46.6357E+06     36.2899E+03    -25.3377E-03     51.0717E-03    -25.7339E-03     42.9803E-03    -25.7403E-03     51.7075E-03    -25.6513E-03     42.8825E-03
             747     16.6673E-03     82.1322E-03    -3.62884E+06     116.308E+06     64.5590E+06     147.967E+03    -25.0488E-03     50.8374E-03    -25.7886E-03     24.1534E-03    -25.4115E-03     51.4129E-03    -25.6292E-03     24.0856E-03
             748     877.007E-06     82.4537E-03    -49.8566E+06    -127.345E+06    -48.7546E+06    -626.956E+03    -25.8873E-03     51.7683E-03    -25.8810E-03     5.58956E-03    -25.8814E-03     51.2747E-03    -25.8678E-03     5.57814E-03
             749     1.75404E-03     82.4611E-03    -48.1079E+06    -122.889E+06    -44.0279E+06    -1.14768E+06    -25.8788E-03     51.7723E-03    -25.8934E-03     10.2511E-03    -25.8779E-03     51.2920E-03    -25.8656E-03     10.2300E-03
             750     2.63108E-03     82.4731E-03    -45.4756E+06    -116.489E+06    -37.3618E+06    -1.68753E+06    -25.8777E-03     51.7815E-03    -25.9038E-03     15.1196E-03    -25.8832E-03     51.3204E-03    -25.8557E-03     15.0881E-03
             751     3.50816E-03     82.4898E-03    -42.2432E+06    -109.000E+06    -29.8799E+06    -2.19681E+06    -25.8843E-03     51.7976E-03    -25.9133E-03     19.9579E-03    -25.8963E-03     51.3594E-03    -25.8434E-03     19.9158E-03
             752     4.38525E-03     82.5109E-03    -38.7035E+06    -101.691E+06    -22.5810E+06    -2.65699E+06    -25.9039E-03     51.8243E-03    -25.9204E-03     24.7132E-03    -25.9209E-03     51.4084E-03    -25.8298E-03     24.6605E-03
             753     5.26238E-03     82.5366E-03    -35.0751E+06    -93.9885E+06    -16.1716E+06    -3.05355E+06    -25.9344E-03     51.8561E-03    -25.9217E-03     29.3594E-03    -25.9559E-03     51.4663E-03    -25.8155E-03     29.2962E-03
             754     6.13953E-03     82.5665E-03    -31.5269E+06    -86.6081E+06    -10.7452E+06    -3.36149E+06    -25.9762E-03     51.8947E-03    -25.9185E-03     33.8639E-03    -26.0014E-03     51.5317E-03    -25.8010E-03     33.7903E-03
             755     7.01671E-03     82.6007E-03    -28.1484E+06    -79.4003E+06    -6.30732E+06    -3.57273E+06    -26.0268E-03     51.9378E-03    -25.9109E-03     38.2012E-03    -26.0560E-03     51.6034E-03    -25.7865E-03     38.1174E-03
             756     7.89390E-03     82.6389E-03    -24.9920E+06    -72.9641E+06    -2.95134E+06    -3.67527E+06    -26.0864E-03     51.9862E-03    -25.8998E-03     42.3132E-03    -26.1192E-03     51.6798E-03    -25.7725E-03     42.2194E-03
             757     8.77113E-03     82.6808E-03    -22.1047E+06    -67.5756E+06    -783.900E+03    -3.66070E+06    -26.1536E-03     52.0390E-03    -25.8853E-03     46.1417E-03    -26.1900E-03     51.7592E-03    -25.7592E-03     46.0380E-03
             758     9.64835E-03     82.7263E-03    -19.5301E+06    -60.6178E+06     232.438E+03    -3.52354E+06    -26.2167E-03     52.0808E-03    -25.8641E-03     49.6450E-03    -26.2609E-03     51.8398E-03    -25.7467E-03     49.5316E-03
             759     10.5256E-03     82.7748E-03    -17.2715E+06    -53.3821E+06     820.885E+03    -3.22719E+06    -26.2725E-03     52.1142E-03    -25.8416E-03     52.6993E-03    -26.3289E-03     51.9174E-03    -25.7351E-03     52.5768E-03
             760     11.4029E-03     82.8260E-03    -15.3671E+06    -44.1859E+06     373.799E+03    -2.76728E+06    -26.3106E-03     52.1230E-03    -25.8125E-03     55.1474E-03    -26.3859E-03     51.9859E-03    -25.7242E-03     55.0168E-03
             761     12.2801E-03     82.8792E-03    -13.7669E+06    -29.7052E+06     773.325E+03    -2.16753E+06    -26.3120E-03     52.0927E-03    -25.7807E-03     57.1016E-03    -26.4220E-03     52.0461E-03    -25.7138E-03     56.9641E-03
             762     13.1574E-03     82.9341E-03    -12.4658E+06    -11.8946E+06    -46.5185E+03    -1.45216E+06    -26.2936E-03     52.0319E-03    -25.7383E-03     58.8375E-03    -26.4519E-03     52.1039E-03    -25.7032E-03     58.6941E-03
             763     14.0347E-03     82.9906E-03    -11.2488E+06     33.3333E+06     7.23453E+06    -639.280E+03    -26.1522E-03     51.8468E-03    -25.6946E-03     60.6466E-03    -26.4155E-03     52.1675E-03    -25.6904E-03     60.5069E-03
             764     14.9122E-03     83.0489E-03    -9.57985E+06     85.7542E+06     25.4712E+06    -121.616E+03    -25.7722E-03     51.4618E-03    -25.6896E-03     55.3051E-03    -26.1363E-03     52.0224E-03    -25.6727E-03     55.1848E-03
             765     15.7897E-03     83.0953E-03    -7.09109E+06     110.750E+06     46.2435E+06    -35.9660E+03    -25.3407E-03     51.0728E-03    -25.7321E-03     42.9903E-03    -25.7430E-03     51.7090E-03    -25.6512E-03     42.8915E-03
             766     16.6673E-03     83.1303E-03    -3.75823E+06     116.149E+06     64.3359E+06     36.4741E+03    -25.0498E-03     50.8377E-03    -25.7879E-03     24.1592E-03    -25.4126E-03     51.4129E-03    -25.6292E-03     24.0899E-03
             767     877.012E-06     83.4519E-03    -50.2869E+06    -125.934E+06    -49.1931E+06    -759.420E+03    -25.8886E-03     51.7711E-03    -25.8825E-03     5.58881E-03    -25.8862E-03     51.2859E-03    -25.8730E-03     5.57568E-03
             768     1.75402E-03     83.4593E-03    -48.5467E+06    -121.494E+06    -44.4685E+06    -1.39569E+06    -25.8798E-03     51.7745E-03    -25.8948E-03     10.2498E-03    -25.8824E-03     51.3025E-03    -25.8705E-03     10.2255E-03
             769     2.63107E-03     83.4713E-03    -45.9114E+06    -115.136E+06    -37.8122E+06    -2.03557E+06    -25.8783E-03     51.7832E-03    -25.9049E-03     15.1177E-03    -25.8872E-03     51.3301E-03    -25.8605E-03     15.0817E-03
             770     3.50813E-03     83.4879E-03    -42.6779E+06    -107.735E+06    -30.3536E+06    -2.62853E+06    -25.8843E-03     51.7986E-03    -25.9142E-03     19.9555E-03    -25.8997E-03     51.3680E-03    -25.8479E-03     19.9078E-03
             771     4.38524E-03     83.5091E-03    -39.1079E+06    -100.518E+06    -23.0744E+06    -3.15881E+06    -25.9031E-03     51.8241E-03    -25.9210E-03     24.7107E-03    -25.9231E-03     51.4154E-03    -25.8339E-03     24.6515E-03
             772     5.26235E-03     83.5347E-03    -35.4556E+06    -92.9350E+06    -16.6749E+06    -3.62189E+06    -25.9326E-03     51.8546E-03    -25.9220E-03     29.3568E-03    -25.9568E-03     51.4714E-03    -25.8192E-03     29.2862E-03
             773     6.13951E-03     83.5647E-03    -31.8781E+06    -85.7232E+06    -11.2546E+06    -3.98344E+06    -25.9734E-03     51.8919E-03    -25.9185E-03     33.8613E-03    -26.0010E-03     51.5346E-03    -25.8042E-03     33.7797E-03
             774     7.01668E-03     83.5988E-03    -28.4722E+06    -78.6698E+06    -6.82575E+06    -4.23588E+06    -26.0231E-03     51.9336E-03    -25.9105E-03     38.1995E-03    -26.0541E-03     51.6041E-03    -25.7893E-03     38.1072E-03
             775     7.89390E-03     83.6370E-03    -25.2856E+06    -72.4125E+06    -3.48485E+06    -4.38916E+06    -26.0817E-03     51.9807E-03    -25.8989E-03     42.3135E-03    -26.1160E-03     51.6782E-03    -25.7747E-03     42.2105E-03
             776     8.77110E-03     83.6789E-03    -22.3466E+06    -67.2244E+06    -1.33281E+06    -4.41912E+06    -26.1484E-03     52.0324E-03    -25.8840E-03     46.1456E-03    -26.1856E-03     51.7555E-03    -25.7608E-03     46.0321E-03
             777     9.64835E-03     83.7243E-03    -19.7036E+06    -60.5017E+06    -325.047E+03    -4.28866E+06    -26.2115E-03     52.0740E-03    -25.8625E-03     49.6531E-03    -26.2559E-03     51.8346E-03    -25.7478E-03     49.5298E-03
             778     10.5256E-03     83.7729E-03    -17.3876E+06    -53.5537E+06     246.230E+03    -3.96503E+06    -26.2680E-03     52.1077E-03    -25.8397E-03     52.7119E-03    -26.3239E-03     51.9111E-03    -25.7356E-03     52.5799E-03
             779     11.4029E-03     83.8241E-03    -15.3953E+06    -44.6335E+06    -213.995E+03    -3.42516E+06    -26.3073E-03     52.1176E-03    -25.8103E-03     55.1645E-03    -26.3813E-03     51.9791E-03    -25.7244E-03     55.0255E-03
             780     12.2801E-03     83.8773E-03    -13.7373E+06    -30.3722E+06     191.603E+03    -2.70902E+06    -26.3103E-03     52.0887E-03    -25.7785E-03     57.1210E-03    -26.4183E-03     52.0396E-03    -25.7135E-03     56.9764E-03
             781     13.1574E-03     83.9322E-03    -12.3775E+06    -12.7589E+06    -609.971E+03    -1.85905E+06    -26.2939E-03     52.0300E-03    -25.7362E-03     58.8578E-03    -26.4497E-03     52.0984E-03    -25.7028E-03     58.7092E-03
             782     14.0347E-03     83.9887E-03    -11.0662E+06     32.2909E+06     6.70535E+06    -887.830E+03    -26.1548E-03     51.8474E-03    -25.6926E-03     60.6658E-03    -26.4149E-03     52.1634E-03    -25.6899E-03     60.5229E-03
             783     14.9122E-03     84.0470E-03    -9.28478E+06     85.3930E+06     25.0947E+06    -160.225E+03    -25.7744E-03     51.4616E-03    -25.6872E-03     55.3211E-03    -26.1359E-03     52.0205E-03    -25.6721E-03     55.2002E-03
             784     15.7897E-03     84.0934E-03    -6.77128E+06     110.790E+06     45.9723E+06     21.4539E+03    -25.3450E-03     51.0748E-03    -25.7298E-03     43.0034E-03    -25.7454E-03     51.7111E-03    -25.6507E-03     42.9054E-03
             785     16.6673E-03     84.1284E-03    -3.57301E+06     116.043E+06     64.1262E+06    -8.12422E+03    -25.0554E-03     50.8418E-03    -25.7864E-03     24.1679E-03    -25.4168E-03     51.4165E-03    -25.6289E-03     24.0980E-03
             786     876.997E-06     84.4500E-03    -50.6905E+06    -124.245E+06    -49.5973E+06    -901.446E+03    -25.8897E-03     51.7736E-03    -25.8838E-03     5.58814E-03    -25.8913E-03     51.2979E-03    -25.8782E-03     5.57317E-03
             787     1.75402E-03     84.4574E-03    -48.9408E+06    -119.825E+06    -44.8779E+06    -1.64430E+06    -25.8806E-03     51.7765E-03    -25.8959E-03     10.2485E-03    -25.8870E-03     51.3139E-03    -25.8756E-03     10.2209E-03
             788     2.63105E-03     84.4694E-03    -46.3095E+06    -113.541E+06    -38.2405E+06    -2.39353E+06    -25.8785E-03     51.7843E-03    -25.9058E-03     15.1157E-03    -25.8912E-03     51.3404E-03    -25.8652E-03     15.0750E-03
             789     3.50812E-03     84.4861E-03    -43.0666E+06    -106.247E+06    -30.8077E+06    -3.08195E+06    -25.8838E-03     51.7986E-03    -25.9149E-03     19.9529E-03    -25.9026E-03     51.3767E-03    -25.8524E-03     19.8994E-03
             790     4.38521E-03     84.5072E-03    -39.4977E+06    -99.1372E+06    -23.5591E+06    -3.70574E+06    -25.9014E-03     51.8226E-03    -25.9212E-03     24.7081E-03    -25.9247E-03     51.4221E-03    -25.8380E-03     24.6418E-03
             791     5.26234E-03     84.5328E-03    -35.8256E+06    -91.7027E+06    -17.1781E+06    -4.23868E+06    -25.9298E-03     51.8516E-03    -25.9218E-03     29.3543E-03    -25.9569E-03     51.4757E-03    -25.8228E-03     29.2757E-03
             792     6.13949E-03     84.5628E-03    -32.2278E+06    -84.6690E+06    -11.7706E+06    -4.66373E+06    -25.9695E-03     51.8873E-03    -25.9178E-03     33.8593E-03    -25.9995E-03     51.5365E-03    -25.8072E-03     33.7688E-03
             793     7.01668E-03     84.5969E-03    -28.7830E+06    -77.7984E+06    -7.35606E+06    -4.97062E+06    -26.0179E-03     51.9273E-03    -25.9094E-03     38.1990E-03    -26.0510E-03     51.6034E-03    -25.7916E-03     38.0971E-03
             794     7.89387E-03     84.6351E-03    -25.5670E+06    -71.7152E+06    -4.02515E+06    -5.15978E+06    -26.0756E-03     51.9729E-03    -25.8973E-03     42.3157E-03    -26.1115E-03     51.6752E-03    -25.7764E-03     42.2028E-03
             795     8.77111E-03     84.6770E-03    -22.6204E+06    -66.7172E+06    -1.89694E+06    -5.25430E+06    -26.1417E-03     52.0236E-03    -25.8819E-03     46.1525E-03    -26.1802E-03     51.7505E-03    -25.7619E-03     46.0282E-03
             796     9.64834E-03     84.7224E-03    -19.9275E+06    -60.2933E+06    -924.015E+03    -5.18810E+06    -26.2050E-03     52.0649E-03    -25.8599E-03     49.6652E-03    -26.2500E-03     51.8278E-03    -25.7482E-03     49.5304E-03
             797     10.5256E-03     84.7710E-03    -17.5059E+06    -53.7251E+06    -377.334E+03    -4.84077E+06    -26.2624E-03     52.0993E-03    -25.8369E-03     52.7293E-03    -26.3177E-03     51.9028E-03    -25.7355E-03     52.5861E-03
             798     11.4029E-03     84.8222E-03    -15.4668E+06    -45.1609E+06    -883.481E+03    -4.19918E+06    -26.3032E-03     52.1105E-03    -25.8073E-03     55.1877E-03    -26.3758E-03     51.9704E-03    -25.7238E-03     55.0387E-03
             799     12.2802E-03     84.8754E-03    -13.7550E+06    -31.1244E+06    -473.372E+03    -3.36834E+06    -26.3083E-03     52.0836E-03    -25.7753E-03     57.1473E-03    -26.4143E-03     52.0317E-03    -25.7126E-03     56.9943E-03
             800     13.1574E-03     84.9303E-03    -12.3236E+06    -13.7514E+06    -1.25610E+06    -2.40397E+06    -26.2945E-03     52.0277E-03    -25.7332E-03     58.8856E-03    -26.4477E-03     52.0919E-03    -25.7017E-03     58.7300E-03
             801     14.0348E-03     84.9868E-03    -10.9781E+06     31.0400E+06     6.05936E+06     -1.2562E+06    -26.1584E-03     51.8483E-03    -25.6900E-03     60.6922E-03    -26.4153E-03     52.1590E-03    -25.6888E-03     60.5446E-03
             802     14.9122E-03     85.0451E-03    -9.24738E+06     84.7212E+06     24.4725E+06    -267.121E+03    -25.7777E-03     51.4616E-03    -25.6840E-03     55.3431E-03    -26.1372E-03     52.0181E-03    -25.6711E-03     55.2209E-03
             803     15.7898E-03     85.0915E-03    -6.79372E+06     110.836E+06     45.4918E+06     77.1719E+03    -25.3457E-03     51.0720E-03    -25.7263E-03     43.0213E-03    -25.7456E-03     51.7093E-03    -25.6497E-03     42.9240E-03
             804     16.6673E-03     85.1265E-03    -3.59123E+06     116.077E+06     63.8746E+06     22.9792E+03    -25.0572E-03     50.8415E-03    -25.7843E-03     24.1799E-03    -25.4184E-03     51.4168E-03    -25.6280E-03     24.1104E-03
             805     877.003E-06     85.4482E-03    -51.0275E+06    -122.262E+06    -49.9554E+06    -1.05119E+06    -25.8905E-03     51.7749E-03    -25.8845E-03     5.58758E-03    -25.8960E-03     51.3102E-03    -25.8830E-03     5.57067E-03
             806     1.75401E-03     85.4556E-03    -49.2914E+06    -117.882E+06    -45.2651E+06    -1.90664E+06    -25.8808E-03     51.7772E-03    -25.8963E-03     10.2474E-03    -25.8913E-03     51.3254E-03    -25.8803E-03     10.2164E-03
             807     2.63105E-03     85.4676E-03    -46.6564E+06    -111.684E+06    -38.6384E+06    -2.76520E+06    -25.8781E-03     51.7842E-03    -25.9061E-03     15.1139E-03    -25.8946E-03     51.3506E-03    -25.8697E-03     15.0685E-03
             808     3.50810E-03     85.4842E-03    -43.4137E+06    -104.515E+06    -31.2168E+06    -3.56339E+06    -25.8824E-03     51.7972E-03    -25.9149E-03     19.9506E-03    -25.9048E-03     51.3851E-03    -25.8564E-03     19.8908E-03
             809     4.38520E-03     85.5054E-03    -39.8285E+06    -97.5296E+06    -23.9915E+06    -4.27922E+06    -25.8987E-03     51.8194E-03    -25.9207E-03     24.7055E-03    -25.9253E-03     51.4280E-03    -25.8415E-03     24.6318E-03
             810     5.26232E-03     85.5310E-03    -36.1548E+06    -90.2710E+06    -17.6492E+06    -4.89899E+06    -25.9255E-03     51.8463E-03    -25.9208E-03     29.3522E-03    -25.9556E-03     51.4788E-03    -25.8257E-03     29.2651E-03
             811     6.13948E-03     85.5609E-03    -32.5365E+06    -83.4241E+06    -12.2705E+06    -5.39812E+06    -25.9637E-03     51.8799E-03    -25.9162E-03     33.8584E-03    -25.9964E-03     51.5365E-03    -25.8094E-03     33.7584E-03
             812     7.01665E-03     85.5950E-03    -29.0725E+06    -76.7548E+06    -7.87717E+06    -5.77590E+06    -26.0108E-03     51.9180E-03    -25.9072E-03     38.2003E-03    -26.0461E-03     51.6005E-03    -25.7931E-03     38.0880E-03
             813     7.89388E-03     85.6332E-03    -25.8101E+06    -70.8916E+06    -4.56275E+06    -6.00964E+06    -26.0675E-03     51.9620E-03    -25.8945E-03     42.3209E-03    -26.1051E-03     51.6695E-03    -25.7771E-03     42.1970E-03
             814     8.77109E-03     85.6751E-03    -22.8085E+06    -66.0216E+06    -2.42201E+06    -6.14652E+06    -26.1332E-03     52.0117E-03    -25.8785E-03     46.1638E-03    -26.1729E-03     51.7430E-03    -25.7618E-03     46.0281E-03
             815     9.64836E-03     85.7205E-03    -20.1162E+06    -59.9268E+06    -1.50076E+06    -6.15494E+06    -26.1967E-03     52.0527E-03    -25.8560E-03     49.6833E-03    -26.2423E-03     51.8185E-03    -25.7475E-03     49.5360E-03
             816     10.5256E-03     85.7690E-03    -17.7578E+06    -53.9209E+06    -1.07936E+06    -5.78985E+06    -26.2552E-03     52.0879E-03    -25.8327E-03     52.7541E-03    -26.3105E-03     51.8919E-03    -25.7342E-03     52.5986E-03
             817     11.4029E-03     85.8202E-03    -15.6956E+06    -45.6979E+06    -1.64480E+06    -5.08959E+06    -26.2982E-03     52.1010E-03    -25.8028E-03     55.2199E-03    -26.3700E-03     51.9597E-03    -25.7220E-03     55.0595E-03
             818     12.2802E-03     85.8734E-03    -13.8748E+06    -31.9338E+06    -1.23470E+06    -4.21244E+06    -26.3060E-03     52.0768E-03    -25.7708E-03     57.1838E-03    -26.4103E-03     52.0221E-03    -25.7106E-03     57.0199E-03
             819     13.1575E-03     85.9284E-03    -12.3491E+06    -14.9253E+06    -2.00730E+06    -3.07170E+06    -26.2955E-03     52.0246E-03    -25.7290E-03     58.9232E-03    -26.4461E-03     52.0841E-03    -25.6995E-03     58.7590E-03
             820     14.0348E-03     85.9849E-03    -11.0308E+06     29.5069E+06     5.26983E+06    -1.63326E+06    -26.1634E-03     51.8497E-03    -25.6863E-03     60.7281E-03    -26.4173E-03     52.1539E-03    -25.6867E-03     60.5756E-03
             821     14.9123E-03     86.0432E-03    -9.33667E+06     83.7710E+06     23.6333E+06    -382.992E+03    -25.7824E-03     51.4618E-03    -25.6794E-03     55.3740E-03    -26.1398E-03     52.0149E-03    -25.6692E-03     55.2503E-03
             822     15.7898E-03     86.0896E-03    -6.83485E+06     110.855E+06     44.8670E+06     63.5456E+03    -25.3472E-03     51.0688E-03    -25.7216E-03     43.0464E-03    -25.7465E-03     51.7072E-03    -25.6481E-03     42.9489E-03
             823     16.6674E-03     86.1246E-03    -3.57742E+06     116.154E+06     63.6673E+06     7.83618E+03    -25.0577E-03     50.8392E-03    -25.7815E-03     24.1956E-03    -25.4187E-03     51.4152E-03    -25.6264E-03     24.1259E-03
             824     876.990E-06     86.4464E-03    -51.3160E+06    -119.976E+06    -50.2313E+06    -1.19757E+06    -25.8900E-03     51.7741E-03    -25.8841E-03     5.58695E-03    -25.9000E-03     51.3217E-03    -25.8868E-03     5.56815E-03
             825     1.75401E-03     86.4538E-03    -49.5752E+06    -115.650E+06    -45.5706E+06    -2.17763E+06    -25.8799E-03     51.7757E-03    -25.8958E-03     10.2463E-03    -25.8946E-03     51.3360E-03    -25.8841E-03     10.2119E-03
             826     2.63103E-03     86.4658E-03    -46.9460E+06    -109.558E+06    -38.9703E+06    -3.15743E+06    -25.8764E-03     51.7816E-03    -25.9053E-03     15.1124E-03    -25.8969E-03     51.3596E-03    -25.8732E-03     15.0618E-03
             827     3.50810E-03     86.4824E-03    -43.6984E+06    -102.521E+06    -31.5658E+06    -4.06202E+06    -25.8794E-03     51.7931E-03    -25.9137E-03     19.9488E-03    -25.9057E-03     51.3919E-03    -25.8595E-03     19.8826E-03
             828     4.38518E-03     86.5035E-03    -40.1205E+06    -95.6845E+06    -24.3788E+06    -4.88352E+06    -25.8941E-03     51.8131E-03    -25.9190E-03     24.7040E-03    -25.9243E-03     51.4319E-03    -25.8440E-03     24.6226E-03
             829     5.26232E-03     86.5291E-03    -36.4301E+06    -88.6117E+06    -18.0722E+06    -5.59525E+06    -25.9192E-03     51.8376E-03    -25.9184E-03     29.3516E-03    -25.9525E-03     51.4794E-03    -25.8274E-03     29.2556E-03
             830     6.13946E-03     86.5590E-03    -32.8020E+06    -81.9684E+06    -12.7333E+06    -6.18650E+06    -25.9555E-03     51.8686E-03    -25.9131E-03     33.8599E-03    -25.9909E-03     51.5335E-03    -25.8103E-03     33.7498E-03
             831     7.01666E-03     86.5932E-03    -29.3114E+06    -75.5157E+06    -8.36505E+06    -6.64012E+06    -26.0011E-03     51.9044E-03    -25.9033E-03     38.2053E-03    -26.0387E-03     51.5941E-03    -25.7931E-03     38.0819E-03
             832     7.89387E-03     86.6313E-03    -26.0145E+06    -69.8889E+06    -5.07586E+06    -6.96001E+06    -26.0567E-03     51.9465E-03    -25.8898E-03     42.3315E-03    -26.0960E-03     51.6601E-03    -25.7762E-03     42.1954E-03
             833     8.77112E-03     86.6732E-03    -22.9517E+06    -65.1891E+06    -2.93563E+06    -7.14467E+06    -26.1218E-03     51.9950E-03    -25.8731E-03     46.1827E-03    -26.1627E-03     51.7314E-03    -25.7600E-03     46.0342E-03
             834     9.64836E-03     86.7185E-03    -20.2851E+06    -59.5025E+06    -2.04167E+06    -7.06814E+06    -26.1863E-03     52.0367E-03    -25.8504E-03     49.7055E-03    -26.2326E-03     51.8057E-03    -25.7449E-03     49.5465E-03
             835     10.5257E-03     86.7671E-03    -18.0021E+06    -53.9965E+06    -1.73295E+06    -6.71126E+06    -26.2465E-03     52.0733E-03    -25.8268E-03     52.7843E-03    -26.3019E-03     51.8781E-03    -25.7310E-03     52.6170E-03
             836     11.4029E-03     86.8183E-03    -15.9152E+06    -46.1056E+06    -2.40743E+06    -6.14412E+06    -26.2919E-03     52.0882E-03    -25.7963E-03     55.2641E-03    -26.3631E-03     51.9463E-03    -25.7184E-03     55.0901E-03
             837     12.2802E-03     86.8715E-03    -14.0107E+06    -32.8389E+06    -2.06722E+06    -5.21359E+06    -26.3033E-03     52.0677E-03    -25.7644E-03     57.2337E-03    -26.4058E-03     52.0099E-03    -25.7068E-03     57.0570E-03
             838     13.1575E-03     86.9264E-03    -12.4576E+06    -16.3493E+06    -2.89675E+06    -3.84109E+06    -26.2976E-03     52.0207E-03    -25.7230E-03     58.9761E-03    -26.4454E-03     52.0745E-03    -25.6957E-03     58.8020E-03
             839     14.0348E-03     86.9830E-03    -11.0607E+06     27.6095E+06     4.35200E+06    -2.08595E+06    -26.1708E-03     51.8517E-03    -25.6809E-03     60.7785E-03    -26.4208E-03     52.1479E-03    -25.6832E-03     60.6202E-03
             840     14.9123E-03     87.0413E-03    -9.29064E+06     82.6214E+06     22.7167E+06    -573.900E+03    -25.7902E-03     51.4635E-03    -25.6733E-03     55.4169E-03    -26.1444E-03     52.0121E-03    -25.6660E-03     55.2907E-03
             841     15.7898E-03     87.0878E-03    -6.78673E+06     110.839E+06     44.1468E+06    -17.5209E+03    -25.3523E-03     51.0674E-03    -25.7151E-03     43.0818E-03    -25.7502E-03     51.7067E-03    -25.6452E-03     42.9832E-03
             842     16.6674E-03     87.1228E-03    -3.57509E+06     116.190E+06     63.4097E+06    -5.53277E+03    -25.0606E-03     50.8382E-03    -25.7776E-03     24.2181E-03    -25.4213E-03     51.4148E-03    -25.6239E-03     24.1482E-03
             843     876.996E-06     87.4446E-03    -51.4564E+06    -117.375E+06    -50.3947E+06    -1.35621E+06    -25.8880E-03     51.7703E-03    -25.8823E-03     5.58648E-03    -25.9022E-03     51.3313E-03    -25.8895E-03     5.56563E-03
             844     1.75399E-03     87.4520E-03    -49.7193E+06    -113.129E+06    -45.7209E+06    -2.45182E+06    -25.8773E-03     51.7711E-03    -25.8938E-03     10.2455E-03    -25.8961E-03     51.3444E-03    -25.8863E-03     10.2076E-03
             845     2.63103E-03     87.4640E-03    -47.1036E+06    -107.148E+06    -39.1622E+06    -3.54403E+06    -25.8725E-03     51.7754E-03    -25.9028E-03     15.1114E-03    -25.8971E-03     51.3659E-03    -25.8750E-03     15.0559E-03
             846     3.50808E-03     87.4806E-03    -43.8802E+06    -100.257E+06    -31.8218E+06    -4.57332E+06    -25.8740E-03     51.7846E-03    -25.9106E-03     19.9481E-03    -25.9041E-03     51.3953E-03    -25.8607E-03     19.8753E-03
             847     4.38519E-03     87.5017E-03    -40.3087E+06    -93.5897E+06    -24.6764E+06    -5.49643E+06    -25.8868E-03     51.8020E-03    -25.9152E-03     24.7044E-03    -25.9206E-03     51.4320E-03    -25.8444E-03     24.6151E-03
             848     5.26231E-03     87.5273E-03    -36.6498E+06    -86.7085E+06    -18.4253E+06    -6.31132E+06    -25.9097E-03     51.8234E-03    -25.9137E-03     29.3541E-03    -25.9463E-03     51.4756E-03    -25.8270E-03     29.2488E-03
             849     6.13948E-03     87.5572E-03    -33.0323E+06    -80.2695E+06    -13.1402E+06    -7.00687E+06    -25.9438E-03     51.8513E-03    -25.9075E-03     33.8659E-03    -25.9823E-03     51.5256E-03    -25.8089E-03     33.7453E-03
             850     7.01666E-03     87.5912E-03    -29.5464E+06    -74.0656E+06    -8.82259E+06    -7.55981E+06    -25.9876E-03     51.8843E-03    -25.8968E-03     38.2165E-03    -26.0278E-03     51.5823E-03    -25.7907E-03     38.0813E-03
             851     7.89391E-03     87.6294E-03    -26.2393E+06    -68.6443E+06    -5.55667E+06    -7.97532E+06    -26.0421E-03     51.9245E-03    -25.8825E-03     42.3500E-03    -26.0836E-03     51.6453E-03    -25.7727E-03     42.2008E-03
             852     8.77114E-03     87.6712E-03     -23.232E+06    -64.2963E+06    -3.48892E+06    -8.16669E+06    -26.1072E-03     51.9722E-03    -25.8650E-03     46.2096E-03    -26.1499E-03     51.7143E-03    -25.7556E-03     46.0479E-03
             853     9.64843E-03     87.7166E-03    -20.5577E+06    -59.1013E+06    -2.65893E+06    -8.02079E+06    -26.1728E-03     52.0147E-03    -25.8419E-03     49.7387E-03    -26.2201E-03     51.7870E-03    -25.7397E-03     49.5675E-03
             854     10.5257E-03     87.7651E-03    -18.1269E+06    -53.7688E+06    -2.32485E+06    -7.75088E+06    -26.2350E-03     52.0529E-03    -25.8178E-03     52.8299E-03    -26.2905E-03     51.8599E-03    -25.7252E-03     52.6492E-03
             855     11.4030E-03     87.8163E-03    -15.9518E+06    -46.3689E+06    -3.10569E+06    -7.28590E+06    -26.2838E-03     52.0709E-03    -25.7870E-03     55.3244E-03    -26.3539E-03     51.9287E-03    -25.7122E-03     55.1358E-03
             856     12.2803E-03     87.8695E-03    -14.0997E+06    -33.8718E+06    -2.93969E+06    -6.26455E+06    -26.3004E-03     52.0556E-03    -25.7552E-03     57.3013E-03    -26.4006E-03     51.9940E-03    -25.7004E-03     57.1111E-03
             857     13.1576E-03     87.9245E-03    -12.5410E+06    -17.9728E+06    -3.85279E+06    -4.71459E+06    -26.3013E-03     52.0157E-03    -25.7144E-03     59.0493E-03    -26.4457E-03     52.0629E-03    -25.6894E-03     58.8640E-03
             858     14.0349E-03     87.9810E-03    -11.1254E+06     25.3203E+06     3.30609E+06    -2.67568E+06    -26.1818E-03     51.8550E-03    -25.6733E-03     60.8486E-03    -26.4273E-03     52.1414E-03    -25.6773E-03     60.6827E-03
             859     14.9124E-03     88.0394E-03    -9.37454E+06     81.2341E+06     21.5547E+06    -838.035E+03    -25.8015E-03     51.4659E-03    -25.6644E-03     55.4762E-03    -26.1525E-03     52.0095E-03    -25.6609E-03     55.3466E-03
             860     15.7899E-03     88.0858E-03    -6.90097E+06     110.783E+06     43.1666E+06    -130.299E+03    -25.3606E-03     51.0665E-03    -25.7059E-03     43.1315E-03    -25.7577E-03     51.7072E-03    -25.6407E-03     43.0314E-03
             861     16.6675E-03     88.1209E-03    -3.63423E+06     116.153E+06     63.0388E+06    -77.0020E+03    -25.0687E-03     50.8407E-03    -25.7720E-03     24.2500E-03    -25.4292E-03     51.4178E-03    -25.6199E-03     24.1790E-03
             862     876.988E-06     88.4428E-03    -51.4415E+06    -114.460E+06    -50.3619E+06    -1.50479E+06    -25.8834E-03     51.7614E-03    -25.8781E-03     5.58655E-03    -25.9017E-03     51.3369E-03    -25.8893E-03     5.56378E-03
             863     1.75400E-03     88.4502E-03    -49.7161E+06    -110.313E+06    -45.7443E+06    -2.72495E+06    -25.8716E-03     51.7606E-03    -25.8891E-03     10.2458E-03    -25.8944E-03     51.3480E-03    -25.8857E-03     10.2043E-03
             864     2.63103E-03     88.4622E-03    -47.1054E+06    -104.468E+06    -39.2186E+06    -3.93221E+06    -25.8654E-03     51.7629E-03    -25.8975E-03     15.1121E-03    -25.8938E-03     51.3669E-03    -25.8738E-03     15.0516E-03
             865     3.50810E-03     88.4788E-03    -43.9083E+06    -97.7178E+06    -31.9295E+06    -5.06053E+06    -25.8649E-03     51.7693E-03    -25.9044E-03     19.9499E-03    -25.8987E-03     51.3929E-03    -25.8587E-03     19.8708E-03
             866     4.38519E-03     88.4999E-03    -40.3911E+06    -91.2354E+06    -24.8584E+06    -6.10362E+06    -25.8753E-03     51.7834E-03    -25.9081E-03     24.7082E-03    -25.9126E-03     51.4256E-03    -25.8415E-03     24.6110E-03
             867     5.26233E-03     88.5254E-03    -36.7485E+06    -84.5555E+06    -18.6645E+06    -7.02034E+06    -25.8956E-03     51.8012E-03    -25.9056E-03     29.3613E-03    -25.9355E-03     51.4646E-03    -25.8230E-03     29.2468E-03
             868     6.13950E-03     88.5553E-03    -33.1921E+06    -78.3365E+06    -13.4513E+06    -7.80084E+06    -25.9272E-03     51.8254E-03    -25.8982E-03     33.8784E-03    -25.9688E-03     51.5101E-03    -25.8038E-03     33.7476E-03
             869     7.01672E-03     88.5893E-03    -29.7858E+06    -72.3536E+06    -9.20664E+06    -8.45990E+06    -25.9689E-03     51.8553E-03    -25.8864E-03     38.2366E-03    -26.0122E-03     51.5627E-03    -25.7843E-03     38.0898E-03
             870     7.89395E-03     88.6274E-03    -26.5777E+06    -67.1902E+06    -6.03142E+06    -8.96608E+06    -26.0220E-03     51.8930E-03    -25.8710E-03     42.3802E-03    -26.0666E-03     51.6222E-03    -25.7652E-03     42.2183E-03
             871     8.77123E-03     88.6693E-03    -23.6079E+06    -63.3425E+06    -4.08690E+06    -9.16877E+06    -26.0871E-03     51.9398E-03    -25.8527E-03     46.2518E-03    -26.1322E-03     51.6881E-03    -25.7471E-03     46.0773E-03
             872     9.64849E-03     88.7146E-03    -20.8581E+06    -58.4815E+06    -3.30641E+06    -9.15348E+06    -26.1541E-03     51.9829E-03    -25.8288E-03     49.7960E-03    -26.2028E-03     51.7596E-03    -25.7303E-03     49.6102E-03
             873     10.5258E-03     88.7631E-03    -18.3064E+06    -53.3352E+06    -2.94246E+06    -8.99822E+06    -26.2194E-03     52.0237E-03    -25.8043E-03     52.9023E-03    -26.2755E-03     51.8339E-03    -25.7151E-03     52.7057E-03
             874     11.4031E-03     88.8143E-03    -16.1033E+06    -46.5966E+06    -3.82720E+06    -8.46498E+06    -26.2736E-03     52.0471E-03    -25.7735E-03     55.4083E-03    -26.3430E-03     51.9050E-03    -25.7017E-03     55.2045E-03
             875     12.2804E-03     88.8676E-03    -14.2172E+06    -34.9288E+06    -3.83618E+06    -7.38161E+06    -26.2973E-03     52.0393E-03    -25.7420E-03     57.3946E-03    -26.3953E-03     51.9739E-03    -25.6899E-03     57.1902E-03
             876     13.1577E-03     88.9225E-03    -12.6262E+06    -19.7725E+06    -4.85871E+06    -5.69826E+06    -26.3072E-03     52.0093E-03    -25.7021E-03     59.1502E-03    -26.4480E-03     52.0492E-03    -25.6794E-03     58.9523E-03
             877     14.0351E-03     88.9791E-03    -11.1858E+06     22.6386E+06     2.17736E+06    -3.34515E+06    -26.1976E-03     51.8601E-03    -25.6624E-03     60.9446E-03    -26.4380E-03     52.1348E-03    -25.6682E-03     60.7701E-03
             878     14.9125E-03     89.0375E-03    -9.41359E+06     79.5518E+06     20.2342E+06    -1.17511E+06    -25.8194E-03     51.4717E-03    -25.6523E-03     55.5572E-03    -26.1663E-03     52.0089E-03    -25.6528E-03     55.4232E-03
             879     15.7900E-03     89.0840E-03    -6.90293E+06      110.69E+06     42.0134E+06    -313.711E+03    -25.3769E-03     51.0703E-03    -25.6934E-03     43.1990E-03    -25.7723E-03     51.7122E-03    -25.6338E-03     43.0965E-03
             880     16.6675E-03     89.1190E-03    -3.65654E+06     116.039E+06     62.6092E+06    -193.555E+03    -25.0841E-03     50.8483E-03    -25.7642E-03     24.2931E-03    -25.4439E-03     51.4255E-03    -25.6141E-03     24.2204E-03
             881     876.998E-06     89.4411E-03    -51.1378E+06    -111.261E+06    -50.0955E+06    -1.64287E+06    -25.8747E-03     51.7444E-03    -25.8696E-03     5.58724E-03    -25.8966E-03     51.3350E-03    -25.8846E-03     5.56270E-03
             882     1.75400E-03     89.4484E-03    -49.4554E+06    -107.193E+06    -45.5101E+06    -2.97593E+06    -25.8617E-03     51.7419E-03    -25.8801E-03     10.2472E-03    -25.8881E-03     51.3441E-03    -25.8806E-03     10.2025E-03
             883     2.63104E-03     89.4604E-03    -46.8776E+06    -101.500E+06    -39.0687E+06    -4.32792E+06    -25.8535E-03     51.7412E-03    -25.8877E-03     15.1150E-03    -25.8853E-03     51.3595E-03    -25.8679E-03     15.0493E-03
             884     3.50811E-03     89.4769E-03    -43.7011E+06    -94.9730E+06    -31.8465E+06    -5.53334E+06    -25.8505E-03     51.7442E-03    -25.8937E-03     19.9549E-03    -25.8874E-03     51.3811E-03    -25.8518E-03     19.8698E-03
             885     4.38523E-03     89.4980E-03    -40.2496E+06    -88.6178E+06    -24.8373E+06    -6.63565E+06    -25.8579E-03     51.7540E-03    -25.8961E-03     24.7169E-03    -25.8983E-03     51.4090E-03    -25.8335E-03     24.6129E-03
             886     5.26237E-03     89.5235E-03    -36.7379E+06    -82.1477E+06    -18.7444E+06    -7.67539E+06    -25.8750E-03     51.7674E-03    -25.8923E-03     29.3754E-03    -25.9182E-03     51.4429E-03    -25.8137E-03     29.2526E-03
             887     6.13957E-03     89.5534E-03    -33.2267E+06    -76.1795E+06    -13.6147E+06    -8.56191E+06    -25.9038E-03     51.7874E-03    -25.8836E-03     33.9002E-03    -25.9484E-03     51.4831E-03    -25.7931E-03     33.7596E-03
             888     7.01678E-03     89.5874E-03    -29.8693E+06    -70.4225E+06    -9.44475E+06    -9.28120E+06    -25.9429E-03     51.8133E-03    -25.8704E-03     38.2693E-03    -25.9890E-03     51.5308E-03    -25.7722E-03     38.1121E-03
             889     7.89406E-03     89.6255E-03    -26.7665E+06    -65.5513E+06    -6.37571E+06    -9.83101E+06    -25.9944E-03     51.8480E-03    -25.8537E-03     42.4274E-03    -26.0417E-03     51.5862E-03    -25.7517E-03     42.2545E-03
             890     8.77133E-03     89.6673E-03    -23.8484E+06    -62.1135E+06    -4.53616E+06    -10.2206E+06    -26.0595E-03     51.8937E-03    -25.8342E-03     46.3165E-03    -26.1069E-03     51.6491E-03    -25.7323E-03     46.1286E-03
             891     9.64866E-03     89.7126E-03    -21.0736E+06    -57.5430E+06    -3.81931E+06    -10.3944E+06    -26.1287E-03     51.9381E-03    -25.8094E-03     49.8816E-03    -26.1791E-03     51.7205E-03    -25.7145E-03     49.6801E-03
             892     10.5260E-03     89.7611E-03    -18.5801E+06    -52.7996E+06    -3.51443E+06    -10.2813E+06    -26.1988E-03     51.9834E-03    -25.7846E-03     53.0052E-03    -26.2562E-03     51.7976E-03    -25.6986E-03     52.7922E-03
             893     11.4033E-03     89.8123E-03    -16.3835E+06    -46.8094E+06    -4.54100E+06    -9.72222E+06    -26.2608E-03     52.0148E-03    -25.7540E-03     55.5254E-03    -26.3303E-03     51.8731E-03    -25.6851E-03     55.3056E-03
             894     12.2806E-03     89.8656E-03    -14.4637E+06    -35.9069E+06    -4.72905E+06    -8.61561E+06    -26.2944E-03     52.0174E-03    -25.7230E-03     57.5252E-03    -26.3909E-03     51.9487E-03    -25.6736E-03     57.3050E-03
             895     13.1579E-03     89.9206E-03    -12.7890E+06    -21.7470E+06    -5.91564E+06    -6.83527E+06    -26.3168E-03     52.0013E-03    -25.6845E-03     59.2903E-03    -26.4541E-03     52.0331E-03    -25.6640E-03     59.0778E-03
             896     14.0352E-03     89.9772E-03    -11.2194E+06     19.5658E+06     981.286E+03    -4.18867E+06    -26.2209E-03     51.8679E-03    -25.6470E-03     61.0776E-03    -26.4553E-03     52.1291E-03    -25.6542E-03     60.8922E-03
             897     14.9127E-03     90.0356E-03    -9.33696E+06     77.5335E+06     18.8021E+06    -1.65238E+06    -25.8479E-03     51.4837E-03    -25.6358E-03     55.6696E-03    -26.1896E-03     52.0129E-03    -25.6406E-03     55.5294E-03
             898     15.7901E-03     90.0821E-03    -6.84986E+06     110.500E+06     40.6548E+06    -538.771E+03    -25.4039E-03     51.0803E-03    -25.6765E-03     43.2938E-03    -25.7969E-03     51.7234E-03    -25.6235E-03     43.1882E-03
             899     16.6677E-03     90.1171E-03    -3.62986E+06     115.860E+06     62.1061E+06    -325.668E+03    -25.1101E-03     50.8635E-03    -25.7533E-03     24.3547E-03    -25.4689E-03     51.4406E-03    -25.6056E-03     24.2801E-03
             900     877.003E-06     90.4393E-03    -50.5910E+06    -107.757E+06    -49.5361E+06    -1.80080E+06    -25.8599E-03     51.7149E-03    -25.8550E-03     5.58876E-03    -25.8850E-03     51.3215E-03    -25.8730E-03     5.56219E-03
             901     1.75403E-03     90.4467E-03    -48.8679E+06    -103.816E+06    -45.0146E+06    -3.23496E+06    -25.8454E-03     51.7102E-03    -25.8649E-03     10.2505E-03    -25.8745E-03     51.3278E-03    -25.8685E-03     10.2025E-03
             902     2.63107E-03     90.4586E-03    -46.3519E+06    -98.2385E+06    -38.6327E+06    -4.67497E+06    -25.8347E-03     51.7062E-03    -25.8714E-03     15.1210E-03    -25.8692E-03     51.3394E-03    -25.8550E-03     15.0509E-03
             903     3.50816E-03     90.4751E-03    -43.2454E+06    -92.0134E+06    -31.5137E+06    -6.00375E+06    -25.8286E-03     51.7049E-03    -25.8763E-03     19.9647E-03    -25.8679E-03     51.3554E-03    -25.8377E-03     19.8735E-03
             904     4.38529E-03     90.4961E-03    -39.8169E+06    -85.8629E+06    -24.5829E+06    -7.12720E+06    -25.8322E-03     51.7094E-03    -25.8772E-03     24.7325E-03    -25.8748E-03     51.3771E-03    -25.8179E-03     24.6222E-03
             905     5.26247E-03     90.5216E-03    -36.3435E+06    -79.4514E+06    -18.5145E+06    -8.21917E+06    -25.8456E-03     51.7174E-03    -25.8718E-03     29.3992E-03    -25.8911E-03     51.4055E-03    -25.7964E-03     29.2695E-03
             906     6.13967E-03     90.5514E-03    -32.9875E+06    -73.8081E+06    -13.5343E+06    -9.23201E+06    -25.8707E-03     51.7320E-03    -25.8613E-03     33.9359E-03    -25.9177E-03     51.4391E-03    -25.7741E-03     33.7869E-03
             907     7.01694E-03     90.5854E-03    -29.7860E+06     -68.354E+06    -9.51459E+06    -9.99014E+06    -25.9066E-03     51.7528E-03    -25.8462E-03     38.3208E-03    -25.9551E-03     51.4805E-03    -25.7515E-03     38.1547E-03
             908     7.89422E-03     90.6234E-03    -26.7179E+06    -63.6349E+06    -6.47278E+06    -10.6698E+06    -25.9565E-03     51.7844E-03    -25.8279E-03     42.4979E-03    -26.0062E-03     51.5322E-03    -25.7293E-03     42.3144E-03
             909     8.77156E-03     90.6652E-03    -23.8063E+06    -60.5105E+06    -4.67826E+06    -11.2468E+06    -26.0224E-03     51.8296E-03    -25.8073E-03     46.4088E-03    -26.0716E-03     51.5931E-03    -25.7084E-03     46.2079E-03
             910     9.64887E-03     90.7105E-03    -21.1663E+06    -56.3446E+06    -4.11602E+06    -11.5673E+06    -26.0950E-03     51.8763E-03    -25.7813E-03     50.0012E-03    -26.1471E-03     51.6652E-03    -25.6895E-03     49.7847E-03
             911     10.5262E-03     90.7591E-03    -18.7536E+06    -52.1538E+06    -3.92815E+06    -11.5119E+06    -26.1721E-03     51.9283E-03    -25.7563E-03     53.1481E-03    -26.2306E-03     51.7465E-03    -25.6731E-03     52.9196E-03
             912     11.4036E-03     90.8103E-03    -16.6469E+06    -46.9024E+06    -5.11915E+06    -10.9750E+06    -26.2449E-03     51.9711E-03    -25.7261E-03     55.6876E-03    -26.3147E-03     51.8301E-03    -25.6596E-03     55.4519E-03
             913     12.2809E-03     90.8635E-03    -14.7806E+06    -36.7718E+06    -5.52055E+06    -9.91074E+06    -26.2921E-03     51.9882E-03    -25.6961E-03     57.7044E-03    -26.3878E-03     51.9168E-03    -25.6489E-03     57.4676E-03
             914     13.1582E-03     90.9185E-03    -13.0918E+06    -23.7455E+06    -6.92026E+06    -8.14105E+06    -26.3317E-03     51.9915E-03    -25.6597E-03     59.4816E-03    -26.4662E-03     52.0152E-03    -25.6409E-03     59.2524E-03
             915     14.0355E-03     90.9752E-03    -11.4245E+06     16.0869E+06    -282.652E+03    -5.27856E+06    -26.2546E-03     51.8799E-03    -25.6253E-03     61.2597E-03    -26.4833E-03     52.1259E-03    -25.6335E-03     61.0602E-03
             916     14.9129E-03     91.0337E-03    -9.44281E+06     75.1250E+06     17.0606E+06    -2.32776E+06    -25.8889E-03     51.5016E-03    -25.6128E-03     55.8240E-03    -26.2252E-03     52.0216E-03    -25.6227E-03     55.6750E-03
             917     15.7904E-03     91.0802E-03    -6.81298E+06     110.124E+06     38.9239E+06    -921.782E+03    -25.4459E-03     51.0991E-03    -25.6532E-03     43.4239E-03    -25.8358E-03     51.7429E-03    -25.6084E-03     43.3131E-03
             918     16.6679E-03     91.1153E-03    -3.55188E+06     115.490E+06     61.5193E+06    -453.732E+03    -25.1549E-03     50.8935E-03    -25.7386E-03     24.4380E-03    -25.5121E-03     51.4697E-03    -25.5933E-03     24.3615E-03
             919     877.021E-06     91.4375E-03    -49.7250E+06    -103.920E+06    -48.7380E+06    -1.95699E+06    -25.8358E-03     51.6670E-03    -25.8313E-03     5.59193E-03    -25.8632E-03     51.2904E-03    -25.8522E-03     5.56336E-03
             920     1.75406E-03     91.4448E-03    -48.0666E+06    -100.155E+06    -44.2686E+06    -3.53775E+06    -25.8193E-03     51.6597E-03    -25.8403E-03     10.2571E-03    -25.8508E-03     51.2933E-03    -25.8467E-03     10.2052E-03
             921     2.63113E-03     91.4568E-03    -45.4959E+06    -94.7747E+06    -37.9186E+06    -5.04399E+06    -25.8058E-03     51.6516E-03    -25.8458E-03     15.1321E-03    -25.8421E-03     51.2999E-03    -25.8320E-03     15.0573E-03
             922     3.50824E-03     91.4732E-03    -42.4153E+06    -88.8049E+06    -30.8112E+06    -6.41834E+06    -25.7966E-03     51.6461E-03    -25.8495E-03     19.9810E-03    -25.8374E-03     51.3104E-03    -25.8133E-03     19.8845E-03
             923     4.38540E-03     91.4943E-03    -39.0203E+06    -82.9437E+06    -24.0228E+06    -7.66743E+06    -25.7953E-03     51.6438E-03    -25.8484E-03     24.7583E-03    -25.8390E-03     51.3241E-03    -25.7917E-03     24.6412E-03
             924     5.26260E-03     91.5197E-03    -35.5230E+06    -76.6200E+06    -18.0515E+06    -8.77297E+06    -25.8034E-03     51.6439E-03    -25.8405E-03     29.4386E-03    -25.8495E-03     51.3442E-03    -25.7681E-03     29.3019E-03
             925     6.13986E-03     91.5495E-03    -32.2149E+06    -71.2932E+06    -13.0416E+06    -9.72279E+06    -25.8256E-03     51.6541E-03    -25.8284E-03     33.9872E-03    -25.8730E-03     51.3718E-03    -25.7436E-03     33.8320E-03
             926     7.01715E-03     91.5834E-03    -29.1039E+06    -66.0376E+06    -9.11656E+06    -10.6165E+06    -25.8580E-03     51.6692E-03    -25.8112E-03     38.3932E-03    -25.9070E-03     51.4069E-03    -25.7188E-03     38.2192E-03
             927     7.89450E-03     91.6214E-03    -26.1192E+06    -61.4255E+06    -6.19201E+06    -11.4635E+06    -25.9052E-03     51.6958E-03    -25.7906E-03     42.5988E-03    -25.9555E-03     51.4532E-03    -25.6946E-03     42.4054E-03
             928     8.77185E-03     91.6631E-03    -23.3746E+06    -58.6547E+06    -4.48542E+06    -12.1358E+06    -25.9726E-03     51.7411E-03    -25.7685E-03     46.5389E-03    -26.0226E-03     51.5128E-03    -25.6720E-03     46.3269E-03
             929     9.64925E-03     91.7085E-03    -20.8977E+06    -54.8906E+06    -4.08555E+06    -12.5472E+06    -26.0504E-03     51.7917E-03    -25.7413E-03     50.1656E-03    -26.1032E-03     51.5873E-03    -25.6518E-03     49.9369E-03
             930     10.5266E-03     91.7569E-03    -18.7282E+06    -51.3513E+06    -4.09294E+06    -12.5818E+06    -26.1373E-03     51.8534E-03    -25.7160E-03     53.3443E-03    -26.1965E-03     51.6757E-03    -25.6349E-03     53.1023E-03
             931     11.4040E-03     91.8082E-03    -16.7834E+06    -46.8065E+06    -5.46284E+06    -12.1238E+06    -26.2254E-03     51.9121E-03    -25.6867E-03     55.9103E-03    -26.2954E-03     51.7722E-03    -25.6219E-03     55.6601E-03
             932     12.2813E-03     91.8615E-03    -15.0382E+06    -37.4481E+06    -6.09268E+06    -11.1555E+06    -26.2913E-03     51.9497E-03    -25.6583E-03     57.9478E-03    -26.3865E-03     51.8761E-03    -25.6127E-03     57.6953E-03
             933     13.1587E-03     91.9166E-03    -13.4457E+06    -25.6068E+06    -7.74462E+06    -9.47721E+06    -26.3543E-03     51.9794E-03    -25.6251E-03     59.7415E-03    -26.4867E-03     51.9957E-03    -25.6072E-03     59.4953E-03
             934     14.0359E-03     91.9733E-03    -11.7821E+06     12.3594E+06    -1.49656E+06    -6.56840E+06    -26.3025E-03     51.8976E-03    -25.5950E-03     61.5070E-03    -26.5260E-03     52.1274E-03    -25.6034E-03     61.2910E-03
             935     14.9133E-03     92.0318E-03    -9.59792E+06     72.3046E+06     15.1897E+06    -3.33925E+06    -25.9487E-03     51.5306E-03    -25.5819E-03     56.0344E-03    -26.2792E-03     52.0397E-03    -25.5968E-03     55.8722E-03
             936     15.7907E-03     92.0784E-03    -6.88562E+06     109.367E+06     36.8800E+06    -1.46734E+06    -25.5121E-03     51.1349E-03    -25.6228E-03     43.6017E-03    -25.8986E-03     51.7782E-03    -25.5870E-03     43.4836E-03
             937     16.6682E-03     92.1135E-03    -3.64426E+06     114.808E+06     60.6504E+06    -620.644E+03    -25.2297E-03     50.9483E-03    -25.7185E-03     24.5519E-03    -25.5853E-03     51.5226E-03    -25.5764E-03     24.4728E-03
             938     877.053E-06     92.4356E-03    -48.5561E+06    -99.7733E+06    -47.5204E+06    -2.10990E+06    -25.7985E-03     51.5933E-03    -25.7947E-03     5.59772E-03    -25.8279E-03     51.2339E-03    -25.8173E-03     5.56720E-03
             939     1.75412E-03     92.4430E-03    -46.8756E+06    -96.1443E+06    -43.1085E+06    -3.82326E+06    -25.7800E-03     51.5829E-03    -25.8029E-03     10.2684E-03    -25.8130E-03     51.2332E-03    -25.8111E-03     10.2128E-03
             940     2.63122E-03     92.4548E-03    -44.3958E+06    -91.1234E+06    -36.9314E+06    -5.44990E+06    -25.7629E-03     51.5697E-03    -25.8068E-03     15.1508E-03    -25.8003E-03     51.2332E-03    -25.7950E-03     15.0708E-03
             941     3.50837E-03     92.4713E-03    -41.3022E+06    -85.4025E+06    -29.9708E+06    -6.87206E+06    -25.7485E-03     51.5567E-03    -25.8082E-03     20.0102E-03    -25.7899E-03     51.2352E-03    -25.7744E-03     19.9080E-03
             942     4.38557E-03     92.4923E-03    -37.9254E+06    -79.7280E+06    -23.2358E+06    -8.21782E+06    -25.7419E-03     51.5467E-03    -25.8048E-03     24.8010E-03    -25.7858E-03     51.2404E-03    -25.7504E-03     24.6769E-03
             943     5.26283E-03     92.5177E-03    -34.5614E+06    -73.8375E+06    -17.4395E+06     -9.3111E+06    -25.7441E-03     51.5383E-03    -25.7942E-03     29.4995E-03    -25.7902E-03     51.2502E-03    -25.7243E-03     29.3560E-03
             944     6.14013E-03     92.5474E-03    -31.3080E+06    -68.6675E+06    -12.5041E+06    -10.2198E+06    -25.7610E-03     51.5404E-03    -25.7794E-03     34.0706E-03    -25.8084E-03     51.2691E-03    -25.6970E-03     33.9093E-03
             945     7.01749E-03     92.5813E-03    -28.1903E+06    -63.3941E+06    -8.51927E+06    -11.2232E+06    -25.7895E-03     51.5492E-03    -25.7597E-03     38.5046E-03    -25.8386E-03     51.2979E-03    -25.6695E-03     38.3231E-03
             946     7.89488E-03     92.6192E-03    -25.2780E+06    -59.0470E+06    -5.68560E+06    -12.1690E+06    -25.8349E-03     51.5716E-03    -25.7366E-03     42.7461E-03    -25.8850E-03     51.3388E-03    -25.6428E-03     42.5440E-03
             947     8.77233E-03     92.6609E-03    -22.6285E+06    -56.6382E+06    -4.02493E+06    -12.8588E+06    -25.9052E-03     51.6181E-03    -25.7129E-03     46.7246E-03    -25.9549E-03     51.3981E-03    -25.6180E-03     46.5037E-03
             948     9.64974E-03     92.7062E-03    -20.3929E+06    -53.2992E+06    -3.75507E+06    -13.2620E+06    -25.9913E-03     51.6760E-03    -25.6847E-03     50.3922E-03    -26.0443E-03     51.4782E-03    -25.5966E-03     50.1548E-03
             949     10.5272E-03     92.7548E-03    -18.4345E+06    -50.2565E+06    -3.91653E+06    -13.4057E+06    -26.0924E-03     51.7518E-03    -25.6594E-03     53.6130E-03    -26.1519E-03     51.5788E-03    -25.5794E-03     53.3609E-03
             950     11.4046E-03     92.8060E-03    -16.6399E+06    -46.4637E+06    -5.48238E+06    -13.1608E+06    -26.2015E-03     51.8329E-03    -25.6314E-03     56.2153E-03    -26.2711E-03     51.6945E-03    -25.5674E-03     55.9522E-03
             951     12.2820E-03     92.8594E-03    -14.9926E+06    -37.9633E+06     -6.3414E+06    -12.2676E+06    -26.2934E-03     51.8991E-03    -25.6057E-03     58.2785E-03    -26.3872E-03     51.8233E-03    -25.5606E-03     58.0120E-03
             952     13.1593E-03     92.9145E-03    -13.5825E+06    -27.2392E+06    -8.21880E+06    -10.6542E+06    -26.3879E-03     51.9650E-03    -25.5771E-03     60.0932E-03    -26.5181E-03     51.9741E-03    -25.5590E-03     59.8320E-03
             953     14.0365E-03     92.9714E-03    -11.9897E+06     8.83178E+06    -2.36251E+06    -7.98708E+06    -26.3702E-03     51.9234E-03    -25.5532E-03     61.8415E-03    -26.5886E-03     52.1374E-03    -25.5604E-03     61.6071E-03
             954     14.9138E-03     93.0300E-03     -9.7415E+06     69.0499E+06     13.6434E+06    -4.66964E+06    -26.0384E-03     51.5808E-03    -25.5424E-03     56.3199E-03    -26.3630E-03     52.0764E-03    -25.5602E-03     56.1402E-03
             955     15.7912E-03     93.0766E-03    -6.90656E+06     107.898E+06     34.8728E+06    -2.15881E+06    -25.6185E-03     51.2036E-03    -25.5851E-03     43.8426E-03    -26.0004E-03     51.8429E-03    -25.5571E-03     43.7150E-03
             956     16.6685E-03     93.1118E-03    -3.63989E+06     113.884E+06     59.5105E+06    -822.487E+03    -25.3482E-03     51.0396E-03    -25.6914E-03     24.7056E-03    -25.7010E-03     51.6112E-03    -25.5537E-03     24.6232E-03
             957     877.092E-06     93.4338E-03    -46.9918E+06    -95.3183E+06    -46.0561E+06    -2.25888E+06    -25.7426E-03     51.4819E-03    -25.7393E-03     5.60731E-03    -25.7727E-03     51.1404E-03    -25.7633E-03     5.57491E-03
             958     1.75422E-03     93.4410E-03    -45.4343E+06    -91.8610E+06    -41.7559E+06    -4.06282E+06    -25.7209E-03     51.4670E-03    -25.7460E-03     10.2872E-03    -25.7549E-03     51.1346E-03    -25.7557E-03     10.2286E-03
             959     2.63137E-03     93.4529E-03    -43.0218E+06    -87.1821E+06    -35.7348E+06    -5.80390E+06    -25.6991E-03     51.4471E-03    -25.7480E-03     15.1816E-03    -25.7372E-03     51.1266E-03    -25.7379E-03     15.0972E-03
             960     3.50857E-03     93.4693E-03    -40.0510E+06    -81.7803E+06    -29.0526E+06    -7.37844E+06    -25.6777E-03     51.4239E-03    -25.7462E-03     20.0582E-03    -25.7194E-03     51.1173E-03    -25.7148E-03     19.9497E-03
             961     4.38584E-03     93.4902E-03    -36.7943E+06    -76.3629E+06    -22.4483E+06    -8.71870E+06    -25.6640E-03     51.4037E-03    -25.7397E-03     24.8694E-03    -25.7083E-03     51.1114E-03    -25.6879E-03     24.7391E-03
             962     5.26315E-03     93.5155E-03    -33.4778E+06    -70.9768E+06    -16.7011E+06    -9.82656E+06    -25.6600E-03     51.3865E-03    -25.7264E-03     29.5924E-03    -25.7059E-03     51.1100E-03    -25.6585E-03     29.4426E-03
             963     6.14055E-03     93.5452E-03    -30.2063E+06    -65.8925E+06    -11.8934E+06    -10.8168E+06    -25.6690E-03     51.3766E-03    -25.7076E-03     34.2003E-03    -25.7157E-03     51.1167E-03    -25.6277E-03     34.0317E-03
             964     7.01798E-03     93.5790E-03    -27.1480E+06    -60.6438E+06    -7.81241E+06    -11.7805E+06    -25.6937E-03     51.3787E-03    -25.6851E-03     38.6712E-03    -25.7424E-03     51.1385E-03    -25.5968E-03     38.4831E-03
             965     7.89548E-03     93.6169E-03    -24.4298E+06    -56.5293E+06    -4.92726E+06    -12.6934E+06    -25.7395E-03     51.3994E-03    -25.6598E-03     42.9554E-03    -25.7900E-03     51.1767E-03    -25.5671E-03     42.7471E-03
             966     8.77297E-03     93.6586E-03    -22.0584E+06    -54.5627E+06    -3.40877E+06    -13.3922E+06    -25.8146E-03     51.4488E-03    -25.6342E-03     46.9847E-03    -25.8652E-03     51.2373E-03    -25.5401E-03     46.7576E-03
             967     9.65052E-03     93.7039E-03    -19.8786E+06    -51.5558E+06    -3.18657E+06    -13.8513E+06    -25.9133E-03     51.5185E-03    -25.6052E-03     50.7050E-03    -25.9669E-03     51.3277E-03    -25.5175E-03     50.4608E-03
             968     10.5280E-03     93.7525E-03    -17.8403E+06    -48.8110E+06    -3.36455E+06    -14.2002E+06    -26.0342E-03     51.6146E-03    -25.5803E-03     53.9811E-03    -26.0935E-03     51.4469E-03    -25.5005E-03     53.7195E-03
             969     11.4055E-03     93.8038E-03    -16.0551E+06    -45.9663E+06    -5.09959E+06    -14.0276E+06    -26.1726E-03     51.7273E-03    -25.5547E-03     56.6290E-03    -26.2405E-03     51.5898E-03    -25.4902E-03     56.3554E-03
             970     12.2828E-03     93.8572E-03    -14.6171E+06    -38.2875E+06    -6.19431E+06     -13.195E+06    -26.3003E-03     51.8332E-03    -25.5329E-03     58.7239E-03    -26.3920E-03     51.7550E-03    -25.4871E-03     58.4459E-03
             971     13.1602E-03     93.9125E-03    -13.2725E+06    -28.6342E+06    -8.19262E+06    -11.7263E+06    -26.4374E-03     51.9484E-03    -25.5110E-03     60.5635E-03    -26.5642E-03     51.9502E-03    -25.4912E-03     60.2887E-03
             972     14.0373E-03     93.9694E-03    -11.6935E+06     5.95119E+06    -2.55151E+06    -9.41624E+06    -26.4652E-03     51.9610E-03    -25.4958E-03     62.2881E-03    -26.6780E-03     52.1608E-03    -25.5002E-03     62.0352E-03
             973     14.9146E-03     94.0282E-03    -9.40424E+06     65.3578E+06     13.1418E+06    -6.16333E+06    -26.1743E-03     51.6680E-03    -25.4938E-03     56.7025E-03    -26.4916E-03     52.1459E-03    -25.5092E-03     56.5030E-03
             974     15.7918E-03     94.0748E-03    -6.62739E+06     105.451E+06     33.2852E+06    -2.91386E+06    -25.7837E-03     51.3232E-03    -25.5396E-03     44.1621E-03    -26.1589E-03     51.9527E-03    -25.5164E-03     44.0240E-03
             975     16.6691E-03     94.1102E-03    -3.50766E+06     112.779E+06     58.2086E+06    -1.00958E+06    -25.5266E-03     51.1828E-03    -25.6562E-03     24.9085E-03    -25.8756E-03     51.7510E-03    -25.5236E-03     24.8227E-03
             976     877.171E-06     94.4317E-03    -45.2407E+06    -90.5484E+06    -44.3103E+06    -2.41687E+06    -25.6599E-03     51.3172E-03    -25.6573E-03     5.62196E-03    -25.6908E-03     50.9945E-03    -25.6819E-03     5.58758E-03
             977     1.75435E-03     94.4390E-03    -43.6313E+06    -87.3170E+06    -40.1942E+06    -4.34795E+06    -25.6341E-03     51.2960E-03    -25.6619E-03     10.3162E-03    -25.6679E-03     50.9815E-03    -25.6730E-03     10.2541E-03
             978     2.63159E-03     94.4508E-03    -41.2439E+06    -82.9677E+06    -34.3067E+06    -6.18949E+06    -25.6064E-03     51.2675E-03    -25.6612E-03     15.2289E-03    -25.6437E-03     50.9634E-03    -25.6526E-03     15.1397E-03
             979     3.50887E-03     94.4671E-03    -38.3639E+06    -77.9392E+06    -27.7122E+06    -7.80041E+06    -25.5779E-03     51.2344E-03    -25.6565E-03     20.1276E-03    -25.6186E-03     50.9427E-03    -25.6265E-03     20.0139E-03
             980     4.38622E-03     94.4880E-03    -35.2153E+06    -72.8941E+06    -21.3307E+06    -9.20810E+06    -25.5550E-03     51.2011E-03    -25.6461E-03     24.9689E-03    -25.5980E-03     50.9222E-03    -25.5960E-03     24.8327E-03
             981     5.26366E-03     94.5133E-03    -31.9193E+06    -67.8778E+06    -15.6591E+06    -10.4159E+06    -25.5428E-03     51.1718E-03    -25.6289E-03     29.7272E-03    -25.5869E-03     50.9069E-03    -25.5625E-03     29.5703E-03
             982     6.14114E-03     94.5428E-03    -28.6743E+06    -62.9918E+06    -10.8464E+06    -11.4639E+06    -25.5451E-03     51.1514E-03    -25.6063E-03     34.3781E-03    -25.5897E-03     50.9021E-03    -25.5276E-03     34.2017E-03
             983     7.01870E-03     94.5766E-03    -25.6256E+06    -58.0067E+06    -6.75602E+06    -12.3120E+06    -25.5658E-03     51.1460E-03    -25.5803E-03     38.8983E-03    -25.6121E-03     50.9151E-03    -25.4928E-03     38.7040E-03
             984     7.89629E-03     94.6144E-03    -22.9932E+06    -54.0881E+06    -3.71282E+06    -12.9636E+06    -25.6141E-03     51.1670E-03    -25.5529E-03     43.2337E-03    -25.6624E-03     50.9525E-03    -25.4597E-03     43.0227E-03
             985     8.77394E-03     94.6561E-03    -20.7420E+06    -52.2705E+06    -2.18078E+06    -13.6815E+06    -25.6969E-03     51.2223E-03    -25.5254E-03     47.3295E-03    -25.7458E-03     51.0183E-03    -25.4304E-03     47.0996E-03
             986     9.65154E-03     94.7014E-03    -18.6813E+06    -49.5352E+06    -2.13797E+06    -14.4152E+06    -25.8114E-03     51.3064E-03    -25.4950E-03     51.1295E-03    -25.8631E-03     51.1221E-03    -25.4068E-03     50.8789E-03
             987     10.5292E-03     94.7500E-03    -16.8413E+06    -47.1781E+06    -2.40656E+06    -14.8400E+06    -25.9597E-03     51.4310E-03    -25.4712E-03     54.4771E-03    -26.0175E-03     51.2684E-03    -25.3904E-03     54.2082E-03
             988     11.4066E-03     94.8014E-03    -15.3188E+06    -45.3508E+06    -4.35546E+06    -14.7259E+06    -26.1383E-03     51.5877E-03    -25.4494E-03     57.1823E-03    -26.2044E-03     51.4510E-03    -25.3832E-03     56.9006E-03
             989     12.2841E-03     94.8550E-03    -13.9258E+06    -38.3888E+06    -5.61648E+06    -13.9915E+06    -26.3149E-03     51.7483E-03    -25.4334E-03     59.3172E-03    -26.4038E-03     51.6678E-03    -25.3856E-03     59.0296E-03
             990     13.1613E-03     94.9104E-03    -12.6468E+06    -29.6457E+06    -7.62914E+06    -12.7691E+06    -26.5091E-03     51.9301E-03    -25.4210E-03     61.1860E-03    -26.6323E-03     51.9253E-03    -25.3979E-03     60.8981E-03
             991     14.0385E-03     94.9676E-03    -11.0620E+06     3.74808E+06    -2.08430E+06    -10.8589E+06    -26.5977E-03     52.0155E-03    -25.4178E-03     62.8777E-03    -26.8053E-03     52.2032E-03    -25.4176E-03     62.6060E-03
             992     14.9156E-03     95.0264E-03    -8.97168E+06     61.1965E+06     13.3672E+06    -7.49237E+06    -26.3684E-03     51.7992E-03    -25.4308E-03     57.2115E-03    -26.6786E-03     52.2560E-03    -25.4397E-03     56.9942E-03
             993     15.7927E-03     95.0733E-03    -6.52498E+06     101.990E+06     32.6969E+06    -3.51234E+06    -26.0244E-03     51.5112E-03    -25.4869E-03     44.5803E-03    -26.3939E-03     52.1249E-03    -25.4618E-03     44.4332E-03
             994     16.6696E-03     95.1087E-03    -3.58367E+06     111.553E+06     57.5190E+06    -1.13728E+06    -25.7881E-03     51.4037E-03    -25.6156E-03     25.1710E-03    -26.1354E-03     51.9674E-03    -25.4845E-03     25.0822E-03
             995     877.255E-06     95.4295E-03    -42.7140E+06    -85.4401E+06    -41.9605E+06    -2.58219E+06    -25.5416E-03     51.0814E-03    -25.5398E-03     5.64325E-03    -25.5706E-03     50.7772E-03    -25.5638E-03     5.60682E-03
             996     1.75456E-03     95.4367E-03    -41.3316E+06    -82.4561E+06    -38.1546E+06    -4.65858E+06    -25.5103E-03     51.0515E-03    -25.5413E-03     10.3584E-03    -25.5425E-03     50.7550E-03    -25.5525E-03     10.2924E-03
             997     2.63190E-03     95.4485E-03    -39.1193E+06    -78.5250E+06    -32.5435E+06    -6.58917E+06    -25.4752E-03     51.0123E-03    -25.5371E-03     15.2970E-03    -25.5109E-03     50.7247E-03    -25.5292E-03     15.2029E-03
             998     3.50931E-03     95.4648E-03    -36.3074E+06    -73.9379E+06    -26.1247E+06    -8.26168E+06    -25.4379E-03     50.9665E-03    -25.5287E-03     20.2273E-03    -25.4764E-03     50.6894E-03    -25.4994E-03     20.1079E-03
             999     4.38679E-03     95.4855E-03    -33.1674E+06    -69.1960E+06    -19.8399E+06    -9.73604E+06    -25.4050E-03     50.9188E-03    -25.5138E-03     25.1080E-03    -25.4452E-03     50.6532E-03    -25.4646E-03     24.9654E-03
            1000     5.26435E-03     95.5107E-03    -30.0230E+06    -64.6398E+06    -14.3127E+06    -10.9704E+06    -25.3834E-03     50.8756E-03    -25.4922E-03     29.9136E-03    -25.4245E-03     50.6221E-03    -25.4265E-03     29.7501E-03
            1001     6.14199E-03     95.5402E-03    -27.0255E+06    -59.9734E+06    -9.62207E+06    -11.9960E+06    -25.3781E-03     50.8430E-03    -25.4649E-03     34.6212E-03    -25.4205E-03     50.6044E-03    -25.3869E-03     34.4387E-03
            1002     7.01969E-03     95.5739E-03    -24.2606E+06    -55.5351E+06    -5.71621E+06    -12.7587E+06    -25.3951E-03     50.8298E-03    -25.4347E-03     39.2072E-03    -25.4395E-03     50.6075E-03    -25.3476E-03     39.0080E-03
            1003     7.89746E-03     95.6117E-03    -21.6301E+06    -51.7809E+06    -2.66561E+06    -13.3094E+06    -25.4452E-03     50.8491E-03    -25.4039E-03     43.6220E-03    -25.4914E-03     50.6424E-03    -25.3108E-03     43.4077E-03
            1004     8.77521E-03     95.6533E-03    -19.1497E+06    -49.7254E+06    -798.097E+03    -14.0612E+06    -25.5404E-03     50.9152E-03    -25.3748E-03     47.8030E-03    -25.5867E-03     50.7193E-03    -25.2789E-03     47.5694E-03
            1005     9.65302E-03     95.6987E-03    -17.1130E+06    -47.4220E+06    -738.031E+03    -14.7383E+06    -25.6800E-03     51.0243E-03    -25.3444E-03     51.6941E-03    -25.7286E-03     50.8460E-03    -25.2545E-03     51.4407E-03
            1006     10.5307E-03     95.7473E-03    -15.5938E+06    -45.4765E+06    -1.09634E+06    -15.1175E+06    -25.8663E-03     51.1893E-03    -25.3229E-03     55.1288E-03    -25.9219E-03     51.0312E-03    -25.2399E-03     54.8576E-03
            1007     11.4083E-03     95.7989E-03    -14.3049E+06    -44.4191E+06    -3.14102E+06    -15.1752E+06    -26.0990E-03     51.4059E-03    -25.3068E-03     57.9078E-03    -26.1629E-03     51.2704E-03    -25.2374E-03     57.6214E-03
            1008     12.2857E-03     95.8527E-03    -13.0644E+06    -38.1797E+06    -4.63676E+06    -14.7755E+06    -26.3410E-03     51.6401E-03    -25.2991E-03     60.0970E-03    -26.4273E-03     51.5579E-03    -25.2480E-03     59.8002E-03
            1009     13.1631E-03     95.9083E-03    -11.7634E+06    -30.3187E+06    -6.56875E+06    -13.7420E+06    -26.6112E-03     51.9112E-03    -25.3000E-03     61.9996E-03    -26.7309E-03     51.9005E-03    -25.2718E-03     61.6995E-03
            1010     14.0400E-03     95.9658E-03    -10.5741E+06     1.97921E+06    -1.18180E+06    -11.9177E+06    -26.7801E-03     52.0931E-03    -25.3130E-03     63.6470E-03    -26.9847E-03     52.2707E-03    -25.3065E-03     63.3613E-03
            1011     14.9170E-03     96.0249E-03    -8.99435E+06     56.5945E+06     13.7059E+06    -8.42304E+06    -26.6324E-03     51.9786E-03    -25.3462E-03     57.8799E-03    -26.9374E-03     52.4128E-03    -25.3466E-03     57.6496E-03
            1012     15.7938E-03     96.0719E-03    -6.65955E+06     97.9011E+06     31.7664E+06    -4.07704E+06    -26.3597E-03     51.7756E-03    -25.4159E-03     45.1473E-03    -26.7237E-03     52.3713E-03    -25.3894E-03     44.9912E-03
            1013     16.6705E-03     96.1076E-03    -3.54540E+06     110.131E+06     56.3487E+06    -1.41149E+06    -26.1644E-03     51.7255E-03    -25.5611E-03     25.5348E-03    -26.5084E-03     52.2845E-03    -25.4339E-03     25.4406E-03
            1014     877.421E-06     96.4270E-03    -39.9399E+06    -79.9925E+06    -39.2019E+06    -2.76308E+06    -25.3730E-03     50.7455E-03    -25.3724E-03     5.67436E-03    -25.4001E-03     50.4604E-03    -25.3946E-03     5.63570E-03
            1015     1.75484E-03     96.4343E-03    -38.5993E+06    -77.3415E+06    -35.5666E+06    -4.88662E+06    -25.3371E-03     50.7087E-03    -25.3717E-03     10.4176E-03    -25.3668E-03     50.4301E-03    -25.3814E-03     10.3488E-03
            1016     2.63235E-03     96.4459E-03    -36.5638E+06    -73.8428E+06    -30.3303E+06    -6.90807E+06    -25.2934E-03     50.6569E-03    -25.3635E-03     15.3919E-03    -25.3263E-03     50.3858E-03    -25.3550E-03     15.2940E-03
            1017     3.50991E-03     96.4621E-03    -33.9825E+06    -69.6765E+06    -24.3744E+06    -8.72587E+06    -25.2444E-03     50.5939E-03    -25.3494E-03     20.3666E-03    -25.2800E-03     50.3321E-03    -25.3210E-03     20.2418E-03
            1018     4.38757E-03     96.4828E-03    -31.1108E+06    -65.4033E+06    -18.3555E+06    -10.2196E+06    -25.1998E-03     50.5291E-03    -25.3293E-03     25.3002E-03    -25.2373E-03     50.2772E-03    -25.2811E-03     25.1520E-03
            1019     5.26532E-03     96.5079E-03    -28.1652E+06    -61.3065E+06    -12.9630E+06    -11.4049E+06    -25.1678E-03     50.4703E-03    -25.3025E-03     30.1680E-03    -25.2063E-03     50.2287E-03    -25.2376E-03     29.9998E-03
            1020     6.14315E-03     96.5372E-03    -25.3327E+06    -56.9792E+06    -8.44096E+06    -12.3585E+06    -25.1542E-03     50.4239E-03    -25.2697E-03     34.9510E-03    -25.1940E-03     50.1959E-03    -25.1926E-03     34.7648E-03
            1021     7.02107E-03     96.5709E-03    -22.6871E+06    -53.0880E+06    -4.63909E+06    -13.0381E+06    -25.1687E-03     50.4036E-03    -25.2349E-03     39.6226E-03    -25.2100E-03     50.1894E-03    -25.1483E-03     39.4210E-03
            1022     7.89902E-03     96.6086E-03    -20.2030E+06    -49.2989E+06    -1.60029E+06    -13.7403E+06    -25.2228E-03     50.4229E-03    -25.2001E-03     44.1449E-03    -25.2667E-03     50.2246E-03    -25.1073E-03     43.9264E-03
            1023     8.77703E-03     96.6503E-03    -17.9364E+06    -47.2684E+06     462.048E+03    -14.4444E+06    -25.3365E-03     50.5063E-03    -25.1698E-03     48.4341E-03    -25.3817E-03     50.3187E-03    -25.0729E-03     48.1972E-03
            1024     9.65494E-03     96.6956E-03    -16.0823E+06    -45.4804E+06     636.933E+03    -14.8779E+06    -25.5130E-03     50.6541E-03    -25.1412E-03     52.4329E-03    -25.5608E-03     50.4816E-03    -25.0487E-03     52.1793E-03
            1025     10.5328E-03     96.7445E-03    -14.5424E+06    -43.6158E+06     340.006E+03    -15.2447E+06    -25.7508E-03     50.8744E-03    -25.1237E-03     55.9821E-03    -25.8055E-03     50.7217E-03    -25.0376E-03     55.7109E-03
            1026     11.4105E-03     96.7962E-03    -13.2546E+06    -43.1924E+06    -1.63067E+06    -15.4719E+06    -26.0551E-03     51.1713E-03    -25.1162E-03     58.8535E-03    -26.1175E-03     51.0380E-03    -25.0425E-03     58.5646E-03
            1027     12.2880E-03     96.8503E-03    -12.2033E+06    -37.5430E+06    -3.30272E+06    -15.2711E+06    -26.3841E-03     51.5044E-03    -25.1203E-03     61.1054E-03    -26.4690E-03     51.4223E-03    -25.0647E-03     60.8031E-03
            1028     13.1652E-03     96.9062E-03    -11.3268E+06    -30.7279E+06    -5.29884E+06    -14.5179E+06    -26.7542E-03     51.8934E-03    -25.1392E-03     63.0467E-03    -26.8733E-03     51.8786E-03    -25.1047E-03     62.7370E-03
            1029     14.0422E-03     96.9641E-03    -10.1685E+06     185.122E+03        -197.125    -12.6402E+06    -27.0280E-03     52.2024E-03    -25.1744E-03     64.6334E-03    -27.2307E-03     52.3696E-03    -25.1599E-03     64.3380E-03
            1030     14.9187E-03     97.0234E-03    -8.56329E+06     51.9652E+06     14.5147E+06    -9.04554E+06    -26.9878E-03     52.2219E-03    -25.2341E-03     58.7443E-03    -27.2865E-03     52.6325E-03    -25.2244E-03     58.5046E-03
            1031     15.7953E-03     97.0709E-03    -6.35592E+06     93.5417E+06     30.3022E+06    -4.68028E+06    -26.8122E-03     52.1320E-03    -25.3198E-03     45.8921E-03    -27.1676E-03     52.7091E-03    -25.2947E-03     45.7260E-03
            1032     16.6716E-03     97.1068E-03    -3.51335E+06     108.356E+06     54.2563E+06    -1.69042E+06    -26.6836E-03     52.1716E-03    -25.4880E-03     26.0191E-03    -27.0229E-03     52.7257E-03    -25.3687E-03     25.9186E-03
            1033     877.596E-06     97.4242E-03    -37.2014E+06    -74.2216E+06    -36.4971E+06    -2.94340E+06    -25.1375E-03     50.2757E-03    -25.1382E-03     5.71745E-03    -25.1632E-03     50.0116E-03    -25.1591E-03     5.67662E-03
            1034     1.75527E-03     97.4313E-03    -35.9180E+06    -72.0593E+06    -33.0142E+06    -5.10881E+06    -25.0966E-03     50.2319E-03    -25.1353E-03     10.4999E-03    -25.1243E-03     49.9720E-03    -25.1438E-03     10.4286E-03
            1035     2.63296E-03     97.4430E-03    -33.9146E+06    -68.8983E+06    -28.1104E+06    -7.21615E+06    -25.0434E-03     50.1660E-03    -25.1225E-03     15.5221E-03    -25.0734E-03     49.9125E-03    -25.1140E-03     15.4207E-03
            1036     3.51077E-03     97.4590E-03    -31.5189E+06    -65.2647E+06    -22.4778E+06    -9.04287E+06    -24.9828E-03     50.0860E-03    -25.1032E-03     20.5535E-03    -25.0151E-03     49.8399E-03    -25.0752E-03     20.4252E-03
            1037     4.38865E-03     97.4796E-03    -28.9201E+06    -61.5305E+06    -16.8162E+06    -10.5334E+06    -24.9249E-03     50.0017E-03    -25.0769E-03     25.5559E-03    -24.9591E-03     49.7636E-03    -25.0298E-03     25.4045E-03
            1038     5.26665E-03     97.5045E-03    -26.2331E+06    -57.9289E+06    -11.6792E+06    -11.7283E+06    -24.8808E-03     49.9246E-03    -25.0438E-03     30.5054E-03    -24.9161E-03     49.6950E-03    -24.9802E-03     30.3340E-03
            1039     6.14475E-03     97.5339E-03    -23.5768E+06    -54.0233E+06    -7.30281E+06    -12.6399E+06    -24.8595E-03     49.8646E-03    -25.0051E-03     35.3843E-03    -24.8961E-03     49.6469E-03    -24.9291E-03     35.1958E-03
            1040     7.02292E-03     97.5674E-03    -21.0073E+06    -50.5880E+06    -3.51338E+06    -13.3356E+06    -24.8745E-03     49.8402E-03    -24.9657E-03     40.1630E-03    -24.9124E-03     49.6341E-03    -24.8794E-03     39.9592E-03
            1041     7.90117E-03     97.6051E-03    -18.6728E+06    -46.7260E+06    -345.632E+03    -13.9299E+06    -24.9394E-03     49.8671E-03    -24.9276E-03     44.8105E-03    -24.9807E-03     49.6771E-03    -24.8345E-03     44.5914E-03
            1042     8.77938E-03     97.6467E-03    -16.7116E+06    -44.9993E+06     1.78256E+06    -14.5110E+06    -25.0799E-03     49.9769E-03    -24.8970E-03     49.2371E-03    -25.1237E-03     49.7964E-03    -24.7986E-03     49.0013E-03
            1043     9.65759E-03     97.6922E-03    -15.0198E+06    -43.6344E+06     2.07387E+06    -14.8867E+06    -25.3048E-03     50.1763E-03    -24.8715E-03     53.3782E-03    -25.3516E-03     50.0089E-03    -24.7761E-03     53.1266E-03
            1044     10.5356E-03     97.7412E-03    -13.6438E+06    -41.6353E+06     1.88123E+06    -15.2671E+06    -25.6122E-03     50.4726E-03    -24.8604E-03     57.0699E-03    -25.6670E-03     50.3258E-03    -24.7709E-03     56.8004E-03
            1045     11.4135E-03     97.7933E-03    -12.5689E+06    -41.7821E+06    -11.7092E+03    -15.5557E+06    -26.0102E-03     50.8756E-03    -24.8654E-03     60.0559E-03    -26.0732E-03     50.7457E-03    -24.7866E-03     59.7677E-03
            1046     12.2909E-03     97.8476E-03    -11.7695E+06    -36.7136E+06    -1.81573E+06    -15.4134E+06    -26.4528E-03     51.3394E-03    -24.8866E-03     62.3782E-03    -26.5390E-03     51.2587E-03    -24.8254E-03     62.0753E-03
            1047     13.1681E-03     97.9041E-03    -11.1054E+06    -30.7092E+06    -3.74470E+06    -14.8174E+06    -26.9521E-03     51.8815E-03    -24.9294E-03     64.3643E-03    -27.0730E-03     51.8648E-03    -24.8875E-03     64.0511E-03
            1048     14.0447E-03     97.9625E-03    -10.1245E+06    -1.32756E+06     1.28780E+06    -13.4822E+06    -27.3604E-03     52.3537E-03    -24.9933E-03     65.8813E-03    -27.5638E-03     52.5128E-03    -24.9702E-03     65.5742E-03
            1049     14.9212E-03     98.0223E-03    -8.21050E+06     47.0493E+06     15.3868E+06    -9.85956E+06    -27.4597E-03     52.5475E-03    -25.0878E-03     59.8438E-03    -27.7525E-03     52.9336E-03    -25.0672E-03     59.5915E-03
            1050     15.7971E-03     98.0702E-03    -6.02798E+06     88.9927E+06     29.4955E+06    -4.99506E+06    -27.4137E-03     52.6148E-03    -25.2011E-03     46.8262E-03    -27.7616E-03     53.1718E-03    -25.1740E-03     46.6528E-03
            1051     16.6730E-03     98.1065E-03    -3.39622E+06     106.365E+06     52.8043E+06    -1.90875E+06    -27.3780E-03     52.7799E-03    -25.4019E-03     26.6280E-03    -27.7131E-03     53.3274E-03    -25.2872E-03     26.5211E-03
            1052     877.907E-06     98.4209E-03    -34.3450E+06    -68.1815E+06    -33.6840E+06    -3.08252E+06    -24.8176E-03     49.6370E-03    -24.8194E-03     5.77452E-03    -24.8417E-03     49.3949E-03    -24.8392E-03     5.73209E-03
            1053     1.75580E-03     98.4280E-03    -33.1646E+06    -66.5272E+06    -30.6109E+06    -5.35400E+06    -24.7699E-03     49.5828E-03    -24.8129E-03     10.6092E-03    -24.7954E-03     49.3431E-03    -24.8214E-03     10.5351E-03
            1054     2.63382E-03     98.4394E-03    -31.3969E+06    -63.8107E+06    -26.1046E+06    -7.51121E+06    -24.7066E-03     49.5017E-03    -24.7950E-03     15.6933E-03    -24.7342E-03     49.2670E-03    -24.7875E-03     15.5887E-03
            1055     3.51190E-03     98.4554E-03    -29.2173E+06    -60.8436E+06    -20.8160E+06    -9.27919E+06    -24.6337E-03     49.4039E-03    -24.7702E-03     20.7970E-03    -24.6632E-03     49.1740E-03    -24.7437E-03     20.6665E-03
            1056     4.39011E-03     98.4758E-03    -26.8527E+06    -57.6305E+06    -15.4820E+06    -10.6919E+06    -24.5621E-03     49.2995E-03    -24.7373E-03     25.8857E-03    -24.5935E-03     49.0758E-03    -24.6922E-03     25.7334E-03
            1057     5.26843E-03     98.5007E-03    -24.4560E+06    -54.4723E+06    -10.5926E+06    -11.8796E+06    -24.5062E-03     49.2039E-03    -24.6977E-03     30.9373E-03    -24.5390E-03     48.9872E-03    -24.6362E-03     30.7654E-03
            1058     6.14687E-03     98.5298E-03    -22.0933E+06    -51.0988E+06    -6.35126E+06    -12.7944E+06    -24.4799E-03     49.1332E-03    -24.6534E-03     35.9332E-03    -24.5144E-03     48.9263E-03    -24.5790E-03     35.7444E-03
            1059     7.02539E-03     98.5633E-03    -19.8895E+06    -48.0166E+06    -2.64432E+06    -13.4440E+06    -24.5001E-03     49.1098E-03    -24.6097E-03     40.8448E-03    -24.5369E-03     48.9132E-03    -24.5244E-03     40.6415E-03
            1060     7.90394E-03     98.6009E-03    -17.8591E+06    -44.4076E+06     487.623E+03    -13.9255E+06    -24.5834E-03     49.1528E-03    -24.5694E-03     45.6452E-03    -24.6246E-03     48.9715E-03    -24.4766E-03     45.4283E-03
            1061     8.78253E-03     98.6427E-03    -15.9907E+06    -42.7423E+06     2.80042E+06    -14.3719E+06    -24.7623E-03     49.3022E-03    -24.5399E-03     50.2411E-03    -24.8065E-03     49.1298E-03    -24.4407E-03     50.0095E-03
            1062     9.66094E-03     98.6882E-03    -14.3827E+06    -41.7843E+06     3.33419E+06    -14.7992E+06    -25.0526E-03     49.5732E-03    -24.5205E-03     54.5539E-03    -25.1001E-03     49.4115E-03    -24.4224E-03     54.3059E-03
            1063     10.5393E-03     98.7376E-03    -13.0974E+06    -39.8045E+06     3.29770E+06    -15.0183E+06    -25.4524E-03     49.9724E-03    -24.5199E-03     58.4118E-03    -25.5086E-03     49.8312E-03    -24.4267E-03     58.1479E-03
            1064     11.4171E-03     98.7899E-03    -12.1985E+06    -40.1082E+06      1.6736E+06    -15.3441E+06    -25.9708E-03     50.5133E-03    -24.5425E-03     61.5374E-03    -26.0365E-03     50.3884E-03    -24.4582E-03     61.2540E-03
            1065     12.2947E-03     98.8449E-03    -11.4844E+06    -35.9281E+06    -215.621E+03    -15.2986E+06    -26.5591E-03     51.1463E-03    -24.5873E-03     63.9475E-03    -26.6473E-03     51.0669E-03    -24.5196E-03     63.6474E-03
            1066     13.1716E-03     98.9019E-03    -10.9652E+06    -30.3252E+06    -1.94668E+06    -14.7836E+06    -27.2214E-03     51.8828E-03    -24.6615E-03     65.9874E-03    -27.3456E-03     51.8661E-03    -24.6113E-03     65.6749E-03
            1067     14.0482E-03     98.9611E-03    -10.4086E+06    -2.07459E+06     3.05487E+06    -13.7750E+06    -27.8000E-03     52.5638E-03    -24.7637E-03     67.4076E-03    -28.0082E-03     52.7188E-03    -24.7303E-03     67.0954E-03
            1068     14.9240E-03     99.0215E-03    -9.12391E+06     42.2152E+06     16.1807E+06    -10.7564E+06    -28.0774E-03     52.9801E-03    -24.9027E-03     61.2034E-03    -28.3714E-03     53.3446E-03    -24.8697E-03     60.9367E-03
            1069     15.7997E-03     99.0701E-03    -6.41782E+06     83.8932E+06     28.5534E+06    -5.87879E+06    -28.1992E-03     53.2539E-03    -25.0547E-03     47.9969E-03    -28.5429E-03     53.7899E-03    -25.0243E-03     47.8076E-03
            1070     16.6746E-03     99.1070E-03    -3.27607E+06     104.068E+06     51.7919E+06    -2.09185E+06    -28.3001E-03     53.6018E-03    -25.3017E-03     27.3935E-03    -28.6316E-03     54.1410E-03    -25.1889E-03     27.2793E-03
            1071     878.229E-06     99.4168E-03    -31.0138E+06    -61.9501E+06    -30.4581E+06    -3.11994E+06    -24.3930E-03     48.7890E-03    -24.3959E-03     5.84620E-03    -24.4143E-03     48.5685E-03    -24.4134E-03     5.80354E-03
            1072     1.75657E-03     99.4238E-03    -30.1705E+06    -60.7896E+06    -28.0223E+06    -5.47838E+06    -24.3380E-03     48.7227E-03    -24.3847E-03     10.7466E-03    -24.3605E-03     48.5036E-03    -24.3929E-03     10.6714E-03
            1073     2.63492E-03     99.4352E-03    -28.8619E+06    -58.7182E+06    -24.2831E+06    -7.59765E+06    -24.2634E-03     48.6239E-03    -24.3605E-03     15.9082E-03    -24.2883E-03     48.4083E-03    -24.3549E-03     15.8032E-03
            1074     3.51343E-03     99.4510E-03    -27.2449E+06    -56.4724E+06    -19.6292E+06    -9.28409E+06    -24.1774E-03     48.5064E-03    -24.3290E-03     21.1022E-03    -24.2050E-03     48.2937E-03    -24.3057E-03     20.9726E-03
            1075     4.39203E-03     99.4713E-03    -25.3798E+06    -53.7829E+06    -14.7284E+06    -10.6410E+06    -24.0930E-03     48.3825E-03    -24.2895E-03     26.2956E-03    -24.1234E-03     48.1746E-03    -24.2484E-03     26.1453E-03
            1076     5.27078E-03     99.4959E-03    -23.3987E+06    -51.0249E+06    -10.0569E+06    -11.7615E+06    -24.0280E-03     48.2720E-03    -24.2440E-03     31.4692E-03    -24.0609E-03     48.0699E-03    -24.1864E-03     31.3005E-03
            1077     6.14964E-03     99.5250E-03    -21.5068E+06    -48.2426E+06    -5.98799E+06    -12.5889E+06    -24.0013E-03     48.1964E-03    -24.1951E-03     36.6051E-03    -24.0370E-03     48.0019E-03    -24.1239E-03     36.4210E-03
            1078     7.02858E-03     99.5583E-03    -19.6905E+06    -45.4543E+06    -2.40118E+06    -13.2067E+06    -24.0340E-03     48.1822E-03    -24.1482E-03     41.6773E-03    -24.0732E-03     47.9971E-03    -24.0658E-03     41.4794E-03
            1079     7.90758E-03     99.5960E-03    -18.0004E+06    -42.2932E+06     744.205E+03    -13.6068E+06    -24.1487E-03     48.2570E-03    -24.1083E-03     46.6549E-03    -24.1933E-03     48.0854E-03    -24.0172E-03     46.4447E-03
            1080     8.78649E-03     99.6378E-03    -16.4800E+06    -40.4573E+06     3.19762E+06    -14.0587E+06    -24.3809E-03     48.4639E-03    -24.0829E-03     51.4529E-03    -24.4307E-03     48.3022E-03    -23.9844E-03     51.2282E-03
            1081     9.66531E-03     99.6837E-03    -15.0866E+06     -39.904E+06     4.02146E+06    -14.5106E+06    -24.7570E-03     48.8311E-03    -24.0741E-03     55.9685E-03    -24.8108E-03     48.6780E-03    -23.9743E-03     55.7271E-03
            1082     10.5438E-03     99.7333E-03    -13.8404E+06    -38.1826E+06     4.10120E+06    -14.7547E+06    -25.2753E-03     49.3645E-03    -24.0892E-03     60.0269E-03    -25.3380E-03     49.2307E-03    -23.9933E-03     59.7693E-03
            1083     11.4219E-03     99.7863E-03    -12.7581E+06    -38.2804E+06     3.02061E+06    -15.0339E+06    -25.9443E-03     50.0804E-03    -24.1360E-03     63.3190E-03    -26.0170E-03     49.9631E-03    -24.0469E-03     63.0419E-03
            1084     12.2993E-03     99.8419E-03    -11.9399E+06    -35.0324E+06     1.32170E+06    -15.1443E+06    -26.7175E-03     50.9309E-03    -24.2134E-03     65.8247E-03    -26.8118E-03     50.8547E-03    -24.1387E-03     65.5280E-03
            1085     13.1763E-03     99.8998E-03    -11.2346E+06    -29.9541E+06    -154.973E+03    -14.6323E+06    -27.5832E-03     51.9114E-03    -24.3282E-03     67.9186E-03    -27.7131E-03     51.8955E-03    -24.2693E-03     67.6080E-03
            1086     14.0522E-03     99.9599E-03    -10.7951E+06    -2.69858E+06     5.22328E+06    -13.3129E+06    -28.3737E-03     52.8545E-03    -24.4808E-03     69.2169E-03    -28.5885E-03     53.0063E-03    -24.4351E-03     68.9085E-03
            1087     14.9278E-03     100.021E-03    -9.98965E+06     38.7268E+06     17.7818E+06    -10.8450E+06    -28.8713E-03     53.5474E-03    -24.6761E-03     62.8237E-03    -29.1702E-03     53.8968E-03    -24.6289E-03     62.5516E-03
            1088     15.8024E-03     100.071E-03    -8.07746E+06     78.9860E+06     28.0069E+06    -7.15761E+06    -29.2118E-03     54.0936E-03    -24.8818E-03     49.4103E-03    -29.5595E-03     54.6119E-03    -24.8446E-03     49.1982E-03
            1089     16.6767E-03     100.108E-03    -4.41639E+06     100.655E+06     50.8828E+06    -3.17029E+06    -29.5056E-03     54.6960E-03    -25.1904E-03     28.3384E-03    -29.8390E-03     55.2235E-03    -25.0755E-03     28.2035E-03
            1090     878.768E-06     100.412E-03    -28.4523E+06    -55.7857E+06    -27.8930E+06    -2.96656E+06    -23.8367E-03     47.6773E-03    -23.8406E-03     5.93450E-03    -23.8577E-03     47.4802E-03    -23.8579E-03     5.89412E-03
            1091     1.75750E-03     100.419E-03    -27.9503E+06    -55.0403E+06    -26.0691E+06    -5.31962E+06    -23.7759E-03     47.6013E-03    -23.8254E-03     10.9136E-03    -23.7984E-03     47.4048E-03    -23.8355E-03     10.8410E-03
            1092     2.63641E-03     100.430E-03    -27.1486E+06    -53.8193E+06    -23.1153E+06    -7.32960E+06    -23.6925E-03     47.4885E-03    -23.7960E-03     16.1663E-03    -23.7175E-03     47.2931E-03    -23.7942E-03     16.0657E-03
            1093     3.51538E-03     100.446E-03    -26.0409E+06     -52.208E+06    -19.1395E+06    -8.91350E+06    -23.5959E-03     47.3544E-03    -23.7585E-03     21.4652E-03    -23.6242E-03     47.1604E-03    -23.7407E-03     21.3416E-03
            1094     4.39453E-03     100.466E-03    -24.7196E+06    -50.0779E+06    -14.7581E+06    -10.1942E+06    -23.5021E-03     47.2154E-03    -23.7133E-03     26.7803E-03    -23.5343E-03     47.0248E-03    -23.6786E-03     26.6373E-03
            1095     5.27378E-03     100.490E-03    -23.4082E+06    -47.8308E+06    -10.4576E+06    -11.1213E+06    -23.4329E-03     47.0960E-03    -23.6631E-03     32.0958E-03    -23.4695E-03     46.9100E-03    -23.6121E-03     31.9373E-03
            1096     6.15318E-03     100.519E-03    -22.1903E+06    -45.5356E+06    -6.55378E+06    -11.7911E+06    -23.4136E-03     47.0255E-03    -23.6119E-03     37.3939E-03    -23.4554E-03     46.8458E-03    -23.5464E-03     37.2223E-03
            1097     7.03264E-03     100.552E-03    -21.1031E+06    -42.9410E+06    -3.07479E+06    -12.3694E+06    -23.4710E-03     47.0361E-03    -23.5651E-03     42.6504E-03    -23.5193E-03     46.8659E-03    -23.4876E-03     42.4660E-03
            1098     7.91210E-03     100.590E-03    -20.0147E+06    -40.2784E+06     94.4221E+03    -12.8086E+06    -23.6343E-03     47.1644E-03    -23.5300E-03     47.8281E-03    -23.6901E-03     47.0058E-03    -23.4421E-03     47.6312E-03
            1099     8.79150E-03     100.632E-03    -18.8719E+06    -38.0930E+06     2.75425E+06    -13.3156E+06    -23.9401E-03     47.4538E-03    -23.5138E-03     52.8545E-03    -24.0036E-03     47.3071E-03    -23.4174E-03     52.6426E-03
            1100     9.67062E-03     100.678E-03    -17.6658E+06    -37.8484E+06     3.97392E+06    -14.0364E+06    -24.4256E-03     47.9475E-03    -23.5219E-03     57.6029E-03    -24.4943E-03     47.8076E-03    -23.4215E-03     57.3709E-03
            1101     10.5494E-03     100.728E-03    -16.3486E+06    -36.4898E+06     4.25698E+06    -14.5165E+06    -25.0934E-03     48.6536E-03    -23.5602E-03     61.8878E-03    -25.1705E-03     48.5308E-03    -23.4623E-03     61.6362E-03
            1102     11.4276E-03     100.782E-03    -14.9987E+06    -36.3848E+06     3.67198E+06    -15.0153E+06    -25.9481E-03     49.5874E-03    -23.6394E-03     65.3725E-03    -26.0353E-03     49.4816E-03    -23.5465E-03     65.0980E-03
            1103     12.3052E-03     100.839E-03    -13.5375E+06    -33.8577E+06     2.44493E+06    -15.3213E+06    -26.9490E-03     50.7083E-03    -23.7593E-03     67.9907E-03    -27.0551E-03     50.6391E-03    -23.6784E-03     67.6928E-03
            1104     13.1816E-03     100.898E-03    -12.1509E+06    -29.7880E+06     1.22545E+06    -14.9068E+06    -28.0635E-03     51.9894E-03    -23.9259E-03     70.1325E-03    -28.2019E-03     51.9754E-03    -23.8590E-03     69.8178E-03
            1105     14.0574E-03     100.959E-03    -10.7814E+06    -4.10711E+06     7.04403E+06    -13.0413E+06    -29.1110E-03     53.2518E-03    -24.1408E-03     71.2969E-03    -29.3297E-03     53.3973E-03    -24.0840E-03     70.9887E-03
            1106     14.9320E-03     101.021E-03    -9.36414E+06     36.5718E+06     20.0501E+06    -10.5004E+06    -29.8786E-03     54.2849E-03    -24.4063E-03     64.6891E-03    -30.1791E-03     54.6239E-03    -24.3455E-03     64.4155E-03
            1107     15.8059E-03     101.072E-03    -7.09615E+06     75.5137E+06     30.5858E+06    -7.92772E+06    -30.5044E-03     55.1956E-03    -24.6912E-03     51.0526E-03    -30.8507E-03     55.6962E-03    -24.6374E-03     50.8219E-03
            1108     16.6786E-03     101.111E-03    -4.06157E+06     96.2422E+06     51.5816E+06    -4.34601E+06    -31.0633E-03     56.1395E-03    -25.0763E-03     29.4646E-03    -31.3928E-03     56.6468E-03    -24.9520E-03     29.3057E-03
            1109     879.318E-06     101.406E-03    -26.9594E+06    -49.9732E+06    -26.5665E+06    -2.74949E+06    -23.1270E-03     46.2587E-03    -23.1318E-03     6.03590E-03    -23.1509E-03     46.0866E-03    -23.1530E-03     5.99868E-03
            1110     1.75879E-03     101.412E-03    -26.6839E+06    -49.6562E+06    -24.9453E+06    -4.84951E+06    -23.0646E-03     46.1795E-03    -23.1149E-03     11.1029E-03    -23.0902E-03     46.0064E-03    -23.1289E-03     11.0371E-03
            1111     2.63824E-03     101.424E-03    -26.3198E+06    -49.3113E+06    -22.5098E+06    -6.61763E+06    -22.9784E-03     46.0618E-03    -23.0834E-03     16.4559E-03    -23.0066E-03     45.8867E-03    -23.0863E-03     16.3654E-03
            1112     3.51789E-03     101.439E-03    -25.9136E+06    -48.2800E+06    -19.5957E+06    -7.99232E+06    -22.8754E-03     45.9158E-03    -23.0405E-03     21.8717E-03    -22.9079E-03     45.7417E-03    -23.0309E-03     21.7614E-03
            1113     4.39763E-03     101.459E-03    -25.5256E+06    -46.7374E+06    -16.0973E+06    -9.03134E+06    -22.7780E-03     45.7689E-03    -22.9908E-03     27.3220E-03    -22.8169E-03     45.5978E-03    -22.9665E-03     27.1957E-03
            1114     5.27755E-03     101.483E-03    -25.1006E+06    -45.1053E+06    -12.1499E+06    -9.71309E+06    -22.7152E-03     45.6549E-03    -22.9397E-03     32.7923E-03    -22.7613E-03     45.4870E-03    -22.8987E-03     32.6540E-03
            1115     6.15755E-03     101.512E-03    -24.6403E+06    -43.0602E+06    -8.19535E+06    -10.2282E+06    -22.7178E-03     45.6089E-03    -22.8911E-03     38.2672E-03    -22.7724E-03     45.4469E-03    -22.8339E-03     38.1184E-03
            1116     7.03763E-03     101.545E-03    -24.1125E+06    -40.6321E+06    -4.46514E+06    -10.7355E+06    -22.8196E-03     45.6707E-03    -22.8512E-03     43.7221E-03    -22.8834E-03     45.5177E-03    -22.7796E-03     43.5617E-03
            1117     7.91766E-03     101.583E-03    -23.5079E+06    -38.1215E+06    -1.01793E+06    -11.3165E+06    -23.0541E-03     45.8820E-03    -22.8279E-03     49.1180E-03    -23.1280E-03     45.7400E-03    -22.7436E-03     48.9436E-03
            1118     8.79751E-03     101.625E-03    -22.6302E+06    -35.6186E+06     1.95481E+06    -12.1676E+06    -23.4594E-03     46.2879E-03    -22.8286E-03     54.3899E-03    -23.5430E-03     46.1591E-03    -22.7343E-03     54.1962E-03
            1119     9.67710E-03     101.672E-03    -21.5167E+06    -35.3753E+06     3.60827E+06    -13.2126E+06    -24.0831E-03     46.9447E-03    -22.8616E-03     59.3955E-03    -24.1730E-03     46.8222E-03    -22.7611E-03     59.1775E-03
            1120     10.5561E-03     101.723E-03    -20.0427E+06    -34.1979E+06     4.09400E+06    -14.4308E+06    -24.9327E-03     47.8649E-03    -22.9322E-03     63.9318E-03    -25.0306E-03     47.7584E-03    -22.8331E-03     63.6844E-03
            1121     11.4345E-03     101.778E-03    -17.9093E+06    -34.1251E+06     3.88803E+06    -15.5887E+06    -26.0089E-03     49.0618E-03    -23.0529E-03     67.6414E-03    -26.1141E-03     48.9710E-03    -22.9580E-03     67.3618E-03
            1122     12.3117E-03     101.835E-03    -15.5094E+06    -32.3853E+06     3.10269E+06    -16.3026E+06    -27.2779E-03     50.5041E-03    -23.2262E-03     70.4072E-03    -27.3977E-03     50.4450E-03    -23.1413E-03     70.0975E-03
            1123     13.1881E-03     101.896E-03    -13.1463E+06    -29.7737E+06     2.08329E+06    -15.9219E+06    -28.6914E-03     52.1484E-03    -23.4570E-03     72.5866E-03    -28.8385E-03     52.1372E-03    -23.3844E-03     72.2571E-03
            1124     14.0630E-03     101.959E-03    -10.7187E+06    -6.05080E+06     8.04916E+06    -14.0437E+06    -30.0449E-03     53.7919E-03    -23.7470E-03     73.6108E-03    -30.2665E-03     53.9307E-03    -23.6824E-03     73.2846E-03
            1125     14.9370E-03     102.023E-03    -7.59488E+06     34.5390E+06     21.8726E+06    -11.2930E+06    -31.1258E-03     55.2226E-03    -24.0969E-03     66.7955E-03    -31.4232E-03     55.5523E-03    -24.0266E-03     66.5033E-03
            1126     15.8094E-03     102.075E-03    -4.83325E+06     72.7172E+06     33.4800E+06    -8.30194E+06    -32.0861E-03     56.5655E-03    -24.4794E-03     52.9347E-03    -32.4275E-03     57.0509E-03    -24.4105E-03     52.6877E-03
            1127     16.6810E-03     102.115E-03    -2.32310E+06     91.3740E+06     52.5351E+06    -4.42188E+06    -32.9431E-03     57.9015E-03    -24.9584E-03     30.8142E-03    -33.2624E-03     58.3847E-03    -24.8249E-03     30.6428E-03
            1128     880.158E-06     102.398E-03    -26.9545E+06    -44.8461E+06    -26.5649E+06    -2.32564E+06    -22.2524E-03     44.5093E-03    -22.2569E-03     6.14126E-03    -22.2837E-03     44.3627E-03    -22.2856E-03     6.10989E-03
            1129     1.76025E-03     102.405E-03    -27.3004E+06    -45.1499E+06    -25.7562E+06    -3.93167E+06    -22.1906E-03     44.4286E-03    -22.2380E-03     11.3004E-03    -22.2246E-03     44.2800E-03    -22.2617E-03     11.2471E-03
            1130     2.64056E-03     102.416E-03    -27.7058E+06    -45.4892E+06    -24.1906E+06    -5.26352E+06    -22.1060E-03     44.3109E-03    -22.2049E-03     16.7591E-03    -22.1441E-03     44.1592E-03    -22.2197E-03     16.6872E-03
            1131     3.52090E-03     102.431E-03    -28.1487E+06    -45.0628E+06    -21.9946E+06    -6.27736E+06    -22.0080E-03     44.1698E-03    -22.1618E-03     22.2941E-03    -22.0527E-03     44.0183E-03    -22.1656E-03     22.2073E-03
            1132     4.40146E-03     102.451E-03    -28.6030E+06    -44.1114E+06    -18.9327E+06    -6.92249E+06    -21.9227E-03     44.0374E-03    -22.1146E-03     27.8805E-03    -21.9763E-03     43.8876E-03    -22.1038E-03     27.7832E-03
            1133     5.28208E-03     102.475E-03    -28.9783E+06    -42.8439E+06    -15.0162E+06    -7.41889E+06    -21.8844E-03     43.9542E-03    -22.0698E-03     33.5086E-03    -21.9486E-03     43.8069E-03    -22.0408E-03     33.4022E-03
            1134     6.16283E-03     102.503E-03    -29.0878E+06    -40.9746E+06    -10.7231E+06    -7.88061E+06    -21.9297E-03     43.9617E-03    -22.0320E-03     39.1668E-03    -22.0052E-03     43.8196E-03    -21.9840E-03     39.0509E-03
            1135     7.04356E-03     102.537E-03    -28.8595E+06    -38.3971E+06    -6.43937E+06    -8.53438E+06    -22.0989E-03     44.1064E-03    -22.0075E-03     44.8309E-03    -22.1860E-03     43.9734E-03    -21.9422E-03     44.7019E-03
            1136     7.92419E-03     102.575E-03    -28.0453E+06    -35.7037E+06    -2.33454E+06    -9.54211E+06    -22.4328E-03     44.4381E-03    -22.0052E-03     50.4582E-03    -22.5299E-03     44.3156E-03    -21.9245E-03     50.3100E-03
            1137     8.80459E-03     102.617E-03    -26.6960E+06    -32.7641E+06     1.25392E+06    -10.9005E+06    -22.9704E-03     45.0032E-03    -22.0328E-03     55.9869E-03    -23.0764E-03     44.8945E-03    -21.9404E-03     55.8129E-03
            1138     9.68450E-03     102.665E-03    -24.7896E+06    -32.4135E+06     3.36576E+06    -12.5963E+06    -23.7629E-03     45.8628E-03    -22.0999E-03     61.2738E-03    -23.8721E-03     45.7592E-03    -22.0001E-03     61.0671E-03
            1139     10.5638E-03     102.716E-03    -22.5113E+06    -30.8835E+06     4.27525E+06    -14.5053E+06    -24.8230E-03     47.0358E-03    -22.2129E-03     66.0974E-03    -24.9376E-03     46.9485E-03    -22.1141E-03     65.8518E-03
            1140     11.4421E-03     102.772E-03    -19.9266E+06    -30.8814E+06     4.29461E+06    -16.7613E+06    -26.1529E-03     48.5390E-03    -22.3861E-03     70.0675E-03    -26.2734E-03     48.4667E-03    -22.2910E-03     69.7747E-03
            1141     12.3194E-03     102.832E-03    -16.6681E+06    -30.5280E+06     3.67593E+06    -18.1966E+06    -27.7257E-03     50.3499E-03    -22.6242E-03     73.0335E-03    -27.8560E-03     50.3021E-03    -22.5374E-03     72.6994E-03
            1142     13.1950E-03     102.894E-03    -13.4749E+06    -30.1212E+06     2.49819E+06    -17.7151E+06    -29.4853E-03     52.4168E-03    -22.9315E-03     75.2700E-03    -29.6374E-03     52.4070E-03    -22.8558E-03     74.9144E-03
            1143     14.0695E-03     102.959E-03    -10.3620E+06    -7.34954E+06     8.49483E+06    -16.0417E+06    -31.1858E-03     54.4947E-03    -23.3089E-03     76.1739E-03    -31.4103E-03     54.6318E-03    -23.2408E-03     75.8148E-03
            1144     14.9420E-03     103.025E-03    -7.10641E+06     31.6390E+06     22.0288E+06    -13.2343E+06    -32.6093E-03     56.3659E-03    -23.7566E-03     69.1932E-03    -32.9081E-03     56.6881E-03    -23.6820E-03     68.8648E-03
            1145     15.8135E-03     103.079E-03    -4.36066E+06     68.0375E+06     33.2950E+06    -8.24203E+06    -33.9080E-03     58.1540E-03    -24.2460E-03     55.1563E-03    -34.2481E-03     58.6237E-03    -24.1718E-03     54.8953E-03
            1146     16.6829E-03     103.121E-03    -2.77856E+06     86.9213E+06     51.9411E+06    -3.42549E+06    -35.0073E-03     59.8425E-03    -24.8352E-03     32.4835E-03    -35.3269E-03     60.3102E-03    -24.6975E-03     32.3110E-03
            1147     880.981E-06     103.388E-03    -29.9992E+06    -41.2282E+06    -29.5025E+06    -1.29419E+06    -21.2074E-03     42.4186E-03    -21.2112E-03     6.23734E-03    -21.2550E-03     42.2988E-03    -21.2554E-03     6.21967E-03
            1148     1.76214E-03     103.395E-03    -31.0767E+06    -42.0285E+06    -29.5538E+06    -2.21065E+06    -21.1528E-03     42.3450E-03    -21.1922E-03     11.4811E-03    -21.2046E-03     42.2229E-03    -21.2340E-03     11.4507E-03
            1149     2.64324E-03     103.406E-03    -32.3610E+06    -42.7759E+06    -28.6864E+06    -3.05423E+06    -21.0803E-03     42.2424E-03    -21.1621E-03     17.0373E-03    -21.1390E-03     42.1174E-03    -21.1965E-03     16.9949E-03
            1150     3.52455E-03     103.421E-03    -33.5566E+06    -42.8588E+06    -26.5267E+06    -3.66685E+06    -21.0055E-03     42.1332E-03    -21.1277E-03     22.6812E-03    -21.0736E-03     42.0069E-03    -21.1495E-03     22.6295E-03
            1151     4.40589E-03     103.440E-03    -34.4236E+06    -42.2895E+06    -23.1098E+06    -4.11796E+06    -20.9552E-03     42.0488E-03    -21.0936E-03     28.3952E-03    -21.0341E-03     41.9223E-03    -21.0980E-03     28.3359E-03
            1152     5.28740E-03     103.464E-03    -34.8029E+06    -41.1098E+06    -18.6252E+06    -4.53064E+06    -20.9656E-03     42.0309E-03    -21.0653E-03     34.1773E-03    -21.0557E-03     41.9054E-03    -21.0484E-03     34.1104E-03
            1153     6.16888E-03     103.493E-03    -34.6350E+06    -39.0486E+06    -13.5062E+06    -5.21904E+06    -21.0801E-03     42.1286E-03    -21.0485E-03     40.0202E-03    -21.1815E-03     42.0074E-03    -21.0091E-03     39.9412E-03
            1154     7.05035E-03     103.527E-03    -33.6662E+06    -35.9617E+06    -8.27593E+06    -6.40019E+06    -21.3440E-03     42.3934E-03    -21.0494E-03     45.9029E-03    -21.4551E-03     42.2813E-03    -20.9898E-03     45.8042E-03
            1155     7.93160E-03     103.565E-03    -31.9394E+06    -32.6957E+06    -3.39116E+06    -8.16031E+06    -21.8038E-03     42.8813E-03    -21.0774E-03     51.7786E-03    -21.9222E-03     42.7800E-03    -21.0007E-03     51.6512E-03
            1156     8.81248E-03     103.608E-03    -29.5079E+06    -29.5070E+06     739.793E+03    -10.2064E+06    -22.4999E-03     43.6413E-03    -21.1415E-03     57.5866E-03    -22.6228E-03     43.5526E-03    -21.0522E-03     57.4247E-03
            1157     9.69281E-03     103.656E-03    -26.6368E+06    -28.4492E+06     3.31040E+06    -12.6948E+06    -23.4822E-03     44.7341E-03    -21.2519E-03     63.1940E-03    -23.6053E-03     44.6520E-03    -21.1554E-03     62.9891E-03
            1158     10.5722E-03     103.709E-03    -23.4335E+06    -27.1461E+06     4.58147E+06    -15.2388E+06    -24.7730E-03     46.1906E-03    -21.4176E-03     68.3535E-03    -24.8974E-03     46.1222E-03    -21.3214E-03     68.1011E-03
            1159     11.4507E-03     103.767E-03    -20.4608E+06    -26.4646E+06     5.08973E+06    -17.7128E+06    -26.3781E-03     48.0318E-03    -21.6537E-03     72.6477E-03    -26.5090E-03     47.9814E-03    -21.5602E-03     72.3441E-03
            1160     12.3274E-03     103.828E-03    -17.6862E+06    -27.4462E+06     4.19173E+06    -20.3622E+06    -28.2774E-03     50.2437E-03    -21.9663E-03     75.9041E-03    -28.4197E-03     50.2137E-03    -21.8799E-03     75.5416E-03
            1161     13.2028E-03     103.892E-03    -13.9682E+06    -30.7621E+06     2.08114E+06    -20.6029E+06    -30.4164E-03     52.7756E-03    -22.3592E-03     78.3099E-03    -30.5734E-03     52.7679E-03    -22.2840E-03     77.9132E-03
            1162     14.0760E-03     103.960E-03    -10.1679E+06    -8.35053E+06     8.08176E+06    -18.5504E+06    -32.4999E-03     55.3340E-03    -22.8341E-03     79.1460E-03    -32.7287E-03     55.4738E-03    -22.7669E-03     78.7456E-03
            1163     14.9478E-03     104.028E-03    -7.58899E+06     26.8608E+06     20.5239E+06    -14.1806E+06    -34.2885E-03     57.6798E-03    -23.3913E-03     72.0433E-03    -34.5903E-03     57.9907E-03    -23.3166E-03     71.6888E-03
            1164     15.8171E-03     104.085E-03    -6.10183E+06     61.6959E+06     30.0923E+06    -8.01052E+06    -35.9103E-03     59.9029E-03    -23.9926E-03     57.9007E-03    -36.2550E-03     60.3578E-03    -23.9227E-03     57.6253E-03
            1165     16.6853E-03     104.130E-03    -3.20653E+06     83.0711E+06     50.4983E+06    -3.33036E+06    -37.2009E-03     61.9051E-03    -24.7042E-03     34.5481E-03    -37.5212E-03     62.3626E-03    -24.5675E-03     34.3606E-03
            1166     882.129E-06     104.376E-03    -37.5741E+06    -40.5393E+06    -36.6133E+06     664.306E+03    -20.0103E-03     40.0228E-03    -20.0125E-03     6.30137E-03    -20.0864E-03     39.9277E-03    -20.0823E-03     6.30933E-03
            1167     1.76415E-03     104.383E-03    -39.2331E+06    -40.7728E+06    -36.6484E+06     515.087E+03    -19.9752E-03     39.9760E-03    -20.0009E-03     11.6038E-03    -20.0593E-03     39.8823E-03    -20.0681E-03     11.6092E-03
            1168     2.64639E-03     104.394E-03    -40.7349E+06    -41.3525E+06    -35.3535E+06    -60.1197E+03    -19.9336E-03     39.9183E-03    -19.9847E-03     17.2327E-03    -20.0264E-03     39.8222E-03    -20.0425E-03     17.2299E-03
            1169     3.52858E-03     104.409E-03    -41.6404E+06    -41.6310E+06    -32.4949E+06    -643.813E+03    -19.9024E-03     39.8713E-03    -19.9689E-03     22.9678E-03    -20.0038E-03     39.7712E-03    -20.0106E-03     22.9564E-03
            1170     4.41094E-03     104.428E-03    -41.7870E+06    -40.9803E+06    -27.9854E+06    -1.26089E+06    -19.9107E-03     39.8685E-03    -19.9578E-03     28.7987E-03    -20.0209E-03     39.7660E-03    -19.9778E-03     28.7779E-03
            1171     5.29325E-03     104.452E-03    -40.9708E+06    -39.5861E+06    -22.2236E+06    -2.15428E+06    -19.9980E-03     39.9547E-03    -19.9567E-03     34.7303E-03    -20.1154E-03     39.8505E-03    -19.9510E-03     34.6960E-03
            1172     6.17560E-03     104.481E-03    -39.0215E+06    -36.8659E+06    -15.8236E+06    -3.47707E+06    -20.2079E-03     40.1779E-03    -19.9700E-03     40.7600E-03    -20.3303E-03     40.0767E-03    -19.9391E-03     40.7057E-03
            1173     7.05775E-03     104.515E-03    -36.2929E+06    -33.0884E+06    -9.55344E+06    -5.34096E+06    -20.5885E-03     40.5933E-03    -20.0048E-03     46.8703E-03    -20.7143E-03     40.5004E-03    -19.9519E-03     46.7879E-03
            1174     7.93964E-03     104.553E-03    -33.1247E+06    -29.1115E+06    -3.99970E+06    -7.63564E+06    -21.1886E-03     41.2592E-03    -20.0707E-03     53.0187E-03    -21.3162E-03     41.1775E-03    -20.0004E-03     52.9010E-03
            1175     8.82102E-03     104.597E-03    -29.8561E+06    -25.6689E+06     528.843E+03    -10.2342E+06    -22.0540E-03     42.2331E-03    -20.1791E-03     59.1432E-03    -22.1829E-03     42.1634E-03    -20.0960E-03     58.9839E-03
            1176     9.70166E-03     104.647E-03    -26.5093E+06    -23.6669E+06     3.61973E+06    -13.2373E+06    -23.2335E-03     43.5746E-03    -20.3411E-03     65.1231E-03    -23.3623E-03     43.5148E-03    -20.2503E-03     64.9141E-03
            1177     10.5813E-03     104.701E-03    -23.2847E+06    -22.9197E+06     5.07404E+06    -16.2534E+06    -24.7578E-03     45.3252E-03    -20.5674E-03     70.6922E-03    -24.8877E-03     45.2764E-03    -20.4750E-03     70.4291E-03
            1178     11.4596E-03     104.760E-03    -20.2887E+06    -22.2852E+06     5.72146E+06    -18.5934E+06    -26.6369E-03     47.5086E-03    -20.8717E-03     75.4279E-03    -26.7740E-03     47.4781E-03    -20.7814E-03     75.1145E-03
            1179     12.3363E-03     104.824E-03    -17.8602E+06    -22.3420E+06     5.33047E+06    -21.3698E+06    -28.8643E-03     50.1280E-03    -21.2638E-03     79.1087E-03    -29.0181E-03     50.1238E-03    -21.1788E-03     78.7328E-03
            1180     13.2108E-03     104.891E-03    -15.4384E+06    -29.9459E+06     1.51633E+06    -23.6562E+06    -31.4031E-03     53.1495E-03    -21.7464E-03     81.8601E-03    -31.5721E-03     53.1532E-03    -21.6731E-03     81.4198E-03
            1181     14.0834E-03     104.961E-03    -12.2625E+06    -11.2638E+06     5.97128E+06    -21.2107E+06    -33.9170E-03     56.2406E-03    -22.3237E-03     82.7517E-03    -34.1572E-03     56.3803E-03    -22.2597E-03     82.3069E-03
            1182     14.9534E-03     105.032E-03    -9.16209E+06     20.4767E+06     17.9403E+06    -15.1877E+06    -36.1149E-03     59.1137E-03    -22.9988E-03     75.5310E-03    -36.4232E-03     59.4103E-03    -22.9255E-03     75.1475E-03
            1183     15.8217E-03     105.092E-03    -5.79543E+06     55.0741E+06     26.7952E+06    -8.61581E+06    -38.0739E-03     61.7923E-03    -23.7184E-03     61.2836E-03    -38.4143E-03     62.2303E-03    -23.6559E-03     60.9803E-03
            1184     16.6872E-03     105.140E-03    -3.32929E+06     79.1694E+06     48.9559E+06    -3.53145E+06    -39.5723E-03     64.1351E-03    -24.5628E-03     37.0745E-03    -39.8927E-03     64.5829E-03    -24.4280E-03     36.8655E-03
            1185     883.160E-06     105.362E-03    -53.1614E+06    -43.2113E+06    -51.9795E+06     2.24307E+06    -18.7128E-03     37.4273E-03    -18.7145E-03     6.30154E-03    -18.8407E-03     37.3636E-03    -18.8346E-03     6.33015E-03
            1186     1.76648E-03     105.369E-03    -52.7066E+06    -41.6250E+06    -48.9738E+06     2.85923E+06    -18.7088E-03     37.4278E-03    -18.7190E-03     11.6202E-03    -18.8412E-03     37.3672E-03    -18.8271E-03     11.6564E-03
            1187     2.64964E-03     105.379E-03    -52.3065E+06    -41.1013E+06    -44.8367E+06     2.62209E+06    -18.7147E-03     37.4418E-03    -18.7271E-03     17.2904E-03    -18.8519E-03     37.3773E-03    -18.8158E-03     17.3230E-03
            1188     3.53297E-03     105.394E-03    -51.2821E+06    -40.5926E+06    -39.6158E+06     1.52207E+06    -18.7472E-03     37.4862E-03    -18.7390E-03     23.0966E-03    -18.8878E-03     37.4154E-03    -18.8038E-03     23.1142E-03
            1189     4.41620E-03     105.414E-03    -48.8172E+06    -39.4456E+06    -33.0989E+06    -105.937E+03    -18.8356E-03     37.5936E-03    -18.7581E-03     29.0327E-03    -18.9754E-03     37.5160E-03    -18.7956E-03     29.0281E-03
            1190     5.29950E-03     105.438E-03    -44.9999E+06    -37.5914E+06    -25.5848E+06    -1.87493E+06    -19.0204E-03     37.8102E-03    -18.7897E-03     35.1104E-03    -19.1556E-03     37.7262E-03    -18.7979E-03     35.0813E-03
            1191     6.18259E-03     105.467E-03    -40.6058E+06    -34.2808E+06    -17.9765E+06    -3.79370E+06    -19.3407E-03     38.1788E-03    -18.8382E-03     41.3297E-03    -19.4710E-03     38.0954E-03    -18.8195E-03     41.2733E-03
            1192     7.06551E-03     105.501E-03    -36.1743E+06    -29.9719E+06    -10.9419E+06    -5.80500E+06    -19.8441E-03     38.7555E-03    -18.9114E-03     47.6792E-03    -19.9710E-03     38.6793E-03    -18.8702E-03     47.5931E-03
            1193     7.94799E-03     105.540E-03    -32.0947E+06    -25.2975E+06    -4.72546E+06    -8.12465E+06    -20.5855E-03     39.6064E-03    -19.0209E-03     54.1235E-03    -20.7115E-03     39.5423E-03    -18.9613E-03     54.0020E-03
            1194     8.82988E-03     105.585E-03    -28.1392E+06    -21.2875E+06     580.345E+03    -10.9160E+06    -21.6165E-03     40.7958E-03    -19.1793E-03     60.6023E-03    -21.7422E-03     40.7443E-03    -19.1047E-03     60.4370E-03
            1195     9.71088E-03     105.636E-03    -24.4807E+06    -18.7623E+06     4.38494E+06    -13.9404E+06    -22.9825E-03     42.3797E-03    -19.3972E-03     67.0096E-03    -23.1083E-03     42.3393E-03    -19.3126E-03     66.7943E-03
            1196     10.5907E-03     105.692E-03    -21.3110E+06    -18.1957E+06     6.35291E+06    -16.9206E+06    -24.7236E-03     44.4095E-03    -19.6859E-03     73.0762E-03    -24.8514E-03     44.3788E-03    -19.5969E-03     72.8072E-03
            1197     11.4690E-03     105.754E-03    -18.7483E+06    -18.7077E+06     6.82572E+06    -19.1463E+06    -26.8612E-03     46.9194E-03    -20.0583E-03     78.3762E-03    -26.9972E-03     46.9028E-03    -19.9698E-03     78.0576E-03
            1198     12.3454E-03     105.820E-03    -16.4480E+06    -16.3428E+06     7.52025E+06    -21.8796E+06    -29.4010E-03     49.9288E-03    -20.5277E-03     82.6508E-03    -29.5609E-03     49.9506E-03    -20.4426E-03     82.2685E-03
            1199     13.2196E-03     105.890E-03    -14.7637E+06    -27.0024E+06     3.02869E+06    -24.4840E+06    -32.3588E-03     53.4590E-03    -21.1002E-03     85.8724E-03    -32.5348E-03     53.4782E-03    -21.0245E-03     85.4179E-03
            1200     14.0909E-03     105.964E-03    -12.9812E+06    -14.6645E+06     4.65403E+06    -23.4421E+06    -35.3536E-03     57.1312E-03    -21.7776E-03     87.0000E-03    -35.5991E-03     57.2654E-03    -21.7143E-03     86.5162E-03
            1201     14.9601E-03     106.038E-03    -9.35605E+06     13.1913E+06     15.3591E+06    -17.6982E+06    -38.0430E-03     60.6133E-03    -22.5703E-03     79.7824E-03    -38.3511E-03     60.8908E-03    -22.4990E-03     79.3486E-03
            1202     15.8260E-03     106.101E-03    -6.30275E+06     47.4066E+06     23.5891E+06    -9.89273E+06    -40.4192E-03     63.8388E-03    -23.4197E-03     65.3263E-03    -40.7604E-03     64.2579E-03    -23.3613E-03     64.9832E-03
            1203     16.6904E-03     106.153E-03    -3.05395E+06     74.7967E+06     47.7729E+06    -3.88292E+06    -42.2001E-03     66.6071E-03    -24.4070E-03     40.0877E-03    -42.5201E-03     67.0435E-03    -24.2722E-03     39.8516E-03
            1204     884.371E-06     106.345E-03    -74.8975E+06    -46.4743E+06    -74.7666E+06     1.22570E+06    -17.4253E-03     34.8562E-03    -17.4310E-03     6.21866E-03    -17.6240E-03     34.8408E-03    -17.6288E-03     6.23428E-03
            1205     1.76859E-03     106.352E-03    -71.3449E+06    -43.2029E+06    -68.6175E+06     1.67214E+06    -17.4376E-03     34.8771E-03    -17.4395E-03     11.4971E-03    -17.6323E-03     34.8640E-03    -17.6165E-03     11.5183E-03
            1206     2.65300E-03     106.362E-03    -65.9656E+06    -41.2249E+06    -59.3408E+06     1.44073E+06    -17.4887E-03     34.9578E-03    -17.4691E-03     17.1666E-03    -17.6729E-03     34.9334E-03    -17.6103E-03     17.1844E-03
            1207     3.53724E-03     106.377E-03    -59.7109E+06    -38.8434E+06    -48.9607E+06     21.0128E+03    -17.5928E-03     35.1025E-03    -17.5096E-03     23.0189E-03    -17.7644E-03     35.0661E-03    -17.6115E-03     23.0178E-03
            1208     4.42153E-03     106.397E-03    -53.2415E+06    -36.8642E+06    -39.1269E+06    -2.32529E+06    -17.7725E-03     35.3319E-03    -17.5594E-03     29.0479E-03    -17.9292E-03     35.2821E-03    -17.6244E-03     29.0157E-03
            1209     5.30563E-03     106.421E-03    -46.7778E+06    -34.9624E+06    -30.0022E+06    -4.56794E+06    -18.0568E-03     35.6797E-03    -17.6229E-03     35.2594E-03    -18.1979E-03     35.6175E-03    -17.6544E-03     35.1968E-03
            1210     6.18962E-03     106.451E-03    -40.4726E+06    -31.4627E+06    -21.3216E+06    -6.39872E+06    -18.4847E-03     36.1911E-03    -17.7064E-03     41.6595E-03    -18.6131E-03     36.1258E-03    -17.7087E-03     41.5711E-03
            1211     7.07320E-03     106.485E-03    -34.6339E+06    -27.0624E+06    -13.1581E+06    -8.04133E+06    -19.1113E-03     36.9318E-03    -17.8205E-03     48.2505E-03    -19.2308E-03     36.8703E-03    -17.7968E-03     48.1374E-03
            1212     7.95635E-03     106.526E-03    -29.2597E+06    -21.6309E+06    -5.53527E+06    -9.85654E+06    -19.9867E-03     37.9625E-03    -17.9758E-03     55.0024E-03    -20.1017E-03     37.9129E-03    -17.9297E-03     54.8609E-03
            1213     8.83870E-03     106.572E-03    -24.7452E+06    -16.9426E+06     969.755E+03    -12.1714E+06    -21.1583E-03     39.3425E-03    -18.1841E-03     61.8652E-03    -21.2727E-03     39.3061E-03    -18.1188E-03     61.6864E-03
            1214     9.72009E-03     106.624E-03    -21.3704E+06    -14.5574E+06     5.51097E+06    -14.3762E+06    -22.6795E-03     41.1350E-03    -18.4555E-03     68.7473E-03    -22.7962E-03     41.1082E-03    -18.3759E-03     68.5294E-03
            1215     10.6002E-03     106.682E-03    -19.2161E+06    -13.3198E+06     8.11125E+06    -16.7943E+06    -24.6019E-03     43.4030E-03    -18.8012E-03     75.3960E-03    -24.7275E-03     43.3897E-03    -18.7134E-03     75.1317E-03
            1216     11.4785E-03     106.746E-03    -17.1204E+06    -14.7692E+06     8.79400E+06    -19.5078E+06    -26.9765E-03     46.2120E-03    -19.2355E-03     81.3679E-03    -27.1120E-03     46.2089E-03    -19.1453E-03     81.0473E-03
            1217     12.3550E-03     106.815E-03    -15.2670E+06    -11.0412E+06     10.0512E+06    -21.8458E+06    -29.8109E-03     49.5843E-03    -19.7733E-03     86.3950E-03    -29.9763E-03     49.6273E-03    -19.6849E-03     86.0146E-03
            1218     13.2286E-03     106.889E-03    -13.6386E+06    -22.5394E+06     5.88797E+06    -24.7669E+06    -33.1894E-03     53.6172E-03    -20.4278E-03     90.2920E-03    -33.3731E-03     53.6557E-03    -20.3459E-03     89.8317E-03
            1219     14.0995E-03     106.967E-03    -11.2574E+06    -16.2806E+06     4.83849E+06    -25.0751E+06    -36.7264E-03     57.9228E-03    -21.1965E-03     91.7801E-03    -36.9689E-03     58.0540E-03    -21.1323E-03     91.2658E-03
            1220     14.9669E-03     107.046E-03    -9.38104E+06     4.93257E+06     12.8314E+06    -19.4402E+06    -39.9985E-03     62.1034E-03    -22.1049E-03     84.6781E-03    -40.3052E-03     62.3576E-03    -22.0343E-03     84.2022E-03
            1221     15.8317E-03     107.113E-03    -7.02452E+06     38.8564E+06     22.0517E+06    -11.0013E+06    -42.9580E-03     66.0564E-03    -23.0984E-03     70.0155E-03    -43.3046E-03     66.4524E-03    -23.0342E-03     69.6309E-03
            1222     16.6928E-03     107.168E-03    -4.44426E+06     69.9445E+06     46.9141E+06    -4.73337E+06    -45.1372E-03     69.3739E-03    -24.2367E-03     43.5804E-03    -45.4670E-03     69.8005E-03    -24.0971E-03     43.3054E-03
            1223     885.190E-06     107.326E-03    -84.5478E+06    -46.3316E+06    -84.4805E+06    -1.42038E+06    -16.3190E-03     32.6495E-03    -16.3305E-03     6.06192E-03    -16.5521E-03     32.6630E-03    -16.5631E-03     6.04341E-03
            1224     1.77060E-03     107.332E-03    -80.7892E+06    -42.5999E+06    -79.3488E+06    -2.38121E+06    -16.3234E-03     32.6512E-03    -16.3278E-03     11.2267E-03    -16.5506E-03     32.6704E-03    -16.5456E-03     11.1956E-03
            1225     2.65584E-03     107.343E-03    -75.0798E+06    -39.5978E+06    -71.5831E+06    -3.83997E+06    -16.3708E-03     32.7145E-03    -16.3437E-03     16.8203E-03    -16.5851E-03     32.7292E-03    -16.5353E-03     16.7701E-03
            1226     3.54121E-03     107.358E-03    -67.7013E+06    -35.7004E+06    -61.9039E+06    -5.87456E+06    -16.4956E-03     32.8716E-03    -16.3760E-03     22.6632E-03    -16.6928E-03     32.8812E-03    -16.5356E-03     22.5864E-03
            1227     4.42636E-03     107.378E-03    -59.5029E+06    -33.2052E+06    -50.3508E+06    -8.14174E+06    -16.7373E-03     33.1750E-03    -16.4377E-03     28.7475E-03    -16.9142E-03     33.1688E-03    -16.5550E-03     28.6408E-03
            1228     5.31142E-03     107.403E-03    -50.9422E+06    -31.3589E+06    -38.3580E+06    -10.4173E+06    -17.1121E-03     33.6406E-03    -16.5285E-03     35.0657E-03    -17.2669E-03     33.6143E-03    -16.6009E-03     34.9285E-03
            1229     6.19611E-03     107.433E-03    -42.2202E+06    -28.7030E+06    -27.3405E+06    -12.0353E+06    -17.6474E-03     34.2929E-03    -16.6454E-03     41.6297E-03    -17.7794E-03     34.2523E-03    -16.6793E-03     41.4697E-03
            1230     7.08048E-03     107.468E-03    -33.9354E+06    -24.5709E+06    -16.9052E+06    -12.7950E+06    -18.3881E-03     35.1859E-03    -16.7978E-03     48.4481E-03    -18.5016E-03     35.1407E-03    -16.7975E-03     48.2753E-03
            1231     7.96416E-03     107.509E-03    -26.9576E+06    -18.8519E+06    -7.44418E+06    -13.4066E+06    -19.3693E-03     36.3628E-03    -16.9936E-03     55.4993E-03    -19.4731E-03     36.3256E-03    -16.9644E-03     55.3140E-03
            1232     8.84710E-03     107.557E-03    -21.8497E+06    -14.0034E+06     661.956E+03    -13.7911E+06    -20.6463E-03     37.8912E-03    -17.2449E-03     62.7491E-03    -20.7487E-03     37.8644E-03    -17.1896E-03     62.5520E-03
            1233     9.72893E-03     107.610E-03    -18.5191E+06    -11.2343E+06     6.73186E+06    -14.6402E+06    -22.2870E-03     39.8486E-03    -17.5616E-03     70.1268E-03    -22.3943E-03     39.8308E-03    -17.4848E-03     69.9087E-03
            1234     10.6094E-03     107.671E-03    -15.8818E+06    -8.95419E+06     10.7716E+06    -16.3554E+06    -24.3513E-03     42.3042E-03    -17.9529E-03     77.4111E-03    -24.4684E-03     42.3019E-03    -17.8630E-03     77.1563E-03
            1235     11.4881E-03     107.738E-03    -14.3018E+06    -9.97182E+06     12.3154E+06    -18.8736E+06    -26.9170E-03     45.3531E-03    -18.4361E-03     84.1653E-03    -27.0481E-03     45.3625E-03    -18.3394E-03     83.8569E-03
            1236     12.3643E-03     107.810E-03    -13.4375E+06    -7.32038E+06     13.2515E+06    -20.8563E+06    -30.0114E-03     49.0379E-03    -19.0265E-03     90.1051E-03    -30.1757E-03     49.0903E-03    -18.9302E-03     89.7409E-03
            1237     13.2381E-03     107.888E-03    -12.4970E+06    -14.9662E+06     10.8820E+06    -24.7367E+06    -33.7816E-03     53.5296E-03    -19.7480E-03     95.0314E-03    -33.9774E-03     53.5967E-03    -19.6538E-03     94.5726E-03
            1238     14.1080E-03     107.971E-03    -10.9058E+06    -17.3882E+06     6.85597E+06    -26.7608E+06    -37.9705E-03     58.5701E-03    -20.5996E-03     97.1110E-03    -38.2176E-03     58.6973E-03    -20.5243E-03     96.5678E-03
            1239     14.9748E-03     108.054E-03    -8.15080E+06    -4.59146E+06     11.9183E+06    -20.2846E+06    -41.9573E-03     63.5739E-03    -21.6166E-03     90.2058E-03    -42.2572E-03     63.7946E-03    -21.5386E-03     89.6985E-03
            1240     15.8370E-03     108.127E-03    -5.43222E+06     31.7570E+06     22.4134E+06    -12.4909E+06    -45.5660E-03     68.3166E-03    -22.7506E-03     75.4969E-03    -45.9132E-03     68.6929E-03    -22.6767E-03     75.0631E-03
            1241     16.6967E-03     108.186E-03    -1.69538E+06     62.8779E+06     47.3304E+06    -5.65011E+06    -48.3666E-03     72.4139E-03    -24.0473E-03     47.8670E-03    -48.6862E-03     72.8139E-03    -23.8993E-03     47.5478E-03
            1242     886.109E-06     108.305E-03    -73.0742E+06    -41.7349E+06    -72.4492E+06    -3.31360E+06    -15.4980E-03     31.0084E-03    -15.5104E-03     5.83335E-03    -15.6978E-03     31.0108E-03    -15.7062E-03     5.79036E-03
            1243     1.77204E-03     108.311E-03    -70.5990E+06    -38.6480E+06    -68.5155E+06    -5.60759E+06    -15.5063E-03     31.0146E-03    -15.5083E-03     10.8034E-03    -15.7040E-03     31.0231E-03    -15.6925E-03     10.7306E-03
            1244     2.65822E-03     108.322E-03    -67.1448E+06    -34.8052E+06    -64.0211E+06    -8.24073E+06    -15.5363E-03     31.0481E-03    -15.5118E-03     16.1972E-03    -15.7288E-03     31.0644E-03    -15.6841E-03     16.0901E-03
            1245     3.54426E-03     108.337E-03    -63.1021E+06    -30.6255E+06    -58.4432E+06    -11.1977E+06    -15.6368E-03     31.1635E-03    -15.5267E-03     21.8757E-03    -15.8234E-03     31.1869E-03    -15.6830E-03     21.7302E-03
            1246     4.43036E-03     108.357E-03    -58.1969E+06    -28.2055E+06    -51.0106E+06    -13.9211E+06    -15.8601E-03     31.4301E-03    -15.5701E-03     27.8753E-03    -16.0367E-03     31.4479E-03    -15.6998E-03     27.6942E-03
            1247     5.31614E-03     108.382E-03    -52.5012E+06    -26.3817E+06    -42.2343E+06    -16.5006E+06    -16.2507E-03     31.8994E-03    -15.6487E-03     34.2269E-03    -16.4146E-03     31.9057E-03    -15.7455E-03     34.0115E-03
            1248     6.20166E-03     108.413E-03    -45.9396E+06    -24.8560E+06    -33.1025E+06    -18.7422E+06    -16.8459E-03     32.6130E-03    -15.7672E-03     40.9434E-03    -16.9934E-03     32.6051E-03    -15.8300E-03     40.6976E-03
            1249     7.08658E-03     108.449E-03    -38.0946E+06    -22.0835E+06    -23.3704E+06    -19.8903E+06    -17.6584E-03     33.5899E-03    -15.9316E-03     47.9957E-03    -17.7863E-03     33.5720E-03    -15.9611E-03     47.7326E-03
            1250     7.97096E-03     108.491E-03    -29.6674E+06    -17.5119E+06    -12.4558E+06    -19.3133E+06    -18.7154E-03     34.8667E-03    -16.1513E-03     55.3291E-03    -18.8265E-03     34.8465E-03    -16.1452E-03     55.0695E-03
            1251     8.85440E-03     108.540E-03    -22.1889E+06    -13.6695E+06    -1.67774E+06    -17.4389E+06    -20.0696E-03     36.5032E-03    -16.4337E-03     62.9364E-03    -20.1693E-03     36.4805E-03    -16.3900E-03     62.6949E-03
            1252     9.73677E-03     108.596E-03    -16.7908E+06    -9.45124E+06     7.22728E+06    -15.7864E+06    -21.7820E-03     38.5620E-03    -16.7800E-03     70.8038E-03    -21.8817E-03     38.5477E-03    -16.7059E-03     70.5744E-03
            1253     10.6177E-03     108.658E-03    -13.6965E+06    -5.15442E+06     13.2847E+06    -16.3965E+06    -23.9270E-03     41.1262E-03    -17.1991E-03     78.7486E-03    -24.0391E-03     41.1329E-03    -17.1054E-03     78.4978E-03
            1254     11.4967E-03     108.728E-03    -11.0730E+06    -5.62319E+06     16.5192E+06    -18.3247E+06    -26.6054E-03     44.3165E-03    -17.7111E-03     86.3682E-03    -26.7285E-03     44.3326E-03    -17.6043E-03     86.0725E-03
            1255     12.3735E-03     108.804E-03    -9.16759E+06    -4.69918E+06     18.2776E+06    -19.3913E+06    -29.9113E-03     48.2447E-03    -18.3334E-03     93.3754E-03    -30.0602E-03     48.2916E-03    -18.2219E-03     93.0365E-03
            1256     13.2471E-03     108.887E-03    -9.57903E+06    -6.43729E+06     18.2086E+06    -22.0815E+06    -33.9996E-03     53.0958E-03    -19.0962E-03     99.6256E-03    -34.1985E-03     53.1854E-03    -18.9820E-03     99.2068E-03
            1257     14.1173E-03     108.975E-03    -10.7548E+06    -14.7683E+06     12.5069E+06    -26.1526E+06    -38.8281E-03     58.8374E-03    -20.0093E-03     102.941E-03    -39.0855E-03     58.9684E-03    -19.9098E-03     102.405E-03
            1258     14.9823E-03     109.064E-03    -9.09727E+06    -14.6250E+06     12.1427E+06    -23.2184E+06    -43.7446E-03     64.8570E-03    -21.1124E-03     96.7731E-03    -44.0474E-03     65.0411E-03    -21.0173E-03     96.2096E-03
            1259     15.8438E-03     109.142E-03    -5.96205E+06     23.5158E+06     22.1216E+06    -13.4280E+06    -48.1845E-03     70.5567E-03    -22.3722E-03     82.0221E-03    -48.5435E-03     70.9146E-03    -22.2870E-03     81.5425E-03
            1260     16.7001E-03     109.208E-03    -5.03502E+06     55.5761E+06     46.3946E+06    -5.64291E+06    -51.8847E-03     75.7199E-03    -23.8352E-03     53.2358E-03    -52.2247E-03     76.1056E-03    -23.6765E-03     52.8797E-03
            1261     886.504E-06     109.282E-03    -52.9042E+06    -34.5993E+06    -51.8482E+06    -3.97668E+06    -15.0073E-03     30.0201E-03    -15.0128E-03     5.48678E-03    -15.1465E-03     29.9991E-03    -15.1451E-03     5.43511E-03
            1262     1.77319E-03     109.289E-03    -50.8313E+06    -32.0598E+06    -47.7504E+06    -7.15423E+06    -15.0450E-03     30.0708E-03    -15.0258E-03     10.1574E-03    -15.1835E-03     30.0535E-03    -15.1444E-03     10.0644E-03
            1263     2.65966E-03     109.299E-03    -47.9484E+06    -28.2969E+06    -42.1285E+06    -10.1603E+06    -15.1026E-03     30.1546E-03    -15.0520E-03     15.2145E-03    -15.2404E-03     30.1439E-03    -15.1521E-03     15.0823E-03
            1264     3.54626E-03     109.315E-03    -45.1322E+06    -24.2816E+06    -36.8553E+06    -12.8610E+06    -15.1967E-03     30.2776E-03    -15.0809E-03     20.5465E-03    -15.3341E-03     30.2754E-03    -15.1645E-03     20.3791E-03
            1265     4.43269E-03     109.335E-03    -43.0249E+06    -22.0116E+06    -32.9216E+06    -15.6287E+06    -15.3697E-03     30.4861E-03    -15.1163E-03     26.2370E-03    -15.5058E-03     30.4867E-03    -15.1866E-03     26.0333E-03
            1266     5.31914E-03     109.360E-03    -41.1059E+06    -20.1760E+06    -29.1420E+06    -18.5234E+06    -15.6896E-03     30.8612E-03    -15.1716E-03     32.3865E-03    -15.8247E-03     30.8632E-03    -15.2284E-03     32.1448E-03
            1267     6.20519E-03     109.391E-03    -38.8379E+06    -18.9406E+06    -24.4976E+06      -21.61E+06    -16.2208E-03     31.4853E-03    -15.2645E-03     39.0487E-03    -16.3538E-03     31.4842E-03    -15.3032E-03     38.7660E-03
            1268     7.09084E-03     109.429E-03    -36.0486E+06    -18.0138E+06    -19.7114E+06    -24.0656E+06    -16.9930E-03     32.3956E-03    -15.4026E-03     46.2159E-03    -17.1216E-03     32.3894E-03    -15.4227E-03     45.8996E-03
            1269     7.97569E-03     109.472E-03    -31.9010E+06    -16.1031E+06    -13.9233E+06    -24.7179E+06    -18.0379E-03     33.6341E-03    -15.5962E-03     53.8430E-03    -18.1592E-03     33.6254E-03    -15.5962E-03     53.5152E-03
            1270     8.85974E-03     109.522E-03    -25.3425E+06    -14.1433E+06    -5.00012E+06    -23.4450E+06    -19.4148E-03     35.2799E-03    -15.8651E-03     61.8699E-03    -19.5231E-03     35.2626E-03    -15.8329E-03     61.5534E-03
            1271     9.74261E-03     109.580E-03    -16.9977E+06    -10.4986E+06     6.00790E+06    -20.6294E+06    -21.1521E-03     37.3645E-03    -16.2124E-03     70.2260E-03    -21.2468E-03     37.3442E-03    -16.1425E-03     69.9380E-03
            1272     10.6241E-03     109.645E-03    -10.4451E+06    -4.13731E+06     15.5679E+06    -17.2861E+06    -23.2971E-03     39.9313E-03    -16.6343E-03     78.7962E-03    -23.3932E-03     39.9306E-03    -16.5353E-03     78.5395E-03
            1273     11.5037E-03     109.717E-03    -8.53063E+06    -1.50622E+06     21.1198E+06    -17.1917E+06    -25.9984E-03     43.1452E-03    -17.1468E-03     87.3142E-03    -26.1148E-03     43.1649E-03    -17.0267E-03     87.0408E-03
            1274     12.3810E-03     109.797E-03    -7.78470E+06    -2.99262E+06     23.3336E+06    -18.3555E+06    -29.4275E-03     47.1994E-03    -17.7718E-03     95.4980E-03    -29.5702E-03     47.2363E-03    -17.6396E-03     95.1819E-03
            1275     13.2554E-03     109.884E-03    -6.70544E+06    -1.14124E+06     25.1745E+06    -18.8041E+06    -33.6676E-03     52.2045E-03    -18.5369E-03     103.223E-03    -33.8579E-03     52.2942E-03    -18.3996E-03     102.858E-03
            1276     14.1255E-03     109.978E-03    -7.19688E+06    -6.98039E+06     21.9427E+06    -22.6253E+06    -38.8828E-03     58.3508E-03    -19.4680E-03     108.487E-03    -39.1355E-03     58.4901E-03    -19.3377E-03     108.006E-03
            1277     14.9913E-03     110.075E-03    -9.10286E+06    -21.7062E+06     13.6260E+06    -22.5345E+06    -44.9195E-03     65.5241E-03    -20.6046E-03     104.092E-03    -45.2182E-03     65.6747E-03    -20.4918E-03     103.528E-03
            1278     15.8502E-03     110.160E-03    -9.12858E+06     12.9038E+06     21.6715E+06    -14.6676E+06    -50.8437E-03     72.8197E-03    -21.9760E-03     89.5645E-03    -51.2265E-03     73.1542E-03    -21.8731E-03     89.0312E-03
            1279     16.7051E-03     110.232E-03    -3.40725E+06     49.0795E+06     48.8616E+06    -7.18023E+06    -55.6212E-03     79.2326E-03    -23.6114E-03     59.7179E-03    -55.9673E-03     79.6001E-03    -23.4333E-03     59.3002E-03
            1280     886.792E-06     110.259E-03    -32.2772E+06    -26.5060E+06    -31.3348E+06    -4.20963E+06    -14.9704E-03     29.9348E-03    -14.9645E-03     4.96326E-03    -15.0479E-03     29.8946E-03    -15.0359E-03     4.90839E-03
            1281     1.77337E-03     110.265E-03    -30.9871E+06    -24.5135E+06    -27.0765E+06    -7.39411E+06    -15.0460E-03     30.0426E-03    -14.9965E-03     9.18688E-03    -15.1263E-03     30.0043E-03    -15.0514E-03     9.09043E-03
            1282     2.66006E-03     110.277E-03    -29.3237E+06    -21.5273E+06    -22.1054E+06    -10.2495E+06    -15.1507E-03     30.1957E-03    -15.0451E-03     13.7523E-03    -15.2343E-03     30.1629E-03    -15.0818E-03     13.6184E-03
            1283     3.54654E-03     110.292E-03    -27.3872E+06    -18.2021E+06    -17.3225E+06    -12.5733E+06    -15.2834E-03     30.3822E-03    -15.0989E-03     18.5589E-03    -15.3693E-03     30.3565E-03    -15.1194E-03     18.3944E-03
            1284     4.43308E-03     110.312E-03    -25.2224E+06    -15.6334E+06    -12.5627E+06    -14.8889E+06    -15.4593E-03     30.6193E-03    -15.1600E-03     23.6973E-03    -15.5454E-03     30.5967E-03    -15.1635E-03     23.5022E-03
            1285     5.31937E-03     110.338E-03    -23.3680E+06    -13.8480E+06    -8.38394E+06    -17.4922E+06    -15.7007E-03     30.9296E-03    -15.2288E-03     29.3083E-03    -15.7867E-03     30.9077E-03    -15.2168E-03     29.0788E-03
            1286     6.20563E-03     110.369E-03    -22.5123E+06    -12.5172E+06    -5.01712E+06    -19.9638E+06    -16.0596E-03     31.3703E-03    -15.3106E-03     35.5164E-03    -16.1487E-03     31.3496E-03    -15.2849E-03     35.2541E-03
            1287     7.09149E-03     110.407E-03    -22.7219E+06    -12.5289E+06    -2.89429E+06    -22.3005E+06    -16.6236E-03     32.0391E-03    -15.4155E-03     42.4083E-03    -16.7179E-03     32.0166E-03    -15.3789E-03     42.1144E-03
            1288     7.97694E-03     110.452E-03    -23.1576E+06    -12.0956E+06    -1.77953E+06    -24.4899E+06    -17.4754E-03     33.0306E-03    -15.5552E-03     50.0533E-03    -17.5758E-03     33.0110E-03    -15.5130E-03     49.7289E-03
            1289     8.86153E-03     110.503E-03    -22.4445E+06    -12.1174E+06     441.654E+03    -26.1066E+06    -18.6946E-03     34.4499E-03    -15.7553E-03     58.4147E-03    -18.7977E-03     34.4290E-03    -15.7030E-03     58.0658E-03
            1290     9.74501E-03     110.562E-03    -19.3444E+06    -11.3958E+06     5.44175E+06    -25.7470E+06    -20.3212E-03     36.3563E-03    -16.0351E-03     67.3264E-03    -20.4222E-03     36.3325E-03    -15.9633E-03     66.9762E-03
            1291     10.6271E-03     110.629E-03    -13.0983E+06    -7.64421E+06     13.6269E+06    -21.9853E+06    -22.4059E-03     38.8113E-03    -16.4054E-03     76.5939E-03    -22.5018E-03     38.7941E-03    -16.3072E-03     76.2828E-03
            1292     11.5076E-03     110.705E-03    -6.65103E+06    -844.135E+03     23.8531E+06    -16.9475E+06    -25.0885E-03     41.9702E-03    -16.8816E-03     85.9872E-03    -25.1915E-03     41.9775E-03    -16.7515E-03     85.7259E-03
            1293     12.3857E-03     110.789E-03    -4.71875E+06    -545.437E+03     29.4384E+06    -15.9072E+06    -28.4878E-03     45.9613E-03    -17.4735E-03     95.3200E-03    -28.6142E-03     45.9838E-03    -17.3187E-03     95.0481E-03
            1294     13.2607E-03     110.881E-03    -5.80256E+06    -104.167E+03     30.7851E+06    -15.6338E+06    -32.6659E-03     50.8599E-03    -18.1941E-03     104.563E-03    -32.8415E-03     50.9256E-03    -18.0316E-03     104.257E-03
            1295     14.1325E-03     110.980E-03    -7.18167E+06     3.01235E+06     31.7613E+06    -18.4466E+06    -37.8880E-03     56.9734E-03    -19.0854E-03     112.097E-03    -38.1434E-03     57.1223E-03    -18.9205E-03     111.693E-03
            1296     14.9986E-03     111.085E-03    -4.64321E+06    -23.5122E+06     20.1005E+06    -22.3860E+06    -44.7895E-03     64.9769E-03    -20.1875E-03     111.074E-03    -45.0580E-03     65.0882E-03    -20.0461E-03     110.525E-03
            1297     15.8580E-03     111.180E-03     46.8698E+03     373.633E+03     24.6860E+06    -15.7614E+06    -52.7803E-03     74.3761E-03    -21.5958E-03     98.6785E-03    -53.1242E-03     74.6514E-03    -21.4730E-03     98.0998E-03
            1298     16.7084E-03     111.261E-03     1.08299E+06     42.1686E+06     51.5333E+06    -6.24538E+06    -59.4317E-03     82.8050E-03    -23.3733E-03     67.3799E-03    -59.7750E-03     83.1537E-03    -23.1784E-03     66.9278E-03
            1299     886.229E-06     111.236E-03    -13.8942E+06    -18.6122E+06    -12.3865E+06    -3.89580E+06    -15.5909E-03     31.1555E-03    -15.5645E-03     4.23360E-03    -15.6155E-03     31.1005E-03    -15.5793E-03     4.18250E-03
            1300     1.77256E-03     111.243E-03    -12.9490E+06    -17.2144E+06    -9.28374E+06    -6.71646E+06    -15.6961E-03     31.3111E-03    -15.6151E-03     7.82460E-03    -15.7226E-03     31.2574E-03    -15.6178E-03     7.73637E-03
            1301     2.65860E-03     111.254E-03    -11.6273E+06    -15.2060E+06    -5.05831E+06    -9.28802E+06    -15.8614E-03     31.5467E-03    -15.6853E-03     11.6950E-03    -15.8905E-03     31.4951E-03    -15.6717E-03     11.5727E-03
            1302     3.54464E-03     111.270E-03    -10.1065E+06    -12.4362E+06    -332.541E+03    -11.5606E+06    -16.0679E-03     31.8399E-03    -15.7720E-03     15.7559E-03    -16.1006E-03     31.7935E-03    -15.7410E-03     15.6034E-03
            1303     4.43035E-03     111.290E-03    -8.73306E+06    -10.1521E+06     4.19854E+06    -13.5581E+06    -16.2819E-03     32.1501E-03    -15.8682E-03     20.1081E-03    -16.3181E-03     32.1069E-03    -15.8198E-03     19.9287E-03
            1304     5.31604E-03     111.316E-03    -8.02439E+06    -8.48020E+06     8.00207E+06    -15.1775E+06    -16.4814E-03     32.4463E-03    -15.9649E-03     24.8921E-03    -16.5226E-03     32.4055E-03    -15.9009E-03     24.6908E-03
            1305     6.20153E-03     111.347E-03    -8.00136E+06    -7.57770E+06     10.9334E+06    -16.5989E+06    -16.6861E-03     32.7437E-03    -16.0576E-03     30.2530E-03    -16.7334E-03     32.7038E-03    -15.9803E-03     30.0323E-03
            1306     7.08704E-03     111.386E-03    -8.36559E+06    -7.28995E+06     13.6213E+06    -18.1315E+06    -16.9726E-03     33.1244E-03    -16.1518E-03     36.3343E-03    -17.0269E-03     33.0835E-03    -16.0610E-03     36.0926E-03
            1307     7.97227E-03     111.430E-03    -9.40596E+06    -7.11421E+06     15.4563E+06    -19.8746E+06    -17.4420E-03     33.6967E-03    -16.2547E-03     43.3182E-03    -17.5057E-03     33.6568E-03    -16.1534E-03     43.0525E-03
            1308     8.85714E-03     111.483E-03    -11.8815E+06    -7.48872E+06     15.2026E+06    -21.6612E+06    -18.2032E-03     34.5805E-03    -16.3773E-03     51.3508E-03    -18.2804E-03     34.5448E-03    -16.2732E-03     51.0598E-03
            1309     9.74131E-03     111.544E-03    -14.9288E+06    -8.65642E+06     14.2337E+06    -23.5988E+06    -19.4139E-03     35.9601E-03    -16.5462E-03     60.4054E-03    -19.5065E-03     35.9278E-03    -16.4408E-03     60.0858E-03
            1310     10.6243E-03     111.613E-03    -16.0369E+06    -9.25105E+06     15.7912E+06    -24.1221E+06    -21.2236E-03     38.0208E-03    -16.7972E-03     70.3016E-03    -21.3290E-03     37.9907E-03    -16.6816E-03     69.9688E-03
            1311     11.5055E-03     111.691E-03    -12.6804E+06    -5.21444E+06     22.2822E+06    -20.9415E+06    -23.6953E-03     40.8531E-03    -17.1579E-03     80.7404E-03    -23.8094E-03     40.8392E-03    -17.0205E-03     80.4377E-03
            1312     12.3846E-03     111.778E-03    -6.71942E+06    -481.883E+03     31.6533E+06    -15.9554E+06    -26.9476E-03     44.5984E-03    -17.6508E-03     91.2801E-03    -27.0704E-03     44.6040E-03    -17.4821E-03     91.0232E-03
            1313     13.2612E-03     111.874E-03    -2.92495E+06    -1.51192E+06     37.0968E+06    -12.8009E+06    -30.9940E-03     49.2757E-03    -18.2817E-03     101.788E-03    -31.1361E-03     49.2947E-03    -18.0898E-03     101.541E-03
            1314     14.1339E-03     111.980E-03    -4.00644E+06     9.19136E+06     41.3436E+06    -11.6839E+06    -35.7638E-03     54.8257E-03    -19.0619E-03     111.407E-03    -35.9864E-03     54.9473E-03    -18.8627E-03     111.124E-03
            1315     15.0030E-03     112.092E-03    -8.78295E+06    -11.4929E+06     32.1787E+06    -20.8451E+06    -42.4913E-03     62.5389E-03    -20.0475E-03     115.312E-03    -42.7719E-03     62.6551E-03    -19.8572E-03     114.827E-03
            1316     15.8635E-03     112.200E-03    -6.05237E+06    -14.9237E+06     22.3945E+06    -22.4931E+06    -52.8059E-03     74.1576E-03    -21.3517E-03     108.366E-03    -53.1545E-03     74.3688E-03    -21.2094E-03     107.698E-03
            1317     16.7150E-03     112.293E-03     105.397E+03     26.4910E+06     45.1378E+06    -5.53937E+06    -62.3638E-03     85.5290E-03    -23.1652E-03     75.0830E-03    -62.7071E-03     85.8375E-03    -22.9780E-03     74.5880E-03
            1318     885.132E-06     112.215E-03     3.08643E+06    -11.6231E+06     3.93115E+06    -3.09269E+06    -17.0882E-03     34.1395E-03    -17.0514E-03     3.25898E-03    -17.0618E-03     34.0712E-03    -17.0193E-03     3.21789E-03
            1319     1.77001E-03     112.222E-03     3.26467E+06    -10.8137E+06     5.98675E+06    -5.68323E+06    -17.2356E-03     34.3509E-03    -17.1153E-03     6.03498E-03    -17.2126E-03     34.2834E-03    -17.0744E-03     5.95942E-03
            1320     2.65491E-03     112.234E-03     3.74623E+06    -9.44337E+06     9.63878E+06    -8.01019E+06    -17.4630E-03     34.6756E-03    -17.2126E-03     8.99072E-03    -17.4451E-03     34.6092E-03    -17.1562E-03     8.88392E-03
            1321     3.53940E-03     112.249E-03     4.38915E+06    -7.37654E+06     13.6049E+06    -9.87735E+06    -17.7192E-03     35.0506E-03    -17.3314E-03     12.0974E-03    -17.7072E-03     34.9882E-03    -17.2590E-03     11.9651E-03
            1322     4.42379E-03     112.270E-03     4.76159E+06    -5.71416E+06     17.2447E+06    -11.2068E+06    -17.9699E-03     35.4299E-03    -17.4600E-03     15.4530E-03    -17.9642E-03     35.3703E-03    -17.3724E-03     15.3023E-03
            1323     5.30785E-03     112.296E-03     4.89801E+06    -4.76436E+06     20.6478E+06    -12.0648E+06    -18.1866E-03     35.7768E-03    -17.5901E-03     19.1678E-03    -18.1871E-03     35.7174E-03    -17.4871E-03     19.0046E-03
            1324     6.19188E-03     112.328E-03     4.68834E+06    -3.91244E+06     23.8941E+06    -12.7695E+06    -18.3489E-03     36.0628E-03    -17.7139E-03     23.3654E-03    -18.3571E-03     36.0039E-03    -17.5955E-03     23.1916E-03
            1325     7.07572E-03     112.366E-03     3.75633E+06    -3.69409E+06     26.4005E+06    -13.4896E+06    -18.4591E-03     36.2833E-03    -17.8242E-03     28.1940E-03    -18.4767E-03     36.2241E-03    -17.6922E-03     28.0096E-03
            1326     7.95965E-03     112.411E-03     1.98197E+06    -3.37473E+06     28.1704E+06    -14.1441E+06    -18.5649E-03     36.4840E-03    -17.9191E-03     33.8296E-03    -18.5955E-03     36.4275E-03    -17.7762E-03     33.6355E-03
            1327     8.84362E-03     112.464E-03    -13.1196E+03    -3.65856E+06     29.4931E+06    -14.9160E+06    -18.7850E-03     36.7916E-03    -18.0066E-03     40.4632E-03    -18.8285E-03     36.7361E-03    -17.8539E-03     40.2577E-03
            1328     9.72752E-03     112.525E-03    -2.58377E+06    -4.08450E+06     29.9605E+06    -16.1782E+06    -19.2842E-03     37.3840E-03    -18.0998E-03     48.3203E-03    -19.3426E-03     37.3315E-03    -17.9403E-03     48.0964E-03
            1329     10.6109E-03     112.595E-03    -6.46738E+06    -6.42321E+06     28.6905E+06    -17.8020E+06    -20.2590E-03     38.4798E-03    -18.2207E-03     57.6010E-03    -20.3348E-03     38.4265E-03    -18.0586E-03     57.3529E-03
            1330     11.4933E-03     112.676E-03    -10.3212E+06    -5.78907E+06     28.8042E+06    -19.0720E+06    -21.9429E-03     40.3495E-03    -18.4065E-03     68.3170E-03    -22.0446E-03     40.3105E-03    -18.2392E-03     68.0465E-03
            1331     12.3740E-03     112.765E-03    -10.0852E+06    -3.60560E+06     33.0678E+06    -18.1157E+06    -24.5636E-03     43.2671E-03    -18.7035E-03     80.0464E-03    -24.6837E-03     43.2431E-03    -18.5183E-03     79.7771E-03
            1332     13.2516E-03     112.866E-03    -5.27771E+06    -4.12714E+06     39.0804E+06    -14.4195E+06    -28.1535E-03     47.2931E-03    -19.1397E-03     92.2077E-03    -28.2771E-03     47.2706E-03    -18.9306E-03     91.9656E-03
            1333     14.1267E-03     112.975E-03    -264.139E+03     5.33474E+06     47.6389E+06    -8.43257E+06    -32.5752E-03     52.3083E-03    -19.7331E-03     103.579E-03    -32.7354E-03     52.3489E-03    -19.5023E-03     103.378E-03
            1334     14.9984E-03     113.094E-03    -2.02401E+06     6.55912E+06     50.1942E+06    -9.00359E+06    -38.3519E-03     58.8697E-03    -20.5178E-03     110.985E-03    -38.5835E-03     58.9726E-03    -20.2734E-03     110.716E-03
            1335     15.8650E-03     113.214E-03    -13.9505E+06    -15.1790E+06     26.5219E+06    -18.0561E+06    -48.2220E-03     69.7646E-03    -21.5426E-03     113.983E-03    -48.5610E-03     69.9254E-03    -21.3678E-03     113.448E-03
            1336     16.7136E-03     113.331E-03    -15.6106E+06     3.57651E+06     30.1976E+06    -13.1094E+06    -60.9423E-03     84.0629E-03    -23.1206E-03     86.2057E-03    -61.3054E-03     84.2985E-03    -22.9521E-03     85.6249E-03
            1337     882.805E-06     113.198E-03     16.6696E+06    -6.04187E+06     17.4785E+06    -2.30605E+06    -19.7722E-03     39.3741E-03    -19.6019E-03     2.14398E-03    -19.7059E-03     39.2940E-03    -19.5299E-03     2.11275E-03
            1338     1.76564E-03     113.206E-03     16.3766E+06    -5.56683E+06     18.9638E+06    -4.23310E+06    -19.9201E-03     39.6709E-03    -19.7508E-03     3.77812E-03    -19.8582E-03     39.5914E-03    -19.6717E-03     3.72068E-03
            1339     2.64803E-03     113.217E-03     16.1288E+06    -4.68146E+06     21.4630E+06    -6.04364E+06    -20.1515E-03     40.0237E-03    -19.8722E-03     5.58740E-03    -20.0959E-03     39.9456E-03    -19.7815E-03     5.50513E-03
            1340     3.53031E-03     113.233E-03     15.7610E+06    -3.48636E+06     24.2318E+06    -7.31826E+06    -20.4165E-03     40.4262E-03    -20.0097E-03     7.55211E-03    -20.3688E-03     40.3508E-03    -19.9063E-03     7.45182E-03
            1341     4.41220E-03     113.254E-03     15.2902E+06    -2.60826E+06     27.4454E+06    -8.04403E+06    -20.7064E-03     40.8702E-03    -20.1637E-03     9.71199E-03    -20.6673E-03     40.7955E-03    -20.0449E-03     9.60070E-03
            1342     5.29389E-03     113.281E-03     14.6539E+06    -2.15276E+06     30.8196E+06    -8.48240E+06    -20.9841E-03     41.3131E-03    -20.3290E-03     12.1348E-03    -20.9541E-03     41.2372E-03    -20.1931E-03     12.0161E-03
            1343     6.17522E-03     113.312E-03     13.8092E+06    -1.79271E+06     33.7059E+06    -8.54426E+06    -21.1996E-03     41.6935E-03    -20.4939E-03     14.9130E-03    -21.1792E-03     41.6169E-03    -20.3428E-03     14.7918E-03
            1344     7.05645E-03     113.351E-03     12.7569E+06    -1.40421E+06     36.2646E+06    -8.56643E+06    -21.3225E-03     41.9724E-03    -20.6499E-03     18.1391E-03    -21.3124E-03     41.8962E-03    -20.4850E-03     18.0159E-03
            1345     7.93758E-03     113.395E-03     11.7229E+06    -1.39649E+06     38.9086E+06    -8.68669E+06    -21.3541E-03     42.1466E-03    -20.7925E-03     21.9075E-03    -21.3538E-03     42.0689E-03    -20.6129E-03     21.7811E-03
            1346     8.81873E-03     113.448E-03     10.3605E+06    -1.18667E+06     41.2529E+06    -8.98804E+06    -21.3039E-03     42.2197E-03    -20.9158E-03     26.3616E-03    -21.3153E-03     42.1427E-03    -20.7228E-03     26.2297E-03
            1347     9.69995E-03     113.508E-03     8.33348E+06    -1.77096E+06     42.3700E+06    -9.05589E+06    -21.1964E-03     42.2120E-03    -21.0155E-03     31.7379E-03    -21.2201E-03     42.1347E-03    -20.8132E-03     31.6035E-03
            1348     10.5815E-03     113.579E-03     5.97418E+06    -2.71370E+06     43.0734E+06    -9.64671E+06    -21.1695E-03     42.2683E-03    -21.0988E-03     38.3349E-03    -21.2064E-03     42.1905E-03    -20.8881E-03     38.1910E-03
            1349     11.4634E-03     113.659E-03     3.64992E+06    -2.81737E+06     43.8486E+06    -11.0474E+06    -21.4328E-03     42.6118E-03    -21.1791E-03     46.5700E-03    -21.4848E-03     42.5387E-03    -20.9611E-03     46.4054E-03
            1350     12.3447E-03     113.751E-03    -263.281E+03    -2.65711E+06     43.6267E+06    -12.3159E+06    -22.2443E-03     43.5209E-03    -21.2767E-03     56.8201E-03    -22.3199E-03     43.4593E-03    -21.0543E-03     56.6349E-03
            1351     13.2255E-03     113.854E-03    -3.74683E+06    -5.15459E+06     43.1432E+06    -13.0204E+06    -24.1561E-03     45.5910E-03    -21.4349E-03     69.0630E-03    -24.2531E-03     45.5316E-03    -21.2063E-03     68.8597E-03
            1352     14.1033E-03     113.968E-03    -1.33893E+06    -1.38693E+06     47.5571E+06    -10.8328E+06    -27.4448E-03     49.1558E-03    -21.7110E-03     82.1544E-03    -27.5580E-03     49.1225E-03    -21.4693E-03     81.9610E-03
            1353     14.9769E-03     114.091E-03     5.00865E+06     7.31831E+06     54.3521E+06    -4.65316E+06    -31.8287E-03     53.9695E-03    -22.1408E-03     93.3250E-03    -31.9611E-03     53.9897E-03    -21.8869E-03     93.1795E-03
            1354     15.8466E-03     114.220E-03     6.47877E+06    -3.68194E+06     45.6568E+06    -2.71602E+06    -37.5284E-03     60.2456E-03    -22.7172E-03     104.216E-03    -37.6926E-03     60.2891E-03    -22.4929E-03     104.024E-03
            1355     16.7168E-03     114.353E-03     3.13549E+06    -754.261E+03     32.8105E+06    -8.92978E+06    -49.6193E-03     73.2540E-03    -23.6347E-03     92.9971E-03    -49.8193E-03     73.3715E-03    -23.4741E-03     92.6020E-03
            1356     879.558E-06     114.188E-03     24.9677E+06    -2.20705E+06     26.0692E+06    -1.44837E+06    -23.7059E-03     47.4743E-03    -23.7684E-03     459.259E-06    -23.6166E-03     47.3884E-03    -23.6710E-03     439.266E-06
            1357     1.75858E-03     114.195E-03     24.7188E+06    -2.02006E+06     27.2749E+06    -2.45523E+06    -23.9063E-03     47.7046E-03    -23.7982E-03     893.230E-06    -23.8204E-03     47.6182E-03    -23.6948E-03     859.053E-06
            1358     2.63765E-03     114.207E-03     23.8875E+06    -1.51092E+06     28.8109E+06    -3.34751E+06    -24.1036E-03     48.0079E-03    -23.9042E-03     1.43087E-03    -24.0248E-03     47.9230E-03    -23.7926E-03     1.38392E-03
            1359     3.51635E-03     114.224E-03     22.6667E+06    -1.14356E+06     31.3477E+06    -3.86358E+06    -24.3938E-03     48.4387E-03    -24.0449E-03     2.05193E-03    -24.3254E-03     48.3539E-03    -23.9194E-03     1.99702E-03
            1360     4.39480E-03     114.245E-03     21.3819E+06    -695.583E+03     34.4806E+06    -4.11780E+06    -24.7499E-03     48.9714E-03    -24.2215E-03     2.75806E-03    -24.6933E-03     48.8862E-03    -24.0791E-03     2.69850E-03
            1361     5.27275E-03     114.272E-03     20.1637E+06    -715.918E+03     37.5396E+06    -4.12605E+06    -25.1373E-03     49.5645E-03    -24.4272E-03     3.57741E-03    -25.0914E-03     49.4767E-03    -24.2677E-03     3.51628E-03
            1362     6.15034E-03     114.304E-03     19.1438E+06    -613.041E+03     40.5533E+06    -4.11095E+06    -25.5152E-03     50.1697E-03    -24.6544E-03     4.54774E-03    -25.4793E-03     50.0796E-03    -24.4785E-03     4.48525E-03
            1363     7.02746E-03     114.342E-03     18.4489E+06    -432.901E+03     44.1022E+06    -3.95155E+06    -25.8463E-03     50.7449E-03    -24.8986E-03     5.70476E-03    -25.8196E-03     50.6517E-03    -24.7042E-03     5.64268E-03
            1364     7.90417E-03     114.387E-03     17.7192E+06    -219.274E+03     47.3849E+06    -3.87055E+06    -26.0656E-03     51.2131E-03    -25.1475E-03     7.10721E-03    -26.0482E-03     51.1175E-03    -24.9359E-03     7.04443E-03
            1365     8.78055E-03     114.439E-03     16.7747E+06    -330.162E+03     49.6768E+06    -3.56263E+06    -26.0939E-03     51.4805E-03    -25.3866E-03     8.84181E-03    -26.0850E-03     51.3827E-03    -25.1620E-03     8.78122E-03
            1366     9.65684E-03     114.499E-03     15.9538E+06    -590.106E+03     52.1237E+06    -3.48201E+06    -25.9068E-03     51.5162E-03    -25.6094E-03     10.9822E-03    -25.9060E-03     51.4151E-03    -25.3710E-03     10.9208E-03
            1367     10.5332E-03     114.568E-03     15.2704E+06    -1.14997E+06     54.5807E+06    -3.62952E+06    -25.4216E-03     51.2255E-03    -25.8039E-03     13.6903E-03    -25.4279E-03     51.1197E-03    -25.5515E-03     13.6252E-03
            1368     11.4095E-03     114.647E-03     13.6294E+06    -393.098E+03     55.8595E+06    -4.14457E+06    -24.5069E-03     50.4536E-03    -25.9468E-03     17.3194E-03    -24.5255E-03     50.3531E-03    -25.6867E-03     17.2462E-03
            1369     12.2874E-03     114.737E-03     11.5766E+06    -1.37839E+06     55.5817E+06    -3.88418E+06    -23.4105E-03     49.4404E-03    -26.0299E-03     22.3028E-03    -23.4390E-03     49.3397E-03    -25.7667E-03     22.2315E-03
            1370     13.1661E-03     114.840E-03     9.39252E+06    -1.69934E+06     54.8525E+06    -5.17636E+06    -22.4834E-03     48.5468E-03    -26.0633E-03     29.2680E-03    -22.5236E-03     48.4517E-03    -25.8002E-03     29.1779E-03
            1371     14.0459E-03     114.954E-03     5.52964E+06    -3.06219E+06     51.0635E+06    -6.75331E+06    -21.6501E-03     47.6947E-03    -26.0446E-03     38.6017E-03    -21.7052E-03     47.6090E-03    -25.7929E-03     38.4881E-03
            1372     14.9261E-03     115.082E-03     3.13417E+06     1.56418E+06     48.2364E+06    -5.60149E+06    -22.1363E-03     48.1416E-03    -26.0054E-03     49.9838E-03    -22.2123E-03     48.0953E-03    -25.7710E-03     49.8778E-03
            1373     15.8049E-03     115.214E-03     7.67960E+06    -2.40966E+06     47.1117E+06    -2.18959E+06    -25.0799E-03     51.1329E-03    -26.0531E-03     59.0929E-03    -25.1417E-03     51.0775E-03    -25.8252E-03     59.0160E-03
            1374     16.6810E-03     115.349E-03     13.0656E+06    -1.21484E+06     36.1633E+06    -1.36454E+06    -23.2942E-03     49.3222E-03    -26.0280E-03     55.4250E-03    -23.3365E-03     49.3118E-03    -25.8644E-03     55.3088E-03
            1375     16.6673E-03     57.1797E-03    -3.58811E+06     114.372E+06     64.9065E+06     2.18638E+03    -25.0372E-03     50.8288E-03    -25.7916E-03     24.2171E-03    -25.3976E-03     51.3943E-03    -25.6277E-03     24.1476E-03
            1376     15.7897E-03     57.1446E-03    -6.83724E+06     110.285E+06     48.0614E+06     74.0988E+03    -25.3271E-03     51.0680E-03    -25.7408E-03     43.0565E-03    -25.7304E-03     51.6991E-03    -25.6505E-03     42.9593E-03
            1377     14.9122E-03     57.0982E-03    -9.43443E+06     88.1832E+06     28.1188E+06     93.3210E+03    -25.7568E-03     51.4558E-03    -25.6990E-03     55.3514E-03    -26.1277E-03     52.0247E-03    -25.6726E-03     55.2338E-03
            1378     14.0347E-03     57.0398E-03    -11.2426E+06     37.1986E+06     10.1323E+06     71.3718E+03    -26.1431E-03     51.8468E-03    -25.7037E-03     60.6512E-03    -26.4162E-03     52.1826E-03    -25.6907E-03     60.5206E-03
            1379     13.1574E-03     56.9833E-03    -12.4631E+06    -8.31284E+06     3.01707E+06     70.9816E+03    -26.2963E-03     52.0445E-03    -25.7483E-03     58.8101E-03    -26.4641E-03     52.1298E-03    -25.7031E-03     58.6863E-03
            1380     12.2801E-03     56.9284E-03    -13.6340E+06    -26.6012E+06     4.02373E+06     75.5605E+03    -26.3251E-03     52.1159E-03    -25.7908E-03     57.0540E-03    -26.4434E-03     52.0797E-03    -25.7124E-03     56.9454E-03
            1381     11.4029E-03     56.8753E-03    -15.0021E+06    -41.7172E+06     3.76828E+06     75.6397E+03    -26.3318E-03     52.1537E-03    -25.8218E-03     55.0861E-03    -26.4137E-03     52.0232E-03    -25.7208E-03     54.9922E-03
            1382     10.5257E-03     56.8241E-03    -16.6076E+06    -51.7525E+06     4.32940E+06     74.9705E+03    -26.2990E-03     52.1486E-03    -25.8496E-03     52.6323E-03    -26.3593E-03     51.9537E-03    -25.7288E-03     52.5525E-03
            1383     9.64845E-03     56.7755E-03    -18.5128E+06    -59.9499E+06     3.85179E+06     78.6073E+03    -26.2449E-03     52.1151E-03    -25.8702E-03     49.5809E-03    -26.2901E-03     51.8706E-03    -25.7372E-03     49.5141E-03
            1384     8.77124E-03     56.7301E-03    -20.7142E+06    -67.8742E+06     2.93383E+06     76.0252E+03    -26.1805E-03     52.0696E-03    -25.8890E-03     46.0872E-03    -26.2147E-03     51.7808E-03    -25.7459E-03     46.0319E-03
            1385     7.89404E-03     56.6882E-03    -23.2168E+06    -74.2330E+06     864.787E+03     73.1751E+03    -26.1093E-03     52.0103E-03    -25.9010E-03     42.2683E-03    -26.1368E-03     51.6894E-03    -25.7554E-03     42.2230E-03
            1386     7.01685E-03     56.6500E-03    -26.0215E+06    -81.6561E+06    -2.42005E+06     74.8213E+03    -26.0440E-03     51.9537E-03    -25.9097E-03     38.1641E-03    -26.0648E-03     51.5993E-03    -25.7657E-03     38.1275E-03
            1387     6.13968E-03     56.6158E-03    -29.0939E+06    -89.8140E+06    -6.79607E+06     62.5461E+03    -25.9873E-03     51.9023E-03    -25.9149E-03     33.8326E-03    -26.0014E-03     51.5139E-03    -25.7765E-03     33.8033E-03
            1388     5.26252E-03     56.5858E-03    -32.3725E+06    -97.9911E+06    -12.1519E+06     49.4267E+03    -25.9396E-03     51.8555E-03    -25.9159E-03     29.3328E-03    -25.9475E-03     51.4359E-03    -25.7877E-03     29.3098E-03
            1389     4.38539E-03     56.5602E-03    -35.7891E+06    -106.541E+06    -18.4478E+06     42.9272E+03    -25.9042E-03     51.8172E-03    -25.9129E-03     24.6901E-03    -25.9056E-03     51.3668E-03    -25.7988E-03     24.6724E-03
            1390     3.50827E-03     56.5390E-03    -39.1993E+06    -114.095E+06    -25.7629E+06     34.2813E+03    -25.8794E-03     51.7822E-03    -25.9029E-03     19.9385E-03    -25.8748E-03     51.3081E-03    -25.8094E-03     19.9253E-03
            1391     2.63118E-03     56.5224E-03    -42.3318E+06    -120.319E+06    -33.5809E+06     23.6820E+03    -25.8648E-03     51.7515E-03    -25.8867E-03     15.1053E-03    -25.8545E-03     51.2612E-03    -25.8188E-03     15.0959E-03
            1392     1.75410E-03     56.5104E-03    -44.8620E+06    -124.939E+06    -40.5531E+06     13.4872E+03    -25.8577E-03     51.7275E-03    -25.8698E-03     10.2416E-03    -25.8426E-03     51.2272E-03    -25.8263E-03     10.2356E-03
            1393     877.047E-06     56.5030E-03    -46.5152E+06    -128.026E+06    -45.3553E+06     8.97327E+03    -25.8599E-03     51.7135E-03    -25.8536E-03     5.58433E-03    -25.8413E-03     51.2068E-03    -25.8273E-03     5.58116E-03
            1394     16.6673E-03     56.1816E-03    -3.64115E+06     114.354E+06     64.8991E+06    -27.4574E+03    -25.0368E-03     50.8285E-03    -25.7916E-03     24.2225E-03    -25.3975E-03     51.3939E-03    -25.6277E-03     24.1526E-03
            1395     15.7897E-03     56.1465E-03    -6.96369E+06     110.205E+06     47.9785E+06    -7.22481E+03    -25.3283E-03     51.0689E-03    -25.7406E-03     43.0628E-03    -25.7320E-03     51.7000E-03    -25.6504E-03     42.9645E-03
            1396     14.9122E-03     56.1001E-03    -9.54703E+06     88.1728E+06     28.0654E+06     66.1999E+03    -25.7586E-03     51.4573E-03    -25.6987E-03     55.3557E-03    -26.1300E-03     52.0264E-03    -25.6724E-03     55.2378E-03
            1397     14.0347E-03     56.0417E-03    -11.2951E+06     37.2241E+06     10.1190E+06     96.1313E+03    -26.1448E-03     51.8481E-03    -25.7033E-03     60.6521E-03    -26.4182E-03     52.1842E-03    -25.6903E-03     60.5218E-03
            1398     13.1574E-03     55.9852E-03    -12.4903E+06    -8.30510E+06     3.00705E+06     90.9102E+03    -26.2980E-03     52.0457E-03    -25.7477E-03     58.8086E-03    -26.4659E-03     52.1311E-03    -25.7025E-03     58.6850E-03
            1399     12.2802E-03     55.9303E-03    -13.6482E+06    -26.5867E+06     4.01535E+06     90.5429E+03    -26.3266E-03     52.1167E-03    -25.7901E-03     57.0506E-03    -26.4450E-03     52.0806E-03    -25.7117E-03     56.9421E-03
            1400     11.4029E-03     55.8771E-03    -15.0102E+06    -41.6991E+06     3.76324E+06     85.6646E+03    -26.3330E-03     52.1539E-03    -25.8210E-03     55.0807E-03    -26.4149E-03     52.0236E-03    -25.7199E-03     54.9869E-03
            1401     10.5257E-03     55.8260E-03    -16.6143E+06    -51.7433E+06     4.32237E+06     86.2454E+03    -26.2999E-03     52.1484E-03    -25.8485E-03     52.6260E-03    -26.3603E-03     51.9536E-03    -25.7278E-03     52.5463E-03
            1402     9.64846E-03     55.7774E-03    -18.5032E+06    -59.9327E+06     3.85034E+06     84.6559E+03    -26.2457E-03     52.1147E-03    -25.8689E-03     49.5743E-03    -26.2909E-03     51.8702E-03    -25.7359E-03     49.5075E-03
            1403     8.77125E-03     55.7320E-03    -20.7012E+06    -67.8460E+06     2.93493E+06     72.0445E+03    -26.1811E-03     52.0687E-03    -25.8876E-03     46.0799E-03    -26.2153E-03     51.7800E-03    -25.7445E-03     46.0244E-03
            1404     7.89406E-03     55.6901E-03    -23.2304E+06    -74.2246E+06     852.712E+03     66.3448E+03    -26.1094E-03     52.0087E-03    -25.8993E-03     42.2602E-03    -26.1370E-03     51.6879E-03    -25.7538E-03     42.2148E-03
            1405     7.01687E-03     55.6519E-03    -26.0413E+06    -81.6365E+06    -2.43089E+06     66.1299E+03    -26.0438E-03     51.9516E-03    -25.9078E-03     38.1559E-03    -26.0647E-03     51.5973E-03    -25.7638E-03     38.1192E-03
            1406     6.13969E-03     55.6177E-03    -29.0960E+06    -89.7801E+06    -6.79530E+06     58.4198E+03    -25.9867E-03     51.8995E-03    -25.9128E-03     33.8245E-03    -26.0008E-03     51.5113E-03    -25.7744E-03     33.7952E-03
            1407     5.26254E-03     55.5877E-03    -32.3699E+06    -97.9690E+06    -12.1478E+06     48.3303E+03    -25.9384E-03     51.8520E-03    -25.9136E-03     29.3251E-03    -25.9463E-03     51.4324E-03    -25.7853E-03     29.3020E-03
            1408     4.38540E-03     55.5621E-03    -35.7896E+06    -106.516E+06    -18.4424E+06     39.8390E+03    -25.9025E-03     51.8129E-03    -25.9104E-03     24.6829E-03    -25.9039E-03     51.3626E-03    -25.7963E-03     24.6652E-03
            1409     3.50828E-03     55.5409E-03    -39.2003E+06    -114.067E+06    -25.7598E+06     27.5895E+03    -25.8771E-03     51.7773E-03    -25.9001E-03     19.9323E-03    -25.8726E-03     51.3033E-03    -25.8067E-03     19.9190E-03
            1410     2.63119E-03     55.5243E-03    -42.3328E+06    -120.296E+06    -33.5828E+06     16.5187E+03    -25.8624E-03     51.7462E-03    -25.8839E-03     15.1005E-03    -25.8521E-03     51.2560E-03    -25.8160E-03     15.0910E-03
            1411     1.75411E-03     55.5123E-03    -44.8643E+06    -124.920E+06    -40.5620E+06     11.0132E+03    -25.8550E-03     51.7217E-03    -25.8667E-03     10.2383E-03    -25.8399E-03     51.2215E-03    -25.8233E-03     10.2322E-03
            1412     877.051E-06     55.5049E-03    -46.5236E+06    -128.007E+06    -45.3603E+06     10.3510E+03    -25.8569E-03     51.7073E-03    -25.8504E-03     5.58246E-03    -25.8383E-03     51.2007E-03    -25.8241E-03     5.57930E-03
            1413     16.6673E-03     55.1835E-03    -3.61523E+06     114.386E+06     64.9140E+06    -11.8065E+03    -25.0391E-03     50.8305E-03    -25.7915E-03     24.2277E-03    -25.3996E-03     51.3961E-03    -25.6275E-03     24.1580E-03
            1414     15.7897E-03     55.1484E-03    -6.96185E+06     110.162E+06     47.9571E+06    -15.6662E+03    -25.3314E-03     51.0717E-03    -25.7403E-03     43.0675E-03    -25.7350E-03     51.7025E-03    -25.6501E-03     42.9691E-03
            1415     14.9122E-03     55.1020E-03    -9.60023E+06     88.1031E+06     28.0216E+06     18.4250E+03    -25.7616E-03     51.4598E-03    -25.6982E-03     55.3588E-03    -26.1331E-03     52.0287E-03    -25.6719E-03     55.2402E-03
            1416     14.0347E-03     55.0436E-03    -11.3490E+06     37.2172E+06     10.0923E+06     71.6914E+03    -26.1471E-03     51.8496E-03    -25.7026E-03     60.6525E-03    -26.4207E-03     52.1858E-03    -25.6896E-03     60.5219E-03
            1417     13.1574E-03     54.9871E-03    -12.5150E+06    -8.29478E+06     2.99447E+06     95.3505E+03    -26.2997E-03     52.0465E-03    -25.7468E-03     58.8066E-03    -26.4678E-03     52.1320E-03    -25.7017E-03     58.6831E-03
            1418     12.2802E-03     54.9322E-03    -13.6634E+06    -26.5686E+06     4.00779E+06     94.0753E+03    -26.3279E-03     52.1168E-03    -25.7890E-03     57.0465E-03    -26.4463E-03     52.0809E-03    -25.7106E-03     56.9381E-03
            1419     11.4029E-03     54.8790E-03    -15.0188E+06    -41.6817E+06     3.75763E+06     91.8861E+03    -26.3337E-03     52.1534E-03    -25.8197E-03     55.0752E-03    -26.4157E-03     52.0232E-03    -25.7187E-03     54.9815E-03
            1420     10.5257E-03     54.8278E-03    -16.6117E+06    -51.7279E+06     4.31978E+06     86.9901E+03    -26.3006E-03     52.1477E-03    -25.8471E-03     52.6199E-03    -26.3610E-03     51.9529E-03    -25.7264E-03     52.5403E-03
            1421     9.64848E-03     54.7793E-03    -18.4955E+06    -59.9093E+06     3.85045E+06     78.5911E+03    -26.2464E-03     52.1137E-03    -25.8673E-03     49.5678E-03    -26.2916E-03     51.8693E-03    -25.7343E-03     49.5009E-03
            1422     8.77127E-03     54.7339E-03    -20.6931E+06    -67.8276E+06     2.94085E+06     78.4580E+03    -26.1815E-03     52.0672E-03    -25.8857E-03     46.0719E-03    -26.2157E-03     51.7786E-03    -25.7427E-03     46.0166E-03
            1423     7.89407E-03     54.6920E-03    -23.2160E+06    -74.2028E+06     863.315E+03     74.3817E+03    -26.1095E-03     52.0067E-03    -25.8972E-03     42.2519E-03    -26.1370E-03     51.6859E-03    -25.7517E-03     42.2066E-03
            1424     7.01688E-03     54.6538E-03    -26.0326E+06    -81.6107E+06    -2.42791E+06     58.0498E+03    -26.0434E-03     51.9488E-03    -25.9054E-03     38.1481E-03    -26.0643E-03     51.5946E-03    -25.7614E-03     38.1113E-03
            1425     6.13971E-03     54.6196E-03    -29.1016E+06    -89.7605E+06    -6.80027E+06     50.2875E+03    -25.9858E-03     51.8959E-03    -25.9101E-03     33.8169E-03    -25.9999E-03     51.5078E-03    -25.7717E-03     33.7875E-03
            1426     5.26255E-03     54.5896E-03    -32.3774E+06    -97.9452E+06    -12.1510E+06     47.0634E+03    -25.9369E-03     51.8475E-03    -25.9106E-03     29.3177E-03    -25.9449E-03     51.4282E-03    -25.7824E-03     29.2946E-03
            1427     4.38541E-03     54.5640E-03    -35.7943E+06    -106.488E+06    -18.4492E+06     35.3643E+03    -25.9003E-03     51.8075E-03    -25.9072E-03     24.6761E-03    -25.9018E-03     51.3574E-03    -25.7931E-03     24.6584E-03
            1428     3.50829E-03     54.5428E-03    -39.2037E+06    -114.039E+06    -25.7722E+06     21.1065E+03    -25.8745E-03     51.7712E-03    -25.8966E-03     19.9264E-03    -25.8700E-03     51.2974E-03    -25.8033E-03     19.9131E-03
            1429     2.63120E-03     54.5262E-03    -42.3376E+06    -120.280E+06    -33.5962E+06     13.2828E+03    -25.8593E-03     51.7394E-03    -25.8801E-03     15.0958E-03    -25.8491E-03     51.2493E-03    -25.8123E-03     15.0863E-03
            1430     1.75412E-03     54.5142E-03    -44.8719E+06    -124.904E+06    -40.5683E+06     13.0261E+03    -25.8515E-03     51.7143E-03    -25.8628E-03     10.2351E-03    -25.8364E-03     51.2142E-03    -25.8195E-03     10.2291E-03
            1431     877.054E-06     54.5068E-03    -46.5302E+06    -127.989E+06    -45.3678E+06     10.2859E+03    -25.8530E-03     51.6993E-03    -25.8463E-03     5.58088E-03    -25.8345E-03     51.1928E-03    -25.8201E-03     5.57772E-03
            1432     16.6673E-03     54.1854E-03    -3.61959E+06     114.400E+06     64.9192E+06    -10.1086E+03    -25.0435E-03     50.8348E-03    -25.7912E-03     24.2332E-03    -25.4042E-03     51.4004E-03    -25.6273E-03     24.1634E-03
            1433     15.7897E-03     54.1503E-03    -6.94531E+06     110.155E+06     47.9511E+06    -3.99558E+03    -25.3359E-03     51.0757E-03    -25.7397E-03     43.0718E-03    -25.7394E-03     51.7065E-03    -25.6496E-03     42.9735E-03
            1434     14.9122E-03     54.1039E-03    -9.58154E+06     88.0579E+06     28.0028E+06     18.3838E+03    -25.7654E-03     51.4627E-03    -25.6974E-03     55.3611E-03    -26.1366E-03     52.0314E-03    -25.6712E-03     55.2424E-03
            1435     14.0348E-03     54.0455E-03    -11.3705E+06     37.1808E+06     10.0581E+06     52.2434E+03    -26.1498E-03     51.8513E-03    -25.7015E-03     60.6530E-03    -26.4234E-03     52.1873E-03    -25.6886E-03     60.5222E-03
            1436     13.1575E-03     53.9890E-03    -12.5516E+06    -8.29344E+06     2.96578E+06      78.488E+03    -26.3016E-03     52.0471E-03    -25.7455E-03     58.8051E-03    -26.4698E-03     52.1327E-03    -25.7004E-03     58.6814E-03
            1437     12.2802E-03     53.9341E-03    -13.6849E+06    -26.5563E+06     3.99065E+06     88.8895E+03    -26.3286E-03     52.1161E-03    -25.7875E-03     57.0424E-03    -26.4472E-03     52.0802E-03    -25.7092E-03     56.9340E-03
            1438     11.4029E-03     53.8809E-03    -15.0324E+06    -41.6648E+06     3.74479E+06     88.7652E+03    -26.3340E-03     52.1520E-03    -25.8180E-03     55.0705E-03    -26.4160E-03     52.0219E-03    -25.7171E-03     54.9768E-03
            1439     10.5257E-03     53.8297E-03    -16.6247E+06    -51.7055E+06     4.31114E+06     82.3941E+03    -26.3011E-03     52.1464E-03    -25.8453E-03     52.6148E-03    -26.3616E-03     51.9518E-03    -25.7246E-03     52.5351E-03
            1440     9.64850E-03     53.7812E-03    -18.5146E+06    -59.8905E+06     3.84014E+06     77.2118E+03    -26.2468E-03     52.1120E-03    -25.8652E-03     49.5613E-03    -26.2921E-03     51.8678E-03    -25.7323E-03     49.4945E-03
            1441     8.77129E-03     53.7358E-03    -20.7109E+06    -67.8169E+06     2.92774E+06     74.8656E+03    -26.1814E-03     52.0648E-03    -25.8834E-03     46.0647E-03    -26.2156E-03     51.7763E-03    -25.7404E-03     46.0094E-03
            1442     7.89409E-03     53.6938E-03    -23.2234E+06    -74.1760E+06     857.338E+03     71.1072E+03    -26.1090E-03     52.0037E-03    -25.8947E-03     42.2445E-03    -26.1366E-03     51.6830E-03    -25.7492E-03     42.1992E-03
            1443     7.01690E-03     53.6557E-03    -26.0346E+06    -81.5798E+06    -2.42869E+06     61.7251E+03    -26.0426E-03     51.9452E-03    -25.9026E-03     38.1405E-03    -26.0636E-03     51.5912E-03    -25.7587E-03     38.1038E-03
            1444     6.13973E-03     53.6215E-03    -29.1066E+06    -89.7428E+06    -6.80741E+06     50.4455E+03    -25.9846E-03     51.8916E-03    -25.9070E-03     33.8095E-03    -25.9988E-03     51.5036E-03    -25.7687E-03     33.7801E-03
            1445     5.26257E-03     53.5916E-03    -32.3840E+06    -97.9220E+06    -12.1653E+06     41.8113E+03    -25.9352E-03     51.8424E-03    -25.9072E-03     29.3108E-03    -25.9432E-03     51.4232E-03    -25.7791E-03     29.2877E-03
            1446     4.38543E-03     53.5659E-03    -35.7968E+06    -106.457E+06    -18.4630E+06     28.9777E+03    -25.8982E-03     51.8016E-03    -25.9035E-03     24.6698E-03    -25.8997E-03     51.3517E-03    -25.7895E-03     24.6519E-03
            1447     3.50831E-03     53.5448E-03    -39.2041E+06    -114.020E+06    -25.7870E+06     18.1075E+03    -25.8718E-03     51.7644E-03    -25.8926E-03     19.9207E-03    -25.8673E-03     51.2908E-03    -25.7994E-03     19.9073E-03
            1448     2.63121E-03     53.5282E-03    -42.3391E+06    -120.266E+06    -33.6027E+06     15.6298E+03    -25.8559E-03     51.7318E-03    -25.8759E-03     15.0910E-03    -25.8456E-03     51.2417E-03    -25.8081E-03     15.0816E-03
            1449     1.75412E-03     53.5161E-03    -44.8735E+06    -124.890E+06    -40.5679E+06     12.6101E+03    -25.8474E-03     51.7058E-03    -25.8584E-03     10.2315E-03    -25.8324E-03     51.2058E-03    -25.8151E-03     10.2255E-03
            1450     877.058E-06     53.5087E-03    -46.5283E+06    -127.967E+06    -45.3645E+06     9.40441E+03    -25.8485E-03     51.6902E-03    -25.8417E-03     5.57878E-03    -25.8300E-03     51.1838E-03    -25.8155E-03     5.57561E-03
            1451     16.6674E-03     53.1873E-03    -3.62170E+06     114.413E+06     64.9194E+06    -10.7238E+03    -25.0492E-03     50.8401E-03    -25.7909E-03     24.2390E-03    -25.4099E-03     51.4059E-03    -25.6270E-03     24.1692E-03
            1452     15.7898E-03     53.1522E-03    -6.96134E+06     110.133E+06     47.9219E+06         438.256    -25.3409E-03     51.0799E-03    -25.7390E-03     43.0775E-03    -25.7444E-03     51.7107E-03    -25.6490E-03     42.9792E-03
            1453     14.9122E-03     53.1058E-03    -9.61057E+06     88.0283E+06     27.9634E+06     36.1789E+03    -25.7695E-03     51.4659E-03    -25.6963E-03     55.3644E-03    -26.1409E-03     52.0345E-03    -25.6702E-03     55.2459E-03
            1454     14.0348E-03     53.0474E-03    -11.3935E+06     37.1727E+06     10.0312E+06     52.9783E+03    -26.1533E-03     51.8535E-03    -25.7002E-03     60.6545E-03    -26.4270E-03     52.1896E-03    -25.6874E-03     60.5236E-03
            1455     13.1575E-03     52.9909E-03    -12.5734E+06    -8.30261E+06     2.93546E+06     58.7749E+03    -26.3037E-03     52.0476E-03    -25.7439E-03     58.8029E-03    -26.4720E-03     52.1332E-03    -25.6989E-03     58.6789E-03
            1456     12.2802E-03     52.9360E-03    -13.7118E+06    -26.5565E+06     3.95932E+06     75.9819E+03    -26.3290E-03     52.1146E-03    -25.7857E-03     57.0383E-03    -26.4476E-03     52.0789E-03    -25.7075E-03     56.9297E-03
            1457     11.4030E-03     52.8828E-03    -15.0591E+06    -41.6474E+06     3.72047E+06     82.8720E+03    -26.3342E-03     52.1503E-03    -25.8160E-03     55.0670E-03    -26.4163E-03     52.0203E-03    -25.7152E-03     54.9732E-03
            1458     10.5257E-03     52.8316E-03    -16.6502E+06    -51.6846E+06     4.29108E+06     77.0167E+03    -26.3015E-03     52.1446E-03    -25.8431E-03     52.6099E-03    -26.3621E-03     51.9501E-03    -25.7226E-03     52.5302E-03
            1459     9.64852E-03     52.7831E-03    -18.5312E+06    -59.8750E+06     3.82209E+06     71.8553E+03    -26.2467E-03     52.1096E-03    -25.8628E-03     49.5548E-03    -26.2921E-03     51.8655E-03    -25.7300E-03     49.4879E-03
            1460     8.77131E-03     52.7377E-03    -20.7227E+06    -67.8006E+06     2.91029E+06     68.2755E+03    -26.1809E-03     52.0617E-03    -25.8808E-03     46.0575E-03    -26.2152E-03     51.7733E-03    -25.7379E-03     46.0021E-03
            1461     7.89412E-03     52.6957E-03    -23.2402E+06    -74.1576E+06     839.493E+03     64.5634E+03    -26.1082E-03     52.0000E-03    -25.8918E-03     42.2369E-03    -26.1359E-03     51.6795E-03    -25.7464E-03     42.1915E-03
            1462     7.01692E-03     52.6576E-03    -26.0508E+06    -81.5560E+06    -2.44459E+06     60.8526E+03    -26.0414E-03     51.9409E-03    -25.8995E-03     38.1326E-03    -26.0624E-03     51.5870E-03    -25.7557E-03     38.0959E-03
            1463     6.13975E-03     52.6234E-03    -29.1179E+06    -89.7168E+06    -6.82041E+06     52.5597E+03    -25.9828E-03     51.8865E-03    -25.9037E-03     33.8017E-03    -25.9971E-03     51.4987E-03    -25.7655E-03     33.7723E-03
            1464     5.26259E-03     52.5935E-03    -32.3947E+06    -97.8940E+06    -12.1828E+06     36.9759E+03    -25.9331E-03     51.8367E-03    -25.9036E-03     29.3037E-03    -25.9412E-03     51.4176E-03    -25.7756E-03     29.2805E-03
            1465     4.38544E-03     52.5679E-03    -35.8091E+06    -106.432E+06    -18.4855E+06     23.6307E+03    -25.8957E-03     51.7952E-03    -25.8996E-03     24.6633E-03    -25.8972E-03     51.3454E-03    -25.7857E-03     24.6454E-03
            1466     3.50832E-03     52.5467E-03    -39.2182E+06    -114.006E+06    -25.7964E+06     17.6782E+03    -25.8688E-03     51.7573E-03    -25.8885E-03     19.9149E-03    -25.8644E-03     51.2838E-03    -25.7953E-03     19.9015E-03
            1467     2.63122E-03     52.5301E-03    -42.3515E+06    -120.253E+06    -33.6036E+06     14.0399E+03    -25.8523E-03     51.7238E-03    -25.8715E-03     15.0863E-03    -25.8421E-03     51.2338E-03    -25.8038E-03     15.0768E-03
            1468     1.75413E-03     52.5181E-03    -44.8788E+06    -124.871E+06    -40.5687E+06     5.16529E+03    -25.8432E-03     51.6969E-03    -25.8537E-03     10.2281E-03    -25.8282E-03     51.1970E-03    -25.8104E-03     10.2220E-03
            1469     877.063E-06     52.5107E-03    -46.5333E+06    -127.954E+06    -45.3638E+06     2.24659E+03    -25.8437E-03     51.6806E-03    -25.8369E-03     5.57683E-03    -25.8252E-03     51.1743E-03    -25.8107E-03     5.57358E-03
            1470     16.6674E-03     52.1892E-03    -3.63198E+06     114.413E+06     64.9100E+06     5.98473E+03    -25.0542E-03     50.8448E-03    -25.7906E-03     24.2455E-03    -25.4149E-03     51.4106E-03    -25.6267E-03     24.1759E-03
            1471     15.7898E-03     52.1541E-03    -6.99542E+06     110.108E+06     47.8913E+06     29.3695E+03    -25.3456E-03     51.0840E-03    -25.7384E-03     43.0867E-03    -25.7493E-03     51.7148E-03    -25.6484E-03     42.9888E-03
            1472     14.9122E-03     52.1076E-03    -9.64061E+06     88.0192E+06     27.9383E+06     37.6303E+03    -25.7757E-03     51.4711E-03    -25.6954E-03     55.3708E-03    -26.1472E-03     52.0398E-03    -25.6693E-03     55.2523E-03
            1473     14.0348E-03     52.0492E-03    -11.4005E+06     37.1755E+06     10.0088E+06     39.5784E+03    -26.1587E-03     51.8574E-03    -25.6987E-03     60.6552E-03    -26.4324E-03     52.1936E-03    -25.6861E-03     60.5241E-03
            1474     13.1575E-03     51.9927E-03    -12.5797E+06    -8.31217E+06     2.90822E+06     56.4095E+03    -26.3057E-03     52.0478E-03    -25.7421E-03     58.7989E-03    -26.4739E-03     52.1334E-03    -25.6973E-03     58.6748E-03
            1475     12.2802E-03     51.9379E-03    -13.7341E+06    -26.5613E+06     3.92255E+06     71.8184E+03    -26.3298E-03     52.1134E-03    -25.7836E-03     57.0352E-03    -26.4484E-03     52.0777E-03    -25.7056E-03     56.9265E-03
            1476     11.4030E-03     51.8847E-03    -15.0856E+06    -41.6306E+06     3.68812E+06     74.3144E+03    -26.3351E-03     52.1489E-03    -25.8138E-03     55.0638E-03    -26.4173E-03     52.0191E-03    -25.7131E-03     54.9699E-03
            1477     10.5258E-03     51.8335E-03    -16.6705E+06    -51.6637E+06     4.26534E+06     66.9450E+03    -26.3017E-03     52.1423E-03    -25.8406E-03     52.6043E-03    -26.3623E-03     51.9480E-03    -25.7202E-03     52.5244E-03
            1478     9.64855E-03     51.7850E-03    -18.5518E+06    -59.8618E+06     3.79583E+06     61.9878E+03    -26.2463E-03     52.1064E-03    -25.8601E-03     49.5478E-03    -26.2917E-03     51.8624E-03    -25.7275E-03     49.4807E-03
            1479     8.77134E-03     51.7396E-03    -20.7431E+06    -67.7853E+06     2.88650E+06     60.9008E+03    -26.1802E-03     52.0580E-03    -25.8779E-03     46.0497E-03    -26.2145E-03     51.7698E-03    -25.7351E-03     45.9941E-03
            1480     7.89414E-03     51.6976E-03    -23.2554E+06    -74.1428E+06      815.96E+03     59.4898E+03    -26.1070E-03     51.9957E-03    -25.8887E-03     42.2286E-03    -26.1348E-03     51.6753E-03    -25.7434E-03     42.1831E-03
            1481     7.01695E-03     51.6595E-03    -26.0659E+06    -81.5394E+06    -2.46842E+06     58.4754E+03    -26.0397E-03     51.9358E-03    -25.8961E-03     38.1241E-03    -26.0608E-03     51.5820E-03    -25.7524E-03     38.0873E-03
            1482     6.13977E-03     51.6253E-03    -29.1322E+06    -89.6872E+06    -6.83772E+06     50.3081E+03    -25.9807E-03     51.8808E-03    -25.9001E-03     33.7932E-03    -25.9950E-03     51.4932E-03    -25.7620E-03     33.7639E-03
            1483     5.26261E-03     51.5954E-03    -32.4081E+06    -97.8647E+06    -12.1928E+06     36.0252E+03    -25.9305E-03     51.8303E-03    -25.8998E-03     29.2956E-03    -25.9387E-03     51.4114E-03    -25.7719E-03     29.2724E-03
            1484     4.38546E-03     51.5698E-03    -35.8297E+06    -106.411E+06    -18.4943E+06     24.4869E+03    -25.8925E-03     51.7881E-03    -25.8956E-03     24.6561E-03    -25.8942E-03     51.3385E-03    -25.7818E-03     24.6382E-03
            1485     3.50834E-03     51.5486E-03    -39.2406E+06    -113.986E+06    -25.8013E+06     11.1436E+03    -25.8652E-03     51.7496E-03    -25.8844E-03     19.9090E-03    -25.8609E-03     51.2761E-03    -25.7912E-03     19.8955E-03
            1486     2.63123E-03     51.5320E-03    -42.3675E+06    -120.239E+06    -33.5993E+06        -405.302    -25.8482E-03     51.7156E-03    -25.8673E-03     15.0820E-03    -25.8382E-03     51.2257E-03    -25.7995E-03     15.0724E-03
            1487     1.75414E-03     51.5200E-03    -44.8976E+06    -124.861E+06    -40.5702E+06    -4.90394E+03    -25.8388E-03     51.6883E-03    -25.8494E-03     10.2256E-03    -25.8240E-03     51.1884E-03    -25.8061E-03     10.2193E-03
            1488     877.067E-06     51.5126E-03    -46.5555E+06    -127.952E+06    -45.3835E+06    -9.13396E+03    -25.8392E-03     51.6719E-03    -25.8327E-03     5.57562E-03    -25.8208E-03     51.1656E-03    -25.8066E-03     5.57222E-03
            1489     16.6674E-03     51.1911E-03    -3.66435E+06     114.389E+06     64.8937E+06     41.6591E+03    -25.0576E-03     50.8481E-03    -25.7905E-03     24.2521E-03    -25.4185E-03     51.4139E-03    -25.6266E-03     24.1829E-03
            1490     15.7898E-03     51.1560E-03    -7.00731E+06     110.122E+06     47.8795E+06     41.4518E+03    -25.3519E-03     51.0898E-03    -25.7379E-03     43.0981E-03    -25.7556E-03     51.7207E-03    -25.6480E-03     43.0003E-03
            1491     14.9123E-03     51.1095E-03    -9.61992E+06     88.0295E+06     27.9239E+06     21.7386E+03    -25.7843E-03     51.4787E-03    -25.6944E-03     55.3761E-03    -26.1557E-03     52.0475E-03    -25.6685E-03     55.2574E-03
            1492     14.0348E-03     51.0511E-03    -11.3956E+06     37.1519E+06     9.97614E+06     43.4141E+03    -26.1643E-03     51.8616E-03    -25.6973E-03     60.6519E-03    -26.4379E-03     52.1977E-03    -25.6847E-03     60.5209E-03
            1493     13.1575E-03     50.9946E-03    -12.6051E+06    -8.31549E+06     2.86959E+06     70.7100E+03    -26.3082E-03     52.0484E-03    -25.7402E-03     58.7944E-03    -26.4765E-03     52.1341E-03    -25.6956E-03     58.6705E-03
            1494     12.2803E-03     50.9397E-03    -13.7595E+06    -26.5528E+06     3.88224E+06     70.6231E+03    -26.3320E-03     52.1135E-03    -25.7814E-03     57.0326E-03    -26.4508E-03     52.0779E-03    -25.7036E-03     56.9239E-03
            1495     11.4030E-03     50.8866E-03    -15.1047E+06    -41.6129E+06     3.65021E+06     63.5389E+03    -26.3366E-03     52.1479E-03    -25.8113E-03     55.0597E-03    -26.4189E-03     52.0183E-03    -25.7108E-03     54.9657E-03
            1496     10.5258E-03     50.8354E-03    -16.6925E+06    -51.6447E+06     4.23373E+06     57.0402E+03    -26.3018E-03     52.1397E-03    -25.8379E-03     52.5978E-03    -26.3626E-03     51.9455E-03    -25.7176E-03     52.5179E-03
            1497     9.64857E-03     50.7868E-03    -18.5741E+06    -59.8513E+06     3.76457E+06     54.1944E+03    -26.2457E-03     52.1029E-03    -25.8572E-03     49.5399E-03    -26.2912E-03     51.8590E-03    -25.7246E-03     49.4728E-03
            1498     8.77136E-03     50.7415E-03    -20.7682E+06    -67.7746E+06     2.85529E+06     55.5597E+03    -26.1791E-03     52.0538E-03    -25.8747E-03     46.0408E-03    -26.2136E-03     51.7657E-03    -25.7320E-03     45.9852E-03
            1499     7.89417E-03     50.6996E-03    -23.2880E+06    -74.1280E+06     787.418E+03     54.7376E+03    -26.1054E-03     51.9907E-03    -25.8853E-03     42.2189E-03    -26.1333E-03     51.6705E-03    -25.7401E-03     42.1735E-03
            1500     7.01697E-03     50.6614E-03    -26.0930E+06    -81.5220E+06    -2.48906E+06     48.3871E+03    -26.0376E-03     51.9301E-03    -25.8925E-03     38.1141E-03    -26.0588E-03     51.5765E-03    -25.7489E-03     38.0772E-03
            1501     6.13979E-03     50.6273E-03    -29.1471E+06    -89.6627E+06    -6.84709E+06     40.7500E+03    -25.9780E-03     51.8743E-03    -25.8963E-03     33.7835E-03    -25.9924E-03     51.4868E-03    -25.7582E-03     33.7540E-03
            1502     5.26263E-03     50.5973E-03    -32.4181E+06    -97.8416E+06    -12.1807E+06     33.5949E+03    -25.9270E-03     51.8230E-03    -25.8960E-03     29.2865E-03    -25.9353E-03     51.4042E-03    -25.7680E-03     29.2633E-03
            1503     4.38548E-03     50.5717E-03    -35.8324E+06    -106.384E+06    -18.4661E+06     19.5402E+03    -25.8884E-03     51.7801E-03    -25.8917E-03     24.6484E-03    -25.8902E-03     51.3306E-03    -25.7779E-03     24.6305E-03
            1504     3.50835E-03     50.5506E-03    -39.2392E+06    -113.960E+06    -25.7861E+06        -884.639    -25.8606E-03     51.7412E-03    -25.8805E-03     19.9033E-03    -25.8564E-03     51.2678E-03    -25.7873E-03     19.8897E-03
            1505     2.63124E-03     50.5340E-03    -42.3761E+06    -120.231E+06    -33.6038E+06    -13.0276E+03    -25.8438E-03     51.7073E-03    -25.8636E-03     15.0781E-03    -25.8337E-03     51.2175E-03    -25.7958E-03     15.0683E-03
            1506     1.75415E-03     50.5220E-03    -44.9135E+06    -124.864E+06    -40.5876E+06    -11.5883E+03    -25.8348E-03     51.6807E-03    -25.8459E-03     10.2231E-03    -25.8200E-03     51.1809E-03    -25.8026E-03     10.2168E-03
            1507     877.069E-06     50.5146E-03    -46.5779E+06    -127.961E+06    -45.4136E+06    -11.9515E+03    -25.8356E-03     51.6649E-03    -25.8293E-03     5.57422E-03    -25.8172E-03     51.1587E-03    -25.8033E-03     5.57079E-03
            1508     16.6674E-03     50.1930E-03    -3.61691E+06     114.388E+06     64.8973E+06     52.5047E+03    -25.0626E-03     50.8530E-03    -25.7904E-03     24.2589E-03    -25.4233E-03     51.4187E-03    -25.6265E-03     24.1898E-03
            1509     15.7898E-03     50.1579E-03    -6.92587E+06     110.162E+06     47.8990E+06     28.7863E+03    -25.3604E-03     51.0978E-03    -25.7374E-03     43.1054E-03    -25.7639E-03     51.7288E-03    -25.6476E-03     43.0073E-03
            1510     14.9123E-03     50.1114E-03    -9.57961E+06     87.9985E+06     27.8925E+06     54.0221E+03    -25.7906E-03     51.4840E-03    -25.6933E-03     55.3769E-03    -26.1618E-03     52.0526E-03    -25.6676E-03     55.2586E-03
            1511     14.0348E-03     50.0530E-03    -11.4223E+06     37.1388E+06     9.93298E+06     94.5216E+03    -26.1688E-03     51.8646E-03    -25.6958E-03     60.6462E-03    -26.4424E-03     52.2008E-03    -25.6835E-03     60.5158E-03
            1512     13.1575E-03     49.9965E-03    -12.6409E+06    -8.29216E+06     2.83359E+06     81.3495E+03    -26.3129E-03     52.0513E-03    -25.7384E-03     58.7889E-03    -26.4813E-03     52.1372E-03    -25.6939E-03     58.6652E-03
            1513     12.2803E-03     49.9416E-03    -13.7863E+06    -26.5367E+06     3.83857E+06     64.7221E+03    -26.3358E-03     52.1149E-03    -25.7791E-03     57.0280E-03    -26.4546E-03     52.0795E-03    -25.7015E-03     56.9192E-03
            1514     11.4030E-03     49.8884E-03    -15.1369E+06    -41.5927E+06     3.60527E+06     58.1712E+03    -26.3385E-03     52.1470E-03    -25.8086E-03     55.0537E-03    -26.4209E-03     52.0176E-03    -25.7083E-03     54.9596E-03
            1515     10.5258E-03     49.8373E-03    -16.7269E+06    -51.6263E+06     4.19685E+06     47.7282E+03    -26.3026E-03     52.1375E-03    -25.8348E-03     52.5897E-03    -26.3635E-03     51.9435E-03    -25.7147E-03     52.5096E-03
            1516     9.64860E-03     49.7887E-03    -18.6080E+06    -59.8453E+06     3.73143E+06     45.0620E+03    -26.2457E-03     52.0995E-03    -25.8538E-03     49.5299E-03    -26.2913E-03     51.8558E-03    -25.7214E-03     49.4627E-03
            1517     8.77139E-03     49.7434E-03    -20.7974E+06    -67.7668E+06     2.83325E+06     48.8805E+03    -26.1783E-03     52.0494E-03    -25.8711E-03     46.0290E-03    -26.2128E-03     51.7613E-03    -25.7285E-03     45.9734E-03
            1518     7.89419E-03     49.7015E-03    -23.3028E+06    -74.1075E+06     787.141E+03     43.1175E+03    -26.1037E-03     51.9852E-03    -25.8815E-03     42.2059E-03    -26.1317E-03     51.6651E-03    -25.7363E-03     42.1603E-03
            1519     7.01700E-03     49.6633E-03    -26.1027E+06    -81.5032E+06    -2.47781E+06     32.1532E+03    -26.0349E-03     51.9234E-03    -25.8885E-03     38.1009E-03    -26.0562E-03     51.5699E-03    -25.7448E-03     38.0639E-03
            1520     6.13982E-03     49.6292E-03    -29.1639E+06    -89.6481E+06    -6.83150E+06     27.3691E+03    -25.9741E-03     51.8663E-03    -25.8922E-03     33.7712E-03    -25.9887E-03     51.4789E-03    -25.7540E-03     33.7415E-03
            1521     5.26265E-03     49.5993E-03    -32.4312E+06    -97.8159E+06    -12.1636E+06     16.1306E+03    -25.9222E-03     51.8140E-03    -25.8918E-03     29.2760E-03    -25.9306E-03     51.3954E-03    -25.7638E-03     29.2526E-03
            1522     4.38550E-03     49.5737E-03    -35.8334E+06    -106.357E+06    -18.4555E+06    -2.86606E+03    -25.8832E-03     51.7708E-03    -25.8877E-03     24.6400E-03    -25.8850E-03     51.3214E-03    -25.7738E-03     24.6217E-03
            1523     3.50836E-03     49.5525E-03    -39.2355E+06    -113.948E+06    -25.7867E+06    -10.4293E+03    -25.8556E-03     51.7322E-03    -25.8766E-03     19.8965E-03    -25.8513E-03     51.2590E-03    -25.7835E-03     19.8828E-03
            1524     2.63125E-03     49.5359E-03    -42.3769E+06    -120.228E+06    -33.6203E+06    -9.23891E+03    -25.8393E-03     51.6992E-03    -25.8599E-03     15.0727E-03    -25.8293E-03     51.2094E-03    -25.7922E-03     15.0630E-03
            1525     1.75415E-03     49.5239E-03    -44.9242E+06    -124.873E+06    -40.6202E+06    -8.03973E+03    -25.8311E-03     51.6735E-03    -25.8424E-03     10.2193E-03    -25.8163E-03     51.1737E-03    -25.7993E-03     10.2130E-03
            1526     877.072E-06     49.5165E-03    -46.5862E+06    -127.966E+06    -45.4319E+06    -2.91873E+03    -25.8323E-03     51.6583E-03    -25.8260E-03     5.57206E-03    -25.8140E-03     51.1521E-03    -25.8001E-03     5.56875E-03
            1527     16.6674E-03     49.1949E-03    -3.54516E+06     114.394E+06     64.9041E+06     24.5439E+03    -25.0682E-03     50.8580E-03    -25.7898E-03     24.2597E-03    -25.4285E-03     51.4236E-03    -25.6260E-03     24.1902E-03
            1528     15.7898E-03     49.1598E-03    -6.90593E+06     110.130E+06     47.8900E+06     82.8052E+03    -25.3633E-03     51.1000E-03    -25.7367E-03     43.1052E-03    -25.7666E-03     51.7309E-03    -25.6469E-03     43.0078E-03
            1529     14.9123E-03     49.1133E-03    -9.64351E+06      87.957E+06     27.8637E+06     151.059E+03    -25.7921E-03     51.4846E-03    -25.6925E-03     55.3799E-03    -26.1635E-03     52.0532E-03    -25.6667E-03     55.2628E-03
            1530     14.0348E-03     49.0549E-03    -11.4683E+06     37.1958E+06     9.92113E+06     127.755E+03    -26.1746E-03     51.8692E-03    -25.6946E-03     60.6430E-03    -26.4486E-03     52.2057E-03    -25.6823E-03     60.5129E-03
            1531     13.1576E-03     48.9984E-03    -12.6548E+06    -8.26334E+06     2.82231E+06     85.4788E+03    -26.3197E-03     52.0564E-03    -25.7366E-03     58.7796E-03    -26.4883E-03     52.1425E-03    -25.6922E-03     58.6559E-03
            1532     12.2803E-03     48.9435E-03    -13.8143E+06    -26.5093E+06     3.81558E+06     73.3266E+03    -26.3400E-03     52.1168E-03    -25.7768E-03     57.0200E-03    -26.4590E-03     52.0816E-03    -25.6992E-03     56.9113E-03
            1533     11.4031E-03     48.8903E-03    -15.1700E+06    -41.5649E+06     3.58201E+06     49.3649E+03    -26.3414E-03     52.1471E-03    -25.8057E-03     55.0454E-03    -26.4240E-03     52.0179E-03    -25.7055E-03     54.9513E-03
            1534     10.5259E-03     48.8392E-03    -16.7576E+06    -51.6168E+06     4.17700E+06     42.0629E+03    -26.3047E-03     52.1363E-03    -25.8316E-03     52.5785E-03    -26.3657E-03     51.9424E-03    -25.7115E-03     52.4983E-03
            1535     9.64864E-03     48.7906E-03    -18.6499E+06    -59.8346E+06     3.71885E+06     42.5370E+03    -26.2467E-03     52.0968E-03    -25.8501E-03     49.5163E-03    -26.2925E-03     51.8532E-03    -25.7177E-03     49.4491E-03
            1536     8.77143E-03     48.7453E-03    -20.8378E+06    -67.7428E+06     2.83621E+06     22.6977E+03    -26.1778E-03     52.0448E-03    -25.8670E-03     46.0141E-03    -26.2126E-03     51.7569E-03    -25.7244E-03     45.9581E-03
            1537     7.89423E-03     48.7034E-03    -23.3252E+06    -74.0938E+06     804.623E+03     6.70512E+03    -26.1017E-03     51.9787E-03    -25.8770E-03     42.1903E-03    -26.1298E-03     51.6587E-03    -25.7318E-03     42.1443E-03
            1538     7.01703E-03     48.6652E-03    -26.1089E+06    -81.4943E+06    -2.44323E+06     8.70228E+03    -26.0313E-03     51.9152E-03    -25.8839E-03     38.0849E-03    -26.0527E-03     51.5616E-03    -25.7401E-03     38.0476E-03
            1539     6.13985E-03     48.6311E-03    -29.1539E+06    -89.6318E+06    -6.80323E+06     2.98410E+03    -25.9693E-03     51.8567E-03    -25.8874E-03     33.7560E-03    -25.9839E-03     51.4693E-03    -25.7492E-03     33.7261E-03
            1540     5.26267E-03     48.6012E-03    -32.4103E+06    -97.7944E+06    -12.1675E+06    -9.51748E+03    -25.9169E-03     51.8037E-03    -25.8868E-03     29.2619E-03    -25.9252E-03     51.3851E-03    -25.7589E-03     29.2382E-03
            1541     4.38552E-03     48.5756E-03    -35.8204E+06    -106.345E+06    -18.4901E+06    -15.1791E+03    -25.8778E-03     51.7605E-03    -25.8826E-03     24.6266E-03    -25.8796E-03     51.3112E-03    -25.7689E-03     24.6083E-03
            1542     3.50838E-03     48.5545E-03    -39.2352E+06    -113.955E+06    -25.8231E+06    -10.2431E+03    -25.8506E-03     51.7223E-03    -25.8717E-03     19.8843E-03    -25.8463E-03     51.2490E-03    -25.7787E-03     19.8706E-03
            1543     2.63126E-03     48.5379E-03    -42.3771E+06    -120.233E+06    -33.6431E+06     4.07303E+03    -25.8346E-03     51.6896E-03    -25.8550E-03     15.0624E-03    -25.8245E-03     51.1998E-03    -25.7875E-03     15.0529E-03
            1544     1.75416E-03     48.5259E-03    -44.9242E+06    -124.867E+06    -40.6239E+06     8.44492E+03    -25.8264E-03     51.6639E-03    -25.8376E-03     10.2116E-03    -25.8115E-03     51.1642E-03    -25.7945E-03     10.2055E-03
            1545     877.075E-06     48.5185E-03    -46.5949E+06    -127.962E+06    -45.4330E+06     7.07729E+03    -25.8273E-03     51.6486E-03    -25.8212E-03     5.56760E-03    -25.8090E-03     51.1424E-03    -25.7953E-03     5.56442E-03
            1546     16.6674E-03     48.1968E-03    -3.66980E+06     114.296E+06     64.8299E+06     58.4896E+03    -25.0677E-03     50.8565E-03    -25.7888E-03     24.2587E-03    -25.4284E-03     51.4219E-03    -25.6251E-03     24.1896E-03
            1547     15.7898E-03     48.1616E-03    -7.10488E+06     110.047E+06     47.8128E+06     194.302E+03    -25.3586E-03     51.0944E-03    -25.7358E-03     43.1121E-03    -25.7626E-03     51.7252E-03    -25.6460E-03     43.0161E-03
            1548     14.9123E-03     48.1151E-03    -9.75643E+06     88.0310E+06     27.8768E+06     164.973E+03    -25.7946E-03     51.4863E-03    -25.6917E-03     55.3865E-03    -26.1666E-03     52.0553E-03    -25.6658E-03     55.2695E-03
            1549     14.0349E-03     48.0567E-03    -11.4746E+06     37.2472E+06     9.98527E+06     100.255E+03    -26.1810E-03     51.8746E-03    -25.6936E-03     60.6396E-03    -26.4552E-03     52.2113E-03    -25.6810E-03     60.5091E-03
            1550     13.1576E-03     48.0003E-03    -12.6574E+06    -8.25125E+06     2.88192E+06     107.065E+03    -26.3269E-03     52.0620E-03    -25.7351E-03     58.7667E-03    -26.4956E-03     52.1481E-03    -25.6904E-03     58.6432E-03
            1551     12.2803E-03     47.9454E-03    -13.8225E+06    -26.4528E+06     3.86221E+06     81.3430E+03    -26.3463E-03     52.1207E-03    -25.7745E-03     57.0084E-03    -26.4654E-03     52.0857E-03    -25.6967E-03     56.8998E-03
            1552     11.4031E-03     47.8922E-03    -15.1732E+06    -41.5283E+06     3.62882E+06     40.4432E+03    -26.3465E-03     52.1493E-03    -25.8028E-03     55.0321E-03    -26.4292E-03     52.0201E-03    -25.7024E-03     54.9378E-03
            1553     10.5259E-03     47.8411E-03    -16.7561E+06    -51.6153E+06     4.22959E+06     26.4475E+03    -26.3083E-03     52.1363E-03    -25.8280E-03     52.5617E-03    -26.3693E-03     51.9423E-03    -25.7077E-03     52.4814E-03
            1554     9.64868E-03     47.7926E-03    -18.6109E+06    -59.8158E+06     3.78441E+06     20.5689E+03    -26.2483E-03     52.0943E-03    -25.8460E-03     49.4981E-03    -26.2940E-03     51.8506E-03    -25.7133E-03     49.4307E-03
            1555     8.77147E-03     47.7472E-03    -20.7817E+06    -67.7019E+06     2.90540E+06    -1.80491E+03    -26.1776E-03     52.0398E-03    -25.8622E-03     45.9951E-03    -26.2123E-03     51.7520E-03    -25.7194E-03     45.9388E-03
            1556     7.89427E-03     47.7053E-03    -23.2928E+06    -74.0866E+06     843.552E+03    -23.9889E+03    -26.0998E-03     51.9715E-03    -25.8718E-03     42.1703E-03    -26.1278E-03     51.6514E-03    -25.7263E-03     42.1239E-03
            1557     7.01707E-03     47.6672E-03    -26.0878E+06    -81.4958E+06    -2.44283E+06    -27.5068E+03    -26.0281E-03     51.9061E-03    -25.8780E-03     38.0642E-03    -26.0493E-03     51.5525E-03    -25.7342E-03     38.0265E-03
            1558     6.13988E-03     47.6331E-03    -29.1303E+06    -89.6218E+06    -6.83314E+06    -26.3511E+03    -25.9653E-03     51.8463E-03    -25.8810E-03     33.7343E-03    -25.9797E-03     51.4590E-03    -25.7430E-03     33.7040E-03
            1559     5.26271E-03     47.6032E-03    -32.3969E+06    -97.7994E+06    -12.2315E+06    -15.9724E+03    -25.9124E-03     51.7924E-03    -25.8800E-03     29.2396E-03    -25.9205E-03     51.3738E-03    -25.7524E-03     29.2159E-03
            1560     4.38554E-03     47.5776E-03    -35.8188E+06    -106.346E+06    -18.5635E+06        -105.297    -25.8729E-03     51.7482E-03    -25.8753E-03     24.6050E-03    -25.8745E-03     51.2990E-03    -25.7620E-03     24.5868E-03
            1561     3.50840E-03     47.5565E-03    -39.2405E+06    -113.963E+06    -25.8688E+06     9.05234E+03    -25.8449E-03     51.7091E-03    -25.8641E-03     19.8647E-03    -25.8406E-03     51.2359E-03    -25.7713E-03     19.8513E-03
            1562     2.63128E-03     47.5399E-03    -42.3863E+06    -120.235E+06    -33.6516E+06     15.4434E+03    -25.8279E-03     51.6751E-03    -25.8472E-03     15.0464E-03    -25.8178E-03     51.1853E-03    -25.7797E-03     15.0370E-03
            1563     1.75417E-03     47.5279E-03    -44.9208E+06    -124.851E+06    -40.6172E+06     17.9863E+03    -25.8187E-03     51.6481E-03    -25.8294E-03     10.2001E-03    -25.8039E-03     51.1484E-03    -25.7863E-03     10.1942E-03
            1564     877.083E-06     47.5205E-03    -46.5864E+06    -127.939E+06    -45.4176E+06     11.7503E+03    -25.8190E-03     51.6320E-03    -25.8130E-03     5.56100E-03    -25.8007E-03     51.1259E-03    -25.7870E-03     5.55788E-03
            1565     16.6674E-03     47.1987E-03    -3.65889E+06     114.064E+06     64.7476E+06     120.286E+03    -25.0745E-03     50.8626E-03    -25.7881E-03     24.2663E-03    -25.4347E-03     51.4269E-03    -25.6245E-03     24.1980E-03
            1566     15.7898E-03     47.1635E-03    -6.96238E+06     110.028E+06     47.8431E+06     238.580E+03    -25.3613E-03     51.0963E-03    -25.7349E-03     43.1248E-03    -25.7646E-03     51.7267E-03    -25.6452E-03     43.0294E-03
            1567     14.9123E-03     47.1170E-03    -9.57373E+06     88.2319E+06     28.0927E+06     142.107E+03    -25.7980E-03     51.4892E-03    -25.6912E-03     55.3965E-03    -26.1696E-03     52.0586E-03    -25.6648E-03     55.2792E-03
            1568     14.0349E-03     47.0586E-03    -11.3808E+06     37.1928E+06     10.1985E+06     95.3920E+03    -26.1884E-03     51.8815E-03    -25.6932E-03     60.6392E-03    -26.4623E-03     52.2175E-03    -25.6796E-03     60.5087E-03
            1569     13.1576E-03     47.0021E-03    -12.5850E+06    -8.20772E+06     3.08519E+06     122.868E+03    -26.3361E-03     52.0699E-03    -25.7339E-03     58.7499E-03    -26.5047E-03     52.1558E-03    -25.6883E-03     58.6266E-03
            1570     12.2804E-03     46.9473E-03    -13.7272E+06    -26.3910E+06     4.04032E+06     76.6205E+03    -26.3552E-03     52.1274E-03    -25.7722E-03     56.9884E-03    -26.4742E-03     52.0923E-03    -25.6938E-03     56.8798E-03
            1571     11.4032E-03     46.8941E-03    -15.0700E+06    -41.4748E+06     3.77965E+06     32.6346E+03    -26.3532E-03     52.1527E-03    -25.7995E-03     55.0132E-03    -26.4356E-03     52.0235E-03    -25.6987E-03     54.9188E-03
            1572     10.5259E-03     46.8430E-03    -16.6365E+06    -51.5958E+06     4.35478E+06    -9.04351E+03    -26.3130E-03     52.1369E-03    -25.8239E-03     52.5409E-03    -26.3736E-03     51.9427E-03    -25.7032E-03     52.4601E-03
            1573     9.64873E-03     46.7945E-03    -18.4921E+06    -59.8163E+06     3.85371E+06    -14.6358E+03    -26.2512E-03     52.0920E-03    -25.8408E-03     49.4758E-03    -26.2964E-03     51.8480E-03    -25.7080E-03     49.4080E-03
            1574     8.77153E-03     46.7491E-03    -20.6703E+06    -67.6731E+06     2.93982E+06    -11.3110E+03    -26.1789E-03     52.0351E-03    -25.8561E-03     45.9695E-03    -26.2131E-03     51.7471E-03    -25.7133E-03     45.9132E-03
            1575     7.89433E-03     46.7072E-03    -23.1897E+06    -74.0809E+06     835.365E+03    -15.6666E+03    -26.1000E-03     51.9647E-03    -25.8647E-03     42.1402E-03    -26.1275E-03     51.6444E-03    -25.7195E-03     42.0940E-03
            1576     7.01712E-03     46.6691E-03    -26.0285E+06    -81.4921E+06    -2.50409E+06    -17.4681E+03    -26.0270E-03     51.8969E-03    -25.8699E-03     38.0318E-03    -26.0478E-03     51.5433E-03    -25.7265E-03     37.9942E-03
            1577     6.13994E-03     46.6350E-03    -29.1352E+06    -89.6339E+06    -6.92224E+06    -8.40002E+03    -25.9628E-03     51.8348E-03    -25.8720E-03     33.7004E-03    -25.9771E-03     51.4475E-03    -25.7344E-03     33.6704E-03
            1578     5.26275E-03     46.6051E-03    -32.4442E+06    -97.8119E+06    -12.3152E+06     8.59881E+03    -25.9081E-03     51.7782E-03    -25.8701E-03     29.2063E-03    -25.9164E-03     51.3598E-03    -25.7428E-03     29.1829E-03
            1579     4.38559E-03     46.5796E-03    -35.8706E+06    -106.350E+06    -18.6296E+06     18.4379E+03    -25.8665E-03     51.7311E-03    -25.8646E-03     24.5745E-03    -25.8683E-03     51.2820E-03    -25.7515E-03     24.5566E-03
            1580     3.50844E-03     46.5584E-03    -39.2704E+06    -113.954E+06    -25.8952E+06     19.6066E+03    -25.8365E-03     51.6891E-03    -25.8526E-03     19.8386E-03    -25.8322E-03     51.2160E-03    -25.7599E-03     19.8253E-03
            1581     2.63131E-03     46.5419E-03    -42.3926E+06    -120.227E+06    -33.6505E+06     15.6959E+03    -25.8175E-03     51.6525E-03    -25.8350E-03     15.0260E-03    -25.8075E-03     51.1628E-03    -25.7675E-03     15.0166E-03
            1582     1.75420E-03     46.5299E-03    -44.9199E+06    -124.835E+06    -40.6132E+06     11.5330E+03    -25.8068E-03     51.6234E-03    -25.8166E-03     10.1860E-03    -25.7920E-03     51.1238E-03    -25.7736E-03     10.1800E-03
            1583     877.094E-06     46.5225E-03    -46.5658E+06    -127.911E+06    -45.4090E+06     9.36284E+03    -25.8060E-03     51.6060E-03    -25.8000E-03     5.55307E-03    -25.7877E-03     51.1000E-03    -25.7740E-03     5.54992E-03
            1584     16.6674E-03     46.2005E-03    -3.54531E+06     113.877E+06     64.7422E+06     76.3337E+03    -25.0921E-03     50.8805E-03    -25.7884E-03     24.2688E-03    -25.4514E-03     51.4437E-03    -25.6247E-03     24.1999E-03
            1585     15.7898E-03     46.1654E-03    -6.74016E+06     110.033E+06     47.9212E+06     130.696E+03    -25.3748E-03     51.1092E-03    -25.7344E-03     43.1397E-03    -25.7771E-03     51.7392E-03    -25.6446E-03     43.0428E-03
            1586     14.9123E-03     46.1189E-03    -9.29617E+06     88.3241E+06     28.2861E+06     175.374E+03    -25.8061E-03     51.4966E-03    -25.6904E-03     55.4121E-03    -26.1768E-03     52.0657E-03    -25.6636E-03     55.2952E-03
            1587     14.0349E-03     46.0604E-03    -11.0986E+06     37.2155E+06     10.5272E+06     152.079E+03    -26.1996E-03     51.8922E-03    -25.6926E-03     60.6337E-03    -26.4725E-03     52.2273E-03    -25.6778E-03     60.5039E-03
            1588     13.1577E-03     46.0040E-03    -12.2845E+06    -8.17103E+06     3.38855E+06     96.8331E+03    -26.3478E-03     52.0801E-03    -25.7323E-03     58.7285E-03    -26.5154E-03     52.1652E-03    -25.6856E-03     58.6048E-03
            1589     12.2804E-03     45.9491E-03    -13.4325E+06    -26.3729E+06     4.20252E+06     118.191E+03    -26.3657E-03     52.1347E-03    -25.7690E-03     56.9636E-03    -26.4835E-03     52.0990E-03    -25.6903E-03     56.8554E-03
            1590     11.4032E-03     45.8960E-03    -14.8386E+06    -41.3541E+06     3.87888E+06     65.5347E+03    -26.3623E-03     52.1572E-03    -25.7949E-03     54.9895E-03    -26.4438E-03     52.0280E-03    -25.6941E-03     54.8955E-03
            1591     10.5260E-03     45.8449E-03    -16.4733E+06    -51.5760E+06     4.37972E+06    -6.55737E+03    -26.3207E-03     52.1388E-03    -25.8181E-03     52.5097E-03    -26.3805E-03     51.9443E-03    -25.6975E-03     52.4290E-03
            1592     9.64879E-03     45.7964E-03    -18.3844E+06    -59.8259E+06     3.80206E+06    -2.99793E+03    -26.2574E-03     52.0910E-03    -25.8336E-03     49.4406E-03    -26.3019E-03     51.8468E-03    -25.7012E-03     49.3729E-03
            1593     8.77159E-03     45.7510E-03    -20.6119E+06    -67.6814E+06     2.86045E+06     17.3292E+03    -26.1836E-03     52.0312E-03    -25.8476E-03     45.9284E-03    -26.2173E-03     51.7432E-03    -25.7052E-03     45.8725E-03
            1594     7.89439E-03     45.7092E-03    -23.1787E+06    -74.0765E+06     743.304E+03     38.2411E+03    -26.1026E-03     51.9574E-03    -25.8547E-03     42.0944E-03    -26.1299E-03     51.6372E-03    -25.7100E-03     42.0489E-03
            1595     7.01720E-03     45.6711E-03    -26.0443E+06    -81.4871E+06    -2.56645E+06     46.4331E+03    -26.0272E-03     51.8858E-03    -25.8587E-03     37.9838E-03    -26.0480E-03     51.5324E-03    -25.7156E-03     37.9471E-03
            1596     6.14001E-03     45.6370E-03    -29.1529E+06    -89.6292E+06    -6.95365E+06     45.8582E+03    -25.9599E-03     51.8193E-03    -25.8594E-03     33.6538E-03    -25.9742E-03     51.4321E-03    -25.7219E-03     33.6244E-03
            1597     5.26283E-03     45.6071E-03    -32.4480E+06    -97.8067E+06    -12.2945E+06     37.5711E+03    -25.9019E-03     51.7583E-03    -25.8563E-03     29.1631E-03    -25.9103E-03     51.3398E-03    -25.7289E-03     29.1400E-03
            1598     4.38566E-03     45.5816E-03    -35.8668E+06    -106.336E+06    -18.5921E+06     29.3731E+03    -25.8569E-03     51.7064E-03    -25.8495E-03     24.5369E-03    -25.8587E-03     51.2573E-03    -25.7363E-03     24.5192E-03
            1599     3.50850E-03     45.5605E-03    -39.2686E+06    -113.930E+06    -25.8853E+06     12.5060E+03    -25.8237E-03     51.6600E-03    -25.8363E-03     19.8080E-03    -25.8195E-03     51.1870E-03    -25.7436E-03     19.7946E-03
            1600     2.63136E-03     45.5439E-03    -42.3881E+06    -120.220E+06    -33.6584E+06     4.30949E+03    -25.8024E-03     51.6202E-03    -25.8178E-03     15.0024E-03    -25.7924E-03     51.1306E-03    -25.7503E-03     14.9928E-03
            1601     1.75423E-03     45.5319E-03    -44.9096E+06    -124.820E+06    -40.6084E+06     4.42727E+03    -25.7899E-03     51.5888E-03    -25.7988E-03     10.1700E-03    -25.7751E-03     51.0892E-03    -25.7558E-03     10.1639E-03
            1602     877.111E-06     45.5245E-03    -46.5601E+06    -127.899E+06    -45.3990E+06     3.78363E+03    -25.7879E-03     51.5699E-03    -25.7820E-03     5.54439E-03    -25.7696E-03     51.0639E-03    -25.7560E-03     5.54117E-03
            1603     16.6674E-03     45.2024E-03    -3.59841E+06     113.858E+06     64.7386E+06     10.4177E+03    -25.1049E-03     50.8940E-03    -25.7891E-03     24.2671E-03    -25.4644E-03     51.4572E-03    -25.6253E-03     24.1973E-03
            1604     15.7898E-03     45.1673E-03    -6.89872E+06     109.989E+06     47.9428E+06     15.0209E+03    -25.3927E-03     51.1272E-03    -25.7345E-03     43.1411E-03    -25.7956E-03     51.7571E-03    -25.6443E-03     43.0427E-03
            1605     14.9123E-03     45.1207E-03    -9.37412E+06      88.304E+06     28.0726E+06     28.2720E+03    -25.8243E-03     51.5125E-03    -25.6882E-03     55.4229E-03    -26.1949E-03     52.0819E-03    -25.6622E-03     55.3041E-03
            1606     14.0349E-03     45.0623E-03    -10.8461E+06     37.3011E+06     10.3781E+06     2.22079E+03    -26.2151E-03     51.9040E-03    -25.6889E-03     60.6296E-03    -26.4866E-03     52.2393E-03    -25.6754E-03     60.4977E-03
            1607     13.1577E-03     45.0058E-03    -11.8851E+06    -8.31978E+06     3.44940E+06     122.289E+03    -26.3624E-03     52.0911E-03    -25.7287E-03     58.6982E-03    -26.5278E-03     52.1748E-03    -25.6821E-03     58.5748E-03
            1608     12.2805E-03     44.9510E-03    -13.1392E+06    -26.3706E+06     4.20625E+06     273.501E+03    -26.3794E-03     52.1432E-03    -25.7638E-03     56.9242E-03    -26.4957E-03     52.1071E-03    -25.6855E-03     56.8181E-03
            1609     11.4033E-03     44.8979E-03    -14.6671E+06    -41.1821E+06     3.85874E+06     225.611E+03    -26.3754E-03     52.1636E-03    -25.7882E-03     54.9459E-03    -26.4563E-03     52.0351E-03    -25.6879E-03     54.8540E-03
            1610     10.5261E-03     44.8467E-03    -16.4389E+06    -51.5028E+06     4.32256E+06     118.059E+03    -26.3322E-03     52.1421E-03    -25.8099E-03     52.4562E-03    -26.3919E-03     51.9481E-03    -25.6898E-03     52.3771E-03
            1611     9.64888E-03     44.7983E-03    -18.4493E+06    -59.8192E+06     3.68160E+06     66.6385E+03    -26.2664E-03     52.0900E-03    -25.8235E-03     49.3856E-03    -26.3111E-03     51.8461E-03    -25.6916E-03     49.3188E-03
            1612     8.77169E-03     44.7529E-03    -20.7160E+06    -67.7138E+06     2.74803E+06     91.1722E+03    -26.1898E-03     52.0256E-03    -25.8358E-03     45.8699E-03    -26.2238E-03     51.7377E-03    -25.6938E-03     45.8149E-03
            1613     7.89450E-03     44.7111E-03    -23.2831E+06    -74.0442E+06     694.769E+03     97.3364E+03    -26.1051E-03     51.9464E-03    -25.8412E-03     42.0349E-03    -26.1329E-03     51.6266E-03    -25.6966E-03     41.9901E-03
            1614     7.01731E-03     44.6730E-03    -26.1076E+06    -81.4803E+06    -2.56767E+06     81.7968E+03    -26.0258E-03     51.8692E-03    -25.8435E-03     37.9257E-03    -26.0469E-03     51.5159E-03    -25.7003E-03     37.8894E-03
            1615     6.14012E-03     44.6390E-03    -29.1669E+06    -89.5882E+06    -6.91503E+06     67.6849E+03    -25.9541E-03     51.7965E-03    -25.8424E-03     33.5997E-03    -25.9685E-03     51.4094E-03    -25.7048E-03     33.5706E-03
            1616     5.26293E-03     44.6091E-03    -32.4358E+06    -97.7849E+06    -12.2534E+06     45.2459E+03    -25.8917E-03     51.7294E-03    -25.8377E-03     29.1144E-03    -25.9001E-03     51.3110E-03    -25.7101E-03     29.0914E-03
            1617     4.38575E-03     44.5836E-03    -35.8420E+06    -106.303E+06    -18.5393E+06     28.0403E+03    -25.8428E-03     51.6723E-03    -25.8294E-03     24.4944E-03    -25.8446E-03     51.2232E-03    -25.7160E-03     24.4766E-03
            1618     3.50857E-03     44.5625E-03    -39.2429E+06    -113.908E+06    -25.8563E+06     13.0510E+03    -25.8063E-03     51.6212E-03    -25.8149E-03     19.7723E-03    -25.8020E-03     51.1482E-03    -25.7221E-03     19.7589E-03
            1619     2.63141E-03     44.5459E-03    -42.3779E+06    -120.208E+06    -33.6568E+06     3.26174E+03    -25.7823E-03     51.5776E-03    -25.7954E-03     14.9746E-03    -25.7722E-03     51.0880E-03    -25.7279E-03     14.9650E-03
            1620     1.75427E-03     44.5340E-03    -44.9101E+06    -124.817E+06    -40.6161E+06        -29.4221    -25.7678E-03     51.5435E-03    -25.7757E-03     10.1508E-03    -25.7530E-03     51.0440E-03    -25.7327E-03     10.1446E-03
            1621     877.130E-06     44.5266E-03    -46.5625E+06    -127.892E+06    -45.4047E+06         824.730    -25.7646E-03     51.5230E-03    -25.7584E-03     5.53374E-03    -25.7463E-03     51.0171E-03    -25.7325E-03     5.53050E-03
            1622     16.6674E-03     44.2042E-03    -3.59468E+06     113.886E+06     64.7731E+06    -4.37863E+03    -25.1275E-03     50.9173E-03    -25.7898E-03     24.2646E-03    -25.4871E-03     51.4805E-03    -25.6258E-03     24.1944E-03
            1623     15.7898E-03     44.1691E-03    -6.89598E+06     109.972E+06     47.9805E+06    -14.4639E+03    -25.4165E-03     51.1505E-03    -25.7340E-03     43.1220E-03    -25.8194E-03     51.7802E-03    -25.6436E-03     43.0230E-03
            1624     14.9124E-03     44.1226E-03    -9.46753E+06     88.4827E+06     27.7613E+06    -177.536E+03    -25.8467E-03     51.5310E-03    -25.6843E-03     55.4123E-03    -26.2175E-03     52.1018E-03    -25.6601E-03     55.2907E-03
            1625     14.0350E-03     44.0641E-03    -11.1442E+06     37.1886E+06     9.89492E+06    -241.802E+03    -26.2343E-03     51.9178E-03    -25.6835E-03     60.6088E-03    -26.5064E-03     52.2536E-03    -25.6717E-03     60.4737E-03
            1626     13.1578E-03     44.0076E-03    -12.2375E+06    -8.72640E+06     3.16717E+06     85.7214E+03    -26.3801E-03     52.1032E-03    -25.7231E-03     58.6494E-03    -26.5462E-03     52.1857E-03    -25.6769E-03     58.5254E-03
            1627     12.2806E-03     43.9529E-03    -13.3187E+06    -26.3905E+06     4.11331E+06     357.287E+03    -26.3964E-03     52.1531E-03    -25.7567E-03     56.8662E-03    -26.5134E-03     52.1172E-03    -25.6785E-03     56.7611E-03
            1628     11.4034E-03     43.8997E-03    -14.6781E+06    -41.0569E+06     3.87525E+06     381.828E+03    -26.3909E-03     52.1700E-03    -25.7791E-03     54.8827E-03    -26.4720E-03     52.0420E-03    -25.6790E-03     54.7928E-03
            1629     10.5262E-03     43.8486E-03    -16.3960E+06    -51.3814E+06     4.39584E+06     343.290E+03    -26.3457E-03     52.1446E-03    -25.7989E-03     52.3859E-03    -26.4054E-03     51.9509E-03    -25.6787E-03     52.3096E-03
            1630     9.64901E-03     43.8002E-03    -18.5032E+06    -59.7195E+06     3.73496E+06     260.492E+03    -26.2762E-03     52.0866E-03    -25.8104E-03     49.3138E-03    -26.3213E-03     51.8432E-03    -25.6783E-03     49.2495E-03
            1631     8.77183E-03     43.7549E-03    -20.8305E+06    -67.6532E+06     2.73278E+06     141.248E+03    -26.1948E-03     52.0150E-03    -25.8202E-03     45.8015E-03    -26.2294E-03     51.7275E-03    -25.6782E-03     45.7472E-03
            1632     7.89464E-03     43.7131E-03    -23.3269E+06    -74.0158E+06     727.432E+03     87.0706E+03    -26.1054E-03     51.9290E-03    -25.8235E-03     41.9663E-03    -26.1335E-03     51.6093E-03    -25.6788E-03     41.9214E-03
            1633     7.01745E-03     43.6750E-03    -26.1031E+06    -81.4468E+06    -2.54552E+06     76.8741E+03    -26.0207E-03     51.8442E-03    -25.8235E-03     37.8607E-03    -26.0419E-03     51.4910E-03    -25.6803E-03     37.8244E-03
            1634     6.14025E-03     43.6410E-03    -29.1620E+06    -89.5616E+06    -6.89864E+06     66.4226E+03    -25.9441E-03     51.7646E-03    -25.8205E-03     33.5390E-03    -25.9586E-03     51.3777E-03    -25.6828E-03     33.5100E-03
            1635     5.26305E-03     43.6112E-03    -32.4397E+06    -97.7345E+06    -12.2511E+06     48.6278E+03    -25.8773E-03     51.6911E-03    -25.8138E-03     29.0595E-03    -25.8857E-03     51.2729E-03    -25.6863E-03     29.0367E-03
            1636     4.38586E-03     43.5857E-03    -35.8532E+06    -106.275E+06    -18.5453E+06     16.6787E+03    -25.8242E-03     51.6283E-03    -25.8040E-03     24.4462E-03    -25.8261E-03     51.1794E-03    -25.6907E-03     24.4283E-03
            1637     3.50867E-03     43.5646E-03    -39.2513E+06    -113.896E+06    -25.8476E+06     11.7342E+03    -25.7841E-03     51.5723E-03    -25.7882E-03     19.7318E-03    -25.7799E-03     51.0994E-03    -25.6954E-03     19.7185E-03
            1638     2.63149E-03     43.5480E-03    -42.3802E+06    -120.191E+06    -33.6434E+06     10.4751E+03    -25.7570E-03     51.5245E-03    -25.7675E-03     14.9432E-03    -25.7470E-03     51.0349E-03    -25.7000E-03     14.9338E-03
            1639     1.75432E-03     43.5361E-03    -44.9169E+06    -124.809E+06    -40.6117E+06     2.00726E+03    -25.7403E-03     51.4873E-03    -25.7470E-03     10.1292E-03    -25.7256E-03     50.9878E-03    -25.7039E-03     10.1231E-03
            1640     877.158E-06     43.5287E-03    -46.5778E+06    -127.890E+06    -45.4176E+06     1.71338E+03    -25.7355E-03     51.4647E-03    -25.7292E-03     5.52194E-03    -25.7173E-03     50.9588E-03    -25.7033E-03     5.51872E-03
            1641     16.6674E-03     43.2060E-03    -3.59655E+06     113.908E+06     64.8596E+06    -29.4868E+03    -25.1670E-03     50.9576E-03    -25.7906E-03     24.2588E-03    -25.5267E-03     51.5208E-03    -25.6262E-03     24.1880E-03
            1642     15.7899E-03     43.1709E-03    -6.90833E+06     109.984E+06     48.2388E+06    -47.3750E+03    -25.4512E-03     51.1849E-03    -25.7337E-03     43.1020E-03    -25.8545E-03     51.8142E-03    -25.6419E-03     43.0024E-03
            1643     14.9124E-03     43.1244E-03    -9.60823E+06     88.7562E+06     27.8434E+06    -132.636E+03    -25.8757E-03     51.5565E-03    -25.6809E-03     55.3815E-03    -26.2476E-03     52.1287E-03    -25.6564E-03     55.2603E-03
            1644     14.0351E-03     43.0659E-03    -11.5396E+06     37.0681E+06     9.68945E+06    -215.648E+03    -26.2574E-03     51.9349E-03    -25.6775E-03     60.5643E-03    -26.5309E-03     52.2709E-03    -25.6660E-03     60.4294E-03
            1645     13.1579E-03     43.0095E-03    -12.7675E+06    -9.18135E+06     2.90234E+06    -43.7322E+03    -26.4007E-03     52.1162E-03    -25.7155E-03     58.5963E-03    -26.5684E-03     52.1976E-03    -25.6692E-03     58.4705E-03
            1646     12.2807E-03     42.9547E-03    -13.7848E+06    -26.5010E+06     3.94193E+06     202.663E+03    -26.4159E-03     52.1625E-03    -25.7467E-03     56.8089E-03    -26.5347E-03     52.1270E-03    -25.6685E-03     56.7017E-03
            1647     11.4035E-03     42.9016E-03    -14.9724E+06    -41.0621E+06     3.80950E+06     326.588E+03    -26.4074E-03     52.1743E-03    -25.7669E-03     54.8181E-03    -26.4898E-03     52.0467E-03    -25.6666E-03     54.7274E-03
            1648     10.5263E-03     42.8505E-03    -16.4950E+06    -51.3979E+06     4.41538E+06     455.977E+03    -26.3593E-03     52.1435E-03    -25.7843E-03     52.3133E-03    -26.4194E-03     51.9498E-03    -25.6638E-03     52.2385E-03
            1649     9.64918E-03     42.8021E-03    -18.3957E+06    -59.4698E+06     3.92995E+06     427.297E+03    -26.2855E-03     52.0789E-03    -25.7933E-03     49.2353E-03    -26.3307E-03     51.8362E-03    -25.6608E-03     49.1732E-03
            1650     8.77201E-03     42.7568E-03    -20.6319E+06    -67.4305E+06     2.89027E+06     195.080E+03    -26.1988E-03     51.9991E-03    -25.8002E-03     45.7252E-03    -26.2329E-03     51.7122E-03    -25.6581E-03     45.6717E-03
            1651     7.89482E-03     42.7151E-03    -23.1979E+06    -74.0231E+06     773.192E+03     92.9492E+03    -26.1036E-03     51.9046E-03    -25.8010E-03     41.8899E-03    -26.1310E-03     51.5846E-03    -25.6562E-03     41.8452E-03
            1652     7.01762E-03     42.6770E-03    -26.0479E+06    -81.3956E+06    -2.52719E+06     96.4721E+03    -26.0129E-03     51.8114E-03    -25.7985E-03     37.7859E-03    -26.0339E-03     51.4583E-03    -25.6553E-03     37.7499E-03
            1653     6.14042E-03     42.6431E-03    -29.1365E+06    -89.5464E+06    -6.89838E+06     79.5502E+03    -25.9310E-03     51.7242E-03    -25.7932E-03     33.4668E-03    -25.9453E-03     51.3372E-03    -25.6556E-03     33.4381E-03
            1654     5.26321E-03     42.6132E-03    -32.4163E+06    -97.6656E+06    -12.2437E+06     54.2532E+03    -25.8587E-03     51.6432E-03    -25.7845E-03     28.9928E-03    -25.8671E-03     51.2253E-03    -25.6571E-03     28.9701E-03
            1655     4.38599E-03     42.5878E-03    -35.8342E+06    -106.247E+06    -18.5411E+06     20.5533E+03    -25.8010E-03     51.5739E-03    -25.7729E-03     24.3870E-03    -25.8028E-03     51.1251E-03    -25.6596E-03     24.3693E-03
            1656     3.50878E-03     42.5667E-03    -39.2492E+06    -113.891E+06    -25.8471E+06     10.2026E+03    -25.7566E-03     51.5122E-03    -25.7556E-03     19.6824E-03    -25.7524E-03     51.0392E-03    -25.6627E-03     19.6691E-03
            1657     2.63158E-03     42.5502E-03    -42.3839E+06    -120.176E+06    -33.6314E+06     8.97494E+03    -25.7260E-03     51.4597E-03    -25.7337E-03     14.9050E-03    -25.7161E-03     50.9702E-03    -25.6661E-03     14.8956E-03
            1658     1.75438E-03     42.5383E-03      -44.92E+06    -124.797E+06    -40.6031E+06     6.10212E+03    -25.7068E-03     51.4190E-03    -25.7122E-03     10.1030E-03    -25.6921E-03     50.9195E-03    -25.6691E-03     10.0969E-03
            1659     877.187E-06     42.5309E-03    -46.5831E+06    -127.884E+06    -45.4174E+06     1.82346E+03    -25.7002E-03     51.3943E-03    -25.6941E-03     5.50757E-03    -25.6820E-03     50.8884E-03    -25.6682E-03     5.50436E-03
            1660     16.6673E-03     42.2078E-03    -3.63797E+06     113.950E+06     65.4523E+06    -34.6499E+03    -25.2102E-03     51.0036E-03    -25.7933E-03     24.2334E-03    -25.5711E-03     51.5662E-03    -25.6260E-03     24.1623E-03
            1661     15.7899E-03     42.1727E-03    -7.04781E+06     109.961E+06     49.0310E+06    -38.6632E+03    -25.4941E-03     51.2293E-03    -25.7351E-03     43.0612E-03    -25.8992E-03     51.8575E-03    -25.6392E-03     42.9613E-03
            1662     14.9125E-03     42.1261E-03    -9.75424E+06     88.8868E+06     28.0768E+06    -38.6312E+03    -25.9103E-03     51.5870E-03    -25.6767E-03     55.3430E-03    -26.2834E-03     52.1596E-03    -25.6511E-03     55.2228E-03
            1663     14.0352E-03     42.0677E-03    -11.5670E+06     37.1105E+06     9.65157E+06     -92.779E+03    -26.2857E-03     51.9552E-03    -25.6695E-03     60.5210E-03    -26.5593E-03     52.2915E-03    -25.6583E-03     60.3876E-03
            1664     13.1580E-03     42.0113E-03    -12.8095E+06    -9.45215E+06     2.77347E+06    -58.8915E+03    -26.4268E-03     52.1319E-03    -25.7051E-03     58.5461E-03    -26.5940E-03     52.2121E-03    -25.6590E-03     58.4200E-03
            1665     12.2808E-03     41.9565E-03    -13.9926E+06    -26.6505E+06     3.78461E+06     76.5670E+03    -26.4390E-03     52.1726E-03    -25.7336E-03     56.7505E-03    -26.5583E-03     52.1367E-03    -25.6558E-03     56.6416E-03
            1666     11.4037E-03     41.9034E-03    -15.3405E+06    -41.1725E+06     3.62688E+06     208.531E+03    -26.4267E-03     52.1778E-03    -25.7510E-03     54.7505E-03    -26.5105E-03     52.0504E-03    -25.6510E-03     54.6582E-03
            1667     10.5265E-03     41.8524E-03    -16.8044E+06    -51.4729E+06     4.24344E+06     289.665E+03    -26.3735E-03     52.1389E-03    -25.7654E-03     52.2404E-03    -26.4347E-03     51.9455E-03    -25.6452E-03     52.1635E-03
            1668     9.64939E-03     41.8040E-03    -18.4432E+06    -59.3012E+06     3.90793E+06     301.616E+03    -26.2943E-03     52.0658E-03    -25.7715E-03     49.1560E-03    -26.3398E-03     51.8240E-03    -25.6392E-03     49.0923E-03
            1669     8.77222E-03     41.7588E-03    -20.5467E+06    -67.2398E+06     2.95005E+06     280.192E+03    -26.2018E-03     51.9774E-03    -25.7756E-03     45.6376E-03    -26.2358E-03     51.6912E-03    -25.6336E-03     45.5852E-03
            1670     7.89504E-03     41.7171E-03    -23.1605E+06    -73.9490E+06     782.514E+03     204.015E+03    -26.1004E-03     51.8738E-03    -25.7734E-03     41.8004E-03    -26.1277E-03     51.5541E-03    -25.6287E-03     41.7572E-03
            1671     7.01784E-03     41.6791E-03    -26.0446E+06    -81.3437E+06     -2.5211E+06     135.304E+03    -26.0035E-03     51.7716E-03    -25.7681E-03     37.6970E-03    -26.0245E-03     51.4187E-03    -25.6250E-03     37.6616E-03
            1672     6.14062E-03     41.6452E-03    -29.1244E+06    -89.4939E+06    -6.89742E+06     99.4201E+03    -25.9149E-03     51.6749E-03    -25.7601E-03     33.3817E-03    -25.9292E-03     51.2882E-03    -25.6226E-03     33.3533E-03
            1673     5.26339E-03     41.6154E-03    -32.4031E+06    -97.6061E+06    -12.2549E+06     59.5276E+03    -25.8361E-03     51.5849E-03    -25.7488E-03     28.9139E-03    -25.8445E-03     51.1672E-03    -25.6215E-03     28.8914E-03
            1674     4.38616E-03     41.5899E-03    -35.8184E+06    -106.213E+06    -18.5414E+06     34.3011E+03    -25.7726E-03     51.5076E-03    -25.7351E-03     24.3163E-03    -25.7744E-03     51.0590E-03    -25.6218E-03     24.2988E-03
            1675     3.50892E-03     41.5689E-03    -39.2328E+06    -113.878E+06    -25.8292E+06     20.8273E+03    -25.7232E-03     51.4392E-03    -25.7160E-03     19.6224E-03    -25.7189E-03     50.9663E-03    -25.6231E-03     19.6093E-03
            1676     2.63169E-03     41.5525E-03    -42.3804E+06    -120.158E+06    -33.6226E+06     12.2504E+03    -25.6884E-03     51.3809E-03    -25.6926E-03     14.8580E-03    -25.6785E-03     50.8915E-03    -25.6250E-03     14.8487E-03
            1677     1.75445E-03     41.5405E-03    -44.9258E+06    -124.787E+06    -40.6030E+06     4.28572E+03    -25.6662E-03     51.3361E-03    -25.6699E-03     10.0702E-03    -25.6515E-03     50.8367E-03    -25.6269E-03     10.0642E-03
            1678     877.226E-06     41.5332E-03    -46.5874E+06    -127.875E+06    -45.4219E+06         572.274    -25.6576E-03     51.3087E-03    -25.6512E-03     5.48921E-03    -25.6394E-03     50.8030E-03    -25.6253E-03     5.48600E-03
            1679     16.6674E-03     41.2095E-03    -3.65201E+06     113.971E+06     65.8707E+06    -8.87491E+03    -25.2546E-03     51.0484E-03    -25.7937E-03     24.1993E-03    -25.6161E-03     51.6105E-03    -25.6243E-03     24.1282E-03
            1680     15.7900E-03     41.1744E-03    -7.06883E+06     109.947E+06     49.4233E+06    -5.98124E+03    -25.5339E-03     51.2669E-03    -25.7329E-03     43.0102E-03    -25.9396E-03     51.8944E-03    -25.6350E-03     42.9104E-03
            1681     14.9126E-03     41.1279E-03    -9.76738E+06     88.9324E+06     28.1062E+06    -23.5206E+03    -25.9474E-03     51.6174E-03    -25.6700E-03     55.2977E-03    -26.3206E-03     52.1901E-03    -25.6443E-03     55.1775E-03
            1682     14.0353E-03     41.0695E-03    -11.5762E+06     37.1549E+06     9.63703E+06    -31.5373E+03    -26.3202E-03     51.9800E-03    -25.6598E-03     60.4681E-03    -26.5937E-03     52.3164E-03    -25.6488E-03     60.3352E-03
            1683     13.1582E-03     41.0131E-03    -12.7887E+06    -9.53638E+06     2.72701E+06    -14.5798E+03    -26.4585E-03     52.1510E-03    -25.6925E-03     58.4849E-03    -26.6253E-03     52.2307E-03    -25.6465E-03     58.3593E-03
            1684     12.2810E-03     40.9583E-03    -13.9462E+06    -26.8096E+06     3.70452E+06     79.3944E+03    -26.4670E-03     52.1847E-03    -25.7178E-03     56.6795E-03    -26.5856E-03     52.1480E-03    -25.6402E-03     56.5705E-03
            1685     11.4039E-03     40.9053E-03     -15.288E+06    -41.2379E+06     3.56022E+06     177.435E+03    -26.4500E-03     52.1818E-03    -25.7318E-03     54.6685E-03    -26.5332E-03     52.0540E-03    -25.6321E-03     54.5759E-03
            1686     10.5268E-03     40.8543E-03    -16.8551E+06    -51.3927E+06     4.13941E+06     117.658E+03    -26.3907E-03     52.1331E-03    -25.7425E-03     52.1523E-03    -26.4520E-03     51.9402E-03    -25.6228E-03     52.0732E-03
            1687     9.64964E-03     40.8060E-03    -18.7128E+06    -59.3775E+06     3.68172E+06     127.047E+03    -26.3047E-03     52.0497E-03    -25.7450E-03     49.0602E-03    -26.3510E-03     51.8081E-03    -25.6133E-03     48.9944E-03
            1688     8.77248E-03     40.7608E-03    -20.8477E+06    -67.2292E+06     2.80314E+06     256.362E+03    -26.2052E-03     51.9509E-03    -25.7457E-03     45.5309E-03    -26.2404E-03     51.6653E-03    -25.6040E-03     45.4784E-03
            1689     7.89530E-03     40.7191E-03    -23.2861E+06    -73.7838E+06     768.237E+03     241.721E+03    -26.0962E-03     51.8364E-03    -25.7401E-03     41.6899E-03    -26.1243E-03     51.5176E-03    -25.5955E-03     41.6473E-03
            1690     7.01809E-03     40.6812E-03    -26.0671E+06    -81.2733E+06    -2.53065E+06     155.874E+03    -25.9913E-03     51.7227E-03    -25.7314E-03     37.5881E-03    -26.0124E-03     51.3701E-03    -25.5884E-03     37.5531E-03
            1691     6.14086E-03     40.6473E-03    -29.1334E+06    -89.4220E+06    -6.91253E+06     111.394E+03    -25.8947E-03     51.6147E-03    -25.7201E-03     33.2783E-03    -25.9091E-03     51.2284E-03    -25.5827E-03     33.2501E-03
            1692     5.26362E-03     40.6176E-03    -32.4128E+06    -97.5515E+06    -12.2808E+06     77.1528E+03    -25.8084E-03     51.5142E-03    -25.7058E-03     28.8191E-03    -25.8168E-03     51.0969E-03    -25.5788E-03     28.7968E-03
            1693     4.38636E-03     40.5922E-03    -35.8377E+06    -106.172E+06    -18.5755E+06     48.8149E+03    -25.7381E-03     51.4276E-03    -25.6895E-03     24.2329E-03    -25.7400E-03     50.9792E-03    -25.5765E-03     24.2157E-03
            1694     3.50909E-03     40.5712E-03    -39.2501E+06    -113.852E+06    -25.8378E+06     27.5478E+03    -25.6829E-03     51.3512E-03    -25.6684E-03     19.5528E-03    -25.6787E-03     50.8785E-03    -25.5755E-03     19.5398E-03
            1695     2.63182E-03     40.5548E-03    -42.3874E+06    -120.138E+06    -33.6104E+06     15.2414E+03    -25.6433E-03     51.2865E-03    -25.6432E-03     14.8040E-03    -25.6334E-03     50.7971E-03    -25.5756E-03     14.7948E-03
            1696     1.75454E-03     40.5429E-03    -44.9328E+06    -124.771E+06    -40.6058E+06     5.65263E+03    -25.6174E-03     51.2366E-03    -25.6192E-03     10.0331E-03    -25.6028E-03     50.7373E-03    -25.5762E-03     10.0271E-03
            1697     877.270E-06     40.5356E-03    -46.6109E+06    -127.870E+06    -45.4353E+06         925.828    -25.6063E-03     51.2060E-03    -25.5997E-03     5.46898E-03    -25.5883E-03     50.7003E-03    -25.5739E-03     5.46579E-03
            1698     16.6674E-03     40.2111E-03    -3.64477E+06     113.975E+06     65.7045E+06    -1.42416E+03    -25.2991E-03     51.0893E-03    -25.7902E-03     24.1799E-03    -25.6603E-03     51.6516E-03    -25.6217E-03     24.1086E-03
            1699     15.7901E-03     40.1761E-03    -7.04402E+06     109.940E+06     49.2872E+06     11.0393E+03    -25.5774E-03     51.3044E-03    -25.7269E-03     42.9682E-03    -25.9826E-03     51.9319E-03    -25.6297E-03     42.8682E-03
            1700     14.9127E-03     40.1296E-03    -9.75425E+06     88.9661E+06     28.1401E+06     15.2562E+03    -25.9922E-03     51.6541E-03    -25.6619E-03     55.2424E-03    -26.3652E-03     52.2267E-03    -25.6360E-03     55.1223E-03
            1701     14.0355E-03     40.0712E-03    -11.5554E+06     37.1790E+06     9.63230E+06    -4.66194E+03    -26.3621E-03     52.0102E-03    -25.6482E-03     60.4029E-03    -26.6354E-03     52.3466E-03    -25.6372E-03     60.2702E-03
            1702     13.1584E-03     40.0149E-03    -12.7434E+06    -9.57334E+06     2.70563E+06     11.4249E+03    -26.4969E-03     52.1741E-03    -25.6772E-03     58.4090E-03    -26.6633E-03     52.2534E-03    -25.6313E-03     58.2836E-03
            1703     12.2813E-03     39.9602E-03    -13.8735E+06    -26.9146E+06     3.66907E+06     58.2461E+03    -26.5006E-03     52.1993E-03    -25.6987E-03     56.5898E-03    -26.6186E-03     52.1619E-03    -25.6212E-03     56.4805E-03
            1704     11.4042E-03     39.9071E-03    -15.1364E+06    -41.2644E+06     3.55510E+06     101.163E+03    -26.4778E-03     52.1864E-03    -25.7087E-03     54.5655E-03    -26.5600E-03     52.0581E-03    -25.6091E-03     54.4719E-03
            1705     10.5271E-03     39.8562E-03    -16.7233E+06    -51.3432E+06     4.18184E+06     174.182E+03    -26.4118E-03     52.1272E-03    -25.7153E-03     52.0334E-03    -26.4725E-03     51.9341E-03    -25.5957E-03     51.9551E-03
            1706     9.64994E-03     39.8079E-03    -18.7404E+06    -59.4039E+06     3.66214E+06     183.748E+03    -26.3178E-03     52.0313E-03    -25.7135E-03     48.9324E-03    -26.3641E-03     51.7896E-03    -25.5819E-03     48.8674E-03
            1707     8.77279E-03     39.7628E-03    -20.9535E+06    -67.2371E+06     2.72352E+06     126.358E+03    -26.2090E-03     51.9188E-03    -25.7098E-03     45.4029E-03    -26.2445E-03     51.6333E-03    -25.5683E-03     45.3487E-03
            1708     7.89561E-03     39.7212E-03    -23.3576E+06    -73.7257E+06     717.575E+03     138.915E+03    -26.0905E-03     51.7905E-03    -25.7000E-03     41.5608E-03    -26.1189E-03     51.4721E-03    -25.5556E-03     41.5170E-03
            1709     7.01840E-03     39.6833E-03    -26.1000E+06    -81.1950E+06    -2.55744E+06     151.479E+03    -25.9760E-03     51.6632E-03    -25.6872E-03     37.4607E-03    -25.9973E-03     51.3110E-03    -25.5444E-03     37.4257E-03
            1710     6.14116E-03     39.6495E-03    -29.1542E+06    -89.3601E+06    -6.93701E+06     118.993E+03    -25.8699E-03     51.5420E-03    -25.6722E-03     33.1562E-03    -25.8844E-03     51.1560E-03    -25.5350E-03     33.1283E-03
            1711     5.26389E-03     39.6199E-03    -32.4269E+06    -97.4999E+06    -12.3060E+06     95.6126E+03    -25.7748E-03     51.4293E-03    -25.6545E-03     28.7064E-03    -25.7833E-03     51.0122E-03    -25.5276E-03     28.6845E-03
            1712     4.38659E-03     39.5945E-03    -35.8417E+06    -106.117E+06    -18.5995E+06     69.3626E+03    -25.6965E-03     51.3317E-03    -25.6352E-03     24.1330E-03    -25.6984E-03     50.8836E-03    -25.5223E-03     24.1162E-03
            1713     3.50929E-03     39.5736E-03    -39.2559E+06    -113.808E+06    -25.8564E+06     33.3143E+03    -25.6344E-03     51.2460E-03    -25.6115E-03     19.4689E-03    -25.6303E-03     50.7734E-03    -25.5189E-03     19.4561E-03
            1714     2.63197E-03     39.5572E-03    -42.4011E+06    -120.122E+06    -33.6243E+06     13.8828E+03    -25.5893E-03     51.1737E-03    -25.5844E-03     14.7386E-03    -25.5795E-03     50.6845E-03    -25.5169E-03     14.7294E-03
            1715     1.75465E-03     39.5453E-03    -44.9518E+06    -124.756E+06    -40.6215E+06     13.6852E+03    -25.5592E-03     51.1182E-03    -25.5589E-03     9.98785E-03    -25.5447E-03     50.6190E-03    -25.5159E-03     9.98199E-03
            1716     877.324E-06     39.5380E-03    -46.6178E+06    -127.855E+06    -45.4598E+06     4.83580E+03    -25.5455E-03     51.0841E-03    -25.5386E-03     5.44380E-03    -25.5275E-03     50.5785E-03    -25.5129E-03     5.44068E-03
            1717     16.6675E-03     39.2128E-03    -3.64427E+06     113.972E+06     65.6635E+06     5.87036E+03    -25.3522E-03     51.1391E-03    -25.7870E-03     24.1578E-03    -25.7132E-03     51.7014E-03    -25.6186E-03     24.0862E-03
            1718     15.7902E-03     39.1778E-03    -7.04106E+06     109.913E+06     49.3075E+06     24.6077E+03    -25.6338E-03     51.3546E-03    -25.7208E-03     42.9195E-03    -26.0388E-03     51.9818E-03    -25.6234E-03     42.8193E-03
            1719     14.9129E-03     39.1313E-03    -9.72521E+06     88.9846E+06     28.1830E+06     42.7409E+03    -26.0465E-03     51.6986E-03    -25.6520E-03     55.1756E-03    -26.4193E-03     52.2710E-03    -25.6260E-03     55.0556E-03
            1720     14.0357E-03     39.0729E-03    -11.5331E+06     37.2283E+06     9.63633E+06     33.9061E+03    -26.4128E-03     52.0469E-03    -25.6340E-03     60.3235E-03    -26.6859E-03     52.3832E-03    -25.6231E-03     60.1910E-03
            1721     13.1586E-03     39.0166E-03    -12.7492E+06    -9.60764E+06     2.67208E+06     32.6771E+03    -26.5432E-03     52.2019E-03    -25.6587E-03     58.3163E-03    -26.7093E-03     52.2809E-03    -25.6130E-03     58.1910E-03
            1722     12.2815E-03     38.9619E-03    -13.9004E+06    -26.9118E+06     3.63601E+06     33.5177E+03    -26.5409E-03     52.2165E-03    -25.6756E-03     56.4818E-03    -26.6588E-03     52.1789E-03    -25.5982E-03     56.3722E-03
            1723     11.4045E-03     38.9090E-03    -15.2836E+06    -41.3297E+06     3.47121E+06     62.7887E+03    -26.5106E-03     52.1913E-03    -25.6807E-03     54.4421E-03    -26.5932E-03     52.0629E-03    -25.5813E-03     54.3480E-03
            1724     10.5274E-03     38.8581E-03    -16.8576E+06    -51.4504E+06     4.09768E+06     171.637E+03    -26.4358E-03     52.1182E-03    -25.6824E-03     51.8966E-03    -26.4967E-03     51.9248E-03    -25.5629E-03     51.8183E-03
            1725     9.65031E-03     38.8099E-03    -18.6238E+06    -59.2749E+06     3.71930E+06     191.213E+03    -26.3317E-03     52.0073E-03    -25.6756E-03     48.7857E-03    -26.3775E-03     51.7658E-03    -25.5440E-03     48.7209E-03
            1726     8.77317E-03     38.7648E-03    -20.7823E+06    -67.1631E+06     2.75869E+06     106.672E+03    -26.2119E-03     51.8787E-03    -25.6668E-03     45.2512E-03    -26.2466E-03     51.5932E-03    -25.5255E-03     45.1970E-03
            1727     7.89599E-03     38.7233E-03    -23.3447E+06    -73.7650E+06     657.446E+03     93.8928E+03    -26.0824E-03     51.7345E-03    -25.6521E-03     41.4082E-03    -26.1104E-03     51.4159E-03    -25.5080E-03     41.3639E-03
            1728     7.01876E-03     38.6856E-03    -26.1538E+06    -81.1600E+06    -2.61221E+06     125.817E+03    -25.9569E-03     51.5916E-03    -25.6347E-03     37.3105E-03    -25.9784E-03     51.2397E-03    -25.4922E-03     37.2754E-03
            1729     6.14151E-03     38.6518E-03    -29.2010E+06    -89.3038E+06    -6.98191E+06     124.693E+03    -25.8400E-03     51.4553E-03    -25.6153E-03     33.0135E-03    -25.8547E-03     51.0696E-03    -25.4784E-03     32.9857E-03
            1730     5.26421E-03     38.6222E-03    -32.4722E+06    -97.4557E+06    -12.3510E+06     105.532E+03    -25.7347E-03     51.3284E-03    -25.5937E-03     28.5751E-03    -25.7434E-03     50.9116E-03    -25.4670E-03     28.5535E-03
            1731     4.38688E-03     38.5970E-03    -35.8782E+06    -106.051E+06    -18.6530E+06     80.2114E+03    -25.6470E-03     51.2177E-03    -25.5707E-03     24.0173E-03    -25.6491E-03     50.7701E-03    -25.4582E-03     24.0007E-03
            1732     3.50952E-03     38.5761E-03    -39.2760E+06    -113.750E+06    -25.8998E+06     40.9517E+03    -25.5769E-03     51.1211E-03    -25.5442E-03     19.3720E-03    -25.5729E-03     50.6489E-03    -25.4518E-03     19.3594E-03
            1733     2.63215E-03     38.5597E-03    -42.4164E+06    -120.112E+06    -33.6515E+06     21.5966E+03    -25.5254E-03     51.0403E-03    -25.5148E-03     14.6630E-03    -25.5157E-03     50.5511E-03    -25.4474E-03     14.6539E-03
            1734     1.75477E-03     38.5479E-03    -44.9646E+06    -124.735E+06    -40.6421E+06     18.1845E+03    -25.4906E-03     50.9782E-03    -25.4876E-03     9.93544E-03    -25.4761E-03     50.4791E-03    -25.4447E-03     9.92968E-03
            1735     877.388E-06     38.5407E-03    -46.6312E+06    -127.833E+06    -45.4673E+06     11.6871E+03    -25.4739E-03     50.9400E-03    -25.4661E-03     5.41470E-03    -25.4559E-03     50.4345E-03    -25.4404E-03     5.41169E-03
            1736     16.6675E-03     38.2143E-03    -3.63865E+06     113.961E+06     65.6519E+06     15.1127E+03    -25.4207E-03     51.2041E-03    -25.7834E-03     24.1295E-03    -25.7816E-03     51.7662E-03    -25.6151E-03     24.0575E-03
            1737     15.7903E-03     38.1794E-03    -7.04195E+06     109.883E+06     49.2903E+06     40.8278E+03    -25.7015E-03     51.4147E-03    -25.7132E-03     42.8607E-03    -26.1062E-03     52.0416E-03    -25.6159E-03     42.7601E-03
            1738     14.9131E-03     38.1329E-03    -9.75268E+06     88.9900E+06     28.1579E+06     63.3727E+03    -26.1114E-03     51.7513E-03    -25.6399E-03     55.0953E-03    -26.4840E-03     52.3236E-03    -25.6140E-03     54.9750E-03
            1739     14.0359E-03     38.0746E-03    -11.5542E+06     37.2628E+06     9.61908E+06     74.3550E+03    -26.4736E-03     52.0907E-03    -25.6171E-03     60.2274E-03    -26.7466E-03     52.4271E-03    -25.6063E-03     60.0951E-03
            1740     13.1589E-03     38.0183E-03    -12.7570E+06    -9.58932E+06     2.64964E+06     67.4552E+03    -26.5982E-03     52.2348E-03    -25.6366E-03     58.2043E-03    -26.7642E-03     52.3137E-03    -25.5909E-03     58.0793E-03
            1741     12.2819E-03     37.9637E-03    -13.9502E+06    -26.9038E+06     3.59161E+06     69.4369E+03    -26.5882E-03     52.2361E-03    -25.6479E-03     56.3525E-03    -26.7061E-03     52.1985E-03    -25.5707E-03     56.2433E-03
            1742     11.4049E-03     37.9108E-03    -15.3319E+06    -41.3765E+06     3.41174E+06     101.970E+03    -26.5485E-03     52.1959E-03    -25.6473E-03     54.2959E-03    -26.6310E-03     52.0671E-03    -25.5480E-03     54.2024E-03
            1743     10.5278E-03     37.8600E-03    -16.8951E+06    -51.4584E+06     4.00238E+06     68.6489E+03    -26.4626E-03     52.1055E-03    -25.6430E-03     51.7399E-03    -26.5233E-03     51.9121E-03    -25.5239E-03     51.6605E-03
            1744     9.65073E-03     37.8119E-03    -18.7027E+06    -59.2538E+06     3.61214E+06     60.5001E+03    -26.3465E-03     51.9767E-03    -25.6303E-03     48.6182E-03    -26.3924E-03     51.7355E-03    -25.4992E-03     48.5518E-03
            1745     8.77361E-03     37.7669E-03    -20.8356E+06    -67.1344E+06     2.70786E+06     131.153E+03    -26.2142E-03     51.8302E-03    -25.6160E-03     45.0727E-03    -26.2490E-03     51.5448E-03    -25.4749E-03     45.0189E-03
            1746     7.89643E-03     37.7255E-03    -23.3503E+06    -73.7397E+06     614.553E+03     134.489E+03    -26.0715E-03     51.6671E-03    -25.5956E-03     41.2285E-03    -26.0994E-03     51.3486E-03    -25.4518E-03     41.1849E-03
            1747     7.01920E-03     37.6878E-03    -26.1777E+06    -81.1566E+06    -2.67026E+06     118.841E+03    -25.9330E-03     51.5059E-03    -25.5729E-03     37.1350E-03    -25.9544E-03     51.1540E-03    -25.4306E-03     37.1000E-03
            1748     6.14191E-03     37.6542E-03    -29.2395E+06    -89.2592E+06    -7.03247E+06     124.798E+03    -25.8036E-03     51.3521E-03    -25.5486E-03     32.8477E-03    -25.8184E-03     50.9667E-03    -25.4119E-03     32.8202E-03
            1749     5.26458E-03     37.6247E-03    -32.5044E+06    -97.4117E+06    -12.3956E+06     115.363E+03    -25.6866E-03     51.2091E-03    -25.5225E-03     28.4242E-03    -25.6954E-03     50.7926E-03    -25.3961E-03     28.4029E-03
            1750     4.38721E-03     37.5995E-03    -35.9087E+06    -105.975E+06    -18.7078E+06     84.9637E+03    -25.5883E-03     51.0838E-03    -25.4955E-03     23.8858E-03    -25.5905E-03     50.6366E-03    -25.3833E-03     23.8693E-03
            1751     3.50980E-03     37.5788E-03    -39.3042E+06    -113.694E+06    -25.9523E+06     44.7564E+03    -25.5093E-03     50.9750E-03    -25.4657E-03     19.2629E-03    -25.5054E-03     50.5032E-03    -25.3736E-03     19.2504E-03
            1752     2.63237E-03     37.5624E-03    -42.4355E+06    -120.096E+06    -33.6811E+06     28.1239E+03    -25.4508E-03     50.8848E-03    -25.4339E-03     14.5784E-03    -25.4411E-03     50.3957E-03    -25.3666E-03     14.5695E-03
            1753     1.75492E-03     37.5507E-03    -44.9796E+06    -124.707E+06    -40.6659E+06     22.7750E+03    -25.4106E-03     50.8153E-03    -25.4047E-03     9.87732E-03    -25.3962E-03     50.3165E-03    -25.3620E-03     9.87167E-03
            1754     877.462E-06     37.5434E-03    -46.6504E+06    -127.807E+06    -45.4840E+06     15.7061E+03    -25.3906E-03     50.7726E-03    -25.3820E-03     5.38297E-03    -25.3727E-03     50.2673E-03    -25.3565E-03     5.38004E-03
            1755     16.6676E-03     37.2158E-03    -3.64739E+06     113.942E+06     65.6412E+06     25.5452E+03    -25.5022E-03     51.2813E-03    -25.7791E-03     24.0942E-03    -25.8630E-03     51.8433E-03    -25.6108E-03     24.0218E-03
            1756     15.7904E-03     37.1809E-03    -7.04483E+06     109.846E+06     49.2564E+06     58.2883E+03    -25.7818E-03     51.4858E-03    -25.7040E-03     42.7907E-03    -26.1862E-03     52.1123E-03    -25.6068E-03     42.6897E-03
            1757     14.9133E-03     37.1345E-03    -9.74104E+06     88.9756E+06     28.1291E+06     103.201E+03    -26.1887E-03     51.8141E-03    -25.6254E-03     54.9997E-03    -26.5610E-03     52.3860E-03    -25.5996E-03     54.8795E-03
            1758     14.0362E-03     37.0762E-03    -11.5666E+06     37.3004E+06     9.59985E+06     119.887E+03    -26.5457E-03     52.1425E-03    -25.5968E-03     60.1122E-03    -26.8184E-03     52.4788E-03    -25.5861E-03     59.9800E-03
            1759     13.1592E-03     37.0200E-03    -12.7858E+06    -9.54361E+06     2.62341E+06     101.417E+03    -26.6628E-03     52.2729E-03    -25.6101E-03     58.0694E-03    -26.8287E-03     52.3519E-03    -25.5646E-03     57.9446E-03
            1760     12.2823E-03     36.9655E-03    -13.9257E+06    -26.9135E+06     3.55944E+06     98.5512E+03    -26.6430E-03     52.2580E-03    -25.6150E-03     56.1974E-03    -26.7604E-03     52.2201E-03    -25.5380E-03     56.0884E-03
            1761     11.4053E-03     36.9127E-03    -15.2383E+06    -41.3530E+06     3.40292E+06     85.9786E+03    -26.5916E-03     52.1994E-03    -25.6078E-03     54.1218E-03    -26.6734E-03     52.0705E-03    -25.5087E-03     54.0281E-03
            1762     10.5283E-03     36.8619E-03    -16.8095E+06    -51.3736E+06     4.00293E+06     49.4781E+03    -26.4925E-03     52.0892E-03    -25.5967E-03     51.5498E-03    -26.5528E-03     51.8958E-03    -25.4779E-03     51.4702E-03
            1763     9.65125E-03     36.8139E-03    -18.7289E+06    -59.3036E+06     3.53795E+06     43.8857E+03    -26.3622E-03     51.9395E-03    -25.5773E-03     48.4175E-03    -26.4079E-03     51.6980E-03    -25.4465E-03     48.3511E-03
            1764     8.77413E-03     36.7691E-03    -20.9321E+06    -67.1886E+06     2.61227E+06     92.0413E+03    -26.2151E-03     51.7715E-03    -25.5564E-03     44.8675E-03    -26.2500E-03     51.4860E-03    -25.4156E-03     44.8134E-03
            1765     7.89695E-03     36.7278E-03    -23.4078E+06    -73.6965E+06     555.902E+03     137.744E+03    -26.0572E-03     51.5869E-03    -25.5297E-03     41.0243E-03    -26.0853E-03     51.2686E-03    -25.3861E-03     40.9810E-03
            1766     7.01970E-03     36.6902E-03    -26.1987E+06    -81.1280E+06    -2.72070E+06     134.771E+03    -25.9038E-03     51.4048E-03    -25.5010E-03     36.9361E-03    -25.9252E-03     51.0531E-03    -25.3590E-03     36.9015E-03
            1767     6.14239E-03     36.6567E-03    -29.2588E+06    -89.2274E+06    -7.07995E+06     124.031E+03    -25.7601E-03     51.2312E-03    -25.4711E-03     32.6593E-03    -25.7750E-03     50.8460E-03    -25.3347E-03     32.6319E-03
            1768     5.26501E-03     36.6273E-03     -32.514E+06    -97.3654E+06    -12.4339E+06     116.220E+03    -25.6301E-03     51.0701E-03    -25.4400E-03     28.2512E-03    -25.6389E-03     50.6539E-03    -25.3139E-03     28.2300E-03
            1769     4.38758E-03     36.6022E-03    -35.9049E+06    -105.902E+06    -18.7326E+06     94.6177E+03    -25.5201E-03     50.9288E-03    -25.4087E-03     23.7328E-03    -25.5223E-03     50.4819E-03    -25.2967E-03     23.7166E-03
            1770     3.51011E-03     36.5815E-03    -39.3049E+06    -113.635E+06    -25.9798E+06     62.1368E+03    -25.4311E-03     50.8062E-03    -25.3752E-03     19.1345E-03    -25.4272E-03     50.3348E-03    -25.2833E-03     19.1223E-03
            1771     2.63261E-03     36.5653E-03    -42.4506E+06    -120.071E+06    -33.7155E+06     39.9277E+03    -25.3644E-03     50.7048E-03    -25.3404E-03     14.4781E-03    -25.3548E-03     50.2160E-03    -25.2733E-03     14.4694E-03
            1772     1.75508E-03     36.5536E-03    -44.9987E+06    -124.676E+06    -40.6859E+06     30.5988E+03    -25.3182E-03     50.6273E-03    -25.3091E-03     9.80781E-03    -25.3039E-03     50.1287E-03    -25.2665E-03     9.80232E-03
            1773     877.546E-06     36.5464E-03    -46.6605E+06    -127.771E+06    -45.4982E+06     14.9622E+03    -25.2943E-03     50.5795E-03    -25.2852E-03     5.34445E-03    -25.2765E-03     50.0744E-03    -25.2598E-03     5.34153E-03
            1774     16.6677E-03     36.2173E-03    -3.62530E+06     113.915E+06     65.6419E+06     29.3804E+03    -25.5987E-03     51.3727E-03    -25.7739E-03     24.0525E-03    -25.9592E-03     51.9343E-03    -25.6056E-03     23.9794E-03
            1775     15.7906E-03     36.1823E-03    -7.04294E+06     109.766E+06     49.2254E+06     104.248E+03    -25.8769E-03     51.5701E-03    -25.6931E-03     42.7092E-03    -26.2809E-03     52.1960E-03    -25.5960E-03     42.6080E-03
            1776     14.9135E-03     36.1360E-03    -9.80932E+06     88.9616E+06     28.0862E+06     175.575E+03    -26.2799E-03     51.8881E-03    -25.6082E-03     54.8876E-03    -26.6521E-03     52.4599E-03    -25.5826E-03     54.7676E-03
            1777     14.0365E-03     36.0778E-03    -11.6275E+06     37.3995E+06     9.58293E+06     142.968E+03    -26.6300E-03     52.2029E-03    -25.5728E-03     59.9754E-03    -26.9029E-03     52.5394E-03    -25.5623E-03     59.8431E-03
            1778     13.1596E-03     36.0217E-03    -12.7761E+06    -9.50920E+06     2.60567E+06     95.1053E+03    -26.7374E-03     52.3163E-03    -25.5789E-03     57.9097E-03    -26.9029E-03     52.3952E-03    -25.5336E-03     57.7845E-03
            1779     12.2827E-03     35.9672E-03    -13.8886E+06    -26.8974E+06     3.53834E+06     84.9232E+03    -26.7053E-03     52.2816E-03    -25.5763E-03     56.0153E-03    -26.8223E-03     52.2436E-03    -25.4995E-03     55.9061E-03
            1780     11.4058E-03     35.9145E-03    -15.2285E+06    -41.3072E+06     3.37949E+06     73.4632E+03    -26.6398E-03     52.2013E-03    -25.5615E-03     53.9194E-03    -26.7213E-03     52.0723E-03    -25.4626E-03     53.8256E-03
            1781     10.5289E-03     35.8639E-03    -16.8287E+06    -51.3441E+06     3.96596E+06     70.2401E+03    -26.5250E-03     52.0677E-03    -25.5428E-03     51.3303E-03    -26.5851E-03     51.8743E-03    -25.4241E-03     51.2511E-03
            1782     9.65184E-03     35.8160E-03    -18.7123E+06    -59.3061E+06     3.50128E+06     78.4852E+03    -26.3781E-03     51.8939E-03    -25.5158E-03     48.1858E-03    -26.4235E-03     51.6521E-03    -25.3851E-03     48.1201E-03
            1783     8.77473E-03     35.7713E-03    -20.9127E+06    -67.2247E+06     2.56287E+06     94.7946E+03    -26.2142E-03     51.7016E-03    -25.4874E-03     44.6292E-03    -26.2487E-03     51.4158E-03    -25.3468E-03     44.5754E-03
            1784     7.89755E-03     35.7301E-03    -23.4351E+06    -73.6990E+06     493.396E+03     120.896E+03    -26.0394E-03     51.4929E-03    -25.4535E-03     40.7855E-03    -26.0674E-03     51.1746E-03    -25.3102E-03     40.7422E-03
            1785     7.02028E-03     35.6927E-03    -26.2270E+06    -81.0900E+06    -2.77850E+06     139.450E+03    -25.8694E-03     51.2873E-03    -25.4179E-03     36.7029E-03    -25.8908E-03     50.9358E-03    -25.2762E-03     36.6686E-03
            1786     6.14293E-03     35.6593E-03    -29.2775E+06    -89.1867E+06    -7.13261E+06     132.275E+03    -25.7098E-03     51.0915E-03    -25.3817E-03     32.4380E-03    -25.7247E-03     50.7065E-03    -25.2456E-03     32.4110E-03
            1787     5.26551E-03     35.6301E-03    -32.5425E+06    -97.3205E+06    -12.4867E+06     117.687E+03    -25.5649E-03     50.9097E-03    -25.3448E-03     28.0482E-03    -25.5738E-03     50.4938E-03    -25.2189E-03     28.0272E-03
            1788     4.38802E-03     35.6051E-03    -35.9384E+06    -105.844E+06    -18.7906E+06     103.664E+03    -25.4415E-03     50.7497E-03    -25.3083E-03     23.5538E-03    -25.4438E-03     50.3033E-03    -25.1966E-03     23.5379E-03
            1789     3.51048E-03     35.5845E-03    -39.3272E+06    -113.574E+06    -26.0136E+06     82.5271E+03    -25.3408E-03     50.6113E-03    -25.2705E-03     18.9843E-03    -25.3370E-03     50.1402E-03    -25.1788E-03     18.9726E-03
            1790     2.63290E-03     35.5684E-03    -42.4591E+06    -120.028E+06    -33.7198E+06     57.2819E+03    -25.2647E-03     50.4971E-03    -25.2324E-03     14.3610E-03    -25.2551E-03     50.0085E-03    -25.1654E-03     14.3527E-03
            1791     1.75528E-03     35.5567E-03    -45.0037E+06    -124.637E+06    -40.6924E+06     37.0787E+03    -25.2114E-03     50.4098E-03    -25.1984E-03     9.72686E-03    -25.1972E-03     49.9114E-03    -25.1559E-03     9.72151E-03
            1792     877.645E-06     35.5495E-03    -46.6708E+06    -127.727E+06    -45.5089E+06     16.3818E+03    -25.1830E-03     50.3559E-03    -25.1728E-03     5.29976E-03    -25.1653E-03     49.8510E-03    -25.1475E-03     5.29690E-03
            1793     16.6678E-03     35.2186E-03    -3.69433E+06     113.812E+06     65.5903E+06     89.9569E+03    -25.7129E-03     51.4808E-03    -25.7679E-03     24.0031E-03    -26.0733E-03     52.0420E-03    -25.5996E-03     23.9300E-03
            1794     15.7908E-03     35.1837E-03    -7.21005E+06     109.668E+06     49.1406E+06     215.733E+03    -25.9894E-03     51.6698E-03    -25.6804E-03     42.6131E-03    -26.3937E-03     52.2953E-03    -25.5832E-03     42.5124E-03
            1795     14.9138E-03     35.1374E-03    -9.91692E+06     89.0643E+06     28.0708E+06     179.722E+03    -26.3867E-03     51.9748E-03    -25.5881E-03     54.7554E-03    -26.7592E-03     52.5468E-03    -25.5625E-03     54.6347E-03
            1796     14.0369E-03     35.0793E-03    -11.6118E+06     37.5051E+06     9.59420E+06     84.3756E+03    -26.7273E-03     52.2720E-03    -25.5447E-03     59.8139E-03    -26.9998E-03     52.6086E-03    -25.5343E-03     59.6803E-03
            1797     13.1601E-03     35.0232E-03    -12.7402E+06    -9.49493E+06     2.59049E+06     76.4686E+03    -26.8225E-03     52.3650E-03    -25.5425E-03     57.7216E-03    -26.9875E-03     52.4436E-03    -25.4973E-03     57.5959E-03
            1798     12.2833E-03     34.9689E-03    -13.8725E+06    -26.8712E+06     3.51488E+06     83.4658E+03    -26.7758E-03     52.3071E-03    -25.5313E-03     55.8014E-03    -26.8924E-03     52.2688E-03    -25.4546E-03     55.6921E-03
            1799     11.4064E-03     34.9163E-03    -15.2156E+06    -41.2896E+06     3.35043E+06     90.0677E+03    -26.6937E-03     52.2015E-03    -25.5078E-03     53.6818E-03    -26.7748E-03     52.0723E-03    -25.4091E-03     53.5883E-03
            1800     10.5295E-03     34.8659E-03    -16.8082E+06    -51.3259E+06     3.93611E+06     94.0791E+03    -26.5609E-03     52.0412E-03    -25.4803E-03     51.0728E-03    -26.6206E-03     51.8476E-03    -25.3618E-03     50.9941E-03
            1801     9.65252E-03     34.8181E-03    -18.7097E+06    -59.3038E+06     3.46096E+06     100.167E+03    -26.3956E-03     51.8401E-03    -25.4446E-03     47.9144E-03    -26.4406E-03     51.5982E-03    -25.3142E-03     47.8492E-03
            1802     8.77543E-03     34.7736E-03    -20.9134E+06    -67.2293E+06     2.51856E+06     122.664E+03    -26.2126E-03     51.6203E-03    -25.4077E-03     44.3505E-03    -26.2468E-03     51.3343E-03    -25.2673E-03     44.2974E-03
            1803     7.89825E-03     34.7326E-03    -23.4281E+06    -73.6925E+06     443.399E+03     136.390E+03    -26.0183E-03     51.3838E-03    -25.3655E-03     40.5069E-03    -26.0460E-03     51.0654E-03    -25.2224E-03     40.4641E-03
            1804     7.02095E-03     34.6953E-03    -26.2335E+06    -81.0682E+06    -2.83808E+06     142.083E+03    -25.8289E-03     51.1510E-03    -25.3221E-03     36.4323E-03    -25.8502E-03     50.7996E-03    -25.1807E-03     36.3983E-03
            1805     6.14357E-03     34.6621E-03    -29.2830E+06    -89.1409E+06    -7.18788E+06     145.434E+03    -25.6512E-03     50.9298E-03    -25.2786E-03     32.1833E-03    -25.6659E-03     50.5450E-03    -25.1429E-03     32.1566E-03
            1806     5.26609E-03     34.6330E-03    -32.5456E+06    -97.2742E+06    -12.5272E+06     137.188E+03    -25.4894E-03     50.7247E-03    -25.2352E-03     27.8159E-03    -25.4983E-03     50.3090E-03    -25.1096E-03     27.7954E-03
            1807     4.38853E-03     34.6082E-03    -35.9503E+06    -105.787E+06    -18.8216E+06     121.508E+03    -25.3507E-03     50.5437E-03    -25.1930E-03     23.3503E-03    -25.3531E-03     50.0975E-03    -25.0816E-03     23.3348E-03
            1808     3.51090E-03     34.5877E-03    -39.3420E+06    -113.506E+06    -26.0375E+06     91.9138E+03    -25.2367E-03     50.3870E-03    -25.1503E-03     18.8150E-03    -25.2331E-03     49.9163E-03    -25.0589E-03     18.8035E-03
            1809     2.63322E-03     34.5716E-03    -42.4648E+06    -119.975E+06    -33.7322E+06     63.5621E+03    -25.1500E-03     50.2583E-03    -25.1083E-03     14.2297E-03    -25.1405E-03     49.7700E-03    -25.0414E-03     14.2216E-03
            1810     1.75550E-03     34.5600E-03    -45.0032E+06    -124.590E+06    -40.7006E+06     48.9122E+03    -25.0888E-03     50.1603E-03    -25.0715E-03     9.63649E-03    -25.0746E-03     49.6621E-03    -25.0291E-03     9.63137E-03
            1811     877.759E-06     34.5529E-03    -46.6676E+06    -127.674E+06    -45.5200E+06     29.3533E+03    -25.0556E-03     50.0995E-03    -25.0439E-03     5.24988E-03    -25.0379E-03     49.5949E-03    -25.0187E-03     5.24722E-03
            1812     16.6679E-03     34.2198E-03    -3.81073E+06     113.642E+06     65.5034E+06     219.932E+03    -25.8488E-03     51.6097E-03    -25.7610E-03     23.9425E-03    -26.2093E-03     52.1702E-03    -25.5927E-03     23.8701E-03
            1813     15.7910E-03     34.1849E-03    -7.18850E+06     109.731E+06     49.1705E+06     217.271E+03    -26.1229E-03     51.7884E-03    -25.6655E-03     42.4988E-03    -26.5268E-03     52.4138E-03    -25.5683E-03     42.3970E-03
            1814     14.9142E-03     34.1388E-03    -9.75483E+06     89.2244E+06     28.1594E+06     88.9490E+03    -26.5106E-03     52.0750E-03    -25.5645E-03     54.5986E-03    -26.8821E-03     52.6470E-03    -25.5389E-03     54.4760E-03
            1815     14.0374E-03     34.0807E-03    -11.5050E+06     37.5369E+06     9.61205E+06     69.4950E+03    -26.8391E-03     52.3510E-03    -25.5119E-03     59.6217E-03    -27.1106E-03     52.6871E-03    -25.5016E-03     59.4873E-03
            1816     13.1607E-03     34.0248E-03    -12.7063E+06    -9.47287E+06     2.57297E+06     88.1796E+03    -26.9196E-03     52.4198E-03    -25.5002E-03     57.4977E-03    -27.0840E-03     52.4979E-03    -25.4551E-03     57.3718E-03
            1817     12.2839E-03     33.9706E-03    -13.8494E+06    -26.8666E+06     3.48189E+06     95.0347E+03    -26.8555E-03     52.3347E-03    -25.4792E-03     55.5479E-03    -26.9715E-03     52.2960E-03    -25.4027E-03     55.4387E-03
            1818     11.4071E-03     33.9181E-03    -15.1987E+06    -41.2778E+06     3.31617E+06     113.606E+03    -26.7541E-03     52.1998E-03    -25.4457E-03     53.4026E-03    -26.8347E-03     52.0703E-03    -25.3472E-03     53.3095E-03
            1819     10.5303E-03     33.8679E-03    -16.8024E+06    -51.3101E+06     3.89752E+06     124.161E+03    -26.6007E-03     52.0090E-03    -25.4082E-03     50.7733E-03    -26.6600E-03     51.8152E-03    -25.2900E-03     50.6952E-03
            1820     9.65331E-03     33.8203E-03    -18.6970E+06    -59.2969E+06     3.42038E+06     137.983E+03    -26.4141E-03     51.7768E-03    -25.3627E-03     47.6021E-03    -26.4587E-03     51.5346E-03    -25.2325E-03     47.5376E-03
            1821     8.77623E-03     33.7760E-03    -20.9036E+06    -67.2284E+06     2.47381E+06     153.440E+03    -26.2093E-03     51.5254E-03    -25.3161E-03     44.0324E-03    -26.2432E-03     51.2392E-03    -25.1760E-03     43.9799E-03
            1822     7.89904E-03     33.7351E-03    -23.4276E+06    -73.6648E+06     394.764E+03     163.841E+03    -25.9927E-03     51.2572E-03    -25.2646E-03     40.1907E-03    -26.0201E-03     50.9389E-03    -25.1218E-03     40.1485E-03
            1823     7.02172E-03     33.6981E-03    -26.2320E+06    -81.0368E+06    -2.89080E+06     160.931E+03    -25.7813E-03     50.9937E-03    -25.2124E-03     36.1265E-03    -25.8024E-03     50.6423E-03    -25.0713E-03     36.0930E-03
            1824     6.14429E-03     33.6650E-03    -29.2849E+06    -89.1076E+06    -7.24589E+06     161.274E+03    -25.5827E-03     50.7436E-03    -25.1609E-03     31.8959E-03    -25.5973E-03     50.3589E-03    -25.0254E-03     31.8697E-03
            1825     5.26675E-03     33.6361E-03    -32.5437E+06    -97.2250E+06    -12.5635E+06     163.726E+03    -25.4019E-03     50.5122E-03    -25.1103E-03     27.5541E-03    -25.4107E-03     50.0968E-03    -24.9850E-03     27.5342E-03
            1826     4.38911E-03     33.6115E-03    -35.9385E+06    -105.715E+06    -18.8297E+06     143.890E+03    -25.2462E-03     50.3080E-03    -25.0618E-03     23.1208E-03    -25.2486E-03     49.8621E-03    -24.9505E-03     23.1058E-03
            1827     3.51138E-03     33.5911E-03    -39.3284E+06    -113.429E+06    -26.0547E+06     109.735E+03    -25.1176E-03     50.1313E-03    -25.0137E-03     18.6241E-03    -25.1140E-03     49.6609E-03    -24.9225E-03     18.6130E-03
            1828     2.63359E-03     33.5752E-03    -42.4682E+06    -119.920E+06    -33.7689E+06     84.4591E+03    -25.0192E-03     49.9866E-03    -24.9674E-03     14.0818E-03    -25.0097E-03     49.4986E-03    -24.9008E-03     14.0740E-03
            1829     1.75576E-03     33.5637E-03    -45.0158E+06    -124.530E+06    -40.7250E+06     61.7841E+03    -24.9495E-03     49.8770E-03    -24.9275E-03     9.53458E-03    -24.9354E-03     49.3792E-03    -24.8853E-03     9.52971E-03
            1830     877.886E-06     33.5566E-03    -46.6794E+06    -127.601E+06    -45.5200E+06     42.0453E+03    -24.9110E-03     49.8089E-03    -24.8979E-03     5.19384E-03    -24.8935E-03     49.3048E-03    -24.8728E-03     5.19140E-03
            1831     16.6680E-03     33.2208E-03    -3.53612E+06     113.602E+06     65.5145E+06     222.849E+03    -26.0101E-03     51.7626E-03    -25.7525E-03     23.8708E-03    -26.3689E-03     52.3221E-03    -25.5845E-03     23.7973E-03
            1832     15.7913E-03     33.1861E-03    -6.83264E+06     109.899E+06     49.3473E+06     137.850E+03    -26.2763E-03     51.9246E-03    -25.6482E-03     42.3643E-03    -26.6785E-03     52.5495E-03    -25.5509E-03     42.2601E-03
            1833     14.9146E-03     33.1400E-03    -9.56185E+06     89.2442E+06     28.2163E+06     134.320E+03    -26.6528E-03     52.1900E-03    -25.5372E-03     54.4141E-03    -27.0229E-03     52.7612E-03    -25.5117E-03     54.2910E-03
            1834     14.0379E-03     33.0821E-03    -11.4518E+06     37.6066E+06     9.61765E+06     151.181E+03    -26.9668E-03     52.4409E-03    -25.4741E-03     59.3959E-03    -27.2376E-03     52.7766E-03    -25.4639E-03     59.2620E-03
            1835     13.1613E-03     33.0263E-03    -12.6757E+06    -9.43927E+06     2.55320E+06     116.312E+03    -27.0295E-03     52.4809E-03    -25.4514E-03     57.2370E-03    -27.1932E-03     52.5587E-03    -25.4066E-03     57.1111E-03
            1836     12.2847E-03     32.9722E-03    -13.8313E+06    -26.8665E+06     3.44002E+06     124.921E+03    -26.9449E-03     52.3642E-03    -25.4192E-03     55.2559E-03    -27.0603E-03     52.3250E-03    -25.3430E-03     55.1470E-03
            1837     11.4080E-03     32.9200E-03    -15.1914E+06    -41.2700E+06     3.27160E+06     146.974E+03    -26.8211E-03     52.1956E-03    -25.3745E-03     53.0834E-03    -26.9012E-03     52.0658E-03    -25.2763E-03     52.9908E-03
            1838     10.5311E-03     32.8699E-03    -16.7925E+06    -51.2950E+06     3.85119E+06     163.319E+03    -26.6442E-03     51.9700E-03    -25.3258E-03     50.4326E-03    -26.7030E-03     51.7759E-03    -25.2078E-03     50.3553E-03
            1839     9.65421E-03     32.8225E-03    -18.6929E+06    -59.2876E+06     3.36789E+06     176.449E+03    -26.4332E-03     51.7024E-03    -25.2692E-03     47.2474E-03    -26.4774E-03     51.4600E-03    -25.1392E-03     47.1838E-03
            1840     8.77715E-03     32.7784E-03    -20.8985E+06    -67.2175E+06     2.42289E+06     197.925E+03    -26.2032E-03     51.4150E-03    -25.2118E-03     43.6714E-03    -26.2367E-03     51.1287E-03    -25.0719E-03     43.6199E-03
            1841     7.89995E-03     32.7378E-03    -23.4243E+06    -73.6262E+06     341.355E+03     203.607E+03    -25.9614E-03     51.1113E-03    -25.1499E-03     39.8326E-03    -25.9886E-03     50.7930E-03    -25.0075E-03     39.7914E-03
            1842     7.02260E-03     32.7010E-03    -26.2406E+06    -80.9879E+06    -2.94640E+06     194.135E+03    -25.7259E-03     50.8139E-03    -25.0880E-03     35.7808E-03    -25.7468E-03     50.4627E-03    -24.9472E-03     35.7481E-03
            1843     6.14511E-03     32.6682E-03    -29.3048E+06    -89.0783E+06    -7.30639E+06     193.644E+03    -25.5042E-03     50.5317E-03    -25.0275E-03     31.5710E-03    -25.5188E-03     50.1472E-03    -24.8923E-03     31.5456E-03
            1844     5.26749E-03     32.6395E-03    -32.5661E+06    -97.1613E+06    -12.6358E+06     186.754E+03    -25.3019E-03     50.2706E-03    -24.9687E-03     27.2583E-03    -25.3107E-03     49.8555E-03    -24.8438E-03     27.2390E-03
            1845     4.38976E-03     32.6150E-03    -35.9453E+06    -105.632E+06    -18.8929E+06     156.636E+03    -25.1272E-03     50.0403E-03    -24.9131E-03     22.8612E-03    -25.1296E-03     49.5949E-03    -24.8023E-03     22.8466E-03
            1846     3.51192E-03     32.5948E-03    -39.3218E+06    -113.368E+06    -26.0919E+06     140.484E+03    -24.9827E-03     49.8420E-03    -24.8593E-03     18.4069E-03    -24.9791E-03     49.3720E-03    -24.7683E-03     18.3964E-03
            1847     2.63401E-03     32.5790E-03    -42.4556E+06    -119.844E+06    -33.7783E+06     127.064E+03    -24.8714E-03     49.6798E-03    -24.8084E-03     13.9127E-03    -24.8620E-03     49.1921E-03    -24.7419E-03     13.9057E-03
            1848     1.75604E-03     32.5676E-03    -45.0137E+06    -124.442E+06    -40.7238E+06     87.0924E+03    -24.7921E-03     49.5572E-03    -24.7650E-03     9.41776E-03    -24.7782E-03     49.0597E-03    -24.7229E-03     9.41330E-03
            1849     878.032E-06     32.5605E-03    -46.6935E+06    -127.509E+06    -45.5322E+06     48.8770E+03    -24.7476E-03     49.4808E-03    -24.7332E-03     5.12942E-03    -24.7303E-03     48.9771E-03    -24.7083E-03     5.12712E-03
            1850     16.6682E-03     32.2217E-03    -3.47378E+06     113.615E+06     65.4883E+06     129.914E+03    -26.1922E-03     51.9350E-03    -25.7428E-03     23.7869E-03    -26.5505E-03     52.4944E-03    -25.5751E-03     23.7109E-03
            1851     15.7916E-03     32.1870E-03    -6.89844E+06     109.939E+06     49.3459E+06     196.214E+03    -26.4489E-03     52.0772E-03    -25.6283E-03     42.2071E-03    -26.8509E-03     52.7019E-03    -25.5310E-03     42.1023E-03
            1852     14.9150E-03     32.1411E-03    -9.66123E+06     89.2124E+06     28.1507E+06     239.100E+03    -26.8148E-03     52.3206E-03    -25.5058E-03     54.1992E-03    -27.1846E-03     52.8912E-03    -25.4804E-03     54.0763E-03
            1853     14.0385E-03     32.0833E-03    -11.4570E+06     37.7603E+06     9.61755E+06     209.363E+03    -27.1112E-03     52.5419E-03    -25.4307E-03     59.1336E-03    -27.3814E-03     52.8776E-03    -25.4207E-03     58.9997E-03
            1854     13.1620E-03     32.0277E-03    -12.6566E+06    -9.40545E+06     2.51823E+06     167.553E+03    -27.1530E-03     52.5486E-03    -25.3957E-03     56.9351E-03    -27.3159E-03     52.6260E-03    -25.3511E-03     56.8095E-03
            1855     12.2855E-03     31.9738E-03    -13.8261E+06    -26.8490E+06     3.38804E+06     169.473E+03    -27.0446E-03     52.3955E-03    -25.3509E-03     54.9188E-03    -27.1593E-03     52.3560E-03    -25.2750E-03     54.8105E-03
            1856     11.4089E-03     31.9218E-03    -15.1865E+06    -41.2684E+06     3.21296E+06     187.652E+03    -26.8952E-03     52.1888E-03    -25.2936E-03     52.7167E-03    -26.9747E-03     52.0585E-03    -25.1956E-03     52.6249E-03
            1857     10.5321E-03     31.8720E-03    -16.7919E+06    -51.2742E+06     3.79352E+06     207.933E+03    -26.6918E-03     51.9241E-03    -25.2323E-03     50.0430E-03    -26.7501E-03     51.7297E-03    -25.1146E-03     49.9666E-03
            1858     9.65523E-03     31.8249E-03    -18.6907E+06    -59.2771E+06     3.30466E+06     225.693E+03    -26.4533E-03     51.6165E-03    -25.1632E-03     46.8423E-03    -26.4971E-03     51.3738E-03    -25.0336E-03     46.7797E-03
            1859     8.77818E-03     31.7810E-03    -20.9022E+06    -67.2043E+06     2.35691E+06     249.885E+03    -26.1948E-03     51.2886E-03    -25.0937E-03     43.2590E-03    -26.2280E-03     51.0021E-03    -24.9542E-03     43.2086E-03
            1860     7.90097E-03     31.7407E-03    -23.4324E+06    -73.5717E+06     274.515E+03     256.971E+03    -25.9249E-03     50.9451E-03    -25.0202E-03     39.4233E-03    -25.9519E-03     50.6269E-03    -24.8782E-03     39.3832E-03
            1861     7.02358E-03     31.7041E-03    -26.2496E+06    -80.9284E+06    -3.01297E+06     243.548E+03    -25.6625E-03     50.6099E-03    -24.9474E-03     35.3845E-03    -25.6833E-03     50.2589E-03    -24.8071E-03     35.3529E-03
            1862     6.14603E-03     31.6716E-03    -29.3110E+06    -89.0360E+06    -7.37190E+06     236.395E+03    -25.4152E-03     50.2920E-03    -24.8768E-03     31.1979E-03    -25.4296E-03     49.9077E-03    -24.7421E-03     31.1734E-03
            1863     5.26833E-03     31.6431E-03    -32.5640E+06    -97.0696E+06    -12.7191E+06     214.906E+03    -25.1888E-03     49.9977E-03    -24.8088E-03     26.9188E-03    -25.1975E-03     49.5830E-03    -24.6845E-03     26.9002E-03
            1864     4.39049E-03     31.6188E-03    -35.9479E+06    -105.553E+06    -18.9825E+06     182.846E+03    -24.9931E-03     49.7384E-03    -24.7453E-03     22.5631E-03    -24.9954E-03     49.2934E-03    -24.6350E-03     22.5491E-03
            1865     3.51254E-03     31.5988E-03    -39.3278E+06    -113.316E+06    -26.1430E+06     175.085E+03    -24.8307E-03     49.5157E-03    -24.6849E-03     18.1573E-03    -24.8270E-03     49.0459E-03    -24.5943E-03     18.1475E-03
            1866     2.63449E-03     31.5831E-03    -42.4462E+06    -119.745E+06    -33.8024E+06     163.792E+03    -24.7046E-03     49.3332E-03    -24.6287E-03     13.7187E-03    -24.6952E-03     48.8461E-03    -24.5625E-03     13.7123E-03
            1867     1.75636E-03     31.5718E-03    -44.9824E+06    -124.323E+06    -40.7321E+06     129.236E+03    -24.6144E-03     49.1958E-03    -24.5814E-03     9.28382E-03    -24.6004E-03     48.6989E-03    -24.5395E-03     9.28001E-03
            1868     878.194E-06     31.5649E-03    -46.6566E+06    -127.378E+06    -45.5168E+06     74.8640E+03    -24.5633E-03     49.1104E-03    -24.5471E-03     5.05550E-03    -24.5460E-03     48.6073E-03    -24.5223E-03     5.05359E-03
            1869     16.6684E-03     31.2224E-03    -3.61468E+06     113.451E+06     65.4228E+06     91.3058E+03    -26.3987E-03     52.1310E-03    -25.7323E-03     23.6861E-03    -26.7570E-03     52.6895E-03    -25.5645E-03     23.6081E-03
            1870     15.7920E-03     31.1878E-03    -6.97822E+06     109.851E+06     49.2884E+06     272.345E+03    -26.6487E-03     52.2543E-03    -25.6056E-03     42.0212E-03    -27.0502E-03     52.8781E-03    -25.5084E-03     41.9157E-03
            1871     14.9156E-03     31.1420E-03    -9.66361E+06     89.3077E+06     28.1407E+06     279.904E+03    -26.9982E-03     52.4684E-03    -25.4701E-03     53.9472E-03    -27.3673E-03     53.0386E-03    -25.4449E-03     53.8236E-03
            1872     14.0392E-03     31.0844E-03    -11.4623E+06     37.8678E+06     9.58825E+06     233.664E+03    -27.2737E-03     52.6551E-03    -25.3814E-03     58.8271E-03    -27.5433E-03     52.9906E-03    -25.3717E-03     58.6926E-03
            1873     13.1629E-03     31.0290E-03    -12.6616E+06    -9.34500E+06     2.46908E+06     229.253E+03    -27.2915E-03     52.6239E-03    -25.3324E-03     56.5830E-03    -27.4537E-03     52.7008E-03    -25.2881E-03     56.4579E-03
            1874     12.2865E-03     30.9754E-03    -13.8260E+06    -26.8259E+06     3.32758E+06     220.947E+03    -27.1558E-03     52.4293E-03    -25.2735E-03     54.5278E-03    -27.2698E-03     52.3893E-03    -25.1979E-03     54.4200E-03
            1875     11.4099E-03     30.9236E-03    -15.1947E+06    -41.2574E+06     3.14356E+06     241.297E+03    -26.9774E-03     52.1794E-03    -25.2020E-03     52.2942E-03    -27.0562E-03     52.0487E-03    -25.1044E-03     52.2032E-03
            1876     10.5332E-03     30.8741E-03    -16.8030E+06    -51.2503E+06     3.72013E+06     257.691E+03    -26.7442E-03     51.8707E-03    -25.1265E-03     49.5960E-03    -26.8019E-03     51.6761E-03    -25.0092E-03     49.5205E-03
            1877     9.65638E-03     30.8273E-03    -18.7003E+06    -59.2662E+06     3.22721E+06     278.407E+03    -26.4749E-03     51.5183E-03    -25.0435E-03     46.3776E-03    -26.5181E-03     51.2755E-03    -24.9143E-03     46.3162E-03
            1878     8.77935E-03     30.7837E-03    -20.9047E+06    -67.1908E+06     2.27957E+06     312.278E+03    -26.1849E-03     51.1454E-03    -24.9605E-03     42.7869E-03    -26.2176E-03     50.8587E-03    -24.8213E-03     42.7378E-03
            1879     7.90212E-03     30.7437E-03    -23.4285E+06    -73.4982E+06     201.004E+03     315.313E+03    -25.8837E-03     50.7576E-03    -24.8738E-03     38.9561E-03    -25.9104E-03     50.4396E-03    -24.7323E-03     38.9172E-03
            1880     7.02469E-03     30.7075E-03    -26.2335E+06    -80.8619E+06    -3.09095E+06     297.034E+03    -25.5908E-03     50.3795E-03    -24.7888E-03     34.9330E-03    -25.6112E-03     50.0287E-03    -24.6489E-03     34.9025E-03
            1881     6.14708E-03     30.6752E-03    -29.2833E+06    -88.9681E+06    -7.44346E+06     284.694E+03    -25.3144E-03     50.0213E-03    -24.7069E-03     30.7741E-03    -25.3285E-03     49.6372E-03    -24.5727E-03     30.7507E-03
            1882     5.26928E-03     30.6470E-03    -32.5358E+06    -96.9673E+06    -12.7793E+06     259.711E+03    -25.0615E-03     49.6902E-03    -24.6287E-03     26.5337E-03    -25.0700E-03     49.2760E-03    -24.5049E-03     26.5160E-03
            1883     4.39132E-03     30.6229E-03    -35.9212E+06    -105.476E+06    -19.0467E+06     238.609E+03    -24.8420E-03     49.3983E-03    -24.5563E-03     22.2258E-03    -24.8442E-03     48.9537E-03    -24.4465E-03     22.2128E-03
            1884     3.51323E-03     30.6031E-03    -39.3059E+06    -113.241E+06    -26.1951E+06     226.562E+03    -24.6592E-03     49.1477E-03    -24.4884E-03     17.8765E-03    -24.6554E-03     48.6783E-03    -24.3982E-03     17.8675E-03
            1885     2.63502E-03     30.5876E-03    -42.4307E+06    -119.634E+06    -33.8392E+06     205.009E+03    -24.5166E-03     48.9428E-03    -24.4262E-03     13.5008E-03    -24.5072E-03     48.4562E-03    -24.3604E-03     13.4951E-03
            1886     1.75673E-03     30.5765E-03    -44.9523E+06    -124.175E+06    -40.7439E+06     163.912E+03    -24.4143E-03     48.7887E-03    -24.3744E-03     9.13355E-03    -24.4004E-03     48.2926E-03    -24.3329E-03     9.13030E-03
            1887     878.379E-06     30.5696E-03    -46.5884E+06    -127.193E+06    -45.4578E+06     97.5945E+03    -24.3558E-03     48.6931E-03    -24.3373E-03     4.97276E-03    -24.3386E-03     48.1908E-03    -24.3126E-03     4.97120E-03
            1888     16.6686E-03     30.2229E-03    -3.58710E+06     113.222E+06     65.3769E+06     60.5220E+03    -26.6360E-03     52.3564E-03    -25.7204E-03     23.5652E-03    -26.9933E-03     52.9134E-03    -25.5525E-03     23.4851E-03
            1889     15.7924E-03     30.1885E-03    -6.92560E+06     109.673E+06     49.2407E+06     256.860E+03    -26.8766E-03     52.4566E-03    -25.5799E-03     41.8021E-03    -27.2768E-03     53.0787E-03    -25.4827E-03     41.6944E-03
            1890     14.9162E-03     30.1428E-03    -9.62077E+06     89.4471E+06     28.1491E+06     348.317E+03    -27.2048E-03     52.6345E-03    -25.4296E-03     53.6524E-03    -27.5730E-03     53.2044E-03    -25.4047E-03     53.5283E-03
            1891     14.0400E-03     30.0854E-03    -11.4705E+06     37.9732E+06     9.54399E+06     300.133E+03    -27.4561E-03     52.7817E-03    -25.3255E-03     58.4705E-03    -27.7248E-03     53.1168E-03    -25.3163E-03     58.3360E-03
            1892     13.1638E-03     30.0303E-03    -12.6906E+06    -9.28243E+06     2.39847E+06     275.692E+03    -27.4463E-03     52.7072E-03    -25.2609E-03     56.1764E-03    -27.6078E-03     52.7838E-03    -25.2171E-03     56.0514E-03
            1893     12.2875E-03     29.9769E-03    -13.8489E+06    -26.7959E+06     3.24960E+06     280.624E+03    -27.2799E-03     52.4661E-03    -25.1862E-03     54.0780E-03    -27.3932E-03     52.4256E-03    -25.1110E-03     53.9710E-03
            1894     11.4111E-03     29.9255E-03    -15.2118E+06    -41.2389E+06     3.06240E+06     298.386E+03    -27.0689E-03     52.1676E-03    -25.0987E-03     51.8104E-03    -27.1470E-03     52.0365E-03    -25.0015E-03     51.7204E-03
            1895     10.5345E-03     29.8762E-03    -16.8179E+06    -51.2193E+06     3.63107E+06     317.855E+03    -26.8016E-03     51.8090E-03    -25.0074E-03     49.0865E-03    -26.8588E-03     51.6141E-03    -24.8906E-03     49.0122E-03
            1896     9.65768E-03     29.8298E-03    -18.7223E+06    -59.2536E+06     3.13149E+06     341.389E+03    -26.4974E-03     51.4061E-03    -24.9088E-03     45.8509E-03    -26.5401E-03     51.1630E-03    -24.7801E-03     45.7908E-03
            1897     8.78066E-03     29.7866E-03    -20.9222E+06    -67.1638E+06     2.18228E+06     366.198E+03    -26.1723E-03     50.9829E-03    -24.8107E-03     42.2559E-03    -26.2045E-03     50.6962E-03    -24.6720E-03     42.2080E-03
            1898     7.90342E-03     29.7469E-03    -23.4195E+06    -73.4151E+06     106.823E+03     365.500E+03    -25.8360E-03     50.5455E-03    -24.7095E-03     38.4335E-03    -25.8622E-03     50.2277E-03    -24.5686E-03     38.3958E-03
            1899     7.02594E-03     29.7110E-03    -26.2115E+06    -80.7937E+06    -3.19044E+06     357.735E+03    -25.5089E-03     50.1198E-03    -24.6109E-03     34.4305E-03    -25.5289E-03     49.7692E-03    -24.4717E-03     34.4013E-03
            1900     6.14825E-03     29.6791E-03    -29.2643E+06    -88.8787E+06    -7.53397E+06     348.836E+03    -25.2006E-03     49.7172E-03    -24.5165E-03     30.3044E-03    -25.2144E-03     49.3334E-03    -24.3829E-03     30.2823E-03
            1901     5.27034E-03     29.6512E-03    -32.5218E+06    -96.8647E+06    -12.8503E+06     327.319E+03    -24.9183E-03     49.3455E-03    -24.4272E-03     26.1072E-03    -24.9267E-03     48.9318E-03    -24.3038E-03     26.0907E-03
            1902     4.39225E-03     29.6274E-03    -35.9109E+06    -105.388E+06    -19.1138E+06     311.355E+03    -24.6725E-03     49.0174E-03    -24.3449E-03     21.8525E-03    -24.6745E-03     48.5732E-03    -24.2356E-03     21.8408E-03
            1903     3.51400E-03     29.6079E-03    -39.2848E+06    -113.129E+06    -26.2463E+06     293.051E+03    -24.4672E-03     48.7359E-03    -24.2687E-03     17.5656E-03    -24.4633E-03     48.2670E-03    -24.1789E-03     17.5578E-03
            1904     2.63562E-03     29.5926E-03    -42.3899E+06    -119.489E+06    -33.8312E+06     252.371E+03    -24.3066E-03     48.5065E-03    -24.1999E-03     13.2592E-03    -24.2972E-03     48.0205E-03    -24.1343E-03     13.2543E-03
            1905     1.75714E-03     29.5815E-03    -44.8996E+06    -123.988E+06    -40.6741E+06     184.234E+03    -24.1907E-03     48.3341E-03    -24.1434E-03     8.96680E-03    -24.1769E-03     47.8386E-03    -24.1019E-03     8.96394E-03
            1906     878.585E-06     29.5747E-03    -46.5392E+06    -126.986E+06    -45.3955E+06     100.733E+03    -24.1238E-03     48.2262E-03    -24.1025E-03     4.88093E-03    -24.1066E-03     47.7248E-03    -24.0779E-03     4.87948E-03
            1907     16.6688E-03     29.2232E-03    -3.70676E+06     113.083E+06     65.3047E+06     77.9945E+03    -26.9039E-03     52.6107E-03    -25.7069E-03     23.4186E-03    -27.2610E-03     53.1668E-03    -25.5389E-03     23.3368E-03
            1908     15.7928E-03     29.1889E-03    -7.10840E+06     109.444E+06     49.1081E+06     223.940E+03    -27.1310E-03     52.6818E-03    -25.5508E-03     41.5421E-03    -27.5307E-03     53.3024E-03    -25.4537E-03     41.4319E-03
            1909     14.9168E-03     29.1434E-03    -9.75074E+06     89.4814E+06     28.0604E+06     367.270E+03    -27.4367E-03     52.8206E-03    -25.3839E-03     53.3070E-03    -27.8043E-03     53.3898E-03    -25.3592E-03     53.1815E-03
            1910     14.0408E-03     29.0863E-03    -11.5204E+06     38.1422E+06     9.48904E+06     373.823E+03    -27.6596E-03     52.9222E-03    -25.2626E-03     58.0550E-03    -27.9276E-03     53.2571E-03    -25.2537E-03     57.9204E-03
            1911     13.1649E-03     29.0314E-03    -12.7323E+06    -9.22076E+06     2.30949E+06     332.076E+03    -27.6183E-03     52.7987E-03    -25.1804E-03     55.7057E-03    -27.7789E-03     52.8747E-03    -25.1370E-03     55.5810E-03
            1912     12.2887E-03     28.9784E-03    -13.8871E+06    -26.7552E+06     3.15919E+06     326.762E+03    -27.4168E-03     52.5048E-03    -25.0880E-03     53.5622E-03    -27.5293E-03     52.4638E-03    -25.0133E-03     53.4558E-03
            1913     11.4124E-03     28.9273E-03    -15.2292E+06    -41.2219E+06     2.97150E+06     349.410E+03    -27.1683E-03     52.1512E-03    -24.9829E-03     51.2621E-03    -27.2456E-03     52.0195E-03    -24.8862E-03     51.1731E-03
            1914     10.5359E-03     28.8785E-03    -16.8242E+06    -51.1929E+06     3.52820E+06     383.486E+03    -26.8624E-03     51.7364E-03    -24.8740E-03     48.5156E-03    -26.9188E-03     51.5412E-03    -24.7578E-03     48.4427E-03
            1915     9.65913E-03     28.8324E-03    -18.7159E+06    -59.2279E+06     3.02989E+06     411.692E+03    -26.5195E-03     51.2779E-03    -24.7584E-03     45.2650E-03    -26.5616E-03     51.0345E-03    -24.6302E-03     45.2063E-03
            1916     8.78213E-03     28.7896E-03    -20.9118E+06    -67.1126E+06     2.08069E+06     427.097E+03    -26.1552E-03     50.7989E-03    -24.6437E-03     41.6673E-03    -26.1869E-03     50.5121E-03    -24.5057E-03     41.6208E-03
            1917     7.90486E-03     28.7504E-03    -23.4265E+06    -73.3330E+06    -13.8394E+03     423.580E+03    -25.7800E-03     50.3067E-03    -24.5267E-03     37.8555E-03    -25.8059E-03     49.9892E-03    -24.3865E-03     37.8192E-03
            1918     7.02733E-03     28.7149E-03    -26.2164E+06    -80.7259E+06    -3.31654E+06     423.127E+03    -25.4162E-03     49.8295E-03    -24.4133E-03     33.8752E-03    -25.4359E-03     49.4792E-03    -24.2748E-03     33.8474E-03
            1919     6.14955E-03     28.6833E-03    -29.2495E+06    -88.7833E+06    -7.64579E+06     426.244E+03    -25.0731E-03     49.3784E-03    -24.3053E-03     29.7857E-03    -25.0866E-03     48.9951E-03    -24.1724E-03     29.7651E-03
            1920     5.27152E-03     28.6558E-03    -32.5009E+06    -96.7566E+06    -12.9321E+06     417.913E+03    -24.7587E-03     48.9624E-03    -24.2038E-03     25.6367E-03    -24.7668E-03     48.5492E-03    -24.0810E-03     25.6218E-03
            1921     4.39328E-03     28.6323E-03    -35.8924E+06    -105.272E+06    -19.1481E+06     400.827E+03    -24.4844E-03     48.5953E-03    -24.1109E-03     21.4407E-03    -24.4864E-03     48.1517E-03    -24.0019E-03     21.4305E-03
            1922     3.51486E-03     28.6130E-03    -39.2660E+06    -112.971E+06    -26.2525E+06     358.133E+03    -24.2544E-03     48.2800E-03    -24.0256E-03     17.2230E-03    -24.2506E-03     47.8119E-03    -23.9361E-03     17.2163E-03
            1923     2.63628E-03     28.5979E-03    -42.3559E+06    -119.298E+06    -33.8126E+06     283.917E+03    -24.0735E-03     48.0230E-03    -23.9495E-03     12.9941E-03    -24.0642E-03     47.5378E-03    -23.8841E-03     12.9898E-03
            1924     1.75759E-03     28.5871E-03    -44.8520E+06    -123.776E+06    -40.6266E+06     196.100E+03    -23.9429E-03     47.8305E-03    -23.8876E-03     8.78451E-03    -23.9291E-03     47.3360E-03    -23.8462E-03     8.78195E-03
            1925     878.816E-06     28.5804E-03    -46.4960E+06    -126.765E+06    -45.3487E+06     112.045E+03    -23.8671E-03     47.7100E-03    -23.8429E-03     4.78062E-03    -23.8501E-03     47.2095E-03    -23.8184E-03     4.77938E-03
            1926     16.6690E-03     28.2231E-03    -3.64238E+06     112.992E+06     65.3118E+06     151.801E+03    -27.2077E-03     52.8993E-03    -25.6915E-03     23.2421E-03    -27.5639E-03     53.4542E-03    -25.5235E-03     23.1590E-03
            1927     15.7933E-03     28.1890E-03    -7.06756E+06     109.280E+06     49.0721E+06     253.833E+03    -27.4170E-03     52.9350E-03    -25.5180E-03     41.2363E-03    -27.8151E-03     53.5537E-03    -25.4208E-03     41.1240E-03
            1928     14.9176E-03     28.1438E-03    -9.79206E+06     89.4191E+06     27.9648E+06     375.347E+03    -27.6954E-03     53.0278E-03    -25.3324E-03     52.9072E-03    -28.0617E-03     53.5956E-03    -25.3080E-03     52.7800E-03
            1929     14.0418E-03     28.0870E-03    -11.6086E+06      38.313E+06     9.41308E+06     424.303E+03    -27.8848E-03     53.0766E-03    -25.1918E-03     57.5793E-03    -28.1519E-03     53.4112E-03    -25.1835E-03     57.4442E-03
            1930     13.1660E-03     28.0325E-03    -12.7933E+06    -9.11021E+06     2.22465E+06     371.368E+03    -27.8063E-03     52.8966E-03    -25.0903E-03     55.1727E-03    -27.9661E-03     52.9722E-03    -25.0474E-03     55.0480E-03
            1931     12.2901E-03     27.9799E-03    -13.9079E+06    -26.7225E+06     3.07064E+06     348.119E+03    -27.5640E-03     52.5426E-03    -24.9785E-03     52.9844E-03    -27.6755E-03     52.5009E-03    -24.9043E-03     52.8782E-03
            1932     11.4139E-03     27.9292E-03    -15.2304E+06    -41.2173E+06     2.87660E+06     393.262E+03    -27.2735E-03     52.1277E-03    -24.8542E-03     50.6527E-03    -27.3499E-03     51.9954E-03    -24.7580E-03     50.5646E-03
            1933     10.5374E-03     27.8808E-03    -16.8039E+06    -51.1727E+06     3.41693E+06     439.775E+03    -26.9257E-03     51.6519E-03    -24.7262E-03     47.8834E-03    -26.9811E-03     51.4561E-03    -24.6106E-03     47.8117E-03
            1934     9.66074E-03     27.8352E-03    -18.6732E+06    -59.2012E+06     2.91569E+06     480.805E+03    -26.5402E-03     51.1322E-03    -24.5920E-03     44.6177E-03    -26.5813E-03     50.8884E-03    -24.4645E-03     44.5605E-03
            1935     8.78375E-03     27.7928E-03    -20.8711E+06    -67.0574E+06     1.97862E+06     519.405E+03    -26.1331E-03     50.5926E-03    -24.4595E-03     41.0179E-03    -26.1641E-03     50.3057E-03    -24.3221E-03     40.9733E-03
            1936     7.90645E-03     27.7541E-03    -23.3985E+06    -73.2312E+06    -121.938E+03     518.590E+03    -25.7161E-03     50.0415E-03    -24.3254E-03     37.2190E-03    -25.7415E-03     49.7242E-03    -24.1859E-03     37.1846E-03
            1937     7.02886E-03     27.7190E-03    -26.2027E+06    -80.6445E+06    -3.44341E+06     502.338E+03    -25.3122E-03     49.5081E-03    -24.1960E-03     33.2660E-03    -25.3314E-03     49.1581E-03    -24.0583E-03     33.2398E-03
            1938     6.15097E-03     27.6879E-03    -29.2391E+06    -88.6947E+06    -7.76268E+06     510.475E+03    -24.9310E-03     49.0044E-03    -24.0734E-03     29.2183E-03    -24.9442E-03     48.6215E-03    -23.9412E-03     29.1993E-03
            1939     5.27282E-03     27.6607E-03    -32.4778E+06    -96.6422E+06    -13.0071E+06     520.291E+03    -24.5820E-03     48.5408E-03    -23.9588E-03     25.1237E-03    -24.5899E-03     48.1281E-03    -23.8366E-03     25.1107E-03
            1940     4.39441E-03     27.6376E-03    -35.8590E+06    -105.114E+06    -19.1692E+06     501.488E+03    -24.2772E-03     48.1317E-03    -23.8545E-03     20.9932E-03    -24.2791E-03     47.6887E-03    -23.7459E-03     20.9847E-03
            1941     3.51580E-03     27.6187E-03    -39.2282E+06    -112.749E+06    -26.2510E+06     427.646E+03    -24.0205E-03     47.7799E-03    -23.7594E-03     16.8513E-03    -24.0168E-03     47.3128E-03    -23.6703E-03     16.8458E-03
            1942     2.63701E-03     27.6038E-03    -42.3235E+06    -119.064E+06    -33.8250E+06     320.120E+03    -23.8180E-03     47.4934E-03    -23.6754E-03     12.7069E-03    -23.8088E-03     47.0093E-03    -23.6105E-03     12.7033E-03
            1943     1.75808E-03     27.5931E-03    -44.8192E+06    -123.546E+06    -40.6467E+06     214.678E+03    -23.6716E-03     47.2794E-03    -23.6079E-03     8.58682E-03    -23.6580E-03     46.7860E-03    -23.5670E-03     8.58464E-03
            1944     879.064E-06     27.5865E-03    -46.4431E+06    -126.525E+06    -45.3167E+06     118.935E+03    -23.5868E-03     47.1462E-03    -23.5594E-03     4.67141E-03    -23.5700E-03     46.6468E-03    -23.5352E-03     4.67035E-03
            1945     16.6693E-03     27.2228E-03    -3.57676E+06     112.852E+06     65.3137E+06     178.281E+03    -27.5495E-03     53.2239E-03    -25.6744E-03     23.0325E-03    -27.9045E-03     53.7773E-03    -25.5062E-03     22.9473E-03
            1946     15.7939E-03     27.1889E-03    -7.01309E+06     109.110E+06     49.0451E+06     385.365E+03    -27.7358E-03     53.2171E-03    -25.4812E-03     40.8828E-03    -28.1321E-03     53.8336E-03    -25.3840E-03     40.7695E-03
            1947     14.9185E-03     27.1440E-03    -9.84321E+06     89.4157E+06     27.8858E+06     505.012E+03    -27.9815E-03     53.2563E-03    -25.2748E-03     52.4507E-03    -28.3464E-03     53.8228E-03    -25.2508E-03     52.3233E-03
            1948     14.0429E-03     27.0876E-03    -11.6796E+06     38.5391E+06     9.35477E+06     430.808E+03    -28.1311E-03     53.2442E-03    -25.1131E-03     57.0390E-03    -28.3972E-03     53.5785E-03    -25.1053E-03     56.9028E-03
            1949     13.1674E-03     27.0335E-03    -12.7934E+06    -9.00329E+06     2.15011E+06     351.234E+03    -28.0086E-03     52.9990E-03    -24.9904E-03     54.5712E-03    -28.1671E-03     53.0739E-03    -24.9481E-03     54.4458E-03
            1950     12.2916E-03     26.9813E-03    -13.8781E+06    -26.7065E+06     2.99093E+06     368.289E+03    -27.7201E-03     52.5778E-03    -24.8577E-03     52.3370E-03    -27.8303E-03     52.5352E-03    -24.7839E-03     52.2312E-03
            1951     11.4155E-03     26.9311E-03    -15.1901E+06    -41.2289E+06     2.78192E+06     428.101E+03    -27.3838E-03     52.0963E-03    -24.7125E-03     49.9755E-03    -27.4588E-03     51.9630E-03    -24.6168E-03     49.8882E-03
            1952     10.5392E-03     26.8831E-03    -16.7536E+06    -51.1674E+06     3.29254E+06     499.907E+03    -26.9899E-03     51.5539E-03    -24.5640E-03     47.1859E-03    -27.0441E-03     51.3575E-03    -24.4491E-03     47.1156E-03
            1953     9.66250E-03     26.8381E-03    -18.6403E+06    -59.1931E+06     2.77396E+06     573.520E+03    -26.5579E-03     50.9678E-03    -24.4099E-03     43.9075E-03    -26.5980E-03     50.7236E-03    -24.2832E-03     43.8523E-03
            1954     8.78552E-03     26.7963E-03    -20.8453E+06    -67.0075E+06     1.85010E+06     631.996E+03    -26.1049E-03     50.3632E-03    -24.2583E-03     40.3091E-03    -26.1350E-03     50.0761E-03    -24.1217E-03     40.2667E-03
            1955     7.90819E-03     26.7580E-03    -23.3666E+06    -73.1030E+06    -237.512E+03     635.733E+03    -25.6429E-03     49.7489E-03    -24.1060E-03     36.5271E-03    -25.6677E-03     49.4320E-03    -23.9673E-03     36.4949E-03
            1956     7.03052E-03     26.7235E-03    -26.1718E+06    -80.5362E+06    -3.56130E+06     616.168E+03    -25.1958E-03     49.1555E-03    -23.9597E-03     32.6052E-03    -25.2146E-03     48.8059E-03    -23.8228E-03     32.5812E-03
            1957     6.15253E-03     26.6928E-03    -29.2243E+06    -88.6047E+06    -7.87211E+06     623.754E+03    -24.7742E-03     48.5959E-03    -23.8217E-03     28.6038E-03    -24.7871E-03     48.2133E-03    -23.6902E-03     28.5869E-03
            1958     5.27422E-03     26.6661E-03    -32.4789E+06    -96.5120E+06    -13.1142E+06     635.829E+03    -24.3882E-03     48.0813E-03    -23.6931E-03     24.5694E-03    -24.3960E-03     47.6693E-03    -23.5717E-03     24.5584E-03
            1959     4.39564E-03     26.6435E-03    -35.8473E+06    -104.900E+06    -19.2611E+06     597.945E+03    -24.0506E-03     47.6272E-03    -23.5766E-03     20.5105E-03    -24.0525E-03     47.1853E-03    -23.4689E-03     20.5036E-03
            1960     3.51681E-03     26.6248E-03    -39.1857E+06    -112.471E+06    -26.2920E+06     496.025E+03    -23.7664E-03     47.2379E-03    -23.4715E-03     16.4501E-03    -23.7628E-03     46.7721E-03    -23.3830E-03     16.4458E-03
            1961     2.63779E-03     26.6103E-03    -42.2599E+06    -118.798E+06    -33.8049E+06     375.561E+03    -23.5418E-03     46.9214E-03    -23.3795E-03     12.3957E-03    -23.5327E-03     46.4385E-03    -23.3150E-03     12.3931E-03
            1962     1.75861E-03     26.5998E-03    -44.7640E+06    -123.278E+06    -40.6135E+06     261.753E+03    -23.3788E-03     46.6848E-03    -23.3060E-03     8.37250E-03    -23.3654E-03     46.1925E-03    -23.2654E-03     8.37109E-03
            1963     879.335E-06     26.5933E-03    -46.4030E+06    -126.253E+06    -45.3016E+06     139.057E+03    -23.2840E-03     46.5370E-03    -23.2531E-03     4.55345E-03    -23.2674E-03     46.0389E-03    -23.2292E-03     4.55273E-03
            1964     16.6697E-03     26.2221E-03    -3.69685E+06     112.562E+06     65.1906E+06     259.451E+03    -27.9314E-03     53.5867E-03    -25.6553E-03     22.7843E-03    -28.2856E-03     54.1383E-03    -25.4872E-03     22.6975E-03
            1965     15.7946E-03     26.1885E-03    -7.21724E+06     108.886E+06     48.9365E+06     558.812E+03    -28.0881E-03     53.5286E-03    -25.4405E-03     40.4752E-03    -28.4835E-03     54.1430E-03    -25.3433E-03     40.3612E-03
            1966     14.9194E-03     26.1439E-03    -9.91651E+06     89.6312E+06     27.8680E+06     553.288E+03    -28.2949E-03     53.5061E-03    -25.2112E-03     51.9320E-03    -28.6588E-03     54.0721E-03    -25.1874E-03     51.8031E-03
            1967     14.0442E-03     26.0879E-03    -11.5851E+06     38.8213E+06     9.36367E+06     363.414E+03    -28.3977E-03     53.4240E-03    -25.0263E-03     56.4282E-03    -28.6620E-03     53.7578E-03    -25.0190E-03     56.2900E-03
            1968     13.1688E-03     26.0343E-03    -12.6803E+06    -8.97601E+06     2.08257E+06     334.320E+03    -28.2243E-03     53.1050E-03    -24.8807E-03     53.8980E-03    -28.3807E-03     53.1785E-03    -24.8389E-03     53.7720E-03
            1969     12.2932E-03     25.9826E-03    -13.7783E+06    -26.7024E+06     2.92478E+06     399.154E+03    -27.8841E-03     52.6096E-03    -24.7255E-03     51.6214E-03    -27.9924E-03     52.5657E-03    -24.6522E-03     51.5161E-03
            1970     11.4173E-03     25.9330E-03    -15.0943E+06    -41.2549E+06     2.69935E+06     477.483E+03    -27.4972E-03     52.0554E-03    -24.5582E-03     49.2332E-03    -27.5705E-03     51.9209E-03    -24.4630E-03     49.1471E-03
            1971     10.5410E-03     25.8856E-03    -16.6829E+06    -51.2170E+06     3.15264E+06     599.475E+03    -27.0531E-03     51.4410E-03    -24.3879E-03     46.4245E-03    -27.1058E-03     51.2435E-03    -24.2737E-03     46.3563E-03
            1972     9.66441E-03     25.8411E-03    -18.6007E+06    -59.1944E+06     2.62002E+06     722.636E+03    -26.5711E-03     50.7838E-03    -24.2128E-03     43.1356E-03    -26.6100E-03     50.5391E-03    -24.0869E-03     43.0831E-03
            1973     8.78743E-03     25.7999E-03    -20.8374E+06    -66.9216E+06     1.70922E+06     767.624E+03    -26.0686E-03     50.1098E-03    -24.0411E-03     39.5427E-03    -26.0981E-03     49.8228E-03    -23.9053E-03     39.5029E-03
            1974     7.91006E-03     25.7623E-03    -23.3450E+06    -72.9521E+06    -365.634E+03     741.522E+03    -25.5588E-03     49.4287E-03    -23.8699E-03     35.7816E-03    -25.5831E-03     49.1122E-03    -23.7321E-03     35.7515E-03
            1975     7.03231E-03     25.7283E-03    -26.1080E+06    -80.4346E+06    -3.68349E+06     739.183E+03    -25.0666E-03     48.7726E-03    -23.7059E-03     31.8957E-03    -25.0848E-03     48.4232E-03    -23.5699E-03     31.8740E-03
            1976     6.15419E-03     25.6982E-03    -29.1463E+06    -88.5055E+06    -7.98342E+06     783.675E+03    -24.6031E-03     48.1550E-03    -23.5519E-03     27.9467E-03    -24.6154E-03     47.7727E-03    -23.4212E-03     27.9324E-03
            1977     5.27573E-03     25.6720E-03    -32.4131E+06    -96.3350E+06    -13.2155E+06     790.902E+03    -24.1786E-03     47.5875E-03    -23.4089E-03     23.9777E-03    -24.1860E-03     47.1762E-03    -23.2882E-03     23.9692E-03
            1978     4.39695E-03     25.6498E-03    -35.7958E+06    -104.614E+06    -19.3662E+06     713.343E+03    -23.8068E-03     47.0865E-03    -23.2797E-03     19.9959E-03    -23.8087E-03     46.6460E-03    -23.1729E-03     19.9910E-03
            1979     3.51790E-03     25.6315E-03    -39.1373E+06    -112.149E+06    -26.3630E+06     573.464E+03    -23.4941E-03     46.6582E-03    -23.1641E-03     16.0230E-03    -23.4905E-03     46.1940E-03    -23.0765E-03     16.0200E-03
            1980     2.63863E-03     25.6173E-03    -42.2127E+06    -118.510E+06    -33.8045E+06     446.111E+03    -23.2468E-03     46.3109E-03    -23.0641E-03     12.0647E-03    -23.2378E-03     45.8294E-03    -23.0001E-03     12.0632E-03
            1981     1.75918E-03     25.6070E-03    -44.7155E+06    -122.954E+06    -40.5664E+06     324.046E+03    -23.0666E-03     46.0510E-03    -22.9844E-03     8.14466E-03    -23.0535E-03     45.5602E-03    -22.9441E-03     8.14422E-03
            1982     879.623E-06     25.6007E-03    -46.3621E+06    -125.921E+06    -45.2440E+06     181.104E+03    -22.9615E-03     45.8883E-03    -22.9268E-03     4.42810E-03    -22.9452E-03     45.3916E-03    -22.9032E-03     4.42801E-03
            1983     16.6700E-03     25.2210E-03    -3.60084E+06     112.084E+06     65.0517E+06     359.657E+03    -28.3585E-03     53.9929E-03    -25.6344E-03     22.4906E-03    -28.7103E-03     54.5412E-03    -25.4665E-03     22.4020E-03
            1984     15.7953E-03     25.1877E-03    -6.94386E+06     108.766E+06     49.0290E+06     646.449E+03    -28.4793E-03     53.8753E-03    -25.3960E-03     40.0062E-03    -28.8716E-03     54.4869E-03    -25.2985E-03     39.8902E-03
            1985     14.9205E-03     25.1436E-03    -9.57504E+06     90.0327E+06     28.0470E+06     515.999E+03    -28.6344E-03     53.7760E-03    -25.1416E-03     51.3441E-03    -28.9954E-03     54.3413E-03    -25.1180E-03     51.2126E-03
            1986     14.0455E-03     25.0881E-03    -11.3464E+06     39.0214E+06     9.39881E+06     357.065E+03    -28.6820E-03     53.6137E-03    -24.9317E-03     55.7405E-03    -28.9434E-03     53.9461E-03    -24.9249E-03     55.6009E-03
            1987     13.1704E-03     25.0350E-03    -12.5349E+06    -8.96165E+06     2.01596E+06     378.576E+03    -28.4512E-03     53.2128E-03    -24.7616E-03     53.1492E-03    -28.6050E-03     53.2845E-03    -24.7204E-03     53.0233E-03
            1988     12.2949E-03     24.9840E-03    -13.6710E+06    -26.7425E+06     2.83387E+06     458.990E+03    -28.0540E-03     52.6365E-03    -24.5825E-03     50.8346E-03    -28.1602E-03     52.5910E-03    -24.5097E-03     50.7303E-03
            1989     11.4192E-03     24.9349E-03    -15.0304E+06    -41.2872E+06     2.61400E+06     581.062E+03    -27.6115E-03     52.0035E-03    -24.3920E-03     48.4214E-03    -27.6832E-03     51.8677E-03    -24.2973E-03     48.3372E-03
            1990     10.5430E-03     24.8882E-03    -16.6336E+06    -51.3147E+06     3.01313E+06     721.096E+03    -27.1125E-03     51.3114E-03    -24.1990E-03     45.5976E-03    -27.1637E-03     51.1127E-03    -24.0854E-03     45.5317E-03
            1991     9.66645E-03     24.8444E-03    -18.5122E+06    -59.2142E+06     2.48349E+06     881.797E+03    -26.5767E-03     50.5788E-03    -24.0020E-03     42.3057E-03    -26.6143E-03     50.3332E-03    -23.8769E-03     42.2562E-03
            1992     8.78947E-03     24.8038E-03    -20.6894E+06    -66.7486E+06     1.64948E+06     912.649E+03    -26.0223E-03     49.8322E-03    -23.8098E-03     38.7238E-03    -26.0507E-03     49.5453E-03    -23.6748E-03     38.6867E-03
            1993     7.91206E-03     24.7668E-03    -23.1768E+06    -72.7933E+06    -455.275E+03     858.185E+03    -25.4623E-03     49.0814E-03    -23.6192E-03     34.9897E-03    -25.4854E-03     48.7652E-03    -23.4823E-03     34.9620E-03
            1994     7.03421E-03     24.7335E-03    -25.9662E+06    -80.3753E+06    -3.83520E+06     902.323E+03    -24.9237E-03     48.3611E-03    -23.4374E-03     31.1477E-03    -24.9407E-03     48.0117E-03    -23.3023E-03     31.1289E-03
            1995     6.15595E-03     24.7040E-03    -29.0223E+06    -88.3899E+06    -8.11531E+06     981.516E+03    -24.4179E-03     47.6850E-03    -23.2671E-03     27.2567E-03    -24.4293E-03     47.3031E-03    -23.1375E-03     27.2456E-03
            1996     5.27731E-03     24.6784E-03    -32.2813E+06    -96.1025E+06    -13.3080E+06     989.665E+03    -23.9547E-03     47.0644E-03    -23.1097E-03     23.3580E-03    -23.9615E-03     46.6540E-03    -22.9900E-03     23.3526E-03
            1997     4.39833E-03     24.6567E-03    -35.6683E+06    -104.240E+06    -19.4448E+06     888.333E+03    -23.5486E-03     46.5164E-03    -22.9677E-03     19.4589E-03    -23.5501E-03     46.0776E-03    -22.8621E-03     19.4567E-03
            1998     3.51904E-03     24.6388E-03    -39.0400E+06    -111.766E+06    -26.4306E+06     712.646E+03    -23.2070E-03     46.0487E-03    -22.8417E-03     15.5786E-03    -23.2033E-03     45.5863E-03    -22.7552E-03     15.5778E-03
            1999     2.63950E-03     24.6249E-03    -42.1389E+06    -118.169E+06    -33.8301E+06     549.115E+03    -22.9367E-03     45.6704E-03    -22.7336E-03     11.7211E-03    -22.9278E-03     45.1904E-03    -22.6703E-03     11.7212E-03
            2000     1.75978E-03     24.6149E-03    -44.6386E+06     -122.56E+06    -40.5319E+06     387.843E+03    -22.7396E-03     45.3875E-03    -22.6479E-03     7.90834E-03    -22.7266E-03     44.8986E-03    -22.6082E-03     7.90890E-03
            2001     879.925E-06     24.6088E-03    -46.2698E+06    -125.518E+06    -45.1575E+06     212.869E+03    -22.6249E-03     45.2105E-03    -22.5856E-03     4.29794E-03    -22.6089E-03     44.7156E-03    -22.5623E-03     4.29836E-03
            2002     16.6704E-03     24.2195E-03    -3.49088E+06     111.631E+06     64.9246E+06     272.184E+03    -28.8251E-03     54.4369E-03    -25.6118E-03     22.1417E-03    -29.1744E-03     54.9819E-03    -25.4440E-03     22.0488E-03
            2003     15.7961E-03     24.1866E-03    -6.65329E+06     108.636E+06     49.1345E+06     543.680E+03    -28.9026E-03     54.2503E-03    -25.3477E-03     39.4657E-03    -29.2915E-03     54.8587E-03    -25.2499E-03     39.3449E-03
            2004     14.9216E-03     24.1429E-03    -9.27397E+06     90.3726E+06     28.1890E+06     602.952E+03    -28.9971E-03     54.0633E-03    -25.0662E-03     50.6758E-03    -29.3550E-03     54.6274E-03    -25.0428E-03     50.5431E-03
            2005     14.0469E-03     24.0880E-03    -11.1611E+06     39.2235E+06     9.39760E+06     498.969E+03    -28.9806E-03     53.8103E-03    -24.8296E-03     54.9665E-03    -29.2391E-03     54.1411E-03    -24.8233E-03     54.8275E-03
            2006     13.1721E-03     24.0356E-03    -12.4219E+06    -8.93275E+06     1.92217E+06     488.145E+03    -28.6859E-03     53.3195E-03    -24.6336E-03     52.3186E-03    -28.8372E-03     53.3894E-03    -24.5930E-03     52.1938E-03
            2007     12.2968E-03     23.9852E-03    -13.6138E+06    -26.8137E+06     2.69732E+06     589.449E+03    -28.2257E-03     52.6552E-03    -24.4295E-03     49.9746E-03    -28.3298E-03     52.6080E-03    -24.3574E-03     49.8723E-03
            2008     11.4212E-03     23.9369E-03    -15.0142E+06    -41.3336E+06     2.48146E+06     734.476E+03    -27.7216E-03     51.9366E-03    -24.2150E-03     47.5469E-03    -27.7917E-03     51.7995E-03    -24.1209E-03     47.4653E-03
            2009     10.5451E-03     23.8909E-03    -16.6555E+06    -51.3850E+06     2.84385E+06     873.875E+03    -27.1631E-03     51.1620E-03    -23.9989E-03     44.7170E-03    -27.2130E-03     50.9622E-03    -23.8860E-03     44.6539E-03
            2010     9.66861E-03     23.8478E-03    -18.4979E+06    -59.1864E+06     2.28470E+06     952.479E+03    -26.5703E-03     50.3501E-03    -23.7799E-03     41.4332E-03    -26.6067E-03     50.1042E-03    -23.6558E-03     41.3856E-03
            2011     8.79161E-03     23.8080E-03    -20.5457E+06    -66.5856E+06     1.51337E+06     978.544E+03    -25.9621E-03     49.5292E-03    -23.5672E-03     37.8693E-03    -25.9891E-03     49.2426E-03    -23.4333E-03     37.8341E-03
            2012     7.91413E-03     23.7718E-03    -22.9862E+06    -72.7006E+06    -592.253E+03     1.04628E+06    -25.3523E-03     48.7099E-03    -23.3576E-03     34.1645E-03    -25.3739E-03     48.3935E-03    -23.2218E-03     34.1402E-03
            2013     7.03618E-03     23.7392E-03    -25.8082E+06    -80.3072E+06    -4.01574E+06     1.14430E+06    -24.7678E-03     47.9260E-03    -23.1582E-03     30.3710E-03    -24.7834E-03     47.5766E-03    -23.0244E-03     30.3562E-03
            2014     6.15778E-03     23.7103E-03    -28.8715E+06    -88.2484E+06    -8.26876E+06     1.21922E+06    -24.2198E-03     47.1920E-03    -22.9722E-03     26.5419E-03    -24.2301E-03     46.8106E-03    -22.8438E-03     26.5347E-03
            2015     5.27895E-03     23.6853E-03    -32.1225E+06    -95.8147E+06    -13.4354E+06     1.22510E+06    -23.7185E-03     46.5192E-03    -22.8006E-03     22.7177E-03    -23.7246E-03     46.1100E-03    -22.6823E-03     22.7160E-03
            2016     4.39975E-03     23.6641E-03    -35.4960E+06    -103.804E+06    -19.5499E+06     1.12161E+06    -23.2792E-03     45.9257E-03    -22.6465E-03     18.9050E-03    -23.2802E-03     45.4889E-03    -22.5423E-03     18.9063E-03
            2017     3.52021E-03     23.6468E-03    -38.8585E+06    -111.287E+06    -26.4738E+06     930.437E+03    -22.9099E-03     45.4205E-03    -22.5106E-03     15.1207E-03    -22.9058E-03     44.9602E-03    -22.4253E-03     15.1231E-03
            2018     2.64040E-03     23.6332E-03    -41.9607E+06    -117.711E+06    -33.7943E+06     704.518E+03    -22.6176E-03     45.0126E-03    -22.3950E-03     11.3677E-03    -22.6084E-03     44.5346E-03    -22.3324E-03     11.3700E-03
            2019     1.76039E-03     23.6235E-03    -44.4669E+06    -122.088E+06    -40.4604E+06     490.143E+03    -22.4042E-03     44.7079E-03    -22.3037E-03     7.66557E-03    -22.3912E-03     44.2209E-03    -22.2645E-03     7.66762E-03
            2020     880.233E-06     23.6175E-03    -46.1051E+06    -125.010E+06    -45.0653E+06     292.124E+03    -22.2806E-03     44.5175E-03    -22.2370E-03     4.16460E-03    -22.2646E-03     44.0248E-03    -22.2142E-03     4.16613E-03
            2021     16.6708E-03     23.2175E-03    -3.50604E+06     111.376E+06     64.8565E+06     154.067E+03    -29.3247E-03     54.9122E-03    -25.5876E-03     21.7320E-03    -29.6724E-03     55.4548E-03    -25.4197E-03     21.6341E-03
            2022     15.7969E-03     23.1851E-03    -6.80375E+06     108.327E+06     49.0436E+06     410.359E+03    -29.3497E-03     54.6453E-03    -25.2956E-03     38.8470E-03    -29.7366E-03     55.2504E-03    -25.1976E-03     38.7210E-03
            2023     14.9228E-03     23.1420E-03    -9.39966E+06     90.4610E+06     28.0903E+06     650.094E+03    -29.3783E-03     54.3636E-03    -24.9853E-03     49.9235E-03    -29.7343E-03     54.9259E-03    -24.9624E-03     49.7891E-03
            2024     14.0485E-03     23.0878E-03    -11.1657E+06     39.5200E+06     9.33812E+06     654.288E+03    -29.2882E-03     54.0089E-03    -24.7208E-03     54.1099E-03    -29.5445E-03     54.3388E-03    -24.7152E-03     53.9718E-03
            2025     13.1739E-03     23.0361E-03    -12.3924E+06    -8.91889E+06     1.77076E+06     636.372E+03    -28.9219E-03     53.4198E-03    -24.4980E-03     51.4162E-03    -29.0708E-03     53.4879E-03    -24.4582E-03     51.2932E-03
            2026     12.2988E-03     22.9865E-03    -13.5656E+06    -26.8763E+06     2.51408E+06     749.548E+03    -28.3923E-03     52.6606E-03    -24.2683E-03     49.0543E-03    -28.4941E-03     52.6116E-03    -24.1971E-03     48.9545E-03
            2027     11.4233E-03     22.9389E-03    -14.9441E+06    -41.4055E+06     2.31060E+06     914.993E+03    -27.8220E-03     51.8517E-03    -24.0297E-03     46.6216E-03    -27.8901E-03     51.7131E-03    -23.9365E-03     46.5432E-03
            2028     10.5473E-03     22.8937E-03    -16.5383E+06    -51.3716E+06     2.69287E+06     1.03665E+06    -27.2014E-03     50.9921E-03    -23.7908E-03     43.7930E-03    -27.2495E-03     50.7914E-03    -23.6788E-03     43.7331E-03
            2029     9.67083E-03     22.8515E-03    -18.3733E+06    -59.0191E+06     2.09515E+06     1.02206E+06    -26.5499E-03     50.0999E-03    -23.5500E-03     40.5238E-03    -26.5848E-03     49.8540E-03    -23.4273E-03     40.4781E-03
            2030     8.79381E-03     22.8125E-03    -20.4956E+06    -66.5436E+06     1.25839E+06     1.04363E+06    -25.8881E-03     49.2057E-03    -23.3175E-03     36.9821E-03    -25.9140E-03     48.9189E-03    -23.1850E-03     36.9487E-03
            2031     7.91626E-03     22.7770E-03    -22.9164E+06    -72.7216E+06    -825.508E+03     1.22444E+06    -25.2301E-03     48.3199E-03    -23.0898E-03     33.3088E-03    -25.2505E-03     48.0032E-03    -22.9552E-03     33.2877E-03
            2032     7.03819E-03     22.7452E-03    -25.6350E+06    -80.2145E+06    -4.20411E+06     1.40201E+06    -24.6004E-03     47.4740E-03    -22.8736E-03     29.5670E-03    -24.6146E-03     47.1247E-03    -22.7412E-03     29.5563E-03
            2033     6.15963E-03     22.7171E-03    -28.6496E+06    -88.0768E+06    -8.44492E+06     1.50379E+06    -24.0110E-03     46.6836E-03    -22.6726E-03     25.8050E-03    -24.0200E-03     46.3026E-03    -22.5455E-03     25.8021E-03
            2034     5.28061E-03     22.6928E-03    -31.8957E+06    -95.4736E+06    -13.5896E+06     1.52254E+06    -23.4735E-03     45.9612E-03    -22.4877E-03     22.0594E-03    -23.4785E-03     45.5535E-03    -22.3710E-03     22.0621E-03
            2035     4.40118E-03     22.6722E-03    -35.2762E+06    -103.311E+06    -19.6841E+06     1.42246E+06    -23.0029E-03     45.3252E-03    -22.3223E-03     18.3365E-03    -23.0032E-03     44.8906E-03    -22.2198E-03     18.3422E-03
            2036     3.52139E-03     22.6553E-03    -38.6285E+06    -110.685E+06    -26.5582E+06     1.20685E+06    -22.6078E-03     44.7850E-03    -22.1773E-03     14.6520E-03    -22.6032E-03     44.3275E-03    -22.0936E-03     14.6584E-03
            2037     2.64131E-03     22.6422E-03    -41.7137E+06    -117.111E+06    -33.7678E+06     932.625E+03    -22.2955E-03     44.3505E-03    -22.0550E-03     11.0066E-03    -22.2860E-03     43.8751E-03    -21.9935E-03     11.0122E-03
            2038     1.76100E-03     22.6327E-03    -44.2315E+06    -121.490E+06    -40.3167E+06     661.862E+03    -22.0678E-03     44.0268E-03    -21.9590E-03     7.41762E-03    -22.0546E-03     43.5422E-03    -21.9203E-03     7.42207E-03
            2039     880.541E-06     22.6269E-03    -45.8755E+06    -124.330E+06    -44.8082E+06      381.88E+03    -21.9363E-03     43.8243E-03    -21.8880E-03     4.02817E-03    -21.9205E-03     43.3342E-03    -21.8652E-03     4.03095E-03
            2040     16.6712E-03     22.2150E-03    -3.56182E+06     111.165E+06     64.9187E+06     129.291E+03    -29.8550E-03     55.4173E-03    -25.5623E-03     21.2548E-03    -30.2013E-03     55.9574E-03    -25.3938E-03     21.1530E-03
            2041     15.7978E-03     22.1832E-03    -6.90978E+06     107.969E+06     48.9450E+06     397.801E+03    -29.8214E-03     55.0616E-03    -25.2402E-03     38.1421E-03    -30.2056E-03     55.6627E-03    -25.1420E-03     38.0122E-03
            2042     14.9241E-03     22.1407E-03    -9.57708E+06     90.4022E+06     27.9094E+06     626.924E+03    -29.7719E-03     54.6715E-03    -24.8997E-03     49.0801E-03    -30.1256E-03     55.2313E-03    -24.8773E-03     48.9431E-03
            2043     14.0501E-03     22.0873E-03    -11.3169E+06     39.7676E+06     9.18882E+06     701.321E+03    -29.5978E-03     54.2041E-03    -24.6063E-03     53.1625E-03    -29.8522E-03     54.5328E-03    -24.6016E-03     53.0240E-03
            2044     13.1757E-03     22.0364E-03    -12.4263E+06    -8.87810E+06     1.57444E+06     724.073E+03    -29.1512E-03     53.5075E-03    -24.3564E-03     50.4333E-03    -29.2977E-03     53.5739E-03    -24.3176E-03     50.3114E-03
            2045     12.3009E-03     21.9877E-03    -13.4933E+06    -26.9885E+06     2.29374E+06     860.761E+03    -28.5461E-03     52.6475E-03    -24.1015E-03     48.0675E-03    -28.6452E-03     52.5964E-03    -24.0313E-03     47.9698E-03
            2046     11.4255E-03     21.9411E-03    -14.7895E+06    -41.4842E+06     2.12979E+06     1.07873E+06    -27.9076E-03     51.7469E-03    -23.8394E-03     45.6451E-03    -27.9731E-03     51.6066E-03    -23.7471E-03     45.5698E-03
            2047     10.5496E-03     21.8968E-03    -16.3414E+06    -51.2711E+06     2.55007E+06     1.17380E+06    -27.2253E-03     50.8037E-03    -23.5783E-03     42.8280E-03    -27.2713E-03     50.6022E-03    -23.4676E-03     42.7709E-03
            2048     9.67309E-03     21.8554E-03    -18.1636E+06    -58.8163E+06     1.96568E+06     1.16698E+06    -26.5175E-03     49.8346E-03    -23.3170E-03     39.5740E-03    -26.5506E-03     49.5887E-03    -23.1956E-03     39.5313E-03
            2049     8.79603E-03     21.8173E-03    -20.2881E+06    -66.5226E+06     1.07741E+06     1.20640E+06    -25.8043E-03     48.8699E-03    -23.0656E-03     36.0570E-03    -25.8282E-03     48.5825E-03    -22.9343E-03     36.0268E-03
            2050     7.91840E-03     21.7827E-03    -22.7070E+06    -72.8017E+06    -1.07081E+06     1.37589E+06    -25.0980E-03     47.9183E-03    -22.8203E-03     32.4217E-03    -25.1164E-03     47.6007E-03    -22.6871E-03     32.4035E-03
            2051     7.04020E-03     21.7517E-03    -25.3926E+06    -80.2044E+06    -4.45338E+06     1.64745E+06    -24.4238E-03     47.0120E-03    -22.5882E-03     28.7349E-03    -24.4361E-03     46.6624E-03    -22.4574E-03     28.7282E-03
            2052     6.16147E-03     21.7244E-03    -28.3709E+06    -87.8674E+06    -8.65441E+06     1.84193E+06    -23.7949E-03     46.1681E-03    -22.3733E-03     25.0432E-03    -23.8022E-03     45.7879E-03    -22.2480E-03     25.0455E-03
            2053     5.28225E-03     21.7008E-03    -31.5916E+06    -95.1055E+06    -13.7753E+06     1.89044E+06    -23.2234E-03     45.3998E-03    -22.1764E-03     21.3793E-03    -23.2270E-03     44.9935E-03    -22.0616E-03     21.3874E-03
            2054     4.40259E-03     21.6808E-03    -34.9668E+06    -102.750E+06    -19.8389E+06     1.83461E+06    -22.7242E-03     44.7251E-03    -22.0009E-03     17.7498E-03    -22.7235E-03     44.2930E-03    -21.9004E-03     17.7613E-03
            2055     3.52255E-03     21.6645E-03    -38.3517E+06    -109.907E+06    -26.6657E+06     1.58878E+06    -22.3057E-03     44.1534E-03    -21.8477E-03     14.1689E-03    -22.3007E-03     43.6994E-03    -21.7661E-03     14.1806E-03
            2056     2.64219E-03     21.6518E-03    -41.4459E+06    -116.336E+06    -33.7038E+06     1.22069E+06    -21.9760E-03     43.6960E-03    -21.7200E-03     10.6349E-03    -21.9663E-03     43.2240E-03    -21.6597E-03     10.6445E-03
            2057     1.76160E-03     21.6427E-03    -43.9199E+06    -120.678E+06    -40.0248E+06     842.618E+03    -21.7361E-03     43.3565E-03    -21.6204E-03     7.16277E-03    -21.7230E-03     42.8751E-03    -21.5818E-03     7.16974E-03
            2058     880.845E-06     21.6371E-03    -45.5269E+06    -123.479E+06    -44.4661E+06     441.218E+03    -21.5982E-03     43.1431E-03    -21.5449E-03     3.88823E-03    -21.5824E-03     42.6563E-03    -21.5222E-03     3.89188E-03
            2059     16.6717E-03     21.2120E-03    -3.84325E+06     111.028E+06     64.9672E+06     229.498E+03    -30.4145E-03     55.9506E-03    -25.5361E-03     20.7016E-03    -30.7604E-03     56.4886E-03    -25.3667E-03     20.5975E-03
            2060     15.7987E-03     21.1808E-03    -7.24556E+06     107.693E+06     48.8196E+06     351.993E+03    -30.3090E-03     55.4914E-03    -25.1824E-03     37.3430E-03    -30.6914E-03     56.0888E-03    -25.0839E-03     37.2088E-03
            2061     14.9254E-03     21.1391E-03    -9.79343E+06     90.2814E+06     27.6865E+06     566.109E+03    -30.1702E-03     54.9808E-03    -24.8106E-03     48.1461E-03    -30.5213E-03     55.5373E-03    -24.7889E-03     48.0060E-03
            2062     14.0517E-03     21.0866E-03    -11.4337E+06     39.9845E+06     9.02154E+06     646.757E+03    -29.9006E-03     54.3888E-03    -24.4881E-03     52.1312E-03    -30.1525E-03     54.7158E-03    -24.4844E-03     51.9911E-03
            2063     13.1776E-03     21.0367E-03    -12.4480E+06    -8.87727E+06     1.35585E+06     688.755E+03    -29.3647E-03     53.5763E-03    -24.2116E-03     49.3863E-03    -29.5085E-03     53.6405E-03    -24.1739E-03     49.2642E-03
            2064     12.3030E-03     20.9890E-03    -13.4375E+06    -27.1942E+06     2.02705E+06     921.500E+03    -28.6815E-03     52.6138E-03    -23.9323E-03     47.0370E-03    -28.7779E-03     52.5601E-03    -23.8633E-03     46.9408E-03
            2065     11.4277E-03     20.9433E-03    -14.6943E+06    -41.5797E+06     1.91692E+06     1.19997E+06    -27.9774E-03     51.6253E-03    -23.6479E-03     44.6360E-03    -28.0406E-03     51.4832E-03    -23.5567E-03     44.5633E-03
            2066     10.5518E-03     20.8999E-03    -16.1760E+06    -51.0850E+06     2.43185E+06     1.27924E+06    -27.2383E-03     50.6041E-03    -23.3658E-03     41.8299E-03    -27.2823E-03     50.4024E-03    -23.2562E-03     41.7753E-03
            2067     9.67535E-03     20.8595E-03    -17.8898E+06    -58.6981E+06     1.83613E+06     1.27577E+06    -26.4779E-03     49.5627E-03    -23.0848E-03     38.5883E-03    -26.5087E-03     49.3163E-03    -22.9645E-03     38.5482E-03
            2068     8.79824E-03     20.8224E-03    -19.9128E+06    -66.4927E+06     897.926E+03     1.39546E+06    -25.7141E-03     48.5290E-03    -22.8149E-03     35.0953E-03    -25.7352E-03     48.2407E-03    -22.6851E-03     35.0687E-03
            2069     7.92052E-03     20.7888E-03    -22.3116E+06    -72.8855E+06    -1.31027E+06     1.61269E+06    -24.9605E-03     47.5134E-03    -22.5529E-03     31.4958E-03    -24.9759E-03     47.1947E-03    -22.4214E-03     31.4817E-03
            2070     7.04218E-03     20.7587E-03    -25.0252E+06    -80.3202E+06    -4.74434E+06     1.96217E+06    -24.2435E-03     46.5495E-03    -22.3060E-03     27.8645E-03    -24.2530E-03     46.1988E-03    -22.1770E-03     27.8628E-03
            2071     6.16329E-03     20.7322E-03    -28.0007E+06    -87.6271E+06    -8.88774E+06     2.24323E+06    -23.5765E-03     45.6546E-03    -22.0780E-03     24.2453E-03    -23.5817E-03     45.2750E-03    -21.9548E-03     24.2536E-03
            2072     5.28386E-03     20.7093E-03    -31.2092E+06    -94.7253E+06    -13.9581E+06     2.34473E+06    -22.9732E-03     44.8435E-03    -21.8703E-03     20.6646E-03    -22.9750E-03     44.4387E-03    -21.7575E-03     20.6792E-03
            2073     4.40397E-03     20.6900E-03    -34.5545E+06    -102.118E+06    -19.9574E+06     2.33557E+06    -22.4477E-03     44.1333E-03    -21.6856E-03     17.1316E-03    -22.4454E-03     43.7038E-03    -21.5873E-03     17.1501E-03
            2074     3.52368E-03     20.6742E-03    -37.8659E+06    -108.903E+06    -26.5739E+06     2.06366E+06    -22.0082E-03     43.5339E-03    -21.5256E-03     13.6583E-03    -22.0023E-03     43.0840E-03    -21.4457E-03     13.6764E-03
            2075     2.64305E-03     20.6620E-03    -40.9195E+06    -115.294E+06    -33.3661E+06     1.56578E+06    -21.6630E-03     43.0564E-03    -21.3934E-03     10.2414E-03    -21.6527E-03     42.5883E-03    -21.3337E-03     10.2558E-03
            2076     1.76218E-03     20.6532E-03    -43.3989E+06    -119.637E+06    -39.6492E+06     1.04508E+06    -21.4117E-03     42.7017E-03    -21.2901E-03     6.89362E-03    -21.3980E-03     42.2242E-03    -21.2519E-03     6.90339E-03
            2077     881.136E-06     20.6478E-03    -45.0226E+06    -122.435E+06    -44.0729E+06     587.686E+03    -21.2689E-03     42.4802E-03    -21.2113E-03     3.74053E-03    -21.2526E-03     41.9973E-03    -21.1888E-03     3.74617E-03
            2078     16.6721E-03     20.2084E-03    -3.61529E+06     111.018E+06     65.0731E+06     410.115E+03    -31.0044E-03     56.5131E-03    -25.5087E-03     20.0600E-03    -31.3473E-03     57.0486E-03    -25.3391E-03     19.9544E-03
            2079     15.7997E-03     20.1780E-03    -7.09108E+06     107.628E+06     48.9601E+06     400.760E+03    -30.8024E-03     55.9258E-03    -25.1234E-03     36.4434E-03    -31.1810E-03     56.5193E-03    -25.0244E-03     36.3063E-03
            2080     14.9268E-03     20.1372E-03    -9.80633E+06     90.0983E+06     27.5113E+06     498.421E+03    -30.5603E-03     55.2805E-03    -24.7202E-03     47.1267E-03    -30.9075E-03     55.8329E-03    -24.6990E-03     46.9838E-03
            2081     14.0534E-03     20.0857E-03    -11.4949E+06     40.2667E+06     8.85871E+06     562.959E+03    -30.1845E-03     54.5537E-03    -24.3691E-03     51.0242E-03    -30.4334E-03     54.8790E-03    -24.3665E-03     50.8826E-03
            2082     13.1796E-03     20.0369E-03    -12.5319E+06    -8.98569E+06     1.06565E+06     616.146E+03    -29.5566E-03     53.6239E-03    -24.0673E-03     48.2851E-03    -29.6976E-03     53.6854E-03    -24.0307E-03     48.1625E-03
            2083     12.3050E-03     19.9902E-03    -13.5089E+06    -27.5112E+06     1.68477E+06     943.487E+03    -28.8012E-03     52.5662E-03    -23.7651E-03     45.9674E-03    -28.8949E-03     52.5095E-03    -23.6972E-03     45.8725E-03
            2084     11.4299E-03     19.9456E-03    -14.6091E+06    -41.5858E+06     1.70100E+06     1.17956E+06    -28.0378E-03     51.4971E-03    -23.4593E-03     43.5944E-03    -28.0987E-03     51.3536E-03    -23.3693E-03     43.5226E-03
            2085     10.5540E-03     19.9033E-03    -15.8338E+06    -50.9450E+06     2.32108E+06     1.22393E+06    -27.2468E-03     50.4039E-03    -23.1571E-03     40.8008E-03    -27.2880E-03     50.2013E-03    -23.0486E-03     40.7468E-03
            2086     9.67755E-03     19.8640E-03    -17.4264E+06    -58.7268E+06     1.67953E+06     1.39032E+06    -26.4392E-03     49.2960E-03    -22.8568E-03     37.5645E-03    -26.4665E-03     49.0481E-03    -22.7380E-03     37.5271E-03
            2087     8.80040E-03     19.8279E-03    -19.4819E+06    -66.5077E+06     656.465E+03     1.63158E+06    -25.6285E-03     48.1971E-03    -22.5685E-03     34.0844E-03    -25.6463E-03     47.9077E-03    -22.4406E-03     34.0619E-03
            2088     7.92258E-03     19.7952E-03    -21.8861E+06    -73.0216E+06    -1.58446E+06     1.94350E+06    -24.8304E-03     47.1203E-03    -22.2900E-03     30.5073E-03    -24.8425E-03     46.8002E-03    -22.1603E-03     30.4986E-03
            2089     7.04413E-03     19.7661E-03    -24.5829E+06    -80.4807E+06    -5.03595E+06     2.38133E+06    -24.0716E-03     46.0995E-03    -22.0279E-03     26.9198E-03    -24.0778E-03     45.7474E-03    -21.9008E-03     26.9245E-03
            2090     6.16506E-03     19.7405E-03    -27.5469E+06    -87.3906E+06    -9.12799E+06     2.73197E+06    -23.3655E-03     45.1517E-03    -21.7863E-03     23.3660E-03    -23.3681E-03     44.7728E-03    -21.6652E-03     23.3814E-03
            2091     5.28544E-03     19.7184E-03    -30.7226E+06    -94.2813E+06    -14.0355E+06     2.87798E+06    -22.7296E-03     44.2970E-03    -21.5675E-03     19.8654E-03    -22.7292E-03     43.8936E-03    -21.4564E-03     19.8876E-03
            2092     4.40533E-03     19.6998E-03    -33.9961E+06    -101.395E+06    -19.9113E+06     2.87104E+06    -22.1761E-03     43.5494E-03    -21.3732E-03     16.4329E-03    -22.1721E-03     43.1225E-03    -21.2765E-03     16.4588E-03
            2093     3.52478E-03     19.6846E-03    -37.2169E+06    -107.666E+06    -26.4552E+06     2.57328E+06    -21.7136E-03     42.9187E-03    -21.2051E-03     13.0785E-03    -21.7063E-03     42.4737E-03    -21.1272E-03     13.1037E-03
            2094     2.64390E-03     19.6729E-03    -40.1878E+06    -113.963E+06    -33.0722E+06     1.99464E+06    -21.3522E-03     42.4199E-03    -21.0677E-03     9.79140E-03    -21.3405E-03     41.9569E-03    -21.0096E-03     9.81158E-03
            2095     1.76275E-03     19.6644E-03    -42.6659E+06    -118.343E+06    -39.1447E+06     1.40053E+06    -21.0898E-03     42.0513E-03    -20.9615E-03     6.58271E-03    -21.0750E-03     41.5785E-03    -20.9238E-03     6.59727E-03
            2096     881.422E-06     19.6593E-03    -44.3403E+06    -121.039E+06    -43.4167E+06     809.316E+03    -20.9412E-03     41.8211E-03    -20.8799E-03     3.56883E-03    -20.9246E-03     41.3432E-03    -20.8571E-03     3.57743E-03
            2097     16.6726E-03     19.2042E-03    -3.27463E+06     110.816E+06     65.1378E+06     382.930E+03    -31.6085E-03     57.0904E-03    -25.4819E-03     19.3211E-03    -31.9473E-03     57.6221E-03    -25.3122E-03     19.2115E-03
            2098     15.8006E-03     19.1748E-03    -6.62584E+06     107.627E+06     49.2320E+06     637.622E+03    -31.2927E-03     56.3577E-03    -25.0650E-03     35.4365E-03    -31.6657E-03     56.9466E-03    -24.9653E-03     35.2990E-03
            2099     14.9281E-03     19.1349E-03    -9.49592E+06     90.1004E+06     27.4697E+06     669.213E+03    -30.9322E-03     55.5630E-03    -24.6308E-03     46.0115E-03    -31.2739E-03     56.1111E-03    -24.6103E-03     45.8691E-03
            2100     14.0551E-03     19.0846E-03    -11.4232E+06     40.5271E+06     8.66058E+06     623.358E+03    -30.4461E-03     54.6983E-03    -24.2522E-03     49.8216E-03    -30.6910E-03     55.0215E-03    -24.2511E-03     49.6805E-03
            2101     13.1814E-03     19.0370E-03    -12.6355E+06    -9.05743E+06     714.249E+03     663.406E+03    -29.7297E-03     53.6562E-03    -23.9265E-03     47.1085E-03    -29.8678E-03     53.7152E-03    -23.8915E-03     46.9872E-03
            2102     12.3070E-03     18.9915E-03    -13.5462E+06    -27.7596E+06     1.22728E+06     797.663E+03    -28.9110E-03     52.5132E-03    -23.6023E-03     44.8472E-03    -29.0018E-03     52.4539E-03    -23.5362E-03     44.7515E-03
            2103     11.4319E-03     18.9480E-03    -14.4076E+06    -41.5514E+06     1.37352E+06     943.910E+03    -28.0977E-03     51.3736E-03    -23.2758E-03     42.5045E-03    -28.1556E-03     51.2288E-03    -23.1878E-03     42.4309E-03
            2104     10.5562E-03     18.9068E-03    -15.6080E+06    -51.0242E+06     2.04438E+06     1.14661E+06    -27.2630E-03     50.2171E-03    -22.9541E-03     39.7087E-03    -27.3014E-03     50.0130E-03    -22.8473E-03     39.6549E-03
            2105     9.67968E-03     18.8686E-03    -17.2160E+06    -58.9317E+06     1.35522E+06     1.49555E+06    -26.4167E-03     49.0508E-03    -22.6341E-03     36.4571E-03    -26.4412E-03     48.8010E-03    -22.5169E-03     36.4222E-03
            2106     8.80250E-03     18.8336E-03    -19.1388E+06    -66.6163E+06     343.235E+03     1.88550E+06    -25.5665E-03     47.8925E-03    -22.3260E-03     32.9632E-03    -25.5812E-03     47.6018E-03    -22.1999E-03     32.9452E-03
            2107     7.92463E-03     18.8020E-03    -21.4591E+06    -73.2512E+06    -1.89238E+06     2.33194E+06    -24.7260E-03     46.7544E-03    -22.0284E-03     29.3895E-03    -24.7346E-03     46.4323E-03    -21.9005E-03     29.3868E-03
            2108     7.04606E-03     18.7739E-03    -24.1018E+06    -80.6301E+06    -5.23848E+06     2.85537E+06    -23.9239E-03     45.6723E-03    -21.7484E-03     25.8326E-03    -23.9267E-03     45.3185E-03    -21.6227E-03     25.8443E-03
            2109     6.16686E-03     18.7492E-03    -26.9420E+06    -87.1281E+06    -9.19970E+06     3.22728E+06    -23.1738E-03     44.6636E-03    -21.4897E-03     22.3379E-03    -23.1733E-03     44.2848E-03    -21.3703E-03     22.3605E-03
            2110     5.28706E-03     18.7280E-03    -29.9528E+06    -93.7897E+06    -13.9739E+06     3.42421E+06    -22.4976E-03     43.7536E-03    -21.2560E-03     18.9208E-03    -22.4940E-03     43.3512E-03    -21.1464E-03     18.9507E-03
            2111     4.40673E-03     18.7102E-03    -33.1226E+06    -100.541E+06    -19.7170E+06     3.46423E+06    -21.9089E-03     42.9576E-03    -21.0487E-03     15.5958E-03    -21.9019E-03     42.5332E-03    -20.9535E-03     15.6300E-03
            2112     3.52594E-03     18.6956E-03    -36.2630E+06    -106.246E+06    -26.2821E+06     3.16327E+06    -21.4155E-03     42.2842E-03    -20.8687E-03     12.3747E-03    -21.4056E-03     41.8446E-03    -20.7935E-03     12.4080E-03
            2113     2.64478E-03     18.6843E-03    -39.1849E+06    -112.380E+06    -32.7040E+06     2.59624E+06    -21.0313E-03     41.7550E-03    -20.7237E-03     9.23754E-03    -21.0173E-03     41.2978E-03    -20.6675E-03     9.26581E-03
            2114     1.76335E-03     18.6763E-03     -41.648E+06    -116.639E+06    -38.3431E+06     1.88630E+06    -20.7525E-03     41.3656E-03    -20.6131E-03     6.19512E-03    -20.7363E-03     40.8986E-03    -20.5753E-03     6.21616E-03
            2115     881.728E-06     18.6713E-03    -43.2906E+06    -119.137E+06    -42.4314E+06     1.08087E+06    -20.5931E-03     41.1197E-03    -20.5266E-03     3.35364E-03    -20.5754E-03     40.6484E-03    -20.5032E-03     3.36586E-03
            2116     16.6731E-03     18.1994E-03    -3.53153E+06     110.384E+06     65.0656E+06     226.778E+03    -32.2039E-03     57.6612E-03    -25.4573E-03     18.4583E-03    -32.5407E-03     58.1887E-03    -25.2869E-03     18.3434E-03
            2117     15.8015E-03     18.1711E-03    -6.75144E+06     107.309E+06     49.1745E+06     684.059E+03    -31.7625E-03     56.7712E-03    -25.0087E-03     34.3050E-03    -32.1315E-03     57.3547E-03    -24.9087E-03     34.1652E-03
            2118     14.9294E-03     18.1323E-03    -9.40167E+06     90.2564E+06     27.3167E+06     951.753E+03    -31.2758E-03     55.8206E-03    -24.5448E-03     44.8054E-03    -31.6128E-03     56.3655E-03    -24.5254E-03     44.6655E-03
            2119     14.0566E-03     18.0833E-03    -11.3298E+06     40.8240E+06     8.38762E+06     881.491E+03    -30.6831E-03     54.8237E-03    -24.1406E-03     48.5470E-03    -30.9236E-03     55.1446E-03    -24.1414E-03     48.4093E-03
            2120     13.1832E-03     18.0371E-03    -12.5092E+06    -8.90436E+06     394.190E+03     730.671E+03    -29.8902E-03     53.6828E-03    -23.7926E-03     45.8978E-03    -30.0244E-03     53.7399E-03    -23.7596E-03     45.7781E-03
            2121     12.3089E-03     17.9928E-03    -13.4002E+06    -27.7374E+06     783.486E+03     613.149E+03    -29.0266E-03     52.4736E-03    -23.4470E-03     43.7064E-03    -29.1140E-03     52.4127E-03    -23.3834E-03     43.6093E-03
            2122     11.4339E-03     17.9505E-03    -14.4446E+06    -41.7390E+06     845.282E+03     764.871E+03    -28.1839E-03     51.2834E-03    -23.0995E-03     41.3633E-03    -28.2392E-03     51.1369E-03    -23.0138E-03     41.2886E-03
            2123     10.5582E-03     17.9105E-03    -15.7453E+06    -51.2954E+06     1.57363E+06     1.15667E+06    -27.3205E-03     50.0766E-03    -22.7561E-03     38.5216E-03    -27.3571E-03     49.8706E-03    -22.6510E-03     38.4692E-03
            2124     9.68179E-03     17.8734E-03    -17.3001E+06     -59.177E+06     893.664E+03     1.52952E+06    -26.4404E-03     48.8529E-03    -22.4125E-03     35.2141E-03    -26.4632E-03     48.6016E-03    -22.2972E-03     35.1809E-03
            2125     8.80463E-03     17.8396E-03    -19.0797E+06    -66.9254E+06    -130.151E+03     1.99491E+06    -25.5482E-03     47.6282E-03    -22.0800E-03     31.6733E-03    -25.5606E-03     47.3357E-03    -21.9560E-03     31.6579E-03
            2126     7.92673E-03     17.8092E-03    -21.1914E+06    -73.6399E+06    -2.25672E+06     2.67852E+06    -24.6603E-03     46.4186E-03    -21.7584E-03     28.0871E-03    -24.6657E-03     46.0940E-03    -21.6322E-03     28.0900E-03
            2127     7.04811E-03     17.7821E-03    -23.6383E+06    -80.6706E+06    -5.41533E+06     3.26234E+06    -23.8078E-03     45.2623E-03    -21.4546E-03     24.5590E-03    -23.8075E-03     44.9074E-03    -21.3304E-03     24.5770E-03
            2128     6.16879E-03     17.7585E-03    -26.3026E+06    -86.9018E+06    -9.27238E+06     3.65695E+06    -23.0062E-03     44.1787E-03    -21.1726E-03     21.1230E-03    -23.0023E-03     43.7999E-03    -21.0548E-03     21.1520E-03
            2129     5.28882E-03     17.7381E-03    -29.2165E+06    -93.3032E+06    -14.0826E+06     4.00094E+06    -22.2778E-03     43.1942E-03    -20.9164E-03     17.7948E-03    -22.2708E-03     42.7931E-03    -20.8091E-03     17.8329E-03
            2130     4.40828E-03     17.7211E-03    -32.2418E+06    -99.5099E+06    -19.6631E+06     4.06085E+06    -21.6398E-03     42.3289E-03    -20.6892E-03     14.5892E-03    -21.6297E-03     41.9082E-03    -20.5964E-03     14.6317E-03
            2131     3.52724E-03     17.7072E-03    -35.2084E+06    -104.790E+06    -25.8938E+06     3.84583E+06    -21.1021E-03     41.5948E-03    -20.4927E-03     11.5170E-03    -21.0895E-03     41.1603E-03    -20.4192E-03     11.5595E-03
            2132     2.64580E-03     17.6965E-03    -37.9955E+06    -110.430E+06    -32.0185E+06     3.31958E+06    -20.6789E-03     41.0129E-03    -20.3340E-03     8.56094E-03    -20.6628E-03     40.5628E-03    -20.2789E-03     8.59889E-03
            2133     1.76405E-03     17.6888E-03    -40.2926E+06    -114.374E+06    -37.2719E+06     2.38769E+06    -20.3711E-03     40.5852E-03    -20.2140E-03     5.72305E-03    -20.3529E-03     40.1260E-03    -20.1761E-03     5.75079E-03
            2134     882.079E-06     17.6841E-03    -41.7948E+06    -116.713E+06    -40.9611E+06     1.32144E+06    -20.1958E-03     40.3157E-03    -20.1199E-03     3.09007E-03    -20.1762E-03     39.8522E-03    -20.0948E-03     3.10552E-03
            2135     16.6735E-03     17.1940E-03    -3.54400E+06     110.023E+06     65.1056E+06     190.343E+03    -32.7762E-03     58.2120E-03    -25.4358E-03     17.4701E-03    -33.1098E-03     58.7348E-03    -25.2646E-03     17.3517E-03
            2136     15.8024E-03     17.1670E-03    -6.93610E+06     106.675E+06     48.9925E+06     651.108E+03    -32.1914E-03     57.1487E-03    -24.9573E-03     33.0627E-03    -32.5558E-03     57.7251E-03    -24.8569E-03     32.9200E-03
            2137     14.9306E-03     17.1295E-03    -9.65789E+06     90.2340E+06     26.9128E+06     1.12695E+06    -31.5823E-03     56.0480E-03    -24.4657E-03     43.5425E-03    -31.9156E-03     56.5894E-03    -24.4480E-03     43.4040E-03
            2138     14.0581E-03     17.0819E-03    -11.4177E+06     41.3492E+06     8.00766E+06     1.05037E+06    -30.9067E-03     54.9444E-03    -24.0377E-03     47.2178E-03    -31.1437E-03     55.2645E-03    -24.0410E-03     47.0826E-03
            2139     13.1848E-03     17.0371E-03    -12.4522E+06    -8.56513E+06     6.80773E+03     719.258E+03    -30.0676E-03     53.7355E-03    -23.6679E-03     44.6225E-03    -30.1984E-03     53.7917E-03    -23.6374E-03     44.5034E-03
            2140     12.3107E-03     16.9941E-03    -13.4059E+06    -27.6614E+06     330.332E+03     634.143E+03    -29.1847E-03     52.4847E-03    -23.3000E-03     42.4672E-03    -29.2693E-03     52.4226E-03    -23.2388E-03     42.3713E-03
            2141     11.4358E-03     16.9530E-03    -14.5678E+06    -42.0034E+06     319.585E+03     801.478E+03    -28.3346E-03     51.2626E-03    -22.9280E-03     40.0841E-03    -28.3876E-03     51.1139E-03    -22.8444E-03     40.0108E-03
            2142     10.5603E-03     16.9143E-03    -15.8748E+06    -51.6490E+06     1.05848E+06     1.13979E+06    -27.4567E-03     50.0133E-03    -22.5566E-03     37.1567E-03    -27.4912E-03     49.8051E-03    -22.4534E-03     37.1052E-03
            2143     9.68396E-03     16.8784E-03    -17.3698E+06    -59.4022E+06     418.361E+03     1.54022E+06    -26.5412E-03     48.7232E-03    -22.1821E-03     33.7489E-03    -26.5621E-03     48.4704E-03    -22.0687E-03     33.7170E-03
            2144     8.80688E-03     16.8458E-03    -19.1535E+06    -67.4020E+06    -689.121E+03     2.06445E+06    -25.5960E-03     47.4129E-03    -21.8169E-03     30.1251E-03    -25.6063E-03     47.1180E-03    -21.6949E-03     30.1118E-03
            2145     7.92901E-03     16.8166E-03    -21.1359E+06    -74.1523E+06    -2.81583E+06     2.80207E+06    -24.6473E-03     46.1091E-03    -21.4619E-03     26.5050E-03    -24.6501E-03     45.7819E-03    -21.3378E-03     26.5107E-03
            2146     7.05035E-03     16.7907E-03    -23.2549E+06    -80.6888E+06    -5.76686E+06     3.47164E+06    -23.7296E-03     44.8541E-03    -21.1245E-03     22.9867E-03    -23.7263E-03     44.4985E-03    -21.0026E-03     23.0085E-03
            2147     6.17095E-03     16.7682E-03    -25.7127E+06    -86.8608E+06    -9.41549E+06     4.07615E+06    -22.8590E-03     43.6693E-03    -20.8103E-03     19.5996E-03    -22.8516E-03     43.2897E-03    -20.6942E-03     19.6350E-03
            2148     5.29084E-03     16.7489E-03    -28.4563E+06    -92.7596E+06    -14.0601E+06     4.55441E+06    -22.0574E-03     42.5801E-03    -20.5227E-03     16.3781E-03    -22.0471E-03     42.1802E-03    -20.4172E-03     16.4242E-03
            2149     4.41009E-03     16.7327E-03    -31.3301E+06    -98.3707E+06    -19.3691E+06     4.66119E+06    -21.3473E-03     41.6144E-03    -20.2671E-03     13.3295E-03    -21.3346E-03     41.1975E-03    -20.1759E-03     13.3804E-03
            2150     3.52879E-03     16.7196E-03    -34.1631E+06    -103.244E+06    -25.1635E+06     4.46999E+06    -20.7444E-03     40.7913E-03    -20.0469E-03     10.4544E-03    -20.7298E-03     40.3619E-03    -19.9735E-03     10.5054E-03
            2151     2.64702E-03     16.7094E-03    -36.6421E+06    -108.066E+06    -30.8433E+06     3.85069E+06    -20.2643E-03     40.1326E-03    -19.8683E-03     7.73176E-03    -20.2465E-03     39.6905E-03    -19.8127E-03     7.77694E-03
            2152     1.76488E-03     16.7022E-03    -38.5727E+06    -111.596E+06    -35.7242E+06     2.74370E+06    -19.9141E-03     39.6483E-03    -19.7341E-03     5.14976E-03    -19.8936E-03     39.1982E-03    -19.6950E-03     5.18233E-03
            2153     882.511E-06     16.6978E-03    -39.8320E+06    -113.857E+06    -39.1262E+06     1.51395E+06    -19.7181E-03     39.3462E-03    -19.6281E-03     2.77308E-03    -19.6955E-03     38.8915E-03    -19.6009E-03     2.79114E-03
            2154     16.6738E-03     16.1880E-03    -3.59010E+06     109.648E+06     65.1276E+06     273.986E+03    -33.3038E-03     58.7233E-03    -25.4195E-03     16.3628E-03    -33.6340E-03     59.2412E-03    -25.2477E-03     16.2431E-03
            2155     15.8031E-03     16.1625E-03    -7.09904E+06     105.974E+06     48.8278E+06     817.106E+03    -32.5785E-03     57.4924E-03    -24.9139E-03     31.7072E-03    -32.9378E-03     58.0612E-03    -24.8131E-03     31.5647E-03
            2156     14.9316E-03     16.1264E-03    -9.84190E+06     90.1551E+06     26.4690E+06     1.21210E+06    -31.8791E-03     56.2755E-03    -24.3964E-03     42.2106E-03    -32.2079E-03     56.8127E-03    -24.3805E-03     42.0725E-03
            2157     14.0593E-03     16.0804E-03    -11.5238E+06     42.0051E+06     7.58391E+06     1.06027E+06    -31.1709E-03     55.1147E-03    -23.9438E-03     45.7720E-03    -31.4043E-03     55.4344E-03    -23.9501E-03     45.6370E-03
            2158     13.1863E-03     16.0370E-03    -12.5638E+06    -8.20793E+06    -448.392E+03     757.942E+03    -30.3261E-03     53.8750E-03    -23.5489E-03     43.1793E-03    -30.4539E-03     53.9305E-03    -23.5211E-03     43.0611E-03
            2159     12.3124E-03     15.9953E-03    -13.5050E+06    -27.6827E+06    -172.914E+03     711.125E+03    -29.4523E-03     52.6045E-03    -23.1522E-03     40.9977E-03    -29.5340E-03     52.5406E-03    -23.0933E-03     40.9034E-03
            2160     11.4378E-03     15.9555E-03    -14.5668E+06    -42.1742E+06    -133.821E+03     876.784E+03    -28.6094E-03     51.3556E-03    -22.7462E-03     38.4826E-03    -28.6594E-03     51.2046E-03    -22.6646E-03     38.4111E-03
            2161     10.5625E-03     15.9180E-03    -15.8313E+06    -51.9508E+06     641.892E+03     1.14427E+06    -27.7177E-03     50.0531E-03    -22.3354E-03     35.3658E-03    -27.7491E-03     49.8421E-03    -22.2339E-03     35.3154E-03
            2162     9.68638E-03     15.8835E-03    -17.3004E+06    -59.7103E+06    -26.4926E+03     1.54147E+06    -26.7557E-03     48.6720E-03    -21.9163E-03     31.7638E-03    -26.7736E-03     48.4167E-03    -21.8048E-03     31.7332E-03
            2163     8.80947E-03     15.8522E-03    -18.9445E+06    -67.9152E+06    -1.14642E+06     2.12658E+06    -25.7385E-03     47.2424E-03    -21.5040E-03     27.9953E-03    -25.7450E-03     46.9440E-03    -21.3837E-03     27.9843E-03
            2164     7.93171E-03     15.8243E-03    -20.7748E+06    -74.5918E+06    -3.17520E+06     2.79217E+06    -24.6996E-03     45.8002E-03    -21.1006E-03     24.3137E-03    -24.6985E-03     45.4698E-03    -20.9782E-03     24.3207E-03
            2165     7.05309E-03     15.7997E-03    -22.7958E+06    -80.9568E+06    -5.95349E+06     3.54260E+06    -23.6754E-03     44.3913E-03    -20.7159E-03     20.8118E-03    -23.6683E-03     44.0332E-03    -20.5952E-03     20.8359E-03
            2166     6.17364E-03     15.7784E-03    -25.0381E+06    -86.9612E+06    -9.21371E+06     4.36484E+06    -22.6914E-03     43.0493E-03    -20.3580E-03     17.5272E-03    -22.6803E-03     42.6674E-03    -20.2416E-03     17.5675E-03
            2167     5.29337E-03     15.7602E-03    -27.5140E+06    -92.1834E+06    -13.4170E+06     4.94205E+06    -21.7791E-03     41.8096E-03    -20.0305E-03     14.4970E-03    -21.7655E-03     41.4100E-03    -19.9240E-03     14.5491E-03
            2168     4.41237E-03     15.7450E-03    -30.1230E+06    -97.2098E+06    -18.3110E+06     5.14565E+06    -20.9704E-03     40.7110E-03    -19.7406E-03     11.7032E-03    -20.9547E-03     40.2963E-03    -19.6475E-03     11.7612E-03
            2169     3.53072E-03     15.7328E-03    -32.6926E+06    -101.378E+06    -23.6844E+06     4.88075E+06    -20.2861E-03     39.7782E-03    -19.4920E-03     9.12269E-03    -20.2689E-03     39.3537E-03    -19.4161E-03     9.17969E-03
            2170     2.64853E-03     15.7233E-03    -34.9566E+06    -105.409E+06    -29.0373E+06     4.04651E+06    -19.7418E-03     39.0322E-03    -19.2904E-03     6.71531E-03    -19.7220E-03     38.5983E-03    -19.2321E-03     6.76345E-03
            2171     1.76594E-03     15.7166E-03    -36.6964E+06    -108.586E+06    -33.8140E+06     2.86756E+06    -19.3442E-03     38.4832E-03    -19.1390E-03     4.45764E-03    -19.3213E-03     38.0426E-03    -19.0974E-03     4.49208E-03
            2172     883.036E-06     15.7125E-03    -37.8128E+06    -110.718E+06    -37.0776E+06     1.61391E+06    -19.1232E-03     38.1419E-03    -19.0187E-03     2.39539E-03    -19.0980E-03     37.6969E-03    -18.9887E-03     2.41489E-03
            2173     16.6740E-03     15.1815E-03    -3.56546E+06     109.085E+06     65.1177E+06     368.419E+03    -33.7827E-03     59.1924E-03    -25.4097E-03     15.0910E-03    -34.1085E-03     59.7040E-03    -25.2371E-03     14.9706E-03
            2174     15.8037E-03     15.1578E-03    -6.98861E+06     105.275E+06     48.8131E+06     1.01440E+06    -32.9568E-03     57.8361E-03    -24.8792E-03     30.1832E-03    -33.3096E-03     58.3962E-03    -24.7777E-03     30.0416E-03
            2175     14.9325E-03     15.1231E-03    -9.75199E+06     90.2543E+06     26.2183E+06     1.35448E+06    -32.2293E-03     56.5640E-03    -24.3347E-03     40.7604E-03    -32.5527E-03     57.0972E-03    -24.3204E-03     40.6230E-03
            2176     14.0605E-03     15.0785E-03    -11.5466E+06     42.6705E+06     7.19984E+06     1.11098E+06    -31.5560E-03     55.4083E-03    -23.8524E-03     44.1351E-03    -31.7853E-03     55.7273E-03    -23.8615E-03     43.9999E-03
            2177     13.1878E-03     15.0367E-03    -12.5807E+06    -7.89126E+06    -851.252E+03     805.504E+03    -30.7627E-03     54.1851E-03    -23.4224E-03     41.4488E-03    -30.8867E-03     54.2390E-03    -23.3970E-03     41.3307E-03
            2178     12.3143E-03     14.9963E-03    -13.4601E+06    -27.7126E+06    -562.230E+03     767.087E+03    -29.9365E-03     52.9185E-03    -22.9820E-03     39.1112E-03    -30.0145E-03     52.8519E-03    -22.9251E-03     39.0176E-03
            2179     11.4402E-03     14.9578E-03    -14.4831E+06    -42.3017E+06    -477.590E+03     907.413E+03    -29.1086E-03     51.6313E-03    -22.5227E-03     36.3062E-03    -29.1548E-03     51.4774E-03    -22.4428E-03     36.2357E-03
            2180     10.5653E-03     14.9216E-03    -15.6566E+06    -52.1822E+06     388.574E+03     1.15009E+06    -28.1779E-03     50.2285E-03    -22.0506E-03     32.8512E-03    -28.2054E-03     50.0141E-03    -21.9503E-03     32.8020E-03
            2181     9.68962E-03     14.8885E-03    -17.0292E+06    -60.0627E+06    -237.354E+03     1.53375E+06    -27.1228E-03     48.6874E-03    -21.5646E-03     28.9538E-03    -27.1366E-03     48.4283E-03    -21.4540E-03     28.9247E-03
            2182     8.81304E-03     14.8587E-03    -18.5735E+06    -68.3956E+06    -1.32575E+06     2.08278E+06    -25.9731E-03     47.0564E-03    -21.0833E-03     25.0209E-03    -25.9753E-03     46.7537E-03    -20.9638E-03     25.0111E-03
            2183     7.93549E-03     14.8324E-03    -20.3277E+06    -75.0240E+06    -3.05811E+06     2.79547E+06    -24.7734E-03     45.3868E-03    -20.6134E-03     21.3178E-03    -24.7684E-03     45.0522E-03    -20.4904E-03     21.3267E-03
            2184     7.05692E-03     14.8092E-03    -22.3184E+06    -81.3298E+06    -5.59362E+06     3.57609E+06    -23.5737E-03     43.7403E-03    -20.1666E-03     17.9203E-03    -23.5634E-03     43.3783E-03    -20.0443E-03     17.9465E-03
            2185     6.17734E-03     14.7893E-03    -24.4497E+06    -87.1356E+06    -8.53036E+06     4.38488E+06    -22.4202E-03     42.1744E-03    -19.7543E-03     14.8526E-03    -22.4062E-03     41.7891E-03    -19.6351E-03     14.8947E-03
            2186     5.29679E-03     14.7724E-03    -26.7194E+06    -91.6941E+06    -12.3134E+06     5.07835E+06    -21.3598E-03     40.7408E-03    -19.3809E-03     12.1205E-03    -21.3441E-03     40.3404E-03    -19.2708E-03     12.1757E-03
            2187     4.41538E-03     14.7584E-03    -29.0925E+06    -95.9253E+06    -16.8989E+06     5.26643E+06    -20.4319E-03     39.4856E-03    -19.0537E-03     9.68248E-03    -20.4147E-03     39.0735E-03    -18.9569E-03     9.74300E-03
            2188     3.53322E-03     14.7471E-03    -31.2973E+06    -99.3128E+06    -22.1602E+06     4.89640E+06    -19.6578E-03     38.4330E-03    -18.7752E-03     7.48849E-03    -19.6387E-03     38.0145E-03    -18.6966E-03     7.54644E-03
            2189     2.65047E-03     14.7384E-03    -33.2818E+06    -102.636E+06    -27.4417E+06     4.06794E+06    -19.0512E-03     37.6025E-03    -18.5514E-03     5.48183E-03    -19.0292E-03     37.1776E-03    -18.4915E-03     5.53077E-03
            2190     1.76724E-03     14.7323E-03    -34.9838E+06    -105.503E+06    -31.9489E+06     2.83357E+06    -18.6142E-03     36.9994E-03    -18.3852E-03     3.62319E-03    -18.5899E-03     36.5690E-03    -18.3412E-03     3.65752E-03
            2191     883.713E-06     14.7285E-03    -36.0597E+06    -107.569E+06    -35.1904E+06     1.50329E+06    -18.3601E-03     36.6189E-03    -18.2588E-03     1.94307E-03    -18.3335E-03     36.1844E-03    -18.2264E-03     1.96130E-03
            2192     16.6741E-03     14.1745E-03    -3.59751E+06     108.394E+06     65.1222E+06     436.738E+03    -34.2448E-03     59.6497E-03    -25.4049E-03     13.6703E-03    -34.5661E-03     60.1543E-03    -25.2313E-03     13.5493E-03
            2193     15.8041E-03     14.1527E-03    -7.06506E+06     104.501E+06     48.8806E+06     1.17068E+06    -33.3949E-03     58.2440E-03    -24.8491E-03     28.4855E-03    -33.7418E-03     58.7952E-03    -24.7460E-03     28.3440E-03
            2194     14.9333E-03     14.1193E-03    -9.80120E+06     90.5027E+06     26.0810E+06     1.51911E+06    -32.7373E-03     57.0084E-03    -24.2711E-03     39.1359E-03    -33.0562E-03     57.5382E-03    -24.2577E-03     38.9983E-03
            2195     14.0618E-03     14.0763E-03    -11.4941E+06     43.4256E+06     6.95732E+06     1.17747E+06    -32.1953E-03     55.9407E-03    -23.7454E-03     42.1480E-03    -32.4200E-03     56.2587E-03    -23.7569E-03     42.0113E-03
            2196     13.1897E-03     14.0359E-03    -12.4759E+06    -7.61150E+06    -1.12097E+06     843.575E+03    -31.5201E-03     54.7798E-03    -23.2597E-03     39.1681E-03    -31.6392E-03     54.8310E-03    -23.2362E-03     39.0487E-03
            2197     12.3169E-03     13.9969E-03    -13.3284E+06    -27.7340E+06    -789.503E+03     830.608E+03    -30.7564E-03     53.5054E-03    -22.7489E-03     36.4799E-03    -30.8295E-03     53.4350E-03    -22.6934E-03     36.3863E-03
            2198     11.4436E-03     13.9597E-03    -14.3115E+06    -42.3648E+06    -594.096E+03     950.863E+03    -29.9030E-03     52.1096E-03    -22.2066E-03     33.2322E-03    -29.9446E-03     51.9519E-03    -22.1274E-03     33.1625E-03
            2199     10.5694E-03     13.9250E-03    -15.4829E+06    -52.3706E+06     341.181E+03     1.13934E+06    -28.8495E-03     50.4928E-03    -21.6433E-03     29.3685E-03    -28.8729E-03     50.2744E-03    -21.5432E-03     29.3204E-03
            2200     9.69436E-03     13.8935E-03    -16.8550E+06    -60.4052E+06    -188.965E+03     1.51462E+06    -27.5965E-03     48.6606E-03    -21.0641E-03     25.2089E-03    -27.6066E-03     48.3971E-03    -20.9530E-03     25.1815E-03
            2201     8.81819E-03     13.8655E-03    -18.4743E+06    -68.8246E+06    -1.21841E+06     2.07884E+06    -26.2108E-03     46.7035E-03    -20.4927E-03     21.2147E-03    -26.2101E-03     46.3965E-03    -20.3722E-03     21.2071E-03
            2202     7.94081E-03     13.8409E-03    -20.3185E+06    -75.4961E+06    -2.70303E+06     2.76542E+06    -24.7657E-03     44.7066E-03    -19.9408E-03     17.6158E-03    -24.7592E-03     44.3678E-03    -19.8154E-03     17.6266E-03
            2203     7.06218E-03     13.8195E-03    -22.2935E+06    -81.6085E+06    -4.86711E+06     3.49956E+06    -23.3363E-03     42.7582E-03    -19.4219E-03     14.4376E-03    -23.3255E-03     42.3928E-03    -19.2956E-03     14.4650E-03
            2204     6.18233E-03     13.8013E-03    -24.4171E+06    -87.2681E+06    -7.40216E+06     4.19902E+06    -21.9833E-03     40.9315E-03    -18.9482E-03     11.6763E-03    -21.9700E-03     40.5432E-03    -18.8233E-03     11.7178E-03
            2205     5.30134E-03     13.7859E-03    -26.5532E+06    -91.2988E+06    -11.3077E+06     4.79337E+06    -20.7562E-03     39.2770E-03    -18.5208E-03     9.30577E-03    -20.7413E-03     38.8765E-03    -18.4064E-03     9.35866E-03
            2206     4.41935E-03     13.7732E-03    -28.5393E+06    -94.5007E+06    -16.1291E+06     4.92112E+06    -19.6916E-03     37.8401E-03    -18.1485E-03     7.27878E-03    -19.6745E-03     37.4330E-03    -18.0508E-03     7.33598E-03
            2207     3.53650E-03     13.7630E-03    -30.3793E+06    -97.2872E+06    -21.2544E+06     4.47036E+06    -18.8140E-03     36.6523E-03    -17.8384E-03     5.53475E-03    -18.7944E-03     36.2411E-03    -17.7595E-03     5.58806E-03
            2208     2.65296E-03     13.7551E-03    -31.8845E+06    -100.076E+06    -26.2925E+06     3.73633E+06    -18.1373E-03     35.7307E-03    -17.5934E-03     4.00156E-03    -18.1137E-03     35.3148E-03    -17.5335E-03     4.04684E-03
            2209     1.76894E-03     13.7496E-03    -33.1101E+06    -102.515E+06    -30.5304E+06     2.76935E+06    -17.6589E-03     35.0746E-03    -17.4157E-03     2.62688E-03    -17.6316E-03     34.6543E-03    -17.3717E-03     2.66080E-03
            2210     884.562E-06     13.7462E-03    -34.2141E+06    -104.465E+06    -33.6456E+06     1.60706E+06    -17.3810E-03     34.6752E-03    -17.2942E-03     1.40437E-03    -17.3519E-03     34.2512E-03    -17.2613E-03     1.42416E-03
            2211     16.6741E-03     13.1670E-03    -3.85652E+06     107.704E+06     65.1686E+06     620.838E+03    -34.7729E-03     60.1734E-03    -25.4005E-03     12.0967E-03    -35.0909E-03     60.6712E-03    -25.2253E-03     11.9764E-03
            2212     15.8046E-03     13.1473E-03     -7.3459E+06     103.792E+06     49.1231E+06     1.22609E+06    -34.0238E-03     58.8363E-03    -24.8125E-03     26.5692E-03    -34.3664E-03     59.3789E-03    -24.7068E-03     26.4250E-03
            2213     14.9344E-03     13.1150E-03    -9.86921E+06     90.7826E+06     26.1404E+06     1.47456E+06    -33.5701E-03     57.7551E-03    -24.1850E-03     37.2267E-03    -33.8848E-03     58.2813E-03    -24.1716E-03     37.0839E-03
            2214     14.0637E-03     13.0733E-03    -11.3913E+06     44.2284E+06     6.79246E+06     1.18770E+06    -33.2550E-03     56.8453E-03    -23.5902E-03     39.6430E-03    -33.4744E-03     57.1616E-03    -23.6039E-03     39.5018E-03
            2215     13.1927E-03     13.0343E-03    -12.3316E+06    -7.36779E+06    -1.31598E+06     922.614E+03    -32.7174E-03     55.7339E-03    -23.0166E-03     36.1617E-03    -32.8305E-03     55.7810E-03    -22.9946E-03     36.0400E-03
            2216     12.3211E-03     12.9966E-03    -13.2187E+06    -27.7695E+06    -872.100E+03     963.240E+03    -31.9463E-03     54.3468E-03    -22.4005E-03     32.9777E-03    -32.0139E-03     54.2715E-03    -22.3454E-03     32.8845E-03
            2217     11.4488E-03     12.9610E-03    -14.3132E+06    -42.3194E+06    -551.710E+03     1.07814E+06    -30.9301E-03     52.6725E-03    -21.7423E-03     29.2603E-03    -30.9679E-03     52.5109E-03    -21.6630E-03     29.1929E-03
            2218     10.5756E-03     12.9280E-03    -15.5964E+06    -52.4464E+06     402.729E+03     1.18710E+06    -29.5976E-03     50.6593E-03    -21.0617E-03     25.0784E-03    -29.6181E-03     50.4373E-03    -20.9611E-03     25.0329E-03
            2219     9.70118E-03     12.8986E-03    -17.0883E+06    -60.7504E+06    -100.466E+03     1.53281E+06    -28.0146E-03     48.3867E-03    -20.3721E-03     20.8441E-03    -28.0229E-03     48.1192E-03    -20.2598E-03     20.8196E-03
            2220     8.82533E-03     12.8727E-03    -18.7755E+06    -69.2019E+06    -945.916E+03     2.10078E+06    -26.3085E-03     46.0101E-03    -19.7016E-03     16.9848E-03    -26.3074E-03     45.6995E-03    -19.5787E-03     16.9803E-03
            2221     7.94797E-03     12.8503E-03    -20.6900E+06    -75.8704E+06    -2.06772E+06     2.71968E+06    -24.5790E-03     43.6425E-03    -19.0636E-03     13.6457E-03    -24.5734E-03     43.3002E-03    -18.9339E-03     13.6585E-03
            2222     7.06911E-03     12.8310E-03    -22.8825E+06    -81.8369E+06    -3.84439E+06     3.37617E+06    -22.9093E-03     41.3796E-03    -18.4703E-03     10.8038E-03    -22.9019E-03     41.0116E-03    -18.3376E-03     10.8317E-03
            2223     6.18883E-03     12.8147E-03    -25.2547E+06    -87.1500E+06    -6.31171E+06     3.88690E+06    -21.3575E-03     39.2882E-03    -17.9307E-03     8.42651E-03    -21.3496E-03     38.8996E-03    -17.7993E-03     8.46575E-03
            2224     5.30725E-03     12.8010E-03    -27.3802E+06    -90.6228E+06    -10.7030E+06     3.96943E+06    -19.9606E-03     37.4043E-03    -17.4437E-03     6.47851E-03    -19.9514E-03     37.0072E-03    -17.3261E-03     6.52211E-03
            2225     4.42450E-03     12.7898E-03    -28.8491E+06    -93.2469E+06    -15.9467E+06     3.77300E+06    -18.7506E-03     35.7725E-03    -17.0219E-03     4.90504E-03    -18.7369E-03     35.3716E-03    -16.9246E-03     4.94843E-03
            2226     3.54075E-03     12.7808E-03    -29.8883E+06    -95.5931E+06    -20.9361E+06     3.50306E+06    -17.7551E-03     34.4320E-03    -16.6769E-03     3.63933E-03    -17.7359E-03     34.0279E-03    -16.5996E-03     3.68090E-03
            2227     2.65624E-03     12.7739E-03    -30.9339E+06    -98.0159E+06    -25.7255E+06     3.04982E+06    -16.9938E-03     33.4054E-03    -16.4116E-03     2.60095E-03    -16.9693E-03     32.9975E-03    -16.3532E-03     2.63790E-03
            2228     1.77112E-03     12.7690E-03    -31.7960E+06    -100.101E+06    -29.7426E+06     2.53440E+06    -16.4729E-03     32.6997E-03    -16.2269E-03     1.71169E-03    -16.4437E-03     32.2885E-03    -16.1843E-03     1.74292E-03
            2229     885.632E-06     12.7661E-03    -32.1890E+06    -101.179E+06    -31.9364E+06     1.82264E+06    -16.1978E-03     32.3027E-03    -16.1049E-03     923.029E-06    -16.1658E-03     31.8897E-03    -16.0712E-03     945.801E-06
            2230     16.6743E-03     12.1588E-03    -3.58037E+06     107.104E+06     65.4176E+06     785.898E+03    -35.4947E-03     60.8800E-03    -25.3853E-03     10.3681E-03    -35.8072E-03     61.3703E-03    -25.2083E-03     10.2469E-03
            2231     15.8055E-03     12.1411E-03    -7.01672E+06     103.336E+06     49.9351E+06     1.25805E+06    -34.9994E-03     59.7506E-03    -24.7511E-03     24.4742E-03    -35.3359E-03     60.2842E-03    -24.6411E-03     24.3244E-03
            2232     14.9363E-03     12.1097E-03    -9.72743E+06     90.9885E+06     26.4163E+06     1.41554E+06    -34.8963E-03     58.9435E-03    -24.0472E-03     35.0446E-03    -35.2059E-03     59.4650E-03    -24.0329E-03     34.8931E-03
            2233     14.0669E-03     12.0692E-03    -11.3645E+06     45.0009E+06     6.59376E+06     1.21364E+06    -34.8291E-03     58.1767E-03    -23.3476E-03     36.5977E-03    -35.0429E-03     58.4909E-03    -23.3634E-03     36.4496E-03
            2234     13.1974E-03     12.0315E-03    -12.3848E+06    -7.25135E+06    -1.56447E+06     1.13738E+06    -34.3153E-03     56.9650E-03    -22.6496E-03     32.4684E-03    -34.4224E-03     57.0071E-03    -22.6290E-03     32.3451E-03
            2235     12.3273E-03     11.9954E-03    -13.4559E+06    -27.7215E+06    -926.511E+03     1.26617E+06    -33.3392E-03     55.2373E-03    -21.8981E-03     28.8079E-03    -33.4027E-03     55.1575E-03    -21.8430E-03     28.7176E-03
            2236     11.4563E-03     11.9616E-03    -14.6350E+06    -42.0437E+06    -373.429E+03     1.22148E+06    -31.9470E-03     53.0521E-03    -21.1051E-03     24.8047E-03    -31.9827E-03     52.8880E-03    -21.0248E-03     24.7406E-03
            2237     10.5839E-03     11.9310E-03    -15.9476E+06    -52.4848E+06     638.027E+03     1.27467E+06    -30.1756E-03     50.4767E-03    -20.3011E-03     20.5767E-03    -30.1949E-03     50.2515E-03    -20.1987E-03     20.5352E-03
            2238     9.70990E-03     11.9041E-03    -17.5608E+06    -61.0224E+06     229.359E+03     1.63357E+06    -28.1802E-03     47.6852E-03    -19.5051E-03     16.5466E-03    -28.1887E-03     47.4143E-03    -19.3900E-03     16.5267E-03
            2239     8.83410E-03     11.8808E-03    -19.4153E+06    -69.4765E+06    -393.009E+03     2.10041E+06    -26.1321E-03     44.8776E-03    -18.7455E-03     13.0571E-03    -26.1331E-03     44.5643E-03    -18.6186E-03     13.0556E-03
            2240     7.95651E-03     11.8609E-03    -21.4912E+06    -76.1632E+06    -1.01259E+06     2.64378E+06    -24.1331E-03     42.1678E-03    -18.0346E-03     10.1493E-03    -24.1317E-03     41.8227E-03    -17.8981E-03     10.1635E-03
            2241     7.07720E-03     11.8440E-03    -23.8245E+06    -81.9603E+06    -2.35352E+06     3.19658E+06    -22.2515E-03     39.6314E-03    -17.3799E-03     7.77533E-03    -22.2502E-03     39.2614E-03    -17.2383E-03     7.80280E-03
            2242     6.19629E-03     11.8299E-03    -26.2137E+06    -86.5598E+06    -5.29753E+06     3.31092E+06    -20.5323E-03     37.3153E-03    -16.7830E-03     5.86422E-03    -20.5312E-03     36.9293E-03    -16.6460E-03     5.89734E-03
            2243     5.31392E-03     11.8182E-03    -28.2898E+06    -89.3956E+06    -10.1447E+06     2.74358E+06    -18.9997E-03     35.2467E-03    -16.2470E-03     4.36347E-03    -18.9975E-03     34.8561E-03    -16.1271E-03     4.39214E-03
            2244     4.43024E-03     11.8086E-03    -29.7625E+06    -92.1166E+06    -15.6314E+06     1.96413E+06    -17.6767E-03     33.4624E-03    -15.7857E-03     3.20302E-03    -17.6697E-03     33.0679E-03    -15.6871E-03     3.22364E-03
            2245     3.54547E-03     11.8010E-03    -30.5356E+06    -94.8978E+06    -21.5362E+06     1.81506E+06    -16.5858E-03     31.9915E-03    -15.4058E-03     2.31392E-03    -16.5698E-03     31.5927E-03    -15.3316E-03     2.33406E-03
            2246     2.65977E-03     11.7952E-03    -30.8750E+06    -96.6214E+06    -26.1392E+06     1.99393E+06    -15.7557E-03     30.8729E-03    -15.1172E-03     1.62817E-03    -15.7322E-03     30.4725E-03    -15.0630E-03     1.65170E-03
            2247     1.77349E-03     11.7910E-03    -31.0117E+06    -98.4297E+06    -28.4885E+06     1.62179E+06    -15.1983E-03     30.1201E-03    -14.9217E-03     1.06030E-03    -15.1695E-03     29.7142E-03    -14.8765E-03     1.07988E-03
            2248     886.832E-06     11.7884E-03    -30.9042E+06    -98.3634E+06    -29.9603E+06     1.32875E+06    -14.8975E-03     29.6729E-03    -14.7754E-03     569.191E-06    -14.8660E-03     29.2693E-03    -14.7378E-03     585.647E-06
            2249     16.6748E-03     11.1499E-03    -3.53706E+06     106.559E+06     65.5120E+06     751.727E+03    -36.5360E-03     61.8830E-03    -25.3469E-03     8.69916E-03    -36.8445E-03     62.3673E-03    -25.1688E-03     8.57259E-03
            2250     15.8071E-03     11.1339E-03    -6.92171E+06     102.884E+06     50.8809E+06     1.30886E+06    -36.4753E-03     61.1196E-03    -24.6443E-03     22.4242E-03    -36.8077E-03     61.6451E-03    -24.5290E-03     22.2654E-03
            2251     14.9393E-03     11.1029E-03    -9.60705E+06     91.1583E+06     27.1391E+06     1.53088E+06    -36.7936E-03     60.6249E-03    -23.8313E-03     32.6849E-03    -37.0990E-03     61.1412E-03    -23.8139E-03     32.5232E-03
            2252     14.0719E-03     11.0634E-03    -11.4771E+06     45.5788E+06     6.67158E+06     1.54505E+06    -36.8241E-03     59.8149E-03    -22.9908E-03     33.1105E-03    -37.0325E-03     60.1252E-03    -23.0069E-03     32.9579E-03
            2253     13.2042E-03     11.0273E-03    -12.9110E+06    -7.09066E+06    -1.64557E+06     1.65106E+06    -36.0436E-03     58.1861E-03    -22.1425E-03     28.3613E-03    -36.1468E-03     58.2233E-03    -22.1217E-03     28.2411E-03
            2254     12.3357E-03     10.9933E-03    -14.0923E+06    -27.3172E+06    -605.905E+03     1.52075E+06    -34.5794E-03     55.8266E-03    -21.2472E-03     24.4622E-03    -34.6418E-03     55.7441E-03    -21.1902E-03     24.3759E-03
            2255     11.4656E-03     10.9621E-03    -15.2425E+06    -41.5826E+06     215.212E+03     1.28717E+06    -32.6251E-03     52.9532E-03    -20.3281E-03     20.4953E-03    -32.6615E-03     52.7875E-03    -20.2446E-03     20.4351E-03
            2256     10.5937E-03     10.9344E-03    -16.6166E+06    -52.5102E+06     1.25212E+06     1.31064E+06    -30.3388E-03     49.7607E-03    -19.4219E-03     16.5513E-03    -30.3597E-03     49.5328E-03    -19.3154E-03     16.5139E-03
            2257     9.71966E-03     10.9105E-03    -18.2209E+06    -61.2507E+06     1.09451E+06     1.65900E+06    -27.9331E-03     46.4815E-03    -18.5484E-03     12.9978E-03    -27.9441E-03     46.2074E-03    -18.4277E-03     12.9816E-03
            2258     8.84353E-03     10.8902E-03    -20.0927E+06    -69.5944E+06     771.341E+03     2.07113E+06    -25.5808E-03     43.3128E-03    -17.7320E-03     10.0904E-03    -25.5857E-03     42.9972E-03    -17.5981E-03     10.0912E-03
            2259     7.96537E-03     10.8732E-03    -22.3293E+06    -76.4115E+06     621.982E+03     2.50590E+06    -23.3691E-03     40.3514E-03    -16.9823E-03     7.75947E-03    -23.3733E-03     40.0034E-03    -16.8360E-03     7.77389E-03
            2260     7.08532E-03     10.8589E-03    -24.7651E+06    -81.6895E+06    -784.706E+03     2.71840E+06    -21.3430E-03     37.6406E-03    -16.2976E-03     5.93501E-03    -21.3488E-03     37.2707E-03    -16.1471E-03     5.95760E-03
            2261     6.20353E-03     10.8471E-03    -26.9630E+06    -85.3982E+06    -4.29862E+06     2.18674E+06    -19.5348E-03     35.2108E-03    -15.6760E-03     4.50896E-03    -19.5405E-03     34.8301E-03    -15.5346E-03     4.52834E-03
            2262     5.32022E-03     10.8375E-03    -28.7257E+06    -87.9504E+06    -9.54884E+06     1.16146E+06    -17.9569E-03     33.0786E-03    -15.1216E-03     3.39936E-03    -17.9598E-03     32.6949E-03    -15.0002E-03     3.40801E-03
            2263     4.43559E-03     10.8298E-03    -30.3011E+06    -91.0779E+06    -15.5476E+06     236.362E+03    -16.6139E-03     31.2574E-03    -14.6435E-03     2.53182E-03    -16.6111E-03     30.8688E-03    -14.5452E-03     2.53031E-03
            2264     3.54982E-03     10.8237E-03    -31.6644E+06    -95.0790E+06    -21.2097E+06    -23.8532E+03    -15.5171E-03     29.7647E-03    -14.2476E-03     1.84605E-03    -15.5070E-03     29.3661E-03    -14.1698E-03     1.84250E-03
            2265     2.66317E-03     10.8190E-03    -32.2888E+06    -96.2236E+06    -26.3317E+06     255.224E+03    -14.6595E-03     28.5869E-03    -13.9274E-03     1.29594E-03    -14.6433E-03     28.1909E-03    -13.8728E-03     1.29701E-03
            2266     1.77584E-03     10.8155E-03    -32.4076E+06    -97.5218E+06    -29.5365E+06     298.316E+03    -14.0392E-03     27.7316E-03    -13.6925E-03     830.881E-06    -14.0171E-03     27.3338E-03    -13.6517E-03     833.325E-06
            2267     888.081E-06     10.8134E-03    -32.8319E+06    -97.1244E+06    -31.1530E+06     127.806E+03    -13.6615E-03     27.1734E-03    -13.5119E-03     434.438E-06    -13.6397E-03     26.7805E-03    -13.4792E-03     435.356E-06
            2268     16.6758E-03     10.1398E-03    -3.59930E+06     105.905E+06     65.5569E+06     787.279E+03    -38.0089E-03     63.2868E-03    -25.2779E-03     7.33162E-03    -38.3144E-03     63.7654E-03    -25.0985E-03     7.19763E-03
            2269     15.8096E-03     10.1251E-03    -7.06833E+06     102.378E+06     51.3692E+06     1.32771E+06    -38.5286E-03     63.0042E-03    -24.4756E-03     20.6537E-03    -38.8582E-03     63.5233E-03    -24.3570E-03     20.4812E-03
            2270     14.9440E-03     10.0940E-03    -9.92727E+06     90.8374E+06     27.3867E+06     1.86116E+06    -39.1282E-03     62.6501E-03    -23.5218E-03     30.3244E-03    -39.4302E-03     63.1600E-03    -23.5022E-03     30.1532E-03
            2271     14.0788E-03     10.0558E-03    -12.2388E+06     46.0273E+06     6.65315E+06     2.41231E+06    -38.8901E-03     61.4114E-03    -22.5214E-03     29.4951E-03    -39.0959E-03     61.7182E-03    -22.5371E-03     29.3461E-03
            2272     13.2129E-03     10.0220E-03    -13.7949E+06    -6.13937E+06    -1.16542E+06     2.08489E+06    -37.4815E-03     59.0066E-03    -21.5251E-03     24.3452E-03    -37.5849E-03     59.0429E-03    -21.5020E-03     24.2297E-03
            2273     12.3453E-03     9.99080E-03    -14.7479E+06    -26.6670E+06     418.637E+03     1.46834E+06    -35.3030E-03     55.8123E-03    -20.5094E-03     20.5588E-03    -35.3663E-03     55.7278E-03    -20.4472E-03     20.4752E-03
            2274     11.4756E-03     9.96295E-03    -15.8568E+06    -41.1271E+06     1.41006E+06     1.29101E+06    -32.7135E-03     52.2149E-03    -19.5014E-03     16.9516E-03    -32.7522E-03     52.0475E-03    -19.4117E-03     16.8959E-03
            2275     10.6036E-03     9.93876E-03    -17.3055E+06    -52.3814E+06     2.47807E+06     1.25119E+06    -29.9326E-03     48.4713E-03    -18.5387E-03     13.5798E-03    -29.9570E-03     48.2414E-03    -18.4253E-03     13.5460E-03
            2276     9.72907E-03     9.91843E-03    -18.9150E+06    -61.4184E+06     2.57152E+06     1.41300E+06    -27.1820E-03     44.8202E-03    -17.6382E-03     10.7285E-03    -27.1974E-03     44.5431E-03    -17.5088E-03     10.7125E-03
            2277     8.85216E-03     9.90142E-03    -20.6268E+06    -69.6438E+06     2.62346E+06     1.71410E+06    -24.6127E-03     41.4304E-03    -16.8176E-03     8.54929E-03    -24.6225E-03     41.1122E-03    -16.6736E-03     8.54789E-03
            2278     7.97306E-03     9.88736E-03    -22.5825E+06    -76.5336E+06     2.99946E+06     2.01081E+06    -22.2885E-03     38.3707E-03    -16.0822E-03     6.87485E-03    -22.2971E-03     38.0189E-03    -15.9235E-03     6.88439E-03
            2279     7.09198E-03     9.87582E-03    -24.7376E+06    -80.8382E+06     1.17271E+06     1.79177E+06    -20.2322E-03     35.6499E-03    -15.4177E-03     5.60474E-03    -20.2419E-03     35.2815E-03    -15.2587E-03     5.61621E-03
            2280     6.20920E-03     9.86643E-03    -26.7589E+06    -83.7831E+06    -3.49971E+06     644.883E+03    -18.4519E-03     33.2721E-03    -14.8202E-03     4.62191E-03    -18.4601E-03     32.8981E-03    -14.6774E-03     4.62181E-03
            2281     5.32492E-03     9.85887E-03    -28.4701E+06     -86.738E+06    -9.32065E+06    -645.243E+03    -16.9456E-03     31.2424E-03    -14.2967E-03     3.83075E-03    -16.9494E-03     30.8641E-03    -14.1763E-03     3.81625E-03
            2282     4.43939E-03     9.85290E-03    -30.1831E+06    -90.7474E+06    -14.4091E+06    -1.21934E+06    -15.7070E-03     29.5599E-03    -13.8529E-03     3.15199E-03    -15.7059E-03     29.1713E-03    -13.7496E-03     3.13172E-03
            2283     3.55286E-03     9.84822E-03    -32.2209E+06    -95.2726E+06    -19.2505E+06    -1.41057E+06    -14.7057E-03     28.1844E-03    -13.4787E-03     2.53823E-03    -14.7010E-03     27.7830E-03    -13.3901E-03     2.51674E-03
            2284     2.66553E-03     9.84465E-03    -34.3270E+06    -97.0320E+06    -25.8454E+06    -1.23000E+06    -13.8901E-03     27.0460E-03    -13.1559E-03     1.95672E-03    -13.8837E-03     26.6483E-03    -13.0947E-03     1.93857E-03
            2285     1.77748E-03     9.84214E-03    -36.0693E+06    -97.6469E+06    -32.4581E+06    -491.938E+03    -13.2551E-03     26.1552E-03    -12.9001E-03     1.36141E-03    -13.2468E-03     25.7664E-03    -12.8685E-03     1.35364E-03
            2286     888.887E-06     9.84054E-03    -37.2295E+06    -97.2567E+06    -36.2754E+06    -550.289E+03    -12.8505E-03     25.5688E-03    -12.7183E-03     756.940E-06    -12.8430E-03     25.1891E-03    -12.7047E-03     749.097E-06
            2287     16.6774E-03     9.12823E-03    -3.67625E+06     105.075E+06     65.5073E+06     878.289E+03    -39.9414E-03     65.1155E-03    -25.1741E-03     6.52696E-03    -40.2446E-03     65.5888E-03    -24.9936E-03     6.38286E-03
            2288     15.8132E-03     9.11384E-03    -7.41456E+06     101.521E+06     51.0708E+06     1.80279E+06    -40.9916E-03     65.2356E-03    -24.2439E-03     19.3529E-03    -41.3189E-03     65.7489E-03    -24.1250E-03     19.1694E-03
            2289     14.9500E-03     9.08275E-03    -11.0145E+06     90.0246E+06     27.8309E+06     2.75749E+06    -41.5070E-03     64.6466E-03    -23.1396E-03     28.0846E-03    -41.8093E-03     65.1489E-03    -23.1150E-03     27.9119E-03
            2290     14.0868E-03     9.04662E-03    -13.2323E+06     47.1389E+06     8.21414E+06     2.86442E+06    -40.5506E-03     62.5420E-03    -21.9914E-03     26.0392E-03    -40.7586E-03     62.8469E-03    -21.9995E-03     25.8922E-03
            2291     13.2220E-03     9.01606E-03    -14.1301E+06    -4.50899E+06     468.592E+03     2.01729E+06    -38.2415E-03     59.1183E-03    -20.8768E-03     20.7953E-03    -38.3456E-03     59.1553E-03    -20.8475E-03     20.6820E-03
            2292     12.3548E-03     8.98868E-03    -15.1536E+06    -26.0822E+06     2.22520E+06     1.42882E+06    -35.2646E-03     55.0553E-03    -19.7908E-03     17.5139E-03    -35.3297E-03     54.9680E-03    -19.7199E-03     17.4355E-03
            2293     11.4849E-03     8.96483E-03    -16.4615E+06    -40.4816E+06     3.36752E+06     1.08759E+06    -32.0723E-03     50.8262E-03    -18.7540E-03     14.5849E-03    -32.1155E-03     50.6579E-03    -18.6546E-03     14.5324E-03
            2294     10.6121E-03     8.94468E-03    -17.6569E+06    -52.1337E+06     4.55438E+06     789.472E+03    -28.8846E-03     46.6845E-03    -17.7999E-03     12.0394E-03    -28.9130E-03     46.4522E-03    -17.6759E-03     12.0042E-03
            2295     9.73646E-03     8.92813E-03    -18.9527E+06    -61.4122E+06     5.06034E+06     784.738E+03    -25.9084E-03     42.8483E-03    -16.9398E-03     10.0743E-03    -25.9272E-03     42.5672E-03    -16.7980E-03     10.0534E-03
            2296     8.85834E-03     8.91457E-03    -20.5409E+06    -69.7070E+06     5.49221E+06     899.956E+03    -23.2594E-03     39.4423E-03    -16.1829E-03     8.70742E-03    -23.2727E-03     39.1194E-03    -16.0246E-03     8.69759E-03
            2297     7.97799E-03     8.90351E-03    -22.2704E+06    -76.2901E+06     5.49731E+06     823.931E+03    -20.9632E-03     36.4865E-03    -15.5233E-03     7.70836E-03    -20.9744E-03     36.1320E-03    -15.3529E-03     7.70382E-03
            2298     7.09574E-03     8.89460E-03    -23.7808E+06    -79.6445E+06     2.60735E+06     86.6034E+03    -19.0173E-03     33.9578E-03    -14.9406E-03     6.95747E-03    -19.0261E-03     33.5921E-03    -14.7776E-03     6.94762E-03
            2299     6.21189E-03     8.88743E-03    -25.1513E+06    -82.2848E+06    -3.07512E+06    -1.10680E+06    -17.4044E-03     31.8363E-03    -14.4319E-03     6.32928E-03    -17.4075E-03     31.4670E-03    -14.2915E-03     6.30694E-03
            2300     5.32670E-03     8.88178E-03    -27.0382E+06    -86.1299E+06    -7.56324E+06    -2.03352E+06    -16.0998E-03     30.1123E-03    -14.0124E-03     5.74334E-03    -16.0999E-03     29.7326E-03    -13.8862E-03     5.71114E-03
            2301     4.44047E-03     8.87730E-03    -29.6496E+06    -91.1392E+06    -11.5092E+06    -2.32319E+06    -15.0736E-03     28.7420E-03    -13.6684E-03     5.11568E-03    -15.0735E-03     28.3465E-03    -13.5508E-03     5.08135E-03
            2302     3.55343E-03     8.87387E-03    -32.5590E+06    -95.6328E+06    -18.4916E+06    -2.29446E+06    -14.2663E-03     27.6359E-03    -13.3696E-03     4.38785E-03    -14.2640E-03     27.2321E-03    -13.2761E-03     4.35513E-03
            2303     2.66569E-03     8.87137E-03    -35.4267E+06    -98.6195E+06    -26.0617E+06    -1.83827E+06    -13.6328E-03     26.7552E-03    -13.1224E-03     3.54184E-03    -13.6293E-03     26.3514E-03    -13.0583E-03     3.51601E-03
            2304     1.77744E-03     8.86965E-03    -37.7647E+06    -98.6869E+06    -32.9388E+06    -936.922E+03    -13.1640E-03     26.0948E-03    -12.9308E-03     2.53195E-03    -13.1621E-03     25.7040E-03    -12.8976E-03     2.51856E-03
            2305     888.813E-06     8.86867E-03    -39.1056E+06    -97.9511E+06    -37.9953E+06    -458.985E+03    -12.8731E-03     25.6741E-03    -12.8010E-03     1.42963E-03    -12.8715E-03     25.2962E-03    -12.7923E-03     1.42305E-03
            2306     16.6795E-03     8.11464E-03    -3.80660E+06     103.714E+06     65.2069E+06     1.31063E+06    -42.2614E-03     67.3019E-03    -25.0406E-03     6.40568E-03    -42.5628E-03     67.7689E-03    -24.8594E-03     6.25285E-03
            2307     15.8177E-03     8.09992E-03    -7.94918E+06     100.054E+06     51.5802E+06     2.84006E+06    -43.4908E-03     67.4665E-03    -23.9757E-03     18.4801E-03    -43.8179E-03     67.9711E-03    -23.8514E-03     18.2928E-03
            2308     14.9567E-03     8.06950E-03    -10.8827E+06     90.2958E+06     31.5615E+06     3.05000E+06    -43.4126E-03     66.1527E-03    -22.7401E-03     25.8500E-03    -43.7155E-03     66.6463E-03    -22.6974E-03     25.6723E-03
            2309     14.0948E-03     8.03652E-03    -12.1667E+06     48.6327E+06     12.9075E+06     2.41673E+06    -41.3430E-03     62.8271E-03    -21.4842E-03     22.8493E-03    -41.5482E-03     63.1249E-03    -21.4725E-03     22.6989E-03
            2310     13.2304E-03     8.01046E-03    -13.5790E+06    -3.46656E+06     3.88727E+06     2.31889E+06    -38.0233E-03     58.3342E-03    -20.3109E-03     18.0168E-03    -38.1263E-03     58.3659E-03    -20.2668E-03     17.9151E-03
            2311     12.3626E-03     7.98766E-03    -15.4883E+06    -24.8514E+06     5.50373E+06     1.67482E+06    -34.3019E-03     53.5283E-03    -19.2264E-03     15.7053E-03    -34.3724E-03     53.4400E-03    -19.1404E-03     15.6385E-03
            2312     11.4916E-03     7.96839E-03    -16.8755E+06    -39.2823E+06     6.75561E+06     369.045E+03    -30.6250E-03     48.8639E-03    -18.2389E-03     13.7952E-03    -30.6756E-03     48.6959E-03    -18.1237E-03     13.7402E-03
            2313     10.6173E-03     7.95258E-03    -17.6662E+06    -51.7353E+06     7.92759E+06    -482.010E+03    -27.1939E-03     44.5666E-03    -17.3726E-03     12.3067E-03    -27.2274E-03     44.3309E-03    -17.2324E-03     12.2601E-03
            2314     9.74012E-03     7.93989E-03    -18.3996E+06    -61.5339E+06     8.81183E+06    -594.064E+03    -24.1802E-03     40.8108E-03    -16.6306E-03     11.3379E-03    -24.2014E-03     40.5229E-03    -16.4706E-03     11.3025E-03
            2315     8.86041E-03     7.92963E-03    -19.5164E+06    -69.8138E+06     9.47150E+06    -422.782E+03    -21.6423E-03     37.6521E-03    -16.0098E-03     10.7554E-03    -21.6563E-03     37.3216E-03    -15.8329E-03     10.7306E-03
            2316     7.97865E-03     7.92139E-03    -20.9761E+06    -75.4943E+06     7.81641E+06    -909.945E+03    -19.5533E-03     35.0416E-03    -15.4883E-03     10.3310E-03    -19.5627E-03     34.6860E-03    -15.3093E-03     10.3054E-03
            2317     7.09517E-03     7.91478E-03    -22.2560E+06    -78.3536E+06     2.94863E+06    -2.19595E+06    -17.8849E-03     32.9342E-03    -15.0492E-03     9.93731E-03    -17.8887E-03     32.5723E-03    -14.8886E-03     9.89889E-03
            2318     6.21034E-03     7.90951E-03    -23.4401E+06    -81.8700E+06    -1.38974E+06    -3.05042E+06    -16.6003E-03     31.3037E-03    -14.7034E-03     9.43558E-03    -16.5980E-03     30.9317E-03    -14.5577E-03     9.38883E-03
            2319     5.32451E-03     7.90533E-03    -25.4150E+06    -86.4997E+06    -4.14643E+06    -2.99107E+06    -15.6359E-03     30.0804E-03    -14.4444E-03     8.77074E-03    -15.6324E-03     29.6916E-03    -14.3029E-03     8.72676E-03
            2320     4.43792E-03     7.90198E-03    -28.4184E+06    -91.6360E+06    -9.70402E+06    -2.94056E+06    -14.9322E-03     29.1694E-03    -14.2372E-03     7.88011E-03    -14.9278E-03     28.7670E-03    -14.1117E-03     7.83831E-03
            2321     3.55078E-03     7.89947E-03    -31.4755E+06    -96.5867E+06    -17.9773E+06    -2.92780E+06    -14.4437E-03     28.5126E-03    -14.0688E-03     6.72481E-03    -14.4353E-03     28.1016E-03    -13.9730E-03     6.68433E-03
            2322     2.66329E-03     7.89761E-03    -33.8905E+06    -100.377E+06    -25.1206E+06    -2.43058E+06    -14.1235E-03     28.0691E-03    -13.9457E-03     5.33479E-03    -14.1112E-03     27.6529E-03    -13.8766E-03     5.30163E-03
            2323     1.77560E-03     7.89635E-03    -35.5824E+06    -100.320E+06    -31.0696E+06    -1.66991E+06    -13.9244E-03     27.7790E-03    -13.8546E-03     3.73459E-03    -13.9120E-03     27.3741E-03    -13.8129E-03     3.71194E-03
            2324     887.830E-06     7.89558E-03    -36.5433E+06    -99.2795E+06    -35.1013E+06    -799.122E+03    -13.8126E-03     27.6098E-03    -13.7972E-03     2.07395E-03    -13.8006E-03     27.2173E-03    -13.7758E-03     2.06307E-03
            2325     16.6821E-03     7.09872E-03    -2.92431E+06     101.139E+06     66.4782E+06     1.42504E+06    -44.7351E-03     69.6385E-03    -24.9035E-03     6.82576E-03    -45.0310E-03     70.0903E-03    -24.7135E-03     6.65946E-03
            2326     15.8224E-03     7.08350E-03    -5.55410E+06     99.0298E+06     56.1962E+06     2.94946E+06    -45.5410E-03     69.2612E-03    -23.7202E-03     17.8952E-03    -45.8599E-03     69.7491E-03    -23.5747E-03     17.6967E-03
            2327     14.9631E-03     7.05492E-03    -7.83240E+06     91.7293E+06     37.2705E+06     2.62696E+06    -44.2658E-03     66.6523E-03    -22.3866E-03     23.6937E-03    -44.5583E-03     67.1351E-03    -22.3219E-03     23.5110E-03
            2328     14.1014E-03     7.02676E-03    -10.8085E+06     48.4708E+06     16.9180E+06     3.17259E+06    -40.8453E-03     61.9392E-03    -21.0939E-03     20.3463E-03    -41.0430E-03     62.2221E-03    -21.0639E-03     20.2169E-03
            2329     13.2360E-03     7.00608E-03    -14.1384E+06    -2.25036E+06     8.28079E+06     3.61629E+06    -36.5798E-03     56.5408E-03    -19.9610E-03     16.6294E-03    -36.6898E-03     56.5691E-03    -19.8958E-03     16.5577E-03
            2330     12.3667E-03     6.98856E-03    -16.2262E+06    -21.9368E+06     10.4311E+06     1.35211E+06    -32.3103E-03     51.2830E-03    -18.9726E-03     15.7389E-03    -32.3941E-03     51.2014E-03    -18.8651E-03     15.6787E-03
            2331     11.4937E-03     6.97412E-03    -17.0401E+06    -37.5564E+06     11.4684E+06    -1.17372E+06    -28.3984E-03     46.5237E-03    -18.1254E-03     15.1125E-03    -28.4585E-03     46.3571E-03    -17.9889E-03     15.0454E-03
            2332     10.6174E-03     6.96270E-03    -17.5533E+06    -51.1301E+06     12.5195E+06    -2.48870E+06    -25.0069E-03     42.4385E-03    -17.4316E-03     14.7534E-03    -25.0472E-03     42.1989E-03    -17.2694E-03     14.6862E-03
            2333     9.73823E-03     6.95359E-03    -18.1254E+06    -61.9943E+06     13.4658E+06    -2.83631E+06    -22.2361E-03     39.1174E-03    -16.8813E-03     14.6641E-03    -22.2622E-03     38.8202E-03    -16.6978E-03     14.6032E-03
            2334     8.85685E-03     6.94626E-03    -18.7411E+06    -70.1323E+06     12.8653E+06    -2.68594E+06    -20.0670E-03     36.5177E-03    -16.4507E-03     14.5888E-03    -20.0817E-03     36.1797E-03    -16.2575E-03     14.5370E-03
            2335     7.97371E-03     6.94034E-03    -19.3141E+06    -74.3569E+06     9.23363E+06    -3.35644E+06    -18.4211E-03     34.5334E-03    -16.1123E-03     14.3455E-03    -18.4260E-03     34.1791E-03    -15.9303E-03     14.2899E-03
            2336     7.08928E-03     6.93551E-03    -20.1488E+06    -77.7065E+06     5.04874E+06    -4.44060E+06    -17.2311E-03     33.0958E-03    -15.8647E-03     13.8429E-03    -17.2283E-03     32.7310E-03    -15.6976E-03     13.7768E-03
            2337     6.20396E-03     6.93152E-03    -21.9011E+06    -82.6485E+06     1.96614E+06    -4.61125E+06    -16.4193E-03     32.1210E-03    -15.7018E-03     12.9974E-03    -16.4130E-03     31.7379E-03    -15.5403E-03     12.9315E-03
            2338     5.31807E-03     6.92822E-03    -24.1321E+06     -87.643E+06    -3.01124E+06    -4.23107E+06    -15.8922E-03     31.4807E-03    -15.5885E-03     11.8096E-03    -15.8823E-03     31.0826E-03    -15.4415E-03     11.7504E-03
            2339     4.43183E-03     6.92554E-03    -26.2051E+06    -92.6630E+06    -10.3184E+06    -3.69489E+06    -15.5800E-03     31.0878E-03    -15.5078E-03     10.3083E-03    -15.5623E-03     30.6779E-03    -15.3871E-03     10.2574E-03
            2340     3.54545E-03     6.92338E-03    -28.5319E+06    -97.7950E+06    -17.6212E+06    -3.25649E+06    -15.4343E-03     30.8927E-03    -15.4584E-03     8.53418E-03    -15.4100E-03     30.4708E-03    -15.3633E-03     8.48985E-03
            2341     2.65904E-03     6.92173E-03    -30.9052E+06    -102.110E+06    -24.0147E+06    -2.91643E+06    -15.3885E-03     30.8177E-03    -15.4292E-03     6.57100E-03    -15.3604E-03     30.3868E-03    -15.3564E-03     6.53178E-03
            2342     1.77268E-03     6.92054E-03    -32.6409E+06    -102.476E+06    -29.8085E+06    -2.11933E+06    -15.3779E-03     30.7820E-03    -15.4041E-03     4.49586E-03    -15.3495E-03     30.3601E-03    -15.3573E-03     4.46752E-03
            2343     886.319E-06     6.91984E-03    -33.5756E+06    -101.284E+06    -33.1924E+06    -1.10753E+06    -15.3794E-03     30.7743E-03    -15.3950E-03     2.45917E-03    -15.3524E-03     30.3646E-03    -15.3654E-03     2.44436E-03
            2344     16.6844E-03     6.08022E-03    -2.07657E+06     99.1553E+06     68.0869E+06    -129.485E+03    -46.7363E-03     71.5242E-03    -24.7879E-03     7.51692E-03    -47.0281E-03     71.9633E-03    -24.5883E-03     7.31951E-03
            2345     15.8266E-03     6.06531E-03    -3.38468E+06     97.4728E+06     59.8781E+06     1.22122E+06    -46.4111E-03     69.9400E-03    -23.5289E-03     17.6369E-03    -46.7198E-03     70.4093E-03    -23.3659E-03     17.4151E-03
            2346     14.9674E-03     6.04053E-03    -7.07615E+06     90.2774E+06     40.6387E+06     4.45561E+06    -43.4827E-03     65.6655E-03    -22.1828E-03     22.0656E-03    -43.7678E-03     66.1287E-03    -22.1002E-03     21.9206E-03
            2347     14.1043E-03     6.01863E-03    -13.2269E+06     48.1417E+06     20.1212E+06     6.62687E+06    -38.6935E-03     59.6631E-03    -20.9696E-03     19.3375E-03    -38.9014E-03     59.9371E-03    -20.9196E-03     19.2740E-03
            2348     13.2367E-03     6.00404E-03    -17.0826E+06     2.04102E+06     13.4330E+06     3.91424E+06    -33.7806E-03     53.7738E-03    -19.9932E-03     17.5615E-03    -33.9159E-03     53.8172E-03    -19.9042E-03     17.5118E-03
            2349     12.3648E-03     5.99198E-03    -17.6379E+06    -17.8959E+06     16.1310E+06    -752.211E+03    -29.3914E-03     48.5982E-03    -19.2067E-03     18.3193E-03    -29.4951E-03     48.5294E-03    -19.0746E-03     18.2444E-03
            2350     11.4891E-03     5.98232E-03    -17.6781E+06    -35.8649E+06     16.5335E+06    -3.54454E+06    -25.7045E-03     44.2911E-03    -18.5866E-03     18.9040E-03    -25.7771E-03     44.1260E-03    -18.4263E-03     18.8147E-03
            2351     10.6104E-03     5.97478E-03    -18.2417E+06    -50.5577E+06     17.3192E+06    -4.91005E+06    -22.8005E-03     40.9300E-03    -18.1295E-03     19.3232E-03    -22.8518E-03     40.6871E-03    -17.9431E-03     19.2302E-03
            2352     9.72939E-03     5.96864E-03    -18.9396E+06    -62.3819E+06     17.6844E+06     -5.6843E+06    -20.6584E-03     38.4647E-03    -17.8063E-03     19.5079E-03    -20.6939E-03     38.1604E-03    -17.6000E-03     19.4140E-03
            2353     8.84668E-03     5.96351E-03    -19.0330E+06    -70.4874E+06     14.4191E+06    -6.22681E+06    -19.1616E-03     36.7329E-03    -17.5713E-03     19.2302E-03    -19.1793E-03     36.3909E-03    -17.3694E-03     19.1352E-03
            2354     7.96288E-03     5.95913E-03    -18.5576E+06    -73.9251E+06     8.98328E+06    -6.78263E+06    -18.1678E-03     35.5727E-03    -17.4049E-03     18.4561E-03    -18.1689E-03     35.2195E-03    -17.2259E-03     18.3581E-03
            2355     7.07842E-03     5.95531E-03    -18.6278E+06    -78.5745E+06     6.16483E+06    -6.81630E+06    -17.5582E-03     34.8773E-03    -17.3191E-03     17.2438E-03    -17.5481E-03     34.5041E-03    -17.1474E-03     17.1483E-03
            2356     6.19362E-03     5.95191E-03    -19.6754E+06    -84.3111E+06     2.61675E+06    -6.07037E+06    -17.2270E-03     34.5051E-03    -17.2781E-03     15.6304E-03    -17.2081E-03     34.1092E-03    -17.1142E-03     15.5466E-03
            2357     5.30868E-03     5.94896E-03    -21.5557E+06    -89.2375E+06    -4.23747E+06    -5.23158E+06    -17.0811E-03     34.3313E-03    -17.2503E-03     13.7075E-03    -17.0541E-03     33.9231E-03    -17.1108E-03     13.6359E-03
            2358     4.42374E-03     5.94642E-03    -24.1340E+06    -95.0256E+06    -12.0691E+06    -3.95985E+06    -17.0529E-03     34.2901E-03    -17.2372E-03     11.5864E-03    -17.0188E-03     33.8677E-03    -17.1248E-03     11.5324E-03
            2359     3.53885E-03     5.94426E-03    -26.9602E+06    -99.1247E+06    -20.0380E+06    -2.61007E+06    -17.0855E-03     34.3148E-03    -17.2293E-03     9.34375E-03    -17.0479E-03     33.8874E-03    -17.1467E-03     9.30794E-03
            2360     2.65405E-03     5.94255E-03    -29.6446E+06    -103.426E+06    -25.9030E+06    -2.27279E+06    -17.1439E-03     34.3762E-03    -17.2323E-03     7.05310E-03    -17.1049E-03     33.9396E-03    -17.1689E-03     7.02226E-03
            2361     1.76932E-03     5.94134E-03    -31.6920E+06    -104.768E+06    -29.8675E+06    -1.76388E+06    -17.1931E-03     34.4280E-03    -17.2350E-03     4.76221E-03    -17.1565E-03     33.9934E-03    -17.1864E-03     4.73848E-03
            2362     884.644E-06     5.94057E-03    -32.7855E+06    -103.233E+06    -32.4389E+06    -886.649E+03    -17.2172E-03     34.4546E-03    -17.2374E-03     2.58434E-03    -17.1846E-03     34.0329E-03    -17.2024E-03     2.57238E-03
            2363     16.6861E-03     5.06025E-03    -3.43671E+06     99.5347E+06     66.6732E+06    -1.05052E+06    -47.3121E-03     72.0589E-03    -24.7468E-03     8.58249E-03    -47.6092E-03     72.5040E-03    -24.5528E-03     8.37384E-03
            2364     15.8280E-03     5.04697E-03    -7.78023E+06     93.5868E+06     55.7183E+06      594.89E+03    -45.1722E-03     68.6742E-03    -23.5020E-03     18.3835E-03    -45.4872E-03     69.1327E-03    -23.3478E-03     18.1720E-03
            2365     14.9672E-03     5.02810E-03    -12.4586E+06     83.2130E+06     40.1427E+06     7.20294E+06    -40.5690E-03     62.8686E-03    -22.2996E-03     22.1635E-03    -40.8629E-03     63.2980E-03    -22.2015E-03     22.0840E-03
            2366     14.1010E-03     5.01374E-03    -16.6749E+06     51.7106E+06     25.8215E+06     9.35426E+06    -34.8078E-03     56.1207E-03    -21.3129E-03     21.2333E-03    -35.0407E-03     56.4039E-03    -21.2346E-03     21.2343E-03
            2367     13.2296E-03     5.00519E-03    -18.7451E+06     10.7889E+06     19.8661E+06     2.00523E+06    -29.9546E-03     50.5553E-03    -20.6007E-03     21.7943E-03    -30.1176E-03     50.6330E-03    -20.4899E-03     21.7406E-03
            2368     12.3544E-03     4.99816E-03    -18.8518E+06    -14.7741E+06     20.8971E+06    -4.23234E+06    -26.2202E-03     46.3172E-03    -20.0970E-03     23.6888E-03    -26.3400E-03     46.2575E-03    -19.9438E-03     23.5819E-03
            2369     11.4759E-03     4.99249E-03    -19.0033E+06    -34.6814E+06     20.0975E+06    -6.31685E+06    -23.4397E-03     43.1812E-03    -19.7415E-03     24.6389E-03    -23.5247E-03     43.0176E-03    -19.5632E-03     24.5221E-03
            2370     10.5954E-03     4.98776E-03    -19.5033E+06    -50.1444E+06     20.0953E+06    -7.81493E+06    -21.5457E-03     41.0605E-03    -19.5148E-03     24.7646E-03    -21.6071E-03     40.8164E-03    -19.3133E-03     24.6394E-03
            2371     9.71346E-03     4.98353E-03    -19.6372E+06    -62.2341E+06     19.3931E+06    -9.26125E+06    -20.3461E-03     39.7205E-03    -19.3744E-03     24.1544E-03    -20.3871E-03     39.4145E-03    -19.1587E-03     24.0178E-03
            2372     8.83082E-03     4.97958E-03    -19.1900E+06    -70.7442E+06     14.1856E+06    -10.5656E+06    -19.6383E-03     38.9096E-03    -19.2713E-03     22.8463E-03    -19.6555E-03     38.5662E-03    -19.0700E-03     22.6977E-03
            2373     7.94780E-03     4.97590E-03    -18.5322E+06    -75.4485E+06     6.96895E+06    -10.5307E+06    -19.2491E-03     38.4451E-03    -19.1960E-03     21.0275E-03    -19.2447E-03     38.0866E-03    -19.0249E-03     20.8826E-03
            2374     7.06461E-03     4.97242E-03    -18.4944E+06    -81.0681E+06     1.46799E+06    -9.15746E+06    -19.0587E-03     38.2180E-03    -19.1594E-03     18.8873E-03    -19.0372E-03     37.8385E-03    -19.0077E-03     18.7625E-03
            2375     6.18139E-03     4.96916E-03    -19.4555E+06    -87.1675E+06    -4.45150E+06    -7.30146E+06    -18.9881E-03     38.1275E-03    -19.1394E-03     16.5482E-03    -18.9536E-03     37.7270E-03    -19.0070E-03     16.4490E-03
            2376     5.29821E-03     4.96622E-03    -21.3496E+06    -91.9573E+06    -10.6124E+06    -5.09506E+06    -18.9864E-03     38.1122E-03    -19.1258E-03     14.1180E-03    -18.9451E-03     37.6991E-03    -19.0146E-03     14.0486E-03
            2377     4.41509E-03     4.96363E-03    -23.9345E+06    -97.9682E+06    -15.7997E+06    -2.99706E+06    -19.0177E-03     38.1394E-03    -19.1217E-03     11.6817E-03    -18.9729E-03     37.7074E-03    -19.0240E-03     11.6402E-03
            2378     3.53203E-03     4.96144E-03    -26.3854E+06    -100.750E+06    -21.9971E+06    -1.40606E+06    -19.0414E-03     38.1484E-03    -19.1070E-03     9.27577E-03    -18.9957E-03     37.7148E-03    -19.0326E-03     9.25558E-03
            2379     2.64897E-03     4.95967E-03    -28.4264E+06    -103.994E+06    -26.5741E+06    -748.220E+03    -19.0651E-03     38.1644E-03    -19.0993E-03     6.92309E-03    -19.0182E-03     37.7242E-03    -19.0402E-03     6.91199E-03
            2380     1.76598E-03     4.95839E-03    -30.4648E+06    -106.115E+06    -28.9710E+06    -759.192E+03    -19.0841E-03     38.1815E-03    -19.0974E-03     4.63867E-03    -19.0407E-03     37.7370E-03    -19.0442E-03     4.62793E-03
            2381     882.996E-06     4.95760E-03    -31.9004E+06    -104.592E+06    -31.5253E+06    -519.227E+03    -19.0775E-03     38.1675E-03    -19.0900E-03     2.50681E-03    -19.0398E-03     37.7364E-03    -19.0497E-03     2.49960E-03
            2382     16.6843E-03     4.04095E-03    -5.21651E+06     99.3348E+06     64.9510E+06     1.10742E+06    -45.4144E-03     70.3544E-03    -24.9400E-03     10.9378E-03    -45.7162E-03     70.8025E-03    -24.7517E-03     10.7775E-03
            2383     15.8238E-03     4.03106E-03    -12.3810E+06     89.3505E+06     51.5626E+06     3.54388E+06    -41.1282E-03     64.9940E-03    -23.8658E-03     21.5695E-03    -41.4489E-03     65.4393E-03    -23.7196E-03     21.4364E-03
            2384     14.9587E-03     4.01969E-03    -17.5311E+06     76.3152E+06     38.7276E+06     7.40927E+06    -35.4431E-03     58.4090E-03    -22.9659E-03     25.8017E-03    -35.7428E-03     58.8061E-03    -22.8575E-03     25.7662E-03
            2385     14.0875E-03     4.01318E-03    -18.0387E+06     58.0416E+06     29.3667E+06     6.77623E+06    -30.0515E-03     52.3698E-03    -22.3183E-03     27.1806E-03    -30.3000E-03     52.6759E-03    -22.2294E-03     27.1793E-03
            2386     13.2119E-03     4.00941E-03    -17.4501E+06     20.7921E+06     22.4345E+06    -742.202E+03    -26.5281E-03     48.4468E-03    -21.9188E-03     28.8903E-03    -26.6993E-03     48.5653E-03    -21.8115E-03     28.8204E-03
            2387     12.3338E-03     4.00607E-03    -18.5987E+06    -12.9874E+06     20.0240E+06    -6.66319E+06    -24.3523E-03     46.0358E-03    -21.6835E-03     30.0989E-03    -24.4695E-03     45.9830E-03    -21.5376E-03     29.9720E-03
            2388     11.4541E-03     4.00271E-03    -19.4972E+06    -33.4684E+06     16.7523E+06    -9.24934E+06    -23.0032E-03     44.5227E-03    -21.5195E-03     29.7958E-03    -23.0856E-03     44.3683E-03    -21.3590E-03     29.6482E-03
            2389     10.5737E-03     3.99937E-03    -18.8938E+06    -49.6368E+06     14.4002E+06    -11.6003E+06    -22.2634E-03     43.6749E-03    -21.4116E-03     28.3871E-03    -22.3128E-03     43.4389E-03    -21.2402E-03     28.2173E-03
            2390     9.69296E-03     3.99586E-03    -17.7451E+06    -62.0513E+06     11.8101E+06    -13.3202E+06    -21.8613E-03     43.1916E-03    -21.3303E-03     26.3139E-03    -21.8811E-03     42.8935E-03    -21.1556E-03     26.1276E-03
            2391     8.81210E-03     3.99235E-03    -17.1843E+06    -71.7378E+06     7.03235E+06    -14.0976E+06    -21.6424E-03     42.8958E-03    -21.2534E-03     23.8280E-03    -21.6371E-03     42.5540E-03    -21.0893E-03     23.6355E-03
            2392     7.93119E-03     3.98887E-03    -17.4858E+06    -78.9379E+06     1.43398E+06    -13.0881E+06    -21.5033E-03     42.6827E-03    -21.1794E-03     21.1501E-03    -21.4801E-03     42.3126E-03    -21.0324E-03     20.9733E-03
            2393     7.05023E-03     3.98552E-03    -18.5941E+06    -85.5004E+06    -5.00033E+06    -10.1979E+06    -21.3882E-03     42.4950E-03    -21.1068E-03     18.4350E-03    -21.3511E-03     42.1025E-03    -20.9809E-03     18.2975E-03
            2394     6.16919E-03     3.98237E-03    -20.6422E+06    -91.2278E+06    -11.9896E+06    -6.86747E+06    -21.2797E-03     42.3157E-03    -21.0360E-03     15.7713E-03    -21.2341E-03     41.9073E-03    -20.9337E-03     15.6782E-03
            2395     5.28807E-03     3.97948E-03    -23.0670E+06    -95.7395E+06    -17.5832E+06    -3.92094E+06    -21.1756E-03     42.1508E-03    -20.9752E-03     13.2179E-03    -21.1272E-03     41.7313E-03    -20.8908E-03     13.1639E-03
            2396     4.40688E-03     3.97692E-03    -25.1205E+06    -100.297E+06    -21.0336E+06    -1.77381E+06    -21.0825E-03     42.0111E-03    -20.9286E-03     10.7904E-03    -21.0326E-03     41.5767E-03    -20.8519E-03     10.7649E-03
            2397     3.52561E-03     3.97478E-03    -26.7005E+06    -102.442E+06    -23.9621E+06    -465.525E+03    -20.9932E-03     41.8779E-03    -20.8847E-03     8.48157E-03    -20.9437E-03     41.4392E-03    -20.8173E-03     8.47369E-03
            2398     2.64430E-03     3.97308E-03    -28.0163E+06    -104.289E+06    -26.7298E+06     530.438E+03    -20.9135E-03     41.7602E-03    -20.8467E-03     6.28478E-03    -20.8638E-03     41.3181E-03    -20.7885E-03     6.29030E-03
            2399     1.76290E-03     3.97181E-03    -29.2229E+06    -105.802E+06    -28.8494E+06     420.624E+03    -20.8508E-03     41.6693E-03    -20.8185E-03     4.19054E-03    -20.8019E-03     41.2244E-03    -20.7669E-03     4.19511E-03
            2400     881.456E-06     3.97108E-03    -30.0659E+06    -105.139E+06    -30.1927E+06     11.6014E+03    -20.8026E-03     41.6069E-03    -20.8042E-03     2.25746E-03    -20.7569E-03     41.1685E-03    -20.7592E-03     2.25715E-03
            2401     16.6751E-03     3.02469E-03    -5.42393E+06     96.3484E+06     64.0381E+06     4.61241E+06    -39.9410E-03     65.5582E-03    -25.6171E-03     16.8354E-03    -40.2366E-03     65.9919E-03    -25.4288E-03     16.7601E-03
            2402     15.8091E-03     3.02048E-03    -12.0738E+06     87.6888E+06     52.1403E+06     6.78802E+06    -34.8425E-03     59.7433E-03    -24.9008E-03     28.9862E-03    -35.1545E-03     60.1736E-03    -24.7498E-03     28.9441E-03
            2403     14.9372E-03     3.01716E-03    -15.6065E+06     76.5370E+06     38.6681E+06     5.18835E+06    -30.0650E-03     54.4468E-03    -24.3818E-03     33.1962E-03    -30.3470E-03     54.8338E-03    -24.2768E-03     33.1704E-03
            2404     14.0611E-03     3.01577E-03    -15.2631E+06     62.8054E+06     25.8552E+06     1.47571E+06    -27.0169E-03     51.0629E-03    -24.0460E-03     34.6012E-03    -27.2465E-03     51.3865E-03    -23.9857E-03     34.5557E-03
            2405     13.1835E-03     3.01445E-03    -14.7287E+06     26.9909E+06     15.0663E+06    -2.77672E+06    -25.8188E-03     49.6744E-03    -23.8556E-03     34.4705E-03    -25.9695E-03     49.8247E-03    -23.7981E-03     34.3888E-03
            2406     12.3056E-03     3.01248E-03    -15.4531E+06    -10.2739E+06     9.26677E+06    -7.63943E+06    -25.3548E-03     49.0871E-03    -23.7323E-03     33.0562E-03    -25.4408E-03     49.0545E-03    -23.6487E-03     32.9252E-03
            2407     11.4277E-03     3.00985E-03    -15.4530E+06    -31.4743E+06     2.33477E+06    -11.9277E+06    -25.1089E-03     48.6989E-03    -23.5901E-03     30.6439E-03    -25.1505E-03     48.5666E-03    -23.5104E-03     30.4669E-03
            2408     10.5498E-03     3.00680E-03    -14.6740E+06    -49.2405E+06    -2.68296E+06    -14.6609E+06    -24.9515E-03     48.4031E-03    -23.4516E-03     27.7086E-03    -24.9539E-03     48.1858E-03    -23.3723E-03     27.5027E-03
            2409     9.67191E-03     3.00366E-03    -14.5078E+06    -63.0807E+06    -5.90237E+06    -15.5358E+06    -24.7652E-03     48.0790E-03    -23.3138E-03     24.6350E-03    -24.7405E-03     47.7955E-03    -23.2308E-03     24.4222E-03
            2410     8.79385E-03     3.00037E-03    -15.2714E+06    -74.0906E+06    -9.21971E+06    -15.0403E+06    -24.5257E-03     47.6964E-03    -23.1707E-03     21.6226E-03    -24.4831E-03     47.3629E-03    -23.0872E-03     21.4194E-03
            2411     7.91559E-03     2.99720E-03    -16.8890E+06    -83.6785E+06    -10.4081E+06    -13.0388E+06    -24.2479E-03     47.2858E-03    -23.0379E-03     18.7360E-03    -24.1972E-03     46.9078E-03    -22.9441E-03     18.5609E-03
            2412     7.03705E-03     2.99417E-03    -19.0404E+06    -91.3983E+06    -12.0427E+06    -9.40606E+06    -23.9380E-03     46.8423E-03    -22.9043E-03     16.0201E-03    -23.8841E-03     46.4309E-03    -22.8044E-03     15.8936E-03
            2413     6.15825E-03     2.99135E-03    -21.1874E+06    -96.0614E+06    -15.5190E+06    -5.37469E+06    -23.6086E-03     46.3733E-03    -22.7647E-03     13.5002E-03    -23.5533E-03     45.9465E-03    -22.6723E-03     13.4271E-03
            2414     5.27915E-03     2.98878E-03    -23.2946E+06    -99.3118E+06    -19.7204E+06    -2.23843E+06    -23.2849E-03     45.9159E-03    -22.6310E-03     11.1822E-03    -23.2292E-03     45.4818E-03    -22.5518E-03     11.1505E-03
            2415     4.39976E-03     2.98652E-03    -25.2766E+06    -101.896E+06    -23.4184E+06    -427.366E+03    -22.9870E-03     45.5004E-03    -22.5134E-03     9.04029E-03    -22.9320E-03     45.0616E-03    -22.4461E-03     9.03266E-03
            2416     3.52013E-03     2.98462E-03    -26.8518E+06    -103.575E+06    -25.7769E+06     512.885E+03    -22.7308E-03     45.1481E-03    -22.4173E-03     7.05188E-03    -22.6777E-03     44.7065E-03    -22.3570E-03     7.05694E-03
            2417     2.64028E-03     2.98312E-03    -27.6994E+06    -104.385E+06    -27.1658E+06     1.03862E+06    -22.5235E-03     44.8650E-03    -22.3415E-03     5.19675E-03    -22.4714E-03     44.4226E-03    -22.2858E-03     5.20905E-03
            2418     1.76028E-03     2.98204E-03    -27.7837E+06    -104.650E+06    -27.9330E+06     915.470E+03    -22.3698E-03     44.6563E-03    -22.2865E-03     3.45094E-03    -22.3166E-03     44.2138E-03    -22.2341E-03     3.46204E-03
            2419     880.165E-06     2.98135E-03    -27.7322E+06    -104.730E+06    -27.9993E+06     410.822E+03    -22.2716E-03     44.5327E-03    -22.2612E-03     1.85365E-03    -22.2179E-03     44.0898E-03    -22.2091E-03     1.85858E-03
            2420     16.6516E-03     2.01506E-03    -4.74829E+06     93.0549E+06     63.2957E+06     6.22101E+06    -32.0894E-03     59.0945E-03    -27.0051E-03     26.9925E-03    -32.3729E-03     59.5091E-03    -26.8167E-03     26.9806E-03
            2421     15.7781E-03     2.01609E-03    -7.48410E+06     89.1232E+06     55.4438E+06     5.95468E+06    -30.0517E-03     56.7592E-03    -26.7075E-03     37.1417E-03    -30.3373E-03     57.1743E-03    -26.5487E-03     37.1276E-03
            2422     14.9024E-03     2.01744E-03    -7.88843E+06     80.9901E+06     37.4312E+06     2.41555E+06    -28.6553E-03     55.0871E-03    -26.4317E-03     37.7839E-03    -28.8912E-03     55.4736E-03    -26.3506E-03     37.7496E-03
            2423     14.0265E-03     2.01696E-03    -8.39220E+06     64.5681E+06     11.7908E+06    -759.852E+03    -28.4569E-03     54.6165E-03    -26.1596E-03     35.7426E-03    -28.6249E-03     54.9490E-03    -26.1821E-03     35.6860E-03
            2424     13.1517E-03     2.01571E-03    -8.67928E+06     30.0033E+06    -5.70656E+06    -3.50539E+06    -28.7562E-03     54.6930E-03    -25.9368E-03     32.2514E-03    -28.8443E-03     54.8726E-03    -25.9962E-03     32.1720E-03
            2425     12.2774E-03     2.01375E-03    -8.33074E+06    -5.99443E+06    -13.1259E+06    -8.09462E+06    -28.8837E-03     54.6173E-03    -25.7336E-03     28.7510E-03    -28.9036E-03     54.6237E-03    -25.7785E-03     28.6219E-03
            2426     11.4032E-03     2.01142E-03    -8.60670E+06    -29.6136E+06    -20.7162E+06    -11.9891E+06    -28.7557E-03     54.2434E-03    -25.4876E-03     25.3330E-03    -28.7295E-03     54.1410E-03    -25.5358E-03     25.1605E-03
            2427     10.5288E-03     2.00880E-03    -10.1931E+06    -49.6295E+06    -25.3773E+06    -13.5715E+06    -28.4123E-03     53.6510E-03    -25.2388E-03     22.0951E-03    -28.3569E-03     53.4564E-03    -25.2789E-03     21.9070E-03
            2428     9.65401E-03     2.00616E-03    -12.5106E+06    -65.1758E+06    -26.3694E+06    -13.5874E+06    -27.9308E-03     52.9289E-03    -24.9981E-03     19.1313E-03    -27.8622E-03     52.6606E-03    -25.0173E-03     18.9464E-03
            2429     8.77872E-03     2.00360E-03    -15.2174E+06    -77.4437E+06    -26.5728E+06    -12.3714E+06    -27.3685E-03     52.1284E-03    -24.7598E-03     16.4701E-03    -27.2948E-03     51.8025E-03    -24.7583E-03     16.3035E-03
            2430     7.90287E-03     2.00107E-03    -18.1461E+06    -88.4522E+06    -24.8983E+06    -10.1461E+06    -26.7668E-03     51.3051E-03    -24.5383E-03     14.0500E-03    -26.6938E-03     50.9257E-03    -24.5083E-03     13.9139E-03
            2431     7.02651E-03     1.99873E-03    -20.7055E+06    -96.8067E+06    -22.2691E+06    -7.28301E+06    -26.1629E-03     50.4937E-03    -24.3308E-03     11.8682E-03    -26.0942E-03     50.0722E-03    -24.2717E-03     11.7705E-03
            2432     6.14959E-03     1.99659E-03    -22.5280E+06    -100.946E+06    -21.0042E+06    -3.96151E+06    -25.5756E-03     49.7025E-03    -24.1269E-03     9.90549E-03    -25.5117E-03     49.2610E-03    -24.0529E-03     9.85155E-03
            2433     5.27215E-03     1.99465E-03    -23.7371E+06    -102.272E+06    -21.5740E+06    -1.02282E+06    -25.0231E-03     48.9540E-03    -23.9309E-03     8.13366E-03    -24.9624E-03     48.5084E-03    -23.8560E-03     8.11839E-03
            2434     4.39424E-03     1.99296E-03    -24.6474E+06    -103.058E+06    -23.1212E+06     669.344E+03    -24.5286E-03     48.2834E-03    -23.7548E-03     6.53157E-03    -24.4690E-03     47.8374E-03    -23.6852E-03     6.53869E-03
            2435     3.51590E-03     1.99154E-03    -25.3106E+06    -103.730E+06    -24.6132E+06     1.23277E+06    -24.1108E-03     47.7180E-03    -23.6073E-03     5.06739E-03    -24.0513E-03     47.2718E-03    -23.5432E-03     5.08220E-03
            2436     2.63722E-03     1.99041E-03    -25.5840E+06    -103.869E+06    -25.2440E+06     1.05295E+06    -23.7807E-03     47.2735E-03    -23.4928E-03     3.71663E-03    -23.7215E-03     46.8278E-03    -23.4313E-03     3.72944E-03
            2437     1.75830E-03     1.98959E-03    -25.6134E+06    -103.738E+06    -25.2872E+06     743.611E+03    -23.5423E-03     46.9529E-03    -23.4106E-03     2.45960E-03    -23.4833E-03     46.5080E-03    -23.3495E-03     2.46869E-03
            2438     879.199E-06     1.98909E-03    -25.5734E+06    -103.789E+06    -25.5051E+06     478.830E+03    -23.3872E-03     46.7516E-03    -23.3644E-03     1.31815E-03    -23.3276E-03     46.3067E-03    -23.3044E-03     1.32406E-03
            2439     16.6132E-03     1.01097E-03    -1.26476E+06     92.3087E+06     65.5640E+06     3.92914E+06    -29.6399E-03     58.5706E-03    -28.9307E-03     32.4764E-03    -29.8976E-03     58.9609E-03    -28.7349E-03     32.4663E-03
            2440     15.7387E-03     1.01195E-03    -728.041E+03     91.5416E+06     57.0664E+06     2.97021E+06    -31.7520E-03     60.4971E-03    -28.7451E-03     32.1467E-03    -31.9896E-03     60.8908E-03    -28.5914E-03     32.1312E-03
            2441     14.8670E-03     1.01281E-03    -930.549E+03     83.5654E+06     29.3400E+06     1.30286E+06    -32.5857E-03     60.9664E-03    -28.3807E-03     27.5932E-03    -32.7638E-03     61.3519E-03    -28.3538E-03     27.5730E-03
            2442     13.9970E-03     1.01140E-03    -1.57619E+06     65.6792E+06    -5.78343E+06    -251.169E+03    -33.0222E-03     60.9567E-03    -27.9345E-03     23.4852E-03    -33.1226E-03     61.3008E-03    -28.0564E-03     23.4549E-03
            2443     13.1272E-03     1.01035E-03    -1.66666E+06     32.8396E+06    -27.5581E+06    -2.83831E+06    -32.9948E-03     60.5272E-03    -27.5324E-03     19.7252E-03    -33.0141E-03     60.7367E-03    -27.7154E-03     19.6691E-03
            2444     12.2569E-03     1.00891E-03    -2.44734E+06    -2.71558E+06    -36.5564E+06    -5.78785E+06    -32.6205E-03     59.7934E-03    -27.1729E-03     16.8484E-03    -32.5779E-03     59.8382E-03    -27.3482E-03     16.7597E-03
            2445     11.3860E-03     1.00737E-03    -4.91753E+06    -29.0093E+06    -42.1985E+06    -7.37127E+06    -31.9831E-03     58.7905E-03    -26.8074E-03     14.3891E-03    -31.9057E-03     58.7148E-03    -26.9692E-03     14.2840E-03
            2446     10.5144E-03     1.00586E-03    -8.32796E+06    -50.3315E+06    -43.7368E+06    -7.92546E+06    -31.1830E-03     57.6399E-03    -26.4570E-03     12.3057E-03    -31.0890E-03     57.4644E-03    -26.5906E-03     12.1962E-03
            2447     9.64195E-03     1.00435E-03    -11.9473E+06    -67.1399E+06    -41.9794E+06    -7.81339E+06    -30.3064E-03     56.4323E-03    -26.1259E-03     10.5016E-03    -30.2084E-03     56.1752E-03    -26.2211E-03     10.3956E-03
            2448     8.76866E-03     1.00287E-03    -15.5299E+06    -80.5509E+06    -38.5089E+06    -6.75532E+06    -29.4109E-03     55.2248E-03    -25.8138E-03     8.92741E-03    -29.3163E-03     54.9006E-03    -25.8670E-03     8.83642E-03
            2449     7.89459E-03     1.00150E-03    -18.8109E+06    -91.7141E+06    -34.5459E+06    -5.36916E+06    -28.5235E-03     54.0443E-03    -25.5207E-03     7.55049E-03    -28.4347E-03     53.6632E-03    -25.5332E-03     7.47843E-03
            2450     7.01964E-03     1.00021E-03    -21.5089E+06    -100.232E+06    -30.3215E+06    -4.01241E+06    -27.6761E-03     52.9248E-03    -25.2487E-03     6.33602E-03    -27.5945E-03     52.4989E-03    -25.2238E-03     6.28221E-03
            2451     6.14400E-03     999.033E-06    -23.3256E+06    -104.546E+06    -26.4052E+06    -2.33276E+06    -26.8873E-03     51.8826E-03    -24.9953E-03     5.25548E-03    -26.8141E-03     51.4320E-03    -24.9419E-03     5.22389E-03
            2452     5.26767E-03     997.996E-06    -24.2287E+06    -104.688E+06    -23.7961E+06    -476.870E+03    -26.1658E-03     50.9245E-03    -24.7587E-03     4.29260E-03    -26.1007E-03     50.4707E-03    -24.6907E-03     4.28536E-03
            2453     4.39071E-03     997.095E-06    -24.4868E+06    -103.797E+06    -22.7563E+06     736.200E+03    -25.5329E-03     50.0785E-03    -24.5456E-03     3.43002E-03    -25.4718E-03     49.6280E-03    -24.4734E-03     3.43874E-03
            2454     3.51323E-03     996.332E-06    -24.3568E+06    -103.318E+06    -22.7205E+06     968.360E+03    -25.0032E-03     49.3671E-03    -24.3639E-03     2.65212E-03    -24.9422E-03     48.9188E-03    -24.2924E-03     2.66405E-03
            2455     2.63532E-03     995.722E-06    -24.1707E+06    -103.119E+06    -23.0918E+06     739.733E+03    -24.5828E-03     48.8012E-03    -24.2184E-03     1.94004E-03    -24.5207E-03     48.3541E-03    -24.1493E-03     1.94919E-03
            2456     1.75707E-03     995.275E-06    -24.1303E+06    -103.098E+06    -23.5424E+06     426.712E+03    -24.2779E-03     48.3896E-03    -24.1116E-03     1.28067E-03    -24.2150E-03     47.9432E-03    -24.0449E-03     1.28592E-03
            2457     878.596E-06     994.998E-06    -24.1126E+06    -103.098E+06    -23.8771E+06     200.418E+03    -24.0823E-03     48.1333E-03    -24.0510E-03     685.564E-06    -24.0187E-03     47.6874E-03    -23.9860E-03     688.021E-06


