********************************************************************************
Field Output Report, written Tue May 28 22:17:52 2024

Source 1
---------

   ODB: G:/Abaqus_calc_2019/1740/Vel_10/odb/zeides_2a_40_red_1500_cal_10_vel_10_fric_050.odb
   Step: Step-1
   Frame: Increment  12018626: Step Time =    1.238

Loc 1 : Nodal values from source 1

Output sorted by column "Nodal Label".

Field Output reported at nodes for region: DIE_2A_40_D0_36-1.Region_1
   Computation algorithm: EXTRAPOLATE_COMPUTE_AVERAGE
   Averaged at nodes
   Averaging regions: ODB_REGIONS

      Node Label     COORD.COOR1     COORD.COOR2
                          @Loc 1          @Loc 1
-------------------------------------------------
               1     20.5329E-03     151.728E-03


Field Output reported at nodes for region: DIE_2A_40_D0_36-1.Region_2
   Computation algorithm: EXTRAPOLATE_COMPUTE_AVERAGE
   Averaged at nodes
   Averaging regions: ODB_REGIONS

      Node Label     COORD.COOR1     COORD.COOR2
                          @Loc 1          @Loc 1
-------------------------------------------------
               1     20.5329E-03     151.728E-03


Field Output reported at nodes for part: WIRE-1
   Computation algorithm: EXTRAPOLATE_COMPUTE_AVERAGE
   Averaged at nodes
   Averaging regions: ODB_REGIONS

      Node Label     COORD.COOR1     COORD.COOR2           S.S11           S.S22           S.S33           S.S12         PE.PE11         PE.PE22         PE.PE33         PE.PE12         LE.LE11         LE.LE22         LE.LE33         LE.LE12
                          @Loc 1          @Loc 1          @Loc 1          @Loc 1          @Loc 1          @Loc 1          @Loc 1          @Loc 1          @Loc 1          @Loc 1          @Loc 1          @Loc 1          @Loc 1          @Loc 1
-------------------------------------------------------------------------------------------------------------------------------------------------------------------------------------------------------------------------------------------------
               1    -71.7363E-09     75.1763E-03    -110.042E+06    -286.096E+06    -109.869E+06     615.451E+03    -169.950E-03     339.573E-03    -169.623E-03     12.2206E-03    -169.938E-03     338.475E-03    -169.598E-03     11.5146E-03
               2     15.1961E-03     78.9696E-03    -1.87502E+06     92.9903E+06     85.6831E+06     247.929E+03    -168.217E-03     337.769E-03    -169.552E-03     103.368E-03    -172.579E-03     342.206E-03    -169.256E-03     91.0647E-03
               3     14.2491E-03     157.310E-03     13.3969E+06    -29.1863E+06     23.1342E+06     5.70128E+06     119.282E-03     97.5880E-03    -216.870E-03    -1.30994E-03     119.374E-03     97.4053E-03    -216.731E-03    -1.23637E-03
               4     1.44749E-06     150.007E-03     8.12759E+06    -17.1224E+06     3.39969E+06    -5.31606E+06    -161.269E-03     324.094E-03    -162.825E-03    -32.2793E-03    -161.484E-03     323.694E-03    -162.795E-03    -32.7041E-03
               5     281.341E-09     2.80331E-15    -53.0706E+06    -227.917E+06    -51.8178E+06     1.90953E+06    -165.080E-03     329.783E-03    -164.703E-03     2.29064E-03    -164.938E-03     328.796E-03    -164.554E-03     2.24995E-03
               6     14.7771E-03     2.80331E-15     3.74703E+06     92.7792E+06     89.2903E+06     3.16865E+06    -421.077E-03     605.483E-03    -184.407E-03     328.487E-03    -429.584E-03     614.000E-03    -184.100E-03     291.608E-03
               7     759.227E-06     75.1918E-03    -109.071E+06    -284.228E+06    -106.878E+06     326.236E+03    -169.890E-03     339.574E-03    -169.685E-03     20.5824E-03    -169.909E-03     338.508E-03    -169.649E-03     19.3951E-03
               8     1.51900E-03     75.2276E-03    -106.365E+06    -279.028E+06    -98.7663E+06     81.7852E+03    -169.987E-03     339.733E-03    -169.746E-03     38.1260E-03    -170.101E-03     338.765E-03    -169.681E-03     35.9057E-03
               9     2.27884E-03     75.2863E-03    -101.836E+06    -264.392E+06    -86.8280E+06     134.469E+03    -170.368E-03     340.119E-03    -169.751E-03     56.4679E-03    -170.650E-03     339.353E-03    -169.654E-03     53.1110E-03
              10     3.03838E-03     75.3676E-03    -95.8631E+06    -245.968E+06    -72.1127E+06    -60.1804E+03    -170.876E-03     340.652E-03    -169.776E-03     74.7225E-03    -171.405E-03     340.176E-03    -169.641E-03     70.1334E-03
              11     3.79800E-03     75.4712E-03    -89.6315E+06    -226.785E+06    -57.1776E+06    -292.751E+03    -171.457E-03     341.258E-03    -169.802E-03     92.7728E-03    -172.318E-03     341.162E-03    -169.629E-03     86.8426E-03
              12     4.55754E-03     75.5968E-03    -83.2025E+06    -209.657E+06    -43.7737E+06    -81.6373E+03    -172.107E-03     341.926E-03    -169.819E-03     110.620E-03    -173.399E-03     342.306E-03    -169.613E-03     103.223E-03
              13     5.31717E-03     75.7442E-03    -76.8167E+06    -188.224E+06    -32.6239E+06     175.216E+03    -172.806E-03     342.623E-03    -169.817E-03     128.365E-03    -174.657E-03     343.628E-03    -169.596E-03     119.356E-03
              14     6.07697E-03     75.9133E-03    -71.0156E+06    -156.753E+06    -22.7086E+06    -164.764E+03    -173.498E-03     343.291E-03    -169.793E-03     146.009E-03    -176.077E-03     345.127E-03    -169.576E-03     135.217E-03
              15     6.83689E-03     76.1031E-03    -65.4218E+06    -125.167E+06    -12.3113E+06    -423.492E+03    -174.178E-03     343.950E-03    -169.772E-03     163.278E-03    -177.676E-03     346.807E-03    -169.558E-03     150.504E-03
              16     7.59609E-03     76.3130E-03    -59.7950E+06    -87.1845E+06    -2.24579E+06     222.211E+03    -174.719E-03     344.463E-03    -169.743E-03     180.302E-03    -179.365E-03     348.593E-03    -169.541E-03     165.385E-03
              17     8.35637E-03     76.5434E-03    -53.8971E+06    -35.7215E+06     10.2194E+06     1.14489E+06    -174.910E-03     344.607E-03    -169.697E-03     197.277E-03    -180.994E-03     350.343E-03    -169.516E-03     180.070E-03
              18     9.11665E-03     76.7917E-03    -48.5881E+06     15.5031E+06     23.3195E+06     605.421E+03    -175.143E-03     344.788E-03    -169.645E-03     215.426E-03    -183.055E-03     352.516E-03    -169.481E-03     195.684E-03
              19     9.87585E-03     77.0643E-03    -44.2695E+06     43.2486E+06     35.4921E+06    -1.67782E+06    -175.622E-03     345.251E-03    -169.630E-03     235.970E-03    -185.872E-03     355.396E-03    -169.451E-03     213.391E-03
              20     10.6364E-03     77.3624E-03    -37.8913E+06     54.8693E+06     50.8623E+06    -2.25881E+06    -175.790E-03     345.451E-03    -169.661E-03     255.706E-03    -188.723E-03     358.297E-03    -169.431E-03     230.441E-03
              21     11.3961E-03     77.6824E-03    -30.0369E+06     68.3342E+06     69.8135E+06    -728.983E+03    -175.256E-03     344.962E-03    -169.705E-03     269.403E-03    -190.686E-03     360.324E-03    -169.412E-03     242.383E-03
              22     12.1561E-03     78.0139E-03    -22.9456E+06     81.8018E+06     83.8200E+06     174.725E+03    -173.593E-03     343.312E-03    -169.719E-03     268.550E-03    -190.351E-03     360.036E-03    -169.385E-03     241.460E-03
              23     12.9155E-03     78.3290E-03    -16.3019E+06     89.0734E+06     87.3937E+06     310.649E+03    -170.796E-03     340.476E-03    -169.680E-03     244.668E-03    -186.422E-03     356.106E-03    -169.348E-03     219.852E-03
              24     13.6783E-03     78.6008E-03    -10.1273E+06     93.1635E+06     87.4257E+06     11.0155E+03    -168.058E-03     337.675E-03    -169.616E-03     214.924E-03    -181.910E-03     351.567E-03    -169.300E-03     192.556E-03
              25     14.4388E-03     78.8408E-03    -4.46938E+06     94.0544E+06     86.6278E+06    -6.95703E+03    -167.574E-03     337.141E-03    -169.567E-03     153.395E-03    -176.461E-03     346.096E-03    -169.264E-03     136.393E-03
              26     15.1975E-03     80.2943E-03    -2.57131E+06     91.6769E+06     83.8607E+06    -536.314E+03    -167.148E-03     336.747E-03    -169.599E-03     105.427E-03    -171.537E-03     341.210E-03    -169.309E-03     93.1741E-03
              27     15.1961E-03     81.6272E-03    -1.82774E+06     90.7113E+06     84.3352E+06     128.459E+03    -167.214E-03     336.793E-03    -169.579E-03     105.592E-03    -171.598E-03     341.248E-03    -169.286E-03     93.3457E-03
              28     15.1988E-03     82.9537E-03    -2.37116E+06     90.5417E+06     85.8797E+06     581.041E+03    -167.854E-03     337.396E-03    -169.542E-03     105.815E-03    -172.249E-03     341.855E-03    -169.241E-03     93.5219E-03
              29     15.1965E-03     84.2900E-03    -1.88449E+06     90.6184E+06     86.2422E+06    -259.305E+03    -168.321E-03     337.864E-03    -169.543E-03     105.579E-03    -172.712E-03     342.320E-03    -169.240E-03     93.2572E-03
              30     15.1977E-03     85.6176E-03    -2.58884E+06     88.0866E+06     84.0576E+06    -616.593E+03    -167.237E-03     336.807E-03    -169.570E-03     104.966E-03    -171.611E-03     341.241E-03    -169.274E-03     92.7017E-03
              31     15.1973E-03     86.9452E-03    -1.09584E+06     89.8984E+06     85.8527E+06     852.629E+03    -166.953E-03     336.505E-03    -169.552E-03     106.609E-03    -171.376E-03     340.994E-03    -169.251E-03     94.3612E-03
              32     15.1988E-03     88.2806E-03    -1.77542E+06     90.8777E+06     86.1539E+06    -226.255E+03    -167.636E-03     337.161E-03    -169.524E-03     105.790E-03    -172.050E-03     341.640E-03    -169.223E-03     93.4354E-03
              33     15.1968E-03     89.6034E-03    -3.05918E+06     90.1997E+06     85.3899E+06    -341.632E+03    -168.527E-03     338.071E-03    -169.544E-03     104.606E-03    -172.906E-03     342.512E-03    -169.243E-03     92.2498E-03
              34     15.1967E-03     90.9434E-03    -2.84623E+06     90.3531E+06     85.3494E+06    -6.95656E+03    -168.326E-03     337.893E-03    -169.567E-03     105.468E-03    -172.718E-03     342.347E-03    -169.267E-03     93.1258E-03
              35     15.1979E-03     92.2678E-03    -2.17744E+06     90.3875E+06     85.7222E+06    -163.035E+03    -167.386E-03     336.975E-03    -169.589E-03     105.809E-03    -171.785E-03     341.439E-03    -169.289E-03     93.5427E-03
              36     15.1957E-03     93.6021E-03    -1.83265E+06     90.0480E+06     85.3476E+06    -250.032E+03    -166.858E-03     336.469E-03    -169.611E-03     104.997E-03    -171.250E-03     340.927E-03    -169.312E-03     92.7805E-03
              37     15.1981E-03     94.9253E-03    -2.07886E+06     89.1617E+06     84.7732E+06     9.78175E+03    -167.276E-03     336.870E-03    -169.594E-03     105.978E-03    -171.667E-03     341.324E-03    -169.297E-03     93.7205E-03
              38     15.1958E-03     96.2620E-03    -1.87620E+06     88.6699E+06     84.4616E+06    -426.175E+03    -168.363E-03     337.913E-03    -169.550E-03     106.095E-03    -172.744E-03     342.356E-03    -169.253E-03     93.7527E-03
              39     15.1990E-03     97.5893E-03    -2.33181E+06     88.5859E+06     84.9148E+06    -1.11591E+06    -167.328E-03     336.857E-03    -169.529E-03     105.381E-03    -171.711E-03     341.300E-03    -169.229E-03     93.0520E-03
              40     15.1979E-03     98.9188E-03    -1.45917E+06     90.9203E+06     86.5174E+06     1.11611E+06    -168.219E-03     337.756E-03    -169.536E-03     105.047E-03    -172.630E-03     342.233E-03    -169.233E-03     92.7327E-03
              41     15.1952E-03     100.256E-03    -3.43062E+06     88.2958E+06     83.4589E+06    -878.448E+03    -168.436E-03     338.001E-03    -169.565E-03     105.070E-03    -172.809E-03     342.433E-03    -169.271E-03     92.7426E-03
              42     15.1992E-03     101.578E-03    -1.12057E+06     91.5049E+06     86.5798E+06    -936.850E+03    -166.847E-03     336.427E-03    -169.580E-03     106.410E-03    -171.213E-03     340.863E-03    -169.278E-03     94.2337E-03
              43     15.1961E-03     102.917E-03    -1.99791E+06     91.6229E+06     86.5411E+06     773.408E+03    -167.479E-03     337.033E-03    -169.553E-03     106.687E-03    -171.940E-03     341.561E-03    -169.251E-03     94.3660E-03
              44     15.1989E-03     104.237E-03    -3.55709E+06     87.0563E+06     84.4112E+06     875.995E+03    -167.900E-03     337.467E-03    -169.567E-03     103.624E-03    -172.281E-03     341.899E-03    -169.266E-03     91.3655E-03
              45     15.1946E-03     105.575E-03    -2.63813E+06     89.5136E+06     86.1670E+06     1.23702E+06    -167.789E-03     337.391E-03    -169.602E-03     103.910E-03    -172.187E-03     341.848E-03    -169.298E-03     91.6493E-03
              46     15.1986E-03     106.900E-03    -1.99858E+06     91.6117E+06     86.4117E+06     87.5721E+03    -167.837E-03     337.427E-03    -169.590E-03     104.750E-03    -172.267E-03     341.924E-03    -169.288E-03     92.3882E-03
              47     15.1955E-03     108.235E-03    -2.09339E+06     90.4597E+06     85.1949E+06    -954.025E+03    -167.390E-03     336.974E-03    -169.584E-03     103.954E-03    -171.762E-03     341.412E-03    -169.286E-03     91.6833E-03
              48     15.1985E-03     109.563E-03    -2.09334E+06     89.1324E+06     85.1317E+06    -567.697E+03    -166.666E-03     336.231E-03    -169.565E-03     106.325E-03    -171.080E-03     340.707E-03    -169.265E-03     94.0514E-03
              49     15.1980E-03     110.892E-03    -1.70799E+06     92.3143E+06     88.4677E+06     1.40175E+06    -167.791E-03     337.346E-03    -169.555E-03     106.341E-03    -172.201E-03     341.821E-03    -169.244E-03     94.1095E-03
              50     15.1956E-03     112.230E-03    -2.48796E+06     93.8282E+06     89.2903E+06     1.33849E+06    -167.845E-03     337.466E-03    -169.621E-03     107.009E-03    -172.273E-03     341.959E-03    -169.307E-03     94.7611E-03
              51     15.1972E-03     113.550E-03    -1.09599E+06     93.6600E+06     87.6902E+06    -74.5153E+03    -166.238E-03     335.853E-03    -169.616E-03     107.353E-03    -170.658E-03     340.348E-03    -169.312E-03     95.1309E-03
              52     15.1986E-03     114.881E-03    -2.13584E+06     92.6995E+06     86.2818E+06    -974.025E+03    -167.044E-03     336.546E-03    -169.502E-03     106.481E-03    -171.484E-03     341.057E-03    -169.202E-03     94.1233E-03
              53     15.1994E-03     116.212E-03    -2.86482E+06     93.7049E+06     88.5085E+06     1.01854E+06    -168.902E-03     338.367E-03    -169.465E-03     105.823E-03    -173.332E-03     342.863E-03    -169.154E-03     93.4338E-03
              54     15.1964E-03     117.549E-03    -2.67665E+06     97.2515E+06     89.2783E+06     1.63099E+06    -168.153E-03     337.676E-03    -169.523E-03     106.197E-03    -172.571E-03     342.171E-03    -169.214E-03     93.9106E-03
              55     15.1992E-03     118.872E-03    -1.41415E+06     102.888E+06     89.4381E+06     1.82483E+06    -165.494E-03     334.997E-03    -169.503E-03     106.560E-03    -169.901E-03     339.505E-03    -169.203E-03     94.4166E-03
              56     15.2012E-03     120.197E-03    -3.40471E+06     111.317E+06     91.9168E+06     1.96363E+06    -166.359E-03     335.745E-03    -169.386E-03     106.423E-03    -170.816E-03     340.318E-03    -169.083E-03     94.2477E-03
              57     15.2001E-03     121.535E-03    -2.71726E+06     112.014E+06     93.8725E+06    -794.616E+03    -167.968E-03     337.270E-03    -169.301E-03     106.381E-03    -172.463E-03     341.881E-03    -168.991E-03     93.9554E-03
              58     15.2033E-03     122.857E-03    -1.57322E+06     108.363E+06     93.6313E+06    -573.032E+03    -166.602E-03     335.838E-03    -169.236E-03     104.935E-03    -171.017E-03     340.361E-03    -168.922E-03     92.6733E-03
              59     15.2042E-03     124.189E-03    -3.84362E+06     104.460E+06     91.3430E+06    -2.28999E+06    -165.503E-03     334.566E-03    -169.063E-03     107.370E-03    -169.960E-03     339.115E-03    -168.752E-03     95.1361E-03
              60     15.2112E-03     125.515E-03    -952.121E+03     108.840E+06     96.8973E+06     71.9938E+03    -166.223E-03     334.986E-03    -168.763E-03     111.842E-03    -170.770E-03     339.635E-03    -168.435E-03     99.4793E-03
              61     15.2143E-03     126.847E-03    -1.36359E+06     114.643E+06     99.5579E+06     4.02662E+06    -166.157E-03     334.549E-03    -168.391E-03     112.105E-03    -170.697E-03     339.202E-03    -168.058E-03     99.8425E-03
              62     15.2236E-03     128.168E-03    -4.20688E+06     114.425E+06     99.7062E+06     1.20818E+06    -165.323E-03     333.189E-03    -167.865E-03     114.988E-03    -169.956E-03     337.924E-03    -167.527E-03     102.564E-03
              63     15.2347E-03     129.493E-03    -1.21896E+06     117.316E+06     104.761E+06     1.68219E+06    -168.497E-03     335.615E-03    -167.119E-03     118.549E-03    -173.259E-03     340.486E-03    -166.763E-03     105.706E-03
              64     15.2439E-03     130.835E-03    -2.27924E+06     118.063E+06     105.951E+06     1.64090E+06    -172.928E-03     339.187E-03    -166.259E-03     123.035E-03    -177.864E-03     344.228E-03    -165.898E-03     109.554E-03
              65     15.2594E-03     132.162E-03    -2.61617E+06     123.544E+06     110.453E+06     3.42272E+06    -178.834E-03     344.124E-03    -165.289E-03     125.774E-03    -183.896E-03     349.295E-03    -164.912E-03     111.601E-03
              66     15.2689E-03     133.517E-03    -3.79769E+06     130.019E+06     114.242E+06     2.43853E+06    -188.938E-03     353.168E-03    -164.230E-03     129.454E-03    -194.208E-03     358.557E-03    -163.842E-03     114.064E-03
              67     15.2831E-03     134.881E-03    -3.37934E+06     131.264E+06     116.941E+06     539.835E+03    -201.326E-03     364.520E-03    -163.193E-03     136.779E-03    -206.938E-03     370.249E-03    -162.794E-03     119.718E-03
              68     15.2897E-03     136.263E-03    -2.71980E+06     129.327E+06     115.671E+06     1.28668E+06    -217.329E-03     379.581E-03    -162.252E-03     143.066E-03    -223.214E-03     385.586E-03    -161.857E-03     124.096E-03
              69     15.2953E-03     137.678E-03    -2.69389E+06     130.663E+06     114.235E+06     1.02132E+06    -235.527E-03     396.995E-03    -161.468E-03     152.800E-03    -241.761E-03     403.357E-03    -161.082E-03     131.579E-03
              70     15.2986E-03     139.105E-03    -4.24552E+06     130.769E+06     112.949E+06     257.054E+03    -254.688E-03     415.505E-03    -160.817E-03     160.455E-03    -261.170E-03     422.115E-03    -160.436E-03     137.020E-03
              71     15.2989E-03     140.567E-03    -3.31852E+06     122.984E+06     109.610E+06    -3.52716E+06    -272.912E-03     433.180E-03    -160.268E-03     169.296E-03    -279.635E-03     440.018E-03    -159.894E-03     143.496E-03
              72     15.3033E-03     142.047E-03    -3.08462E+06     113.577E+06     111.764E+06    -4.54787E+06    -289.186E-03     449.012E-03    -159.826E-03     178.274E-03    -296.236E-03     456.138E-03    -159.427E-03     150.104E-03
              73     15.3010E-03     143.550E-03    -760.412E+03     98.6103E+06     111.438E+06    -2.05235E+06    -306.087E-03     465.541E-03    -159.454E-03     185.531E-03    -313.405E-03     472.892E-03    -159.039E-03     154.873E-03
              74     15.3027E-03     145.077E-03    -1.99362E+06     97.0214E+06     112.961E+06     305.824E+03    -322.060E-03     481.179E-03    -159.119E-03     192.785E-03    -329.801E-03     488.935E-03    -158.692E-03     159.024E-03
              75     15.3019E-03     146.619E-03    -5.67155E+06     80.1953E+06     113.788E+06    -4.91608E+06    -340.593E-03     499.317E-03    -158.724E-03     202.920E-03    -348.627E-03     507.299E-03    -158.264E-03     166.625E-03
              76     15.3051E-03     148.212E-03    -2.83663E+06     44.2118E+06     115.506E+06    -10.8381E+06    -348.639E-03     507.205E-03    -158.566E-03     207.171E-03    -356.688E-03     515.082E-03    -158.048E-03     169.561E-03
              77     15.3028E-03     149.781E-03     88.8888E+03     11.9708E+06     136.401E+06    -5.26355E+06    -345.129E-03     503.867E-03    -158.739E-03     223.128E-03    -353.851E-03     512.241E-03    -158.074E-03     184.618E-03
              78     15.3096E-03     151.334E-03     751.365E+03     26.1866E+06     164.318E+06     12.0028E+06    -339.430E-03     498.329E-03    -158.899E-03     242.924E-03    -348.626E-03     507.171E-03    -158.116E-03     205.340E-03
              79     15.3069E-03     152.929E-03    -4.70423E+06     81.6812E+06     176.953E+06     12.0910E+06    -301.903E-03     461.636E-03    -159.734E-03     289.768E-03    -312.904E-03     472.444E-03    -158.961E-03     254.249E-03
              80     15.3148E-03     154.389E-03    -13.8723E+06     55.4053E+06     121.240E+06    -21.6824E+06    -179.575E-03     342.175E-03    -162.600E-03     344.041E-03    -188.420E-03     350.935E-03    -162.054E-03     323.436E-03
              81     15.3097E-03     155.484E-03    -10.8571E+06     11.8205E+06     70.9064E+06    -12.7704E+06    -524.834E-06     174.016E-03    -173.491E-03     234.294E-03    -3.05056E-03     176.338E-03    -173.138E-03     231.231E-03
              82     14.8573E-03     156.382E-03     7.40184E+06    -7.64937E+06     50.2682E+06     12.3581E+06     103.795E-03     95.7813E-03    -199.577E-03     57.6117E-03     103.674E-03     95.6693E-03    -199.325E-03     57.8121E-03
              83     13.4221E-03     156.707E-03     2.05647E+06     15.7888E+06     73.1735E+06    -5.20998E+06     120.584E-03     100.981E-03    -221.565E-03     26.3994E-03     120.496E-03     100.996E-03    -221.225E-03     26.3418E-03
              84     12.5500E-03     156.130E-03    -2.44358E+06     14.1112E+06     121.228E+06    -20.1303E+06     93.6057E-03     135.590E-03    -229.195E-03     17.6897E-03     93.4015E-03     135.598E-03    -228.606E-03     17.3332E-03
              85     11.7918E-03     155.472E-03     9.88509E+06    -30.4416E+06     121.453E+06      439.92E+03     60.7057E-03     171.953E-03    -232.658E-03    -37.5993E-03     60.5353E-03     171.701E-03    -232.021E-03    -37.9355E-03
              86     11.0828E-03     154.819E-03     4.97053E+06    -690.124E+03     136.371E+06     14.1931E+06     49.8133E-03     183.075E-03    -232.888E-03    -77.5515E-03     49.5704E-03     182.871E-03    -232.213E-03    -78.0058E-03
              87     10.3742E-03     154.189E-03    -2.59967E+06     19.3616E+06     139.529E+06    -3.30104E+06     34.9020E-03     196.151E-03    -231.053E-03    -134.282E-03     34.7673E-03     195.847E-03    -230.379E-03    -135.390E-03
              88     9.70299E-03     153.588E-03     1.55818E+06     1.94228E+06     120.316E+06    -9.67556E+06     17.9056E-03     208.927E-03    -226.832E-03    -199.444E-03     18.0758E-03     208.197E-03    -226.236E-03    -201.086E-03
              89     9.04925E-03     153.033E-03     2.31188E+06    -9.13421E+06     111.629E+06    -6.21615E+06    -1.45807E-03     222.270E-03    -220.811E-03    -253.977E-03    -1.01737E-03     221.151E-03    -220.243E-03    -255.949E-03
              90     8.40152E-03     152.529E-03     4.56402E+06    -5.37608E+06     106.983E+06    -6.00064E+06    -24.6719E-03     238.334E-03    -213.662E-03    -295.403E-03    -24.0537E-03     236.966E-03    -213.126E-03    -297.693E-03
              91     7.75896E-03     152.077E-03     4.81381E+06     -7.0396E+06     92.0337E+06    -5.49154E+06    -49.7255E-03     255.708E-03    -205.982E-03    -317.778E-03    -49.0408E-03     254.228E-03    -205.519E-03    -320.270E-03
              92     7.10715E-03     151.681E-03     1.47369E+06    -7.91929E+06     79.7430E+06    -4.23073E+06    -74.8984E-03     273.303E-03    -198.405E-03    -321.404E-03    -74.2642E-03     271.870E-03    -197.997E-03    -323.966E-03
              93     6.44637E-03     151.335E-03    -462.017E+03    -5.47669E+06     72.7630E+06    -7.14335E+06    -97.7928E-03     289.054E-03    -191.261E-03    -308.742E-03    -97.2809E-03     287.760E-03    -190.889E-03    -311.327E-03
              94     5.77309E-03     151.037E-03    -888.678E+03    -8.97394E+06     66.0186E+06    -10.6344E+06    -117.076E-03     301.816E-03    -184.741E-03    -283.276E-03    -116.693E-03     300.678E-03    -184.396E-03    -285.807E-03
              95     5.08631E-03     150.784E-03     450.992E+03    -8.61555E+06     60.3821E+06    -12.8000E+06    -132.045E-03     310.990E-03    -178.945E-03    -250.697E-03    -131.790E-03     310.045E-03    -178.631E-03    -253.060E-03
              96     4.38615E-03     150.572E-03     1.97689E+06    -5.61394E+06     50.7003E+06    -12.3203E+06    -142.543E-03     316.437E-03    -173.894E-03    -215.063E-03    -142.403E-03     315.700E-03    -173.635E-03    -217.131E-03
              97     3.67321E-03     150.397E-03     4.26063E+06    -4.60424E+06     38.9593E+06    -12.7874E+06    -149.401E-03     319.016E-03    -169.615E-03    -178.581E-03    -149.342E-03     318.446E-03    -169.420E-03    -180.358E-03
              98     2.95053E-03     150.256E-03     7.93443E+06    -5.47441E+06     31.2326E+06    -12.3525E+06    -153.381E-03     319.564E-03    -166.183E-03    -142.644E-03    -153.378E-03     319.110E-03    -166.031E-03    -144.114E-03
              99     2.21872E-03     150.149E-03     11.9570E+06    -4.47333E+06     24.8213E+06    -11.1750E+06    -155.177E-03     318.925E-03    -163.748E-03    -108.964E-03    -155.206E-03     318.577E-03    -163.635E-03    -110.092E-03
             100     1.47730E-03     150.070E-03     16.2552E+06    -5.43201E+06     21.3397E+06    -10.2489E+06    -156.346E-03     318.911E-03    -162.565E-03    -79.1687E-03    -156.398E-03     318.610E-03    -162.474E-03    -79.9836E-03
             101     733.081E-06     150.024E-03     13.4888E+06    -11.9458E+06     12.4558E+06    -7.52291E+06    -159.177E-03     321.751E-03    -162.574E-03    -48.8364E-03    -159.318E-03     321.400E-03    -162.514E-03    -49.3827E-03
             102    -1.73263E-06     148.691E-03    -15.0487E+06    -19.6663E+06    -13.0950E+06    -4.47854E+06    -132.866E-03     267.194E-03    -134.329E-03    -16.6343E-03    -133.052E-03     266.967E-03    -134.344E-03    -16.9232E-03
             103     892.028E-09     147.524E-03    -64.9644E+06    -43.1591E+06    -64.6852E+06    -6.27257E+06    -90.8563E-03     182.318E-03    -91.4613E-03     1.92978E-03    -91.0568E-03     182.259E-03    -91.6280E-03     1.76447E-03
             104    -706.385E-09     146.418E-03    -117.280E+06    -76.3018E+06    -117.871E+06    -7.41033E+06    -68.9622E-03     137.769E-03    -68.8071E-03     7.92792E-03    -69.2797E-03     137.718E-03    -69.1157E-03     7.79342E-03
             105     865.667E-09     145.350E-03    -171.704E+06    -105.826E+06    -170.005E+06    -8.61171E+06    -58.1517E-03     115.522E-03    -57.3708E-03     13.3748E-03    -58.6116E-03     115.488E-03    -57.8184E-03     13.2553E-03
             106     258.059E-09     144.292E-03    -229.778E+06    -137.587E+06    -227.675E+06    -8.29074E+06    -56.7833E-03     112.622E-03    -55.8391E-03     17.2482E-03    -57.4025E-03     112.598E-03    -56.4448E-03     17.1490E-03
             107     115.037E-09     143.230E-03    -222.876E+06    -157.750E+06    -222.066E+06    -2.59414E+06    -63.5041E-03     126.094E-03    -62.5903E-03     19.3433E-03    -64.0713E-03     125.946E-03    -63.1487E-03     19.3268E-03
             108     925.558E-09     142.144E-03    -156.299E+06    -159.243E+06    -156.130E+06     1.76556E+06    -76.7010E-03     151.976E-03    -75.2751E-03     20.2775E-03    -77.0337E-03     151.624E-03    -75.5982E-03     20.3046E-03
             109     300.208E-09     141.024E-03    -110.928E+06    -156.974E+06    -109.958E+06    -427.901E+03    -91.6863E-03     182.634E-03    -90.9480E-03     20.2120E-03    -91.8646E-03     182.162E-03    -91.1093E-03     20.1684E-03
             110    -395.302E-09     139.868E-03    -99.3625E+06    -162.403E+06    -100.737E+06    -1.94570E+06    -106.439E-03     212.396E-03    -105.958E-03     19.1286E-03    -106.565E-03     211.870E-03    -106.082E-03     19.0013E-03
             111     1.14802E-06     138.679E-03    -91.4939E+06    -167.221E+06    -90.8399E+06    -594.367E+03    -120.639E-03     239.845E-03    -119.206E-03     18.5297E-03    -120.734E-03     239.272E-03    -119.285E-03     18.3477E-03
             112     287.626E-09     137.457E-03     -82.636E+06    -175.594E+06    -88.0741E+06    -2.84719E+06    -132.818E-03     264.120E-03    -131.303E-03     17.9479E-03    -132.860E-03     263.492E-03    -131.369E-03     17.6560E-03
             113     511.026E-09     136.210E-03    -90.4296E+06    -190.037E+06    -91.5881E+06    -3.08324E+06    -142.639E-03     284.290E-03    -141.650E-03     16.9712E-03    -142.695E-03     283.610E-03    -141.702E-03     16.5836E-03
             114     121.821E-09     134.938E-03    -96.7776E+06    -207.925E+06    -96.4117E+06    -3.39913E+06    -150.644E-03     300.458E-03    -149.814E-03     15.8874E-03    -150.698E-03     299.707E-03    -149.855E-03     15.4205E-03
             115     440.610E-09     133.651E-03    -99.2066E+06    -221.457E+06    -100.866E+06    -2.18672E+06    -156.948E-03     313.242E-03    -156.294E-03     14.6491E-03    -156.988E-03     312.435E-03    -156.334E-03     14.1190E-03
             116    -93.5486E-09     132.347E-03    -103.567E+06    -230.014E+06    -102.708E+06    -1.77661E+06    -161.627E-03     322.839E-03    -161.212E-03     13.7848E-03    -161.674E-03     321.999E-03    -161.242E-03     13.1909E-03
             117     319.449E-09     131.032E-03    -109.364E+06    -240.952E+06    -110.077E+06    -2.33512E+06    -164.725E-03     329.140E-03    -164.415E-03     13.4248E-03    -164.774E-03     328.266E-03    -164.458E-03     12.7805E-03
             118    -149.507E-09     129.713E-03     -112.81E+06    -250.390E+06    -113.000E+06    -1.62574E+06    -166.558E-03     333.223E-03    -166.665E-03     13.2079E-03    -166.607E-03     332.312E-03    -166.704E-03     12.5248E-03
             119    -251.405E-09     128.388E-03    -117.341E+06    -260.057E+06    -117.589E+06    -1.65864E+06    -167.769E-03     336.146E-03    -168.376E-03     13.1617E-03    -167.821E-03     335.200E-03    -168.417E-03     12.4441E-03
             120    -338.335E-09     127.060E-03    -119.364E+06    -269.504E+06    -118.701E+06    -1.96596E+06    -168.957E-03     338.237E-03    -169.280E-03     13.0256E-03    -169.004E-03     337.248E-03    -169.309E-03     12.2990E-03
             121     380.741E-09     125.731E-03    -118.106E+06    -279.622E+06    -118.934E+06    -2.28771E+06    -169.699E-03     339.424E-03    -169.725E-03     12.3907E-03    -169.724E-03     338.383E-03    -169.743E-03     11.6460E-03
             122    -527.382E-09     124.401E-03    -117.084E+06    -284.861E+06    -117.410E+06     41.6899E+03    -169.837E-03     339.945E-03    -170.109E-03     12.0347E-03    -169.851E-03     338.875E-03    -170.113E-03     11.3146E-03
             123     206.061E-09     123.069E-03    -114.434E+06    -284.261E+06    -113.805E+06    -164.151E+03    -170.189E-03     340.179E-03    -169.991E-03     12.1368E-03    -170.195E-03     339.102E-03    -169.982E-03     11.4281E-03
             124     367.830E-09     121.738E-03    -114.695E+06    -286.491E+06    -115.387E+06    -330.023E+03    -170.511E-03     340.165E-03    -169.654E-03     12.4491E-03    -170.514E-03     339.079E-03    -169.649E-03     11.7411E-03
             125     295.280E-09     120.408E-03    -114.634E+06    -288.280E+06    -114.171E+06    -130.675E+03    -170.266E-03     340.031E-03    -169.764E-03     12.2157E-03    -170.268E-03     338.934E-03    -169.751E-03     11.4949E-03
             126    -245.298E-09     119.077E-03    -114.174E+06    -290.652E+06    -114.283E+06    -558.605E+03    -169.871E-03     339.780E-03    -169.909E-03     11.9938E-03    -169.867E-03     338.672E-03    -169.894E-03     11.2623E-03
             127     85.4174E-09     117.747E-03    -111.897E+06    -288.988E+06    -112.386E+06     1.16536E+06    -169.918E-03     339.809E-03    -169.892E-03     12.1529E-03    -169.907E-03     338.703E-03    -169.872E-03     11.4696E-03
             128     54.8758E-09     116.416E-03    -111.294E+06    -287.717E+06    -110.695E+06     63.0706E+03    -170.142E-03     340.030E-03    -169.888E-03     12.3137E-03    -170.133E-03     338.927E-03    -169.863E-03     11.6008E-03
             129     140.351E-09     115.085E-03    -110.850E+06    -287.864E+06    -111.612E+06    -236.462E+03    -170.224E-03     340.030E-03    -169.806E-03     12.3133E-03    -170.211E-03     338.927E-03    -169.786E-03     11.5736E-03
             130     236.981E-09     113.754E-03    -109.574E+06    -285.895E+06    -109.157E+06     215.669E+03    -170.213E-03     339.665E-03    -169.452E-03     12.0204E-03    -170.200E-03     338.566E-03    -169.425E-03     11.3129E-03
             131     492.572E-09     112.425E-03    -109.399E+06    -285.829E+06    -109.748E+06    -218.829E+03    -170.208E-03     339.549E-03    -169.341E-03     12.2237E-03    -170.193E-03     338.451E-03    -169.316E-03     11.5194E-03
             132     37.3675E-09     111.094E-03    -109.816E+06    -285.904E+06    -109.729E+06     101.247E+03    -170.103E-03     339.906E-03    -169.803E-03     12.4080E-03    -170.090E-03     338.808E-03    -169.778E-03     11.6998E-03
             133    -167.403E-09     109.762E-03    -109.219E+06    -285.383E+06    -109.206E+06     486.025E+03    -169.934E-03     339.758E-03    -169.824E-03     12.3274E-03    -169.920E-03     338.661E-03    -169.798E-03     11.6257E-03
             134     409.500E-09     108.433E-03    -108.765E+06    -284.874E+06    -108.619E+06    -240.854E+03    -169.914E-03     339.537E-03    -169.623E-03     12.4471E-03    -169.899E-03     338.441E-03    -169.595E-03     11.7271E-03
             135    -264.768E-09     107.103E-03    -110.076E+06    -286.248E+06    -110.333E+06    -366.080E+03    -170.004E-03     339.647E-03    -169.643E-03     12.0361E-03    -169.991E-03     338.549E-03    -169.620E-03     11.3175E-03
             136     612.875E-09     105.772E-03    -109.777E+06    -285.450E+06    -109.624E+06     467.914E+03    -169.915E-03     339.621E-03    -169.706E-03     12.4366E-03    -169.903E-03     338.525E-03    -169.681E-03     11.7389E-03
             137    -699.838E-09     104.442E-03    -109.557E+06    -285.374E+06    -109.493E+06    -316.089E+03    -169.691E-03     339.583E-03    -169.892E-03     12.8132E-03    -169.678E-03     338.488E-03    -169.867E-03     12.0995E-03
             138     419.773E-09     103.112E-03    -109.874E+06    -286.019E+06    -110.211E+06     70.9991E+03    -169.787E-03     339.600E-03    -169.813E-03     12.3984E-03    -169.774E-03     338.502E-03    -169.790E-03     11.6763E-03
             139    -237.807E-09     101.782E-03    -110.826E+06    -286.643E+06    -110.676E+06    -227.020E+03    -169.773E-03     339.534E-03    -169.760E-03     12.1805E-03    -169.763E-03     338.435E-03    -169.737E-03     11.4648E-03
             140     22.9409E-09     100.452E-03    -109.757E+06    -285.861E+06    -109.995E+06     598.790E+03    -169.890E-03     339.581E-03    -169.691E-03     12.0379E-03    -169.876E-03     338.483E-03    -169.667E-03     11.3345E-03
             141     439.534E-09     99.1217E-03    -109.525E+06    -285.310E+06    -108.933E+06    -74.7045E+03    -170.089E-03     339.758E-03    -169.669E-03     12.3593E-03    -170.077E-03     338.661E-03    -169.641E-03     11.6451E-03
             142    -314.415E-09     97.7908E-03    -109.880E+06    -286.133E+06    -110.265E+06    -312.238E+03    -169.989E-03     339.815E-03    -169.826E-03     12.3738E-03    -169.975E-03     338.717E-03    -169.803E-03     11.6601E-03
             143     376.875E-09     96.4605E-03    -110.187E+06    -286.024E+06    -109.738E+06     150.572E+03    -170.127E-03     339.716E-03    -169.589E-03     12.2781E-03    -170.117E-03     338.618E-03    -169.563E-03     11.5633E-03
             144     328.401E-09     95.1300E-03    -110.188E+06    -286.559E+06    -110.985E+06    -309.428E+03    -170.225E-03     339.565E-03    -169.340E-03     12.3610E-03    -170.212E-03     338.466E-03    -169.320E-03     11.6432E-03
             145     246.828E-09     93.8005E-03    -109.779E+06    -285.666E+06    -109.743E+06     413.814E+03    -170.055E-03     339.442E-03    -169.388E-03     12.2654E-03    -170.042E-03     338.346E-03    -169.363E-03     11.5558E-03
             146     136.242E-09     92.4699E-03    -110.399E+06    -286.373E+06    -110.333E+06    -495.812E+03    -169.754E-03     339.292E-03    -169.538E-03     12.2987E-03    -169.743E-03     338.194E-03    -169.515E-03     11.5742E-03
             147    -246.475E-09     91.1409E-03    -111.407E+06    -287.482E+06    -111.416E+06    -118.833E+03    -169.660E-03     339.524E-03    -169.863E-03     12.4337E-03    -169.651E-03     338.423E-03    -169.842E-03     11.7229E-03
             148    -9.00909E-09     89.8097E-03    -110.710E+06    -286.736E+06    -110.447E+06    -16.6634E+03    -170.004E-03     339.781E-03    -169.777E-03     12.1922E-03    -169.994E-03     338.681E-03    -169.753E-03     11.4894E-03
             149     557.601E-09     88.4793E-03    -110.310E+06    -286.901E+06    -110.968E+06     47.2175E+03    -170.173E-03     339.555E-03    -169.382E-03     12.2544E-03    -170.160E-03     338.455E-03    -169.361E-03     11.5584E-03
             150     34.0899E-09     87.1502E-03    -110.578E+06    -286.419E+06    -110.109E+06     271.564E+03    -170.008E-03     339.670E-03    -169.662E-03     12.4840E-03    -169.998E-03     338.571E-03    -169.637E-03     11.7732E-03
             151    -153.393E-09     85.8186E-03    -111.033E+06    -286.973E+06    -111.121E+06    -236.914E+03    -169.795E-03     339.979E-03    -170.185E-03     12.5977E-03    -169.785E-03     338.881E-03    -170.163E-03     11.8658E-03
             152    -379.320E-09     84.4879E-03    -109.792E+06    -285.771E+06    -109.776E+06      531.43E+03    -169.787E-03     339.955E-03    -170.169E-03     12.4409E-03    -169.774E-03     338.858E-03    -170.144E-03     11.7333E-03
             153     275.221E-09     83.1578E-03    -109.581E+06    -285.364E+06    -109.072E+06    -545.985E+03    -169.900E-03     339.805E-03    -169.905E-03     12.2871E-03    -169.888E-03     338.709E-03    -169.878E-03     11.5700E-03
             154    -229.899E-09     81.8271E-03    -110.424E+06    -286.920E+06    -111.187E+06     65.5164E+03    -169.972E-03     339.740E-03    -169.768E-03     12.2723E-03    -169.958E-03     338.640E-03    -169.748E-03     11.5545E-03
             155     431.300E-09     80.4970E-03    -109.727E+06    -285.612E+06    -109.209E+06     333.412E+03    -169.983E-03     339.766E-03    -169.784E-03     12.4511E-03    -169.971E-03     338.669E-03    -169.756E-03     11.7280E-03
             156    -381.999E-09     79.1657E-03    -109.547E+06    -285.625E+06    -109.319E+06    -397.323E+03    -169.885E-03     339.644E-03    -169.758E-03     12.5439E-03    -169.873E-03     338.546E-03    -169.732E-03     11.8259E-03
             157     470.155E-09     77.8363E-03    -109.907E+06    -286.127E+06    -110.051E+06     1.69044E+03    -169.848E-03     339.334E-03    -169.485E-03     12.2097E-03    -169.835E-03     338.235E-03    -169.461E-03     11.4998E-03
             158    -63.4556E-09     76.5070E-03    -110.563E+06    -286.866E+06    -110.901E+06    -74.6074E+03    -169.786E-03     339.355E-03    -169.568E-03     12.3843E-03    -169.775E-03     338.255E-03    -169.547E-03     11.6698E-03
             159     649.904E-09     73.8461E-03    -109.128E+06    -285.283E+06    -109.065E+06    -370.350E+03    -170.287E-03     339.540E-03    -169.253E-03     12.3814E-03    -170.273E-03     338.443E-03    -169.226E-03     11.6654E-03
             160     286.556E-09     72.5162E-03    -110.141E+06    -286.671E+06    -110.797E+06    -284.105E+03    -170.131E-03     339.574E-03    -169.444E-03     12.5686E-03    -170.117E-03     338.475E-03    -169.422E-03     11.8492E-03
             161    -244.415E-09     71.1860E-03    -110.592E+06    -286.708E+06    -110.475E+06     178.328E+03    -169.750E-03     339.665E-03    -169.915E-03     12.3649E-03    -169.739E-03     338.565E-03    -169.891E-03     11.6523E-03
             162    -104.138E-09     69.8554E-03    -109.884E+06    -286.196E+06    -109.875E+06     73.0889E+03    -169.723E-03     339.617E-03    -169.894E-03     12.4225E-03    -169.710E-03     338.519E-03    -169.869E-03     11.7070E-03
             163     135.879E-09     68.5249E-03    -111.158E+06    -287.351E+06    -111.043E+06     96.9024E+03    -169.649E-03     339.227E-03    -169.578E-03     12.2415E-03    -169.639E-03     338.126E-03    -169.556E-03     11.5182E-03
             164    -113.888E-09     67.1970E-03    -110.444E+06    -286.463E+06    -110.262E+06     327.065E+03    -169.534E-03     339.072E-03    -169.538E-03     12.1282E-03    -169.523E-03     337.973E-03    -169.514E-03     11.4114E-03
             165     34.4079E-09     65.8663E-03    -110.024E+06    -285.415E+06    -108.578E+06    -79.6938E+03    -169.727E-03     339.285E-03    -169.558E-03     12.1108E-03    -169.718E-03     338.188E-03    -169.527E-03     11.3949E-03
             166     263.098E-09     64.5364E-03    -108.801E+06    -285.641E+06    -110.133E+06    -140.508E+03    -169.945E-03     339.382E-03    -169.437E-03     12.1939E-03    -169.927E-03     338.284E-03    -169.415E-03     11.4959E-03
             167     144.444E-09     63.2073E-03    -108.622E+06    -285.223E+06    -109.324E+06     230.605E+03    -169.980E-03     339.544E-03    -169.565E-03     12.1840E-03    -169.963E-03     338.448E-03    -169.540E-03     11.4666E-03
             168     18.1619E-09     61.8757E-03    -110.400E+06    -286.680E+06    -110.416E+06    -286.624E+03    -169.704E-03     339.450E-03    -169.747E-03     12.5660E-03    -169.692E-03     338.351E-03    -169.723E-03     11.8342E-03
             169    -304.266E-09     60.5459E-03    -109.858E+06    -285.873E+06    -109.789E+06     443.929E+03    -169.640E-03     339.140E-03    -169.500E-03     12.5091E-03    -169.628E-03     338.043E-03    -169.475E-03     11.8029E-03
             170     746.231E-09     59.2173E-03    -110.145E+06    -285.935E+06    -109.647E+06    -598.118E+03    -169.673E-03     338.836E-03    -169.164E-03     12.3283E-03    -169.662E-03     337.739E-03    -169.138E-03     11.5946E-03
             171    -465.665E-09     57.8879E-03    -110.902E+06    -287.125E+06    -111.330E+06    -70.6521E+03    -169.337E-03     338.719E-03    -169.382E-03     12.2863E-03    -169.325E-03     337.619E-03    -169.362E-03     11.5732E-03
             172     56.3824E-09     56.5599E-03    -110.623E+06    -286.214E+06    -109.726E+06     427.013E+03    -169.345E-03     338.770E-03    -169.425E-03     11.6477E-03    -169.336E-03     337.671E-03    -169.398E-03     10.9502E-03
             173     191.922E-09     55.2300E-03    -110.362E+06    -286.688E+06    -110.518E+06    -441.328E+03    -169.613E-03     338.589E-03    -168.977E-03     11.7504E-03    -169.600E-03     337.490E-03    -168.953E-03     11.0252E-03
             174     476.191E-09     53.9013E-03    -109.812E+06    -286.212E+06    -109.922E+06     253.850E+03    -169.516E-03     338.426E-03    -168.910E-03     12.5421E-03    -169.503E-03     337.327E-03    -168.886E-03     11.8298E-03
             175    -283.341E-09     52.5716E-03    -108.656E+06    -285.288E+06    -109.331E+06     108.740E+03    -169.133E-03     338.331E-03    -169.198E-03     12.8576E-03    -169.116E-03     337.234E-03    -169.173E-03     12.1513E-03
             176    -76.5130E-09     51.2441E-03    -109.978E+06    -286.025E+06    -110.163E+06    -57.7987E+03    -168.991E-03     337.964E-03    -168.973E-03     12.2671E-03    -168.978E-03     336.866E-03    -168.950E-03     11.5475E-03
             177     406.526E-09     49.9166E-03    -110.384E+06    -285.999E+06    -110.042E+06    -93.2875E+03    -169.186E-03     337.803E-03    -168.617E-03     12.3104E-03    -169.176E-03     336.706E-03    -168.592E-03     11.5904E-03
             178     77.4988E-09     48.5884E-03    -109.686E+06    -285.575E+06    -109.722E+06     55.5110E+03    -169.263E-03     338.029E-03    -168.765E-03     12.4063E-03    -169.251E-03     336.933E-03    -168.741E-03     11.6925E-03
             179     138.421E-09     47.2603E-03    -109.667E+06    -285.911E+06    -110.036E+06     155.996E+03    -168.763E-03     337.556E-03    -168.793E-03     11.9114E-03    -168.749E-03     336.458E-03    -168.769E-03     11.1917E-03
             180    -453.397E-09     45.9340E-03    -109.861E+06    -286.081E+06    -109.873E+06    -34.9181E+03    -168.264E-03     336.684E-03    -168.420E-03     11.7561E-03    -168.251E-03     335.585E-03    -168.395E-03     11.0480E-03
             181     483.057E-09     44.6076E-03    -109.820E+06    -286.123E+06    -110.005E+06     239.693E+03    -168.349E-03     336.430E-03    -168.081E-03     12.1288E-03    -168.335E-03     335.331E-03    -168.057E-03     11.4306E-03
             182    -160.847E-09     43.2813E-03    -109.367E+06    -285.292E+06    -109.064E+06     18.0538E+03    -168.083E-03     335.980E-03    -167.897E-03     12.0705E-03    -168.070E-03     334.884E-03    -167.870E-03     11.3651E-03
             183     71.2597E-09     41.9570E-03    -109.930E+06    -286.047E+06    -109.902E+06    -520.136E+03    -167.455E-03     334.820E-03    -167.365E-03     11.5359E-03    -167.442E-03     333.721E-03    -167.341E-03     10.8379E-03
             184     107.785E-09     40.6343E-03    -109.522E+06    -285.888E+06    -109.797E+06     369.483E+03    -166.805E-03     333.849E-03    -167.044E-03     11.7960E-03    -166.790E-03     332.750E-03    -167.019E-03     11.1162E-03
             185    -703.323E-09     39.3117E-03    -109.335E+06    -285.176E+06    -108.752E+06    -230.484E+03    -166.512E-03     333.144E-03    -166.632E-03     11.7945E-03    -166.498E-03     332.047E-03    -166.604E-03     11.1148E-03
             186     1.07137E-06     37.9898E-03    -110.113E+06    -286.088E+06    -110.209E+06          -1.375    -166.530E-03     332.261E-03    -165.731E-03     12.0778E-03    -166.517E-03     331.163E-03    -165.708E-03     11.4156E-03
             187    -276.966E-09     36.6711E-03    -109.401E+06    -285.062E+06    -109.369E+06     378.335E+03    -165.842E-03     331.069E-03    -165.227E-03     12.0545E-03    -165.828E-03     329.974E-03    -165.202E-03     11.3929E-03
             188     365.893E-09     35.3520E-03    -109.035E+06    -284.120E+06    -109.462E+06     91.2757E+03    -164.904E-03     329.333E-03    -164.429E-03     11.6217E-03    -164.889E-03     328.242E-03    -164.406E-03     10.9596E-03
             189     217.607E-09     34.0379E-03    -109.643E+06    -283.477E+06    -109.005E+06     198.611E+03    -163.968E-03     327.577E-03    -163.609E-03     11.4940E-03    -163.958E-03     326.489E-03    -163.584E-03     10.8402E-03
             190    -293.855E-09     32.7251E-03    -109.142E+06    -282.910E+06    -109.703E+06    -185.934E+03    -162.874E-03     325.927E-03    -163.053E-03     10.8215E-03    -162.861E-03     324.842E-03    -163.033E-03     10.1596E-03
             191     51.2197E-09     31.4136E-03    -108.836E+06    -282.894E+06    -109.171E+06     416.287E+03    -161.923E-03     324.245E-03    -162.322E-03     10.9170E-03    -161.909E-03     323.159E-03    -162.300E-03     10.2749E-03
             192    -465.284E-09     30.1051E-03    -107.978E+06    -283.257E+06    -107.499E+06     114.629E+03    -161.115E-03     322.662E-03    -161.547E-03     10.6615E-03    -161.099E-03     321.570E-03    -161.517E-03     10.0274E-03
             193     184.231E-09     28.7985E-03    -106.231E+06    -282.097E+06    -106.578E+06     34.3322E+03    -160.675E-03     320.878E-03    -160.203E-03     10.0461E-03    -160.652E-03     319.788E-03    -160.173E-03     9.41317E-03
             194     784.904E-09     27.4943E-03    -107.194E+06    -281.638E+06    -107.265E+06    -217.881E+03    -159.755E-03     318.766E-03    -159.011E-03     10.3141E-03    -159.736E-03     317.680E-03    -158.984E-03     9.69052E-03
             195    -650.458E-09     26.1928E-03    -108.887E+06    -282.207E+06    -109.060E+06    -52.0746E+03    -158.247E-03     316.680E-03    -158.433E-03     10.3321E-03    -158.233E-03     315.596E-03    -158.412E-03     9.72985E-03
             196     190.817E-09     24.8943E-03    -108.353E+06    -281.012E+06    -108.232E+06     620.087E+03    -157.537E-03     315.009E-03    -157.472E-03     9.70928E-03    -157.523E-03     313.929E-03    -157.449E-03     9.13115E-03
             197     338.165E-09     23.5981E-03    -107.142E+06    -279.238E+06    -107.377E+06     228.953E+03    -156.840E-03     313.388E-03    -156.549E-03     9.28438E-03    -156.823E-03     312.314E-03    -156.525E-03     8.70762E-03
             198    -449.903E-09     22.3036E-03    -104.887E+06    -276.364E+06    -105.027E+06     569.476E+03    -156.270E-03     311.792E-03    -155.522E-03     8.87937E-03    -156.249E-03     310.725E-03    -155.495E-03     8.33191E-03
             199     1.68766E-06     21.0099E-03    -103.822E+06    -274.757E+06    -103.587E+06     250.433E+03    -155.351E-03     309.578E-03    -154.227E-03     8.78714E-03    -155.328E-03     308.514E-03    -154.196E-03     8.26387E-03
             200    -1.21724E-06     19.7224E-03    -104.235E+06    -273.839E+06    -104.109E+06     369.948E+03    -152.463E-03     305.384E-03    -152.921E-03     7.65773E-03    -152.442E-03     304.325E-03    -152.893E-03     7.17052E-03
             201     20.0624E-09     18.4402E-03    -103.595E+06    -270.851E+06    -104.288E+06     713.572E+03    -149.434E-03     299.493E-03    -150.059E-03     6.00990E-03    -149.413E-03     298.447E-03    -150.038E-03     5.56751E-03
             202     198.107E-09     17.1674E-03    -102.345E+06    -266.562E+06    -102.076E+06     823.176E+03    -146.038E-03     291.951E-03    -145.914E-03     5.24655E-03    -146.019E-03     290.920E-03    -145.889E-03     4.84464E-03
             203    -221.340E-09     15.9037E-03    -99.3999E+06    -261.365E+06    -98.9254E+06     1.34763E+06    -141.169E-03     281.957E-03    -140.788E-03     3.85243E-03    -141.147E-03     280.941E-03    -140.759E-03     3.51279E-03
             204     857.251E-09     14.6566E-03    -95.8782E+06    -256.150E+06    -96.0981E+06     1.03126E+06    -135.510E-03     270.136E-03    -134.626E-03     2.94260E-03    -135.481E-03     269.136E-03    -134.596E-03     2.64621E-03
             205    -92.4807E-09     13.4229E-03    -93.5038E+06    -252.695E+06    -93.5641E+06     90.3235E+03    -128.604E-03     257.164E-03    -128.560E-03     1.96198E-03    -128.572E-03     256.172E-03    -128.526E-03     1.69887E-03
             206    -592.686E-09     12.2079E-03    -94.7201E+06    -251.285E+06    -95.2240E+06     225.002E+03    -121.510E-03     243.377E-03    -121.866E-03     556.030E-06    -121.484E-03     242.396E-03    -121.841E-03     332.941E-06
             207     728.049E-09     11.0074E-03    -93.7472E+06    -245.919E+06    -93.7676E+06     1.40595E+06    -115.217E-03     229.659E-03    -114.442E-03     105.097E-06    -115.195E-03     228.702E-03    -114.419E-03    -70.6238E-06
             208     402.207E-09     9.82434E-03    -89.3854E+06    -238.201E+06    -89.0256E+06     2.26754E+06    -109.148E-03     217.105E-03    -107.957E-03     493.169E-06    -109.122E-03     216.174E-03    -107.927E-03     347.413E-06
             209     407.293E-09     8.65416E-03    -85.2304E+06    -229.602E+06    -84.1328E+06     2.03671E+06    -104.741E-03     208.898E-03    -104.157E-03     1.71163E-03    -104.714E-03     207.998E-03    -104.121E-03     1.55641E-03
             210    -254.038E-09     7.49127E-03    -83.3850E+06    -221.997E+06    -82.1129E+06     1.22662E+06    -105.185E-03     210.422E-03    -105.237E-03     4.27901E-03    -105.163E-03     209.554E-03    -105.205E-03     4.10336E-03
             211     34.0592E-09     6.31754E-03    -73.8975E+06    -219.281E+06    -73.6730E+06     176.407E+03    -111.867E-03     224.415E-03    -112.549E-03     7.09147E-03    -111.818E-03     223.533E-03    -112.492E-03     6.90013E-03
             212    -884.588E-09     5.12045E-03    -63.9432E+06    -222.313E+06    -64.6884E+06    -1.17180E+06    -123.632E-03     248.510E-03    -124.879E-03     8.86796E-03    -123.546E-03     247.581E-03    -124.787E-03     8.65364E-03
             213    -212.047E-09     3.88893E-03    -65.1798E+06    -229.378E+06    -64.9985E+06    -1.42317E+06    -138.634E-03     277.935E-03    -139.301E-03     9.24240E-03    -138.544E-03     276.971E-03    -139.199E-03     9.02247E-03
             214     301.553E-09     2.61774E-03    -63.0375E+06    -233.339E+06    -63.2753E+06    -281.104E+03    -152.713E-03     305.178E-03    -152.465E-03     7.45733E-03    -152.604E-03     304.191E-03    -152.352E-03     7.29097E-03
             215     12.3125E-09     1.31743E-03    -56.8054E+06    -231.160E+06    -57.2489E+06     1.25819E+06    -161.899E-03     323.401E-03    -161.502E-03     4.07873E-03    -161.765E-03     322.410E-03    -161.371E-03     3.99876E-03
             216     761.821E-06     2.80331E-15    -53.4602E+06    -227.650E+06    -51.1771E+06     2.48486E+06    -165.064E-03     329.895E-03    -164.831E-03     3.55213E-03    -164.927E-03     328.909E-03    -164.679E-03     3.49103E-03
             217     1.52424E-03     2.80331E-15    -54.3381E+06    -227.861E+06    -51.0154E+06     2.05374E+06    -165.010E-03     329.984E-03    -164.974E-03     6.27290E-03    -164.878E-03     328.998E-03    -164.820E-03     6.13282E-03
             218     2.28555E-03     2.80331E-15    -54.0972E+06    -227.754E+06    -51.4092E+06    -224.262E+03    -164.673E-03     329.622E-03    -164.949E-03     9.48748E-03    -164.542E-03     328.638E-03    -164.797E-03     9.22240E-03
             219     3.04801E-03     2.80331E-15    -51.8933E+06    -225.777E+06    -50.2986E+06    -2.15996E+06    -164.146E-03     328.976E-03    -164.830E-03     12.6615E-03    -164.011E-03     328.001E-03    -164.679E-03     12.2771E-03
             220     3.81115E-03     2.80331E-15    -47.7278E+06    -219.727E+06    -44.5901E+06    -4.43619E+06    -163.718E-03     328.394E-03    -164.676E-03     15.7914E-03    -163.583E-03     327.438E-03    -164.511E-03     15.2886E-03
             221     4.57343E-03     2.80331E-15    -41.7150E+06    -196.300E+06    -39.7400E+06    -5.16518E+06    -163.110E-03     327.575E-03    -164.465E-03     19.5969E-03    -162.990E-03     326.724E-03    -164.319E-03     18.9941E-03
             222     5.33666E-03     2.80331E-15    -36.0368E+06    -159.623E+06    -42.6164E+06    -4.97013E+06    -162.274E-03     326.430E-03    -164.156E-03     22.8883E-03    -162.180E-03     325.764E-03    -164.085E-03     22.1881E-03
             223     6.10190E-03     2.80331E-15    -30.3398E+06    -120.465E+06    -48.3023E+06    -7.35469E+06    -161.669E-03     325.472E-03    -163.802E-03     25.6351E-03    -161.601E-03     325.007E-03    -163.825E-03     24.7891E-03
             224     6.86583E-03     2.80331E-15    -23.5606E+06    -67.4166E+06    -57.1875E+06    -9.36863E+06    -161.473E-03     324.902E-03    -163.429E-03     29.4485E-03    -161.444E-03     324.714E-03    -163.583E-03     28.4500E-03
             225     7.62962E-03     2.80331E-15    -17.8456E+06    -18.0971E+06    -52.9246E+06    -6.66597E+06    -161.604E-03     324.785E-03    -163.181E-03     33.5266E-03    -161.634E-03     324.840E-03    -163.394E-03     32.4220E-03
             226     8.39426E-03     2.80331E-15    -15.6731E+06     8.05182E+06    -28.1878E+06    -1.27168E+06    -162.137E-03     325.285E-03    -163.148E-03     36.5124E-03    -162.242E-03     325.444E-03    -163.278E-03     35.3045E-03
             227     9.15797E-03     2.80331E-15    -14.6735E+06     24.1174E+06     397.498E+03    -552.142E+03    -163.594E-03     326.853E-03    -163.259E-03     40.5640E-03    -163.779E-03     327.069E-03    -163.271E-03     39.1124E-03
             228     9.91874E-03     2.80331E-15    -12.2761E+06     36.6905E+06     25.5366E+06    -1.73947E+06    -166.903E-03     330.448E-03    -163.545E-03     45.4191E-03    -167.160E-03     330.717E-03    -163.453E-03     43.5985E-03
             229     10.6785E-03     2.80331E-15    -8.78080E+06     46.4126E+06     52.6459E+06     1.06164E+06    -171.835E-03     335.950E-03    -164.114E-03     47.7339E-03    -172.158E-03     336.253E-03    -163.906E-03     45.5523E-03
             230     11.4337E-03     2.80331E-15    -6.00834E+06     51.2712E+06     73.2668E+06     2.82428E+06    -179.599E-03     344.618E-03    -165.019E-03     55.5653E-03    -179.998E-03     344.963E-03    -164.718E-03     52.9227E-03
             231     12.1744E-03     2.80331E-15    -4.61809E+06     57.7111E+06     80.1908E+06    -343.110E+03    -195.548E-03     362.022E-03    -166.473E-03     71.5429E-03    -196.116E-03     362.548E-03    -166.149E-03     67.5679E-03
             232     12.9076E-03     2.80331E-15    -2.72169E+06     67.2472E+06     83.5627E+06     2.38296E+06    -223.819E-03     392.798E-03    -168.979E-03     89.1413E-03    -224.639E-03     393.613E-03    -168.655E-03     83.1854E-03
             233     13.6063E-03     2.80331E-15    -4.92940E+06     71.2926E+06     80.8119E+06     7.61808E+06    -273.542E-03     446.726E-03    -173.184E-03     125.257E-03    -275.106E-03     448.319E-03    -172.876E-03     114.678E-03
             234     14.2621E-03     2.80331E-15    -2.23360E+06     82.3727E+06     83.3035E+06     5.34977E+06    -363.477E-03     543.583E-03    -180.106E-03     240.373E-03    -368.821E-03     548.957E-03    -179.806E-03     214.803E-03
             235     15.0156E-03     1.91473E-03    -1.09236E+06     92.9035E+06     80.3266E+06     1.23431E+06    -352.845E-03     533.219E-03    -180.374E-03     300.862E-03    -361.700E-03     542.103E-03    -180.106E-03     268.381E-03
             236     15.1015E-03     3.36121E-03    -3.32436E+06     88.5636E+06     69.4958E+06     742.456E+03    -274.953E-03     449.202E-03    -174.249E-03     226.047E-03    -282.420E-03     456.739E-03    -174.025E-03     200.184E-03
             237     15.1456E-03     4.81289E-03    -2.60215E+06     87.2575E+06     71.8627E+06    -39.5725E+03    -266.026E-03     437.138E-03    -171.112E-03     154.618E-03    -271.231E-03     442.434E-03    -170.875E-03     131.251E-03
             238     15.1618E-03     6.29665E-03    -1.46770E+06     90.8775E+06     77.7166E+06     1.08587E+06    -261.622E-03     431.414E-03    -169.792E-03     121.889E-03    -266.061E-03     435.945E-03    -169.533E-03     99.5755E-03
             239     15.1688E-03     7.73845E-03    -1.70879E+06     86.7972E+06     74.7623E+06     705.213E+03    -249.329E-03     418.748E-03    -169.419E-03     106.390E-03    -253.272E-03     422.769E-03    -169.168E-03     85.7664E-03
             240     15.1767E-03     9.15793E-03    -2.08260E+06     85.3807E+06     77.8582E+06    -2.30135E+06    -238.883E-03     408.220E-03    -169.337E-03     92.6938E-03    -242.436E-03     411.841E-03    -169.068E-03     73.5292E-03
             241     15.1739E-03     10.5894E-03    -1.15000E+06     84.9201E+06     80.7118E+06     2.34256E+06    -228.812E-03     398.378E-03    -169.566E-03     82.4714E-03    -232.079E-03     401.710E-03    -169.284E-03     65.0990E-03
             242     15.1728E-03     11.9897E-03    -2.40641E+06     81.4581E+06     74.8118E+06    -164.020E+03    -212.114E-03     382.057E-03    -169.943E-03     80.7470E-03    -215.284E-03     385.289E-03    -169.683E-03     65.1051E-03
             243     15.1784E-03     13.3566E-03    -1.68972E+06     83.4321E+06     77.3972E+06    -2.68708E+06    -200.108E-03     370.195E-03    -170.088E-03     82.0198E-03    -203.343E-03     373.496E-03    -169.819E-03     67.2787E-03
             244     15.1778E-03     14.7379E-03    -1.80355E+06     84.6022E+06     79.7127E+06     3.21462E+06    -196.840E-03     366.946E-03    -170.107E-03     80.6890E-03    -200.055E-03     370.225E-03    -169.828E-03     66.6815E-03
             245     15.1776E-03     16.1057E-03    -3.97214E+06     82.4512E+06     77.1284E+06     539.607E+03    -191.404E-03     361.571E-03    -170.167E-03     83.7788E-03    -194.696E-03     364.918E-03    -169.895E-03     70.1417E-03
             246     15.1828E-03     17.4629E-03    -1.52536E+06     86.0060E+06     81.1614E+06    -964.565E+03    -187.082E-03     357.166E-03    -170.084E-03     91.6457E-03    -190.577E-03     360.726E-03    -169.801E-03     78.0818E-03
             247     15.1848E-03     18.8291E-03    -420.271E+03     87.6874E+06     80.6394E+06     1.50981E+06    -186.755E-03     356.604E-03    -169.849E-03     93.9465E-03    -190.351E-03     360.276E-03    -169.572E-03     80.3001E-03
             248     15.1897E-03     20.1746E-03    -3.88274E+06     85.3160E+06     79.0906E+06     733.764E+03    -187.570E-03     357.206E-03    -169.636E-03     92.9195E-03    -191.223E-03     360.919E-03    -169.358E-03     79.1117E-03
             249     15.1892E-03     21.5443E-03    -1.28428E+06     87.9049E+06     82.8393E+06     1.03291E+06    -187.521E-03     357.071E-03    -169.551E-03     92.9554E-03    -191.195E-03     360.814E-03    -169.262E-03     79.2804E-03
             250     15.1910E-03     22.8996E-03    -3.25182E+06     85.7998E+06     79.3156E+06    -1.06184E+06    -184.584E-03     354.106E-03    -169.522E-03     96.3562E-03    -188.380E-03     357.965E-03    -169.245E-03     82.7103E-03
             251     15.1934E-03     24.2453E-03    -1.95883E+06     88.2802E+06     81.5850E+06    -845.317E+03    -183.809E-03     353.259E-03    -169.449E-03     98.0864E-03    -187.694E-03     357.214E-03    -169.167E-03     84.4379E-03
             252     15.1927E-03     25.6103E-03    -1.79759E+06     88.4247E+06     80.4560E+06     210.634E+03    -183.426E-03     352.830E-03    -169.405E-03     97.8893E-03    -187.370E-03     356.849E-03    -169.128E-03     84.2562E-03
             253     15.1946E-03     26.9475E-03    -1.46787E+06     89.9719E+06     81.7289E+06     513.440E+03    -181.317E-03     350.727E-03    -169.410E-03     97.9778E-03    -185.327E-03     354.813E-03    -169.129E-03     84.4475E-03
             254     15.1945E-03     28.3048E-03    -2.24918E+06     89.8221E+06     82.4240E+06    -148.462E+03    -179.265E-03     348.666E-03    -169.401E-03     98.3157E-03    -183.294E-03     352.767E-03    -169.116E-03     84.9851E-03
             255     15.1966E-03     29.6443E-03    -2.21819E+06     90.2768E+06     84.0068E+06    -294.615E+03    -178.623E-03     348.010E-03    -169.387E-03     101.697E-03    -182.755E-03     352.211E-03    -169.095E-03     88.3468E-03
             256     15.1949E-03     30.9958E-03    -1.32036E+06     92.6916E+06     85.8457E+06     1.98617E+06    -178.094E-03     347.494E-03    -169.401E-03     101.140E-03    -182.230E-03     351.707E-03    -169.104E-03     87.9501E-03
             257     15.1964E-03     32.3350E-03    -3.19327E+06     90.3640E+06     83.0485E+06     1.60015E+06    -175.621E-03     345.063E-03    -169.442E-03     102.376E-03    -179.805E-03     349.316E-03    -169.153E-03     89.4031E-03
             258     15.1959E-03     33.6762E-03    -920.445E+03     91.9107E+06     84.3018E+06     305.901E+03    -174.197E-03     343.627E-03    -169.430E-03     104.808E-03    -178.468E-03     347.977E-03    -169.140E-03     91.8315E-03
             259     15.1984E-03     35.0157E-03    -3.09416E+06     90.5522E+06     83.5598E+06    -570.572E+03    -174.073E-03     343.455E-03    -169.382E-03     105.597E-03    -178.406E-03     347.857E-03    -169.091E-03     92.5108E-03
             260     15.1970E-03     36.3535E-03    -1.98920E+06     92.0060E+06     84.7536E+06     156.322E+03    -173.849E-03     343.271E-03    -169.422E-03     103.540E-03    -178.151E-03     347.647E-03    -169.129E-03     90.6253E-03
             261     15.1953E-03     37.6942E-03    -3.36501E+06     89.2856E+06     80.2722E+06    -1.53595E+06    -171.896E-03     341.373E-03    -169.477E-03     104.033E-03    -176.195E-03     345.745E-03    -169.200E-03     91.2790E-03
             262     15.1989E-03     39.0201E-03    -1.38925E+06     92.1081E+06     84.5984E+06    -1.27716E+06    -171.815E-03     341.282E-03    -169.467E-03     105.294E-03    -176.134E-03     345.677E-03    -169.175E-03     92.5584E-03
             263     15.1951E-03     40.3693E-03    -1.52047E+06     93.1297E+06     87.5976E+06     1.42573E+06    -171.605E-03     341.107E-03    -169.502E-03     103.092E-03    -175.891E-03     345.465E-03    -169.197E-03     90.5059E-03
             264     15.1979E-03     41.6914E-03    -3.18117E+06     90.2491E+06     84.2103E+06     1.19876E+06    -169.281E-03     338.835E-03    -169.554E-03     104.244E-03    -173.602E-03     343.221E-03    -169.259E-03     91.8293E-03
             265     15.1960E-03     43.0307E-03    -1.76560E+06     90.9542E+06     83.6177E+06     436.080E+03    -169.652E-03     339.183E-03    -169.531E-03     105.107E-03    -174.012E-03     343.618E-03    -169.242E-03     92.6099E-03
             266     15.1975E-03     44.3616E-03    -1.31503E+06     92.3373E+06     84.2270E+06     966.980E+03    -169.870E-03     339.358E-03    -169.488E-03     105.370E-03    -174.235E-03     343.802E-03    -169.198E-03     92.8480E-03
             267     15.1987E-03     45.6929E-03    -1.41714E+06     93.0627E+06     84.2843E+06     261.228E+03    -169.323E-03     338.807E-03    -169.484E-03     103.883E-03    -173.648E-03     343.213E-03    -169.195E-03     91.4576E-03
             268     15.1957E-03     47.0315E-03    -3.40441E+06     90.9345E+06     83.2769E+06    -896.251E+03    -168.211E-03     337.724E-03    -169.513E-03     105.733E-03    -172.625E-03     342.208E-03    -169.224E-03     93.2456E-03
             269     15.2005E-03     48.3524E-03    -2.19188E+06     92.1039E+06     85.7887E+06    -684.332E+03    -168.381E-03     337.819E-03    -169.438E-03     106.545E-03    -172.815E-03     342.324E-03    -169.139E-03     94.0395E-03
             270     15.1987E-03     49.6903E-03    -1.37095E+06     91.8651E+06     85.7648E+06     427.418E+03    -170.780E-03     340.159E-03    -169.379E-03     103.157E-03    -175.131E-03     344.583E-03    -169.081E-03     90.6182E-03
             271     15.1971E-03     51.0284E-03    -1.92417E+06     90.6482E+06     84.0504E+06     564.105E+03    -169.201E-03     338.706E-03    -169.505E-03     103.330E-03    -173.569E-03     343.146E-03    -169.214E-03     90.9022E-03
             272     15.1967E-03     52.3534E-03    -3.58183E+06     89.9817E+06     83.2360E+06    -574.613E+03    -167.235E-03     336.814E-03    -169.578E-03     105.677E-03    -171.670E-03     341.314E-03    -169.287E-03     93.2963E-03
             273     15.1979E-03     53.6830E-03    -2.40899E+06     92.4072E+06     84.9394E+06     152.157E+03    -168.501E-03     338.021E-03    -169.520E-03     105.216E-03    -172.908E-03     342.502E-03    -169.226E-03     92.8069E-03
             274     15.1976E-03     55.0205E-03    -2.02878E+06     92.7639E+06     84.5368E+06    -1.53366E+03    -168.030E-03     337.548E-03    -169.518E-03     105.260E-03    -172.438E-03     342.033E-03    -169.227E-03     92.8627E-03
             275     15.1977E-03     56.3467E-03    -2.29694E+06     91.7167E+06     85.0307E+06    -172.593E+03    -168.168E-03     337.719E-03    -169.551E-03     106.913E-03    -172.614E-03     342.235E-03    -169.255E-03     94.4806E-03
             276     15.1960E-03     57.6806E-03    -2.01090E+06     91.6425E+06     85.8743E+06    -61.2182E+03    -168.363E-03     337.920E-03    -169.557E-03     105.236E-03    -172.745E-03     342.371E-03    -169.258E-03     92.8741E-03
             277     15.1987E-03     59.0082E-03    -1.93873E+06     90.6403E+06     84.3598E+06    -585.674E+03    -167.536E-03     337.080E-03    -169.544E-03     105.959E-03    -171.935E-03     341.550E-03    -169.251E-03     93.6305E-03
             278     15.1967E-03     60.3413E-03    -2.30577E+06     90.9726E+06     84.1284E+06    -109.080E+03    -167.688E-03     337.201E-03    -169.513E-03     106.548E-03    -172.112E-03     341.696E-03    -169.220E-03     94.1981E-03
             279     15.1997E-03     61.6701E-03    -1.62832E+06     92.5340E+06     86.0708E+06     812.384E+03    -167.689E-03     337.176E-03    -169.486E-03     105.691E-03    -172.099E-03     341.659E-03    -169.188E-03     93.3837E-03
             280     15.1976E-03     62.9985E-03    -2.04208E+06     91.6366E+06     85.4033E+06     342.658E+03    -168.498E-03     338.019E-03    -169.521E-03     102.100E-03    -172.841E-03     342.433E-03    -169.224E-03     89.8063E-03
             281     15.1951E-03     64.3340E-03    -2.60370E+06     89.9859E+06     83.6867E+06    -69.6541E+03    -167.935E-03     337.544E-03    -169.609E-03     102.736E-03    -172.293E-03     341.969E-03    -169.317E-03     90.4255E-03
             282     15.1975E-03     65.6590E-03    -2.58926E+06     90.1514E+06     84.1809E+06    -265.916E+03    -167.300E-03     336.889E-03    -169.589E-03     106.140E-03    -171.726E-03     341.382E-03    -169.295E-03     93.7955E-03
             283     15.1977E-03     66.9946E-03    -2.12861E+06     91.2212E+06     85.7252E+06    -1.91084E+03    -168.064E-03     337.599E-03    -169.536E-03     105.688E-03    -172.489E-03     342.092E-03    -169.236E-03     93.3124E-03
             284     15.1972E-03     68.3254E-03    -1.78317E+06     91.4932E+06     86.1080E+06    -23.2037E+03    -167.383E-03     336.940E-03    -169.557E-03     105.809E-03    -171.829E-03     341.455E-03    -169.257E-03     93.4625E-03
             285     15.1979E-03     69.6513E-03    -1.57759E+06     91.3418E+06     85.9727E+06    -68.3520E+03    -166.535E-03     336.063E-03    -169.528E-03     105.804E-03    -170.958E-03     340.556E-03    -169.229E-03     93.5319E-03
             286     15.2000E-03     70.9807E-03    -1.03563E+06     91.6135E+06     84.9728E+06     174.193E+03    -168.042E-03     337.525E-03    -169.483E-03     105.105E-03    -172.427E-03     341.986E-03    -169.190E-03     92.7858E-03
             287     15.1950E-03     72.3190E-03    -4.10580E+06     89.6407E+06     82.4044E+06    -517.974E+03    -168.793E-03     338.323E-03    -169.529E-03     105.280E-03    -173.197E-03     342.791E-03    -169.241E-03     92.8500E-03
             288     15.1987E-03     73.6414E-03    -2.59111E+06     90.2889E+06     85.1730E+06     228.480E+03    -167.796E-03     337.361E-03    -169.565E-03     105.852E-03    -172.186E-03     341.816E-03    -169.267E-03     93.5580E-03
             289     15.1964E-03     74.9783E-03    -1.66319E+06     91.0880E+06     85.4036E+06     711.771E+03    -167.628E-03     337.213E-03    -169.585E-03     104.711E-03    -171.989E-03     341.644E-03    -169.288E-03     92.5097E-03
             290     15.1962E-03     76.3063E-03    -3.38225E+06     90.2739E+06     83.1579E+06    -672.713E+03    -166.825E-03     336.424E-03    -169.599E-03     106.031E-03    -171.242E-03     340.909E-03    -169.310E-03     93.7469E-03
             291     15.1988E-03     77.6299E-03    -1.49772E+06     92.4531E+06     85.8061E+06    -185.174E+03    -167.629E-03     337.174E-03    -169.545E-03     104.969E-03    -172.033E-03     341.652E-03    -169.248E-03     92.6512E-03
             292     759.766E-06     76.5217E-03    -109.266E+06    -284.492E+06    -107.245E+06     66.8561E+03    -169.845E-03     339.479E-03    -169.634E-03     20.7282E-03    -169.864E-03     338.412E-03    -169.599E-03     19.5355E-03
             293     1.51922E-03     76.5576E-03    -106.252E+06    -278.764E+06    -98.3941E+06     27.7735E+03    -170.065E-03     339.790E-03    -169.725E-03     38.1206E-03    -170.179E-03     338.822E-03    -169.658E-03     35.8996E-03
             294     2.27858E-03     76.6163E-03    -101.731E+06    -264.256E+06    -86.6727E+06    -231.715E+03    -170.416E-03     340.177E-03    -169.761E-03     56.3288E-03    -170.698E-03     339.411E-03    -169.664E-03     52.9689E-03
             295     3.03824E-03     76.6977E-03    -96.2086E+06    -245.764E+06    -72.1200E+06    -198.977E+03    -170.882E-03     340.675E-03    -169.793E-03     74.5543E-03    -171.411E-03     340.199E-03    -169.657E-03     69.9665E-03
             296     3.79780E-03     76.8014E-03    -90.0916E+06    -226.687E+06    -57.1732E+06    -20.0822E+03    -171.479E-03     341.300E-03    -169.820E-03     92.6105E-03    -172.342E-03     341.203E-03    -169.647E-03     86.6852E-03
             297     4.55749E-03     76.9270E-03    -83.6939E+06    -210.171E+06    -44.3301E+06    -6.71425E+03    -172.169E-03     342.010E-03    -169.841E-03     110.575E-03    -173.463E-03     342.389E-03    -169.637E-03     103.172E-03
             298     5.31707E-03     77.0746E-03    -77.3914E+06    -188.452E+06    -33.0186E+06     135.297E+03    -172.868E-03     342.713E-03    -169.845E-03     128.419E-03    -174.722E-03     343.719E-03    -169.625E-03     119.405E-03
             299     6.07673E-03     77.2433E-03    -71.0080E+06    -156.153E+06    -22.5977E+06      289.31E+03    -173.524E-03     343.347E-03    -169.823E-03     146.065E-03    -176.105E-03     345.187E-03    -169.607E-03     135.278E-03
             300     6.83637E-03     77.4334E-03    -65.3380E+06    -125.336E+06    -12.5898E+06     338.408E+03    -174.160E-03     343.958E-03    -169.797E-03     163.434E-03    -177.655E-03     346.812E-03    -169.584E-03     150.684E-03
             301     7.59650E-03     77.6437E-03    -59.5118E+06    -87.2926E+06    -2.21857E+06    -154.161E+03    -174.619E-03     344.378E-03    -169.759E-03     180.383E-03    -179.257E-03     348.502E-03    -169.557E-03     165.488E-03
             302     8.35628E-03     77.8729E-03    -52.7675E+06    -37.8110E+06     10.1775E+06    -3.86719E+03    -174.917E-03     344.626E-03    -169.709E-03     197.019E-03    -180.987E-03     350.345E-03    -169.526E-03     179.796E-03
             303     9.11611E-03     78.1224E-03    -45.6430E+06     15.3451E+06     22.5441E+06     1.73752E+06    -175.264E-03     344.918E-03    -169.654E-03     215.186E-03    -183.167E-03     352.648E-03    -169.497E-03     195.420E-03
             304     9.87655E-03     78.3951E-03    -39.2319E+06     48.3494E+06     39.6348E+06     1.86993E+06    -175.633E-03     345.289E-03    -169.657E-03     235.978E-03    -185.877E-03     355.451E-03    -169.472E-03     213.429E-03
             305     10.6357E-03     78.6930E-03    -34.4889E+06     56.6727E+06     59.9508E+06     119.629E+03    -175.773E-03     345.488E-03    -169.715E-03     256.165E-03    -188.711E-03     358.331E-03    -169.447E-03     230.960E-03
             306     11.3956E-03     79.0130E-03    -29.3707E+06     66.8416E+06     75.2462E+06    -625.083E+03    -175.121E-03     344.858E-03    -169.737E-03     269.895E-03    -190.543E-03     360.195E-03    -169.415E-03     242.947E-03
             307     12.1565E-03     79.3431E-03    -22.6509E+06     81.1878E+06     85.1294E+06    -240.126E+03    -173.518E-03     343.234E-03    -169.717E-03     268.987E-03    -190.263E-03     359.941E-03    -169.376E-03     241.951E-03
             308     12.9177E-03     79.6611E-03    -16.2929E+06     89.3842E+06     87.8894E+06    -131.007E+03    -171.177E-03     340.859E-03    -169.683E-03     243.810E-03    -186.817E-03     356.504E-03    -169.349E-03     218.900E-03
             309     13.6760E-03     79.9280E-03    -10.5074E+06     93.6556E+06     87.6478E+06    -287.736E+03    -168.786E-03     338.444E-03    -169.658E-03     214.005E-03    -182.687E-03     352.386E-03    -169.340E-03     191.450E-03
             310     14.4340E-03     80.1752E-03    -5.04971E+06     93.5808E+06     85.8432E+06    -417.673E+03    -167.453E-03     337.078E-03    -169.624E-03     154.725E-03    -176.397E-03     346.086E-03    -169.323E-03     137.656E-03
             311     759.541E-06     77.8515E-03    -109.000E+06    -284.210E+06    -106.915E+06    -60.4742E+03    -169.920E-03     339.523E-03    -169.603E-03     20.5906E-03    -169.939E-03     338.457E-03    -169.568E-03     19.3952E-03
             312     1.51901E-03     77.8879E-03    -106.030E+06    -278.622E+06    -98.3379E+06    -57.6266E+03    -170.136E-03     339.893E-03    -169.757E-03     38.0371E-03    -170.249E-03     338.925E-03    -169.691E-03     35.8114E-03
             313     2.27860E-03     77.9464E-03    -101.751E+06    -264.082E+06    -86.4306E+06    -64.5843E+03    -170.471E-03     340.278E-03    -169.807E-03     56.3250E-03    -170.754E-03     339.512E-03    -169.708E-03     52.9631E-03
             314     3.03807E-03     78.0279E-03    -96.4113E+06    -245.953E+06    -72.2638E+06    -34.2444E+03    -170.908E-03     340.745E-03    -169.836E-03     74.5840E-03    -171.439E-03     340.269E-03    -169.701E-03     69.9968E-03
             315     3.79771E-03     78.1315E-03    -90.2152E+06    -227.210E+06    -58.1760E+06     68.7922E+03    -171.465E-03     341.317E-03    -169.852E-03     92.6682E-03    -172.326E-03     341.220E-03    -169.683E-03     86.7485E-03
             316     4.55725E-03     78.2574E-03    -83.7836E+06    -210.237E+06    -45.0765E+06     178.128E+03    -172.157E-03     342.021E-03    -169.864E-03     110.645E-03    -173.448E-03     342.399E-03    -169.663E-03     103.257E-03
             317     5.31697E-03     78.4047E-03    -77.3832E+06    -188.441E+06    -32.9192E+06     229.300E+03    -172.880E-03     342.747E-03    -169.867E-03     128.448E-03    -174.735E-03     343.754E-03    -169.646E-03     119.435E-03
             318     6.07664E-03     78.5738E-03    -71.4022E+06    -156.964E+06    -22.6962E+06     361.933E+03    -173.543E-03     343.388E-03    -169.845E-03     146.129E-03    -176.126E-03     345.226E-03    -169.627E-03     135.338E-03
             319     6.83646E-03     78.7636E-03    -65.2917E+06    -124.948E+06    -12.1911E+06     485.632E+03    -174.158E-03     343.976E-03    -169.817E-03     163.478E-03    -177.652E-03     346.829E-03    -169.602E-03     150.737E-03
             320     7.59617E-03     78.9738E-03    -59.9283E+06    -85.7716E+06    -1.70221E+06     200.467E+03    -174.657E-03     344.436E-03    -169.779E-03     180.179E-03    -179.297E-03     348.564E-03    -169.577E-03     165.284E-03
             321     8.35605E-03     79.2035E-03    -55.2041E+06     -37.672E+06     9.50191E+06    -908.379E+03    -175.009E-03     344.743E-03    -169.734E-03     197.004E-03    -181.094E-03     350.471E-03    -169.552E-03     179.749E-03
             322     9.11580E-03     79.4529E-03    -49.3613E+06     12.6612E+06     20.7285E+06    -2.02673E+06    -175.287E-03     344.970E-03    -169.683E-03     215.417E-03    -183.218E-03     352.711E-03    -169.526E-03     195.569E-03
             323     9.87540E-03     79.7250E-03    -42.0490E+06     45.3588E+06     35.3049E+06    -263.416E+03    -175.496E-03     345.163E-03    -169.667E-03     235.926E-03    -185.744E-03     355.321E-03    -169.496E-03     213.350E-03
             324     10.6364E-03     80.0238E-03    -34.5980E+06     58.6129E+06     53.5691E+06     1.84580E+06    -175.410E-03     345.097E-03    -169.686E-03     255.899E-03    -188.328E-03     357.944E-03    -169.453E-03     230.758E-03
             325     11.3969E-03     80.3435E-03    -27.8335E+06     69.6813E+06     71.6516E+06     789.731E+03    -175.051E-03     344.757E-03    -169.707E-03     269.425E-03    -190.455E-03     360.102E-03    -169.409E-03     242.488E-03
             326     12.1567E-03     80.6734E-03    -21.4047E+06     80.1246E+06     84.6888E+06    -228.769E+03    -173.868E-03     343.590E-03    -169.722E-03     268.280E-03    -190.592E-03     360.277E-03    -169.384E-03     241.184E-03
             327     12.9155E-03     80.9912E-03    -14.4184E+06     88.7650E+06     89.2070E+06     403.367E+03    -171.187E-03     340.895E-03    -169.708E-03     243.957E-03    -186.813E-03     356.526E-03    -169.370E-03     219.078E-03
             328     13.6752E-03     81.2616E-03    -8.47749E+06     94.9692E+06     89.0190E+06     308.233E+03    -168.479E-03     338.143E-03    -169.664E-03     215.636E-03    -182.392E-03     352.106E-03    -169.345E-03     193.178E-03
             329     14.4385E-03     81.5019E-03    -4.11716E+06     93.8711E+06     86.0369E+06    -67.7014E+03    -167.339E-03     336.946E-03    -169.607E-03     155.886E-03    -176.294E-03     345.970E-03    -169.307E-03     138.856E-03
             330     759.487E-06     79.1820E-03    -108.509E+06    -283.895E+06    -106.701E+06    -338.507E+03    -169.929E-03     339.714E-03    -169.785E-03     20.8073E-03    -169.946E-03     338.649E-03    -169.750E-03     19.6088E-03
             331     1.51897E-03     79.2180E-03    -105.726E+06    -278.715E+06    -98.7462E+06    -182.257E+03    -170.137E-03     339.966E-03    -169.829E-03     38.1182E-03    -170.248E-03     338.999E-03    -169.765E-03     35.8884E-03
             332     2.27841E-03     79.2768E-03    -101.456E+06    -264.251E+06    -86.7827E+06     29.2325E+03    -170.482E-03     340.336E-03    -169.853E-03     56.3160E-03    -170.763E-03     339.569E-03    -169.757E-03     52.9579E-03
             333     3.03797E-03     79.3581E-03    -96.0176E+06    -246.188E+06    -72.4649E+06     148.216E+03    -170.905E-03     340.777E-03    -169.872E-03     74.5728E-03    -171.432E-03     340.300E-03    -169.738E-03     69.9921E-03
             334     3.79753E-03     79.4618E-03    -89.8864E+06    -227.298E+06    -58.0532E+06     223.371E+03    -171.473E-03     341.354E-03    -169.881E-03     92.7249E-03    -172.332E-03     341.255E-03    -169.711E-03     86.8055E-03
             335     4.55733E-03     79.5876E-03    -83.4018E+06    -210.260E+06    -44.7216E+06     247.942E+03    -172.164E-03     342.054E-03    -169.890E-03     110.671E-03    -173.453E-03     342.430E-03    -169.687E-03     103.284E-03
             336     5.31684E-03     79.7353E-03    -76.9830E+06    -188.776E+06    -32.7432E+06     235.735E+03    -172.867E-03     342.755E-03    -169.888E-03     128.459E-03    -174.721E-03     343.761E-03    -169.666E-03     119.441E-03
             337     6.07654E-03     79.9039E-03    -70.4925E+06    -156.934E+06    -21.9759E+06     358.368E+03    -173.583E-03     343.449E-03    -169.866E-03     146.073E-03    -176.163E-03     345.285E-03    -169.646E-03     135.274E-03
             338     6.83629E-03     80.0940E-03    -64.3766E+06    -125.130E+06    -11.5855E+06     557.872E+03    -174.238E-03     344.082E-03    -169.844E-03     163.333E-03    -177.729E-03     346.933E-03    -169.627E-03     150.578E-03
             339     7.59595E-03     80.3044E-03    -58.4857E+06    -86.5810E+06    -1.14259E+06     1.32305E+06    -174.683E-03     344.492E-03    -169.809E-03     180.195E-03    -179.316E-03     348.614E-03    -169.604E-03     165.308E-03
             340     8.35570E-03     80.5337E-03    -52.9279E+06    -34.4444E+06     12.0698E+06     1.41192E+06    -174.970E-03     344.732E-03    -169.762E-03     197.179E-03    -181.057E-03     350.473E-03    -169.575E-03     179.954E-03
             341     9.11582E-03     80.7835E-03    -48.6814E+06     15.7591E+06     24.5499E+06    -154.788E+03    -175.251E-03     344.964E-03    -169.713E-03     215.620E-03    -183.194E-03     352.718E-03    -169.542E-03     195.802E-03
             342     9.87591E-03     81.0560E-03    -44.5182E+06     43.0011E+06     35.9811E+06    -1.78852E+06    -175.487E-03     345.177E-03    -169.690E-03     236.050E-03    -185.746E-03     355.326E-03    -169.508E-03     213.471E-03
             343     10.6352E-03     81.3529E-03    -37.8301E+06     55.8486E+06     51.2204E+06    -1.97023E+06    -175.592E-03     345.294E-03    -169.702E-03     255.738E-03    -188.529E-03     358.146E-03    -169.472E-03     230.506E-03
             344     11.3957E-03     81.6728E-03    -29.7600E+06     69.6510E+06     70.0692E+06    -920.636E+03    -175.246E-03     344.982E-03    -169.737E-03     269.049E-03    -190.669E-03     360.344E-03    -169.444E-03     242.020E-03
             345     12.1555E-03     82.0052E-03    -22.7344E+06     80.9005E+06     83.7114E+06    -710.817E+03    -173.455E-03     343.201E-03    -169.746E-03     268.491E-03    -190.174E-03     359.884E-03    -169.412E-03     241.453E-03
             346     12.9159E-03     82.3217E-03    -16.2046E+06     87.8794E+06     87.1899E+06    -898.994E+03    -170.460E-03     340.150E-03    -169.690E-03     244.843E-03    -186.082E-03     355.773E-03    -169.358E-03     220.063E-03
             347     13.6788E-03     82.5894E-03    -9.81017E+06     94.1211E+06     87.9107E+06    -350.830E+03    -168.053E-03     337.667E-03    -169.614E-03     215.664E-03    -181.938E-03     351.596E-03    -169.296E-03     193.270E-03
             348     14.4356E-03     82.8353E-03    -4.51663E+06     93.6699E+06     87.1772E+06     289.029E+03    -167.541E-03     337.102E-03    -169.561E-03     155.559E-03    -176.464E-03     346.089E-03    -169.254E-03     138.551E-03
             349     759.355E-06     80.5120E-03    -108.843E+06    -283.874E+06    -106.398E+06     301.309E+03    -169.984E-03     339.806E-03    -169.822E-03     20.8007E-03    -170.003E-03     338.741E-03    -169.785E-03     19.6072E-03
             350     1.51887E-03     80.5485E-03    -106.129E+06    -278.759E+06    -98.4636E+06     59.1718E+03    -170.155E-03     340.026E-03    -169.871E-03     38.2420E-03    -170.268E-03     339.058E-03    -169.805E-03     36.0183E-03
             351     2.27831E-03     80.6071E-03    -101.589E+06    -264.390E+06    -86.8917E+06    -91.2916E+03    -170.503E-03     340.388E-03    -169.885E-03     56.3958E-03    -170.784E-03     339.622E-03    -169.789E-03     53.0335E-03
             352     3.03790E-03     80.6884E-03    -95.9408E+06    -246.163E+06    -72.4608E+06    -80.1168E+03    -170.937E-03     340.839E-03    -169.902E-03     74.5490E-03    -171.464E-03     340.362E-03    -169.768E-03     69.9604E-03
             353     3.79757E-03     80.7920E-03    -89.7472E+06    -227.296E+06    -57.7332E+06    -29.1928E+03    -171.510E-03     341.424E-03    -169.914E-03     92.6953E-03    -172.370E-03     341.326E-03    -169.743E-03     86.7651E-03
             354     4.55696E-03     80.9181E-03    -83.1997E+06    -210.248E+06    -44.4789E+06      89.814E+03    -172.177E-03     342.098E-03    -169.922E-03     110.631E-03    -173.467E-03     342.476E-03    -169.719E-03     103.230E-03
             355     5.31677E-03     81.0654E-03    -76.4364E+06    -188.666E+06    -32.3827E+06    -156.390E+03    -172.905E-03     342.825E-03    -169.920E-03     128.368E-03    -174.756E-03     343.829E-03    -169.697E-03     119.339E-03
             356     6.07645E-03     81.2346E-03    -70.0511E+06    -157.327E+06    -21.8771E+06    -42.2336E+03    -173.624E-03     343.523E-03    -169.899E-03     146.000E-03    -176.201E-03     345.356E-03    -169.679E-03     135.192E-03
             357     6.83585E-03     81.4246E-03    -63.9355E+06    -126.011E+06    -11.5557E+06     351.302E+03    -174.187E-03     344.060E-03    -169.873E-03     163.356E-03    -177.675E-03     346.908E-03    -169.656E-03     150.597E-03
             358     7.59578E-03     81.6344E-03    -57.1673E+06    -87.8367E+06    -635.787E+03     269.359E+03    -174.615E-03     344.445E-03    -169.830E-03     180.344E-03    -179.243E-03     348.560E-03    -169.623E-03     165.447E-03
             359     8.35584E-03     81.8644E-03    -50.2357E+06    -36.5414E+06     12.4951E+06     1.99897E+06    -174.967E-03     344.741E-03    -169.774E-03     197.340E-03    -181.040E-03     350.470E-03    -169.586E-03     180.126E-03
             360     9.11555E-03     82.1138E-03    -44.2148E+06     17.9091E+06     25.4363E+06     4.13996E+06    -175.182E-03     344.894E-03    -169.712E-03     215.609E-03    -183.103E-03     352.648E-03    -169.547E-03     195.863E-03
             361     9.87561E-03     82.3862E-03    -39.0848E+06     49.1206E+06     40.6945E+06     2.65942E+06    -175.464E-03     345.160E-03    -169.696E-03     235.940E-03    -185.708E-03     355.321E-03    -169.507E-03     213.429E-03
             362     10.6364E-03     82.6839E-03    -34.4616E+06     57.4631E+06     59.2990E+06    -431.934E+03    -175.850E-03     345.588E-03    -169.738E-03     256.338E-03    -188.799E-03     358.448E-03    -169.475E-03     231.109E-03
             363     11.3949E-03     83.0049E-03    -28.8172E+06     67.5735E+06     75.2922E+06    -881.048E+03    -175.232E-03     344.998E-03    -169.766E-03     270.325E-03    -190.681E-03     360.366E-03    -169.446E-03     243.345E-03
             364     12.1555E-03     83.3337E-03    -22.2785E+06     80.9630E+06     85.5513E+06     248.302E+03    -173.055E-03     342.788E-03    -169.734E-03     269.073E-03    -189.779E-03     359.473E-03    -169.391E-03     242.142E-03
             365     12.9181E-03     83.6501E-03    -16.6721E+06     89.3888E+06     88.0363E+06    -902.948E+03    -170.371E-03     340.026E-03    -169.655E-03     244.790E-03    -185.977E-03     355.635E-03    -169.320E-03     220.046E-03
             366     13.6754E-03     83.9212E-03    -11.3877E+06     93.2876E+06     87.5605E+06    -1.68631E+06    -168.281E-03     337.865E-03    -169.584E-03     215.417E-03    -182.169E-03     351.790E-03    -169.265E-03     192.955E-03
             367     14.4405E-03     84.1617E-03    -5.27498E+06     92.4874E+06     86.8913E+06    -647.059E+03    -167.902E-03     337.453E-03    -169.551E-03     155.208E-03    -176.841E-03     346.449E-03    -169.243E-03     138.123E-03
             368     759.484E-06     81.8426E-03    -109.213E+06    -284.487E+06    -107.343E+06     197.019E+03    -170.018E-03     339.843E-03    -169.825E-03     20.7371E-03    -170.037E-03     338.776E-03    -169.791E-03     19.5409E-03
             369     1.51888E-03     81.8787E-03    -106.036E+06    -278.505E+06    -98.1548E+06     103.927E+03    -170.204E-03     340.102E-03    -169.898E-03     38.2243E-03    -170.318E-03     339.135E-03    -169.831E-03     35.9942E-03
             370     2.27841E-03     81.9377E-03    -101.769E+06    -264.261E+06    -86.5842E+06    -117.227E+03    -170.531E-03     340.450E-03    -169.919E-03     56.2955E-03    -170.814E-03     339.685E-03    -169.821E-03     52.9224E-03
             371     3.03780E-03     82.0187E-03    -96.4111E+06    -245.985E+06    -72.4264E+06    -111.206E+03    -170.987E-03     340.925E-03    -169.938E-03     74.4934E-03    -171.518E-03     340.450E-03    -169.804E-03     69.8962E-03
             372     3.79718E-03     82.1225E-03    -90.0403E+06    -227.042E+06    -57.7968E+06    -398.351E+03    -171.541E-03     341.492E-03    -169.951E-03     92.6960E-03    -172.403E-03     341.396E-03    -169.780E-03     86.7577E-03
             373     4.55703E-03     82.2483E-03    -83.2066E+06    -210.338E+06    -44.6995E+06    -653.985E+03    -172.209E-03     342.166E-03    -169.957E-03     110.658E-03    -173.499E-03     342.544E-03    -169.755E-03     103.243E-03
             374     5.31644E-03     82.3960E-03    -76.7501E+06    -188.591E+06    -32.6863E+06    -292.907E+03    -172.938E-03     342.892E-03    -169.954E-03     128.485E-03    -174.790E-03     343.896E-03    -169.733E-03     119.459E-03
             375     6.07587E-03     82.5651E-03    -70.6719E+06    -157.440E+06    -22.1644E+06    -395.423E+03    -173.541E-03     343.466E-03    -169.925E-03     146.168E-03    -176.122E-03     345.302E-03    -169.706E-03     135.362E-03
             376     6.83603E-03     82.7548E-03    -64.1683E+06    -126.361E+06    -11.9341E+06    -691.203E+03    -174.091E-03     343.975E-03    -169.885E-03     163.518E-03    -177.581E-03     346.824E-03    -169.668E-03     150.752E-03
             377     7.59582E-03     82.9650E-03    -58.3983E+06    -87.7362E+06    -1.59102E+06    -508.065E+03    -174.622E-03     344.455E-03    -169.832E-03     180.488E-03    -179.258E-03     348.576E-03    -169.628E-03     165.581E-03
             378     8.35557E-03     83.1945E-03    -52.9775E+06    -41.4052E+06     9.15694E+06    -209.615E+03    -174.943E-03     344.715E-03    -169.772E-03     197.435E-03    -181.018E-03     350.429E-03    -169.589E-03     180.195E-03
             379     9.11580E-03     83.4445E-03    -45.6608E+06     13.0469E+06     21.5798E+06     1.25994E+06    -175.127E-03     344.828E-03    -169.701E-03     215.660E-03    -183.034E-03     352.557E-03    -169.546E-03     195.898E-03
             380     9.87596E-03     83.7164E-03    -37.7524E+06     50.9566E+06     39.4680E+06     3.47575E+06    -175.445E-03     345.123E-03    -169.679E-03     236.187E-03    -185.686E-03     355.297E-03    -169.500E-03     213.689E-03
             381     10.6352E-03     84.0145E-03    -31.8399E+06     62.1970E+06     58.6923E+06     4.04745E+06    -175.468E-03     345.169E-03    -169.701E-03     256.601E-03    -188.400E-03     358.039E-03    -169.452E-03     231.496E-03
             382     11.3971E-03     84.3352E-03    -27.3055E+06     70.7310E+06     74.6428E+06     2.39348E+06    -174.696E-03     344.397E-03    -169.701E-03     270.024E-03    -190.098E-03     359.737E-03    -169.391E-03     243.206E-03
             383     12.1579E-03     84.6641E-03    -21.1964E+06     80.5728E+06     86.2131E+06     293.390E+03    -173.310E-03     342.986E-03    -169.676E-03     268.892E-03    -190.035E-03     359.672E-03    -169.331E-03     241.920E-03
             384     12.9157E-03     84.9802E-03    -13.8296E+06     89.7534E+06     90.6664E+06    -106.842E+03    -171.086E-03     340.724E-03    -169.638E-03     244.501E-03    -186.710E-03     356.354E-03    -169.294E-03     219.642E-03
             385     13.6804E-03     85.2495E-03    -7.84453E+06      95.625E+06     91.0822E+06     238.629E+03    -168.971E-03     338.583E-03    -169.612E-03     214.497E-03    -182.837E-03     352.497E-03    -169.284E-03     191.991E-03
             386     14.4344E-03     85.4956E-03    -3.96601E+06     92.7275E+06     87.3768E+06    -250.980E+03    -167.754E-03     337.342E-03    -169.588E-03     154.422E-03    -176.668E-03     346.318E-03    -169.280E-03     137.344E-03
             387     759.389E-06     83.1728E-03    -108.777E+06    -284.048E+06    -106.989E+06    -524.368E+03    -170.018E-03     339.930E-03    -169.912E-03     20.7543E-03    -170.036E-03     338.864E-03    -169.877E-03     19.5521E-03
             388     1.51875E-03     83.2095E-03    -105.930E+06    -278.811E+06    -99.0048E+06    -217.777E+03    -170.256E-03     340.195E-03    -169.938E-03     38.2001E-03    -170.368E-03     339.227E-03    -169.876E-03     35.9679E-03
             389     2.27804E-03     83.2680E-03    -101.699E+06    -264.065E+06    -86.5605E+06     76.6694E+03    -170.537E-03     340.496E-03    -169.959E-03     56.3177E-03    -170.820E-03     339.732E-03    -169.861E-03     52.9497E-03
             390     3.03764E-03     83.3493E-03    -96.4230E+06    -245.536E+06    -72.2903E+06    -139.076E+03    -170.969E-03     340.935E-03    -169.966E-03     74.6183E-03    -171.501E-03     340.463E-03    -169.831E-03     70.0201E-03
             391     3.79731E-03     83.4529E-03    -89.9325E+06    -226.414E+06    -57.7161E+06    -400.553E+03    -171.566E-03     341.538E-03    -169.972E-03     92.8324E-03    -172.429E-03     341.445E-03    -169.802E-03     86.8950E-03
             392     4.55663E-03     83.5789E-03    -83.8228E+06    -210.189E+06    -44.9763E+06    -457.046E+03    -172.226E-03     342.202E-03    -169.976E-03     110.836E-03    -173.520E-03     342.583E-03    -169.775E-03     103.425E-03
             393     5.31636E-03     83.7265E-03    -77.6920E+06    -188.574E+06    -33.4090E+06    -637.031E+03    -172.858E-03     342.820E-03    -169.963E-03     128.699E-03    -174.714E-03     343.828E-03    -169.744E-03     119.677E-03
             394     6.07636E-03     83.8955E-03    -71.0944E+06    -157.104E+06    -22.8137E+06    -745.315E+03    -173.484E-03     343.406E-03    -169.922E-03     146.277E-03    -176.067E-03     345.245E-03    -169.705E-03     135.472E-03
             395     6.83589E-03     84.0851E-03    -65.6821E+06    -125.908E+06    -13.0687E+06    -714.427E+03    -174.117E-03     343.995E-03    -169.878E-03     163.541E-03    -177.613E-03     346.849E-03    -169.665E-03     150.774E-03
             396     7.59582E-03     84.2953E-03    -60.5109E+06    -88.6371E+06    -3.25770E+06    -458.129E+03    -174.595E-03     344.420E-03    -169.826E-03     180.537E-03    -179.235E-03     348.540E-03    -169.626E-03     165.640E-03
             397     8.35575E-03     84.5252E-03    -54.8775E+06    -40.8891E+06     8.71650E+06    -816.350E+03    -174.862E-03     344.626E-03    -169.764E-03     197.555E-03    -180.945E-03     350.345E-03    -169.582E-03     180.320E-03
             398     9.11566E-03     84.7742E-03    -49.9559E+06     10.8844E+06     20.2110E+06    -1.85319E+06    -175.081E-03     344.772E-03    -169.691E-03     215.889E-03    -183.006E-03     352.500E-03    -169.533E-03     196.096E-03
             399     9.87577E-03     85.0470E-03    -44.2507E+06     44.5926E+06     33.2852E+06    -667.959E+03    -175.282E-03     344.928E-03    -169.646E-03     236.467E-03    -185.543E-03     355.094E-03    -169.480E-03     213.931E-03
             400     10.6369E-03     85.3449E-03    -36.6506E+06     60.3383E+06     51.2628E+06     1.87182E+06    -175.269E-03     344.912E-03    -169.643E-03     256.348E-03    -188.194E-03     357.772E-03    -169.421E-03     231.252E-03
             401     11.3965E-03     85.6638E-03    -28.2728E+06     74.0246E+06     71.6209E+06     2.05251E+06    -174.744E-03     344.398E-03    -169.654E-03     269.254E-03    -190.148E-03     359.757E-03    -169.363E-03     242.378E-03
             402     12.1568E-03     85.9939E-03    -21.1343E+06     83.5047E+06     85.9948E+06     176.139E+03    -173.408E-03     343.066E-03    -169.658E-03     267.921E-03    -190.115E-03     359.746E-03    -169.319E-03     240.890E-03
             403     12.9195E-03     86.3118E-03    -15.3431E+06     88.8916E+06     89.3171E+06    -611.059E+03    -171.512E-03     341.157E-03    -169.645E-03     244.157E-03    -187.131E-03     356.777E-03    -169.305E-03     219.233E-03
             404     13.6729E-03     86.5812E-03    -9.73379E+06     93.9045E+06     88.8956E+06    -106.494E+03    -168.891E-03     338.517E-03    -169.626E-03     215.364E-03    -182.813E-03     352.480E-03    -169.304E-03     192.819E-03
             405     14.4382E-03     86.8255E-03    -4.06771E+06     93.0118E+06     87.2154E+06     466.820E+03    -167.110E-03     336.693E-03    -169.583E-03     155.862E-03    -176.071E-03     345.717E-03    -169.276E-03     138.838E-03
             406     759.361E-06     84.5037E-03    -108.939E+06    -283.837E+06    -106.605E+06     211.192E+03    -169.940E-03     340.005E-03    -170.065E-03     20.8151E-03    -169.960E-03     338.940E-03    -170.029E-03     19.6243E-03
             407     1.51870E-03     84.5400E-03    -106.400E+06    -278.788E+06    -98.6740E+06    -39.4504E+03    -170.187E-03     340.143E-03    -169.957E-03     38.2587E-03    -170.300E-03     339.176E-03    -169.891E-03     36.0375E-03
             408     2.27828E-03     84.5986E-03    -101.837E+06    -263.954E+06    -87.1292E+06    -124.200E+03    -170.488E-03     340.432E-03    -169.943E-03     56.5213E-03    -170.771E-03     339.669E-03    -169.849E-03     53.1621E-03
             409     3.03773E-03     84.6797E-03    -96.0852E+06    -245.098E+06    -72.5891E+06    -202.071E+03    -170.993E-03     340.940E-03    -169.946E-03     74.8431E-03    -171.524E-03     340.470E-03    -169.815E-03     70.2482E-03
             410     3.79719E-03     84.7835E-03    -90.6272E+06    -226.526E+06    -58.3834E+06     5.74884E+03    -171.578E-03     341.536E-03    -169.958E-03     92.9906E-03    -172.444E-03     341.446E-03    -169.790E-03     87.0579E-03
             411     4.55693E-03     84.9095E-03    -84.3363E+06    -209.562E+06    -45.2816E+06    -81.4332E+03    -172.200E-03     342.163E-03    -169.963E-03     110.936E-03    -173.497E-03     342.548E-03    -169.763E-03     103.540E-03
             412     5.31654E-03     85.0568E-03     -77.878E+06    -187.903E+06    -33.5781E+06    -319.504E+03    -172.829E-03     342.776E-03    -169.947E-03     128.688E-03    -174.687E-03     343.788E-03    -169.730E-03     119.671E-03
             413     6.07611E-03     85.2258E-03    -72.5720E+06    -157.096E+06    -23.6101E+06    -408.717E+03    -173.460E-03     343.365E-03    -169.905E-03     146.300E-03    -176.048E-03     345.206E-03    -169.690E-03     135.505E-03
             414     6.83608E-03     85.4156E-03    -66.7973E+06    -125.536E+06    -13.4463E+06    -319.859E+03    -174.108E-03     343.969E-03    -169.861E-03     163.747E-03    -177.611E-03     346.828E-03    -169.649E-03     150.994E-03
             415     7.59575E-03     85.6257E-03    -60.9553E+06    -88.9196E+06    -3.33011E+06    -416.558E+03    -174.574E-03     344.383E-03    -169.809E-03     180.716E-03    -179.222E-03     348.508E-03    -169.608E-03     165.810E-03
             416     8.35594E-03     85.8550E-03    -55.5075E+06    -40.0817E+06     8.62296E+06    -211.010E+03    -174.826E-03     344.571E-03    -169.745E-03     197.587E-03    -180.914E-03     350.294E-03    -169.563E-03     180.365E-03
             417     9.11618E-03     86.1050E-03    -50.2861E+06     13.1491E+06     20.6244E+06     156.865E+03    -175.044E-03     344.714E-03    -169.670E-03     215.823E-03    -182.974E-03     352.453E-03    -169.513E-03     196.063E-03
             418     9.87641E-03     86.3768E-03    -45.3370E+06     43.8581E+06     33.6513E+06    -1.42569E+06    -175.244E-03     344.876E-03    -169.632E-03     236.066E-03    -185.505E-03     355.033E-03    -169.461E-03     213.518E-03
             419     10.6362E-03     86.6742E-03    -38.1536E+06     56.6175E+06     52.5228E+06    -2.82571E+06    -175.296E-03     344.940E-03    -169.644E-03     255.864E-03    -188.211E-03     357.769E-03    -169.408E-03     230.702E-03
             420     11.3970E-03     86.9946E-03    -29.3494E+06     71.2998E+06     72.9008E+06    -1.46262E+06    -174.984E-03     344.650E-03    -169.665E-03     269.528E-03    -190.410E-03     360.013E-03    -169.362E-03     242.564E-03
             421     12.1570E-03     87.3241E-03    -21.8139E+06     84.4134E+06     86.0354E+06     829.276E+03    -173.743E-03     343.416E-03    -169.673E-03     268.656E-03    -190.517E-03     360.163E-03    -169.333E-03     241.537E-03
             422     12.9142E-03     87.6406E-03    -16.3411E+06     90.7010E+06     88.5075E+06     711.413E+03    -171.021E-03     340.663E-03    -169.642E-03     245.444E-03    -186.669E-03     356.319E-03    -169.308E-03     220.615E-03
             423     13.6804E-03     87.9152E-03    -11.0889E+06     92.9939E+06     87.3929E+06    -460.408E+03    -168.272E-03     337.859E-03    -169.587E-03     215.704E-03    -182.166E-03     351.790E-03    -169.269E-03     193.299E-03
             424     14.4375E-03     88.1505E-03    -4.86142E+06     92.2426E+06     86.7387E+06    -361.084E+03    -167.462E-03     337.003E-03    -169.542E-03     154.827E-03    -176.402E-03     346.002E-03    -169.235E-03     137.756E-03
             425     759.282E-06     85.8345E-03    -109.437E+06    -284.396E+06    -107.332E+06     163.683E+03    -169.879E-03     339.935E-03    -170.056E-03     20.8426E-03    -169.899E-03     338.869E-03    -170.021E-03     19.6454E-03
             426     1.51882E-03     85.8703E-03    -106.127E+06    -278.447E+06    -98.2947E+06     407.856E+03    -170.100E-03     340.014E-03    -169.913E-03     38.2091E-03    -170.214E-03     339.047E-03    -169.847E-03     35.9957E-03
             427     2.27836E-03     85.9288E-03    -101.954E+06    -263.546E+06    -86.9445E+06     108.284E+03    -170.473E-03     340.368E-03    -169.895E-03     56.5192E-03    -170.757E-03     339.606E-03    -169.800E-03     53.1640E-03
             428     3.03796E-03     86.0103E-03    -96.7520E+06    -245.390E+06    -72.9673E+06     44.4080E+03    -170.994E-03     340.901E-03    -169.908E-03     74.8528E-03    -171.526E-03     340.431E-03    -169.776E-03     70.2662E-03
             429     3.79743E-03     86.1141E-03    -90.4798E+06    -226.554E+06    -58.3560E+06     107.429E+03    -171.568E-03     341.494E-03    -169.926E-03     92.9984E-03    -172.432E-03     341.402E-03    -169.758E-03     87.0745E-03
             430     4.55694E-03     86.2397E-03    -84.3433E+06    -209.369E+06    -45.4133E+06     298.677E+03    -172.172E-03     342.105E-03    -169.933E-03     110.910E-03    -173.468E-03     342.490E-03    -169.734E-03     103.523E-03
             431     5.31657E-03     86.3875E-03    -78.5598E+06    -188.021E+06    -33.5600E+06     515.693E+03    -172.800E-03     342.719E-03    -169.919E-03     128.731E-03    -174.662E-03     343.732E-03    -169.700E-03     119.727E-03
             432     6.07649E-03     86.5559E-03    -72.2017E+06    -156.202E+06    -22.7279E+06     356.012E+03    -173.460E-03     343.339E-03    -169.879E-03     146.440E-03    -176.050E-03     345.184E-03    -169.661E-03     135.655E-03
             433     6.83629E-03     86.7459E-03    -66.5537E+06    -125.888E+06    -13.1820E+06     115.366E+03    -174.077E-03     343.912E-03    -169.835E-03     163.746E-03    -177.580E-03     346.770E-03    -169.622E-03     150.996E-03
             434     7.59642E-03     86.9560E-03    -61.1210E+06    -88.5727E+06    -3.21087E+06    -39.2511E+03    -174.585E-03     344.369E-03    -169.784E-03     180.599E-03    -179.234E-03     348.496E-03    -169.583E-03     165.695E-03
             435     8.35603E-03     87.1855E-03    -55.3803E+06    -40.6742E+06     8.40561E+06      96.218E+03    -174.886E-03     344.612E-03    -169.726E-03     197.409E-03    -180.973E-03     350.334E-03    -169.545E-03     180.178E-03
             436     9.11602E-03     87.4346E-03    -48.6969E+06     13.3693E+06     20.5631E+06     109.579E+03    -175.015E-03     344.668E-03    -169.654E-03     215.647E-03    -182.934E-03     352.403E-03    -169.500E-03     195.886E-03
             437     9.87612E-03     87.7073E-03    -40.8261E+06     48.2132E+06     38.2266E+06    -888.958E+03    -175.264E-03     344.893E-03    -169.628E-03     236.147E-03    -185.513E-03     355.057E-03    -169.448E-03     213.615E-03
             438     10.6365E-03     88.0044E-03    -34.5197E+06     58.0252E+06      58.757E+06    -1.73291E+06    -175.439E-03     345.099E-03    -169.659E-03     256.090E-03    -188.370E-03     357.942E-03    -169.400E-03     230.910E-03
             439     11.3967E-03     88.3237E-03    -29.5800E+06     67.8738E+06     74.6984E+06    -1.36994E+06    -174.995E-03     344.669E-03    -169.674E-03     269.785E-03    -190.405E-03     359.999E-03    -169.356E-03     242.855E-03
             440     12.1569E-03     88.6556E-03    -23.1222E+06     81.1533E+06     85.2449E+06    -529.385E+03    -173.401E-03     343.055E-03    -169.654E-03     269.371E-03    -190.166E-03     359.778E-03    -169.312E-03     242.340E-03
             441     12.9194E-03     88.9729E-03    -15.3272E+06     91.5511E+06     89.3913E+06     379.111E+03    -170.839E-03     340.443E-03    -169.604E-03     245.362E-03    -186.481E-03     356.097E-03    -169.267E-03     220.562E-03
             442     13.6762E-03     89.2393E-03    -8.72729E+06     94.6574E+06     89.6762E+06     457.117E+03    -168.624E-03     338.185E-03    -169.561E-03     215.255E-03    -182.529E-03     352.134E-03    -169.237E-03     192.770E-03
             443     14.4378E-03     89.4881E-03    -4.56014E+06     92.2798E+06     87.4141E+06    -144.064E+03    -168.170E-03     337.715E-03    -169.546E-03     154.436E-03    -177.134E-03     346.737E-03    -169.236E-03     137.283E-03
             444     759.423E-06     87.1647E-03    -109.556E+06    -284.578E+06    -107.249E+06     137.731E+03    -170.007E-03     339.755E-03    -169.749E-03     20.7879E-03    -170.027E-03     338.688E-03    -169.713E-03     19.5929E-03
             445     1.51898E-03     87.2006E-03    -106.193E+06    -278.758E+06    -98.6068E+06     104.595E+03    -170.166E-03     340.021E-03    -169.854E-03     38.1435E-03    -170.279E-03     339.053E-03    -169.789E-03     35.9223E-03
             446     2.27844E-03     87.2593E-03    -101.685E+06    -263.702E+06    -86.5378E+06     442.523E+03    -170.510E-03     340.389E-03    -169.880E-03     56.4156E-03    -170.793E-03     339.626E-03    -169.782E-03     53.0632E-03
             447     3.03785E-03     87.3407E-03    -96.4807E+06    -245.402E+06    -72.2825E+06     455.387E+03    -170.930E-03     340.828E-03    -169.897E-03     74.7274E-03    -171.462E-03     340.355E-03    -169.763E-03     70.1477E-03
             448     3.79754E-03     87.4444E-03    -90.5640E+06    -226.888E+06    -57.9293E+06     553.468E+03    -171.463E-03     341.365E-03    -169.903E-03     92.9179E-03    -172.326E-03     341.270E-03    -169.732E-03     87.0074E-03
             449     4.55714E-03     87.5704E-03    -84.2739E+06    -209.987E+06    -44.8670E+06     859.111E+03    -172.094E-03     341.993E-03    -169.899E-03     110.922E-03    -173.391E-03     342.375E-03    -169.697E-03     103.542E-03
             450     5.31697E-03     87.7173E-03    -77.4389E+06    -187.832E+06    -32.7067E+06     625.941E+03    -172.799E-03     342.682E-03    -169.883E-03     128.719E-03    -174.656E-03     343.693E-03    -169.662E-03     119.717E-03
             451     6.07668E-03     87.8865E-03    -71.2899E+06    -156.649E+06    -22.4864E+06     756.323E+03    -173.519E-03     343.369E-03    -169.850E-03     146.315E-03    -176.104E-03     345.209E-03    -169.632E-03     135.532E-03
             452     6.83639E-03     88.0761E-03    -65.3604E+06    -125.362E+06    -12.1900E+06     838.390E+03    -174.119E-03     343.936E-03    -169.818E-03     163.551E-03    -177.619E-03     346.795E-03    -169.602E-03     150.799E-03
             453     7.59603E-03     88.2861E-03    -59.2507E+06    -87.9023E+06    -1.83772E+06     506.190E+03    -174.530E-03     344.300E-03    -169.770E-03     180.554E-03    -179.168E-03     348.421E-03    -169.566E-03     165.675E-03
             454     8.35621E-03     88.5160E-03    -52.6961E+06    -40.1241E+06     10.3169E+06    -101.063E+03    -174.819E-03     344.527E-03    -169.708E-03     197.625E-03    -180.896E-03     350.244E-03    -169.521E-03     180.413E-03
             455     9.11619E-03     88.7649E-03    -45.7678E+06     14.9942E+06     23.9324E+06    -1.34089E+06    -175.046E-03     344.683E-03    -169.637E-03     215.979E-03    -182.966E-03     352.425E-03    -169.473E-03     196.194E-03
             456     9.87670E-03     89.0370E-03    -39.8647E+06     48.0127E+06     39.7749E+06    -1.25934E+06    -175.277E-03     344.886E-03    -169.609E-03     236.322E-03    -185.519E-03     355.042E-03    -169.422E-03     213.798E-03
             457     10.6371E-03     89.3348E-03    -34.2311E+06     57.4537E+06     57.6186E+06     557.894E+03    -175.543E-03     345.175E-03    -169.632E-03     256.229E-03    -188.477E-03     358.025E-03    -169.378E-03     231.061E-03
             458     11.3967E-03     89.6547E-03    -28.0623E+06     69.0981E+06     74.2127E+06     1.12682E+06    -175.056E-03     344.709E-03    -169.653E-03     269.678E-03    -190.479E-03     360.063E-03    -169.341E-03     242.742E-03
             459     12.1576E-03     89.9841E-03    -21.7949E+06     82.4511E+06     86.3156E+06    -328.680E+03    -173.321E-03     342.967E-03    -169.646E-03     268.404E-03    -190.046E-03     359.657E-03    -169.302E-03     241.395E-03
             460     12.9172E-03     90.3012E-03    -15.6250E+06     91.3289E+06     90.0714E+06    -901.078E+03    -171.060E-03     340.671E-03    -169.612E-03     243.992E-03    -186.652E-03     356.271E-03    -169.271E-03     219.164E-03
             461     13.6790E-03     90.5748E-03    -10.0896E+06     93.4822E+06     89.0661E+06    -36.9148E+03    -168.857E-03     338.441E-03    -169.585E-03     214.515E-03    -182.739E-03     352.362E-03    -169.260E-03     191.988E-03
             462     14.4381E-03     90.8135E-03    -5.23130E+06     91.6958E+06     86.7089E+06     201.929E+03    -168.065E-03     337.636E-03    -169.571E-03     154.756E-03    -177.022E-03     346.649E-03    -169.263E-03     137.610E-03
             463     759.695E-06     88.4950E-03    -109.231E+06    -284.687E+06    -107.488E+06     52.5917E+03    -170.116E-03     339.715E-03    -169.599E-03     20.5879E-03    -170.134E-03     338.647E-03    -169.566E-03     19.4006E-03
             464     1.51888E-03     88.5311E-03    -106.453E+06    -279.005E+06    -98.6606E+06     67.6727E+03    -170.193E-03     340.038E-03    -169.845E-03     38.0889E-03    -170.307E-03     339.069E-03    -169.779E-03     35.8624E-03
             465     2.27827E-03     88.5897E-03    -101.882E+06    -264.459E+06    -86.7645E+06     200.925E+03    -170.485E-03     340.361E-03    -169.876E-03     56.4589E-03    -170.768E-03     339.594E-03    -169.778E-03     53.1035E-03
             466     3.03793E-03     88.6710E-03    -96.1753E+06    -246.132E+06    -72.1008E+06     779.780E+03    -170.876E-03     340.761E-03    -169.885E-03     74.7932E-03    -171.405E-03     340.284E-03    -169.749E-03     70.2222E-03
             467     3.79749E-03     88.7747E-03    -90.1080E+06    -227.443E+06    -57.1083E+06     1.09109E+06    -171.382E-03     341.263E-03    -169.882E-03     92.9289E-03    -172.244E-03     341.164E-03    -169.707E-03     87.0246E-03
             468     4.55744E-03     88.9003E-03    -83.4552E+06    -209.951E+06    -44.1905E+06     826.245E+03    -172.057E-03     341.927E-03    -169.870E-03     110.832E-03    -173.349E-03     342.305E-03    -169.665E-03     103.457E-03
             469     5.31704E-03     89.0479E-03    -77.1240E+06    -187.795E+06    -32.7085E+06     733.547E+03    -172.825E-03     342.680E-03    -169.855E-03     128.634E-03    -174.679E-03     343.689E-03    -169.635E-03     119.637E-03
             470     6.07665E-03     89.2167E-03    -70.5753E+06    -156.783E+06    -21.7095E+06     453.132E+03    -173.488E-03     343.316E-03    -169.828E-03     146.374E-03    -176.069E-03     345.153E-03    -169.607E-03     135.595E-03
             471     6.83647E-03     89.4065E-03    -63.5581E+06    -125.444E+06    -11.0428E+06     320.686E+03    -174.067E-03     343.859E-03    -169.792E-03     163.819E-03    -177.559E-03     346.712E-03    -169.573E-03     151.076E-03
             472     7.59651E-03     89.6164E-03    -57.0793E+06    -87.2368E+06    -58.7119E+03     645.771E+03    -174.525E-03     344.268E-03    -169.742E-03     180.768E-03    -179.158E-03     348.388E-03    -169.533E-03     165.895E-03
             473     8.35663E-03     89.8456E-03    -51.5759E+06    -37.7419E+06     12.4790E+06    -418.923E+03    -174.789E-03     344.470E-03    -169.681E-03     197.599E-03    -180.865E-03     350.193E-03    -169.489E-03     180.383E-03
             474     9.11704E-03     90.0955E-03    -46.7436E+06     15.5315E+06     24.6218E+06    -1.09122E+06    -175.006E-03     344.617E-03    -169.611E-03     215.649E-03    -182.925E-03     352.354E-03    -169.443E-03     195.873E-03
             475     9.87678E-03     90.3671E-03    -41.6552E+06     46.1218E+06     38.6705E+06    -392.194E+03    -175.404E-03     344.991E-03    -169.588E-03     236.040E-03    -185.646E-03     355.137E-03    -169.401E-03     213.510E-03
             476     10.6367E-03     90.6647E-03    -35.6921E+06     55.2244E+06     55.9758E+06     215.059E+03    -175.601E-03     345.219E-03    -169.618E-03     256.020E-03    -188.523E-03     358.048E-03    -169.367E-03     230.851E-03
             477     11.3975E-03     90.9853E-03    -28.4402E+06     69.8785E+06     74.0985E+06     555.938E+03    -175.181E-03     344.833E-03    -169.652E-03     269.106E-03    -190.605E-03     360.189E-03    -169.341E-03     242.127E-03
             478     12.1569E-03     91.3141E-03    -21.1798E+06     84.9571E+06     87.1152E+06     616.289E+03    -173.970E-03     343.646E-03    -169.676E-03     268.044E-03    -190.732E-03     360.381E-03    -169.333E-03     240.887E-03
             479     12.9167E-03     91.6330E-03    -15.0858E+06     91.1081E+06     90.0693E+06     547.059E+03    -171.398E-03     341.072E-03    -169.674E-03     243.791E-03    -187.020E-03     356.703E-03    -169.334E-03     218.874E-03
             480     13.6758E-03     91.9012E-03    -9.88027E+06     92.9828E+06     88.7114E+06     28.9682E+03    -168.658E-03     338.306E-03    -169.648E-03     214.061E-03    -182.468E-03     352.154E-03    -169.325E-03     191.634E-03
             481     14.4355E-03     92.1484E-03    -4.81659E+06     91.7915E+06     86.8758E+06    -206.928E+03    -167.508E-03     337.119E-03    -169.611E-03     154.696E-03    -176.388E-03     346.056E-03    -169.303E-03     137.691E-03
             482     759.182E-06     89.8254E-03    -109.953E+06    -285.010E+06    -107.565E+06     65.6437E+03    -169.963E-03     339.776E-03    -169.812E-03     20.5929E-03    -169.985E-03     338.707E-03    -169.777E-03     19.4046E-03
             483     1.51893E-03     89.8614E-03    -106.712E+06    -279.160E+06    -98.7525E+06     193.643E+03    -170.069E-03     339.914E-03    -169.845E-03     38.1965E-03    -170.184E-03     338.946E-03    -169.779E-03     35.9725E-03
             484     2.27853E-03     89.9201E-03    -102.244E+06    -264.641E+06    -86.8393E+06     244.159E+03    -170.398E-03     340.235E-03    -169.837E-03     56.5513E-03    -170.683E-03     339.469E-03    -169.739E-03     53.1932E-03
             485     3.03805E-03     90.0012E-03    -96.6846E+06    -247.363E+06    -72.5445E+06     273.757E+03    -170.843E-03     340.683E-03    -169.839E-03     74.8529E-03    -171.373E-03     340.201E-03    -169.703E-03     70.2780E-03
             486     3.79785E-03     90.1049E-03    -89.4077E+06    -228.400E+06    -57.3383E+06     522.983E+03    -171.429E-03     341.273E-03    -169.844E-03     92.9527E-03    -172.286E-03     341.168E-03    -169.670E-03     87.0467E-03
             487     4.55730E-03     90.2305E-03    -82.9512E+06    -209.848E+06    -44.1465E+06     877.860E+03    -172.092E-03     341.936E-03    -169.844E-03     110.897E-03    -173.381E-03     342.314E-03    -169.640E-03     103.526E-03
             488     5.31708E-03     90.3781E-03    -76.4535E+06    -187.138E+06    -31.8566E+06     429.667E+03    -172.747E-03     342.579E-03    -169.832E-03     128.774E-03    -174.600E-03     343.589E-03    -169.609E-03     119.781E-03
             489     6.07700E-03     90.5469E-03    -69.7684E+06    -156.365E+06    -20.8004E+06     128.603E+03    -173.405E-03     343.202E-03    -169.797E-03     146.426E-03    -175.983E-03     345.038E-03    -169.574E-03     135.648E-03
             490     6.83704E-03     90.7366E-03    -64.2674E+06    -125.547E+06    -10.8112E+06     182.789E+03    -174.029E-03     343.788E-03    -169.758E-03     163.643E-03    -177.521E-03     346.637E-03    -169.537E-03     150.906E-03
             491     7.59697E-03     90.9465E-03    -58.7988E+06    -87.3186E+06    -472.102E+03    -268.699E+03    -174.548E-03     344.261E-03    -169.713E-03     180.444E-03    -179.185E-03     348.381E-03    -169.503E-03     165.555E-03
             492     8.35666E-03     91.1761E-03    -53.3784E+06    -36.7852E+06     11.9106E+06     275.323E+03    -174.870E-03     344.531E-03    -169.661E-03     197.318E-03    -180.953E-03     350.259E-03    -169.470E-03     180.103E-03
             493     9.11635E-03     91.4250E-03    -48.3178E+06     16.0849E+06     23.5231E+06     456.531E+03    -175.096E-03     344.696E-03    -169.600E-03     215.461E-03    -183.024E-03     352.442E-03    -169.436E-03     195.682E-03
             494     9.87705E-03     91.6973E-03    -42.8436E+06     45.5161E+06     37.2051E+06     176.763E+03    -175.516E-03     345.103E-03    -169.587E-03     235.857E-03    -185.763E-03     355.251E-03    -169.405E-03     213.306E-03
             495     10.6370E-03     91.9957E-03    -36.6242E+06     55.1667E+06     55.6720E+06    -111.237E+03    -175.744E-03     345.378E-03    -169.635E-03     255.559E-03    -188.663E-03     358.202E-03    -169.383E-03     230.365E-03
             496     11.3965E-03     92.3144E-03    -29.7786E+06     69.0789E+06     73.9272E+06    -1.13867E+06    -175.399E-03     345.083E-03    -169.684E-03     269.072E-03    -190.832E-03     360.442E-03    -169.372E-03     242.032E-03
             497     12.1564E-03     92.6465E-03    -22.6815E+06     83.3489E+06     85.7462E+06    -451.796E+03    -174.072E-03     343.783E-03    -169.711E-03     268.421E-03    -190.853E-03     360.531E-03    -169.370E-03     241.228E-03
             498     12.9158E-03     92.9627E-03    -15.4307E+06     90.7850E+06     89.1388E+06     561.776E+03    -171.469E-03     341.177E-03    -169.708E-03     244.469E-03    -187.146E-03     356.864E-03    -169.372E-03     219.489E-03
             499     13.6757E-03     93.2344E-03    -9.33811E+06     94.1834E+06     88.9280E+06     400.771E+03    -168.737E-03     338.422E-03    -169.685E-03     215.073E-03    -182.654E-03     352.382E-03    -169.364E-03     192.538E-03
             500     14.4377E-03     93.4745E-03    -4.39025E+06     92.5267E+06     86.8328E+06     45.6542E+03    -167.216E-03     336.856E-03    -169.640E-03     154.695E-03    -176.154E-03     345.856E-03    -169.334E-03     137.667E-03
             501     759.592E-06     91.1556E-03    -109.963E+06    -285.080E+06    -107.847E+06    -105.503E+03    -169.792E-03     339.604E-03    -169.812E-03     20.8096E-03    -169.813E-03     338.536E-03    -169.779E-03     19.6159E-03
             502     1.51900E-03     91.1915E-03    -106.753E+06    -279.273E+06    -99.0576E+06     9.63251E+03    -170.049E-03     339.819E-03    -169.770E-03     38.2750E-03    -170.164E-03     338.850E-03    -169.705E-03     36.0543E-03
             503     2.27859E-03     91.2501E-03    -102.275E+06    -264.907E+06    -87.3448E+06     89.8647E+03    -170.385E-03     340.165E-03    -169.781E-03     56.4911E-03    -170.668E-03     339.399E-03    -169.685E-03     53.1328E-03
             504     3.03833E-03     91.3313E-03    -96.7189E+06    -247.238E+06    -72.9058E+06     15.7971E+03    -170.851E-03     340.648E-03    -169.797E-03     74.6955E-03    -171.379E-03     340.167E-03    -169.663E-03     70.1129E-03
             505     3.79781E-03     91.4350E-03    -90.7935E+06    -229.559E+06    -58.3228E+06     205.171E+03    -171.399E-03     341.210E-03    -169.811E-03     92.8913E-03    -172.258E-03     341.101E-03    -169.638E-03     86.9873E-03
             506     4.55763E-03     91.5608E-03    -83.9363E+06    -209.803E+06    -44.8826E+06    -43.5350E+03    -172.047E-03     341.856E-03    -169.809E-03     110.962E-03    -173.341E-03     342.238E-03    -169.608E-03     103.578E-03
             507     5.31739E-03     91.7080E-03    -77.2267E+06    -186.566E+06    -32.2594E+06    -22.3680E+03    -172.754E-03     342.554E-03    -169.800E-03     128.706E-03    -174.611E-03     343.569E-03    -169.579E-03     119.704E-03
             508     6.07723E-03     91.8770E-03    -71.4962E+06    -157.050E+06    -21.3124E+06     477.549E+03    -173.454E-03     343.232E-03    -169.778E-03     146.165E-03    -176.038E-03     345.067E-03    -169.553E-03     135.388E-03
             509     6.83683E-03     92.0667E-03    -65.6779E+06    -125.104E+06    -10.9638E+06     591.322E+03    -174.086E-03     343.837E-03    -169.751E-03     163.347E-03    -177.583E-03     346.688E-03    -169.529E-03     150.608E-03
             510     7.59659E-03     92.2766E-03    -60.6467E+06    -86.7312E+06    -1.21974E+06     561.838E+03    -174.540E-03     344.249E-03    -169.709E-03     180.276E-03    -179.184E-03     348.374E-03    -169.502E-03     165.396E-03
             511     8.35679E-03     92.5061E-03    -55.1339E+06    -37.8335E+06     10.2489E+06     116.635E+03    -174.892E-03     344.550E-03    -169.658E-03     197.207E-03    -180.978E-03     350.275E-03    -169.471E-03     179.985E-03
             512     9.11715E-03     92.7556E-03    -48.3389E+06     15.3959E+06     22.5495E+06     362.118E+03    -175.292E-03     344.899E-03    -169.608E-03     215.340E-03    -183.223E-03     352.648E-03    -169.447E-03     195.528E-03
             513     9.87629E-03     93.0277E-03    -42.1152E+06     46.5589E+06     37.4195E+06     910.909E+03    -175.666E-03     345.277E-03    -169.611E-03     235.658E-03    -185.910E-03     355.428E-03    -169.430E-03     213.098E-03
             514     10.6362E-03     93.3256E-03    -35.7652E+06     57.4992E+06     56.5445E+06     47.6775E+03    -175.841E-03     345.509E-03    -169.668E-03     255.609E-03    -188.769E-03     358.350E-03    -169.417E-03     230.393E-03
             515     11.3963E-03     93.6460E-03    -29.2965E+06     69.3536E+06     73.8840E+06    -818.579E+03    -175.391E-03     345.107E-03    -169.716E-03     269.418E-03    -190.845E-03     360.490E-03    -169.405E-03     242.359E-03
             516     12.1561E-03     93.9764E-03    -22.7638E+06     81.6526E+06     85.2969E+06    -657.525E+03    -173.834E-03     343.565E-03    -169.731E-03     269.016E-03    -190.614E-03     360.306E-03    -169.390E-03     241.882E-03
             517     12.9162E-03     94.2949E-03    -16.5514E+06     90.0164E+06     88.1516E+06    -376.236E+03    -171.255E-03     340.962E-03    -169.706E-03     244.745E-03    -186.936E-03     356.648E-03    -169.372E-03     219.807E-03
             518     13.6768E-03     94.5631E-03    -10.1632E+06     94.5136E+06     87.8113E+06    -216.389E+03    -168.534E-03     338.201E-03    -169.668E-03     215.118E-03    -182.464E-03     352.177E-03    -169.351E-03     192.600E-03
             519     14.4338E-03     94.8081E-03    -4.29098E+06     92.9255E+06     86.5359E+06    -88.5786E+03    -167.288E-03     336.909E-03    -169.621E-03     155.390E-03    -176.231E-03     345.916E-03    -169.317E-03     138.356E-03
             520     759.672E-06     92.4856E-03    -109.450E+06    -284.643E+06    -107.643E+06    -300.973E+03    -169.835E-03     339.442E-03    -169.608E-03     20.6781E-03    -169.854E-03     338.375E-03    -169.574E-03     19.4865E-03
             521     1.51921E-03     92.5216E-03    -106.672E+06    -279.377E+06    -99.4585E+06    -148.878E+03    -170.075E-03     339.783E-03    -169.709E-03     38.1207E-03    -170.187E-03     338.814E-03    -169.646E-03     35.9058E-03
             522     2.27873E-03     92.5801E-03    -102.172E+06    -264.834E+06    -87.3321E+06    -310.087E+03    -170.416E-03     340.169E-03    -169.753E-03     56.4258E-03    -170.698E-03     339.402E-03    -169.658E-03     53.0622E-03
             523     3.03812E-03     92.6616E-03    -96.4131E+06    -247.347E+06    -72.7222E+06    -122.110E+03    -170.851E-03     340.634E-03    -169.783E-03     74.6688E-03    -171.379E-03     340.152E-03    -169.648E-03     70.0817E-03
             524     3.79795E-03     92.7648E-03    -90.1560E+06    -229.605E+06    -57.9091E+06     149.326E+03    -171.397E-03     341.197E-03    -169.800E-03     92.7518E-03    -172.254E-03     341.087E-03    -169.626E-03     86.8374E-03
             525     4.55774E-03     92.8907E-03    -83.7422E+06    -209.672E+06    -44.5071E+06     146.504E+03    -172.071E-03     341.877E-03    -169.805E-03     110.673E-03    -173.364E-03     342.256E-03    -169.602E-03     103.288E-03
             526     5.31743E-03     93.0383E-03    -77.3129E+06    -187.169E+06    -32.3096E+06     344.232E+03    -172.812E-03     342.617E-03    -169.806E-03     128.341E-03    -174.666E-03     343.626E-03    -169.584E-03     119.341E-03
             527     6.07694E-03     93.2072E-03    -70.9367E+06    -157.833E+06    -21.4558E+06     710.691E+03    -173.468E-03     343.257E-03    -169.789E-03     145.972E-03    -176.046E-03     345.085E-03    -169.564E-03     135.196E-03
             528     6.83688E-03     93.3969E-03    -65.2926E+06    -125.955E+06    -11.3586E+06     1.40268E+06    -174.061E-03     343.820E-03    -169.759E-03     163.344E-03    -177.554E-03     346.668E-03    -169.539E-03     150.617E-03
             529     7.59684E-03     93.6068E-03    -59.5820E+06    -86.7725E+06    -886.952E+03     2.04399E+06    -174.630E-03     344.352E-03    -169.721E-03     180.217E-03    -179.271E-03     348.475E-03    -169.513E-03     165.346E-03
             530     8.35660E-03     93.8361E-03    -54.2991E+06    -35.9811E+06     11.0230E+06     1.17040E+06    -175.040E-03     344.721E-03    -169.680E-03     197.003E-03    -181.128E-03     350.456E-03    -169.494E-03     179.767E-03
             531     9.11596E-03     94.0860E-03    -49.4861E+06     15.3940E+06     22.7371E+06    -395.839E+03    -175.358E-03     344.999E-03    -169.641E-03     215.262E-03    -183.281E-03     352.736E-03    -169.478E-03     195.461E-03
             532     9.87633E-03     94.3585E-03    -42.4811E+06     46.1829E+06     37.8602E+06    -723.787E+03    -175.671E-03     345.317E-03    -169.646E-03     235.711E-03    -185.926E-03     355.475E-03    -169.462E-03     213.126E-03
             533     10.6361E-03     94.6563E-03    -34.9121E+06     58.8705E+06     56.7010E+06    -357.544E+03    -175.736E-03     345.427E-03    -169.691E-03     255.939E-03    -188.679E-03     358.290E-03    -169.442E-03     230.708E-03
             534     11.3959E-03     94.9766E-03    -27.5150E+06     69.9851E+06     74.0713E+06    -257.620E+03    -175.315E-03     345.042E-03    -169.727E-03     269.825E-03    -190.758E-03     360.421E-03    -169.418E-03     242.800E-03
             535     12.1561E-03     95.3069E-03    -20.4071E+06     80.5457E+06     85.4717E+06     71.3686E+03    -173.744E-03     343.479E-03    -169.734E-03     268.834E-03    -190.502E-03     360.202E-03    -169.394E-03     241.719E-03
             536     12.9166E-03     95.6249E-03    -13.9326E+06     89.4892E+06     89.2281E+06     931.864E+03    -170.691E-03     340.383E-03    -169.692E-03     244.841E-03    -186.310E-03     356.012E-03    -169.356E-03     220.076E-03
             537     13.6752E-03     95.8953E-03    -9.15648E+06     95.7304E+06     88.7699E+06     842.105E+03    -168.020E-03     337.638E-03    -169.617E-03     215.914E-03    -181.918E-03     351.586E-03    -169.299E-03     193.571E-03
             538     14.4408E-03     96.1344E-03    -4.83339E+06     93.2178E+06     86.0830E+06    -76.7511E+03    -167.776E-03     337.339E-03    -169.563E-03     155.877E-03    -176.723E-03     346.350E-03    -169.261E-03     138.826E-03
             539     759.458E-06     93.8153E-03    -109.223E+06    -284.184E+06    -107.091E+06     75.6505E+03    -169.984E-03     339.542E-03    -169.558E-03     20.6738E-03    -170.003E-03     338.476E-03    -169.523E-03     19.4829E-03
             540     1.51910E-03     93.8517E-03    -106.583E+06    -279.117E+06    -99.0962E+06    -238.678E+03    -170.077E-03     339.827E-03    -169.750E-03     38.0471E-03    -170.190E-03     338.859E-03    -169.687E-03     35.8219E-03
             541     2.27858E-03     93.9102E-03    -102.229E+06    -264.725E+06    -87.1676E+06    -120.740E+03    -170.400E-03     340.180E-03    -169.780E-03     56.2033E-03    -170.683E-03     339.413E-03    -169.684E-03     52.8393E-03
             542     3.03844E-03     93.9915E-03    -96.9398E+06    -247.348E+06    -72.5717E+06    -245.187E+03    -170.833E-03     340.635E-03    -169.802E-03     74.4599E-03    -171.363E-03     340.153E-03    -169.666E-03     69.8717E-03
             543     3.79788E-03     94.0951E-03    -90.5155E+06    -229.887E+06    -57.8633E+06    -347.942E+03    -171.471E-03     341.294E-03    -169.823E-03     92.6084E-03    -172.330E-03     341.183E-03    -169.647E-03     86.6785E-03
             544     4.55735E-03     94.2208E-03    -83.4551E+06    -209.985E+06    -44.5597E+06     18.5312E+03    -172.160E-03     341.998E-03    -169.837E-03     110.606E-03    -173.449E-03     342.374E-03    -169.635E-03     103.219E-03
             545     5.31695E-03     94.3686E-03    -76.6619E+06    -187.620E+06    -32.5794E+06     259.345E+03    -172.786E-03     342.622E-03    -169.837E-03     128.353E-03    -174.635E-03     343.628E-03    -169.616E-03     119.354E-03
             546     6.07692E-03     94.5372E-03    -70.6631E+06    -159.262E+06    -22.2269E+06     866.430E+03    -173.429E-03     343.239E-03    -169.811E-03     145.942E-03    -176.001E-03     345.060E-03    -169.588E-03     135.171E-03
             547     6.83673E-03     94.7269E-03    -64.2092E+06    -127.211E+06    -11.4568E+06     1.42390E+06    -174.106E-03     343.886E-03    -169.780E-03     163.209E-03    -177.592E-03     346.726E-03    -169.560E-03     150.476E-03
             548     7.59653E-03     94.9369E-03    -57.6047E+06    -88.4163E+06    -742.129E+03     1.63317E+06    -174.718E-03     344.466E-03    -169.747E-03     180.185E-03    -179.348E-03     348.579E-03    -169.539E-03     165.292E-03
             549     8.35603E-03     95.1672E-03    -51.0839E+06    -34.9598E+06     12.5995E+06     2.53919E+06    -175.150E-03     344.862E-03    -169.712E-03     197.186E-03    -181.226E-03     350.597E-03    -169.525E-03     179.969E-03
             550     9.11629E-03     95.4162E-03    -44.8694E+06     19.8121E+06     26.8238E+06     2.52201E+06    -175.339E-03     345.016E-03    -169.677E-03     215.429E-03    -183.250E-03     352.760E-03    -169.507E-03     195.682E-03
             551     9.87579E-03     95.6893E-03    -40.5396E+06     47.5892E+06     40.6885E+06     248.535E+03    -175.532E-03     345.203E-03    -169.671E-03     236.061E-03    -185.781E-03     355.359E-03    -169.478E-03     213.521E-03
             552     10.6358E-03     95.9864E-03    -34.9488E+06     58.0226E+06     57.6790E+06    -1.05837E+06    -175.676E-03     345.377E-03    -169.701E-03     256.155E-03    -188.624E-03     358.240E-03    -169.446E-03     230.927E-03
             553     11.3965E-03     96.3068E-03    -28.2949E+06     69.9127E+06     74.0322E+06    -481.466E+03    -175.275E-03     345.002E-03    -169.726E-03     269.998E-03    -190.706E-03     360.365E-03    -169.416E-03     243.010E-03
             554     12.1560E-03     96.6385E-03    -21.8806E+06     80.7895E+06     85.1674E+06    -891.138E+03    -173.404E-03     343.122E-03    -169.718E-03     269.175E-03    -190.155E-03     359.835E-03    -169.377E-03     242.143E-03
             555     12.9156E-03     96.9541E-03    -15.8614E+06     87.1344E+06     87.7554E+06     204.225E+03    -170.372E-03     340.026E-03    -169.654E-03     244.714E-03    -185.982E-03     355.635E-03    -169.319E-03     219.997E-03
             556     13.6810E-03     97.2223E-03    -9.44126E+06     95.1574E+06     88.9146E+06     2.03717E+06    -168.354E-03     337.940E-03    -169.586E-03     214.959E-03    -182.200E-03     351.832E-03    -169.266E-03     192.609E-03
             557     14.4348E-03     97.4691E-03    -3.82265E+06     95.0639E+06     88.0565E+06     492.193E+03    -167.607E-03     337.153E-03    -169.547E-03     154.773E-03    -176.519E-03     346.134E-03    -169.239E-03     137.714E-03
             558     759.583E-06     95.1456E-03    -109.013E+06    -284.184E+06    -107.213E+06    -197.096E+03    -170.121E-03     339.695E-03    -169.573E-03     20.7724E-03    -170.140E-03     338.629E-03    -169.539E-03     19.5733E-03
             559     1.51889E-03     95.1818E-03    -106.438E+06    -278.829E+06    -98.6703E+06    -47.9711E+03    -170.126E-03     339.949E-03    -169.823E-03     38.0987E-03    -170.241E-03     338.982E-03    -169.757E-03     35.8675E-03
             560     2.27848E-03     95.2405E-03    -102.362E+06    -264.756E+06    -87.1106E+06    -2.21036E+03    -170.417E-03     340.257E-03    -169.839E-03     56.1693E-03    -170.701E-03     339.490E-03    -169.743E-03     52.8084E-03
             561     3.03783E-03     95.3215E-03    -96.7740E+06    -247.065E+06    -72.2692E+06    -14.3229E+03    -170.879E-03     340.734E-03    -169.854E-03     74.4316E-03    -171.409E-03     340.253E-03    -169.717E-03     69.8444E-03
             562     3.79766E-03     95.4253E-03    -90.3695E+06    -229.271E+06    -57.5179E+06    -441.080E+03    -171.462E-03     341.330E-03    -169.869E-03     92.6439E-03    -172.321E-03     341.221E-03    -169.693E-03     86.7154E-03
             563     4.55732E-03     95.5513E-03    -83.8664E+06    -210.540E+06    -45.2346E+06    -623.679E+03    -172.098E-03     341.965E-03    -169.867E-03     110.690E-03    -173.387E-03     342.340E-03    -169.666E-03     103.303E-03
             564     5.31710E-03     95.6986E-03    -77.7791E+06    -188.896E+06    -33.6062E+06     260.494E+03    -172.783E-03     342.639E-03    -169.856E-03     128.437E-03    -174.635E-03     343.641E-03    -169.637E-03     119.440E-03
             565     6.07674E-03     95.8673E-03    -71.1602E+06    -159.475E+06    -22.2599E+06     258.052E+03    -173.500E-03     343.334E-03    -169.833E-03     145.986E-03    -176.076E-03     345.155E-03    -169.610E-03     135.203E-03
             566     6.83647E-03     96.0572E-03    -64.1949E+06    -128.051E+06    -11.9121E+06    -386.216E+03    -174.229E-03     344.038E-03    -169.809E-03     163.393E-03    -177.716E-03     346.877E-03    -169.589E-03     150.623E-03
             567     7.59607E-03     96.2675E-03    -57.1636E+06    -89.0167E+06    -917.984E+03    -350.261E+03    -174.775E-03     344.555E-03    -169.781E-03     180.312E-03    -179.405E-03     348.670E-03    -169.573E-03     165.383E-03
             568     8.35635E-03     96.4972E-03    -49.8972E+06    -38.0889E+06     11.9920E+06     734.152E+03    -175.009E-03     344.747E-03    -169.738E-03     197.219E-03    -181.063E-03     350.454E-03    -169.551E-03     180.012E-03
             569     9.11556E-03     96.7477E-03    -43.2352E+06     17.8788E+06     25.1408E+06     2.89614E+06    -175.128E-03     344.804E-03    -169.676E-03     215.585E-03    -183.023E-03     352.536E-03    -169.513E-03     195.870E-03
             570     9.87620E-03     97.0185E-03    -36.6851E+06     51.8280E+06     41.9408E+06     3.78596E+06    -175.473E-03     345.130E-03    -169.657E-03     236.353E-03    -185.707E-03     355.297E-03    -169.470E-03     213.871E-03
             571     10.6366E-03     97.3181E-03    -32.2055E+06     59.6052E+06     60.5131E+06     2.97225E+06    -175.724E-03     345.420E-03    -169.696E-03     256.355E-03    -188.663E-03     358.281E-03    -169.433E-03     231.195E-03
             572     11.3956E-03     97.6368E-03    -28.1465E+06     71.4550E+06     76.8531E+06     1.59411E+06    -174.995E-03     344.711E-03    -169.716E-03     270.161E-03    -190.430E-03     360.076E-03    -169.394E-03     243.265E-03
             573     12.1567E-03     97.9685E-03    -22.8199E+06     82.3679E+06     86.3765E+06     679.559E+03    -173.026E-03     342.706E-03    -169.680E-03     268.896E-03    -189.733E-03     359.374E-03    -169.335E-03     242.018E-03
             574     12.9196E-03     98.2829E-03    -17.1111E+06     86.1552E+06     87.6528E+06    -11.8082E+03    -170.874E-03     340.494E-03    -169.620E-03     244.558E-03    -186.481E-03     356.092E-03    -169.282E-03     219.764E-03
             575     13.6734E-03     98.5545E-03    -10.8640E+06     93.9519E+06     88.0481E+06    -1.18515E+06    -168.695E-03     338.268E-03    -169.574E-03     216.103E-03    -182.610E-03     352.223E-03    -169.254E-03     193.570E-03
             576     14.4397E-03     98.7971E-03    -4.79214E+06     94.8679E+06     87.4140E+06    -348.350E+03    -167.811E-03     337.356E-03    -169.545E-03     155.454E-03    -176.773E-03     346.385E-03    -169.239E-03     138.368E-03
             577     759.357E-06     96.4758E-03    -109.455E+06    -284.448E+06    -107.150E+06     230.116E+03    -170.061E-03     339.778E-03    -169.717E-03     20.7540E-03    -170.081E-03     338.711E-03    -169.682E-03     19.5656E-03
             578     1.51891E-03     96.5124E-03    -106.541E+06    -279.005E+06    -98.8196E+06     12.9004E+03    -170.134E-03     339.990E-03    -169.856E-03     38.1591E-03    -170.248E-03     339.022E-03    -169.791E-03     35.9366E-03
             579     2.27834E-03     96.5705E-03    -101.865E+06    -264.426E+06    -86.8537E+06    -168.951E+03    -170.478E-03     340.348E-03    -169.870E-03     56.2861E-03    -170.760E-03     339.582E-03    -169.774E-03     52.9194E-03
             580     3.03812E-03     96.6520E-03    -96.0758E+06    -246.913E+06    -72.3058E+06    -142.827E+03    -170.942E-03     340.832E-03    -169.890E-03     74.5810E-03    -171.469E-03     340.351E-03    -169.754E-03     69.9894E-03
             581     3.79740E-03     96.7555E-03    -89.6473E+06    -228.141E+06    -57.2218E+06    -401.593E+03    -171.452E-03     341.353E-03    -169.901E-03     92.6969E-03    -172.309E-03     341.248E-03    -169.727E-03     86.7712E-03
             582     4.55722E-03     96.8812E-03    -83.5398E+06    -211.233E+06    -44.2008E+06    -100.745E+03    -172.059E-03     341.956E-03    -169.897E-03     110.632E-03    -173.347E-03     342.325E-03    -169.690E-03     103.251E-03
             583     5.31691E-03     97.0288E-03    -77.0028E+06    -189.932E+06    -32.6930E+06     107.165E+03    -172.783E-03     342.661E-03    -169.879E-03     128.397E-03    -174.629E-03     343.655E-03    -169.655E-03     119.400E-03
             584     6.07663E-03     97.1977E-03    -70.4797E+06    -158.186E+06    -22.2055E+06    -332.821E+03    -173.561E-03     343.410E-03    -169.849E-03     146.124E-03    -176.138E-03     345.239E-03    -169.628E-03     135.325E-03
             585     6.83635E-03     97.3875E-03    -65.0299E+06    -127.299E+06    -12.1306E+06    -823.246E+03    -174.289E-03     344.119E-03    -169.829E-03     163.558E-03    -177.785E-03     346.967E-03    -169.611E-03     150.774E-03
             586     7.59616E-03     97.5982E-03    -60.1200E+06    -88.8239E+06    -2.44953E+06    -1.33756E+06    -174.716E-03     344.512E-03    -169.796E-03     180.500E-03    -179.358E-03     348.633E-03    -169.592E-03     165.573E-03
             587     8.35520E-03     97.8277E-03    -55.3370E+06    -40.3129E+06     8.73696E+06    -1.64623E+06    -174.842E-03     344.581E-03    -169.739E-03     197.503E-03    -180.917E-03     350.291E-03    -169.557E-03     180.283E-03
             588     9.11655E-03     98.0767E-03    -49.2006E+06     13.2230E+06     20.3540E+06    -1.26742E+06    -175.047E-03     344.709E-03    -169.662E-03     215.758E-03    -182.960E-03     352.435E-03    -169.508E-03     195.990E-03
             589     9.87636E-03     98.3499E-03    -42.7424E+06     46.7379E+06     34.2209E+06     1.26556E+06    -175.418E-03     345.045E-03    -169.627E-03     236.207E-03    -185.667E-03     355.208E-03    -169.461E-03     213.678E-03
             590     10.6359E-03     98.6475E-03    -35.9317E+06     60.4289E+06     52.7896E+06     3.41903E+06    -175.371E-03     345.013E-03    -169.641E-03     256.390E-03    -188.306E-03     357.881E-03    -169.413E-03     231.284E-03
             591     11.3973E-03     98.9683E-03    -28.5257E+06     74.7051E+06     72.9443E+06     2.89544E+06    -174.557E-03     344.204E-03    -169.647E-03     269.934E-03    -189.964E-03     359.563E-03    -169.349E-03     243.138E-03
             592     12.1580E-03     99.2964E-03    -21.1316E+06     83.6369E+06     87.0115E+06     2.06750E+06    -173.451E-03     343.085E-03    -169.635E-03     269.119E-03    -190.164E-03     359.768E-03    -169.290E-03     242.181E-03
             593     12.9153E-03     99.6142E-03    -13.8518E+06     88.7724E+06     90.7517E+06     986.363E+03    -171.254E-03     340.861E-03    -169.608E-03     244.713E-03    -186.891E-03     356.501E-03    -169.262E-03     219.831E-03
             594     13.6820E-03     99.8852E-03    -8.91591E+06     96.0205E+06     90.3435E+06     333.622E+03    -168.806E-03     338.387E-03    -169.580E-03     214.680E-03    -182.737E-03     352.365E-03    -169.255E-03     192.116E-03
             595     14.4371E-03     100.127E-03    -5.28806E+06     94.6283E+06     86.7730E+06    -156.882E+03    -168.238E-03     337.804E-03    -169.567E-03     154.568E-03    -177.188E-03     346.820E-03    -169.262E-03     137.439E-03
             596     759.456E-06     97.8063E-03    -108.771E+06    -284.230E+06    -107.278E+06    -303.740E+03    -169.971E-03     339.816E-03    -169.845E-03     20.7416E-03    -169.988E-03     338.749E-03    -169.811E-03     19.5503E-03
             597     1.51892E-03     97.8424E-03    -106.076E+06    -278.991E+06    -99.0679E+06    -111.699E+03    -170.114E-03     339.979E-03    -169.865E-03     38.1470E-03    -170.225E-03     339.011E-03    -169.802E-03     35.9278E-03
             598     2.27847E-03     97.9012E-03    -101.647E+06    -264.343E+06    -86.8388E+06    -57.8852E+03    -170.494E-03     340.368E-03    -169.874E-03     56.3613E-03    -170.776E-03     339.602E-03    -169.777E-03     52.9975E-03
             599     3.03767E-03     97.9822E-03    -96.1094E+06    -246.428E+06    -72.0886E+06    -321.314E+03    -170.934E-03     340.828E-03    -169.894E-03     74.6407E-03    -171.462E-03     340.349E-03    -169.758E-03     70.0491E-03
             600     3.79757E-03     98.0859E-03    -90.3738E+06    -227.997E+06    -57.4478E+06    -161.128E+03    -171.475E-03     341.379E-03    -169.904E-03     92.7964E-03    -172.336E-03     341.277E-03    -169.730E-03     86.8769E-03
             601     4.55705E-03     98.2114E-03    -83.8326E+06    -211.535E+06    -44.1823E+06    -93.2426E+03    -172.136E-03     342.043E-03    -169.908E-03     110.768E-03    -173.427E-03     342.414E-03    -169.700E-03     103.379E-03
             602     5.31677E-03     98.3591E-03    -77.3076E+06    -190.016E+06    -32.9141E+06    -149.186E+03    -172.820E-03     342.715E-03    -169.894E-03     128.526E-03    -174.672E-03     343.712E-03    -169.671E-03     119.514E-03
             603     6.07665E-03     98.5277E-03    -71.6244E+06    -157.959E+06    -23.0630E+06     134.017E+03    -173.550E-03     343.411E-03    -169.861E-03     146.252E-03    -176.132E-03     345.245E-03    -169.644E-03     135.459E-03
             604     6.83620E-03     98.7185E-03    -66.3184E+06    -126.132E+06    -12.7121E+06     165.360E+03    -174.171E-03     344.002E-03    -169.832E-03     163.765E-03    -177.671E-03     346.856E-03    -169.616E-03     151.017E-03
             605     7.59574E-03     98.9282E-03    -61.5861E+06    -88.8888E+06    -3.21024E+06     384.258E+03    -174.542E-03     344.324E-03    -169.782E-03     180.707E-03    -179.189E-03     348.447E-03    -169.580E-03     165.825E-03
             606     8.35695E-03     99.1578E-03    -57.1687E+06    -38.1668E+06     8.39141E+06     159.762E+03    -174.856E-03     344.573E-03    -169.718E-03     197.525E-03    -180.949E-03     350.304E-03    -169.537E-03     180.314E-03
             607     9.11568E-03     99.4072E-03    -53.2819E+06     13.7980E+06     19.7743E+06    -1.60961E+06    -175.164E-03     344.817E-03    -169.653E-03     215.879E-03    -183.107E-03     352.562E-03    -169.497E-03     196.084E-03
             608     9.87588E-03     99.6797E-03    -47.2693E+06     42.1715E+06     32.5043E+06    -2.67740E+06    -175.306E-03     344.928E-03    -169.621E-03     236.443E-03    -185.568E-03     355.077E-03    -169.451E-03     213.892E-03
             609     10.6369E-03     99.9776E-03    -38.2978E+06     56.8387E+06     50.6613E+06    -1.31965E+06    -175.072E-03     344.688E-03    -169.616E-03     256.168E-03    -187.983E-03     357.518E-03    -169.390E-03     231.073E-03
             610     11.3973E-03     100.297E-03    -29.5398E+06     72.9629E+06     70.9025E+06     606.926E+03    -174.710E-03     344.328E-03    -169.617E-03     269.318E-03    -190.105E-03     359.671E-03    -169.326E-03     242.446E-03
             611     12.1578E-03     100.627E-03    -21.9771E+06     84.3145E+06     85.4899E+06     840.676E+03    -173.745E-03     343.373E-03    -169.628E-03     268.566E-03    -190.499E-03     360.101E-03    -169.291E-03     241.458E-03
             612     12.9199E-03     100.948E-03    -16.1059E+06     88.9858E+06     88.3930E+06     285.755E+03    -171.648E-03     341.278E-03    -169.630E-03     243.534E-03    -187.300E-03     356.932E-03    -169.294E-03     218.530E-03
             613     13.6732E-03     101.212E-03    -10.1114E+06     94.8179E+06     88.4958E+06     1.07257E+06    -169.071E-03     338.702E-03    -169.631E-03     213.824E-03    -182.961E-03     352.636E-03    -169.311E-03     191.272E-03
             614     14.4355E-03     101.463E-03    -3.89619E+06     95.4165E+06     87.9659E+06     482.995E+03    -167.295E-03     336.900E-03    -169.605E-03     155.332E-03    -176.216E-03     345.891E-03    -169.298E-03     138.336E-03
             615     759.335E-06     99.1367E-03    -108.679E+06    -283.699E+06    -106.352E+06    -98.8845E+03    -170.023E-03     339.782E-03    -169.758E-03     20.6979E-03    -170.042E-03     338.716E-03    -169.721E-03     19.5055E-03
             616     1.51886E-03     99.1727E-03    -105.955E+06    -278.637E+06    -98.5549E+06    -230.408E+03    -170.099E-03     339.948E-03    -169.849E-03     38.2302E-03    -170.211E-03     338.981E-03    -169.784E-03     36.0091E-03
             617     2.27835E-03     99.2314E-03    -101.570E+06    -264.368E+06    -86.9172E+06    -299.017E+03    -170.448E-03     340.298E-03    -169.850E-03     56.5439E-03    -170.729E-03     339.532E-03    -169.754E-03     53.1828E-03
             618     3.03818E-03     99.3127E-03    -96.4163E+06    -246.491E+06    -72.5164E+06     56.5670E+03    -170.939E-03     340.807E-03    -169.868E-03     74.7065E-03    -171.469E-03     340.329E-03    -169.733E-03     70.1231E-03
             619     3.79754E-03     99.4159E-03    -90.2067E+06    -228.009E+06    -57.7583E+06     196.522E+03    -171.512E-03     341.399E-03    -169.887E-03     92.8118E-03    -172.372E-03     341.296E-03    -169.714E-03     86.8962E-03
             620     4.55727E-03     99.5422E-03    -83.8442E+06    -211.684E+06    -44.8880E+06     242.479E+03    -172.159E-03     342.054E-03    -169.896E-03     110.781E-03    -173.448E-03     342.425E-03    -169.692E-03     103.394E-03
             621     5.31687E-03     99.6890E-03    -78.0014E+06    -190.206E+06    -33.2204E+06     420.966E+03    -172.888E-03     342.780E-03    -169.892E-03     128.677E-03    -174.744E-03     343.781E-03    -169.669E-03     119.665E-03
             622     6.07631E-03     99.8586E-03    -71.8417E+06    -158.306E+06    -22.8435E+06     588.267E+03    -173.501E-03     343.363E-03    -169.862E-03     146.432E-03    -176.086E-03     345.197E-03    -169.642E-03     135.649E-03
             623     6.83637E-03     100.048E-03    -65.9193E+06    -126.617E+06    -12.8015E+06     1.16320E+06    -173.974E-03     343.789E-03    -169.815E-03     163.801E-03    -177.468E-03     346.637E-03    -169.600E-03     151.087E-03
             624     7.59692E-03     100.259E-03    -59.7073E+06    -88.7985E+06    -2.20245E+06     1.25831E+06    -174.539E-03     344.298E-03    -169.759E-03     180.675E-03    -179.176E-03     348.413E-03    -169.554E-03     165.813E-03
             625     8.35553E-03     100.488E-03    -52.9968E+06    -38.5585E+06     9.90873E+06     1.94600E+06    -174.928E-03     344.627E-03    -169.698E-03     197.499E-03    -181.010E-03     350.355E-03    -169.516E-03     180.288E-03
             626     9.11669E-03     100.738E-03    -46.2316E+06     17.9322E+06     23.9713E+06     2.67109E+06    -175.058E-03     344.693E-03    -169.635E-03     215.941E-03    -182.975E-03     352.440E-03    -169.474E-03     196.221E-03
             627     9.87682E-03     101.010E-03    -41.1867E+06     48.4711E+06     40.0327E+06    -41.9114E+03    -175.284E-03     344.897E-03    -169.613E-03     236.348E-03    -185.524E-03     355.046E-03    -169.423E-03     213.869E-03
             628     10.6367E-03     101.307E-03    -36.5164E+06     54.3334E+06     57.3239E+06    -2.66463E+06    -175.513E-03     345.155E-03    -169.642E-03     255.512E-03    -188.435E-03     357.975E-03    -169.381E-03     230.312E-03
             629     11.3974E-03     101.626E-03    -29.8068E+06     68.5066E+06     74.5856E+06    -1.58858E+06    -175.430E-03     345.113E-03    -169.682E-03     268.722E-03    -190.855E-03     360.459E-03    -169.366E-03     241.663E-03
             630     12.1564E-03     101.959E-03    -22.8621E+06     83.6251E+06     85.7410E+06     374.032E+03    -173.964E-03     343.671E-03    -169.708E-03     267.567E-03    -190.700E-03     360.375E-03    -169.367E-03     240.420E-03
             631     12.9141E-03     102.274E-03    -16.6733E+06     89.1368E+06     87.5579E+06     940.660E+03    -170.912E-03     340.597E-03    -169.685E-03     244.352E-03    -186.545E-03     356.233E-03    -169.353E-03     219.492E-03
             632     13.6780E-03     102.551E-03    -10.6735E+06     94.8777E+06     87.7213E+06    -519.815E+03    -168.242E-03     337.869E-03    -169.627E-03     216.181E-03    -182.146E-03     351.818E-03    -169.311E-03     193.741E-03
             633     14.4383E-03     102.782E-03    -4.76893E+06     95.3500E+06     87.5203E+06    -513.712E+03    -167.399E-03     336.973E-03    -169.574E-03     156.096E-03    -176.365E-03     346.007E-03    -169.268E-03     139.040E-03
             634     759.571E-06     100.467E-03    -108.722E+06    -283.791E+06    -106.662E+06     439.329E+03    -169.924E-03     339.666E-03    -169.742E-03     20.5389E-03    -169.943E-03     338.601E-03    -169.706E-03     19.3506E-03
             635     1.51904E-03     100.503E-03    -105.788E+06    -278.227E+06    -98.0881E+06     138.069E+03    -170.114E-03     339.923E-03    -169.809E-03     38.1972E-03    -170.227E-03     338.957E-03    -169.742E-03     35.9784E-03
             636     2.27866E-03     100.562E-03    -101.950E+06    -264.468E+06    -86.9509E+06     79.8689E+03    -170.453E-03     340.282E-03    -169.829E-03     56.4075E-03    -170.735E-03     339.515E-03    -169.733E-03     53.0535E-03
             637     3.03800E-03     100.643E-03    -96.5244E+06    -246.855E+06    -73.0200E+06     159.226E+03    -170.916E-03     340.765E-03    -169.849E-03     74.6076E-03    -171.444E-03     340.286E-03    -169.716E-03     70.0271E-03
             638     3.79760E-03     100.747E-03    -90.0280E+06    -228.435E+06    -58.1829E+06     267.966E+03    -171.495E-03     341.362E-03    -169.868E-03     92.8043E-03    -172.353E-03     341.259E-03    -169.697E-03     86.8867E-03
             639     4.55719E-03     100.872E-03    -83.8028E+06    -212.052E+06    -44.9195E+06     504.072E+03    -172.155E-03     342.034E-03    -169.879E-03     110.844E-03    -173.445E-03     342.404E-03    -169.675E-03     103.460E-03
             640     5.31687E-03     101.020E-03    -77.2147E+06    -190.305E+06    -32.8560E+06     535.414E+03    -172.833E-03     342.707E-03    -169.873E-03     128.804E-03    -174.687E-03     343.706E-03    -169.650E-03     119.798E-03
             641     6.07680E-03     101.189E-03    -70.6632E+06    -158.957E+06    -22.2128E+06     758.433E+03    -173.450E-03     343.290E-03    -169.839E-03     146.426E-03    -176.029E-03     345.117E-03    -169.617E-03     135.649E-03
             642     6.83662E-03     101.378E-03    -64.1841E+06    -127.496E+06    -11.9870E+06     999.982E+03    -174.047E-03     343.844E-03    -169.797E-03     163.664E-03    -177.535E-03     346.687E-03    -169.579E-03     150.931E-03
             643     7.59607E-03     101.588E-03    -58.1473E+06    -88.7840E+06    -1.45160E+06     1.04886E+06    -174.549E-03     344.294E-03    -169.745E-03     180.696E-03    -179.178E-03     348.406E-03    -169.540E-03     165.832E-03
             644     8.35714E-03     101.819E-03      -52.23E+06    -40.0079E+06     10.3882E+06     633.099E+03    -174.908E-03     344.596E-03    -169.688E-03     197.483E-03    -180.986E-03     350.316E-03    -169.502E-03     180.258E-03
             645     9.11625E-03     102.067E-03    -45.4986E+06     17.1454E+06     23.4890E+06     939.749E+03    -175.084E-03     344.708E-03    -169.624E-03     215.305E-03    -182.996E-03     352.451E-03    -169.465E-03     195.534E-03
             646     9.87684E-03     102.340E-03    -38.3442E+06     51.6657E+06     41.3003E+06     2.65951E+06    -175.403E-03     345.018E-03    -169.615E-03     235.486E-03    -185.618E-03     355.160E-03    -169.428E-03     213.017E-03
             647     10.6370E-03     102.637E-03    -32.6590E+06     58.6689E+06     60.3722E+06     1.66492E+06    -175.952E-03     345.626E-03    -169.674E-03     255.385E-03    -188.888E-03     358.480E-03    -169.410E-03     230.141E-03
             648     11.3951E-03     102.958E-03    -27.6895E+06     68.1228E+06     75.3262E+06    -145.569E+03    -175.661E-03     345.391E-03    -169.730E-03     269.479E-03    -191.106E-03     360.761E-03    -169.412E-03     242.404E-03
             649     12.1551E-03     103.288E-03    -21.0024E+06     80.7654E+06     86.2505E+06     647.034E+03    -173.665E-03     343.404E-03    -169.740E-03     269.558E-03    -190.422E-03     360.124E-03    -169.395E-03     242.517E-03
             650     12.9168E-03     103.607E-03    -13.9318E+06     89.8532E+06     90.1153E+06     1.60027E+06    -170.468E-03     340.151E-03    -169.683E-03     245.368E-03    -186.144E-03     355.835E-03    -169.343E-03     220.580E-03
             651     13.6781E-03     103.871E-03    -7.95708E+06     98.8744E+06     91.1185E+06     645.704E+03    -168.310E-03     337.924E-03    -169.613E-03     214.956E-03    -182.159E-03     351.831E-03    -169.289E-03     192.557E-03
             652     14.4370E-03     104.125E-03    -4.40495E+06     96.0377E+06     88.2545E+06     173.602E+03    -167.899E-03     337.475E-03    -169.576E-03     153.771E-03    -176.761E-03     346.406E-03    -169.268E-03     136.766E-03
             653     759.481E-06     101.797E-03    -109.342E+06    -284.311E+06    -107.208E+06    -21.2617E+03    -169.890E-03     339.667E-03    -169.777E-03     20.5774E-03    -169.910E-03     338.601E-03    -169.742E-03     19.3811E-03
             654     1.51900E-03     101.833E-03    -106.176E+06    -278.746E+06    -98.7770E+06     268.989E+03    -170.153E-03     339.970E-03    -169.817E-03     38.0677E-03    -170.265E-03     339.002E-03    -169.752E-03     35.8506E-03
             655     2.27832E-03     101.892E-03    -101.953E+06    -264.425E+06    -86.9405E+06     324.784E+03    -170.443E-03     340.287E-03    -169.844E-03     56.3028E-03    -170.725E-03     339.520E-03    -169.747E-03     52.9572E-03
             656     3.03803E-03     101.973E-03    -96.3840E+06    -246.627E+06    -72.2828E+06     153.696E+03    -170.827E-03     340.679E-03    -169.852E-03     74.6357E-03    -171.356E-03     340.200E-03    -169.716E-03     70.0553E-03
             657     3.79779E-03     102.077E-03    -90.3500E+06    -228.879E+06    -58.1068E+06     154.662E+03    -171.412E-03     341.263E-03    -169.851E-03     92.8719E-03    -172.271E-03     341.157E-03    -169.679E-03     86.9568E-03
             658     4.55742E-03     102.203E-03    -83.4531E+06    -212.295E+06    -44.8806E+06     167.176E+03    -172.118E-03     341.971E-03    -169.853E-03     110.918E-03    -173.407E-03     342.340E-03    -169.649E-03     103.530E-03
             659     5.31711E-03     102.350E-03    -76.5570E+06    -190.477E+06    -32.6729E+06     209.325E+03    -172.805E-03     342.651E-03    -169.846E-03     128.775E-03    -174.655E-03     343.648E-03    -169.622E-03     119.767E-03
             660     6.07686E-03     102.519E-03    -70.3987E+06    -159.391E+06    -22.1533E+06     189.274E+03    -173.490E-03     343.307E-03    -169.817E-03     146.278E-03    -176.067E-03     345.132E-03    -169.594E-03     135.489E-03
             661     6.83662E-03     102.708E-03    -64.2004E+06    -127.975E+06    -12.0426E+06     123.158E+03    -174.160E-03     343.948E-03    -169.787E-03     163.565E-03    -177.651E-03     346.791E-03    -169.569E-03     150.802E-03
             662     7.59680E-03     102.919E-03    -57.8692E+06    -89.5852E+06    -1.27584E+06     532.931E+03    -174.653E-03     344.404E-03    -169.751E-03     180.429E-03    -179.285E-03     348.516E-03    -169.544E-03     165.530E-03
             663     8.35604E-03     103.148E-03    -52.1377E+06    -39.0906E+06     11.1447E+06     689.132E+03    -174.976E-03     344.681E-03    -169.705E-03     197.077E-03    -181.044E-03     350.394E-03    -169.517E-03     179.856E-03
             664     9.11645E-03     103.399E-03    -47.4704E+06     16.3489E+06     24.2746E+06     233.684E+03    -175.290E-03     344.951E-03    -169.661E-03     214.901E-03    -183.210E-03     352.690E-03    -169.495E-03     195.099E-03
             665     9.87582E-03     103.669E-03    -42.2980E+06     47.5494E+06     37.8390E+06     656.494E+03    -175.573E-03     345.229E-03    -169.656E-03     235.392E-03    -185.818E-03     355.383E-03    -169.474E-03     212.823E-03
             666     10.6355E-03     103.969E-03    -35.6064E+06     60.2661E+06     54.3193E+06     1.60069E+06    -175.621E-03     345.302E-03    -169.681E-03     256.121E-03    -188.542E-03     358.153E-03    -169.445E-03     230.962E-03
             667     11.3967E-03     104.289E-03    -28.5292E+06     71.7500E+06     72.4111E+06     897.442E+03    -175.002E-03     344.704E-03    -169.702E-03     270.152E-03    -190.435E-03     360.081E-03    -169.403E-03     243.225E-03
             668     12.1574E-03     104.619E-03    -22.4445E+06     78.9067E+06     84.4295E+06     33.8322E+03    -173.334E-03     343.029E-03    -169.695E-03     268.917E-03    -190.099E-03     359.749E-03    -169.355E-03     241.862E-03
             669     12.9182E-03     104.934E-03    -15.9874E+06     88.4794E+06     89.0449E+06    -192.702E+03    -171.068E-03     340.730E-03    -169.662E-03     244.165E-03    -186.746E-03     356.407E-03    -169.322E-03     219.218E-03
             670     13.6751E-03     105.208E-03    -9.76399E+06     98.7394E+06     90.2845E+06     310.178E+03    -168.963E-03     338.596E-03    -169.633E-03     215.510E-03    -182.871E-03     352.558E-03    -169.310E-03     192.990E-03
             671     14.4367E-03     105.447E-03    -4.94349E+06     96.4316E+06     88.2153E+06     1.15442E+06    -167.901E-03     337.513E-03    -169.611E-03     154.946E-03    -176.821E-03     346.501E-03    -169.303E-03     137.938E-03
             672     759.491E-06     103.127E-03    -109.293E+06    -284.381E+06    -107.317E+06     56.0166E+03    -169.919E-03     339.739E-03    -169.820E-03     20.7231E-03    -169.938E-03     338.673E-03    -169.786E-03     19.5247E-03
             673     1.51883E-03     103.163E-03    -106.450E+06    -278.928E+06    -98.8982E+06     6.34660E+03    -170.124E-03     339.962E-03    -169.839E-03     38.1556E-03    -170.237E-03     338.995E-03    -169.774E-03     35.9348E-03
             674     2.27849E-03     103.222E-03    -101.744E+06    -264.404E+06    -87.0478E+06     11.3199E+03    -170.357E-03     340.195E-03    -169.838E-03     56.3987E-03    -170.638E-03     339.428E-03    -169.742E-03     53.0462E-03
             675     3.03811E-03     103.303E-03    -96.4183E+06    -246.748E+06    -72.5494E+06     68.6587E+03    -170.805E-03     340.636E-03    -169.831E-03     74.7163E-03    -171.335E-03     340.158E-03    -169.696E-03     70.1316E-03
             676     3.79770E-03     103.407E-03    -90.2596E+06    -228.764E+06    -57.7917E+06     47.2758E+03    -171.411E-03     341.244E-03    -169.833E-03     92.9007E-03    -172.271E-03     341.140E-03    -169.660E-03     86.9817E-03
             677     4.55751E-03     103.532E-03    -83.6893E+06    -212.347E+06    -44.8151E+06    -21.7985E+03    -172.110E-03     341.948E-03    -169.838E-03     110.788E-03    -173.398E-03     342.315E-03    -169.633E-03     103.401E-03
             678     5.31725E-03     103.680E-03    -77.3006E+06    -190.649E+06    -32.9400E+06    -67.8808E+03    -172.849E-03     342.686E-03    -169.837E-03     128.536E-03    -174.699E-03     343.680E-03    -169.613E-03     119.525E-03
             679     6.07690E-03     103.849E-03    -71.1231E+06    -158.973E+06    -22.2975E+06    -365.403E+03    -173.577E-03     343.396E-03    -169.819E-03     146.125E-03    -176.158E-03     345.225E-03    -169.597E-03     135.317E-03
             680     6.83666E-03     104.039E-03    -64.9852E+06    -128.331E+06    -12.1064E+06    -460.015E+03    -174.279E-03     344.085E-03    -169.805E-03     163.287E-03    -177.773E-03     346.927E-03    -169.586E-03     150.499E-03
             681     7.59606E-03     104.249E-03    -59.2843E+06    -90.5569E+06    -2.16078E+06    -293.812E+03    -174.809E-03     344.593E-03    -169.783E-03     180.106E-03    -179.445E-03     348.703E-03    -169.577E-03     165.175E-03
             682     8.35605E-03     104.479E-03    -53.5494E+06    -40.0685E+06     10.2649E+06     425.556E+03    -175.022E-03     344.769E-03    -169.746E-03     196.989E-03    -181.091E-03     350.475E-03    -169.559E-03     179.766E-03
             683     9.11570E-03     104.728E-03    -47.7463E+06     15.3566E+06     23.1194E+06     2.20688E+06    -175.161E-03     344.851E-03    -169.690E-03     215.348E-03    -183.074E-03     352.582E-03    -169.527E-03     195.607E-03
             684     9.87561E-03     105.002E-03    -42.9197E+06     48.1639E+06     37.4440E+06     2.09702E+06    -175.490E-03     345.160E-03    -169.669E-03     236.172E-03    -185.767E-03     355.346E-03    -169.490E-03     213.619E-03
             685     10.6360E-03     105.297E-03    -37.6301E+06     61.2700E+06     56.1497E+06     413.150E+03    -175.496E-03     345.191E-03    -169.694E-03     256.330E-03    -188.432E-03     358.048E-03    -169.448E-03     231.183E-03
             686     11.3964E-03     105.620E-03    -31.2966E+06     71.9188E+06     73.0955E+06     375.371E+03    -174.817E-03     344.523E-03    -169.706E-03     269.237E-03    -190.237E-03     359.875E-03    -169.399E-03     242.326E-03
             687     12.1568E-03     105.948E-03    -24.1916E+06     80.4178E+06     84.3976E+06    -76.9972E+03    -173.616E-03     343.320E-03    -169.704E-03     268.092E-03    -190.369E-03     360.028E-03    -169.363E-03     240.977E-03
             688     12.9147E-03     106.268E-03    -17.5285E+06     88.6584E+06     88.2264E+06    -1.47489E+06    -171.049E-03     340.728E-03    -169.679E-03     244.263E-03    -186.713E-03     356.389E-03    -169.341E-03     219.313E-03
             689     13.6788E-03     106.534E-03    -11.8727E+06     95.8272E+06     88.6024E+06    -818.343E+03    -168.580E-03     338.217E-03    -169.637E-03     215.835E-03    -182.474E-03     352.152E-03    -169.315E-03     193.374E-03
             690     14.4365E-03     106.784E-03    -5.46493E+06     95.9729E+06     87.8208E+06     188.201E+03    -167.898E-03     337.500E-03    -169.602E-03     155.563E-03    -176.816E-03     346.485E-03    -169.294E-03     138.532E-03
             691     759.467E-06     104.458E-03    -108.742E+06    -283.932E+06    -107.097E+06    -308.355E+03    -169.831E-03     339.672E-03    -169.841E-03     20.9779E-03    -169.849E-03     338.607E-03    -169.807E-03     19.7816E-03
             692     1.51898E-03     104.494E-03    -106.042E+06    -278.782E+06    -98.9796E+06    -95.5119E+03    -170.073E-03     339.872E-03    -169.799E-03     38.1372E-03    -170.185E-03     338.904E-03    -169.736E-03     35.9103E-03
             693     2.27857E-03     104.552E-03    -101.805E+06    -264.479E+06    -87.0622E+06     12.4491E+03    -170.364E-03     340.168E-03    -169.804E-03     56.3078E-03    -170.646E-03     339.402E-03    -169.708E-03     52.9461E-03
             694     3.03824E-03     104.633E-03    -96.3678E+06    -247.174E+06    -72.6463E+06     86.2606E+03    -170.857E-03     340.671E-03    -169.814E-03     74.6346E-03    -171.385E-03     340.190E-03    -169.679E-03     70.0487E-03
             695     3.79793E-03     104.737E-03    -90.0354E+06    -228.706E+06    -57.2337E+06     285.673E+03    -171.486E-03     341.322E-03    -169.836E-03     92.7778E-03    -172.347E-03     341.217E-03    -169.660E-03     86.8540E-03
             696     4.55743E-03     104.863E-03    -83.7835E+06    -212.080E+06    -44.0598E+06     175.854E+03    -172.189E-03     342.045E-03    -169.856E-03     110.660E-03    -173.479E-03     342.413E-03    -169.648E-03     103.268E-03
             697     5.31697E-03     105.010E-03    -77.7146E+06    -190.699E+06    -32.8805E+06    -38.8757E+03    -172.920E-03     342.784E-03    -169.863E-03     128.377E-03    -174.772E-03     343.778E-03    -169.638E-03     119.361E-03
             698     6.07670E-03     105.179E-03    -71.7603E+06    -158.661E+06    -22.4592E+06     100.531E+03    -173.664E-03     343.517E-03    -169.853E-03     145.979E-03    -176.247E-03     345.347E-03    -169.631E-03     135.171E-03
             699     6.83617E-03     105.369E-03    -66.5626E+06    -128.005E+06    -12.5976E+06         571.938    -174.318E-03     344.161E-03    -169.843E-03     163.304E-03    -177.819E-03     347.008E-03    -169.624E-03     150.523E-03
             700     7.59580E-03     105.580E-03    -61.6525E+06    -90.3649E+06    -3.02369E+06    -109.045E+03    -174.738E-03     344.552E-03    -169.814E-03     180.374E-03    -179.382E-03     348.666E-03    -169.609E-03     165.464E-03
             701     8.35550E-03     105.809E-03    -56.6911E+06    -42.1421E+06     8.07696E+06     425.890E+03    -174.925E-03     344.687E-03    -169.762E-03     197.354E-03    -181.007E-03     350.394E-03    -169.578E-03     180.143E-03
             702     9.11565E-03     106.059E-03    -51.0852E+06     12.6911E+06     19.3792E+06     670.155E+03    -175.049E-03     344.735E-03    -169.686E-03     215.626E-03    -182.977E-03     352.471E-03    -169.533E-03     195.863E-03
             703     9.87668E-03     106.330E-03       -43.2E+06     49.1741E+06     35.2433E+06     917.609E+03    -175.344E-03     344.997E-03    -169.653E-03     235.966E-03    -185.607E-03     355.179E-03    -169.486E-03     213.419E-03
             704     10.6362E-03     106.630E-03    -35.2207E+06     61.4756E+06     56.1974E+06     2.08506E+06    -175.554E-03     345.242E-03    -169.688E-03     255.749E-03    -188.487E-03     358.106E-03    -169.445E-03     230.588E-03
             705     11.3959E-03     106.947E-03    -28.2686E+06     72.3911E+06     75.0942E+06     2.10216E+06    -175.223E-03     344.947E-03    -169.725E-03     269.714E-03    -190.670E-03     360.333E-03    -169.413E-03     242.740E-03
             706     12.1556E-03     107.280E-03    -21.5058E+06     83.4654E+06     87.0183E+06     529.073E+03    -173.655E-03     343.384E-03    -169.729E-03     268.900E-03    -190.412E-03     360.108E-03    -169.384E-03     241.823E-03
             707     12.9183E-03     107.596E-03    -15.2145E+06     90.3746E+06     90.1358E+06    -23.0315E+03    -171.013E-03     340.709E-03    -169.696E-03     244.226E-03    -186.639E-03     356.341E-03    -169.355E-03     219.373E-03
             708     13.6745E-03     107.866E-03    -10.0453E+06     95.8433E+06     89.7046E+06    -304.442E+03    -168.632E-03     338.284E-03    -169.652E-03     215.326E-03    -182.502E-03     352.199E-03    -169.328E-03     192.869E-03
             709     14.4378E-03     108.110E-03    -5.05480E+06     94.9797E+06     87.3027E+06    -871.217E+03    -167.525E-03     337.133E-03    -169.607E-03     154.766E-03    -176.421E-03     346.094E-03    -169.301E-03     137.756E-03
             710     759.537E-06     105.788E-03    -108.818E+06    -283.508E+06    -106.372E+06     103.403E+03    -169.879E-03     339.616E-03    -169.737E-03     20.7591E-03    -169.899E-03     338.552E-03    -169.700E-03     19.5715E-03
             711     1.51913E-03     105.824E-03    -106.161E+06    -278.680E+06    -98.6694E+06    -252.986E+03    -170.029E-03     339.799E-03    -169.770E-03     38.0302E-03    -170.141E-03     338.831E-03    -169.706E-03     35.8054E-03
             712     2.27858E-03     105.882E-03    -101.854E+06    -264.813E+06     -87.516E+06    -43.1073E+03    -170.447E-03     340.233E-03    -169.786E-03     56.2640E-03    -170.728E-03     339.466E-03    -169.692E-03     52.9003E-03
             713     3.03812E-03     105.963E-03    -96.4240E+06    -247.499E+06    -72.4579E+06     233.110E+03    -170.968E-03     340.796E-03    -169.828E-03     74.5941E-03    -171.496E-03     340.313E-03    -169.692E-03     70.0062E-03
             714     3.79757E-03     106.067E-03    -90.3171E+06    -229.315E+06    -57.3628E+06     480.850E+03    -171.559E-03     341.426E-03    -169.866E-03     92.6877E-03    -172.419E-03     341.317E-03    -169.690E-03     86.7679E-03
             715     4.55722E-03     106.193E-03    -83.9264E+06    -212.045E+06    -44.1553E+06     841.498E+03    -172.244E-03     342.137E-03    -169.893E-03     110.631E-03    -173.535E-03     342.505E-03    -169.684E-03     103.245E-03
             716     5.31685E-03     106.341E-03    -78.0632E+06    -190.400E+06    -32.4818E+06     969.770E+03    -172.989E-03     342.894E-03    -169.905E-03     128.420E-03    -174.844E-03     343.890E-03    -169.678E-03     119.412E-03
             717     6.07625E-03     106.510E-03    -72.6131E+06    -159.245E+06    -22.6997E+06     1.04003E+06    -173.639E-03     343.530E-03    -169.891E-03     146.170E-03    -176.227E-03     345.361E-03    -169.668E-03     135.378E-03
             718     6.83595E-03     106.700E-03    -67.0743E+06    -127.347E+06    -12.5764E+06     1.38153E+06    -174.172E-03     344.036E-03    -169.864E-03     163.568E-03    -177.674E-03     346.885E-03    -169.645E-03     150.827E-03
             719     7.59599E-03     106.910E-03    -61.7786E+06    -89.9749E+06    -2.74407E+06     1.45009E+06    -174.604E-03     344.422E-03    -169.818E-03     180.516E-03    -179.248E-03     348.535E-03    -169.611E-03     165.645E-03
             720     8.35602E-03     107.140E-03    -56.0288E+06    -42.4508E+06     8.30094E+06     935.549E+03    -174.903E-03     344.659E-03    -169.757E-03     197.310E-03    -180.985E-03     350.368E-03    -169.572E-03     180.095E-03
             721     9.11623E-03     107.388E-03    -49.2345E+06     13.8355E+06     21.7217E+06     58.3081E+03    -175.195E-03     344.889E-03    -169.694E-03     215.463E-03    -183.123E-03     352.629E-03    -169.534E-03     195.665E-03
             722     9.87497E-03     107.662E-03    -43.4832E+06     47.7613E+06     36.4731E+06    -857.645E+03    -175.411E-03     345.083E-03    -169.672E-03     235.927E-03    -185.661E-03     355.242E-03    -169.496E-03     213.378E-03
             723     10.6358E-03     107.958E-03    -37.2341E+06     57.5236E+06     53.7846E+06    -133.998E+03    -175.534E-03     345.228E-03    -169.694E-03     255.928E-03    -188.471E-03     358.082E-03    -169.455E-03     230.741E-03
             724     11.3966E-03     108.280E-03    -29.2416E+06     73.4298E+06     73.6424E+06      797.31E+03    -175.165E-03     344.889E-03    -169.725E-03     269.577E-03    -190.621E-03     360.289E-03    -169.420E-03     242.570E-03
             725     12.1569E-03     108.610E-03      -21.89E+06     85.8025E+06     87.2589E+06     189.847E+03    -173.629E-03     343.364E-03    -169.735E-03     268.427E-03    -190.377E-03     360.086E-03    -169.392E-03     241.346E-03
             726     12.9145E-03     108.926E-03    -15.4322E+06     89.9951E+06     89.9684E+06     153.655E+03    -171.112E-03     340.821E-03    -169.709E-03     244.209E-03    -186.739E-03     356.451E-03    -169.367E-03     219.333E-03
             727     13.6782E-03     109.197E-03    -8.58371E+06     96.7734E+06     90.2899E+06     385.084E+03    -168.520E-03     338.184E-03    -169.663E-03     215.510E-03    -182.410E-03     352.125E-03    -169.340E-03     193.055E-03
             728     14.4348E-03     109.441E-03    -3.46835E+06      94.981E+06     88.0073E+06    -160.215E+03    -167.014E-03     336.616E-03    -169.602E-03     155.929E-03    -175.949E-03     345.620E-03    -169.295E-03     138.927E-03
             729     759.360E-06     107.118E-03    -108.663E+06    -283.764E+06    -106.639E+06    -119.252E+03    -169.940E-03     339.657E-03    -169.716E-03     20.5160E-03    -169.958E-03     338.591E-03    -169.680E-03     19.3233E-03
             730     1.51899E-03     107.154E-03    -105.560E+06    -278.057E+06    -97.9849E+06    -13.4055E+03    -170.052E-03     339.846E-03    -169.793E-03     37.9861E-03    -170.163E-03     338.879E-03    -169.727E-03     35.7667E-03
             731     2.27866E-03     107.212E-03    -101.348E+06    -265.368E+06    -86.2302E+06     42.2616E+03    -170.501E-03     340.320E-03    -169.819E-03     56.2469E-03    -170.780E-03     339.547E-03    -169.718E-03     52.8864E-03
             732     3.03804E-03     107.294E-03    -95.8637E+06    -248.519E+06    -71.7087E+06     605.819E+03    -171.039E-03     340.907E-03    -169.867E-03     74.5798E-03    -171.564E-03     340.417E-03    -169.727E-03     69.9972E-03
             733     3.79756E-03     107.398E-03    -89.8564E+06    -229.923E+06    -57.3933E+06     1.04148E+06    -171.611E-03     341.518E-03    -169.906E-03     92.7237E-03    -172.468E-03     341.405E-03    -169.729E-03     86.8102E-03
             734     4.55706E-03     107.524E-03    -83.6960E+06    -213.203E+06    -44.2271E+06     1.46949E+06    -172.260E-03     342.191E-03    -169.931E-03     110.707E-03    -173.548E-03     342.554E-03    -169.722E-03     103.327E-03
             735     5.31652E-03     107.671E-03    -77.3480E+06    -190.751E+06    -31.9226E+06     2.10660E+06    -172.920E-03     342.854E-03    -169.934E-03     128.601E-03    -174.772E-03     343.847E-03    -169.705E-03     119.615E-03
             736     6.07629E-03     107.841E-03    -71.1228E+06    -159.257E+06    -21.2466E+06     2.22335E+06    -173.549E-03     343.456E-03    -169.907E-03     146.296E-03    -176.131E-03     345.281E-03    -169.679E-03     135.530E-03
             737     6.83628E-03     108.030E-03    -65.1302E+06    -128.305E+06    -11.4413E+06     2.39370E+06    -174.131E-03     344.001E-03    -169.869E-03     163.533E-03    -177.623E-03     346.839E-03    -169.646E-03     150.810E-03
             738     7.59588E-03     108.241E-03    -59.1804E+06    -90.1145E+06    -1.06030E+06     2.78897E+06    -174.591E-03     344.412E-03    -169.820E-03     180.330E-03    -179.223E-03     348.517E-03    -169.609E-03     165.475E-03
             739     8.35585E-03     108.469E-03    -53.5824E+06    -39.8457E+06     11.4493E+06     1.95885E+06    -174.957E-03     344.722E-03    -169.765E-03     197.251E-03    -181.034E-03     350.434E-03    -169.573E-03     180.048E-03
             740     9.11521E-03     108.720E-03    -48.4871E+06     15.6304E+06     23.8700E+06     222.278E+03    -175.154E-03     344.856E-03    -169.701E-03     215.633E-03    -183.083E-03     352.598E-03    -169.534E-03     195.850E-03
             741     9.87661E-03     108.991E-03    -42.0276E+06     48.7128E+06     40.1830E+06    -125.698E+03    -175.458E-03     345.143E-03    -169.685E-03     236.090E-03    -185.710E-03     355.302E-03    -169.494E-03     213.553E-03
             742     10.6362E-03     109.290E-03    -34.7754E+06     56.9530E+06     59.8411E+06    -310.245E+03    -175.800E-03     345.530E-03    -169.730E-03     256.107E-03    -188.761E-03     358.396E-03    -169.463E-03     230.861E-03
             743     11.3952E-03     109.609E-03    -28.3177E+06     70.3224E+06     76.4594E+06    -48.9845E+03    -175.237E-03     344.999E-03    -169.762E-03     269.353E-03    -190.696E-03     360.385E-03    -169.441E-03     242.316E-03
             744     12.1553E-03     109.940E-03    -21.4861E+06     87.1028E+06       87.87E+06     657.604E+03    -173.497E-03     343.252E-03    -169.755E-03     268.397E-03    -190.238E-03     359.971E-03    -169.410E-03     241.351E-03
             745     12.9177E-03     110.258E-03    -14.1464E+06     90.9311E+06     90.4327E+06    -544.312E+03    -170.962E-03     340.676E-03    -169.715E-03     244.707E-03    -186.596E-03     356.322E-03    -169.374E-03     219.830E-03
             746     13.6743E-03     110.526E-03    -8.34284E+06     94.2761E+06     89.6455E+06    -122.300E+03    -167.936E-03     337.585E-03    -169.649E-03     215.140E-03    -181.815E-03     351.509E-03    -169.326E-03     192.726E-03
             747     14.4395E-03     110.770E-03    -3.98621E+06     95.8343E+06     89.1681E+06     1.33475E+06    -167.059E-03     336.641E-03    -169.582E-03     155.342E-03    -175.985E-03     345.634E-03    -169.269E-03     138.406E-03
             748     759.597E-06     108.448E-03    -108.111E+06    -283.511E+06    -106.325E+06    -240.624E+03    -169.987E-03     339.701E-03    -169.714E-03     20.6316E-03    -170.002E-03     338.635E-03    -169.678E-03     19.4386E-03
             749     1.51898E-03     108.484E-03    -105.225E+06    -278.084E+06    -98.0776E+06    -136.691E+03    -170.200E-03     340.039E-03    -169.839E-03     37.9731E-03    -170.310E-03     339.072E-03    -169.773E-03     35.7482E-03
             750     2.27830E-03     108.543E-03    -100.654E+06    -266.496E+06    -84.7416E+06     550.635E+03    -170.538E-03     340.430E-03    -169.892E-03     56.2814E-03    -170.814E-03     339.649E-03    -169.784E-03     52.9218E-03
             751     3.03785E-03     108.624E-03    -95.3930E+06    -250.000E+06    -70.4732E+06     1.34364E+06    -170.994E-03     340.917E-03    -169.923E-03     74.5670E-03    -171.516E-03     340.418E-03    -169.775E-03     69.9931E-03
             752     3.79735E-03     108.728E-03    -89.0889E+06    -230.443E+06    -56.4664E+06     1.56366E+06    -171.566E-03     341.504E-03    -169.938E-03     92.8280E-03    -172.420E-03     341.388E-03    -169.757E-03     86.9186E-03
             753     4.55685E-03     108.854E-03    -82.5108E+06    -214.402E+06    -43.1120E+06     1.71092E+06    -172.221E-03     342.172E-03    -169.951E-03     110.899E-03    -173.505E-03     342.526E-03    -169.736E-03     103.524E-03
             754     5.31666E-03     109.002E-03    -75.8185E+06    -192.165E+06    -31.2271E+06     2.04771E+06    -172.880E-03     342.821E-03    -169.941E-03     128.688E-03    -174.724E-03     343.805E-03    -169.709E-03     119.701E-03
             755     6.07646E-03     109.171E-03    -69.0703E+06    -160.220E+06    -20.1141E+06     2.57409E+06    -173.547E-03     343.457E-03    -169.910E-03     146.254E-03    -176.116E-03     345.270E-03    -169.678E-03     135.499E-03
             756     6.83587E-03     109.361E-03    -62.8614E+06    -129.051E+06    -9.66031E+06     2.74181E+06    -174.169E-03     344.045E-03    -169.876E-03     163.471E-03    -177.652E-03     346.874E-03    -169.646E-03     150.748E-03
             757     7.59601E-03     109.570E-03    -56.2761E+06    -90.6754E+06     1.17023E+06     2.67897E+06    -174.654E-03     344.487E-03    -169.833E-03     180.346E-03    -179.275E-03     348.583E-03    -169.614E-03     165.480E-03
             758     8.35571E-03     109.801E-03    -49.5632E+06     -39.039E+06     14.2887E+06     3.23190E+06    -174.946E-03     344.723E-03    -169.777E-03     197.296E-03    -181.004E-03     350.425E-03    -169.577E-03     180.122E-03
             759     9.11645E-03     110.050E-03    -43.7230E+06     19.0286E+06     28.6691E+06     3.22658E+06    -175.148E-03     344.865E-03    -169.717E-03     215.282E-03    -183.059E-03     352.605E-03    -169.538E-03     195.539E-03
             760     9.87549E-03     110.322E-03    -39.1117E+06     50.5963E+06     43.2817E+06     1.90234E+06    -175.533E-03     345.236E-03    -169.703E-03     235.698E-03    -185.789E-03     355.406E-03    -169.503E-03     213.144E-03
             761     10.6356E-03     110.620E-03    -34.6217E+06     56.7247E+06     58.7327E+06     753.978E+03    -175.729E-03     345.464E-03    -169.735E-03     256.100E-03    -188.677E-03     358.321E-03    -169.474E-03     230.879E-03
             762     11.3961E-03     110.941E-03    -28.4885E+06     69.3619E+06     75.6000E+06     771.313E+03    -175.280E-03     345.045E-03    -169.765E-03     269.708E-03    -190.720E-03     360.411E-03    -169.446E-03     242.727E-03
             763     12.1562E-03     111.270E-03    -21.5749E+06     88.9751E+06     89.2578E+06     334.456E+03    -173.519E-03     343.283E-03    -169.764E-03     268.451E-03    -190.285E-03     360.029E-03    -169.415E-03     241.391E-03
             764     12.9148E-03     111.587E-03    -16.1270E+06     92.0398E+06     90.7492E+06    -695.584E+03    -170.625E-03     340.340E-03    -169.714E-03     244.684E-03    -186.279E-03     355.999E-03    -169.371E-03     219.843E-03
             765     13.6787E-03     111.859E-03    -11.4515E+06     91.8642E+06     89.0509E+06    -243.192E+03    -168.352E-03     338.010E-03    -169.658E-03     213.951E-03    -182.244E-03     351.929E-03    -169.330E-03     191.451E-03
             766     14.4362E-03     112.095E-03    -5.64807E+06     96.3948E+06     89.9403E+06     918.412E+03    -167.721E-03     337.350E-03    -169.629E-03     154.264E-03    -176.669E-03     346.359E-03    -169.311E-03     137.185E-03
             767     759.483E-06     109.779E-03    -108.119E+06    -283.288E+06    -105.957E+06     316.344E+03    -169.994E-03     339.848E-03    -169.854E-03     20.5299E-03    -170.011E-03     338.783E-03    -169.816E-03     19.3467E-03
             768     1.51877E-03     109.815E-03    -105.479E+06    -278.093E+06    -97.8129E+06     106.222E+03    -170.209E-03     340.110E-03    -169.901E-03     38.0284E-03    -170.321E-03     339.144E-03    -169.834E-03     35.8033E-03
             769     2.27824E-03     109.873E-03    -100.979E+06    -268.274E+06    -85.0333E+06     404.059E+03    -170.538E-03     340.472E-03    -169.934E-03     56.4673E-03    -170.815E-03     339.684E-03    -169.824E-03     53.1014E-03
             770     3.03773E-03     109.955E-03    -95.0101E+06    -251.630E+06    -70.4946E+06     1.10502E+06    -170.959E-03     340.907E-03    -169.948E-03     74.7632E-03    -171.478E-03     340.400E-03    -169.798E-03     70.1837E-03
             771     3.79737E-03     110.059E-03    -88.5798E+06    -231.291E+06    -56.1963E+06     1.61480E+06    -171.518E-03     341.467E-03    -169.948E-03     92.9397E-03    -172.370E-03     341.345E-03    -169.765E-03     87.0337E-03
             772     4.55719E-03     110.184E-03    -81.8413E+06    -214.958E+06    -42.1818E+06     1.78553E+06    -172.207E-03     342.163E-03    -169.955E-03     110.843E-03    -173.487E-03     342.511E-03    -169.736E-03     103.473E-03
             773     5.31664E-03     110.332E-03    -75.2440E+06    -193.066E+06    -30.4091E+06     1.71420E+06    -172.915E-03     342.863E-03    -169.948E-03     128.557E-03    -174.757E-03     343.840E-03    -169.711E-03     119.562E-03
             774     6.07616E-03     110.501E-03    -68.6890E+06    -161.779E+06    -19.7887E+06     1.84108E+06    -173.559E-03     343.478E-03    -169.919E-03     146.171E-03    -176.123E-03     345.281E-03    -169.684E-03     135.405E-03
             775     6.83637E-03     110.691E-03    -61.8220E+06    -129.232E+06    -8.71283E+06     2.07343E+06    -174.211E-03     344.098E-03    -169.888E-03     163.421E-03    -177.687E-03     346.922E-03    -169.654E-03     150.691E-03
             776     7.59572E-03     110.901E-03    -55.4547E+06    -90.8361E+06     2.00960E+06     1.68599E+06    -174.718E-03     344.568E-03    -169.850E-03     180.140E-03    -179.341E-03     348.665E-03    -169.628E-03     165.236E-03
             777     8.35587E-03     111.131E-03    -49.3907E+06    -41.9354E+06     13.8678E+06     2.13345E+06    -174.948E-03     344.746E-03    -169.798E-03     196.911E-03    -180.999E-03     350.433E-03    -169.597E-03     179.706E-03
             778     9.11510E-03     111.380E-03    -43.0811E+06     17.5387E+06     27.5282E+06     4.05892E+06    -175.185E-03     344.918E-03    -169.733E-03     215.272E-03    -183.087E-03     352.650E-03    -169.559E-03     195.543E-03
             779     9.87566E-03     111.653E-03    -37.4012E+06     52.8330E+06     43.9379E+06     5.11106E+06    -175.528E-03     345.247E-03    -169.718E-03     236.024E-03    -185.793E-03     355.439E-03    -169.521E-03     213.500E-03
             780     10.6357E-03     111.950E-03    -32.6707E+06     58.9458E+06     61.8919E+06     5.12299E+06    -175.625E-03     345.381E-03    -169.756E-03     256.002E-03    -188.547E-03     358.216E-03    -169.484E-03     230.888E-03
             781     11.3958E-03     112.270E-03    -28.5715E+06     73.4229E+06     78.1447E+06     3.45459E+06    -174.899E-03     344.664E-03    -169.765E-03     269.582E-03    -190.318E-03     360.015E-03    -169.439E-03     242.720E-03
             782     12.1556E-03     112.602E-03    -23.8547E+06     90.5016E+06     89.6569E+06     1.08562E+06    -173.396E-03     343.138E-03    -169.742E-03     269.006E-03    -190.204E-03     359.923E-03    -169.391E-03     241.954E-03
             783     12.9173E-03     112.917E-03    -18.0558E+06     92.2854E+06     91.2877E+06     487.616E+03    -171.280E-03     340.991E-03    -169.712E-03     244.571E-03    -186.983E-03     356.694E-03    -169.363E-03     219.645E-03
             784     13.6752E-03     113.186E-03    -11.5269E+06     92.9415E+06     90.1329E+06    -299.314E+03    -169.015E-03     338.707E-03    -169.691E-03     214.306E-03    -182.911E-03     352.630E-03    -169.359E-03     191.778E-03
             785     14.4345E-03     113.433E-03    -4.60223E+06     95.3150E+06     89.2538E+06    -611.732E+03    -167.127E-03     336.778E-03    -169.651E-03     155.367E-03    -176.054E-03     345.769E-03    -169.336E-03     138.336E-03
             786     759.134E-06     111.109E-03    -108.707E+06    -283.861E+06    -106.564E+06     268.761E+03    -170.042E-03     339.896E-03    -169.855E-03     20.7622E-03    -170.060E-03     338.831E-03    -169.818E-03     19.5722E-03
             787     1.51886E-03     111.145E-03    -105.642E+06    -278.264E+06    -97.9754E+06     329.591E+03    -170.146E-03     340.052E-03    -169.906E-03     38.2450E-03    -170.258E-03     339.086E-03    -169.839E-03     36.0230E-03
             788     2.27833E-03     111.204E-03    -101.198E+06    -268.874E+06    -85.1151E+06     186.037E+03    -170.521E-03     340.442E-03    -169.921E-03     56.5273E-03    -170.797E-03     339.651E-03    -169.810E-03     53.1642E-03
             789     3.03787E-03     111.285E-03    -95.3700E+06    -252.789E+06    -71.2809E+06      330.97E+03    -171.004E-03     340.942E-03    -169.938E-03     74.7696E-03    -171.521E-03     340.430E-03    -169.790E-03     70.1810E-03
             790     3.79743E-03     111.389E-03    -88.5422E+06    -232.569E+06    -56.9225E+06     876.911E+03    -171.604E-03     341.557E-03    -169.953E-03     92.8631E-03    -172.451E-03     341.429E-03    -169.772E-03     86.9467E-03
             791     4.55677E-03     111.515E-03    -81.8111E+06    -216.098E+06    -42.4622E+06     1.45326E+06    -172.251E-03     342.224E-03    -169.973E-03     110.716E-03    -173.529E-03     342.567E-03    -169.753E-03     103.335E-03
             792     5.31651E-03     111.663E-03    -75.3795E+06    -193.172E+06    -30.3191E+06     1.54072E+06    -172.915E-03     342.883E-03    -169.968E-03     128.446E-03    -174.755E-03     343.858E-03    -169.730E-03     119.449E-03
             793     6.07638E-03     111.832E-03    -68.9633E+06    -162.252E+06    -19.6137E+06     1.47634E+06    -173.612E-03     343.555E-03    -169.943E-03     145.996E-03    -176.179E-03     345.358E-03    -169.706E-03     135.211E-03
             794     6.83566E-03     112.021E-03    -63.4396E+06    -130.357E+06    -9.63888E+06     1.85018E+06    -174.223E-03     344.135E-03    -169.913E-03     163.279E-03    -177.703E-03     346.956E-03    -169.680E-03     150.540E-03
             795     7.59570E-03     112.232E-03    -58.9542E+06    -90.9642E+06     577.795E+03     2.18700E+06    -174.679E-03     344.550E-03    -169.871E-03     180.176E-03    -179.313E-03     348.650E-03    -169.651E-03     165.296E-03
             796     8.35501E-03     112.461E-03    -54.8283E+06    -42.4449E+06     11.8338E+06     1.73266E+06    -174.973E-03     344.790E-03    -169.817E-03     197.112E-03    -181.052E-03     350.490E-03    -169.617E-03     179.898E-03
             797     9.11580E-03     112.711E-03    -50.1195E+06     13.5392E+06     22.9234E+06     1.71076E+06    -175.188E-03     344.934E-03    -169.746E-03     215.508E-03    -183.117E-03     352.667E-03    -169.579E-03     195.743E-03
             798     9.87560E-03     112.983E-03    -44.1863E+06     49.2131E+06     36.9249E+06     3.48881E+06    -175.381E-03     345.094E-03    -169.713E-03     235.804E-03    -185.651E-03     355.275E-03    -169.536E-03     213.279E-03
             799     10.6355E-03     113.281E-03    -37.0190E+06     59.9105E+06     54.6038E+06     4.82736E+06    -175.370E-03     345.096E-03    -169.725E-03     256.018E-03    -188.302E-03     357.950E-03    -169.486E-03     230.933E-03
             800     11.3954E-03     113.601E-03    -28.4918E+06     77.4851E+06     75.6843E+06     3.75664E+06    -174.768E-03     344.503E-03    -169.735E-03     269.746E-03    -190.209E-03     359.899E-03    -169.428E-03     242.873E-03
             801     12.1578E-03     113.930E-03    -19.8284E+06     91.5737E+06     91.3427E+06     2.69722E+06    -173.533E-03     343.266E-03    -169.733E-03     268.565E-03    -190.289E-03     360.012E-03    -169.380E-03     241.531E-03
             802     12.9162E-03     114.250E-03    -12.3788E+06     92.8855E+06     93.9995E+06     3.25795E+06    -171.172E-03     340.877E-03    -169.705E-03     244.610E-03    -186.780E-03     356.498E-03    -169.351E-03     219.839E-03
             803     13.6754E-03     114.519E-03    -7.11885E+06     96.2942E+06     92.4759E+06     2.48144E+06    -168.025E-03     337.665E-03    -169.640E-03     216.505E-03    -181.909E-03     351.597E-03    -169.307E-03     194.235E-03
             804     14.4384E-03     114.759E-03    -3.65066E+06     96.0433E+06     88.9850E+06     98.8573E+03    -166.784E-03     336.332E-03    -169.548E-03     156.796E-03    -175.744E-03     345.362E-03    -169.238E-03     139.839E-03
             805     759.719E-06     112.439E-03    -108.436E+06    -284.021E+06    -106.851E+06    -141.623E+03    -170.142E-03     339.720E-03    -169.578E-03     20.7207E-03    -170.158E-03     338.653E-03    -169.543E-03     19.5315E-03
             806     1.51890E-03     112.475E-03    -105.794E+06    -278.872E+06    -98.7780E+06     188.645E+03    -170.223E-03     340.071E-03    -169.847E-03     38.2595E-03    -170.334E-03     339.102E-03    -169.784E-03     36.0382E-03
             807     2.27839E-03     112.534E-03    -101.380E+06    -269.058E+06    -85.2564E+06     568.949E+03    -170.582E-03     340.493E-03    -169.910E-03     56.4215E-03    -170.858E-03     339.701E-03    -169.799E-03     53.0646E-03
             808     3.03784E-03     112.616E-03    -95.8875E+06    -252.652E+06    -70.6869E+06     345.003E+03    -171.066E-03     341.017E-03    -169.952E-03     74.6632E-03    -171.587E-03     340.506E-03    -169.800E-03     70.0699E-03
             809     3.79720E-03     112.720E-03    -90.1657E+06    -234.326E+06    -57.6886E+06     503.744E+03    -171.630E-03     341.602E-03    -169.972E-03     92.8690E-03    -172.482E-03     341.470E-03    -169.790E-03     86.9443E-03
             810     4.55687E-03     112.846E-03    -83.6043E+06    -216.953E+06    -44.0880E+06     949.771E+03    -172.269E-03     342.257E-03    -169.988E-03     110.814E-03    -173.553E-03     342.602E-03    -169.773E-03     103.427E-03
             811     5.31639E-03     112.993E-03    -76.8330E+06    -193.491E+06    -31.4458E+06     1.15821E+06    -172.984E-03     342.972E-03    -169.988E-03     128.530E-03    -174.831E-03     343.951E-03    -169.753E-03     119.523E-03
             812     6.07580E-03     113.162E-03    -71.1662E+06    -163.863E+06    -20.7181E+06     2.04440E+06    -173.666E-03     343.637E-03    -169.970E-03     146.079E-03    -176.241E-03     345.437E-03    -169.733E-03     135.300E-03
             813     6.83572E-03     113.352E-03    -66.1006E+06    -131.682E+06    -10.7782E+06     3.01919E+06    -174.188E-03     344.126E-03    -169.939E-03     163.330E-03    -177.679E-03     346.947E-03    -169.706E-03     150.607E-03
             814     7.59540E-03     113.562E-03    -61.0769E+06    -92.4873E+06    -641.072E+03     4.13260E+06    -174.578E-03     344.464E-03    -169.886E-03     180.228E-03    -179.206E-03     348.549E-03    -169.667E-03     165.413E-03
             815     8.35593E-03     113.792E-03    -56.2806E+06    -40.5374E+06     11.5448E+06     4.41378E+06    -174.950E-03     344.773E-03    -169.823E-03     197.097E-03    -181.034E-03     350.480E-03    -169.625E-03     179.937E-03
             816     9.11495E-03     114.041E-03    -51.8544E+06     14.5659E+06     23.6791E+06     3.26120E+06    -175.186E-03     344.943E-03    -169.757E-03     215.558E-03    -183.133E-03     352.689E-03    -169.585E-03     195.802E-03
             817     9.87489E-03     114.314E-03    -45.8045E+06     46.5312E+06     37.0243E+06     2.26457E+06    -175.257E-03     344.975E-03    -169.719E-03     236.217E-03    -185.518E-03     355.132E-03    -169.535E-03     213.736E-03
             818     10.6356E-03     114.610E-03    -37.3254E+06     60.0490E+06     55.1673E+06     637.842E+03    -175.304E-03     345.022E-03    -169.717E-03     256.147E-03    -188.239E-03     357.877E-03    -169.474E-03     231.020E-03
             819     11.3974E-03     114.931E-03    -28.2803E+06     75.8264E+06     75.4522E+06    -7.74352E+03    -175.147E-03     344.884E-03    -169.737E-03     269.370E-03    -190.581E-03     360.268E-03    -169.429E-03     242.382E-03
             820     12.1546E-03     115.261E-03    -20.5203E+06     89.9985E+06     89.7820E+06     1.77020E+06    -173.396E-03     343.136E-03    -169.740E-03     268.641E-03    -190.145E-03     359.871E-03    -169.391E-03     241.624E-03
             821     12.9158E-03     115.579E-03    -15.3263E+06     93.1707E+06     91.6397E+06     3.11535E+06    -169.805E-03     339.466E-03    -169.661E-03     245.035E-03    -185.400E-03     355.072E-03    -169.316E-03     220.457E-03
             822     13.6804E-03     115.847E-03    -9.65628E+06     97.2703E+06     91.0538E+06     2.53354E+06    -167.185E-03     336.725E-03    -169.541E-03     215.291E-03    -181.020E-03     350.608E-03    -169.212E-03     193.094E-03
             823     14.4401E-03     116.090E-03    -4.41038E+06     98.5828E+06     90.5098E+06     1.36863E+06    -167.744E-03     337.218E-03    -169.474E-03     155.113E-03    -176.678E-03     346.224E-03    -169.158E-03     138.082E-03
             824     759.440E-06     113.770E-03    -108.989E+06    -284.450E+06    -106.736E+06     221.001E+03    -170.145E-03     339.799E-03    -169.655E-03     20.4895E-03    -170.163E-03     338.731E-03    -169.618E-03     19.3047E-03
             825     1.51900E-03     113.806E-03    -106.451E+06    -279.573E+06    -99.2192E+06     384.608E+03    -170.239E-03     340.124E-03    -169.885E-03     38.0381E-03    -170.351E-03     339.154E-03    -169.821E-03     35.8207E-03
             826     2.27826E-03     113.865E-03    -101.863E+06    -269.953E+06    -86.0022E+06     735.231E+03    -170.604E-03     340.545E-03    -169.941E-03     56.3429E-03    -170.879E-03     339.750E-03    -169.832E-03     52.9875E-03
             827     3.03763E-03     113.946E-03    -96.3283E+06    -253.278E+06    -71.1457E+06     1.26659E+06    -171.053E-03     341.030E-03    -169.977E-03     74.7036E-03    -171.575E-03     340.517E-03    -169.825E-03     70.1258E-03
             828     3.79725E-03     114.050E-03    -90.3763E+06    -234.086E+06    -57.0122E+06     1.08947E+06    -171.613E-03     341.606E-03    -169.993E-03     92.8598E-03    -172.468E-03     341.474E-03    -169.808E-03     86.9421E-03
             829     4.55679E-03     114.176E-03    -83.8591E+06    -217.741E+06    -43.5815E+06     915.654E+03    -172.294E-03     342.302E-03    -170.008E-03     110.778E-03    -173.578E-03     342.641E-03    -169.788E-03     103.390E-03
             830     5.31631E-03     114.324E-03    -77.7138E+06    -195.734E+06    -32.0700E+06     2.08440E+06    -173.001E-03     343.007E-03    -170.005E-03     128.550E-03    -174.847E-03     343.975E-03    -169.769E-03     119.560E-03
             831     6.07601E-03     114.493E-03    -72.0422E+06    -165.433E+06    -21.2747E+06     3.00035E+06    -173.631E-03     343.614E-03    -169.983E-03     146.155E-03    -176.204E-03     345.405E-03    -169.745E-03     135.405E-03
             832     6.83554E-03     114.683E-03    -65.5984E+06    -133.606E+06    -10.9810E+06     3.44546E+06    -174.175E-03     344.121E-03    -169.947E-03     163.344E-03    -177.658E-03     346.929E-03    -169.713E-03     150.634E-03
             833     7.59549E-03     114.892E-03    -58.5902E+06    -94.8234E+06    -325.457E+03     4.38510E+06    -174.610E-03     344.503E-03    -169.893E-03     180.239E-03    -179.224E-03     348.573E-03    -169.672E-03     165.420E-03
             834     8.35491E-03     115.122E-03    -51.4908E+06    -42.9442E+06     12.6005E+06     6.41889E+06    -174.891E-03     344.716E-03    -169.825E-03     197.392E-03    -180.947E-03     350.401E-03    -169.625E-03     180.276E-03
             835     9.11554E-03     115.372E-03    -44.8343E+06     17.0459E+06     26.9560E+06     7.42456E+06    -175.003E-03     344.748E-03    -169.745E-03     215.684E-03    -182.915E-03     352.483E-03    -169.570E-03     196.027E-03
             836     9.87630E-03     115.643E-03    -38.9716E+06     52.5597E+06     43.5290E+06     4.02354E+06    -175.333E-03     345.045E-03    -169.712E-03     235.975E-03    -185.573E-03     355.207E-03    -169.514E-03     213.514E-03
             837     10.6365E-03     115.941E-03    -33.3547E+06     61.3215E+06     62.8654E+06     1.03792E+06    -175.675E-03     345.423E-03    -169.748E-03     255.703E-03    -188.605E-03     358.269E-03    -169.474E-03     230.517E-03
             838     11.3942E-03     116.261E-03    -29.0177E+06     75.0073E+06     79.9357E+06     1.25826E+06    -174.869E-03     344.633E-03    -169.764E-03     269.849E-03    -190.293E-03     359.989E-03    -169.431E-03     242.972E-03
             839     12.1569E-03     116.593E-03    -24.3174E+06     87.8750E+06     89.0175E+06     1.70322E+06    -172.634E-03     342.340E-03    -169.707E-03     269.240E-03    -189.365E-03     359.039E-03    -169.354E-03     242.420E-03
             840     12.9190E-03     116.905E-03    -16.6533E+06     92.8180E+06     90.9807E+06     1.92418E+06    -170.065E-03     339.674E-03    -169.609E-03     244.303E-03    -185.677E-03     355.293E-03    -169.265E-03     219.628E-03
             841     13.6771E-03     117.176E-03    -10.2463E+06     98.2616E+06     91.3698E+06     1.80273E+06    -168.369E-03     337.912E-03    -169.544E-03     214.096E-03    -182.283E-03     351.874E-03    -169.214E-03     191.565E-03
             842     14.4385E-03     117.418E-03    -5.47573E+06     99.7210E+06     90.4778E+06     1.64362E+06    -167.997E-03     337.522E-03    -169.525E-03     154.641E-03    -176.979E-03     346.575E-03    -169.209E-03     137.484E-03
             843     759.236E-06     115.100E-03    -109.662E+06    -285.496E+06    -107.911E+06     270.790E+03    -170.149E-03     340.043E-03    -169.894E-03     20.6719E-03    -170.168E-03     338.973E-03    -169.860E-03     19.4733E-03
             844     1.51856E-03     115.136E-03    -106.850E+06    -280.050E+06    -99.4778E+06     546.433E+03    -170.194E-03     340.168E-03    -169.974E-03     38.1464E-03    -170.307E-03     339.196E-03    -169.910E-03     35.9337E-03
             845     2.27815E-03     115.195E-03    -102.654E+06    -271.242E+06    -87.0553E+06     638.354E+03    -170.547E-03     340.524E-03    -169.977E-03     56.4635E-03    -170.823E-03     339.726E-03    -169.870E-03     53.1074E-03
             846     3.03774E-03     115.277E-03    -96.5461E+06    -254.429E+06    -72.4061E+06     960.897E+03    -171.072E-03     341.065E-03    -169.993E-03     74.7318E-03    -171.591E-03     340.548E-03    -169.847E-03     70.1518E-03
             847     3.79716E-03     115.381E-03    -89.7948E+06    -233.947E+06    -56.9500E+06     1.24903E+06    -171.665E-03     341.681E-03    -170.016E-03     92.7744E-03    -172.515E-03     341.547E-03    -169.831E-03     86.8649E-03
             848     4.55659E-03     115.507E-03    -83.7250E+06    -219.493E+06     -42.665E+06     1.95555E+06    -172.291E-03     342.329E-03    -170.038E-03     110.726E-03    -173.571E-03     342.657E-03    -169.812E-03     103.356E-03
             849     5.31620E-03     115.654E-03    -77.0848E+06    -197.932E+06    -31.6744E+06     2.54989E+06    -172.925E-03     342.949E-03    -170.024E-03     128.530E-03    -174.763E-03     343.903E-03    -169.784E-03     119.557E-03
             850     6.07583E-03     115.823E-03    -69.9317E+06    -166.234E+06    -21.4091E+06     2.78877E+06    -173.555E-03     343.537E-03    -169.983E-03     146.128E-03    -176.113E-03     345.319E-03    -169.747E-03     135.385E-03
             851     6.83573E-03     116.013E-03    -63.2878E+06    -135.342E+06    -10.9545E+06     2.94619E+06    -174.151E-03     344.091E-03    -169.940E-03     163.395E-03    -177.618E-03     346.884E-03    -169.707E-03     150.689E-03
             852     7.59542E-03     116.223E-03    -56.9451E+06    -97.0729E+06    -438.651E+03     3.54880E+06    -174.637E-03     344.523E-03    -169.886E-03     180.361E-03    -179.243E-03     348.584E-03    -169.665E-03     165.522E-03
             853     8.35583E-03     116.452E-03    -50.5917E+06    -48.1518E+06     11.4799E+06     4.63949E+06    -174.883E-03     344.702E-03    -169.819E-03     197.263E-03    -180.921E-03     350.356E-03    -169.618E-03     180.126E-03
             854     9.11580E-03     116.702E-03    -43.1286E+06     15.2419E+06     26.0123E+06     5.52466E+06    -175.040E-03     344.778E-03    -169.738E-03     215.068E-03    -182.918E-03     352.481E-03    -169.567E-03     195.394E-03
             855     9.87547E-03     116.974E-03    -36.2059E+06     56.5835E+06     45.0743E+06     5.82417E+06    -175.381E-03     345.095E-03    -169.714E-03     235.664E-03    -185.617E-03     355.273E-03    -169.519E-03     213.195E-03
             856     10.6346E-03     117.272E-03    -31.7423E+06     62.7242E+06     63.9905E+06     6.49313E+06    -175.282E-03     345.020E-03    -169.738E-03     256.268E-03    -188.193E-03     357.855E-03    -169.463E-03     231.245E-03
             857     11.3971E-03     117.592E-03    -26.4691E+06     78.2483E+06     81.4064E+06     6.64834E+06    -174.216E-03     343.928E-03    -169.712E-03     270.020E-03    -189.605E-03     359.265E-03    -169.380E-03     243.366E-03
             858     12.1579E-03     117.919E-03    -19.6384E+06     91.0523E+06     92.9164E+06     4.24877E+06    -172.946E-03     342.600E-03    -169.654E-03     268.850E-03    -189.661E-03     359.299E-03    -169.293E-03     242.017E-03
             859     12.9171E-03     118.237E-03    -13.5435E+06     91.5667E+06     93.8648E+06     2.04595E+06    -171.267E-03     340.878E-03    -169.612E-03     243.670E-03    -186.893E-03     356.509E-03    -169.256E-03     218.804E-03
             860     13.6788E-03     118.506E-03    -7.72754E+06     97.8145E+06     93.3122E+06     3.42248E+06    -169.109E-03     338.706E-03    -169.597E-03     214.742E-03    -183.041E-03     352.687E-03    -169.261E-03     192.186E-03
             861     14.4353E-03     118.753E-03    -3.07380E+06     102.779E+06     91.4671E+06     3.47146E+06    -166.800E-03     336.348E-03    -169.548E-03     156.006E-03    -175.770E-03     345.407E-03    -169.236E-03     139.003E-03
             862     759.360E-06     116.431E-03    -110.295E+06    -286.084E+06    -108.290E+06    -8.92306E+03    -170.115E-03     340.049E-03    -169.934E-03     20.6736E-03    -170.135E-03     338.977E-03    -169.901E-03     19.4772E-03
             863     1.51879E-03     116.467E-03    -107.490E+06    -281.014E+06    -100.602E+06     299.615E+03    -170.221E-03     340.200E-03    -169.979E-03     38.1941E-03    -170.334E-03     339.226E-03    -169.918E-03     35.9734E-03
             864     2.27824E-03     116.526E-03    -103.102E+06    -271.789E+06    -87.5231E+06     511.207E+03    -170.601E-03     340.596E-03    -169.995E-03     56.5118E-03    -170.879E-03     339.797E-03    -169.889E-03     53.1543E-03
             865     3.03754E-03     116.607E-03    -97.5177E+06    -255.200E+06    -72.9785E+06     632.663E+03    -171.111E-03     341.130E-03    -170.019E-03     74.7454E-03    -171.632E-03     340.611E-03    -169.873E-03     70.1626E-03
             866     3.79693E-03     116.711E-03    -91.3748E+06    -235.539E+06    -58.3677E+06     1.15299E+06    -171.648E-03     341.685E-03    -170.037E-03     92.8259E-03    -172.502E-03     341.548E-03    -169.855E-03     86.9173E-03
             867     4.55655E-03     116.837E-03    -84.4703E+06    -220.823E+06    -44.2979E+06     1.43095E+06    -172.254E-03     342.303E-03    -170.048E-03     110.786E-03    -173.534E-03     342.627E-03    -169.827E-03     103.412E-03
             868     5.31617E-03     116.985E-03    -77.0368E+06    -198.447E+06    -32.6015E+06     1.35455E+06    -172.895E-03     342.922E-03    -170.028E-03     128.557E-03    -174.730E-03     343.874E-03    -169.791E-03     119.571E-03
             869     6.07597E-03     117.154E-03    -69.9624E+06    -167.437E+06    -22.2407E+06     1.47776E+06    -173.519E-03     343.501E-03    -169.982E-03     146.074E-03    -176.072E-03     345.276E-03    -169.749E-03     135.319E-03
             870     6.83573E-03     117.343E-03    -63.6907E+06    -136.718E+06    -12.0736E+06     2.04040E+06    -174.145E-03     344.082E-03    -169.937E-03     163.232E-03    -177.604E-03     346.865E-03    -169.707E-03     150.524E-03
             871     7.59575E-03     117.553E-03    -57.8675E+06    -99.4439E+06    -1.68608E+06     2.82689E+06    -174.662E-03     344.550E-03    -169.888E-03     180.006E-03    -179.264E-03     348.599E-03    -169.668E-03     165.152E-03
             872     8.35517E-03     117.783E-03    -52.1465E+06    -50.5548E+06     10.2622E+06     3.15254E+06    -174.909E-03     344.737E-03    -169.828E-03     196.850E-03    -180.942E-03     350.376E-03    -169.628E-03     179.687E-03
             873     9.11499E-03     118.032E-03    -47.2122E+06     12.5618E+06     23.9702E+06     3.33187E+06    -175.035E-03     344.783E-03    -169.748E-03     215.445E-03    -182.927E-03     352.482E-03    -169.578E-03     195.755E-03
             874     9.87530E-03     118.304E-03    -42.5298E+06     52.9561E+06     39.3704E+06     5.08856E+06    -175.075E-03     344.768E-03    -169.694E-03     236.276E-03    -185.319E-03     354.936E-03    -169.512E-03     213.871E-03
             875     10.6372E-03     118.602E-03    -35.9386E+06     62.4681E+06     56.5749E+06     6.79165E+06    -174.767E-03     344.439E-03    -169.671E-03     255.748E-03    -187.643E-03     357.244E-03    -169.427E-03     230.845E-03
             876     11.3973E-03     118.920E-03    -28.3064E+06     80.1945E+06     76.7077E+06     5.56846E+06    -174.384E-03     344.035E-03    -169.651E-03     268.783E-03    -189.773E-03     359.386E-03    -169.342E-03     242.033E-03
             877     12.1578E-03     119.250E-03    -21.3450E+06     92.6232E+06     91.2631E+06     4.16857E+06    -173.265E-03     342.902E-03    -169.638E-03     268.282E-03    -190.012E-03     359.638E-03    -169.285E-03     241.303E-03
             878     12.9183E-03     119.569E-03    -15.7257E+06     91.5974E+06     93.3485E+06     4.05807E+06    -170.983E-03     340.587E-03    -169.604E-03     245.376E-03    -186.626E-03     356.228E-03    -169.247E-03     220.610E-03
             879     13.6750E-03     119.837E-03    -11.8641E+06     95.6984E+06     91.6520E+06     3.26814E+06    -168.036E-03     337.572E-03    -169.536E-03     217.257E-03    -181.980E-03     351.548E-03    -169.200E-03     194.938E-03
             880     14.4398E-03     120.080E-03    -6.81022E+06     105.619E+06     91.4332E+06     2.32361E+06    -166.367E-03     335.807E-03    -169.440E-03     156.820E-03    -175.363E-03     344.888E-03    -169.126E-03     139.940E-03
             881     759.317E-06     117.762E-03    -111.256E+06    -286.989E+06    -109.040E+06     868.299E+03    -170.018E-03     339.926E-03    -169.908E-03     20.6124E-03    -170.041E-03     338.852E-03    -169.875E-03     19.4357E-03
             882     1.51874E-03     117.798E-03    -108.816E+06    -281.775E+06    -101.027E+06     482.501E+03    -170.307E-03     340.257E-03    -169.950E-03     38.2024E-03    -170.425E-03     339.281E-03    -169.889E-03     35.9868E-03
             883     2.27802E-03     117.856E-03    -104.373E+06    -272.188E+06    -88.3801E+06     361.237E+03    -170.679E-03     340.684E-03    -170.005E-03     56.5679E-03    -170.961E-03     339.885E-03    -169.900E-03     53.2123E-03
             884     3.03746E-03     117.938E-03    -98.4998E+06    -255.645E+06    -74.0558E+06     343.779E+03    -171.086E-03     341.120E-03    -170.034E-03     74.8419E-03    -171.611E-03     340.602E-03    -169.890E-03     70.2554E-03
             885     3.79707E-03     118.042E-03    -91.4561E+06    -236.222E+06    -60.0667E+06     292.674E+03    -171.616E-03     341.653E-03    -170.038E-03     92.8867E-03    -172.468E-03     341.517E-03    -169.863E-03     86.9608E-03
             886     4.55657E-03     118.168E-03    -84.3840E+06    -221.027E+06    -46.2513E+06     187.309E+03    -172.267E-03     342.309E-03    -170.043E-03     110.758E-03    -173.542E-03     342.634E-03    -169.831E-03     103.369E-03
             887     5.31618E-03     118.315E-03    -77.7106E+06    -198.893E+06    -34.2391E+06     220.423E+03    -172.930E-03     342.958E-03    -170.028E-03     128.436E-03    -174.763E-03     343.909E-03    -169.798E-03     119.436E-03
             888     6.07581E-03     118.484E-03    -71.2615E+06    -168.502E+06    -23.2452E+06     481.605E+03    -173.567E-03     343.562E-03    -169.994E-03     145.881E-03    -176.121E-03     345.332E-03    -169.763E-03     135.110E-03
             889     6.83559E-03     118.674E-03    -65.1277E+06    -138.480E+06    -13.2939E+06     1.08944E+06    -174.186E-03     344.141E-03    -169.954E-03     163.131E-03    -177.645E-03     346.915E-03    -169.726E-03     150.414E-03
             890     7.59508E-03     118.884E-03    -59.1634E+06    -102.097E+06    -3.54995E+06     1.98816E+06    -174.599E-03     344.500E-03    -169.900E-03     180.092E-03    -179.197E-03     348.536E-03    -169.684E-03     165.241E-03
             891     8.35522E-03     119.113E-03    -54.2209E+06    -52.6834E+06     8.23840E+06     3.77213E+06    -174.749E-03     344.575E-03    -169.827E-03     197.138E-03    -180.784E-03     350.207E-03    -169.630E-03     180.010E-03
             892     9.11580E-03     119.362E-03    -50.3471E+06     10.9240E+06     21.6610E+06     5.93210E+06    -174.792E-03     344.517E-03    -169.726E-03     215.635E-03    -182.688E-03     352.211E-03    -169.560E-03     196.021E-03
             893     9.87640E-03     119.634E-03    -45.8890E+06     51.6648E+06     36.9972E+06     6.28208E+06    -174.891E-03     344.547E-03    -169.656E-03     235.842E-03    -185.107E-03     354.676E-03    -169.479E-03     213.535E-03
             894     10.6358E-03     119.930E-03    -40.1368E+06     63.4889E+06     55.0504E+06     3.53834E+06    -175.014E-03     344.658E-03    -169.644E-03     255.276E-03    -187.909E-03     357.476E-03    -169.403E-03     230.293E-03
             895     11.3969E-03     120.249E-03    -32.8975E+06     78.4976E+06     74.7263E+06     2.45605E+06    -174.658E-03     344.305E-03    -169.647E-03     269.452E-03    -190.100E-03     359.692E-03    -169.339E-03     242.590E-03
             896     12.1564E-03     120.580E-03    -26.3640E+06     90.6765E+06     88.3241E+06     4.80306E+06    -172.801E-03     342.419E-03    -169.618E-03     269.289E-03    -189.553E-03     359.143E-03    -169.269E-03     242.428E-03
             897     12.9177E-03     120.895E-03    -21.2193E+06     94.0112E+06     91.1305E+06     4.57139E+06    -169.558E-03     339.075E-03    -169.517E-03     246.667E-03    -185.198E-03     354.709E-03    -169.167E-03     222.137E-03
             898     13.6835E-03     121.170E-03    -13.9846E+06     98.3207E+06     91.8521E+06     1.99153E+06    -167.259E-03     336.653E-03    -169.394E-03     217.043E-03    -181.192E-03     350.619E-03    -169.057E-03     194.802E-03
             899     14.4425E-03     121.405E-03    -6.11457E+06     107.160E+06     93.4294E+06     20.0369E+03    -167.351E-03     336.671E-03    -169.320E-03     155.552E-03    -176.356E-03     345.764E-03    -169.000E-03     138.488E-03
             900     759.606E-06     119.092E-03    -112.683E+06    -288.351E+06    -111.051E+06     125.721E+03    -170.010E-03     339.924E-03    -169.914E-03     20.5667E-03    -170.035E-03     338.848E-03    -169.888E-03     19.3741E-03
             901     1.51883E-03     119.128E-03    -109.373E+06    -282.273E+06    -102.122E+06     708.935E+03    -170.330E-03     340.283E-03    -169.953E-03     38.2331E-03    -170.448E-03     339.307E-03    -169.896E-03     36.0252E-03
             902     2.27814E-03     119.187E-03    -104.713E+06    -271.479E+06    -88.9991E+06     118.562E+03    -170.677E-03     340.687E-03    -170.010E-03     56.5245E-03    -170.960E-03     339.893E-03    -169.910E-03     53.1660E-03
             903     3.03756E-03     119.269E-03    -98.5665E+06    -254.918E+06    -75.0946E+06    -683.206E+03    -171.093E-03     341.129E-03    -170.036E-03     74.7599E-03    -171.618E-03     340.616E-03    -169.899E-03     70.1599E-03
             904     3.79695E-03     119.373E-03    -92.1132E+06    -236.296E+06    -61.6382E+06    -964.232E+03    -171.649E-03     341.692E-03    -170.042E-03     92.7641E-03    -172.501E-03     341.556E-03    -169.875E-03     86.8253E-03
             905     4.55653E-03     119.498E-03    -85.3153E+06    -220.840E+06    -47.9001E+06    -956.064E+03    -172.280E-03     342.331E-03    -170.051E-03     110.593E-03    -173.555E-03     342.658E-03    -169.847E-03     103.194E-03
             906     5.31606E-03     119.646E-03    -78.6254E+06    -199.480E+06    -35.9463E+06    -921.372E+03    -172.924E-03     342.961E-03    -170.037E-03     128.366E-03    -174.756E-03     343.910E-03    -169.814E-03     119.358E-03
             907     6.07567E-03     119.815E-03    -72.2389E+06    -169.913E+06    -25.2413E+06    -210.556E+03    -173.566E-03     343.566E-03    -170.000E-03     146.010E-03    -176.118E-03     345.332E-03    -169.775E-03     135.239E-03
             908     6.83531E-03     120.004E-03    -66.3650E+06    -140.339E+06    -15.3056E+06     784.270E+03    -174.097E-03     344.049E-03    -169.952E-03     163.429E-03    -177.556E-03     346.819E-03    -169.729E-03     150.723E-03
             909     7.59546E-03     120.214E-03    -61.5588E+06    -105.025E+06    -6.13507E+06     1.89618E+06    -174.420E-03     344.302E-03    -169.882E-03     180.341E-03    -179.014E-03     348.322E-03    -169.671E-03     165.529E-03
             910     8.35568E-03     120.443E-03    -56.3672E+06    -57.5945E+06     5.00294E+06     4.45462E+06    -174.666E-03     344.460E-03    -169.794E-03     197.170E-03    -180.692E-03     350.067E-03    -169.604E-03     180.085E-03
             911     9.11558E-03     120.692E-03    -50.1168E+06     7.30761E+06     18.3505E+06     7.11593E+06    -174.696E-03     344.377E-03    -169.682E-03     215.370E-03    -182.566E-03     352.043E-03    -169.528E-03     195.801E-03
             912     9.87592E-03     120.963E-03    -43.0441E+06     53.1977E+06     36.7952E+06     7.54534E+06    -174.723E-03     344.330E-03    -169.606E-03     236.015E-03    -184.900E-03     354.436E-03    -169.437E-03     213.795E-03
             913     10.6376E-03     121.261E-03    -36.6827E+06     66.9135E+06     60.3148E+06     6.44591E+06    -174.903E-03     344.502E-03    -169.600E-03     256.774E-03    -187.806E-03     357.338E-03    -169.342E-03     231.883E-03
             914     11.3969E-03     121.579E-03    -32.6176E+06     76.7260E+06     78.3108E+06     6.20390E+06    -174.332E-03     343.908E-03    -169.576E-03     271.275E-03    -189.792E-03     359.298E-03    -169.249E-03     244.569E-03
             915     12.1595E-03     121.909E-03    -27.1277E+06     90.6389E+06     90.3908E+06     5.98260E+06    -172.587E-03     342.098E-03    -169.511E-03     270.634E-03    -189.375E-03     358.850E-03    -169.151E-03     243.873E-03
             916     12.9211E-03     122.225E-03    -18.1729E+06     99.7393E+06     96.0053E+06     3.65257E+06    -169.956E-03     339.377E-03    -169.421E-03     245.538E-03    -185.630E-03     355.062E-03    -169.060E-03     220.889E-03
             917     13.6804E-03     122.492E-03    -10.4136E+06     102.830E+06     94.9230E+06     234.729E+03    -167.813E-03     337.146E-03    -169.333E-03     215.705E-03    -181.711E-03     351.096E-03    -168.992E-03     193.328E-03
             918     14.4406E-03     122.743E-03    -4.56601E+06     107.454E+06     93.9870E+06    -1.03073E+06    -166.889E-03     336.154E-03    -169.265E-03     155.236E-03    -175.832E-03     345.190E-03    -168.944E-03     138.215E-03
             919     759.096E-06     120.422E-03    -113.526E+06    -287.215E+06    -111.584E+06    -671.227E+03    -170.239E-03     340.133E-03    -169.894E-03     20.6623E-03    -170.270E-03     339.065E-03    -169.870E-03     19.4564E-03
             920     1.51864E-03     120.459E-03    -109.969E+06    -282.493E+06    -103.594E+06    -961.541E+03    -170.329E-03     340.363E-03    -170.034E-03     38.1147E-03    -170.448E-03     339.389E-03    -169.983E-03     35.8791E-03
             921     2.27800E-03     120.518E-03    -104.936E+06    -270.041E+06    -91.5607E+06    -1.06742E+06    -170.636E-03     340.684E-03    -170.048E-03     56.2859E-03    -170.917E-03     339.900E-03    -169.962E-03     52.9163E-03
             922     3.03738E-03     120.599E-03    -99.1883E+06    -253.720E+06    -77.4215E+06    -1.52008E+06    -171.090E-03     341.148E-03    -170.058E-03     74.6059E-03    -171.614E-03     340.643E-03    -169.933E-03     70.0054E-03
             923     3.79688E-03     120.703E-03    -93.0095E+06    -236.265E+06    -62.7573E+06    -1.49550E+06    -171.641E-03     341.706E-03    -170.065E-03     92.7279E-03    -172.493E-03     341.571E-03    -169.902E-03     86.7909E-03
             924     4.55627E-03     120.829E-03    -86.9283E+06    -219.815E+06    -49.6172E+06    -1.75890E+06    -172.228E-03     342.289E-03    -170.062E-03     110.628E-03    -173.509E-03     342.625E-03    -169.865E-03     103.227E-03
             925     5.31596E-03     120.976E-03    -80.5992E+06    -199.378E+06    -38.3157E+06    -2.16957E+06    -172.837E-03     342.871E-03    -170.034E-03     128.459E-03    -174.673E-03     343.824E-03    -169.819E-03     119.451E-03
             926     6.07581E-03     121.145E-03    -74.1932E+06    -172.175E+06    -28.3931E+06    -1.67659E+06    -173.408E-03     343.387E-03    -169.979E-03     146.129E-03    -175.958E-03     345.145E-03    -169.764E-03     135.365E-03
             927     6.83577E-03     121.335E-03    -67.6531E+06    -143.088E+06    -18.2153E+06    -359.284E+03    -173.867E-03     343.777E-03    -169.911E-03     163.494E-03    -177.315E-03     346.530E-03    -169.696E-03     150.812E-03
             928     7.59580E-03     121.544E-03    -60.7624E+06    -108.060E+06    -7.66416E+06     1.47070E+06    -174.316E-03     344.143E-03    -169.827E-03     180.533E-03    -178.888E-03     348.138E-03    -169.621E-03     165.765E-03
             929     8.35576E-03     121.773E-03    -53.8058E+06    -63.8829E+06     3.12429E+06     3.61416E+06    -174.537E-03     344.265E-03    -169.727E-03     197.624E-03    -180.529E-03     349.830E-03    -169.541E-03     180.580E-03
             930     9.11625E-03     122.022E-03    -46.9363E+06     2.26368E+06     17.9128E+06     6.27934E+06    -174.433E-03     344.031E-03    -169.598E-03     216.185E-03    -182.260E-03     351.648E-03    -169.444E-03     196.707E-03
             931     9.87736E-03     122.293E-03    -41.5640E+06     52.3479E+06     36.5081E+06     8.33422E+06    -174.437E-03     343.928E-03    -169.492E-03     237.172E-03    -184.613E-03     354.037E-03    -169.325E-03     215.029E-03
             932     10.6379E-03     122.589E-03    -37.6245E+06     65.9331E+06     56.4171E+06     10.1546E+06    -174.441E-03     343.880E-03    -169.439E-03     257.779E-03    -187.328E-03     356.704E-03    -169.198E-03     233.040E-03
             933     11.4010E-03     122.909E-03    -30.9894E+06     80.9929E+06     77.6013E+06     9.42863E+06    -174.130E-03     343.529E-03    -169.400E-03     271.284E-03    -189.556E-03     358.909E-03    -169.084E-03     244.693E-03
             934     12.1611E-03     123.237E-03    -21.7488E+06     95.3551E+06     93.7195E+06     4.96814E+06    -172.882E-03     342.246E-03    -169.363E-03     269.806E-03    -189.643E-03     358.996E-03    -169.002E-03     242.972E-03
             935     12.9213E-03     123.555E-03    -13.7076E+06     100.648E+06     99.2814E+06     3.45753E+06    -170.552E-03     339.869E-03    -169.317E-03     246.116E-03    -186.226E-03     355.564E-03    -168.946E-03     221.396E-03
             936     13.6809E-03     123.825E-03    -8.93949E+06     108.215E+06     99.2184E+06     3.13790E+06    -167.720E-03     336.961E-03    -169.241E-03     218.776E-03    -181.735E-03     351.041E-03    -168.889E-03     196.423E-03
             937     14.4437E-03     124.067E-03    -5.73772E+06     109.475E+06     95.0817E+06    -188.270E+03    -165.857E-03     334.986E-03    -169.128E-03     158.525E-03    -174.904E-03     344.124E-03    -168.803E-03     141.573E-03
             938     759.438E-06     121.754E-03    -113.518E+06    -284.686E+06    -111.541E+06    -752.717E+03    -170.394E-03     340.268E-03    -169.874E-03     20.8166E-03    -170.428E-03     339.213E-03    -169.855E-03     19.6195E-03
             939     1.51833E-03     121.790E-03    -110.789E+06    -279.994E+06    -103.207E+06    -1.99707E+06    -170.364E-03     340.463E-03    -170.098E-03     38.2650E-03    -170.492E-03     339.502E-03    -170.047E-03     36.0192E-03
             940     2.27774E-03     121.849E-03    -106.355E+06    -267.688E+06    -93.2919E+06    -3.23962E+06    -170.620E-03     340.706E-03    -170.086E-03     56.4757E-03    -170.910E-03     339.939E-03    -170.010E-03     53.0815E-03
             941     3.03724E-03     121.930E-03    -100.812E+06    -253.143E+06    -80.5092E+06    -3.35209E+06    -171.023E-03     341.092E-03    -170.069E-03     74.7746E-03    -171.550E-03     340.597E-03    -169.959E-03     70.1579E-03
             942     3.79671E-03     122.034E-03    -94.6248E+06    -237.124E+06    -65.6341E+06    -2.40353E+06    -171.530E-03     341.585E-03    -170.056E-03     92.9374E-03    -172.383E-03     341.451E-03    -169.903E-03     87.0071E-03
             943     4.55646E-03     122.160E-03    -87.5877E+06    -217.328E+06    -51.2950E+06    -2.55563E+06    -172.112E-03     342.142E-03    -170.030E-03     110.855E-03    -173.395E-03     342.491E-03    -169.844E-03     103.467E-03
             944     5.31615E-03     122.307E-03    -80.4700E+06    -198.009E+06    -39.3911E+06    -3.72675E+06    -172.713E-03     342.701E-03    -169.988E-03     128.742E-03    -174.545E-03     343.659E-03    -169.782E-03     119.741E-03
             945     6.07586E-03     122.475E-03    -73.4593E+06    -173.843E+06    -29.8941E+06    -3.86698E+06    -173.210E-03     343.126E-03    -169.916E-03     146.436E-03    -175.748E-03     344.873E-03    -169.707E-03     135.674E-03
             946     6.83604E-03     122.664E-03    -65.9391E+06    -145.647E+06    -19.9443E+06    -2.83959E+06    -173.666E-03     343.490E-03    -169.824E-03     163.865E-03    -177.090E-03     346.221E-03    -169.617E-03     151.202E-03
             947     7.59642E-03     122.874E-03    -58.5886E+06    -112.506E+06    -9.45534E+06    -877.266E+03    -174.030E-03     343.748E-03    -169.718E-03     181.207E-03    -178.566E-03     347.704E-03    -169.517E-03     166.495E-03
             948     8.35698E-03     123.103E-03    -52.4379E+06    -69.4558E+06     1.72922E+06     1.59170E+06    -174.078E-03     343.665E-03    -169.587E-03     198.366E-03    -180.033E-03     349.182E-03    -169.402E-03     181.408E-03
             949     9.11816E-03     123.350E-03    -47.3213E+06    -5.84158E+06     15.6767E+06     5.71034E+06    -173.997E-03     343.420E-03    -169.423E-03     216.845E-03    -181.791E-03     350.980E-03    -169.267E-03     197.471E-03
             950     9.87940E-03     123.622E-03    -42.5321E+06     46.9933E+06     33.3539E+06     10.3370E+06    -174.234E-03     343.522E-03    -169.288E-03     237.886E-03    -184.405E-03     353.612E-03    -169.128E-03     215.826E-03
             951     10.6413E-03     123.918E-03    -35.4735E+06     65.6739E+06     55.4627E+06     11.6243E+06    -174.627E-03     343.867E-03    -169.240E-03     258.044E-03    -187.491E-03     356.677E-03    -169.007E-03     233.343E-03
             952     11.4012E-03     124.237E-03    -27.2628E+06     86.8442E+06     78.9680E+06     8.57595E+06    -174.355E-03     343.576E-03    -169.221E-03     271.800E-03    -189.751E-03     358.955E-03    -168.912E-03     245.227E-03
             953     12.1621E-03     124.569E-03    -20.9317E+06     99.7949E+06     93.9574E+06     5.55765E+06    -172.712E-03     341.898E-03    -169.186E-03     271.262E-03    -189.474E-03     358.667E-03    -168.831E-03     244.512E-03
             954     12.9233E-03     124.883E-03    -16.5456E+06     99.8829E+06     98.3191E+06     4.15025E+06    -169.642E-03     338.750E-03    -169.108E-03     248.365E-03    -185.324E-03     354.442E-03    -168.737E-03     223.850E-03
             955     13.6871E-03     125.154E-03    -9.66268E+06     109.763E+06     100.809E+06     3.48272E+06    -166.385E-03     335.357E-03    -168.972E-03     220.323E-03    -180.385E-03     349.420E-03    -168.613E-03     198.202E-03
             956     14.4476E-03     125.395E-03    -2.76462E+06     112.640E+06     99.7333E+06     1.90427E+06    -165.594E-03     334.422E-03    -168.828E-03     160.902E-03    -174.664E-03     343.593E-03    -168.489E-03     143.989E-03
             957     759.049E-06     123.085E-03    -113.849E+06    -282.925E+06    -111.471E+06    -444.197E+03    -170.164E-03     340.183E-03    -170.019E-03     20.7049E-03    -170.201E-03     339.136E-03    -170.001E-03     19.5179E-03
             958     1.51871E-03     123.121E-03    -110.843E+06    -274.942E+06    -103.021E+06    -2.04863E+06    -170.293E-03     340.339E-03    -170.046E-03     38.3739E-03    -170.428E-03     339.403E-03    -170.002E-03     36.1362E-03
             959     2.27794E-03     123.180E-03    -105.971E+06    -263.121E+06    -90.4234E+06    -3.96723E+06    -170.581E-03     340.625E-03    -170.044E-03     56.6364E-03    -170.879E-03     339.876E-03    -169.961E-03     53.2378E-03
             960     3.03736E-03     123.261E-03    -100.781E+06    -253.142E+06    -77.9734E+06    -4.03139E+06    -170.912E-03     340.940E-03    -170.027E-03     74.9995E-03    -171.443E-03     340.439E-03    -169.904E-03     70.3887E-03
             961     3.79709E-03     123.364E-03    -94.5550E+06    -235.967E+06    -66.2396E+06    -4.36375E+06    -171.354E-03     341.330E-03    -169.976E-03     93.2794E-03    -172.206E-03     341.200E-03    -169.828E-03     87.3493E-03
             962     4.55675E-03     123.490E-03    -87.0491E+06    -214.345E+06    -54.0492E+06    -5.88340E+06    -171.894E-03     341.805E-03    -169.910E-03     111.366E-03    -173.172E-03     342.169E-03    -169.744E-03     103.970E-03
             963     5.31664E-03     123.637E-03    -79.6414E+06    -196.736E+06    -41.7781E+06    -6.28433E+06    -172.451E-03     342.296E-03    -169.846E-03     129.337E-03    -174.273E-03     343.259E-03    -169.654E-03     120.348E-03
             964     6.07695E-03     123.805E-03    -72.3379E+06    -173.278E+06    -30.8063E+06    -6.21788E+06    -172.977E-03     342.735E-03    -169.757E-03     147.128E-03    -175.503E-03     344.477E-03    -169.555E-03     136.396E-03
             965     6.83726E-03     123.994E-03    -65.7743E+06    -147.352E+06    -21.9124E+06    -6.02343E+06    -173.432E-03     343.079E-03    -169.646E-03     164.668E-03    -176.844E-03     345.798E-03    -169.447E-03     152.025E-03
             966     7.59778E-03     124.203E-03    -60.0177E+06    -118.283E+06    -13.0292E+06    -3.99449E+06    -173.556E-03     343.068E-03    -169.512E-03     181.854E-03    -178.071E-03     346.988E-03    -169.319E-03     167.194E-03
             967     8.35913E-03     124.431E-03    -53.9784E+06    -75.9034E+06    -1.62800E+06    -397.170E+03    -173.588E-03     342.936E-03    -169.347E-03     199.104E-03    -179.504E-03     348.396E-03    -169.167E-03     182.268E-03
             968     9.12020E-03     124.679E-03    -48.1475E+06    -17.2074E+06     11.5472E+06     5.18939E+06    -173.815E-03     342.980E-03    -169.165E-03     217.588E-03    -181.579E-03     350.479E-03    -169.013E-03     198.293E-03
             969     9.88198E-03     124.949E-03    -41.7985E+06     40.0596E+06     28.6353E+06     10.2588E+06    -174.181E-03     343.198E-03    -169.017E-03     238.678E-03    -184.310E-03     353.238E-03    -168.871E-03     216.698E-03
             970     10.6427E-03     125.247E-03    -35.5029E+06     67.3586E+06     50.1756E+06     9.83836E+06    -174.519E-03     343.469E-03    -168.950E-03     259.850E-03    -187.368E-03     356.285E-03    -168.745E-03     235.244E-03
             971     11.4041E-03     125.567E-03    -30.1670E+06     89.5067E+06     75.2451E+06     8.31754E+06    -173.841E-03     342.751E-03    -168.911E-03     274.868E-03    -189.262E-03     358.165E-03    -168.620E-03     248.484E-03
             972     12.1664E-03     125.896E-03    -24.3723E+06     102.813E+06     93.1895E+06     7.00479E+06    -171.858E-03     340.688E-03    -168.830E-03     275.120E-03    -188.661E-03     357.500E-03    -168.478E-03     248.665E-03
             973     12.9291E-03     126.212E-03    -15.8967E+06     103.391E+06     100.870E+06     4.03447E+06    -169.068E-03     337.775E-03    -168.707E-03     251.591E-03    -184.772E-03     353.497E-03    -168.329E-03     227.282E-03
             974     13.6898E-03     126.479E-03    -9.42962E+06     110.491E+06     102.802E+06     2.17442E+06    -166.515E-03     335.077E-03    -168.562E-03     222.290E-03    -180.560E-03     349.183E-03    -168.195E-03     200.139E-03
             975     14.4562E-03     126.720E-03    -4.74804E+06     113.702E+06     100.414E+06     2.83170E+06    -165.852E-03     334.292E-03    -168.440E-03     161.826E-03    -174.978E-03     343.513E-03    -168.096E-03     144.851E-03
             976     759.460E-06     124.415E-03    -115.611E+06    -280.371E+06    -113.704E+06    -738.651E+03    -169.940E-03     339.963E-03    -170.023E-03     20.6977E-03    -169.987E-03     338.934E-03    -170.017E-03     19.5068E-03
             977     1.51864E-03     124.452E-03    -112.265E+06    -269.322E+06    -104.537E+06    -2.48568E+06    -170.111E-03     340.030E-03    -169.919E-03     38.4121E-03    -170.258E-03     339.125E-03    -169.888E-03     36.1865E-03
             978     2.27819E-03     124.510E-03    -107.523E+06    -259.090E+06    -90.8047E+06    -3.76276E+06    -170.332E-03     340.227E-03    -169.895E-03     56.7326E-03    -170.642E-03     339.498E-03    -169.817E-03     53.3578E-03
             979     3.03787E-03     124.591E-03    -101.101E+06    -250.825E+06    -76.6376E+06    -4.76861E+06    -170.689E-03     340.551E-03    -169.862E-03     75.2658E-03    -171.224E-03     340.060E-03    -169.735E-03     70.6695E-03
             980     3.79761E-03     124.695E-03    -94.1222E+06    -231.202E+06    -66.2711E+06    -6.58642E+06    -171.076E-03     340.856E-03    -169.780E-03     93.6880E-03    -171.930E-03     340.747E-03    -169.640E-03     87.7624E-03
             981     4.55781E-03     124.820E-03    -88.0913E+06    -210.161E+06    -56.5765E+06    -8.37372E+06    -171.511E-03     341.188E-03    -169.677E-03     111.927E-03    -172.791E-03     341.573E-03    -169.528E-03     104.554E-03
             982     5.31815E-03     124.967E-03    -81.6277E+06    -194.919E+06    -45.1636E+06    -9.43707E+06    -172.033E-03     341.613E-03    -169.580E-03     129.973E-03    -173.856E-03     342.585E-03    -169.405E-03     121.016E-03
             983     6.07849E-03     125.134E-03    -74.7613E+06    -172.400E+06    -34.1291E+06    -9.65165E+06    -172.554E-03     342.018E-03    -169.464E-03     147.966E-03    -175.074E-03     343.760E-03    -169.276E-03     137.286E-03
             984     6.83913E-03     125.323E-03    -68.8677E+06    -148.598E+06    -24.8377E+06    -8.90844E+06    -172.939E-03     342.267E-03    -169.328E-03     165.738E-03    -176.346E-03     344.974E-03    -169.137E-03     153.174E-03
             985     7.60021E-03     125.531E-03    -62.7770E+06    -122.343E+06    -16.5253E+06    -7.27061E+06    -173.106E-03     342.271E-03    -169.165E-03     183.001E-03    -177.611E-03     346.167E-03    -168.979E-03     168.414E-03
             986     8.36164E-03     125.758E-03    -56.1961E+06    -83.6198E+06    -6.73080E+06    -3.93563E+06    -173.201E-03     342.173E-03    -168.973E-03     200.628E-03    -179.089E-03     347.584E-03    -168.804E-03     183.893E-03
             987     9.12381E-03     126.007E-03    -49.0769E+06    -31.4437E+06     5.71467E+06     1.73751E+06    -173.480E-03     342.250E-03    -168.769E-03     219.949E-03    -181.203E-03     349.670E-03    -168.624E-03     200.786E-03
             988     9.88474E-03     126.278E-03    -42.5241E+06     30.8084E+06     22.7999E+06     8.09365E+06    -173.817E-03     342.399E-03    -168.582E-03     241.991E-03    -183.923E-03     352.396E-03    -168.451E-03     220.192E-03
             989     10.6475E-03     126.575E-03    -37.3119E+06     71.1601E+06     45.7700E+06     10.3469E+06    -173.654E-03     342.101E-03    -168.447E-03     264.027E-03    -186.509E-03     354.944E-03    -168.267E-03     239.735E-03
             990     11.4107E-03     126.895E-03    -30.6263E+06     90.3742E+06     70.0523E+06     8.68811E+06    -172.809E-03     341.136E-03    -168.326E-03     278.965E-03    -188.218E-03     356.553E-03    -168.063E-03     252.936E-03
             991     12.1741E-03     127.223E-03    -22.1007E+06     106.171E+06     92.3313E+06     6.95101E+06    -171.209E-03     339.406E-03    -168.197E-03     279.140E-03    -188.008E-03     356.236E-03    -167.857E-03     252.978E-03
             992     12.9372E-03     127.540E-03    -16.8427E+06     108.005E+06     102.595E+06     5.29379E+06    -169.111E-03     337.182E-03    -168.070E-03     255.229E-03    -184.881E-03     352.978E-03    -167.690E-03     231.049E-03
             993     13.7020E-03     127.806E-03    -12.2549E+06     112.201E+06     104.100E+06     4.29282E+06    -167.569E-03     335.540E-03    -167.971E-03     226.240E-03    -181.751E-03     349.774E-03    -167.595E-03     204.015E-03
             994     14.4573E-03     128.051E-03    -6.44478E+06     116.431E+06     102.723E+06     2.69630E+06    -166.206E-03     334.107E-03    -167.902E-03     165.796E-03    -175.463E-03     343.457E-03    -167.548E-03     148.676E-03
             995     759.350E-06     125.746E-03    -117.341E+06    -275.109E+06    -116.330E+06    -2.56143E+06    -169.742E-03     339.438E-03    -169.696E-03     20.8990E-03    -169.802E-03     338.442E-03    -169.708E-03     19.6894E-03
             996     1.51898E-03     125.782E-03    -114.726E+06    -265.094E+06    -108.087E+06    -3.06177E+06    -169.773E-03     339.407E-03    -169.634E-03     38.6132E-03    -169.933E-03     338.532E-03    -169.624E-03     36.3958E-03
             997     2.27886E-03     125.840E-03    -110.384E+06    -254.443E+06    -96.1216E+06    -4.29769E+06    -169.931E-03     339.497E-03    -169.566E-03     57.1787E-03    -170.253E-03     338.803E-03    -169.518E-03     53.8316E-03
             998     3.03878E-03     125.921E-03    -104.403E+06    -244.400E+06    -82.1224E+06    -6.98676E+06    -170.273E-03     339.775E-03    -169.501E-03     75.8070E-03    -170.824E-03     339.325E-03    -169.406E-03     71.2282E-03
             999     3.79896E-03     126.024E-03    -97.5305E+06    -225.692E+06    -68.8552E+06    -9.32095E+06    -170.625E-03     340.036E-03    -169.411E-03     94.3673E-03    -171.496E-03     339.959E-03    -169.286E-03     88.4666E-03
            1000     4.55929E-03     126.149E-03    -90.2536E+06    -205.513E+06    -56.8243E+06    -10.4722E+06    -171.023E-03     340.317E-03    -169.294E-03     112.749E-03    -172.314E-03     340.722E-03    -169.149E-03     105.426E-03
            1001     5.31997E-03     126.295E-03    -83.7291E+06    -190.711E+06    -46.4271E+06    -11.8306E+06    -171.429E-03     340.588E-03    -169.159E-03     130.994E-03    -173.254E-03     341.573E-03    -168.993E-03     122.113E-03
            1002     6.08106E-03     126.463E-03    -77.9761E+06    -171.166E+06    -37.5640E+06    -12.6850E+06    -171.765E-03     340.754E-03    -168.989E-03     149.390E-03    -174.282E-03     342.495E-03    -168.815E-03     138.822E-03
            1003     6.84259E-03     126.650E-03    -71.3759E+06    -149.365E+06    -27.7955E+06    -11.9209E+06    -172.075E-03     340.871E-03    -168.796E-03     167.634E-03    -175.464E-03     343.557E-03    -168.615E-03     155.235E-03
            1004     7.60445E-03     126.858E-03    -64.7463E+06    -123.788E+06    -19.2048E+06    -10.7184E+06    -172.360E-03     340.939E-03    -168.579E-03     185.492E-03    -176.845E-03     344.810E-03    -168.402E-03     171.084E-03
            1005     8.36649E-03     127.085E-03    -58.2685E+06    -90.0189E+06    -10.8072E+06    -8.60459E+06    -172.533E-03     340.874E-03    -168.341E-03     203.974E-03    -178.404E-03     346.249E-03    -168.180E-03     187.407E-03
            1006     9.12875E-03     127.333E-03    -51.8754E+06    -45.5621E+06    -159.846E+03    -3.36244E+06    -172.650E-03     340.734E-03    -168.085E-03     224.386E-03    -180.333E-03     348.072E-03    -167.944E-03     205.475E-03
            1007     9.89303E-03     127.604E-03    -44.8072E+06     17.6056E+06     15.3461E+06     3.89617E+06    -172.725E-03     340.534E-03    -167.809E-03     246.927E-03    -182.785E-03     350.453E-03    -167.693E-03     225.469E-03
            1008     10.6562E-03     127.901E-03    -36.3585E+06     68.6100E+06     39.2759E+06     9.20536E+06    -172.581E-03     340.157E-03    -167.576E-03     269.078E-03    -185.404E-03     352.980E-03    -167.426E-03     245.184E-03
            1009     11.4206E-03     128.220E-03    -29.3386E+06     94.7550E+06     66.4773E+06     8.16651E+06    -172.237E-03     339.635E-03    -167.398E-03     284.625E-03    -187.664E-03     355.101E-03    -167.161E-03     258.935E-03
            1010     12.1849E-03     128.550E-03    -23.9706E+06     105.457E+06     88.2127E+06     6.25799E+06    -171.200E-03     338.458E-03    -167.258E-03     284.325E-03    -188.050E-03     355.341E-03    -166.935E-03     258.374E-03
            1011     12.9493E-03     128.866E-03    -17.1443E+06     107.421E+06     101.588E+06     8.62007E+06    -169.723E-03     336.891E-03    -167.168E-03     260.935E-03    -185.596E-03     352.790E-03    -166.791E-03     236.870E-03
            1012     13.7082E-03     129.137E-03    -10.7909E+06     117.779E+06     108.188E+06     6.33575E+06    -167.776E-03     334.889E-03    -167.113E-03     231.792E-03    -182.034E-03     349.213E-03    -166.727E-03     209.691E-03
            1013     14.4767E-03     129.379E-03    -4.84451E+06     120.727E+06     107.554E+06     2.06306E+06    -167.479E-03     334.586E-03    -167.107E-03     169.569E-03    -176.791E-03     343.998E-03    -166.737E-03     152.339E-03
            1014     759.918E-06     127.076E-03    -118.504E+06    -267.353E+06    -116.547E+06    -2.84525E+06    -169.033E-03     338.197E-03    -169.164E-03     21.2931E-03    -169.110E-03     337.242E-03    -169.187E-03     20.0923E-03
            1015     1.51987E-03     127.111E-03    -115.593E+06    -260.197E+06    -110.084E+06    -4.45913E+06    -169.188E-03     338.201E-03    -169.013E-03     39.1277E-03    -169.355E-03     337.354E-03    -169.019E-03     36.9216E-03
            1016     2.28004E-03     127.169E-03    -110.781E+06    -248.457E+06    -99.4179E+06    -6.22342E+06    -169.405E-03     338.352E-03    -168.947E-03     58.0663E-03    -169.731E-03     337.691E-03    -168.923E-03     54.7461E-03
            1017     3.04042E-03     127.249E-03    -105.227E+06    -235.614E+06    -84.9759E+06    -8.76091E+06    -169.652E-03     338.532E-03    -168.879E-03     76.7722E-03    -170.212E-03     338.128E-03    -168.810E-03     72.2429E-03
            1018     3.80110E-03     127.352E-03    -98.9249E+06    -218.644E+06    -69.8924E+06    -11.5825E+06    -169.918E-03     338.696E-03    -168.778E-03     95.5949E-03    -170.797E-03     338.651E-03    -168.667E-03     89.7687E-03
            1019     4.56213E-03     127.476E-03    -92.0538E+06    -201.534E+06    -57.2029E+06    -13.0095E+06    -170.215E-03     338.846E-03    -168.631E-03     114.402E-03    -171.509E-03     339.264E-03    -168.492E-03     107.182E-03
            1020     5.32344E-03     127.622E-03    -85.7070E+06    -185.436E+06    -47.1480E+06    -13.7047E+06    -170.443E-03     338.882E-03    -168.439E-03     133.119E-03    -172.270E-03     339.883E-03    -168.281E-03     124.391E-03
            1021     6.08542E-03     127.788E-03    -79.5811E+06    -167.172E+06    -38.4045E+06    -14.7149E+06    -170.620E-03     338.819E-03    -168.199E-03     151.955E-03    -173.128E-03     340.562E-03    -168.033E-03     141.589E-03
            1022     6.84808E-03     127.976E-03    -73.0663E+06    -148.688E+06    -30.0116E+06    -15.1562E+06    -170.775E-03     338.696E-03    -167.921E-03     170.797E-03    -174.136E-03     341.357E-03    -167.750E-03     158.657E-03
            1023     7.61121E-03     128.183E-03    -66.5672E+06    -124.578E+06    -22.2915E+06    -14.4941E+06    -170.947E-03     338.556E-03    -167.609E-03     189.626E-03    -175.392E-03     342.387E-03    -167.443E-03     175.544E-03
            1024     8.37503E-03     128.410E-03    -61.0442E+06    -94.2387E+06    -14.1650E+06    -12.2086E+06    -171.202E-03     338.485E-03    -167.283E-03     208.972E-03    -177.039E-03     343.812E-03    -167.129E-03     192.759E-03
            1025     9.13971E-03     128.657E-03    -55.1694E+06    -55.8486E+06    -4.32382E+06    -8.21433E+06    -171.391E-03     338.341E-03    -166.950E-03     230.032E-03    -179.032E-03     345.600E-03    -166.810E-03     211.504E-03
            1026     9.90356E-03     128.928E-03    -48.0933E+06     4.19458E+06     10.5248E+06    -2.06713E+06    -171.470E-03     338.066E-03    -166.596E-03     253.152E-03    -181.472E-03     347.880E-03    -166.479E-03     232.137E-03
            1027     10.6700E-03     129.225E-03    -41.3659E+06     59.9901E+06     30.5405E+06     2.87545E+06    -171.721E-03     337.996E-03    -166.274E-03     275.512E-03    -184.525E-03     350.777E-03    -166.149E-03     251.997E-03
            1028     11.4360E-03     129.545E-03    -34.5877E+06     95.0647E+06     55.5349E+06     5.55327E+06    -171.872E-03     337.914E-03    -166.042E-03     291.344E-03    -187.299E-03     353.394E-03    -165.852E-03     266.044E-03
            1029     12.2011E-03     129.876E-03    -27.8906E+06     105.226E+06     81.4127E+06     6.68769E+06    -171.475E-03     337.398E-03    -165.923E-03     291.908E-03    -188.388E-03     354.349E-03    -165.628E-03     266.265E-03
            1030     12.9640E-03     130.192E-03    -21.0304E+06     104.625E+06     99.3568E+06     5.39716E+06    -170.472E-03     336.365E-03    -165.893E-03     269.339E-03    -186.485E-03     352.387E-03    -165.518E-03     245.367E-03
            1031     13.7302E-03     130.467E-03    -12.1022E+06     122.209E+06     111.705E+06     4.97746E+06    -169.756E-03     335.703E-03    -165.947E-03     237.794E-03    -184.188E-03     350.203E-03    -165.548E-03     215.456E-03
            1032     14.4869E-03     130.702E-03    -4.63331E+06     125.695E+06     111.766E+06     3.56251E+06    -171.318E-03     337.450E-03    -166.133E-03     173.483E-03    -180.825E-03     347.064E-03    -165.750E-03     155.666E-03
            1033     760.653E-06     128.403E-03    -115.991E+06    -258.908E+06    -114.020E+06    -2.69851E+06    -167.957E-03     336.163E-03    -168.206E-03     21.5452E-03    -168.036E-03     335.243E-03    -168.233E-03     20.3728E-03
            1034     1.52154E-03     128.438E-03    -113.155E+06    -251.962E+06    -106.978E+06    -5.40841E+06    -168.274E-03     336.289E-03    -168.015E-03     39.7040E-03    -168.443E-03     335.473E-03    -168.021E-03     37.5434E-03
            1035     2.28237E-03     128.496E-03    -109.228E+06    -240.463E+06    -97.4537E+06    -8.19722E+06    -168.463E-03     336.426E-03    -167.963E-03     59.0090E-03    -168.792E-03     335.796E-03    -167.943E-03     55.7458E-03
            1036     3.04339E-03     128.576E-03    -103.651E+06    -227.007E+06    -84.0268E+06    -10.4847E+06    -168.592E-03     336.466E-03    -167.874E-03     78.1551E-03    -169.151E-03     336.095E-03    -167.815E-03     73.7197E-03
            1037     3.80484E-03     128.678E-03    -97.6912E+06    -210.647E+06    -69.8605E+06    -12.4719E+06    -168.689E-03     336.411E-03    -167.722E-03     97.5402E-03    -169.563E-03     336.393E-03    -167.624E-03     91.8633E-03
            1038     4.56684E-03     128.802E-03    -91.9775E+06    -196.220E+06    -57.5445E+06    -14.0787E+06    -168.749E-03     336.252E-03    -167.503E-03     116.988E-03    -170.034E-03     336.680E-03    -167.373E-03     109.972E-03
            1039     5.32967E-03     128.946E-03    -85.2689E+06    -179.886E+06    -46.8723E+06    -15.4426E+06    -168.852E-03     336.071E-03    -167.219E-03     136.441E-03    -170.662E-03     337.076E-03    -167.069E-03     127.968E-03
            1040     6.09307E-03     129.112E-03    -78.5409E+06    -162.273E+06    -37.6480E+06    -16.3478E+06    -168.960E-03     335.846E-03    -166.886E-03     156.050E-03    -171.439E-03     337.579E-03    -166.725E-03     146.003E-03
            1041     6.85716E-03     129.298E-03    -72.9866E+06    -145.596E+06    -30.4830E+06    -16.8257E+06    -168.971E-03     335.477E-03    -166.506E-03     175.672E-03    -172.294E-03     338.112E-03    -166.342E-03     163.922E-03
            1042     7.62254E-03     129.505E-03    -68.2234E+06    -123.922E+06    -23.9279E+06    -16.5167E+06    -169.048E-03     335.136E-03    -166.087E-03     195.360E-03    -173.446E-03     338.920E-03    -165.929E-03     181.747E-03
            1043     8.38845E-03     129.731E-03    -63.1356E+06    -97.3275E+06    -16.0578E+06    -14.7914E+06    -169.317E-03     334.976E-03    -165.660E-03     215.536E-03    -175.096E-03     340.232E-03    -165.507E-03     199.851E-03
            1044     9.15416E-03     129.978E-03    -57.5463E+06    -61.1415E+06    -6.52084E+06    -12.1198E+06    -169.653E-03     334.884E-03    -165.231E-03     237.309E-03    -177.233E-03     342.061E-03    -165.092E-03     219.338E-03
            1045     9.92225E-03     130.249E-03    -51.8402E+06    -7.94536E+06     6.84757E+06    -7.17922E+06    -170.268E-03     335.078E-03    -164.809E-03     261.343E-03    -180.207E-03     344.784E-03    -164.689E-03     240.880E-03
            1046     10.6888E-03     130.546E-03    -44.9846E+06     52.7662E+06     27.6963E+06    -1.63221E+06    -171.162E-03     335.610E-03    -164.448E-03     284.737E-03    -183.948E-03     348.342E-03    -164.321E-03     261.733E-03
            1047     11.4552E-03     130.867E-03    -37.5194E+06     89.2289E+06     52.4109E+06     2.28713E+06    -171.786E-03     335.989E-03    -164.203E-03     301.071E-03    -187.222E-03     351.457E-03    -164.016E-03     276.244E-03
            1048     12.2225E-03     131.199E-03    -29.6251E+06     102.800E+06     78.1195E+06     5.09218E+06    -172.468E-03     336.580E-03    -164.112E-03     302.417E-03    -189.492E-03     353.638E-03    -163.827E-03     277.016E-03
            1049     12.9886E-03     131.522E-03    -21.2728E+06     109.877E+06     98.8845E+06     3.39318E+06    -172.952E-03     337.156E-03    -164.204E-03     277.038E-03    -189.123E-03     353.355E-03    -163.838E-03     252.932E-03
            1050     13.7473E-03     131.793E-03    -13.6991E+06     119.554E+06     110.495E+06     1.29802E+06    -174.072E-03     338.566E-03    -164.494E-03     245.097E-03    -188.756E-03     353.307E-03    -164.095E-03     222.136E-03
            1051     14.5052E-03     132.047E-03    -6.44831E+06     126.006E+06     112.701E+06     2.61012E+06    -177.026E-03     342.016E-03    -164.990E-03     180.089E-03    -186.805E-03     351.893E-03    -164.599E-03     161.450E-03
            1052     761.772E-06     129.727E-03    -111.864E+06    -249.336E+06    -110.213E+06    -3.29753E+06    -166.683E-03     333.318E-03    -166.635E-03     22.0108E-03    -166.760E-03     332.433E-03    -166.663E-03     20.8768E-03
            1053     1.52342E-03     129.763E-03    -108.822E+06    -242.327E+06    -102.585E+06    -5.98111E+06    -166.832E-03     333.414E-03    -166.581E-03     40.6376E-03    -166.998E-03     332.630E-03    -166.585E-03     38.5475E-03
            1054     2.28533E-03     129.820E-03    -104.829E+06    -231.545E+06    -92.0121E+06    -8.20092E+06    -166.807E-03     333.296E-03    -166.489E-03     60.3316E-03    -167.129E-03     332.691E-03    -166.462E-03     57.1944E-03
            1055     3.04786E-03     129.899E-03    -100.139E+06    -218.188E+06    -79.9924E+06    -10.6038E+06    -166.723E-03     333.028E-03    -166.305E-03     80.2391E-03    -167.273E-03     332.680E-03    -166.244E-03     75.9839E-03
            1056     3.81089E-03     130.000E-03    -94.7030E+06    -202.887E+06    -67.8066E+06    -12.8791E+06    -166.633E-03     332.672E-03    -166.039E-03     100.377E-03    -167.491E-03     332.669E-03    -165.946E-03     94.9350E-03
            1057     4.57485E-03     130.123E-03    -88.7417E+06    -188.972E+06    -56.0959E+06    -14.8602E+06    -166.545E-03     332.249E-03    -165.703E-03     120.620E-03    -167.801E-03     332.681E-03    -165.581E-03     113.908E-03
            1058     5.33953E-03     130.267E-03    -82.6837E+06    -173.562E+06    -45.9066E+06    -16.6012E+06    -166.490E-03     331.791E-03    -165.302E-03     140.946E-03    -168.261E-03     332.786E-03    -165.160E-03     132.853E-03
            1059     6.10517E-03     130.431E-03    -76.7752E+06    -158.450E+06    -37.0619E+06    -17.2329E+06    -166.442E-03     331.289E-03    -164.846E-03     161.433E-03    -168.870E-03     332.988E-03    -164.691E-03     151.853E-03
            1060     6.87195E-03     130.616E-03    -71.3741E+06    -141.497E+06    -28.9827E+06    -17.1349E+06    -166.486E-03     330.835E-03    -164.350E-03     182.090E-03    -169.748E-03     333.425E-03    -164.186E-03     170.894E-03
            1061     7.63921E-03     130.821E-03    -66.2086E+06    -121.903E+06    -21.6986E+06    -17.0517E+06    -166.685E-03     330.513E-03    -163.828E-03     203.023E-03    -171.012E-03     334.234E-03    -163.663E-03     190.026E-03
            1062     8.40744E-03     131.048E-03    -60.5920E+06    -98.1009E+06    -13.9056E+06    -16.1710E+06    -166.991E-03     330.291E-03    -163.300E-03     224.348E-03    -172.675E-03     335.451E-03    -163.139E-03     209.367E-03
            1063     9.17733E-03     131.295E-03    -54.6680E+06    -63.6305E+06    -4.30374E+06    -13.7580E+06    -167.697E-03     330.480E-03    -162.783E-03     247.054E-03    -175.162E-03     337.537E-03    -162.633E-03     229.850E-03
            1064     9.94578E-03     131.566E-03    -48.3242E+06    -15.9331E+06     9.13242E+06    -9.43558E+06    -168.962E-03     331.272E-03    -162.310E-03     272.260E-03    -178.815E-03     340.869E-03    -162.171E-03     252.511E-03
            1065     10.7157E-03     131.865E-03    -41.8036E+06     45.5008E+06     28.4467E+06    -3.51663E+06    -170.589E-03     332.506E-03    -161.917E-03     296.858E-03    -183.323E-03     345.170E-03    -161.780E-03     274.526E-03
            1066     11.4857E-03     132.189E-03    -34.5257E+06     84.7307E+06     52.9245E+06     985.013E+03    -173.002E-03     334.721E-03    -161.719E-03     313.139E-03    -188.515E-03     350.258E-03    -161.527E-03     288.639E-03
            1067     12.2527E-03     132.524E-03    -26.3893E+06     100.206E+06     75.8655E+06     2.34948E+06    -175.513E-03     337.290E-03    -161.777E-03     313.186E-03    -192.720E-03     354.539E-03    -161.504E-03     287.655E-03
            1068     13.0137E-03     132.853E-03    -18.1736E+06     111.397E+06     94.8138E+06     3.23818E+06    -177.350E-03     339.461E-03    -162.111E-03     287.213E-03    -193.745E-03     355.913E-03    -161.772E-03     262.719E-03
            1069     13.7721E-03     133.130E-03    -11.8525E+06     117.904E+06     109.254E+06     2.68958E+06    -180.241E-03     342.993E-03    -162.751E-03     255.609E-03    -195.310E-03     358.122E-03    -162.359E-03     231.771E-03
            1070     14.5259E-03     133.387E-03    -6.63470E+06     126.686E+06     114.404E+06     1.93812E+06    -185.611E-03     349.297E-03    -163.686E-03     187.275E-03    -195.738E-03     359.521E-03    -163.288E-03     167.425E-03
            1071     763.257E-06     131.047E-03    -108.567E+06    -238.109E+06    -107.585E+06    -3.93320E+06    -164.611E-03     329.047E-03    -164.436E-03     22.7486E-03    -164.691E-03     328.208E-03    -164.471E-03     21.6735E-03
            1072     1.52657E-03     131.082E-03    -106.132E+06    -232.503E+06    -100.047E+06    -6.66703E+06    -164.426E-03     328.804E-03    -164.378E-03     42.2725E-03    -164.593E-03     328.059E-03    -164.387E-03     40.2866E-03
            1073     2.29048E-03     131.139E-03    -101.640E+06    -223.216E+06    -88.4908E+06    -8.80812E+06    -164.222E-03     328.394E-03    -164.172E-03     62.7240E-03    -164.539E-03     327.814E-03    -164.143E-03     59.7536E-03
            1074     3.05497E-03     131.217E-03    -95.9485E+06    -208.813E+06    -76.3003E+06    -11.2079E+06    -163.952E-03     327.819E-03    -163.866E-03     83.4081E-03    -164.487E-03     327.492E-03    -163.806E-03     79.3935E-03
            1075     3.82050E-03     131.317E-03    -89.7232E+06    -194.955E+06    -64.2338E+06    -13.2975E+06    -163.712E-03     327.190E-03    -163.478E-03     104.269E-03    -164.538E-03     327.190E-03    -163.387E-03     99.1548E-03
            1076     4.58677E-03     131.438E-03    -83.7606E+06    -181.497E+06    -52.7291E+06    -14.8683E+06    -163.465E-03     326.484E-03    -163.019E-03     125.333E-03    -164.674E-03     326.904E-03    -162.898E-03     119.044E-03
            1077     5.35421E-03     131.581E-03    -78.2863E+06    -167.017E+06    -42.6187E+06    -16.0784E+06    -163.188E-03     325.674E-03    -162.486E-03     146.723E-03    -164.898E-03     326.635E-03    -162.343E-03     139.162E-03
            1078     6.12286E-03     131.744E-03    -73.2001E+06    -153.737E+06    -33.6737E+06    -17.0811E+06    -163.015E-03     324.909E-03    -161.893E-03     168.388E-03    -165.365E-03     326.549E-03    -161.732E-03     159.439E-03
            1079     6.89261E-03     131.927E-03    -68.0829E+06    -137.429E+06    -25.6845E+06    -17.6576E+06    -163.091E-03     324.349E-03    -161.258E-03     190.494E-03    -166.257E-03     326.858E-03    -161.089E-03     180.022E-03
            1080     7.66364E-03     132.132E-03    -62.5995E+06    -118.956E+06    -17.7673E+06    -17.7887E+06    -163.496E-03     324.112E-03    -160.615E-03     212.939E-03    -167.707E-03     327.728E-03    -160.441E-03     200.761E-03
            1081     8.43553E-03     132.358E-03    -57.0881E+06    -96.6971E+06    -10.1397E+06    -17.3854E+06    -164.278E-03     324.270E-03    -159.991E-03     235.553E-03    -169.834E-03     329.307E-03    -159.819E-03     221.444E-03
            1082     9.20713E-03     132.605E-03    -51.3646E+06    -65.4212E+06    -997.842E+03    -15.6360E+06    -165.611E-03     325.027E-03    -159.416E-03     259.655E-03    -172.953E-03     331.956E-03    -159.252E-03     243.329E-03
            1083     9.98036E-03     132.878E-03    -45.4180E+06    -21.8373E+06     12.5549E+06    -11.4521E+06    -167.912E-03     326.848E-03    -158.936E-03     285.922E-03    -177.675E-03     336.335E-03    -158.776E-03     266.980E-03
            1084     10.7523E-03     133.180E-03    -39.2711E+06     37.6345E+06     30.9766E+06    -4.71873E+06    -171.512E-03     330.132E-03    -158.621E-03     310.103E-03    -184.239E-03     342.765E-03    -158.463E-03     288.278E-03
            1085     11.5219E-03     133.508E-03    -34.2337E+06     80.6981E+06     49.0114E+06     120.749E+03    -175.967E-03     334.552E-03    -158.586E-03     325.954E-03    -191.601E-03     350.210E-03    -158.408E-03     301.546E-03
            1086     12.2853E-03     133.853E-03    -29.3755E+06     101.868E+06     65.9009E+06    -308.677E+03    -180.012E-03     338.910E-03    -158.897E-03     325.802E-03    -197.470E-03     356.435E-03    -158.673E-03     299.989E-03
            1087     13.0476E-03     134.184E-03    -23.1499E+06     107.610E+06     86.4044E+06    -1.70161E+06    -183.850E-03     343.471E-03    -159.622E-03     299.146E-03    -200.634E-03     360.307E-03    -159.312E-03     273.811E-03
            1088     13.8022E-03     134.474E-03    -14.8237E+06     114.440E+06     107.001E+06     1.23222E+06    -189.765E-03     350.543E-03    -160.778E-03     265.750E-03    -205.285E-03     366.110E-03    -160.388E-03     240.429E-03
            1089     14.5449E-03     134.743E-03    -6.65919E+06     129.122E+06     116.577E+06     2.25115E+06    -197.449E-03     359.772E-03    -162.323E-03     195.219E-03    -207.966E-03     370.389E-03    -161.918E-03     173.650E-03
            1090     765.394E-06     132.360E-03    -102.917E+06    -226.761E+06    -100.988E+06    -3.18902E+06    -161.315E-03     322.512E-03    -161.197E-03     23.6547E-03    -161.391E-03     321.710E-03    -161.224E-03     22.6677E-03
            1091     1.53172E-03     132.395E-03    -100.737E+06    -221.973E+06    -94.0150E+06    -6.23584E+06    -160.851E-03     321.888E-03    -161.037E-03     44.1342E-03    -161.011E-03     321.174E-03    -161.039E-03     42.3079E-03
            1092     2.29837E-03     132.450E-03    -96.0253E+06    -212.886E+06    -83.5648E+06    -9.71204E+06    -160.522E-03     321.224E-03    -160.702E-03     65.4999E-03    -160.822E-03     320.668E-03    -160.672E-03     62.7559E-03
            1093     3.06593E-03     132.527E-03    -90.6424E+06    -199.831E+06    -72.8807E+06    -12.4222E+06    -160.145E-03     320.429E-03    -160.284E-03     87.1793E-03    -160.651E-03     320.113E-03    -160.227E-03     83.4776E-03
            1094     3.83426E-03     132.626E-03    -85.5351E+06    -188.158E+06    -61.2048E+06    -13.7924E+06    -159.697E-03     319.483E-03    -159.786E-03     109.191E-03    -160.483E-03     319.473E-03    -159.695E-03     104.498E-03
            1095     4.60394E-03     132.745E-03    -79.6508E+06    -174.498E+06    -49.3717E+06    -14.9106E+06    -159.191E-03     318.385E-03    -159.194E-03     131.528E-03    -160.344E-03     318.777E-03    -159.072E-03     125.780E-03
            1096     5.37507E-03     132.885E-03    -74.0067E+06    -161.408E+06    -38.4665E+06    -15.8244E+06    -158.758E-03     317.275E-03    -158.517E-03     154.307E-03    -160.387E-03     318.177E-03    -158.367E-03     147.419E-03
            1097     6.14771E-03     133.047E-03    -68.6542E+06    -147.604E+06    -28.9725E+06    -16.7745E+06    -158.586E-03     316.362E-03    -157.776E-03     177.528E-03    -160.829E-03     317.919E-03    -157.607E-03     169.376E-03
            1098     6.92176E-03     133.229E-03    -63.4942E+06    -132.420E+06    -21.1760E+06    -17.8669E+06    -158.831E-03     315.837E-03    -157.007E-03     201.174E-03    -161.867E-03     318.238E-03    -156.829E-03     191.592E-03
            1099     7.69694E-03     133.434E-03    -58.3733E+06    -115.676E+06    -13.3924E+06    -17.7106E+06    -159.658E-03     315.917E-03    -156.258E-03     225.030E-03    -163.713E-03     319.389E-03    -156.073E-03     213.842E-03
            1100     8.47258E-03     133.660E-03    -53.9543E+06    -93.2108E+06    -5.84112E+06    -17.4160E+06    -161.257E-03     316.831E-03    -155.574E-03     249.041E-03    -166.656E-03     321.722E-03    -155.389E-03     235.953E-03
            1101     9.24897E-03     133.909E-03    -50.0893E+06    -65.6655E+06     3.02050E+06    -16.1799E+06    -163.928E-03     318.945E-03    -155.017E-03     274.004E-03    -171.146E-03     325.742E-03    -154.834E-03     258.601E-03
            1102     10.0239E-03     134.184E-03    -45.6887E+06    -26.2611E+06     14.8938E+06    -12.9064E+06    -168.234E-03     322.885E-03    -154.652E-03     300.563E-03    -177.916E-03     332.268E-03    -154.473E-03     282.333E-03
            1103     10.7966E-03     134.493E-03    -39.9762E+06     26.3333E+06     32.2186E+06    -7.20680E+06    -174.088E-03     328.655E-03    -154.566E-03     325.943E-03    -186.873E-03     341.297E-03    -154.385E-03     304.452E-03
            1104     11.5635E-03     134.830E-03    -32.6053E+06     74.7580E+06     53.8172E+06     290.753E+03    -180.465E-03     335.316E-03    -154.851E-03     342.571E-03    -196.351E-03     351.197E-03    -154.643E-03     318.090E-03
            1105     12.3300E-03     135.181E-03    -26.3524E+06     111.959E+06     72.2336E+06     2.14970E+06    -186.997E-03     342.556E-03    -155.560E-03     340.788E-03    -204.887E-03     360.544E-03    -155.323E-03     314.307E-03
            1106     13.0848E-03     135.527E-03    -20.2215E+06     108.260E+06     86.5834E+06    -807.639E+03    -194.456E-03     351.290E-03    -156.833E-03     312.076E-03    -211.801E-03     368.700E-03    -156.528E-03     285.234E-03
            1107     13.8285E-03     135.827E-03    -14.0045E+06     108.927E+06     105.023E+06    -2.05438E+06    -202.900E-03     361.590E-03    -158.690E-03     277.378E-03    -219.086E-03     377.813E-03    -158.303E-03     249.763E-03
            1108     14.5666E-03     136.115E-03    -7.17518E+06     129.714E+06     116.291E+06    -366.033E+03    -212.287E-03     373.283E-03    -160.997E-03     203.858E-03    -223.309E-03     384.408E-03    -160.593E-03     180.006E-03
            1109     769.298E-06     133.663E-03    -98.0090E+06    -216.834E+06    -97.0059E+06    -3.57197E+06    -156.657E-03     313.022E-03    -156.365E-03     24.8267E-03    -156.727E-03     312.254E-03    -156.393E-03     23.9380E-03
            1110     1.53871E-03     133.696E-03    -94.5436E+06    -210.331E+06    -88.3512E+06    -6.72323E+06    -156.082E-03     312.355E-03    -156.273E-03     46.2516E-03    -156.229E-03     311.674E-03    -156.273E-03     44.6110E-03
            1111     2.30929E-03     133.751E-03    -90.3004E+06    -201.863E+06    -79.2098E+06    -9.81202E+06    -155.519E-03     311.391E-03    -155.871E-03     68.8188E-03    -155.796E-03     310.857E-03    -155.844E-03     66.3732E-03
            1112     3.08065E-03     133.826E-03    -86.1539E+06    -191.573E+06    -69.0217E+06    -12.1669E+06    -154.901E-03     310.246E-03    -155.345E-03     91.7755E-03    -155.371E-03     309.928E-03    -155.288E-03     88.4906E-03
            1113     3.85346E-03     133.923E-03    -81.3699E+06    -180.655E+06    -57.4811E+06    -14.0740E+06    -154.186E-03     308.895E-03    -154.709E-03     115.250E-03    -154.919E-03     308.861E-03    -154.616E-03     111.090E-03
            1114     4.62788E-03     134.040E-03    -75.9797E+06    -167.909E+06    -46.1553E+06    -15.4538E+06    -153.503E-03     307.464E-03    -153.961E-03     139.104E-03    -154.580E-03     307.806E-03    -153.838E-03     134.019E-03
            1115     5.40393E-03     134.179E-03    -70.5743E+06    -156.134E+06    -35.5194E+06    -16.3656E+06    -153.045E-03     306.177E-03    -153.132E-03     163.514E-03    -154.568E-03     306.994E-03    -152.981E-03     157.422E-03
            1116     6.18160E-03     134.338E-03    -65.2329E+06    -142.087E+06    -26.1600E+06    -16.9569E+06    -153.094E-03     305.350E-03    -152.256E-03     188.542E-03    -155.201E-03     306.793E-03    -152.087E-03     181.319E-03
            1117     6.96064E-03     134.520E-03    -60.3106E+06    -127.529E+06    -17.4517E+06    -17.0810E+06    -153.925E-03     305.325E-03    -151.400E-03     213.862E-03    -156.803E-03     307.583E-03    -151.215E-03     205.309E-03
            1118     7.74045E-03     134.724E-03    -56.2222E+06    -111.913E+06    -9.83592E+06    -17.1140E+06    -155.694E-03     306.316E-03    -150.622E-03     239.128E-03    -159.576E-03     309.627E-03    -150.428E-03     229.007E-03
            1119     8.52084E-03     134.952E-03    -52.3981E+06    -90.2989E+06    -1.92223E+06    -15.7469E+06    -158.694E-03     308.684E-03    -149.990E-03     264.085E-03    -163.913E-03     313.400E-03    -149.793E-03     252.068E-03
            1120     9.29966E-03     135.205E-03    -49.1967E+06    -64.1903E+06     7.69369E+06    -13.8101E+06    -163.454E-03     313.047E-03    -149.594E-03     289.846E-03    -170.529E-03     319.697E-03    -149.391E-03     275.374E-03
            1121     10.0759E-03     135.487E-03    -46.3919E+06    -26.4362E+06     19.4109E+06    -11.9647E+06    -169.985E-03     319.480E-03    -149.495E-03     317.784E-03    -179.647E-03     328.827E-03    -149.292E-03     300.169E-03
            1122     10.8484E-03     135.804E-03    -42.8114E+06     19.6457E+06     36.4616E+06    -8.42827E+06    -177.915E-03     327.682E-03    -149.767E-03     343.937E-03    -190.821E-03     340.402E-03    -149.551E-03     322.662E-03
            1123     11.6191E-03     136.153E-03    -36.5854E+06     68.0189E+06     58.3500E+06    -4.81003E+06    -187.338E-03     337.847E-03    -150.509E-03     359.563E-03    -203.565E-03     354.020E-03    -150.263E-03     334.571E-03
            1124     12.3756E-03     136.519E-03    -27.3010E+06     110.025E+06     77.9549E+06    -384.358E+03    -197.722E-03     349.552E-03    -151.830E-03     356.249E-03    -216.231E-03     368.134E-03    -151.560E-03     328.303E-03
            1125     13.1248E-03     136.879E-03    -19.8759E+06     115.002E+06     93.5543E+06    -1.15324E+06    -208.241E-03     362.102E-03    -153.861E-03     326.744E-03    -226.401E-03     380.335E-03    -153.531E-03     297.628E-03
            1126     13.8616E-03     137.202E-03    -12.9370E+06     109.036E+06     105.317E+06    -3.90692E+06    -219.361E-03     375.914E-03    -156.553E-03     290.277E-03    -236.424E-03     393.020E-03    -156.166E-03     259.571E-03
            1127     14.5829E-03     137.502E-03    -5.51306E+06     122.035E+06     111.863E+06    -947.722E+03    -230.372E-03     390.124E-03    -159.752E-03     214.386E-03    -241.997E-03     401.845E-03    -159.362E-03     187.639E-03
            1128     774.097E-06     134.953E-03    -94.2566E+06    -205.175E+06    -93.3647E+06    -4.78398E+06    -150.333E-03     300.262E-03    -149.930E-03     26.2811E-03    -150.404E-03     299.537E-03    -149.962E-03     25.5074E-03
            1129     1.54865E-03     134.984E-03    -90.4848E+06    -198.927E+06    -86.5098E+06    -7.62365E+06    -149.673E-03     299.535E-03    -149.862E-03     48.7366E-03    -149.810E-03     298.891E-03    -149.875E-03     47.3198E-03
            1130     2.32395E-03     135.037E-03    -88.0462E+06    -191.695E+06    -77.8351E+06    -10.2452E+06    -148.893E-03     298.294E-03    -149.402E-03     72.9132E-03    -149.154E-03     297.784E-03    -149.385E-03     70.8163E-03
            1131     3.10081E-03     135.111E-03    -84.2911E+06    -182.998E+06    -67.0279E+06    -12.6087E+06    -148.003E-03     296.772E-03    -148.769E-03     97.3627E-03    -148.440E-03     296.450E-03    -148.716E-03     94.5616E-03
            1132     3.87926E-03     135.205E-03    -79.0551E+06    -172.210E+06    -55.4592E+06    -14.7158E+06    -147.107E-03     295.101E-03    -147.995E-03     122.316E-03    -147.779E-03     295.037E-03    -147.908E-03     118.776E-03
            1133     4.65944E-03     135.320E-03    -73.5785E+06    -161.621E+06    -44.2293E+06    -16.0895E+06    -146.373E-03     293.485E-03    -147.111E-03     147.822E-03    -147.355E-03     293.754E-03    -146.991E-03     143.497E-03
            1134     5.44153E-03     135.456E-03    -67.9789E+06    -150.497E+06    -33.7907E+06    -16.7794E+06    -146.166E-03     292.332E-03    -146.165E-03     174.032E-03    -147.557E-03     293.039E-03    -146.018E-03     168.837E-03
            1135     6.22536E-03     135.615E-03    -63.0794E+06    -137.842E+06    -24.5100E+06    -16.6284E+06    -146.851E-03     292.076E-03    -145.225E-03     200.817E-03    -148.791E-03     293.369E-03    -145.056E-03     194.606E-03
            1136     7.01013E-03     135.797E-03    -59.0650E+06    -124.528E+06    -15.6627E+06    -15.6605E+06    -148.729E-03     293.104E-03    -144.375E-03     227.770E-03    -151.411E-03     295.174E-03    -144.187E-03     220.322E-03
            1137     7.79509E-03     136.003E-03    -55.9368E+06    -107.371E+06    -7.10068E+06    -14.5286E+06    -152.128E-03     295.826E-03    -143.697E-03     254.393E-03    -155.812E-03     298.947E-03    -143.496E-03     245.388E-03
            1138     8.57856E-03     136.234E-03    -53.7008E+06    -89.7505E+06     523.860E+03    -13.1160E+06    -157.204E-03     300.484E-03    -143.280E-03     280.604E-03    -162.242E-03     305.009E-03    -143.070E-03     269.614E-03
            1139     9.35988E-03     136.494E-03    -51.2946E+06    -61.6134E+06     11.0334E+06    -10.9793E+06    -164.221E-03     307.418E-03    -143.197E-03     307.946E-03    -171.181E-03     313.945E-03    -142.978E-03     294.328E-03
            1140     10.1377E-03     136.786E-03    -48.5949E+06    -24.4759E+06     24.7115E+06    -8.72476E+06    -173.414E-03     316.935E-03    -143.522E-03     336.222E-03    -183.109E-03     326.301E-03    -143.292E-03     319.063E-03
            1141     10.9110E-03     137.114E-03    -44.2162E+06     20.6289E+06     43.7143E+06    -7.02798E+06    -184.679E-03     329.024E-03    -144.346E-03     361.444E-03    -197.804E-03     341.944E-03    -144.093E-03     339.968E-03
            1142     11.6722E-03     137.478E-03    -37.9872E+06     70.6768E+06     64.5947E+06    -7.73431E+06    -197.576E-03     343.334E-03    -145.758E-03     376.788E-03    -214.303E-03     359.996E-03    -145.483E-03     350.667E-03
            1143     12.4282E-03     137.865E-03    -30.3759E+06     99.1229E+06     77.4884E+06    -7.26344E+06    -211.442E-03     359.312E-03    -147.869E-03     372.928E-03    -230.725E-03     378.623E-03    -147.582E-03     342.790E-03
            1144     13.1662E-03     138.248E-03    -19.9498E+06     120.162E+06     97.8687E+06    -4.90113E+06    -224.874E-03     375.680E-03    -150.806E-03     341.432E-03    -243.970E-03     394.858E-03    -150.462E-03     309.302E-03
            1145     13.8894E-03     138.591E-03    -12.2667E+06     110.991E+06     102.586E+06    -5.14792E+06    -238.273E-03     392.714E-03    -154.441E-03     303.912E-03    -256.308E-03     410.813E-03    -154.071E-03     269.446E-03
            1146     14.6001E-03     138.923E-03    -7.40119E+06     109.285E+06     102.126E+06    -2.80748E+06    -250.013E-03     408.616E-03    -158.602E-03     225.174E-03    -262.234E-03     420.911E-03    -158.240E-03     195.221E-03
            1147     780.331E-06     136.223E-03    -90.2272E+06    -190.898E+06    -90.0905E+06    -5.15428E+06    -142.177E-03     283.940E-03    -141.763E-03     27.8999E-03    -142.251E-03     283.271E-03    -141.806E-03     27.2622E-03
            1148     1.56122E-03     136.254E-03    -88.6620E+06    -188.538E+06    -84.9964E+06    -8.00896E+06    -141.309E-03     282.954E-03    -141.645E-03     51.5317E-03    -141.442E-03     282.342E-03    -141.668E-03     50.3783E-03
            1149     2.34338E-03     136.304E-03    -85.6610E+06    -181.639E+06    -76.2501E+06    -10.5932E+06    -140.415E-03     281.505E-03    -141.091E-03     77.2631E-03    -140.653E-03     281.009E-03    -141.084E-03     75.5592E-03
            1150     3.12692E-03     136.376E-03    -81.6405E+06    -173.121E+06    -65.5290E+06    -13.4708E+06    -139.417E-03     279.780E-03    -140.363E-03     103.386E-03    -139.807E-03     279.448E-03    -140.321E-03     101.112E-03
            1151     3.91220E-03     136.468E-03    -76.9881E+06    -164.323E+06    -54.7174E+06    -15.3469E+06    -138.486E-03     277.980E-03    -139.494E-03     130.051E-03    -139.079E-03     277.868E-03    -139.418E-03     127.187E-03
            1152     4.69963E-03     136.580E-03    -72.4440E+06    -155.494E+06    -44.5232E+06    -16.3331E+06    -138.043E-03     276.580E-03    -138.537E-03     157.415E-03    -138.910E-03     276.760E-03    -138.429E-03     153.906E-03
            1153     5.48885E-03     136.715E-03    -68.7910E+06    -145.755E+06    -35.0397E+06    -16.2570E+06    -138.566E-03     276.142E-03    -137.576E-03     185.419E-03    -139.809E-03     276.719E-03    -137.441E-03     181.164E-03
            1154     6.27894E-03     136.874E-03    -65.9932E+06    -135.510E+06    -25.9997E+06    -14.9190E+06    -140.383E-03     277.091E-03    -136.707E-03     213.894E-03    -142.144E-03     278.205E-03    -136.545E-03     208.728E-03
            1155     7.06944E-03     137.057E-03    -63.8960E+06    -121.892E+06    -17.1037E+06    -13.2316E+06    -143.910E-03     279.931E-03    -136.021E-03     242.455E-03    -146.392E-03     281.799E-03    -135.837E-03     236.106E-03
            1156     7.85891E-03     137.268E-03    -62.2713E+06    -105.452E+06    -8.36409E+06    -11.5850E+06    -149.406E-03     285.023E-03    -135.617E-03     270.521E-03    -152.891E-03     287.934E-03    -135.415E-03     262.591E-03
            1157     8.64598E-03     137.507E-03    -60.0284E+06    -86.5905E+06     1.64513E+06    -10.7719E+06    -157.004E-03     292.596E-03    -135.592E-03     297.809E-03    -161.888E-03     296.954E-03    -135.371E-03     287.734E-03
            1158     9.42920E-03     137.775E-03    -55.9350E+06    -59.8325E+06     12.9275E+06    -10.3446E+06    -166.943E-03     302.957E-03    -136.014E-03     325.452E-03    -173.825E-03     309.393E-03    -135.781E-03     312.432E-03
            1159     10.2066E-03     138.081E-03    -48.5422E+06    -24.1985E+06     28.1064E+06    -8.86433E+06    -179.522E-03     316.487E-03    -136.965E-03     353.764E-03    -189.257E-03     325.886E-03    -136.719E-03     336.708E-03
            1160     10.9737E-03     138.427E-03    -39.1861E+06     24.6377E+06     49.7802E+06    -7.53133E+06    -194.527E-03     333.068E-03    -138.540E-03     379.113E-03    -207.964E-03     346.316E-03    -138.270E-03     356.894E-03
            1161     11.7348E-03     138.812E-03    -30.1536E+06     77.6434E+06     71.1966E+06    -6.37918E+06    -211.049E-03     351.869E-03    -140.820E-03     393.938E-03    -228.437E-03     369.229E-03    -140.533E-03     365.986E-03
            1162     12.4771E-03     139.223E-03    -22.0961E+06     100.827E+06     82.8382E+06    -6.86579E+06    -227.833E-03     371.727E-03    -143.894E-03     389.197E-03    -248.063E-03     392.009E-03    -143.594E-03     356.131E-03
            1163     13.2063E-03     139.635E-03    -15.9315E+06     114.145E+06     95.9808E+06    -5.87807E+06    -243.689E-03     391.514E-03    -147.825E-03     356.757E-03    -263.830E-03     411.739E-03    -147.487E-03     320.900E-03
            1164     13.9179E-03     140.006E-03    -10.8730E+06     109.644E+06     98.8841E+06    -2.57292E+06    -258.369E-03     410.840E-03    -152.471E-03     317.909E-03    -277.424E-03     429.972E-03    -152.120E-03     279.263E-03
            1165     14.6142E-03     140.362E-03    -5.75605E+06     107.143E+06     100.301E+06    -2.46031E+06    -269.188E-03     426.789E-03    -157.600E-03     236.196E-03    -282.041E-03     439.720E-03    -157.246E-03     202.870E-03
            1166     788.210E-06     137.471E-03    -85.0309E+06    -177.143E+06    -85.8178E+06    -4.49486E+06    -132.168E-03     263.696E-03    -131.529E-03     29.5352E-03    -132.238E-03     263.075E-03    -131.578E-03     29.0531E-03
            1167     1.57719E-03     137.500E-03    -86.3041E+06    -177.459E+06    -81.2301E+06    -8.11300E+06    -131.091E-03     262.588E-03    -131.497E-03     54.5185E-03    -131.219E-03     262.005E-03    -131.521E-03     53.6352E-03
            1168     2.36733E-03     137.549E-03    -83.4965E+06    -171.189E+06    -75.7813E+06    -11.2126E+06    -130.128E-03     261.004E-03    -130.876E-03     81.7685E-03    -130.338E-03     260.519E-03    -130.886E-03     80.4697E-03
            1169     3.15911E-03     137.618E-03    -80.6835E+06    -163.885E+06    -67.9846E+06    -13.2611E+06    -129.160E-03     259.247E-03    -130.086E-03     109.652E-03    -129.494E-03     258.899E-03    -130.072E-03     107.935E-03
            1170     3.95291E-03     137.707E-03    -78.6534E+06    -157.707E+06    -58.6089E+06    -14.1692E+06    -128.630E-03     257.833E-03    -129.203E-03     138.037E-03    -129.139E-03     257.663E-03    -129.154E-03     135.878E-03
            1171     4.74839E-03     137.818E-03    -77.5127E+06    -150.654E+06    -49.5501E+06    -13.8953E+06    -129.030E-03     257.340E-03    -128.310E-03     167.191E-03    -129.785E-03     257.420E-03    -128.227E-03     164.522E-03
            1172     5.54471E-03     137.953E-03    -77.2282E+06    -143.061E+06    -40.5869E+06    -12.6537E+06    -130.813E-03     258.325E-03    -127.511E-03     196.927E-03    -131.917E-03     258.757E-03    -127.395E-03     193.617E-03
            1173     6.34169E-03     138.113E-03    -76.7914E+06    -132.725E+06    -31.0970E+06    -11.5301E+06    -134.389E-03     261.297E-03    -126.908E-03     226.927E-03    -135.987E-03     262.236E-03    -126.760E-03     222.759E-03
            1174     7.13757E-03     138.302E-03    -74.4397E+06    -118.894E+06    -21.0497E+06    -11.4173E+06    -140.128E-03     266.727E-03    -126.599E-03     256.914E-03    -142.429E-03     268.400E-03    -126.424E-03     251.543E-03
            1175     7.93087E-03     138.519E-03    -69.4471E+06    -104.126E+06    -10.4682E+06    -11.2951E+06    -148.226E-03     274.912E-03    -126.686E-03     285.885E-03    -151.519E-03     277.619E-03    -126.487E-03     278.836E-03
            1176     8.72018E-03     138.768E-03    -61.9404E+06    -82.4960E+06     2.44282E+06    -11.2171E+06    -158.881E-03     286.144E-03    -127.264E-03     313.685E-03    -163.596E-03     290.342E-03    -127.042E-03     304.291E-03
            1177     9.50241E-03     139.052E-03    -52.9770E+06    -56.4843E+06     15.6370E+06    -12.2580E+06    -172.247E-03     300.653E-03    -128.406E-03     341.714E-03    -179.048E-03     307.025E-03    -128.170E-03     328.978E-03
            1178     10.2763E-03     139.374E-03    -44.4446E+06    -22.6640E+06     30.0123E+06    -12.3718E+06    -188.340E-03     318.519E-03    -130.178E-03     370.406E-03    -198.162E-03     328.022E-03    -129.931E-03     353.021E-03
            1179     11.0426E-03     139.744E-03    -36.9473E+06     28.3656E+06     49.9543E+06    -11.1084E+06    -206.994E-03     339.657E-03    -132.663E-03     395.685E-03    -220.805E-03     353.303E-03    -132.400E-03     372.212E-03
            1180     11.7901E-03     140.154E-03    -29.2797E+06     78.3132E+06     68.9894E+06    -10.0814E+06    -226.854E-03     362.792E-03    -135.938E-03     410.398E-03    -245.001E-03     380.927E-03    -135.664E-03     379.963E-03
            1181     12.5265E-03     140.596E-03    -23.2577E+06     99.4226E+06     78.1440E+06    -7.37487E+06    -246.173E-03     386.226E-03    -140.053E-03     406.169E-03    -267.566E-03     407.679E-03    -139.773E-03     369.403E-03
            1182     13.2429E-03     141.039E-03    -18.9854E+06     109.908E+06     91.7830E+06    -4.73174E+06    -263.727E-03     408.772E-03    -145.045E-03     373.540E-03    -285.159E-03     430.278E-03    -144.718E-03     333.281E-03
            1183     13.9413E-03     141.445E-03    -13.0644E+06     106.512E+06     97.2894E+06    -5.04891E+06    -278.400E-03     429.107E-03    -150.707E-03     332.466E-03    -298.532E-03     449.303E-03    -150.356E-03     289.322E-03
            1184     14.6254E-03     141.827E-03    -6.34682E+06     102.891E+06     101.157E+06    -5.23252E+06    -287.042E-03     443.780E-03    -156.738E-03     247.107E-03    -300.525E-03     457.322E-03    -156.372E-03     210.365E-03
            1185     797.887E-06     138.691E-03    -90.9055E+06    -166.275E+06    -89.3259E+06    -2.71134E+06    -120.078E-03     239.508E-03    -119.430E-03     30.9410E-03    -120.184E-03     238.947E-03    -119.504E-03     30.6222E-03
            1186     1.59641E-03     138.719E-03    -89.9577E+06    -164.725E+06    -86.2205E+06    -7.35742E+06    -119.130E-03     238.547E-03    -119.417E-03     57.4136E-03    -119.272E-03     238.021E-03    -119.479E-03     56.8046E-03
            1187     2.39608E-03     138.766E-03    -89.4444E+06    -161.258E+06    -83.2540E+06    -10.7832E+06    -118.282E-03     237.115E-03    -118.833E-03     86.0243E-03    -118.488E-03     236.659E-03    -118.886E-03     85.1244E-03
            1188     3.19766E-03     138.833E-03    -89.5407E+06    -158.182E+06    -78.3904E+06    -11.2131E+06    -117.727E-03     235.833E-03    -118.106E-03     115.517E-03    -118.031E-03     235.473E-03    -118.139E-03     114.343E-03
            1189     4.00051E-03     138.921E-03    -90.6286E+06    -154.065E+06    -70.0846E+06    -9.94678E+06    -118.155E-03     235.527E-03    -117.372E-03     145.641E-03    -118.608E-03     235.303E-03    -117.367E-03     144.168E-03
            1190     4.80411E-03     139.032E-03    -91.9052E+06    -147.912E+06    -59.4721E+06    -8.51048E+06    -120.010E-03     236.763E-03    -116.753E-03     176.494E-03    -120.682E-03     236.747E-03    -116.703E-03     174.621E-03
            1191     5.60825E-03     139.169E-03    -91.0829E+06    -139.863E+06    -47.5562E+06    -8.23143E+06    -123.756E-03     240.109E-03    -116.353E-03     207.732E-03    -124.742E-03     240.405E-03    -116.256E-03     205.270E-03
            1192     6.41071E-03     139.334E-03    -86.6121E+06    -127.026E+06    -35.1168E+06    -10.1556E+06    -129.751E-03     246.016E-03    -116.265E-03     238.864E-03    -131.196E-03     246.800E-03    -116.131E-03     235.516E-03
            1193     7.21068E-03     139.529E-03    -79.2983E+06    -114.225E+06    -22.8647E+06    -12.6329E+06    -138.173E-03     254.759E-03    -116.586E-03     269.584E-03    -140.288E-03     256.251E-03    -116.419E-03     264.963E-03
            1194     8.00653E-03     139.758E-03    -70.5256E+06    -100.277E+06    -11.1375E+06    -14.7477E+06    -149.227E-03     266.623E-03    -117.397E-03     299.171E-03    -152.325E-03     269.149E-03    -117.205E-03     292.745E-03
            1195     8.79528E-03     140.022E-03    -61.1705E+06    -77.7765E+06     961.486E+03    -17.1530E+06    -163.005E-03     281.779E-03    -118.774E-03     327.725E-03    -167.567E-03     285.849E-03    -118.568E-03     318.708E-03
            1196     9.57661E-03     140.324E-03    -52.1270E+06    -53.2639E+06     13.1359E+06    -18.1463E+06    -179.679E-03     300.476E-03    -120.796E-03     356.293E-03    -186.417E-03     306.808E-03    -120.578E-03     343.561E-03
            1197     10.3475E-03     140.670E-03    -44.3962E+06    -22.5784E+06     26.6443E+06    -16.6005E+06    -199.428E-03     322.954E-03    -123.526E-03     385.532E-03    -209.371E-03     332.594E-03    -123.296E-03     367.498E-03
            1198     11.1024E-03     141.064E-03    -37.5426E+06     29.8963E+06     45.9448E+06    -13.7247E+06    -221.303E-03     348.319E-03    -127.016E-03     412.130E-03    -235.517E-03     362.386E-03    -126.775E-03     387.099E-03
            1199     11.8473E-03     141.509E-03    -32.5712E+06     78.4819E+06     62.8847E+06    -10.8297E+06    -243.831E-03     375.141E-03    -131.310E-03     428.261E-03    -262.760E-03     394.068E-03    -131.062E-03     395.097E-03
            1200     12.5707E-03     141.983E-03    -27.8210E+06     95.6081E+06     72.9824E+06    -9.67102E+06    -265.581E-03     402.049E-03    -136.467E-03     425.193E-03    -288.243E-03     424.760E-03    -136.201E-03     384.234E-03
            1201     13.2764E-03     142.466E-03    -19.3786E+06     104.158E+06     88.2576E+06    -7.98550E+06    -284.071E-03     426.548E-03    -142.477E-03     393.020E-03    -306.983E-03     449.525E-03    -142.158E-03     347.810E-03
            1202     13.9633E-03     142.905E-03    -10.4844E+06     105.397E+06     98.6900E+06    -7.54887E+06    -297.727E-03     446.817E-03    -149.090E-03     349.649E-03    -319.264E-03     468.422E-03    -148.734E-03     301.379E-03
            1203     14.6379E-03     143.315E-03    -3.76752E+06     98.6116E+06     105.052E+06    -5.52414E+06    -304.722E-03     460.699E-03    -155.977E-03     258.294E-03    -319.026E-03     475.047E-03    -155.589E-03     217.653E-03
            1204     809.088E-06     139.880E-03    -99.6606E+06    -157.426E+06    -101.957E+06    -3.65152E+06    -106.159E-03     212.095E-03    -105.937E-03     32.2122E-03    -106.299E-03     211.602E-03    -106.074E-03     32.0048E-03
            1205     1.61852E-03     139.907E-03    -100.996E+06    -153.493E+06    -102.308E+06    -6.51238E+06    -105.657E-03     211.378E-03    -105.722E-03     59.9470E-03    -105.829E-03     210.928E-03    -105.864E-03     59.5781E-03
            1206     2.42909E-03     139.953E-03    -103.974E+06    -155.920E+06    -98.6067E+06    -6.65708E+06    -105.474E-03     210.779E-03    -105.305E-03     89.8834E-03    -105.699E-03     210.352E-03    -105.421E-03     89.3716E-03
            1207     3.24055E-03     140.018E-03    -107.604E+06    -155.605E+06    -91.9731E+06    -5.28922E+06    -106.073E-03     210.951E-03    -104.878E-03     120.795E-03    -106.383E-03     210.580E-03    -104.956E-03     120.132E-03
            1208     4.05289E-03     140.107E-03    -109.150E+06    -152.165E+06    -82.2801E+06    -4.60851E+06    -108.082E-03     212.645E-03    -104.563E-03     152.265E-03    -108.512E-03     212.375E-03    -104.596E-03     151.375E-03
            1209     4.86502E-03     140.221E-03    -106.475E+06    -144.959E+06    -68.3546E+06    -5.12247E+06    -112.073E-03     216.566E-03    -104.493E-03     184.144E-03    -112.675E-03     216.466E-03    -104.470E-03     182.890E-03
            1210     5.67500E-03     140.363E-03    -99.4795E+06    -132.471E+06    -52.4824E+06    -8.72516E+06    -118.262E-03     223.020E-03    -104.758E-03     216.235E-03    -119.127E-03     223.210E-03    -104.684E-03     214.384E-03
            1211     6.48229E-03     140.536E-03    -90.7142E+06    -119.384E+06    -38.3307E+06    -13.4345E+06    -126.880E-03     232.308E-03    -105.428E-03     248.342E-03    -128.163E-03     232.955E-03    -105.315E-03     245.580E-03
            1212     7.28469E-03     140.743E-03    -81.9003E+06    -107.483E+06    -26.4906E+06    -17.2890E+06    -138.196E-03     244.775E-03    -106.578E-03     280.082E-03    -140.134E-03     246.119E-03    -106.436E-03     275.992E-03
            1213     8.08046E-03     140.986E-03    -72.8421E+06    -92.7734E+06    -15.4564E+06    -21.3761E+06    -152.240E-03     260.522E-03    -108.281E-03     310.699E-03    -155.174E-03     262.916E-03    -108.118E-03     304.676E-03
            1214     8.86895E-03     141.268E-03    -63.9110E+06    -71.3519E+06    -4.27270E+06    -24.4129E+06    -169.101E-03     279.702E-03    -110.602E-03     339.998E-03    -173.537E-03     283.678E-03    -110.427E-03     331.167E-03
            1215     9.64610E-03     141.592E-03    -55.3803E+06    -51.2409E+06     6.29068E+06    -25.6175E+06    -188.924E-03     302.529E-03    -113.606E-03     369.343E-03    -195.607E-03     308.827E-03    -113.420E-03     356.425E-03
            1216     10.4106E-03     141.965E-03    -46.0737E+06    -27.3387E+06     18.8415E+06    -23.4092E+06    -211.603E-03     328.937E-03    -117.334E-03     400.123E-03    -221.593E-03     338.625E-03    -117.133E-03     381.364E-03
            1217     11.1635E-03     142.394E-03    -37.9224E+06     22.7358E+06     38.7813E+06    -15.5335E+06    -236.232E-03     358.047E-03    -121.815E-03     428.113E-03    -250.680E-03     372.346E-03    -121.599E-03     401.579E-03
            1218     11.8962E-03     142.870E-03    -31.4338E+06     78.2369E+06     59.1780E+06    -8.68662E+06    -261.251E-03     388.340E-03    -127.090E-03     445.734E-03    -280.787E-03     407.892E-03    -126.862E-03     409.855E-03
            1219     12.6129E-03     143.389E-03    -23.5949E+06     99.9568E+06     74.6727E+06    -9.08257E+06    -284.457E-03     417.664E-03    -133.207E-03     445.065E-03    -308.228E-03     441.513E-03    -132.945E-03     400.002E-03
            1220     13.3080E-03     143.910E-03    -16.1751E+06     107.217E+06     94.0202E+06    -14.0294E+06    -303.034E-03     443.159E-03    -140.125E-03     414.109E-03    -327.477E-03     467.676E-03    -139.787E-03     363.801E-03
            1221     13.9855E-03     144.389E-03    -9.04396E+06     92.6476E+06     98.7843E+06    -11.6366E+06    -316.860E-03     464.436E-03    -147.577E-03     368.351E-03    -339.917E-03     487.524E-03    -147.204E-03     314.577E-03
            1222     14.6467E-03     144.826E-03    -3.49393E+06     83.8958E+06     102.268E+06    -2.95551E+06    -322.483E-03     477.736E-03    -155.253E-03     270.114E-03    -337.675E-03     492.929E-03    -154.858E-03     225.139E-03
            1223     821.021E-06     141.035E-03    -114.813E+06    -150.863E+06    -115.670E+06    -1.27052E+06    -91.4620E-03     182.482E-03    -91.0198E-03     33.5657E-03    -91.6631E-03     182.057E-03    -91.2129E-03     33.4887E-03
            1224     1.64287E-03     141.062E-03    -122.742E+06    -149.349E+06    -121.490E+06    -1.04972E+06    -91.5634E-03     182.606E-03    -91.0430E-03     62.0383E-03    -91.8061E-03     182.218E-03    -91.2559E-03     61.9153E-03
            1225     2.46493E-03     141.107E-03    -128.328E+06    -155.435E+06    -117.767E+06     198.285E+03    -92.7683E-03     183.792E-03    -91.0233E-03     92.9137E-03    -93.0517E-03     183.394E-03    -91.2007E-03     92.7421E-03
            1226     3.28671E-03     141.175E-03    -128.260E+06    -152.950E+06    -106.839E+06    -482.729E+03    -95.3043E-03     186.496E-03    -91.1915E-03     124.688E-03    -95.6400E-03     186.132E-03    -91.3179E-03     124.402E-03
            1227     4.10720E-03     141.266E-03    -122.889E+06    -147.928E+06    -91.9069E+06    -3.62828E+06    -99.6419E-03     191.268E-03    -91.6263E-03     156.950E-03    -100.047E-03     190.971E-03    -91.6931E-03     156.439E-03
            1228     4.92526E-03     141.386E-03    -113.517E+06    -137.465E+06    -75.3775E+06    -8.95850E+06    -106.038E-03     198.429E-03    -92.3912E-03     189.541E-03    -106.564E-03     198.278E-03    -92.4042E-03     188.648E-03
            1229     5.74012E-03     141.537E-03    -102.712E+06    -122.400E+06    -59.2907E+06    -14.4752E+06    -114.644E-03     208.182E-03    -93.5385E-03     222.301E-03    -115.393E-03     208.302E-03    -93.5086E-03     220.824E-03
            1230     6.55013E-03     141.721E-03    -92.7096E+06    -111.309E+06    -45.2823E+06    -18.8524E+06    -125.777E-03     220.905E-03    -95.1287E-03     255.257E-03    -126.908E-03     221.445E-03    -95.0593E-03     252.903E-03
            1231     7.35413E-03     141.943E-03    -82.9015E+06    -97.8639E+06    -32.3144E+06    -23.6100E+06    -139.743E-03     236.964E-03    -97.2217E-03     287.977E-03    -141.507E-03     238.185E-03    -97.1212E-03     284.279E-03
            1232     8.15027E-03     142.205E-03    -72.5631E+06    -83.0342E+06    -20.2132E+06    -28.6028E+06    -156.677E-03     256.569E-03    -99.8923E-03     319.584E-03    -159.426E-03     258.832E-03    -99.7678E-03     313.869E-03
            1233     8.93523E-03     142.509E-03    -62.3667E+06    -66.9931E+06    -9.06560E+06    -30.8764E+06    -176.450E-03     279.652E-03    -103.203E-03     350.053E-03    -180.691E-03     283.471E-03    -103.061E-03     341.390E-03
            1234     9.70897E-03     142.859E-03    -54.3118E+06    -49.0010E+06     2.03409E+06    -30.1581E+06    -198.989E-03     306.185E-03    -107.196E-03     380.733E-03    -205.497E-03     312.334E-03    -107.036E-03     367.738E-03
            1235     10.4695E-03     143.262E-03    -49.0270E+06    -28.9223E+06     13.6247E+06    -29.0079E+06    -224.296E-03     336.195E-03    -111.899E-03     412.302E-03    -234.161E-03     345.760E-03    -111.718E-03     392.972E-03
            1236     11.2127E-03     143.723E-03    -40.9057E+06     5.89950E+06     29.8345E+06    -24.2217E+06    -251.379E-03     368.711E-03    -117.332E-03     440.877E-03    -265.750E-03     382.891E-03    -117.132E-03     412.991E-03
            1237     11.9410E-03     144.243E-03    -28.1196E+06     64.5755E+06     53.2376E+06    -15.6248E+06    -277.964E-03     401.475E-03    -123.512E-03     460.007E-03    -297.608E-03     421.117E-03    -123.298E-03     421.803E-03
            1238     12.6479E-03     144.801E-03    -17.9464E+06     103.633E+06     74.5438E+06    -11.6408E+06    -301.662E-03     432.122E-03    -130.460E-03     461.015E-03    -326.005E-03     456.578E-03    -130.212E-03     412.382E-03
            1239     13.3372E-03     145.371E-03    -12.3730E+06     117.282E+06     100.519E+06    -9.61263E+06    -318.727E-03     456.867E-03    -138.140E-03     430.385E-03    -344.303E-03     482.548E-03    -137.790E-03     375.682E-03
            1240     14.0054E-03     145.890E-03    -12.7963E+06     88.2808E+06     102.264E+06    -9.39847E+06    -331.942E-03     478.177E-03    -146.235E-03     387.341E-03    -356.114E-03     502.342E-03    -145.834E-03     329.628E-03
            1241     14.6579E-03     146.367E-03    -10.5220E+06     64.8644E+06     100.022E+06    -8.12990E+06    -339.776E-03     494.299E-03    -154.523E-03     286.186E-03    -355.531E-03     509.975E-03    -154.102E-03     238.253E-03
            1242     834.352E-06     142.156E-03    -156.509E+06    -151.508E+06    -154.667E+06     2.86472E+06    -76.9026E-03     152.638E-03    -75.7354E-03     33.9793E-03    -77.2490E-03     152.323E-03    -76.0621E-03     34.0221E-03
            1243     1.66802E-03     142.183E-03    -155.226E+06    -151.507E+06    -147.646E+06     4.26963E+06    -78.3798E-03     154.880E-03    -76.5003E-03     63.1304E-03    -78.7286E-03     154.554E-03    -76.7938E-03     63.1894E-03
            1244     2.50033E-03     142.231E-03    -149.925E+06    -152.712E+06    -135.146E+06     1.63119E+06    -81.6193E-03     158.860E-03    -77.2411E-03     94.2673E-03    -81.9608E-03     158.509E-03    -77.4780E-03     94.2691E-03
            1245     3.33063E-03     142.303E-03    -140.826E+06    -146.919E+06    -120.196E+06    -4.22838E+06    -86.4668E-03     164.753E-03    -78.2860E-03     126.224E-03    -86.8103E-03     164.416E-03    -78.4698E-03     126.082E-03
            1246     4.15782E-03     142.402E-03    -129.025E+06    -138.828E+06    -102.544E+06    -10.7839E+06    -93.1490E-03     172.819E-03    -79.6699E-03     158.957E-03    -93.5192E-03     172.531E-03    -79.7942E-03     158.587E-03
            1247     4.98096E-03     142.531E-03    -116.693E+06    -125.070E+06    -85.1246E+06    -18.0957E+06    -101.761E-03     183.162E-03    -81.4010E-03     192.132E-03    -102.221E-03     183.009E-03    -81.4760E-03     191.401E-03
            1248     5.79909E-03     142.693E-03    -104.643E+06    -113.933E+06    -69.0721E+06    -23.3568E+06    -112.650E-03     196.170E-03    -83.5199E-03     225.626E-03    -113.293E-03     196.239E-03    -83.5483E-03     224.360E-03
            1249     6.61091E-03     142.892E-03    -91.8969E+06    -102.007E+06    -52.7168E+06    -27.4916E+06    -126.210E-03     212.295E-03    -86.0848E-03     259.320E-03    -127.195E-03     212.748E-03    -86.0672E-03     257.222E-03
            1250     7.41478E-03     143.131E-03    -79.3857E+06    -88.1428E+06    -36.9186E+06    -31.7640E+06    -142.669E-03     231.827E-03    -89.1580E-03     292.733E-03    -144.239E-03     232.916E-03    -89.0997E-03     289.326E-03
            1251     8.20868E-03     143.414E-03    -69.5435E+06    -74.4097E+06    -23.5099E+06    -34.8473E+06    -162.001E-03     254.801E-03    -92.8008E-03     324.928E-03    -164.506E-03     256.874E-03    -92.7096E-03     319.537E-03
            1252     8.99188E-03     143.744E-03    -63.3032E+06    -63.3138E+06    -12.5033E+06    -36.2689E+06    -184.059E-03     281.126E-03    -97.0672E-03     355.945E-03    -188.001E-03     284.667E-03    -96.9462E-03     347.587E-03
            1253     9.76129E-03     144.123E-03    -57.4201E+06    -48.7035E+06    -469.731E+03    -35.1165E+06    -209.096E-03     311.097E-03    -102.000E-03     386.951E-03    -215.223E-03     316.863E-03    -101.849E-03     374.136E-03
            1254     10.5153E-03     144.559E-03    -48.0255E+06    -27.4258E+06     14.1886E+06    -33.9750E+06    -237.008E-03     344.642E-03    -107.634E-03     418.495E-03    -246.385E-03     353.728E-03    -107.453E-03     399.013E-03
            1255     11.2533E-03     145.059E-03    -36.5557E+06    -4.31201E+06     28.3577E+06    -33.9551E+06    -265.888E-03     379.859E-03    -113.971E-03     446.943E-03    -279.653E-03     393.418E-03    -113.770E-03     418.316E-03
            1256     11.9718E-03     145.616E-03    -28.1879E+06     39.9191E+06     44.3704E+06    -26.1422E+06    -293.170E-03     414.151E-03    -120.981E-03     465.804E-03    -312.123E-03     433.041E-03    -120.776E-03     426.213E-03
            1257     12.6735E-03     146.222E-03    -25.5160E+06     98.9208E+06     68.4157E+06    -15.0733E+06    -315.512E-03     444.148E-03    -128.636E-03     468.856E-03    -339.512E-03     468.234E-03    -128.400E-03     418.120E-03
            1258     13.3520E-03     146.836E-03    -24.4170E+06     113.699E+06     96.7227E+06    -13.5027E+06    -329.894E-03     466.767E-03    -136.873E-03     442.560E-03    -356.278E-03     493.211E-03    -136.519E-03     383.943E-03
            1259     14.0195E-03     147.392E-03    -15.6365E+06     83.5901E+06     109.908E+06    -12.2703E+06    -342.140E-03     487.600E-03    -145.460E-03     398.257E-03    -367.560E-03     512.965E-03    -145.009E-03     335.979E-03
            1260     14.6748E-03     147.920E-03    -5.46139E+06     54.3121E+06     112.275E+06    -10.0471E+06    -349.005E-03     503.186E-03    -154.181E-03     292.100E-03    -365.221E-03     519.269E-03    -153.691E-03     241.595E-03
            1261     845.979E-06     143.243E-03    -216.735E+06    -151.447E+06    -213.819E+06    -2.84884E+06    -64.4918E-03     127.645E-03    -63.1529E-03     32.5441E-03    -65.0476E-03     127.505E-03    -63.6881E-03     32.5352E-03
            1262     1.69000E-03     143.275E-03    -200.915E+06    -147.653E+06    -195.027E+06    -7.04461E+06    -67.5596E-03     131.899E-03    -64.3391E-03     61.0538E-03    -68.0643E-03     131.724E-03    -64.8088E-03     61.0083E-03
            1263     2.53088E-03     143.329E-03    -180.673E+06    -142.422E+06    -170.553E+06    -14.4333E+06    -72.6592E-03     138.462E-03    -65.8029E-03     92.1429E-03    -73.1022E-03     138.247E-03    -66.1872E-03     92.0020E-03
            1264     3.36759E-03     143.409E-03    -159.577E+06    -136.045E+06    -145.216E+06    -21.5326E+06    -79.5899E-03     147.277E-03    -67.6867E-03     124.309E-03    -79.9802E-03     147.036E-03    -67.9841E-03     124.039E-03
            1265     4.19964E-03     143.517E-03    -139.715E+06    -126.190E+06    -122.468E+06    -28.2731E+06    -88.2461E-03     158.186E-03    -69.9397E-03     157.287E-03    -88.6174E-03     157.968E-03    -70.1665E-03     156.826E-03
            1266     5.02639E-03     143.659E-03    -121.639E+06    -113.636E+06    -100.528E+06    -33.4227E+06    -98.8985E-03     171.460E-03    -72.5616E-03     190.684E-03    -99.3137E-03     171.333E-03    -72.7231E-03     189.936E-03
            1267     5.84653E-03     143.835E-03    -105.363E+06    -106.278E+06    -79.4138E+06    -37.0343E+06    -111.956E-03     187.554E-03    -75.5980E-03     224.427E-03    -112.506E-03     187.587E-03    -75.6882E-03     223.220E-03
            1268     6.65884E-03     144.051E-03    -91.4019E+06    -93.4793E+06    -59.5095E+06    -39.7781E+06    -127.715E-03     206.803E-03    -79.0875E-03     258.314E-03    -128.561E-03     207.171E-03    -79.1170E-03     256.358E-03
            1269     7.46153E-03     144.310E-03    -80.7412E+06    -81.2810E+06    -42.4806E+06    -41.6030E+06    -146.287E-03     229.373E-03    -83.0867E-03     291.812E-03    -147.654E-03     230.298E-03    -83.0642E-03     288.666E-03
            1270     8.25336E-03     144.617E-03    -73.0366E+06    -70.3504E+06    -27.0384E+06    -41.2903E+06    -167.555E-03     255.203E-03    -87.6481E-03     323.952E-03    -169.764E-03     256.993E-03    -87.5754E-03     318.966E-03
            1271     9.03184E-03     144.973E-03    -64.9864E+06    -58.7814E+06    -11.1100E+06    -40.5067E+06    -191.749E-03     284.574E-03    -92.8254E-03     354.341E-03    -195.244E-03     287.676E-03    -92.7014E-03     346.501E-03
            1272     9.79640E-03     145.383E-03    -53.6784E+06    -47.7810E+06     3.37674E+06    -41.5564E+06    -219.041E-03     317.706E-03    -98.6649E-03     384.046E-03    -224.486E-03     322.798E-03    -98.5009E-03     371.744E-03
            1273     10.5443E-03     145.855E-03    -42.4852E+06    -28.3018E+06     17.2964E+06    -41.6143E+06    -248.536E-03     353.727E-03    -105.191E-03     413.270E-03    -256.877E-03     361.786E-03    -105.002E-03     394.363E-03
            1274     11.2736E-03     146.392E-03    -37.5360E+06    -7.84196E+06     30.2265E+06    -38.7950E+06    -278.282E-03     390.688E-03    -112.406E-03     438.582E-03    -290.573E-03     402.752E-03    -112.189E-03     410.636E-03
            1275     11.9854E-03     146.991E-03    -36.3293E+06     17.8361E+06     41.1009E+06    -32.0247E+06    -304.374E-03     424.574E-03    -120.200E-03     456.145E-03    -321.440E-03     441.476E-03    -119.968E-03     417.324E-03
            1276     12.6763E-03     147.636E-03    -27.7599E+06     73.8716E+06     64.2184E+06    -20.5431E+06    -322.117E-03     450.484E-03    -128.367E-03     462.152E-03    -344.171E-03     472.534E-03    -128.113E-03     412.345E-03
            1277     13.3601E-03     148.293E-03    -11.7138E+06     111.074E+06     104.358E+06    -7.69581E+06    -334.099E-03     470.936E-03    -136.838E-03     446.286E-03    -359.614E-03     496.525E-03    -136.460E-03     387.278E-03
            1278     14.0184E-03     148.906E-03    -4.60378E+06     98.6498E+06     133.953E+06    -4.42600E+06    -347.604E-03     493.188E-03    -145.584E-03     415.343E-03    -374.386E-03     519.941E-03    -145.051E-03     349.139E-03
            1279     14.6524E-03     149.462E-03    -2.80083E+06     48.6362E+06     138.712E+06    -6.28355E+06    -350.282E-03     504.657E-03    -154.375E-03     311.416E-03    -368.160E-03     522.308E-03    -153.748E-03     257.428E-03
            1280     852.012E-06     144.308E-03    -224.550E+06    -134.784E+06    -221.123E+06    -12.7860E+06    -57.8284E-03     114.266E-03    -56.4377E-03     28.8796E-03    -58.4341E-03     114.237E-03    -57.0223E-03     28.7306E-03
            1281     1.70194E-03     144.345E-03    -213.810E+06    -127.476E+06    -207.382E+06    -23.4612E+06    -61.1695E-03     118.888E-03    -57.7187E-03     54.3777E-03    -61.7495E-03     118.857E-03    -58.2608E-03     54.1039E-03
            1282     2.54879E-03     144.407E-03    -200.267E+06    -121.105E+06    -189.361E+06    -35.3476E+06    -66.7563E-03     126.116E-03    -59.3592E-03     83.2713E-03    -67.3012E-03     126.068E-03    -59.8401E-03     82.8479E-03
            1283     3.39085E-03     144.497E-03    -183.144E+06    -118.016E+06    -170.200E+06    -45.2021E+06    -74.4149E-03     135.919E-03    -61.5042E-03     114.334E-03    -74.9090E-03     135.838E-03    -61.9185E-03     113.767E-03
            1284     4.22677E-03     144.617E-03    -165.264E+06    -110.148E+06    -151.580E+06    -52.5599E+06    -84.3185E-03     148.443E-03    -64.1242E-03     147.142E-03    -84.7822E-03     148.370E-03    -64.4828E-03     146.412E-03
            1285     5.05567E-03     144.772E-03    -147.529E+06    -102.424E+06    -127.285E+06    -58.2832E+06    -96.6839E-03     163.958E-03    -67.2738E-03     180.789E-03    -97.1668E-03     163.926E-03    -67.5478E-03     179.817E-03
            1286     5.87633E-03     144.965E-03    -128.830E+06    -98.5052E+06    -100.628E+06    -62.3281E+06    -111.678E-03     182.645E-03    -70.9671E-03     214.559E-03    -112.248E-03     182.705E-03    -71.1406E-03     213.194E-03
            1287     6.68727E-03     145.200E-03    -109.849E+06    -91.5402E+06    -76.7362E+06    -62.4932E+06    -129.368E-03     204.562E-03    -75.1937E-03     248.140E-03    -130.143E-03     204.852E-03    -75.2854E-03     246.160E-03
            1288     7.48732E-03     145.482E-03    -92.6322E+06    -82.5510E+06    -52.3022E+06    -58.1750E+06    -149.666E-03     229.660E-03    -79.9941E-03     280.519E-03    -150.831E-03     230.364E-03    -80.0016E-03     277.570E-03
            1289     8.27492E-03     145.812E-03    -76.9557E+06    -73.8535E+06    -28.2691E+06    -52.4936E+06    -172.678E-03     258.076E-03    -85.3980E-03     310.735E-03    -174.490E-03     259.446E-03    -85.3207E-03     306.211E-03
            1290     9.04900E-03     146.197E-03    -63.2465E+06    -58.2169E+06    -7.61206E+06    -48.7515E+06    -198.612E-03     290.048E-03    -91.4355E-03     338.580E-03    -201.450E-03     292.490E-03    -91.2974E-03     331.498E-03
            1291     9.80543E-03     146.639E-03    -55.3643E+06    -42.6776E+06     7.35405E+06    -49.6689E+06    -227.258E-03     325.422E-03    -98.1635E-03     364.751E-03    -231.691E-03     329.502E-03    -97.9845E-03     353.578E-03
            1292     10.5438E-03     147.144E-03    -53.1804E+06    -32.6147E+06     19.1096E+06    -49.4473E+06    -257.497E-03     363.115E-03    -105.618E-03     388.723E-03    -264.265E-03     369.541E-03    -105.398E-03     371.481E-03
            1293     11.2639E-03     147.718E-03    -49.6176E+06    -14.7689E+06     33.0481E+06    -46.0234E+06    -285.826E-03     399.535E-03    -113.709E-03     408.839E-03    -295.674E-03     409.076E-03    -113.450E-03     383.611E-03
            1294     11.9632E-03     148.353E-03    -35.7328E+06    -2.15821E+06     46.5274E+06    -43.1783E+06    -306.801E-03     428.948E-03    -122.147E-03     424.396E-03    -320.361E-03     442.253E-03    -121.860E-03     389.884E-03
            1295     12.6547E-03     149.028E-03    -16.1067E+06     28.4196E+06     65.4123E+06    -33.5089E+06    -318.983E-03     449.551E-03    -130.568E-03     433.783E-03    -336.878E-03     467.314E-03    -130.259E-03     389.416E-03
            1296     13.3313E-03     149.716E-03    -6.05181E+06     67.3022E+06     99.2184E+06    -13.6148E+06    -325.705E-03     464.533E-03    -138.828E-03     433.022E-03    -347.612E-03     486.387E-03    -138.421E-03     379.811E-03
            1297     14.0048E-03     150.394E-03     2.30153E+06     98.2381E+06     145.668E+06     7.86020E+06    -332.472E-03     479.380E-03    -146.907E-03     428.691E-03    -358.453E-03     505.315E-03    -146.325E-03     366.593E-03
            1298     14.6718E-03     151.028E-03     5.16781E+06     72.9818E+06     167.683E+06     14.7703E+06    -338.100E-03     492.994E-03    -154.894E-03     335.435E-03    -356.885E-03     511.594E-03    -154.169E-03     283.074E-03
            1299     850.932E-06     145.367E-03    -171.079E+06    -103.787E+06    -167.614E+06    -14.9005E+06    -59.0749E-03     116.983E-03    -57.9077E-03     22.5637E-03    -59.5393E-03     116.954E-03    -58.3472E-03     22.3573E-03
            1300     1.70070E-03     145.408E-03    -167.924E+06    -97.3309E+06    -159.452E+06    -26.9179E+06    -61.8711E-03     120.938E-03    -59.0669E-03     42.5271E-03    -62.3431E-03     120.927E-03    -59.4795E-03     42.1514E-03
            1301     2.54704E-03     145.476E-03    -163.678E+06    -90.5214E+06    -149.203E+06    -39.0737E+06    -66.5245E-03     127.063E-03    -60.5390E-03     65.6825E-03    -67.0040E-03     127.070E-03    -60.9164E-03     65.1295E-03
            1302     3.38973E-03     145.574E-03    -159.583E+06    -89.7212E+06    -141.220E+06    -51.8022E+06    -73.2778E-03     135.775E-03    -62.4974E-03     91.7058E-03    -73.7586E-03     135.778E-03    -62.8420E-03     90.9546E-03
            1303     4.22721E-03     145.706E-03    -152.788E+06    -86.7308E+06    -131.485E+06    -62.5432E+06    -82.5646E-03     147.574E-03    -65.0091E-03     120.334E-03    -83.0498E-03     147.589E-03    -65.3192E-03     119.379E-03
            1304     5.05689E-03     145.876E-03    -142.503E+06    -82.0463E+06    -115.231E+06    -71.1637E+06    -94.7085E-03     162.864E-03    -68.1560E-03     151.243E-03    -95.2172E-03     162.911E-03    -68.4065E-03     150.046E-03
            1305     5.87681E-03     146.086E-03    -130.187E+06    -82.3920E+06    -98.2411E+06    -78.5952E+06    -110.011E-03     181.980E-03    -71.9695E-03     183.563E-03    -110.573E-03     182.076E-03    -72.1525E-03     182.016E-03
            1306     6.68547E-03     146.342E-03    -117.894E+06    -87.5967E+06    -86.6472E+06    -81.0403E+06    -128.425E-03     204.881E-03    -76.4558E-03     216.057E-03    -129.105E-03     205.088E-03    -76.5911E-03     214.021E-03
            1307     7.48124E-03     146.645E-03    -104.354E+06    -86.1031E+06    -68.9512E+06    -79.4188E+06    -149.913E-03     231.593E-03    -81.6799E-03     247.109E-03    -150.836E-03     232.047E-03    -81.7485E-03     244.316E-03
            1308     8.26259E-03     147.001E-03    -88.5238E+06    -84.1631E+06    -41.5932E+06    -75.8263E+06    -174.452E-03     262.162E-03    -87.7097E-03     274.905E-03    -175.794E-03     263.020E-03    -87.6673E-03     270.864E-03
            1309     9.02644E-03     147.413E-03    -73.5725E+06    -72.3829E+06    -16.2215E+06    -67.9589E+06    -201.489E-03     296.008E-03    -94.5195E-03     298.647E-03    -203.517E-03     297.576E-03    -94.3890E-03     292.599E-03
            1310     9.77333E-03     147.886E-03    -62.5744E+06       -47.8E+06     8.91224E+06    -56.5741E+06    -230.389E-03     332.526E-03    -102.137E-03     318.601E-03    -233.507E-03     335.236E-03    -101.932E-03     309.377E-03
            1311     10.5000E-03     148.424E-03    -53.4613E+06    -35.1678E+06     31.3178E+06    -47.4412E+06    -259.078E-03     369.601E-03    -110.524E-03     335.595E-03    -263.718E-03     373.847E-03    -110.239E-03     321.693E-03
            1312     11.2042E-03     149.029E-03    -40.6471E+06    -12.5363E+06     49.6591E+06    -45.8729E+06    -282.327E-03     401.691E-03    -119.364E-03     350.378E-03    -288.901E-03     407.941E-03    -119.039E-03     330.530E-03
            1313     11.8983E-03     149.686E-03    -30.0278E+06    -23.0825E+03     63.9163E+06    -51.1117E+06    -295.799E-03     424.013E-03    -128.215E-03     363.045E-03    -304.794E-03     432.722E-03    -127.852E-03     336.391E-03
            1314     12.5823E-03     150.379E-03    -28.6611E+06    -12.2071E+06     73.6458E+06    -52.1791E+06    -300.853E-03     437.486E-03    -136.633E-03     376.348E-03    -312.948E-03     449.228E-03    -136.205E-03     342.343E-03
            1315     13.2678E-03     151.097E-03    -22.1789E+06    -1.38016E+06     95.1881E+06    -38.3131E+06    -297.157E-03     441.370E-03    -144.213E-03     389.472E-03    -312.802E-03     456.667E-03    -143.703E-03     348.999E-03
            1316     13.9551E-03     151.795E-03    -17.8605E+06     27.5504E+06     101.554E+06    -11.7311E+06    -292.972E-03     443.636E-03    -150.664E-03     409.926E-03    -313.985E-03     464.410E-03    -150.170E-03     361.212E-03
            1317     14.6417E-03     152.483E-03    -13.0486E+06     60.5648E+06     134.395E+06     7.98831E+06    -297.694E-03     454.353E-03    -156.659E-03     357.252E-03    -315.482E-03     471.956E-03    -156.056E-03     312.372E-03
            1318     842.614E-06     146.438E-03    -115.988E+06    -72.0730E+06    -114.044E+06    -12.9635E+06    -69.6526E-03     138.800E-03    -69.1476E-03     12.9924E-03    -69.9768E-03     138.764E-03    -69.4451E-03     12.7550E-03
            1319     1.68271E-03     146.482E-03    -113.497E+06    -66.3626E+06    -105.745E+06    -23.7392E+06    -71.7716E-03     141.820E-03    -70.0483E-03     24.4230E-03    -72.1094E-03     141.802E-03    -70.3162E-03     23.9800E-03
            1320     2.52151E-03     146.554E-03    -109.565E+06    -60.9467E+06    -94.1230E+06    -33.6508E+06    -75.4154E-03     146.863E-03    -71.4477E-03     37.8329E-03    -75.7696E-03     146.859E-03    -71.6710E-03     37.1793E-03
            1321     3.35638E-03     146.658E-03    -103.903E+06    -57.7466E+06    -79.8737E+06    -44.0769E+06    -80.4548E-03     153.847E-03    -73.3920E-03     53.0174E-03    -80.8238E-03     153.848E-03    -73.5570E-03     52.1218E-03
            1322     4.18557E-03     146.798E-03    -98.5017E+06    -57.8926E+06    -69.3004E+06    -54.6897E+06    -86.9584E-03     162.791E-03    -75.8321E-03     71.1896E-03    -87.3425E-03     162.797E-03    -75.9518E-03     70.0282E-03
            1323     5.00858E-03     146.978E-03    -94.2521E+06    -55.4096E+06    -62.8043E+06    -63.1076E+06    -95.7156E-03     174.507E-03    -78.7915E-03     92.9388E-03    -96.1314E-03     174.552E-03    -78.8885E-03     91.5134E-03
            1324     5.82342E-03     147.202E-03    -92.9673E+06    -56.6681E+06    -60.0307E+06    -69.3901E+06    -107.469E-03     189.856E-03    -82.3863E-03     117.437E-03    -107.942E-03     189.953E-03    -82.4695E-03     115.715E-03
            1325     6.62700E-03     147.474E-03    -92.7102E+06    -67.7092E+06    -60.4709E+06    -75.0828E+06    -122.612E-03     209.345E-03    -86.7331E-03     143.393E-03    -123.160E-03     209.485E-03    -86.8028E-03     141.272E-03
            1326     7.41716E-03     147.797E-03    -90.7094E+06    -72.3149E+06    -55.8096E+06    -80.4795E+06    -141.486E-03     233.430E-03    -91.9435E-03     169.470E-03    -142.164E-03     233.680E-03    -91.9861E-03     166.793E-03
            1327     8.19010E-03     148.178E-03    -86.9405E+06    -77.6320E+06    -42.9759E+06    -83.8633E+06    -164.031E-03     262.166E-03    -98.1345E-03     193.262E-03    -164.915E-03     262.583E-03    -98.1108E-03     189.756E-03
            1328     8.94448E-03     148.617E-03    -81.2964E+06    -83.8118E+06    -29.3222E+06    -81.3110E+06    -189.574E-03     294.911E-03    -105.337E-03     212.581E-03    -190.785E-03     295.616E-03    -105.244E-03     207.777E-03
            1329     9.67589E-03     149.117E-03    -72.2146E+06    -75.0325E+06    -10.2975E+06    -72.0072E+06    -216.181E-03     329.704E-03    -113.523E-03     227.916E-03    -217.895E-03     330.923E-03    -113.361E-03     221.193E-03
            1330     10.3843E-03     149.682E-03    -58.4895E+06    -55.3180E+06     22.4556E+06    -65.1461E+06    -239.994E-03     362.503E-03    -122.509E-03     241.109E-03    -242.398E-03     364.434E-03    -122.232E-03     231.738E-03
            1331     11.0787E-03     150.306E-03    -45.5350E+06    -27.8754E+06     51.6730E+06    -62.0641E+06    -255.964E-03     387.712E-03    -131.747E-03     252.523E-03    -259.281E-03     390.612E-03    -131.383E-03     239.830E-03
            1332     11.7601E-03     150.974E-03    -38.4235E+06    -2.95289E+06     82.7836E+06    -54.4612E+06    -262.042E-03     402.731E-03    -140.688E-03     263.624E-03    -266.601E-03     406.896E-03    -140.214E-03     247.145E-03
            1333     12.4424E-03     151.672E-03    -33.2814E+06    -6.83509E+06     104.318E+06    -47.8128E+06    -258.373E-03     407.090E-03    -148.717E-03     279.610E-03    -264.556E-03     412.824E-03    -148.137E-03     259.180E-03
            1334     13.1295E-03     152.387E-03    -40.2961E+06    -26.6814E+06     90.1784E+06    -43.3296E+06    -241.729E-03     396.764E-03    -155.034E-03     301.884E-03    -249.954E-03     404.497E-03    -154.486E-03     278.515E-03
            1335     13.8437E-03     153.089E-03    -44.6479E+06    -32.0687E+06     69.3675E+06    -33.4301E+06    -229.872E-03     389.336E-03    -159.464E-03     344.771E-03    -242.218E-03     401.230E-03    -159.006E-03     316.214E-03
            1336     14.5720E-03     153.825E-03    -26.3216E+06     11.5396E+06     92.0873E+06    -24.3087E+06    -204.923E-03     366.851E-03    -161.928E-03     359.720E-03    -217.009E-03     378.691E-03    -161.446E-03     333.031E-03
            1337     823.196E-06     147.544E-03    -66.0780E+06    -42.7801E+06    -63.2655E+06    -10.0855E+06    -92.1900E-03     184.109E-03    -91.9188E-03     681.894E-06    -92.4046E-03     184.046E-03    -92.0773E-03     392.285E-06
            1338     1.64698E-03     147.589E-03    -65.4251E+06    -38.9893E+06    -55.3596E+06    -19.0591E+06    -94.7070E-03     187.973E-03    -93.2660E-03    -2.55396E-03    -94.9419E-03     187.909E-03    -93.3914E-03    -3.13639E-03
            1339     2.46608E-03     147.665E-03    -60.7093E+06    -34.8679E+06    -42.1396E+06    -28.0990E+06    -96.8939E-03     192.097E-03    -95.2036E-03    -5.48941E-03    -97.1301E-03     192.026E-03    -95.2757E-03    -6.39947E-03
            1340     3.28017E-03     147.773E-03    -56.1231E+06    -31.9060E+06    -30.4355E+06    -35.0289E+06    -99.0462E-03     196.493E-03    -97.4469E-03    -6.01584E-03    -99.2827E-03     196.416E-03    -97.4714E-03    -7.23889E-03
            1341     4.09001E-03     147.915E-03    -53.9206E+06    -30.6797E+06    -23.2397E+06    -41.5743E+06    -101.664E-03     201.706E-03    -100.042E-03    -3.72563E-03    -101.911E-03     201.627E-03    -100.036E-03    -5.27610E-03
            1342     4.89401E-03     148.098E-03    -54.6331E+06    -32.1348E+06    -21.0181E+06    -46.5553E+06    -105.040E-03     208.137E-03    -103.097E-03     1.61901E-03    -105.307E-03     208.061E-03    -103.076E-03    -247.054E-06
            1343     5.68983E-03     148.326E-03    -56.6702E+06    -33.3240E+06    -17.9130E+06    -49.0471E+06    -109.595E-03     216.337E-03    -106.742E-03     9.79753E-03    -109.899E-03     216.277E-03    -106.701E-03     7.63621E-03
            1344     6.47629E-03     148.604E-03    -57.3451E+06    -37.4685E+06    -11.3002E+06    -53.9503E+06    -116.170E-03     227.296E-03    -111.126E-03     20.2981E-03    -116.517E-03     227.243E-03    -111.045E-03     17.7628E-03
            1345     7.24945E-03     148.938E-03    -58.1606E+06    -46.1700E+06    -7.59939E+06    -58.9533E+06    -125.156E-03     241.530E-03    -116.374E-03     32.2744E-03    -125.546E-03     241.476E-03    -116.261E-03     29.3078E-03
            1346     8.00748E-03     149.330E-03    -60.1166E+06    -50.3433E+06    -6.15929E+06    -62.3428E+06    -136.679E-03     259.282E-03    -122.603E-03     44.4751E-03    -137.135E-03     259.271E-03    -122.474E-03     41.0211E-03
            1347     8.74513E-03     149.786E-03    -62.4432E+06    -62.9797E+06    -6.26506E+06    -64.3160E+06    -150.386E-03     280.281E-03    -129.895E-03     56.1049E-03    -150.926E-03     280.310E-03    -129.744E-03     52.0142E-03
            1348     9.46087E-03     150.306E-03    -60.4237E+06    -71.2708E+06       227.3E+03    -67.9709E+06    -164.269E-03     302.428E-03    -138.159E-03     67.8543E-03    -164.925E-03     302.541E-03    -137.967E-03     62.9344E-03
            1349     10.1586E-03     150.886E-03    -53.5884E+06    -60.2988E+06     27.0604E+06    -68.4510E+06    -174.806E-03     321.884E-03    -147.078E-03     80.6669E-03    -175.659E-03     322.191E-03    -146.778E-03     74.8819E-03
            1350     10.8376E-03     151.519E-03    -45.5955E+06    -38.6252E+06     55.8834E+06    -65.4114E+06    -178.947E-03     334.915E-03    -155.968E-03     95.1312E-03    -180.079E-03     335.540E-03    -155.567E-03     88.4620E-03
            1351     11.5144E-03     152.186E-03    -35.0424E+06    -23.9237E+06     84.6627E+06    -55.0538E+06    -176.472E-03     340.625E-03    -164.152E-03     113.294E-03    -177.972E-03     341.643E-03    -163.644E-03     105.704E-03
            1352     12.1904E-03     152.879E-03    -33.6601E+06    -9.42624E+06     104.432E+06    -33.8971E+06    -165.521E-03     336.363E-03    -170.842E-03     139.757E-03    -167.582E-03     337.971E-03    -170.257E-03     131.415E-03
            1353     12.8870E-03     153.571E-03    -34.8286E+06    -4.30403E+06     108.379E+06    -18.8451E+06    -145.734E-03     321.106E-03    -175.372E-03     166.331E-03    -148.541E-03     323.463E-03    -174.774E-03     157.488E-03
            1354     13.6201E-03     154.241E-03    -3.94517E+06    -20.5876E+06     115.735E+06    -20.6907E+06    -125.501E-03     303.043E-03    -177.542E-03     216.435E-03    -129.639E-03     306.778E-03    -176.928E-03     206.515E-03
            1355     14.3639E-03     154.980E-03     6.26314E+06    -7.09308E+06     95.4352E+06    -20.0028E+06    -58.6747E-03     234.423E-03    -175.748E-03     245.177E-03    -62.4756E-03     237.970E-03    -175.270E-03     238.237E-03
            1356     796.782E-06     148.716E-03    -15.2033E+06    -20.1026E+06    -11.6517E+06    -7.45773E+06    -132.997E-03     267.518E-03    -134.521E-03    -27.3928E-03    -133.157E-03     267.301E-03    -134.528E-03    -27.8188E-03
            1357     1.58415E-03     148.768E-03    -13.5914E+06    -16.1308E+06    -4.88629E+06    -13.2518E+06    -133.255E-03     268.715E-03    -135.460E-03    -48.9914E-03    -133.378E-03     268.512E-03    -135.441E-03    -49.7367E-03
            1358     2.36833E-03     148.845E-03    -12.2724E+06    -13.2028E+06     4.36566E+06    -17.9461E+06    -133.176E-03     270.453E-03    -137.277E-03    -70.5030E-03    -133.277E-03     270.216E-03    -137.218E-03    -71.6076E-03
            1359     3.15063E-03     148.953E-03    -12.9456E+06    -13.3069E+06     11.2656E+06    -21.0729E+06    -132.411E-03     272.130E-03    -139.719E-03    -91.9139E-03    -132.488E-03     271.828E-03    -139.625E-03    -93.3660E-03
            1360     3.92713E-03     149.095E-03    -14.4479E+06    -11.3319E+06     17.7146E+06    -23.2125E+06    -130.728E-03     273.526E-03    -142.797E-03    -113.363E-03    -130.775E-03     273.160E-03    -142.671E-03    -115.149E-03
            1361     4.69582E-03     149.275E-03    -16.6283E+06    -13.7482E+06     24.4285E+06    -24.2490E+06    -127.521E-03     274.064E-03    -146.543E-03    -133.978E-03    -127.526E-03     273.597E-03    -146.377E-03    -136.082E-03
            1362     5.45662E-03     149.498E-03    -17.6458E+06    -15.8732E+06     32.3676E+06    -25.0011E+06    -122.437E-03     273.407E-03    -150.971E-03    -152.726E-03    -122.387E-03     272.825E-03    -150.760E-03    -155.137E-03
            1363     6.20642E-03     149.770E-03    -18.9878E+06    -15.4034E+06     40.6362E+06    -25.8411E+06    -115.498E-03     271.628E-03    -156.130E-03    -168.682E-03    -115.399E-03     270.945E-03    -155.877E-03    -171.368E-03
            1364     6.94324E-03     150.095E-03    -21.2399E+06    -19.2816E+06     45.1188E+06    -26.5337E+06    -106.869E-03     268.940E-03    -162.071E-03    -180.292E-03    -106.718E-03     268.156E-03    -161.786E-03    -183.223E-03
            1365     7.66361E-03     150.477E-03    -23.0870E+06    -22.0551E+06     48.8523E+06    -26.5161E+06    -97.0067E-03     265.813E-03    -168.807E-03    -184.719E-03    -96.8147E-03     264.964E-03    -168.497E-03    -187.844E-03
            1366     8.36624E-03     150.921E-03    -21.4615E+06    -25.2573E+06     56.1396E+06    -26.7996E+06    -86.3712E-03     262.639E-03    -176.267E-03    -179.657E-03    -86.1617E-03     261.765E-03    -175.919E-03    -182.928E-03
            1367     9.05313E-03     151.425E-03    -17.0899E+06    -27.2813E+06     69.2172E+06    -28.4243E+06    -75.4950E-03     259.712E-03    -184.217E-03    -164.098E-03    -75.3195E-03     258.890E-03    -183.807E-03    -167.462E-03
            1368     9.72169E-03     151.988E-03    -15.1676E+06    -26.9175E+06     81.6460E+06    -27.3604E+06    -64.0649E-03     256.208E-03    -192.143E-03    -137.193E-03    -64.0038E-03     255.538E-03    -191.673E-03    -140.447E-03
            1369     10.3887E-03     152.598E-03    -11.9628E+06    -12.6375E+06     96.2922E+06    -28.5043E+06    -52.4196E-03     251.804E-03    -199.385E-03    -100.682E-03    -52.5355E-03     251.403E-03    -198.867E-03    -103.693E-03
            1370     11.0551E-03     153.247E-03    -13.7201E+06    -4.75477E+06     110.023E+06    -27.2525E+06    -40.1403E-03     245.376E-03    -205.236E-03    -55.5658E-03    -40.4543E-03     245.238E-03    -204.659E-03    -58.1940E-03
            1371     11.7396E-03     153.918E-03    -22.0074E+06    -17.6019E+06     107.919E+06    -11.0830E+06    -25.6611E-03     234.652E-03    -208.991E-03    -9.23362E-03    -26.1364E-03     234.648E-03    -208.394E-03    -11.2157E-03
            1372     12.4609E-03     154.590E-03     1.23174E+06    -5.67158E+06     131.547E+06     3.21931E+06    -12.0063E-03     222.657E-03    -210.651E-03     23.9796E-03    -12.5381E-03     222.794E-03    -209.986E-03     22.3589E-03
            1373     13.1782E-03     155.263E-03     24.1345E+06     12.0095E+06     141.820E+06    -9.69826E+06     16.5193E-03     192.852E-03    -209.371E-03     77.0104E-03     15.9531E-03     193.204E-03    -208.714E-03     75.4743E-03
            1374     13.9927E-03     155.892E-03     13.9378E+06     2.57994E+06     86.8603E+06    -6.35661E+06     71.5061E-03     132.137E-03    -203.643E-03     87.9158E-03     71.1402E-03     132.317E-03    -203.232E-03     87.2962E-03
            1375     14.4386E-03     77.5157E-03    -4.13720E+06     94.5433E+06     86.7279E+06    -27.8915E+03    -167.415E-03     336.984E-03    -169.568E-03     155.538E-03    -176.344E-03     345.982E-03    -169.266E-03     138.541E-03
            1376     13.6753E-03     77.2705E-03    -9.53573E+06     93.7448E+06     87.9307E+06     872.854E+03    -168.267E-03     337.894E-03    -169.627E-03     216.120E-03    -182.137E-03     351.808E-03    -169.309E-03     193.780E-03
            1377     12.9170E-03     76.9993E-03    -15.3333E+06     88.5113E+06     88.4902E+06     1.03071E+06    -170.886E-03     340.576E-03    -169.690E-03     244.532E-03    -186.504E-03     356.197E-03    -169.354E-03     219.729E-03
            1378     12.1563E-03     76.6831E-03    -21.5486E+06     81.4722E+06     85.0217E+06     521.535E+03    -173.849E-03     343.568E-03    -169.718E-03     268.637E-03    -190.606E-03     360.291E-03    -169.380E-03     241.514E-03
            1379     11.3967E-03     76.3516E-03    -28.3175E+06     69.5912E+06     71.4253E+06     1.04994E+06    -175.527E-03     345.214E-03    -169.687E-03     269.482E-03    -190.965E-03     360.591E-03    -169.390E-03     242.445E-03
            1380     10.6363E-03     76.0325E-03    -35.3516E+06     57.8405E+06     52.5748E+06     1.55219E+06    -175.754E-03     345.385E-03    -169.631E-03     255.650E-03    -188.678E-03     358.236E-03    -169.401E-03     230.454E-03
            1381     9.87705E-03     75.7336E-03    -43.3820E+06     44.6295E+06     33.6847E+06     27.7864E+03    -175.371E-03     344.966E-03    -169.595E-03     235.738E-03    -185.606E-03     355.108E-03    -169.429E-03     213.214E-03
            1382     9.11597E-03     75.4624E-03    -51.0885E+06     12.9778E+06     19.6652E+06    -1.64926E+06    -175.041E-03     344.664E-03    -169.623E-03     215.273E-03    -182.955E-03     352.385E-03    -169.469E-03     195.506E-03
            1383     8.35603E-03     75.2122E-03    -55.8958E+06    -36.7164E+06     9.35840E+06    -1.28863E+06    -174.995E-03     344.677E-03    -169.682E-03     197.151E-03    -181.090E-03     350.417E-03    -169.501E-03     179.889E-03
            1384     7.59710E-03     74.9829E-03    -60.0628E+06    -86.7008E+06    -2.06870E+06    -987.420E+03    -174.689E-03     344.411E-03    -169.722E-03     180.263E-03    -179.341E-03     348.548E-03    -169.520E-03     165.319E-03
            1385     6.83672E-03     74.7729E-03    -65.4182E+06    -125.788E+06    -12.1110E+06    -742.854E+03    -174.155E-03     343.908E-03    -169.753E-03     163.406E-03    -177.653E-03     346.763E-03    -169.537E-03     150.631E-03
            1386     6.07718E-03     74.5830E-03    -71.5882E+06    -157.542E+06    -22.4775E+06    -227.857E+03    -173.489E-03     343.265E-03    -169.775E-03     146.150E-03    -176.072E-03     345.100E-03    -169.556E-03     135.356E-03
            1387     5.31752E-03     74.4142E-03    -77.9989E+06    -187.806E+06    -33.8411E+06    -364.756E+03    -172.737E-03     342.533E-03    -169.796E-03     128.588E-03    -174.593E-03     343.543E-03    -169.580E-03     119.584E-03
            1388     4.55762E-03     74.2668E-03    -83.9843E+06    -209.494E+06    -45.5326E+06    -700.419E+03    -172.037E-03     341.844E-03    -169.807E-03     110.802E-03    -173.329E-03     342.227E-03    -169.609E-03     103.409E-03
            1389     3.79776E-03     74.1410E-03    -90.2666E+06    -227.850E+06    -58.2156E+06    -355.881E+03    -171.405E-03     341.213E-03    -169.808E-03     92.8325E-03    -172.266E-03     341.114E-03    -169.638E-03     86.9074E-03
            1390     3.03814E-03     74.0374E-03    -96.5446E+06    -246.137E+06    -72.7325E+06     97.1723E+03    -170.828E-03     340.626E-03    -169.799E-03     74.7575E-03    -171.359E-03     340.152E-03    -169.665E-03     70.1699E-03
            1391     2.27849E-03     73.9562E-03    -101.955E+06    -264.497E+06    -86.9956E+06     136.752E+03    -170.377E-03     340.166E-03    -169.790E-03     56.5528E-03    -170.660E-03     339.402E-03    -169.693E-03     53.1895E-03
            1392     1.51913E-03     73.8977E-03    -106.085E+06    -278.898E+06    -98.8023E+06     94.3310E+03    -170.069E-03     339.847E-03    -169.779E-03     38.1820E-03    -170.181E-03     338.879E-03    -169.714E-03     35.9620E-03
            1393     759.752E-06     73.8617E-03    -108.397E+06    -283.769E+06    -106.574E+06    -169.804E+03    -170.112E-03     339.622E-03    -169.510E-03     20.6900E-03    -170.129E-03     338.556E-03    -169.474E-03     19.4990E-03
            1394     14.4335E-03     76.1819E-03    -5.12523E+06     93.5982E+06     85.9479E+06     155.061E+03    -167.574E-03     337.197E-03    -169.622E-03     154.925E-03    -176.521E-03     346.208E-03    -169.321E-03     137.849E-03
            1395     13.6783E-03     75.9399E-03    -9.38153E+06     94.4354E+06     89.0289E+06     663.573E+03    -168.959E-03     338.615E-03    -169.656E-03     215.081E-03    -182.867E-03     352.566E-03    -169.334E-03     192.588E-03
            1396     12.9161E-03     75.6704E-03    -14.6942E+06     88.9249E+06     89.2276E+06     498.768E+03    -171.258E-03     340.942E-03    -169.683E-03     244.927E-03    -186.914E-03     356.602E-03    -169.345E-03     220.027E-03
            1397     12.1561E-03     75.3512E-03    -21.2916E+06     81.0548E+06     85.5915E+06     929.821E+03    -173.933E-03     343.631E-03    -169.698E-03     268.343E-03    -190.668E-03     360.330E-03    -169.357E-03     241.230E-03
            1398     11.3963E-03     75.0210E-03    -28.1911E+06     68.6814E+06     74.7298E+06     1.13713E+06    -175.376E-03     345.055E-03    -169.679E-03     268.997E-03    -190.780E-03     360.386E-03    -169.364E-03     242.019E-03
            1399     10.6372E-03     74.7012E-03    -34.0174E+06     57.3399E+06     59.0293E+06     1.73387E+06    -175.707E-03     345.346E-03    -169.639E-03     255.507E-03    -188.633E-03     358.183E-03    -169.378E-03     230.329E-03
            1400     9.87635E-03     74.4043E-03    -38.9932E+06     48.4799E+06     40.2338E+06     2.71593E+06    -175.378E-03     344.969E-03    -169.591E-03     235.457E-03    -185.605E-03     355.114E-03    -169.404E-03     212.975E-03
            1401     9.11684E-03     74.1320E-03    -44.3002E+06     17.3939E+06     24.2836E+06     1.55731E+06    -175.089E-03     344.689E-03    -169.600E-03     215.277E-03    -182.983E-03     352.417E-03    -169.440E-03     195.548E-03
            1402     8.35720E-03     73.8821E-03    -51.2625E+06    -37.3318E+06     10.9748E+06    -663.885E+03    -174.868E-03     344.527E-03    -169.660E-03     197.310E-03    -180.942E-03     350.255E-03    -169.476E-03     180.069E-03
            1403     7.59626E-03     73.6526E-03    -58.1317E+06    -87.8892E+06    -1.70678E+06    -672.436E+03    -174.567E-03     344.280E-03    -169.712E-03     180.449E-03    -179.202E-03     348.401E-03    -169.509E-03     165.539E-03
            1404     6.83703E-03     73.4425E-03    -64.6691E+06    -126.262E+06    -11.8717E+06     142.340E+03    -174.106E-03     343.861E-03    -169.755E-03     163.544E-03    -177.599E-03     346.710E-03    -169.537E-03     150.792E-03
            1405     6.07707E-03     73.2530E-03    -71.1423E+06    -157.505E+06    -22.1531E+06     188.314E+03    -173.434E-03     343.221E-03    -169.786E-03     146.292E-03    -176.017E-03     345.056E-03    -169.566E-03     135.508E-03
            1406     5.31709E-03     73.0841E-03    -77.0318E+06    -186.734E+06    -33.2334E+06    -187.052E+03    -172.746E-03     342.559E-03    -169.813E-03     128.732E-03    -174.600E-03     343.573E-03    -169.597E-03     119.735E-03
            1407     4.55746E-03     72.9368E-03    -83.8885E+06    -209.839E+06    -45.8491E+06    -275.340E+03    -172.063E-03     341.887E-03    -169.825E-03     110.916E-03    -173.354E-03     342.269E-03    -169.628E-03     103.531E-03
            1408     3.79791E-03     72.8109E-03    -90.7244E+06    -228.530E+06    -58.8825E+06    -133.726E+03    -171.390E-03     341.219E-03    -169.829E-03     92.8865E-03    -172.250E-03     341.117E-03    -169.661E-03     86.9688E-03
            1409     3.03818E-03     72.7075E-03    -96.6528E+06    -246.289E+06    -73.2003E+06    -277.116E+03    -170.818E-03     340.647E-03    -169.829E-03     74.7570E-03    -171.348E-03     340.172E-03    -169.698E-03     70.1699E-03
            1410     2.27850E-03     72.6261E-03    -101.761E+06    -264.533E+06    -87.1127E+06    -246.110E+03    -170.407E-03     340.236E-03    -169.829E-03     56.5065E-03    -170.688E-03     339.469E-03    -169.733E-03     53.1452E-03
            1411     1.51884E-03     72.5674E-03    -105.940E+06    -278.690E+06    -98.5283E+06    -136.302E+03    -170.121E-03     339.938E-03    -169.818E-03     38.1728E-03    -170.233E-03     338.970E-03    -169.753E-03     35.9514E-03
            1412     759.299E-06     72.5315E-03    -109.056E+06    -284.482E+06    -107.338E+06    -185.178E+03    -170.066E-03     339.689E-03    -169.623E-03     20.8081E-03    -170.084E-03     338.622E-03    -169.589E-03     19.6136E-03
            1413     14.4389E-03     74.8499E-03    -4.84800E+06     93.1335E+06     86.3739E+06     191.787E+03    -167.360E-03     336.968E-03    -169.608E-03     154.292E-03    -176.282E-03     345.953E-03    -169.304E-03     137.278E-03
            1414     13.6747E-03     74.6104E-03    -10.2306E+06     93.0667E+06     87.6553E+06    -658.173E+03    -168.810E-03     338.452E-03    -169.643E-03     214.782E-03    -182.717E-03     352.399E-03    -169.324E-03     192.220E-03
            1415     12.9167E-03     74.3380E-03    -15.3914E+06     88.2338E+06     88.3037E+06    -59.0285E+03    -171.744E-03     341.399E-03    -169.654E-03     244.101E-03    -187.393E-03     357.049E-03    -169.318E-03     219.112E-03
            1416     12.1579E-03     74.0214E-03    -21.4758E+06     81.0968E+06     85.5693E+06     960.945E+03    -173.842E-03     343.494E-03    -169.651E-03     267.841E-03    -190.578E-03     360.193E-03    -169.310E-03     240.736E-03
            1417     11.3976E-03     73.6913E-03    -28.1039E+06     69.2050E+06     73.7355E+06     885.001E+03    -175.085E-03     344.718E-03    -169.634E-03     268.928E-03    -190.479E-03     360.045E-03    -169.324E-03     241.994E-03
            1418     10.6365E-03     73.3706E-03    -34.7453E+06     56.5230E+06     56.4306E+06    -97.1849E+03    -175.449E-03     345.054E-03    -169.605E-03     255.387E-03    -188.351E-03     357.870E-03    -169.355E-03     230.241E-03
            1419     9.87743E-03     73.0743E-03    -40.1297E+06     46.2015E+06     40.1398E+06    -339.487E+03    -175.349E-03     344.931E-03    -169.582E-03     235.685E-03    -185.581E-03     355.069E-03    -169.390E-03     213.167E-03
            1420     9.11696E-03     72.8017E-03    -45.1030E+06     17.7577E+06     25.8117E+06     1.05744E+06    -175.076E-03     344.674E-03    -169.599E-03     215.829E-03    -182.991E-03     352.418E-03    -169.430E-03     196.083E-03
            1421     8.35621E-03     72.5524E-03    -51.0532E+06    -35.1613E+06     11.6869E+06     1.85435E+06    -174.842E-03     344.497E-03    -169.655E-03     197.595E-03    -180.914E-03     350.230E-03    -169.472E-03     180.412E-03
            1422     7.59709E-03     72.3224E-03    -57.9946E+06    -87.2380E+06    -1.43028E+06     1.37710E+06    -174.525E-03     344.240E-03    -169.714E-03     180.452E-03    -179.150E-03     348.353E-03    -169.511E-03     165.601E-03
            1423     6.83660E-03     72.1125E-03    -64.3849E+06    -125.970E+06    -12.0950E+06     639.065E+03    -173.998E-03     343.763E-03    -169.765E-03     163.551E-03    -177.486E-03     346.610E-03    -169.549E-03     150.821E-03
            1424     6.07680E-03     71.9227E-03    -70.0236E+06    -156.651E+06    -21.8984E+06     7.60491E+03    -173.419E-03     343.225E-03    -169.806E-03     146.247E-03    -175.995E-03     345.060E-03    -169.587E-03     135.466E-03
            1425     5.31719E-03     71.7541E-03    -76.3792E+06    -187.203E+06    -32.0445E+06     346.876E+03    -172.761E-03     342.603E-03    -169.843E-03     128.639E-03    -174.611E-03     343.611E-03    -169.621E-03     119.646E-03
            1426     4.55739E-03     71.6064E-03    -82.8680E+06    -209.533E+06    -44.2879E+06     955.951E+03    -172.047E-03     341.906E-03    -169.859E-03     110.890E-03    -173.335E-03     342.284E-03    -169.656E-03     103.526E-03
            1427     3.79754E-03     71.4809E-03    -89.6758E+06    -227.437E+06    -58.0281E+06     381.804E+03    -171.426E-03     341.289E-03    -169.863E-03     92.9331E-03    -172.285E-03     341.190E-03    -169.693E-03     87.0231E-03
            1428     3.03791E-03     71.3772E-03    -96.3547E+06    -246.475E+06    -72.8370E+06    -77.1414E+03    -170.924E-03     340.777E-03    -169.853E-03     74.7242E-03    -171.452E-03     340.299E-03    -169.720E-03     70.1403E-03
            1429     2.27845E-03     71.2959E-03    -101.772E+06    -264.562E+06    -86.9545E+06    -133.796E+03    -170.455E-03     340.289E-03    -169.834E-03     56.4026E-03    -170.736E-03     339.522E-03    -169.737E-03     53.0436E-03
            1430     1.51903E-03     71.2372E-03    -106.391E+06    -279.055E+06    -98.7214E+06    -108.968E+03    -170.087E-03     339.910E-03    -169.822E-03     38.1040E-03    -170.201E-03     338.941E-03    -169.757E-03     35.8788E-03
            1431     759.621E-06     71.2011E-03    -109.576E+06    -284.759E+06    -107.361E+06     96.0589E+03    -169.847E-03     339.713E-03    -169.865E-03     20.6679E-03    -169.867E-03     338.645E-03    -169.830E-03     19.4744E-03
            1432     14.4358E-03     73.5263E-03    -4.89131E+06     93.4057E+06     86.3483E+06     386.626E+03    -167.998E-03     337.566E-03    -169.569E-03     154.879E-03    -176.946E-03     346.578E-03    -169.265E-03     137.732E-03
            1433     13.6777E-03     73.2766E-03    -9.82647E+06     93.7177E+06     87.5687E+06     144.287E+03    -168.968E-03     338.544E-03    -169.576E-03     214.034E-03    -182.851E-03     352.470E-03    -169.260E-03     191.455E-03
            1434     12.9182E-03     73.0077E-03    -15.9166E+06     87.5411E+06     87.3955E+06    -228.907E+03    -171.112E-03     340.706E-03    -169.594E-03     243.557E-03    -186.724E-03     356.319E-03    -169.261E-03     218.678E-03
            1435     12.1571E-03     72.6910E-03    -22.1700E+06     80.2804E+06     84.6784E+06    -262.665E+03    -173.614E-03     343.229E-03    -169.615E-03     268.353E-03    -190.369E-03     359.945E-03    -169.276E-03     241.264E-03
            1436     11.3973E-03     72.3604E-03    -27.9805E+06     69.7667E+06     74.2169E+06    -270.003E+03    -174.999E-03     344.611E-03    -169.613E-03     269.220E-03    -190.406E-03     359.952E-03    -169.302E-03     242.287E-03
            1437     10.6379E-03     72.0421E-03    -34.0485E+06     57.6778E+06     57.1462E+06    -16.7904E+03    -175.257E-03     344.854E-03    -169.597E-03     255.867E-03    -188.137E-03     357.652E-03    -169.346E-03     230.803E-03
            1438     9.87637E-03     71.7432E-03    -41.4543E+06     44.7145E+06     37.0848E+06    -270.837E+03    -175.221E-03     344.803E-03    -169.582E-03     236.265E-03    -185.453E-03     354.939E-03    -169.401E-03     213.766E-03
            1439     9.11639E-03     71.4724E-03    -49.0742E+06     14.4898E+06     21.4934E+06    -239.541E+03    -175.144E-03     344.749E-03    -169.605E-03     215.873E-03    -183.075E-03     352.495E-03    -169.447E-03     196.087E-03
            1440     8.35700E-03     71.2216E-03    -54.7750E+06    -35.1288E+06     10.3181E+06     977.421E+03    -174.897E-03     344.563E-03    -169.666E-03     197.549E-03    -180.978E-03     350.294E-03    -169.484E-03     180.370E-03
            1441     7.59637E-03     70.9926E-03    -59.4656E+06    -85.5635E+06    -1.74009E+06     1.08863E+06    -174.503E-03     344.226E-03    -169.723E-03     180.530E-03    -179.137E-03     348.351E-03    -169.522E-03     165.678E-03
            1442     6.83677E-03     70.7824E-03    -64.5468E+06    -125.019E+06    -12.2005E+06     232.041E+03    -174.028E-03     343.803E-03    -169.775E-03     163.569E-03    -177.515E-03     346.652E-03    -169.561E-03     150.843E-03
            1443     6.07685E-03     70.5927E-03    -70.6981E+06    -156.444E+06    -22.1101E+06     166.401E+03    -173.420E-03     343.236E-03    -169.817E-03     146.187E-03    -175.996E-03     345.070E-03    -169.598E-03     135.416E-03
            1444     5.31694E-03     70.4238E-03    -77.2244E+06    -188.363E+06    -32.5789E+06     415.351E+03    -172.757E-03     342.611E-03    -169.855E-03     128.542E-03    -174.609E-03     343.615E-03    -169.632E-03     119.547E-03
            1445     4.55721E-03     70.2766E-03    -83.6185E+06    -209.627E+06     -44.391E+06     633.596E+03    -172.077E-03     341.945E-03    -169.868E-03     110.701E-03    -173.368E-03     342.324E-03    -169.665E-03     103.328E-03
            1446     3.79755E-03     70.1506E-03    -89.8952E+06    -226.270E+06    -57.5196E+06     782.779E+03    -171.484E-03     341.346E-03    -169.862E-03     92.6908E-03    -172.345E-03     341.251E-03    -169.691E-03     86.7823E-03
            1447     3.03811E-03     70.0468E-03    -96.2066E+06    -245.797E+06    -72.2194E+06     498.186E+03    -170.953E-03     340.791E-03    -169.838E-03     74.4627E-03    -171.482E-03     340.315E-03    -169.703E-03     69.8825E-03
            1448     2.27859E-03     69.9657E-03    -101.824E+06    -264.472E+06    -86.7215E+06     289.113E+03    -170.451E-03     340.256E-03    -169.804E-03     56.2286E-03    -170.733E-03     339.489E-03    -169.707E-03     52.8712E-03
            1449     1.51896E-03     69.9070E-03    -106.292E+06    -279.151E+06    -98.9334E+06     67.0505E+03    -170.054E-03     339.838E-03    -169.784E-03     38.0461E-03    -170.166E-03     338.869E-03    -169.719E-03     35.8222E-03
            1450     759.289E-06     69.8710E-03    -109.130E+06    -284.544E+06    -107.201E+06    -83.6401E+03    -169.802E-03     339.636E-03    -169.835E-03     20.6893E-03    -169.820E-03     338.569E-03    -169.800E-03     19.4923E-03
            1451     14.4381E-03     72.1869E-03    -4.81727E+06     93.0316E+06     85.4837E+06     76.8975E+03    -168.461E-03     337.984E-03    -169.523E-03     154.135E-03    -177.427E-03     347.016E-03    -169.224E-03     136.917E-03
            1452     13.6802E-03     71.9497E-03    -8.72492E+06     93.8956E+06     88.5835E+06     854.427E+03    -168.657E-03     338.189E-03    -169.532E-03     214.874E-03    -182.564E-03     352.141E-03    -169.213E-03     192.390E-03
            1453     12.9175E-03     71.6780E-03    -14.7324E+06     88.4488E+06     88.6559E+06     768.249E+03    -170.876E-03     340.450E-03    -169.574E-03     245.237E-03    -186.507E-03     356.086E-03    -169.238E-03     220.443E-03
            1454     12.1581E-03     71.3606E-03    -21.3906E+06     81.0415E+06     85.0865E+06    -272.053E+03    -173.448E-03     343.060E-03    -169.612E-03     268.578E-03    -190.192E-03     359.769E-03    -169.273E-03     241.527E-03
            1455     11.3977E-03     71.0308E-03    -28.4606E+06     69.7618E+06     73.7203E+06    -811.635E+03    -174.697E-03     344.325E-03    -169.628E-03     269.499E-03    -190.083E-03     359.643E-03    -169.319E-03     242.650E-03
            1456     10.6363E-03     70.7116E-03    -35.7969E+06     56.3309E+06     55.6410E+06    -129.468E+03    -175.329E-03     344.955E-03    -169.626E-03     256.540E-03    -188.230E-03     357.768E-03    -169.378E-03     231.459E-03
            1457     9.87675E-03     70.4145E-03    -42.3321E+06     44.1354E+06     36.3005E+06     687.572E+03    -175.491E-03     345.096E-03    -169.605E-03     236.480E-03    -185.735E-03     355.241E-03    -169.426E-03     213.956E-03
            1458     9.11661E-03     70.1408E-03    -47.7664E+06     15.6375E+06     22.3022E+06     970.414E+03    -175.215E-03     344.834E-03    -169.619E-03     215.727E-03    -183.132E-03     352.573E-03    -169.461E-03     195.967E-03
            1459     8.35623E-03     69.8922E-03    -53.5164E+06    -35.5009E+06     10.4720E+06     253.546E+03    -174.892E-03     344.569E-03    -169.677E-03     197.448E-03    -180.969E-03     350.299E-03    -169.496E-03     180.249E-03
            1460     7.59659E-03     69.6622E-03    -59.0710E+06    -85.5892E+06    -1.52629E+06     36.0135E+03    -174.563E-03     344.296E-03    -169.733E-03     180.420E-03    -179.194E-03     348.418E-03    -169.531E-03     165.552E-03
            1461     6.83655E-03     69.4522E-03    -65.0745E+06    -124.422E+06    -12.1794E+06     497.752E+03    -174.104E-03     343.880E-03    -169.776E-03     163.396E-03    -177.591E-03     346.730E-03    -169.562E-03     150.674E-03
            1462     6.07678E-03     69.2626E-03    -71.2280E+06    -156.753E+06    -22.6813E+06     423.473E+03    -173.475E-03     343.281E-03    -169.806E-03     145.995E-03    -176.053E-03     345.115E-03    -169.589E-03     135.220E-03
            1463     5.31707E-03     69.0936E-03    -77.2153E+06    -188.414E+06    -32.8702E+06     357.825E+03    -172.789E-03     342.623E-03    -169.833E-03     128.239E-03    -174.641E-03     343.627E-03    -169.612E-03     119.235E-03
            1464     4.55744E-03     68.9463E-03    -83.6723E+06    -209.729E+06    -44.5062E+06     369.203E+03    -172.133E-03     341.966E-03    -169.834E-03     110.488E-03    -173.423E-03     342.344E-03    -169.631E-03     103.103E-03
            1465     3.79792E-03     68.8203E-03    -90.2557E+06    -226.111E+06    -57.6260E+06     369.994E+03    -171.497E-03     341.308E-03    -169.811E-03     92.6164E-03    -172.360E-03     341.215E-03    -169.641E-03     86.6973E-03
            1466     3.03822E-03     68.7166E-03    -95.9888E+06    -245.113E+06    -71.8511E+06     376.120E+03    -170.899E-03     340.679E-03    -169.779E-03     74.3586E-03    -171.429E-03     340.206E-03    -169.644E-03     69.7757E-03
            1467     2.27864E-03     68.6355E-03    -101.584E+06    -264.208E+06    -86.4647E+06     269.600E+03    -170.402E-03     340.144E-03    -169.741E-03     56.0622E-03    -170.683E-03     339.377E-03    -169.643E-03     52.7074E-03
            1468     1.51919E-03     68.5770E-03    -106.038E+06    -278.639E+06    -98.2084E+06     258.835E+03    -170.054E-03     339.749E-03    -169.696E-03     37.8847E-03    -170.166E-03     338.781E-03    -169.629E-03     35.6677E-03
            1469     759.709E-06     68.5410E-03    -109.321E+06    -284.494E+06    -106.972E+06     206.628E+03    -169.784E-03     339.406E-03    -169.622E-03     20.5114E-03    -169.803E-03     338.339E-03    -169.586E-03     19.3170E-03
            1470     14.4398E-03     70.8606E-03    -4.18476E+06     92.5798E+06     85.9832E+06    -454.082E+03    -167.300E-03     336.809E-03    -169.508E-03     154.891E-03    -176.227E-03     345.800E-03    -169.206E-03     137.877E-03
            1471     13.6755E-03     70.6178E-03    -9.60718E+06     91.7294E+06     87.4130E+06    -41.1327E+03    -168.318E-03     337.879E-03    -169.561E-03     215.810E-03    -182.215E-03     351.814E-03    -169.243E-03     193.394E-03
            1472     12.9180E-03     70.3479E-03    -15.0295E+06     88.4035E+06     88.4720E+06     572.567E+03    -171.305E-03     340.913E-03    -169.608E-03     245.547E-03    -186.959E-03     356.571E-03    -169.272E-03     220.685E-03
            1473     12.1573E-03     70.0297E-03    -21.2952E+06     82.4591E+06     86.1553E+06     333.812E+03    -173.234E-03     342.883E-03    -169.649E-03     268.893E-03    -189.957E-03     359.573E-03    -169.307E-03     241.934E-03
            1474     11.3965E-03     69.7021E-03    -28.9710E+06     69.5030E+06     73.3836E+06     535.055E+03    -174.703E-03     344.378E-03    -169.675E-03     269.930E-03    -190.091E-03     359.697E-03    -169.367E-03     243.107E-03
            1475     10.6362E-03     69.3816E-03    -36.2966E+06     55.7803E+06     54.6653E+06     364.086E+03    -175.706E-03     345.368E-03    -169.662E-03     256.597E-03    -188.633E-03     358.205E-03    -169.417E-03     231.428E-03
            1476     9.87615E-03     69.0827E-03    -42.2208E+06     44.4613E+06     37.1278E+06     182.478E+03    -175.679E-03     345.306E-03    -169.627E-03     236.202E-03    -185.925E-03     355.452E-03    -169.445E-03     213.646E-03
            1477     9.11637E-03     68.8114E-03    -47.6942E+06     15.8555E+06     23.0731E+06    -83.2074E+03    -175.260E-03     344.890E-03    -169.631E-03     215.623E-03    -183.178E-03     352.629E-03    -169.469E-03     195.843E-03
            1478     8.35651E-03     68.5615E-03    -52.9207E+06    -35.2418E+06     10.7694E+06     153.756E+03    -175.010E-03     344.685E-03    -169.676E-03     197.118E-03    -181.083E-03     350.415E-03    -169.494E-03     179.897E-03
            1479     7.59654E-03     68.3321E-03    -59.1631E+06    -85.9295E+06    -1.57419E+06     634.394E+03    -174.661E-03     344.378E-03    -169.717E-03     180.009E-03    -179.289E-03     348.495E-03    -169.514E-03     165.140E-03
            1480     6.83678E-03     68.1222E-03      -65.11E+06    -124.403E+06    -12.1022E+06     628.336E+03    -174.105E-03     343.852E-03    -169.748E-03     163.064E-03    -177.592E-03     346.702E-03    -169.534E-03     150.334E-03
            1481     6.07711E-03     67.9321E-03    -70.9538E+06    -156.203E+06    -22.5766E+06     464.123E+03    -173.485E-03     343.254E-03    -169.769E-03     145.789E-03    -176.063E-03     345.091E-03    -169.552E-03     135.007E-03
            1482     5.31747E-03     67.7637E-03    -77.5604E+06    -188.349E+06    -33.1520E+06     218.428E+03    -172.843E-03     342.626E-03    -169.784E-03     128.192E-03    -174.695E-03     343.631E-03    -169.564E-03     119.183E-03
            1483     4.55775E-03     67.6160E-03    -83.7802E+06    -209.623E+06    -44.5143E+06     149.300E+03    -172.132E-03     341.904E-03    -169.772E-03     110.439E-03    -173.424E-03     342.283E-03    -169.569E-03     103.048E-03
            1484     3.79801E-03     67.4902E-03    -89.7197E+06    -225.944E+06    -57.2835E+06     45.2600E+03    -171.407E-03     341.154E-03    -169.747E-03     92.5492E-03    -172.267E-03     341.060E-03    -169.576E-03     86.6299E-03
            1485     3.03853E-03     67.3864E-03    -96.1334E+06    -245.250E+06    -72.0014E+06     82.9071E+03    -170.802E-03     340.524E-03    -169.722E-03     74.4113E-03    -171.331E-03     340.050E-03    -169.587E-03     69.8313E-03
            1486     2.27896E-03     67.3056E-03    -101.949E+06    -264.049E+06    -86.5983E+06     264.539E+03    -170.369E-03     340.055E-03    -169.685E-03     56.1687E-03    -170.652E-03     339.289E-03    -169.588E-03     52.8167E-03
            1487     1.51925E-03     67.2470E-03    -106.015E+06    -278.486E+06    -98.0130E+06     214.995E+03    -170.025E-03     339.653E-03    -169.628E-03     38.0009E-03    -170.138E-03     338.685E-03    -169.561E-03     35.7831E-03
            1488     759.783E-06     67.2110E-03    -109.012E+06    -284.053E+06    -106.617E+06     223.568E+03    -169.689E-03     339.252E-03    -169.563E-03     20.5257E-03    -169.709E-03     338.186E-03    -169.526E-03     19.3305E-03
            1489     14.4360E-03     69.5318E-03    -4.27166E+06     93.1885E+06     87.0373E+06         215.172    -167.169E-03     336.727E-03    -169.558E-03     155.568E-03    -176.111E-03     345.732E-03    -169.252E-03     138.536E-03
            1490     13.6786E-03     69.2882E-03    -10.1229E+06     91.5339E+06     87.7275E+06     31.2569E+03    -168.872E-03     338.473E-03    -169.601E-03     215.832E-03    -182.757E-03     352.392E-03    -169.281E-03     193.356E-03
            1491     12.9167E-03     69.0159E-03    -16.4002E+06     87.8909E+06     87.8437E+06     13.5514E+03    -170.870E-03     340.512E-03    -169.641E-03     244.648E-03    -186.471E-03     356.112E-03    -169.306E-03     219.854E-03
            1492     12.1566E-03     68.7012E-03    -23.2610E+06     81.7201E+06     84.3429E+06     3.41266E+03    -173.033E-03     342.729E-03    -169.696E-03     268.540E-03    -189.732E-03     359.391E-03    -169.359E-03     241.615E-03
            1493     11.3957E-03     68.3717E-03    -29.6022E+06     69.0548E+06     72.7194E+06     100.938E+03    -175.244E-03     344.958E-03    -169.715E-03     270.006E-03    -190.670E-03     360.314E-03    -169.408E-03     243.043E-03
            1494     10.6363E-03     68.0502E-03    -35.4153E+06     56.6695E+06     56.5953E+06     227.614E+03    -176.049E-03     345.726E-03    -169.678E-03     256.111E-03    -188.984E-03     358.573E-03    -169.426E-03     230.871E-03
            1495     9.87653E-03     67.7531E-03    -41.4542E+06     45.0615E+06     38.1875E+06    -85.8112E+03    -175.689E-03     345.309E-03    -169.620E-03     235.562E-03    -185.922E-03     355.444E-03    -169.434E-03     213.000E-03
            1496     9.11629E-03     67.4803E-03    -47.5793E+06     15.3648E+06     22.6596E+06    -296.168E+03    -175.347E-03     344.952E-03    -169.606E-03     214.932E-03    -183.257E-03     352.683E-03    -169.446E-03     195.127E-03
            1497     8.35666E-03     67.2311E-03    -54.0431E+06    -36.2031E+06     9.94949E+06     208.918E+03    -174.994E-03     344.634E-03    -169.639E-03     196.593E-03    -181.062E-03     350.353E-03    -169.459E-03     179.379E-03
            1498     7.59704E-03     67.0018E-03    -59.6143E+06    -85.9027E+06    -1.77277E+06     534.732E+03    -174.601E-03     344.278E-03    -169.677E-03     179.891E-03    -179.231E-03     348.396E-03    -169.475E-03     165.019E-03
            1499     6.83736E-03     66.7919E-03    -65.1832E+06    -124.258E+06    -11.8107E+06     479.182E+03    -174.098E-03     343.806E-03    -169.708E-03     163.166E-03    -177.593E-03     346.663E-03    -169.493E-03     150.419E-03
            1500     6.07737E-03     66.6024E-03    -71.2505E+06    -155.817E+06    -22.2468E+06     454.044E+03    -173.470E-03     343.197E-03    -169.726E-03     145.909E-03    -176.051E-03     345.035E-03    -169.508E-03     135.133E-03
            1501     5.31754E-03     66.4332E-03    -77.2594E+06    -187.848E+06    -32.8729E+06     142.353E+03    -172.817E-03     342.555E-03    -169.738E-03     128.277E-03    -174.669E-03     343.561E-03    -169.518E-03     119.273E-03
            1502     4.55810E-03     66.2861E-03    -83.5914E+06    -209.596E+06    -44.5590E+06    -234.744E+03    -172.084E-03     341.809E-03    -169.725E-03     110.560E-03    -173.376E-03     342.189E-03    -169.523E-03     103.165E-03
            1503     3.79849E-03     66.1603E-03    -89.9833E+06    -226.120E+06    -57.4684E+06    -108.295E+03    -171.309E-03     341.017E-03    -169.708E-03     92.7118E-03    -172.170E-03     340.923E-03    -169.537E-03     86.7986E-03
            1504     3.03850E-03     66.0568E-03    -96.3620E+06    -245.479E+06    -72.5637E+06     101.270E+03    -170.697E-03     340.397E-03    -169.700E-03     74.6431E-03    -171.226E-03     339.923E-03    -169.567E-03     70.0719E-03
            1505     2.27869E-03     65.9755E-03    -101.611E+06    -263.861E+06    -86.6164E+06     80.7479E+03    -170.324E-03     340.011E-03    -169.687E-03     56.3973E-03    -170.606E-03     339.246E-03    -169.590E-03     53.0480E-03
            1506     1.51936E-03     65.9171E-03    -105.820E+06    -278.523E+06    -98.4225E+06    -6.47065E+03    -169.985E-03     339.641E-03    -169.656E-03     37.9922E-03    -170.096E-03     338.673E-03    -169.591E-03     35.7748E-03
            1507     759.452E-06     65.8817E-03    -109.009E+06    -283.972E+06    -106.511E+06    -90.8746E+03    -169.753E-03     339.347E-03    -169.594E-03     20.4395E-03    -169.772E-03     338.281E-03    -169.557E-03     19.2465E-03
            1508     14.4372E-03     68.1997E-03    -4.36389E+06     93.3655E+06     87.3911E+06     92.0962E+03    -167.641E-03     337.213E-03    -169.573E-03     154.644E-03    -176.567E-03     346.203E-03    -169.265E-03     137.548E-03
            1509     13.6760E-03     67.9562E-03    -9.80935E+06     91.3596E+06     88.1660E+06     353.339E+03    -168.447E-03     338.060E-03    -169.612E-03     215.083E-03    -182.280E-03     351.926E-03    -169.290E-03     192.690E-03
            1510     12.9175E-03     67.6869E-03    -15.5597E+06     87.1186E+06     88.2723E+06     746.646E+03    -170.452E-03     340.130E-03    -169.678E-03     244.815E-03    -186.034E-03     355.710E-03    -169.341E-03     220.116E-03
            1511     12.1556E-03     67.3724E-03    -21.6582E+06     82.9993E+06     85.6534E+06     765.763E+03    -173.659E-03     343.388E-03    -169.729E-03     268.692E-03    -190.399E-03     360.097E-03    -169.389E-03     241.625E-03
            1512     11.3961E-03     67.0397E-03    -28.6069E+06     70.5404E+06     73.8944E+06     195.751E+03    -175.807E-03     345.512E-03    -169.705E-03     269.366E-03    -191.245E-03     360.885E-03    -169.396E-03     242.284E-03
            1513     10.6365E-03     66.7197E-03    -35.6741E+06     56.0342E+06     55.5820E+06    -552.002E+03    -176.046E-03     345.677E-03    -169.631E-03     254.913E-03    -188.952E-03     358.494E-03    -169.383E-03     229.661E-03
            1514     9.87667E-03     66.4222E-03    -41.9532E+06     43.9783E+06     36.9144E+06    -468.192E+03    -175.687E-03     345.247E-03    -169.559E-03     234.902E-03    -185.905E-03     355.364E-03    -169.378E-03     212.331E-03
            1515     9.11752E-03     66.1500E-03    -47.8674E+06     15.1074E+06     22.7359E+06     397.786E+03    -175.150E-03     344.700E-03    -169.550E-03     214.637E-03    -183.052E-03     352.420E-03    -169.389E-03     194.870E-03
            1516     8.35748E-03     65.9013E-03    -53.6072E+06    -35.5027E+06     10.6673E+06     527.677E+03    -174.751E-03     344.350E-03    -169.599E-03     196.813E-03    -180.820E-03     350.071E-03    -169.416E-03     179.632E-03
            1517     7.59721E-03     65.6718E-03    -59.4883E+06    -86.3550E+06    -1.57713E+06     62.0405E+03    -174.521E-03     344.172E-03    -169.651E-03     180.255E-03    -179.155E-03     348.293E-03    -169.447E-03     165.379E-03
            1518     6.83712E-03     65.4619E-03    -65.1387E+06    -124.635E+06    -11.6704E+06     43.0063E+03    -174.103E-03     343.788E-03    -169.686E-03     163.327E-03    -177.599E-03     346.644E-03    -169.469E-03     150.574E-03
            1519     6.07759E-03     65.2721E-03    -70.5956E+06    -155.486E+06    -21.5664E+06     274.577E+03    -173.477E-03     343.179E-03    -169.702E-03     146.028E-03    -176.055E-03     345.017E-03    -169.482E-03     135.254E-03
            1520     5.31798E-03     65.1035E-03    -76.7251E+06    -187.372E+06    -32.6341E+06     113.477E+03    -172.719E-03     342.437E-03    -169.718E-03     128.492E-03    -174.570E-03     343.444E-03    -169.498E-03     119.497E-03
            1521     4.55796E-03     64.9559E-03    -83.2809E+06    -209.494E+06    -44.7193E+06    -21.9472E+03    -171.970E-03     341.692E-03    -169.722E-03     110.763E-03    -173.259E-03     342.071E-03    -169.521E-03     103.388E-03
            1522     3.79809E-03     64.8306E-03    -89.9228E+06    -226.595E+06    -57.9219E+06     24.4823E+03    -171.291E-03     341.011E-03    -169.720E-03     92.8345E-03    -172.151E-03     340.915E-03    -169.550E-03     86.9295E-03
            1523     3.03847E-03     64.7271E-03    -95.7522E+06    -245.364E+06    -72.2260E+06    -28.0019E+03    -170.736E-03     340.452E-03    -169.716E-03     74.7611E-03    -171.263E-03     339.977E-03    -169.582E-03     70.1907E-03
            1524     2.27885E-03     64.6456E-03    -101.044E+06    -263.897E+06    -86.4376E+06    -173.782E+03    -170.287E-03     339.998E-03    -169.711E-03     56.3961E-03    -170.566E-03     339.232E-03    -169.614E-03     53.0465E-03
            1525     1.51896E-03     64.5872E-03    -105.747E+06    -278.442E+06    -98.1988E+06    -125.590E+03    -169.975E-03     339.681E-03    -169.706E-03     37.8944E-03    -170.086E-03     338.713E-03    -169.640E-03     35.6776E-03
            1526     759.723E-06     64.5519E-03    -108.244E+06    -283.716E+06    -106.638E+06    -57.0517E+03    -169.907E-03     339.475E-03    -169.568E-03     20.4380E-03    -169.923E-03     338.409E-03    -169.532E-03     19.2561E-03
            1527     14.4382E-03     66.8687E-03    -4.30096E+06     93.4010E+06     87.0900E+06    -148.862E+03    -167.347E-03     336.907E-03    -169.560E-03     155.191E-03    -176.261E-03     345.885E-03    -169.254E-03     138.183E-03
            1528     13.6787E-03     66.6287E-03    -9.23932E+06     90.7032E+06     87.7184E+06     180.488E+03    -167.910E-03     337.536E-03    -169.626E-03     215.480E-03    -181.729E-03     351.390E-03    -169.306E-03     193.186E-03
            1529     12.9145E-03     66.3576E-03    -15.0735E+06     86.5130E+06     88.0096E+06     491.698E+03    -171.062E-03     340.752E-03    -169.690E-03     244.291E-03    -186.654E-03     356.342E-03    -169.354E-03     219.464E-03
            1530     12.1560E-03     66.0399E-03    -21.0787E+06     83.1339E+06     86.4887E+06     948.873E+03    -174.356E-03     344.052E-03    -169.696E-03     267.730E-03    -191.084E-03     360.750E-03    -169.354E-03     240.540E-03
            1531     11.3973E-03     65.7083E-03    -27.5558E+06     71.3478E+06     74.8881E+06     926.849E+03    -175.837E-03     345.472E-03    -169.635E-03     268.295E-03    -191.243E-03     360.816E-03    -169.324E-03     241.216E-03
            1532     10.6378E-03     65.3896E-03    -34.5034E+06     57.0048E+06     55.9665E+06     388.131E+03    -175.813E-03     345.366E-03    -169.553E-03     254.554E-03    -188.704E-03     358.175E-03    -169.306E-03     229.349E-03
            1533     9.87828E-03     65.0917E-03    -41.2138E+06     43.9747E+06     37.0004E+06     483.146E+03    -175.317E-03     344.817E-03    -169.500E-03     235.172E-03    -185.526E-03     354.928E-03    -169.319E-03     212.673E-03
            1534     9.11753E-03     64.8205E-03    -47.3283E+06     15.2979E+06     23.4503E+06     311.775E+03    -174.840E-03     344.363E-03    -169.522E-03     215.269E-03    -182.743E-03     352.084E-03    -169.359E-03     195.555E-03
            1535     8.35698E-03     64.5715E-03    -52.8073E+06    -35.5460E+06     11.6495E+06     151.620E+03    -174.768E-03     344.357E-03    -169.589E-03     197.256E-03    -180.836E-03     350.078E-03    -169.403E-03     180.075E-03
            1536     7.59714E-03     64.3417E-03    -58.0654E+06    -86.0627E+06    -793.164E+03     236.826E+03    -174.553E-03     344.191E-03    -169.638E-03     180.246E-03    -179.184E-03     348.313E-03    -169.433E-03     165.364E-03
            1537     6.83759E-03     64.1318E-03    -63.8944E+06    -124.274E+06    -11.2475E+06     240.111E+03    -174.012E-03     343.686E-03    -169.674E-03     163.344E-03    -177.496E-03     346.535E-03    -169.457E-03     150.621E-03
            1538     6.07759E-03     63.9421E-03     -70.317E+06    -156.050E+06    -21.8898E+06     203.938E+03    -173.352E-03     343.057E-03    -169.705E-03     146.245E-03    -175.925E-03     344.890E-03    -169.486E-03     135.491E-03
            1539     5.31755E-03     63.7735E-03    -76.5626E+06    -187.315E+06    -32.4743E+06     342.535E+03    -172.695E-03     342.431E-03    -169.736E-03     128.680E-03    -174.544E-03     343.437E-03    -169.516E-03     119.698E-03
            1540     4.55789E-03     63.6262E-03    -82.9631E+06    -208.984E+06    -44.5275E+06     372.305E+03    -171.992E-03     341.736E-03    -169.744E-03     110.725E-03    -173.278E-03     342.115E-03    -169.543E-03     103.361E-03
            1541     3.79812E-03     63.5007E-03    -89.4084E+06    -226.353E+06    -57.8046E+06     83.8036E+03    -171.353E-03     341.090E-03    -169.737E-03     92.6867E-03    -172.209E-03     340.992E-03    -169.568E-03     86.7860E-03
            1542     3.03837E-03     63.3970E-03    -95.7134E+06    -245.463E+06    -72.0989E+06    -63.0962E+03    -170.809E-03     340.529E-03    -169.719E-03     74.5942E-03    -171.336E-03     340.053E-03    -169.585E-03     70.0180E-03
            1543     2.27870E-03     63.3157E-03    -101.358E+06    -263.965E+06    -86.3056E+06     55.9115E+03    -170.289E-03     339.991E-03    -169.702E-03     56.2168E-03    -170.569E-03     339.224E-03    -169.603E-03     52.8714E-03
            1544     1.51923E-03     63.2575E-03    -105.629E+06    -278.408E+06    -98.1672E+06    -127.979E+03    -169.911E-03     339.619E-03    -169.708E-03     37.8610E-03    -170.020E-03     338.650E-03    -169.642E-03     35.6510E-03
            1545     759.367E-06     63.2214E-03    -108.038E+06    -283.612E+06    -106.458E+06    -61.2049E+03    -169.876E-03     339.516E-03    -169.640E-03     20.5084E-03    -169.891E-03     338.450E-03    -169.605E-03     19.3170E-03
            1546     14.4372E-03     65.5428E-03    -4.90072E+06     93.0560E+06     85.8766E+06    -115.609E+03    -167.547E-03     337.159E-03    -169.612E-03     156.112E-03    -176.502E-03     346.178E-03    -169.310E-03     139.062E-03
            1547     13.6738E-03     65.2968E-03    -9.58287E+06     90.8876E+06     87.6839E+06    -313.306E+03    -169.232E-03     338.873E-03    -169.642E-03     215.438E-03    -183.133E-03     352.809E-03    -169.321E-03     192.890E-03
            1548     12.9182E-03     65.0273E-03    -14.5894E+06     86.7955E+06     88.9258E+06    -39.9858E+03    -172.113E-03     341.744E-03    -169.631E-03     243.237E-03    -187.739E-03     357.368E-03    -169.291E-03     218.167E-03
            1549     12.1584E-03     64.7086E-03    -20.9844E+06     81.9266E+06     85.7266E+06     358.361E+03    -174.206E-03     343.797E-03    -169.591E-03     267.102E-03    -190.908E-03     360.467E-03    -169.251E-03     239.932E-03
            1550     11.3983E-03     64.3781E-03    -27.6545E+06     70.2046E+06     73.6331E+06     427.452E+03    -175.108E-03     344.659E-03    -169.551E-03     268.548E-03    -190.485E-03     359.973E-03    -169.244E-03     241.607E-03
            1551     10.6383E-03     64.0588E-03    -33.5714E+06     58.0318E+06     57.6364E+06     1.18019E+06    -175.315E-03     344.840E-03    -169.525E-03     255.547E-03    -188.209E-03     357.654E-03    -169.272E-03     230.448E-03
            1552     9.87759E-03     63.7625E-03    -39.7335E+06     45.6797E+06     39.6989E+06     1.01947E+06    -175.125E-03     344.634E-03    -169.509E-03     235.937E-03    -185.339E-03     354.754E-03    -169.319E-03     213.493E-03
            1553     9.11706E-03     63.4911E-03    -45.5906E+06     15.7273E+06     24.6234E+06     584.790E+03    -175.011E-03     344.545E-03    -169.533E-03     215.558E-03    -182.904E-03     352.260E-03    -169.367E-03     195.853E-03
            1554     8.35741E-03     63.2410E-03    -51.3173E+06    -36.3821E+06     11.6474E+06     415.907E+03    -174.890E-03     344.476E-03    -169.586E-03     197.210E-03    -180.955E-03     350.196E-03    -169.401E-03     180.008E-03
            1555     7.59764E-03     63.0120E-03    -57.5813E+06    -85.8553E+06    -813.545E+03     659.453E+03    -174.499E-03     344.132E-03    -169.633E-03     180.385E-03    -179.125E-03     348.252E-03    -169.429E-03     165.528E-03
            1556     6.83732E-03     62.8018E-03    -63.9167E+06    -123.859E+06    -11.2899E+06     902.144E+03    -173.951E-03     343.629E-03    -169.678E-03     163.491E-03    -177.431E-03     346.475E-03    -169.462E-03     150.799E-03
            1557     6.07724E-03     62.6127E-03    -70.1133E+06    -155.753E+06    -21.7148E+06     691.465E+03    -173.351E-03     343.066E-03    -169.715E-03     146.118E-03    -175.921E-03     344.897E-03    -169.496E-03     135.377E-03
            1558     5.31749E-03     62.4432E-03    -76.5299E+06    -187.265E+06    -32.3280E+06     608.322E+03    -172.729E-03     342.472E-03    -169.743E-03     128.327E-03    -174.573E-03     343.474E-03    -169.522E-03     119.355E-03
            1559     4.55778E-03     62.2964E-03    -83.0008E+06    -208.688E+06    -44.2769E+06     434.105E+03    -172.061E-03     341.800E-03    -169.739E-03     110.398E-03    -173.347E-03     342.179E-03    -169.537E-03     103.027E-03
            1560     3.79811E-03     62.1705E-03    -89.7013E+06    -225.828E+06    -57.4403E+06     405.970E+03    -171.402E-03     341.117E-03    -169.715E-03     92.4801E-03    -172.260E-03     341.022E-03    -169.545E-03     86.5795E-03
            1561     3.03860E-03     62.0672E-03    -96.2232E+06    -245.333E+06    -72.3336E+06     138.451E+03    -170.772E-03     340.458E-03    -169.687E-03     74.4083E-03    -171.300E-03     339.984E-03    -169.553E-03     69.8356E-03
            1562     2.27898E-03     61.9859E-03    -101.455E+06    -263.720E+06    -86.3633E+06    -65.3106E+03    -170.250E-03     339.919E-03    -169.669E-03     56.1700E-03    -170.530E-03     339.153E-03    -169.571E-03     52.8230E-03
            1563     1.51916E-03     61.9277E-03    -105.720E+06    -278.374E+06    -98.1388E+06    -45.3285E+03    -169.890E-03     339.564E-03    -169.674E-03     37.8970E-03    -170.001E-03     338.596E-03    -169.607E-03     35.6911E-03
            1564     759.564E-06     61.8918E-03    -109.065E+06    -284.376E+06    -107.085E+06    -146.453E+03    -169.725E-03     339.437E-03    -169.712E-03     20.6937E-03    -169.743E-03     338.370E-03    -169.677E-03     19.5019E-03
            1565     14.4335E-03     64.2087E-03    -4.81967E+06     93.2048E+06     85.8785E+06    -103.494E+03    -168.356E-03     337.962E-03    -169.606E-03     152.956E-03    -177.260E-03     346.931E-03    -169.305E-03     135.818E-03
            1566     13.6794E-03     63.9659E-03    -9.41426E+06     91.4644E+06     87.9895E+06    -738.307E+03    -169.727E-03     339.314E-03    -169.586E-03     214.069E-03    -183.661E-03     353.284E-03    -169.265E-03     191.332E-03
            1567     12.9178E-03     63.6939E-03    -15.0081E+06     85.6642E+06     88.4709E+06    -735.242E+03    -171.865E-03     341.425E-03    -169.561E-03     243.924E-03    -187.532E-03     357.087E-03    -169.221E-03     218.859E-03
            1568     12.1594E-03     63.3785E-03    -21.3757E+06     81.5530E+06     86.0293E+06    -250.489E+03    -173.721E-03     343.273E-03    -169.552E-03     268.530E-03    -190.456E-03     359.972E-03    -169.209E-03     241.466E-03
            1569     11.3987E-03     63.0494E-03    -27.8106E+06     70.4250E+06     74.3537E+06     224.962E+03    -174.772E-03     344.324E-03    -169.552E-03     269.974E-03    -190.169E-03     359.656E-03    -169.242E-03     243.124E-03
            1570     10.6374E-03     62.7291E-03    -34.4487E+06     56.9479E+06     56.3603E+06     403.905E+03    -175.241E-03     344.786E-03    -169.545E-03     256.010E-03    -188.112E-03     357.574E-03    -169.296E-03     230.960E-03
            1571     9.87695E-03     62.4329E-03    -40.6588E+06     46.0616E+06     38.4553E+06     345.934E+03    -175.334E-03     344.860E-03    -169.526E-03     235.588E-03    -185.543E-03     354.977E-03    -169.342E-03     213.113E-03
            1572     9.11745E-03     62.1600E-03    -46.6534E+06     15.4028E+06     23.4079E+06     464.840E+03    -175.126E-03     344.663E-03    -169.537E-03     215.415E-03    -183.026E-03     352.384E-03    -169.375E-03     195.681E-03
            1573     8.35733E-03     61.9115E-03    -53.1158E+06    -36.7547E+06     10.3535E+06     581.325E+03    -174.796E-03     344.387E-03    -169.591E-03     197.433E-03    -180.867E-03     350.109E-03    -169.409E-03     180.251E-03
            1574     7.59692E-03     61.6816E-03    -59.0801E+06    -86.2599E+06    -1.61834E+06     620.787E+03    -174.521E-03     344.167E-03    -169.645E-03     180.460E-03    -179.146E-03     348.280E-03    -169.443E-03     165.621E-03
            1575     6.83721E-03     61.4723E-03    -64.4752E+06    -124.406E+06    -11.7542E+06     605.876E+03    -174.147E-03     343.826E-03    -169.679E-03     163.274E-03    -177.629E-03     346.672E-03    -169.464E-03     150.554E-03
            1576     6.07763E-03     61.2821E-03    -70.2445E+06    -154.990E+06    -21.5151E+06     1.00474E+06    -173.532E-03     343.221E-03    -169.689E-03     145.692E-03    -176.104E-03     345.056E-03    -169.470E-03     134.930E-03
            1577     5.31790E-03     61.1138E-03    -76.6629E+06    -186.364E+06    -32.1805E+06     1.00283E+06    -172.735E-03     342.429E-03    -169.694E-03     127.949E-03    -174.579E-03     343.433E-03    -169.474E-03     118.980E-03
            1578     4.55811E-03     60.9660E-03    -83.4770E+06    -208.340E+06    -44.2355E+06     543.359E+03    -171.999E-03     341.683E-03    -169.684E-03     110.186E-03    -173.286E-03     342.063E-03    -169.482E-03     102.822E-03
            1579     3.79853E-03     60.8409E-03    -89.8856E+06    -225.565E+06    -57.1248E+06     232.251E+03    -171.322E-03     340.983E-03    -169.662E-03     92.3147E-03    -172.181E-03     340.889E-03    -169.490E-03     86.4079E-03
            1580     3.03867E-03     60.7372E-03    -95.8865E+06    -244.649E+06    -71.7036E+06     164.850E+03    -170.675E-03     340.315E-03    -169.640E-03     74.2996E-03    -171.202E-03     339.841E-03    -169.505E-03     69.7344E-03
            1581     2.27883E-03     60.6565E-03    -101.536E+06    -263.701E+06    -86.4100E+06    -34.6472E+03    -170.191E-03     339.820E-03    -169.628E-03     56.1256E-03    -170.472E-03     339.054E-03    -169.531E-03     52.7823E-03
            1582     1.51924E-03     60.5977E-03    -106.184E+06    -278.698E+06    -98.3439E+06    -91.0812E+03    -169.914E-03     339.529E-03    -169.615E-03     37.8817E-03    -170.026E-03     338.560E-03    -169.549E-03     35.6757E-03
            1583     759.664E-06     60.5621E-03    -109.023E+06    -284.078E+06    -106.723E+06     189.943E+03    -169.728E-03     339.277E-03    -169.549E-03     20.6278E-03    -169.747E-03     338.211E-03    -169.513E-03     19.4456E-03
            1584     14.4418E-03     62.8802E-03    -4.72746E+06     93.8530E+06     86.5289E+06    -201.605E+03    -168.348E-03     337.863E-03    -169.515E-03     153.544E-03    -177.262E-03     346.843E-03    -169.212E-03     136.431E-03
            1585     13.6771E-03     62.6334E-03    -10.5176E+06     90.2692E+06     86.5366E+06    -1.14247E+06    -168.889E-03     338.406E-03    -169.517E-03     215.469E-03    -182.814E-03     352.363E-03    -169.200E-03     192.872E-03
            1586     12.9192E-03     62.3642E-03    -16.6869E+06     85.0375E+06     86.4006E+06    -884.703E+03    -170.832E-03     340.382E-03    -169.550E-03     244.629E-03    -186.449E-03     355.991E-03    -169.217E-03     219.791E-03
            1587     12.1571E-03     62.0480E-03    -22.9140E+06     82.2557E+06     85.2472E+06    -703.630E+03    -173.317E-03     342.914E-03    -169.597E-03     268.867E-03    -190.029E-03     359.590E-03    -169.257E-03     241.903E-03
            1588     11.3969E-03     61.7187E-03    -29.4169E+06     69.1523E+06     74.7111E+06    -1.42989E+06    -175.097E-03     344.709E-03    -169.612E-03     269.737E-03    -190.510E-03     360.046E-03    -169.296E-03     242.804E-03
            1589     10.6373E-03     61.3999E-03    -35.5418E+06     55.4502E+06     56.9032E+06    -812.219E+03    -175.624E-03     345.205E-03    -169.581E-03     255.751E-03    -188.497E-03     357.983E-03    -169.325E-03     230.649E-03
            1590     9.87779E-03     61.1018E-03    -41.5035E+06     45.3264E+06     37.4968E+06     473.910E+03    -175.426E-03     344.963E-03    -169.537E-03     235.883E-03    -185.641E-03     355.082E-03    -169.355E-03     213.406E-03
            1591     9.11725E-03     60.8310E-03    -48.0464E+06     15.1257E+06     22.1985E+06     612.788E+03    -175.146E-03     344.691E-03    -169.545E-03     215.607E-03    -183.062E-03     352.426E-03    -169.387E-03     195.852E-03
            1592     8.35681E-03     60.5811E-03    -53.7007E+06    -36.3744E+06     10.4552E+06     241.836E+03    -174.977E-03     344.571E-03    -169.594E-03     197.037E-03    -181.041E-03     350.285E-03    -169.411E-03     179.846E-03
            1593     7.59725E-03     60.3520E-03    -58.8853E+06    -86.0328E+06    -1.36254E+06     291.524E+03    -174.723E-03     344.345E-03    -169.623E-03     179.706E-03    -179.340E-03     348.452E-03    -169.419E-03     164.839E-03
            1594     6.83750E-03     60.1415E-03    -64.9796E+06    -124.335E+06    -12.0779E+06     524.081E+03    -174.210E-03     343.839E-03    -169.630E-03     162.707E-03    -177.690E-03     346.682E-03    -169.415E-03     149.977E-03
            1595     6.07796E-03     59.9521E-03    -71.1084E+06    -155.718E+06    -22.3675E+06     511.194E+03    -173.486E-03     343.112E-03    -169.626E-03     145.421E-03    -176.058E-03     344.943E-03    -169.409E-03     134.654E-03
            1596     5.31831E-03     59.7837E-03    -76.8397E+06    -185.786E+06    -32.0080E+06     910.568E+03    -172.705E-03     342.333E-03    -169.628E-03     127.923E-03    -174.551E-03     343.340E-03    -169.408E-03     118.954E-03
            1597     4.55855E-03     59.6366E-03    -82.9481E+06    -207.051E+06    -43.5301E+06     652.956E+03    -171.918E-03     341.536E-03    -169.618E-03     110.270E-03    -173.204E-03     341.918E-03    -169.415E-03     102.920E-03
            1598     3.79858E-03     59.5109E-03    -89.5046E+06    -225.411E+06    -56.9792E+06    -75.9966E+03    -171.216E-03     340.817E-03    -169.601E-03     92.3311E-03    -172.073E-03     340.722E-03    -169.429E-03     86.4301E-03
            1599     3.03890E-03     59.4079E-03    -95.7938E+06    -244.650E+06    -71.5207E+06     133.380E+03    -170.647E-03     340.227E-03    -169.580E-03     74.1933E-03    -171.174E-03     339.753E-03    -169.444E-03     69.6299E-03
            1600     2.27917E-03     59.3267E-03    -101.489E+06    -263.458E+06    -86.1141E+06     182.639E+03    -170.202E-03     339.751E-03    -169.548E-03     55.9916E-03    -170.483E-03     338.985E-03    -169.450E-03     52.6544E-03
            1601     1.51941E-03     59.2683E-03    -106.085E+06    -278.709E+06    -98.5405E+06     40.4163E+03    -169.871E-03     339.369E-03    -169.498E-03     37.7339E-03    -169.981E-03     338.399E-03    -169.433E-03     35.5287E-03
            1602     759.741E-06     59.2322E-03    -109.086E+06    -284.213E+06    -106.971E+06    -284.626E+03    -169.692E-03     339.005E-03    -169.313E-03     20.4510E-03    -169.711E-03     337.938E-03    -169.277E-03     19.2538E-03
            1603     14.4354E-03     61.5470E-03    -4.57660E+06     94.1913E+06     86.6456E+06     294.602E+03    -167.863E-03     337.357E-03    -169.494E-03     155.480E-03    -176.799E-03     346.360E-03    -169.191E-03     138.389E-03
            1604     13.6801E-03     61.3045E-03    -10.1580E+06     89.7731E+06     86.4971E+06    -224.143E+03    -168.459E-03     337.985E-03    -169.526E-03     215.726E-03    -182.330E-03     351.888E-03    -169.209E-03     193.284E-03
            1605     12.9169E-03     61.0344E-03    -15.7713E+06     85.1726E+06     86.7748E+06    -420.569E+03    -170.610E-03     340.194E-03    -169.584E-03     244.890E-03    -186.210E-03     355.789E-03    -169.251E-03     220.111E-03
            1606     12.1575E-03     60.7188E-03    -22.2114E+06     82.9285E+06     84.1598E+06    -546.143E+03    -173.569E-03     343.192E-03    -169.623E-03     268.322E-03    -190.280E-03     359.875E-03    -169.290E-03     241.267E-03
            1607     11.3973E-03     60.3878E-03    -29.4936E+06     70.7218E+06     71.4117E+06    -839.577E+03    -175.061E-03     344.674E-03    -169.613E-03     268.744E-03    -190.449E-03     360.001E-03    -169.316E-03     241.802E-03
            1608     10.6375E-03     60.0691E-03    -37.3794E+06     55.2497E+06     52.9141E+06    -1.20003E+06    -175.487E-03     345.072E-03    -169.586E-03     255.805E-03    -188.371E-03     357.866E-03    -169.347E-03     230.704E-03
            1609     9.87645E-03     59.7723E-03    -43.9144E+06     41.7956E+06     35.2294E+06    -1.39349E+06    -175.640E-03     345.195E-03    -169.555E-03     236.048E-03    -185.868E-03     355.313E-03    -169.375E-03     213.505E-03
            1610     9.11664E-03     59.4998E-03    -47.9763E+06     14.1058E+06     22.7865E+06    -843.438E+03    -175.546E-03     345.088E-03    -169.542E-03     214.893E-03    -183.464E-03     352.819E-03    -169.379E-03     195.046E-03
            1611     8.35769E-03     59.2509E-03    -52.9971E+06    -35.7485E+06     11.1717E+06     378.195E+03    -175.252E-03     344.798E-03    -169.546E-03     196.223E-03    -181.313E-03     350.511E-03    -169.362E-03     178.989E-03
            1612     7.59804E-03     59.0214E-03    -59.8113E+06    -85.8735E+06    -1.72525E+06     747.363E+03    -174.743E-03     344.289E-03    -169.547E-03     179.383E-03    -179.360E-03     348.395E-03    -169.344E-03     164.522E-03
            1613     6.83852E-03     58.8119E-03    -65.9787E+06    -123.901E+06    -12.1428E+06     353.453E+03    -174.061E-03     343.613E-03    -169.552E-03     162.645E-03    -177.542E-03     346.455E-03    -169.337E-03     149.937E-03
            1614     6.07840E-03     58.6224E-03    -71.8828E+06    -156.058E+06    -22.3356E+06     123.948E+03    -173.320E-03     342.879E-03    -169.559E-03     145.368E-03    -175.890E-03     344.704E-03    -169.340E-03     134.624E-03
            1615     5.31847E-03     58.4540E-03    -78.0618E+06    -185.652E+06    -33.0958E+06    -255.321E+03    -172.605E-03     342.168E-03    -169.564E-03     127.829E-03    -174.453E-03     343.176E-03    -169.347E-03     118.858E-03
            1616     4.55868E-03     58.3070E-03    -83.8985E+06    -206.619E+06    -44.3606E+06    -347.158E+03    -171.855E-03     341.410E-03    -169.554E-03     110.157E-03    -173.144E-03     341.795E-03    -169.355E-03     102.805E-03
            1617     3.79890E-03     58.1816E-03    -90.0422E+06    -225.450E+06    -57.1808E+06     67.7817E+03    -171.162E-03     340.702E-03    -169.539E-03     92.2752E-03    -172.020E-03     340.605E-03    -169.368E-03     86.3889E-03
            1618     3.03904E-03     58.0781E-03    -96.4544E+06    -244.657E+06    -72.1858E+06     41.4070E+03    -170.631E-03     340.139E-03    -169.508E-03     74.1934E-03    -171.159E-03     339.666E-03    -169.375E-03     69.6329E-03
            1619     2.27935E-03     57.9974E-03    -101.919E+06    -263.606E+06    -86.5878E+06    -16.8799E+03    -170.171E-03     339.633E-03    -169.462E-03     56.0534E-03    -170.453E-03     338.868E-03    -169.364E-03     52.7146E-03
            1620     1.51976E-03     57.9386E-03    -106.174E+06    -278.572E+06    -98.2893E+06     51.8992E+03    -169.760E-03     339.171E-03    -169.411E-03     37.8769E-03    -169.872E-03     338.202E-03    -169.344E-03     35.6720E-03
            1621     759.946E-06     57.9035E-03    -109.456E+06    -284.542E+06    -107.394E+06     6.37299E+03    -169.458E-03     338.840E-03    -169.382E-03     20.5260E-03    -169.477E-03     337.773E-03    -169.348E-03     19.3419E-03
            1622     14.4407E-03     60.2158E-03    -3.88713E+06     94.2595E+06     86.5062E+06     183.538E+03    -167.586E-03     337.120E-03    -169.534E-03     155.887E-03    -176.526E-03     346.129E-03    -169.232E-03     138.812E-03
            1623     13.6763E-03     59.9745E-03    -8.39910E+06     91.2962E+06     88.2430E+06     700.965E+03    -168.611E-03     338.187E-03    -169.576E-03     215.447E-03    -182.485E-03     352.100E-03    -169.255E-03     192.987E-03
            1624     12.9176E-03     59.7056E-03    -14.3139E+06     85.8388E+06     88.5283E+06     255.259E+03    -171.255E-03     340.867E-03    -169.612E-03     244.486E-03    -186.852E-03     356.462E-03    -169.273E-03     219.627E-03
            1625     12.1572E-03     59.3862E-03    -20.7328E+06     82.3455E+06     85.7390E+06     129.699E+03    -173.672E-03     343.302E-03    -169.630E-03     268.222E-03    -190.356E-03     359.956E-03    -169.290E-03     241.208E-03
            1626     11.3979E-03     59.0587E-03    -27.8501E+06     70.8174E+06     72.4848E+06     1.54492E+06    -175.022E-03     344.638E-03    -169.616E-03     268.840E-03    -190.397E-03     359.955E-03    -169.315E-03     241.958E-03
            1627     10.6362E-03     58.7398E-03    -34.9695E+06     57.3855E+06     53.4046E+06     1.53329E+06    -175.758E-03     345.328E-03    -169.570E-03     255.127E-03    -188.644E-03     358.138E-03    -169.335E-03     229.966E-03
            1628     9.87710E-03     58.4409E-03    -41.8855E+06     44.6498E+06     35.0738E+06    -787.461E+03    -175.899E-03     345.401E-03    -169.502E-03     234.726E-03    -186.106E-03     355.516E-03    -169.330E-03     212.125E-03
            1629     9.11824E-03     58.1692E-03    -49.3186E+06     12.5295E+06     20.4695E+06    -1.78767E+06    -175.510E-03     344.975E-03    -169.465E-03     214.129E-03    -183.406E-03     352.682E-03    -169.310E-03     194.289E-03
            1630     8.35832E-03     57.9203E-03    -55.7480E+06    -38.5219E+06     9.10415E+06    -490.917E+03    -175.072E-03     344.547E-03    -169.475E-03     196.239E-03    -181.134E-03     350.247E-03    -169.293E-03     179.022E-03
            1631     7.59862E-03     57.6917E-03    -60.5358E+06    -85.7472E+06    -1.57265E+06     132.794E+03    -174.640E-03     344.128E-03    -169.488E-03     179.670E-03    -179.262E-03     348.235E-03    -169.284E-03     164.821E-03
            1632     6.83842E-03     57.4820E-03    -65.6060E+06    -124.008E+06    -11.5816E+06     9.75094E+03    -174.040E-03     343.536E-03    -169.496E-03     162.729E-03    -177.518E-03     346.374E-03    -169.279E-03     150.029E-03
            1633     6.07882E-03     57.2929E-03    -71.2099E+06    -155.479E+06    -21.5806E+06    -95.9030E+03    -173.297E-03     342.796E-03    -169.499E-03     145.376E-03    -175.863E-03     344.620E-03    -169.278E-03     134.639E-03
            1634     5.31898E-03     57.1245E-03    -77.1707E+06    -184.782E+06    -32.4176E+06    -687.022E+03    -172.550E-03     342.050E-03    -169.500E-03     127.784E-03    -174.395E-03     343.059E-03    -169.282E-03     118.816E-03
            1635     4.55907E-03     56.9776E-03    -83.6419E+06    -207.280E+06    -44.3750E+06    -734.290E+03    -171.818E-03     341.304E-03    -169.486E-03     110.025E-03    -173.103E-03     341.685E-03    -169.286E-03     102.667E-03
            1636     3.79915E-03     56.8522E-03    -90.2087E+06    -225.806E+06    -57.1432E+06    -262.393E+03    -171.128E-03     340.591E-03    -169.463E-03     92.1735E-03    -171.985E-03     340.492E-03    -169.291E-03     86.2866E-03
            1637     3.03930E-03     56.7489E-03    -96.3724E+06    -244.528E+06    -71.9996E+06    -113.021E+03    -170.528E-03     339.958E-03    -169.430E-03     74.1242E-03    -171.055E-03     339.484E-03    -169.296E-03     69.5715E-03
            1638     2.27951E-03     56.6678E-03    -101.938E+06    -264.103E+06    -86.7640E+06    -161.001E+03    -170.019E-03     339.419E-03    -169.400E-03     55.9369E-03    -170.300E-03     338.651E-03    -169.303E-03     52.6024E-03
            1639     1.51946E-03     56.6100E-03    -106.339E+06    -278.798E+06    -98.4859E+06    -189.328E+03    -169.649E-03     339.033E-03    -169.384E-03     37.8372E-03    -169.762E-03     338.064E-03    -169.318E-03     35.6337E-03
            1640     759.629E-06     56.5738E-03    -109.376E+06    -284.240E+06    -106.747E+06     130.827E+03    -169.428E-03     338.828E-03    -169.400E-03     20.2543E-03    -169.448E-03     337.761E-03    -169.363E-03     19.0775E-03
            1641     14.4345E-03     58.8876E-03    -4.51388E+06     93.5377E+06     86.1759E+06    -430.293E+03    -167.675E-03     337.237E-03    -169.562E-03     155.308E-03    -176.590E-03     346.219E-03    -169.260E-03     138.222E-03
            1642     13.6773E-03     58.6427E-03    -9.46854E+06     91.2370E+06     87.5732E+06    -301.168E+03    -168.963E-03     338.550E-03    -169.587E-03     214.508E-03    -182.833E-03     352.457E-03    -169.268E-03     191.943E-03
            1643     12.9177E-03     58.3736E-03    -14.9722E+06      86.854E+06     88.0650E+06     38.3559E+03    -171.287E-03     340.891E-03    -169.604E-03     243.678E-03    -186.874E-03     356.477E-03    -169.268E-03     218.802E-03
            1644     12.1579E-03     58.0579E-03    -21.8091E+06     82.2236E+06     85.9886E+06     559.648E+03    -173.552E-03     343.179E-03    -169.627E-03     268.070E-03    -190.203E-03     359.795E-03    -169.284E-03     241.136E-03
            1645     11.3959E-03     57.7276E-03    -28.3101E+06     68.0139E+06     75.7262E+06     228.975E+03    -175.475E-03     345.092E-03    -169.617E-03     268.320E-03    -190.836E-03     360.374E-03    -169.296E-03     241.360E-03
            1646     10.6387E-03     57.4084E-03    -32.8202E+06     56.8381E+06     59.8593E+06     688.364E+03    -176.263E-03     345.800E-03    -169.538E-03     254.630E-03    -189.161E-03     358.610E-03    -169.273E-03     229.356E-03
            1647     9.87916E-03     57.1109E-03    -38.3808E+06     47.9600E+06     40.0788E+06     2.74353E+06    -175.815E-03     345.249E-03    -169.433E-03     235.023E-03    -186.015E-03     355.366E-03    -169.247E-03     212.508E-03
            1648     9.11848E-03     56.8389E-03    -45.8419E+06     15.0748E+06     23.1965E+06     2.46559E+06    -175.207E-03     344.611E-03    -169.404E-03     214.603E-03    -183.072E-03     352.299E-03    -169.243E-03     194.916E-03
            1649     8.35853E-03     56.5907E-03    -52.5591E+06    -38.5303E+06     10.8449E+06    -42.2384E+03    -174.944E-03     344.376E-03    -169.433E-03     196.407E-03    -180.986E-03     350.064E-03    -169.246E-03     179.227E-03
            1650     7.59841E-03     56.3614E-03    -58.1259E+06    -86.5928E+06    -235.258E+03    -541.541E+03    -174.633E-03     344.082E-03    -169.449E-03     179.437E-03    -179.241E-03     348.177E-03    -169.240E-03     164.579E-03
            1651     6.83914E-03     56.1523E-03    -63.6013E+06    -123.815E+06    -10.2208E+06    -29.3779E+03    -174.040E-03     343.490E-03    -169.450E-03     162.451E-03    -177.507E-03     346.321E-03    -169.229E-03     149.750E-03
            1652     6.07908E-03     55.9634E-03    -69.3634E+06    -154.633E+06    -20.5529E+06    -429.507E+03    -173.311E-03     342.753E-03    -169.441E-03     145.201E-03    -175.871E-03     344.577E-03    -169.219E-03     134.456E-03
            1653     5.31917E-03     55.7951E-03    -75.4956E+06    -184.995E+06    -30.9395E+06    -315.933E+03    -172.533E-03     341.969E-03    -169.437E-03     127.660E-03    -174.371E-03     342.973E-03    -169.214E-03     118.695E-03
            1654     4.55937E-03     55.6483E-03    -82.3816E+06    -207.678E+06    -43.3723E+06     78.2712E+03    -171.796E-03     341.209E-03    -169.413E-03     109.960E-03    -173.076E-03     341.586E-03    -169.209E-03     102.613E-03
            1655     3.79953E-03     55.5231E-03    -89.2232E+06    -225.958E+06    -56.9633E+06    -102.630E+03    -171.107E-03     340.482E-03    -169.375E-03     92.0736E-03    -171.958E-03     340.379E-03    -169.203E-03     86.1931E-03
            1656     3.03969E-03     55.4198E-03    -95.6848E+06    -245.042E+06    -71.3781E+06    -144.769E+03    -170.432E-03     339.770E-03    -169.338E-03     73.9901E-03    -170.955E-03     339.290E-03    -169.201E-03     69.4448E-03
            1657     2.27960E-03     55.3391E-03    -101.299E+06    -263.687E+06    -85.8009E+06     -2.0805E+03    -169.903E-03     339.215E-03    -169.311E-03     55.7577E-03    -170.181E-03     338.446E-03    -169.211E-03     52.4325E-03
            1658     1.51984E-03     55.2808E-03    -106.010E+06    -278.694E+06    -98.4152E+06     24.9120E+03    -169.562E-03     338.856E-03    -169.294E-03     37.6503E-03    -169.672E-03     337.886E-03    -169.228E-03     35.4525E-03
            1659     759.978E-06     55.2450E-03    -109.300E+06    -284.671E+06    -107.381E+06    -202.011E+03    -169.515E-03     338.645E-03    -169.130E-03     20.2251E-03    -169.533E-03     337.577E-03    -169.095E-03     19.0361E-03
            1660     14.4395E-03     57.5558E-03    -4.76746E+06     94.0058E+06     86.8411E+06    -201.199E+03    -168.240E-03     337.795E-03    -169.554E-03     154.594E-03    -177.159E-03     346.779E-03    -169.250E-03     137.441E-03
            1661     13.6783E-03     57.3126E-03    -10.3102E+06     90.8177E+06     86.9744E+06    -755.681E+03    -168.860E-03     338.420E-03    -169.561E-03     214.583E-03    -182.733E-03     352.327E-03    -169.242E-03     192.025E-03
            1662     12.9177E-03     57.0433E-03    -16.2397E+06     85.4824E+06     86.6418E+06    -626.320E+03    -171.145E-03     340.724E-03    -169.579E-03     243.331E-03    -186.724E-03     356.298E-03    -169.247E-03     218.463E-03
            1663     12.1568E-03     56.7280E-03    -22.1866E+06     81.6548E+06     84.3584E+06     129.552E+03    -173.886E-03     343.470E-03    -169.584E-03     267.200E-03    -190.542E-03     360.092E-03    -169.248E-03     240.148E-03
            1664     11.3994E-03     56.3965E-03    -28.6248E+06     70.0187E+06     72.6890E+06    -228.578E+03    -175.537E-03     345.081E-03    -169.544E-03     268.690E-03    -190.897E-03     360.377E-03    -169.241E-03     241.699E-03
            1665     10.6382E-03     56.0774E-03    -36.8649E+06     55.1683E+06     53.9254E+06    -1.35453E+06    -176.039E-03     345.508E-03    -169.470E-03     255.359E-03    -188.946E-03     358.324E-03    -169.227E-03     230.112E-03
            1666     9.87821E-03     55.7802E-03    -42.9533E+06     42.4721E+06     37.7948E+06    -547.125E+03    -175.795E-03     345.195E-03    -169.400E-03     235.193E-03    -186.004E-03     355.292E-03    -169.211E-03     212.660E-03
            1667     9.11876E-03     55.5094E-03    -45.9678E+06     16.1922E+06     26.6075E+06     1.14004E+06    -175.291E-03     344.667E-03    -169.376E-03     214.268E-03    -183.153E-03     352.346E-03    -169.200E-03     194.568E-03
            1668     8.35877E-03     55.2603E-03    -50.3978E+06    -34.9434E+06     13.7598E+06     984.905E+03    -174.940E-03     344.324E-03    -169.383E-03     195.948E-03    -180.976E-03     350.017E-03    -169.191E-03     178.780E-03
            1669     7.59955E-03     55.0317E-03    -56.7532E+06    -86.8944E+06     405.769E+03     182.075E+03    -174.557E-03     343.947E-03    -169.390E-03     179.131E-03    -179.154E-03     348.033E-03    -169.180E-03     164.290E-03
            1670     6.83914E-03     54.8228E-03    -62.9306E+06    -123.491E+06    -9.92586E+06    -155.610E+03    -173.993E-03     343.379E-03    -169.387E-03     162.252E-03    -177.456E-03     346.210E-03    -169.166E-03     149.551E-03
            1671     6.07957E-03     54.6337E-03    -69.1961E+06    -154.425E+06    -20.4650E+06    -81.8129E+03    -173.282E-03     342.655E-03    -169.373E-03     144.964E-03    -175.839E-03     344.477E-03    -169.151E-03     134.227E-03
            1672     5.31978E-03     54.4661E-03    -76.0221E+06    -185.942E+06    -31.6929E+06     129.763E+03    -172.517E-03     341.874E-03    -169.357E-03     127.443E-03    -174.353E-03     342.872E-03    -169.136E-03     118.490E-03
            1673     4.55973E-03     54.3191E-03    -82.5643E+06    -207.681E+06    -43.6529E+06     302.565E+03    -171.731E-03     341.057E-03    -169.326E-03     109.788E-03    -173.008E-03     341.431E-03    -169.124E-03     102.457E-03
            1674     3.79988E-03     54.1940E-03    -89.0674E+06    -225.645E+06    -56.9381E+06     380.690E+03    -170.968E-03     340.260E-03    -169.291E-03     92.0093E-03    -171.818E-03     340.157E-03    -169.120E-03     86.1458E-03
            1675     3.03989E-03     54.0911E-03    -95.3636E+06    -244.978E+06    -71.4613E+06     205.120E+03    -170.348E-03     339.609E-03    -169.261E-03     74.0775E-03    -170.869E-03     339.129E-03    -169.125E-03     69.5427E-03
            1676     2.28005E-03     54.0103E-03    -101.156E+06    -263.636E+06    -85.6930E+06     127.452E+03    -169.883E-03     339.111E-03    -169.228E-03     55.9260E-03    -170.161E-03     338.342E-03    -169.127E-03     52.6060E-03
            1677     1.51993E-03     53.9522E-03    -105.875E+06    -278.477E+06    -97.9840E+06     219.484E+03    -169.485E-03     338.682E-03    -169.197E-03     37.7369E-03    -169.595E-03     337.713E-03    -169.130E-03     35.5442E-03
            1678     759.871E-06     53.9164E-03    -108.834E+06    -284.229E+06    -106.793E+06     219.156E+03    -169.398E-03     338.444E-03    -169.046E-03     20.6114E-03    -169.416E-03     337.377E-03    -169.010E-03     19.4310E-03
            1679     14.4366E-03     56.2243E-03    -4.43540E+06     94.7921E+06     86.7727E+06    -200.376E+03    -168.134E-03     337.687E-03    -169.554E-03     155.664E-03    -177.104E-03     346.727E-03    -169.251E-03     138.466E-03
            1680     13.6775E-03     55.9826E-03    -9.51149E+06     91.3568E+06     87.6320E+06     84.3457E+03    -169.049E-03     338.612E-03    -169.563E-03     214.967E-03    -182.926E-03     352.525E-03    -169.244E-03     192.414E-03
            1681     12.9178E-03     55.7125E-03    -15.2607E+06     84.8861E+06     87.8052E+06    -246.998E+03    -171.545E-03     341.118E-03    -169.573E-03     243.902E-03    -187.119E-03     356.685E-03    -169.235E-03     219.004E-03
            1682     12.1601E-03     55.3969E-03    -21.2145E+06     80.5191E+06     85.4155E+06    -434.495E+03    -174.167E-03     343.730E-03    -169.563E-03     268.119E-03    -190.865E-03     360.391E-03    -169.222E-03     241.002E-03
            1683     11.3977E-03     55.0671E-03    -28.1574E+06     69.4746E+06     72.2301E+06     1.00187E+06    -175.660E-03     345.167E-03    -169.507E-03     269.340E-03    -191.049E-03     360.494E-03    -169.206E-03     242.341E-03
            1684     10.6385E-03     54.7465E-03    -34.9226E+06     57.3350E+06     53.9215E+06     1.50130E+06    -176.078E-03     345.500E-03    -169.422E-03     254.691E-03    -188.941E-03     358.286E-03    -169.185E-03     229.505E-03
            1685     9.87927E-03     54.4500E-03    -41.7096E+06     44.8164E+06     36.9381E+06    -1.26193E+06    -175.789E-03     345.125E-03    -169.336E-03     233.913E-03    -185.962E-03     355.202E-03    -169.156E-03     211.369E-03
            1686     9.11950E-03     54.1788E-03    -48.0547E+06     13.7849E+06     23.6707E+06    -3.18451E+06    -175.249E-03     344.549E-03    -169.300E-03     213.743E-03    -183.118E-03     352.227E-03    -169.131E-03     193.963E-03
            1687     8.36008E-03     53.9309E-03    -52.8553E+06    -37.4213E+06     11.9540E+06    -1.19707E+06    -174.846E-03     344.155E-03    -169.309E-03     195.888E-03    -180.882E-03     349.836E-03    -169.118E-03     178.711E-03
            1688     7.59932E-03     53.7022E-03    -57.4263E+06    -85.8828E+06    -16.9911E+03     156.984E+03    -174.478E-03     343.793E-03    -169.315E-03     179.039E-03    -179.072E-03     347.878E-03    -169.108E-03     164.221E-03
            1689     6.84011E-03     53.4930E-03    -63.0609E+06    -123.784E+06    -10.6509E+06     216.629E+03    -173.899E-03     343.211E-03    -169.312E-03     162.059E-03    -177.354E-03     346.034E-03    -169.094E-03     149.386E-03
            1690     6.07999E-03     53.3047E-03    -69.5827E+06    -155.161E+06    -21.3644E+06     721.141E+03    -173.181E-03     342.481E-03    -169.301E-03     144.922E-03    -175.733E-03     344.298E-03    -169.082E-03     134.213E-03
            1691     5.32001E-03     53.1366E-03    -75.9870E+06    -185.695E+06    -32.0930E+06     783.418E+03    -172.458E-03     341.746E-03    -169.288E-03     127.543E-03    -174.292E-03     342.744E-03    -169.069E-03     118.611E-03
            1692     4.56038E-03     52.9903E-03    -82.5678E+06    -207.573E+06    -44.0261E+06     682.027E+03    -171.657E-03     340.917E-03    -169.259E-03     109.925E-03    -172.934E-03     341.291E-03    -169.059E-03     102.607E-03
            1693     3.80009E-03     52.8654E-03    -89.3612E+06    -224.955E+06    -57.2795E+06     616.532E+03    -170.891E-03     340.119E-03    -169.228E-03     92.0655E-03    -171.742E-03     340.020E-03    -169.058E-03     86.2113E-03
            1694     3.03994E-03     52.7624E-03    -95.8046E+06    -244.363E+06    -72.0711E+06     435.644E+03    -170.288E-03     339.485E-03    -169.197E-03     73.9863E-03    -170.810E-03     339.008E-03    -169.064E-03     69.4614E-03
            1695     2.27980E-03     52.6816E-03    -101.360E+06    -263.717E+06    -86.3859E+06     266.692E+03    -169.796E-03     338.964E-03    -169.168E-03     55.8102E-03    -170.072E-03     338.195E-03    -169.071E-03     52.5007E-03
            1696     1.52005E-03     52.6236E-03    -105.755E+06    -278.454E+06    -98.0958E+06     66.8756E+03    -169.417E-03     338.567E-03    -169.150E-03     37.6819E-03    -169.526E-03     337.597E-03    -169.084E-03     35.4940E-03
            1697     759.999E-06     52.5883E-03    -108.130E+06    -283.620E+06    -106.376E+06     18.6212E+03    -169.197E-03     338.366E-03    -169.169E-03     20.7731E-03    -169.212E-03     337.300E-03    -169.133E-03     19.5961E-03
            1698     14.4371E-03     54.8919E-03    -4.75693E+06     94.6446E+06     85.7862E+06    -124.022E+03    -167.692E-03     337.222E-03    -169.530E-03     153.679E-03    -176.557E-03     346.157E-03    -169.232E-03     136.614E-03
            1699     13.6777E-03     54.6515E-03    -10.3099E+06     90.7195E+06     86.4821E+06    -101.141E+03    -168.548E-03     338.111E-03    -169.563E-03     214.193E-03    -182.336E-03     351.933E-03    -169.247E-03     191.781E-03
            1700     12.9182E-03     54.3814E-03    -15.5227E+06     85.1682E+06     87.3251E+06    -214.753E+03    -171.494E-03     341.090E-03    -169.595E-03     245.076E-03    -187.095E-03     356.684E-03    -169.260E-03     220.176E-03
            1701     12.1561E-03     54.0653E-03    -22.1192E+06      79.959E+06     85.1943E+06    -798.206E+03    -174.725E-03     344.303E-03    -169.578E-03     268.403E-03    -191.475E-03     361.011E-03    -169.236E-03     241.135E-03
            1702     11.3992E-03     53.7356E-03    -28.2433E+06     67.1354E+06     75.3912E+06    -1.03371E+06    -176.409E-03     345.898E-03    -169.489E-03     268.001E-03    -191.807E-03     361.215E-03    -169.168E-03     240.832E-03
            1703     10.6401E-03     53.4160E-03    -32.2036E+06     56.8709E+06     60.6213E+06     25.4785E+03    -176.175E-03     345.544E-03    -169.369E-03     253.725E-03    -189.000E-03     358.281E-03    -169.102E-03     228.551E-03
            1704     9.88024E-03     53.1196E-03    -36.5422E+06     49.6538E+06     41.5821E+06     929.133E+03    -175.467E-03     344.729E-03    -169.262E-03     234.008E-03    -185.611E-03     354.798E-03    -169.073E-03     211.564E-03
            1705     9.12038E-03     52.8494E-03    -43.2255E+06     15.0253E+06     24.4180E+06     158.545E+03    -175.125E-03     344.352E-03    -169.227E-03     213.981E-03    -182.972E-03     352.028E-03    -169.064E-03     194.264E-03
            1706     8.35970E-03     52.6012E-03    -51.0012E+06    -39.9800E+06     11.0942E+06    -622.613E+03    -174.890E-03     344.129E-03    -169.239E-03     195.791E-03    -180.903E-03     349.787E-03    -169.052E-03     178.638E-03
            1707     7.60079E-03     52.3726E-03    -57.7404E+06    -86.4190E+06    -1.32539E+06     96.8287E+03    -174.392E-03     343.632E-03    -169.240E-03     178.921E-03    -178.975E-03     347.706E-03    -169.037E-03     164.133E-03
            1708     6.84021E-03     52.1640E-03    -64.4057E+06    -124.557E+06    -12.3551E+06     982.899E+03    -173.738E-03     342.981E-03    -169.243E-03     162.123E-03    -177.188E-03     345.797E-03    -169.031E-03     149.494E-03
            1709     6.08031E-03     51.9755E-03    -70.7627E+06    -154.709E+06    -22.4881E+06     966.878E+03    -173.070E-03     342.313E-03    -169.243E-03     145.014E-03    -175.623E-03     344.132E-03    -169.029E-03     134.331E-03
            1710     5.32036E-03     51.8078E-03    -77.1402E+06    -185.208E+06    -32.9625E+06     899.448E+03    -172.327E-03     341.569E-03    -169.242E-03     127.520E-03    -174.164E-03     342.570E-03    -169.026E-03     118.605E-03
            1711     4.55994E-03     51.6615E-03    -83.7166E+06    -207.344E+06    -45.0144E+06     927.096E+03    -171.582E-03     340.804E-03    -169.222E-03     109.844E-03    -172.861E-03     341.181E-03    -169.025E-03     102.540E-03
            1712     3.80022E-03     51.5367E-03    -90.0949E+06    -224.232E+06    -58.0807E+06     638.438E+03    -170.919E-03     340.105E-03    -169.186E-03     92.0609E-03    -171.773E-03     340.012E-03    -169.021E-03     86.2122E-03
            1713     3.04036E-03     51.4339E-03    -96.0966E+06    -243.631E+06    -72.2694E+06     370.389E+03    -170.305E-03     339.447E-03    -169.142E-03     74.0127E-03    -170.829E-03     338.975E-03    -169.011E-03     69.4914E-03
            1714     2.28041E-03     51.3533E-03    -101.451E+06    -263.233E+06    -86.4151E+06     258.624E+03    -169.762E-03     338.861E-03    -169.099E-03     55.7088E-03    -170.039E-03     338.094E-03    -169.002E-03     52.4075E-03
            1715     1.51994E-03     51.2955E-03    -105.754E+06    -278.310E+06    -98.1726E+06     67.7492E+03    -169.397E-03     338.452E-03    -169.055E-03     37.4994E-03    -169.506E-03     337.482E-03    -168.989E-03     35.3197E-03
            1716     760.005E-06     51.2594E-03    -108.774E+06    -283.861E+06    -106.733E+06    -29.4959E+03    -169.130E-03     338.130E-03    -169.000E-03     20.3887E-03    -169.148E-03     337.064E-03    -168.964E-03     19.2097E-03
            1717     14.4405E-03     53.5654E-03    -4.85914E+06     94.9679E+06     86.5120E+06     427.437E+03    -167.855E-03     337.388E-03    -169.532E-03     155.098E-03    -176.749E-03     346.350E-03    -169.231E-03     138.064E-03
            1718     13.6777E-03     53.3221E-03    -9.60798E+06     92.5813E+06     87.6676E+06     605.928E+03    -168.755E-03     338.316E-03    -169.561E-03     215.376E-03    -182.581E-03     352.182E-03    -169.243E-03     192.933E-03
            1719     12.9159E-03     53.0514E-03    -16.1459E+06     85.3170E+06     86.4257E+06    -159.280E+03    -172.156E-03     341.713E-03    -169.556E-03     243.216E-03    -187.715E-03     357.266E-03    -169.224E-03     218.170E-03
            1720     12.1591E-03     52.7325E-03    -22.7695E+06     79.6142E+06     83.2379E+06    -1.31976E+06    -174.911E-03     344.397E-03    -169.486E-03     265.637E-03    -191.543E-03     360.989E-03    -169.152E-03     238.337E-03
            1721     11.3998E-03     52.4025E-03    -29.0601E+06      68.497E+06     72.0776E+06    -2.72541E+06    -175.787E-03     345.167E-03    -169.379E-03     266.665E-03    -191.113E-03     360.423E-03    -169.076E-03     239.587E-03
            1722     10.6410E-03     52.0861E-03    -36.1495E+06     55.0341E+06     54.5704E+06    -4.26984E+06    -175.683E-03     344.967E-03    -169.284E-03     254.128E-03    -188.516E-03     357.709E-03    -169.039E-03     228.974E-03
            1723     9.88055E-03     51.7905E-03    -42.1643E+06     43.6118E+06     36.9920E+06    -3.10755E+06    -175.466E-03     344.676E-03    -169.211E-03     234.592E-03    -185.621E-03     354.730E-03    -169.028E-03     212.121E-03
            1724     9.12003E-03     51.5193E-03    -47.0512E+06     13.6624E+06     22.8237E+06     361.865E+03    -175.191E-03     344.369E-03    -169.178E-03     213.913E-03    -183.038E-03     352.032E-03    -169.016E-03     194.222E-03
            1725     8.36133E-03     51.2714E-03    -52.8938E+06    -38.4309E+06     9.53974E+06     1.72601E+06    -174.807E-03     343.986E-03    -169.179E-03     195.701E-03    -180.821E-03     349.648E-03    -168.999E-03     178.604E-03
            1726     7.60042E-03     51.0436E-03    -60.3902E+06    -87.1604E+06    -3.64264E+06     1.34421E+06    -174.282E-03     343.467E-03    -169.185E-03     178.994E-03    -178.869E-03     347.541E-03    -168.989E-03     164.247E-03
            1727     6.84071E-03     50.8351E-03    -66.9073E+06    -123.834E+06    -13.8063E+06     880.267E+03    -173.719E-03     342.911E-03    -169.192E-03     162.163E-03    -177.176E-03     345.732E-03    -168.985E-03     149.550E-03
            1728     6.08053E-03     50.6465E-03    -72.6518E+06    -154.196E+06    -23.6935E+06     482.439E+03    -173.042E-03     342.231E-03    -169.189E-03     144.783E-03    -175.597E-03     344.050E-03    -168.978E-03     134.111E-03
            1729     5.32037E-03     50.4791E-03    -78.4969E+06    -185.194E+06    -33.7966E+06     437.529E+03    -172.270E-03     341.454E-03    -169.184E-03     127.156E-03    -174.106E-03     342.452E-03    -168.971E-03     118.251E-03
            1730     4.56066E-03     50.3329E-03    -84.5222E+06    -206.904E+06    -45.5286E+06     311.031E+03    -171.507E-03     340.668E-03    -169.162E-03     109.481E-03    -172.785E-03     341.044E-03    -168.967E-03     102.186E-03
            1731     3.80028E-03     50.2081E-03    -90.4784E+06    -223.748E+06    -58.5750E+06     50.3932E+03    -170.806E-03     339.934E-03    -169.128E-03     91.7755E-03    -171.659E-03     339.841E-03    -168.966E-03     85.9311E-03
            1732     3.04015E-03     50.1052E-03    -96.2316E+06    -243.470E+06    -72.5121E+06    -122.487E+03    -170.221E-03     339.314E-03    -169.093E-03     73.8528E-03    -170.745E-03     338.843E-03    -168.963E-03     69.3251E-03
            1733     2.28007E-03     50.0250E-03    -101.523E+06    -263.003E+06    -86.1522E+06     6.75169E+03    -169.758E-03     338.805E-03    -169.047E-03     55.7173E-03    -170.036E-03     338.039E-03    -168.950E-03     52.4097E-03
            1734     1.52054E-03     49.9671E-03    -105.854E+06    -278.056E+06    -97.9835E+06     207.037E+03    -169.373E-03     338.356E-03    -168.984E-03     37.6505E-03    -169.483E-03     337.387E-03    -168.917E-03     35.4737E-03
            1735     760.407E-06     49.9317E-03    -109.096E+06    -283.874E+06    -106.829E+06     93.7107E+03    -169.184E-03     337.964E-03    -168.779E-03     20.4955E-03    -169.203E-03     336.898E-03    -168.744E-03     19.3197E-03
            1736     14.4340E-03     52.2326E-03    -5.26138E+06     94.3877E+06     85.9111E+06     141.592E+03    -168.463E-03     338.037E-03    -169.574E-03     154.753E-03    -177.420E-03     347.061E-03    -169.273E-03     137.473E-03
            1737     13.6768E-03     51.9913E-03    -9.35239E+06     93.7215E+06     88.4246E+06     749.115E+03    -170.892E-03     340.410E-03    -169.518E-03     213.718E-03    -184.771E-03     354.333E-03    -169.198E-03     190.836E-03
            1738     12.9215E-03     51.7179E-03    -14.2134E+06     87.5707E+06     89.1282E+06     517.080E+03    -172.846E-03     342.266E-03    -169.420E-03     241.777E-03    -188.367E-03     357.789E-03    -169.081E-03     216.642E-03
            1739     12.1621E-03     51.4023E-03    -20.6659E+06     81.9429E+06     85.6187E+06     114.369E+03    -173.969E-03     343.317E-03    -169.347E-03     266.038E-03    -190.533E-03     359.849E-03    -169.008E-03     239.021E-03
            1740     11.4018E-03     51.0739E-03    -28.4904E+06     71.3410E+06     70.5081E+06    -751.427E+03    -174.728E-03     344.021E-03    -169.294E-03     267.753E-03    -190.012E-03     359.253E-03    -169.003E-03     240.942E-03
            1741     10.6399E-03     50.7565E-03    -37.1951E+06     56.6081E+06     48.7690E+06    -1.91375E+06    -175.492E-03     344.722E-03    -169.230E-03     254.314E-03    -188.308E-03     357.465E-03    -169.014E-03     229.222E-03
            1742     9.88044E-03     50.4597E-03    -46.0892E+06     40.5687E+06     29.6963E+06    -2.76016E+06    -175.670E-03     344.828E-03    -169.158E-03     234.363E-03    -185.823E-03     354.875E-03    -169.001E-03     211.871E-03
            1743     9.12170E-03     50.1900E-03    -53.5367E+06     8.93148E+06     16.6415E+06    -2.07677E+06    -175.156E-03     344.282E-03    -169.127E-03     213.894E-03    -183.008E-03     351.928E-03    -168.979E-03     194.202E-03
            1744     8.36035E-03     49.9419E-03    -59.2781E+06    -40.3661E+06     5.59103E+06    -229.030E+03    -174.680E-03     343.818E-03    -169.138E-03     195.707E-03    -180.709E-03     349.476E-03    -168.965E-03     178.617E-03
            1745     7.60108E-03     49.7147E-03    -63.3100E+06    -86.3074E+06    -4.48180E+06     136.949E+03    -174.348E-03     343.495E-03    -169.146E-03     178.748E-03    -178.945E-03     347.573E-03    -168.952E-03     163.984E-03
            1746     6.84080E-03     49.5059E-03    -67.5432E+06    -123.376E+06    -13.6276E+06    -370.946E+03    -173.811E-03     342.949E-03    -169.138E-03     161.810E-03    -177.269E-03     345.769E-03    -168.930E-03     149.174E-03
            1747     6.08105E-03     49.3178E-03    -72.7728E+06    -154.290E+06    -23.5518E+06    -417.632E+03    -173.055E-03     342.172E-03    -169.117E-03     144.438E-03    -175.605E-03     343.984E-03    -168.905E-03     133.766E-03
            1748     5.32116E-03     49.1504E-03    -78.4023E+06    -185.505E+06    -33.8006E+06    -508.635E+03    -172.285E-03     341.380E-03    -169.096E-03     126.856E-03    -174.114E-03     342.371E-03    -168.882E-03     117.952E-03
            1749     4.56077E-03     49.0044E-03    -84.1259E+06    -206.874E+06    -45.4188E+06    -520.913E+03    -171.496E-03     340.550E-03    -169.054E-03     109.146E-03    -172.770E-03     340.923E-03    -168.859E-03     101.842E-03
            1750     3.80090E-03     48.8799E-03    -90.1086E+06    -223.657E+06    -58.5169E+06    -433.606E+03    -170.694E-03     339.701E-03    -169.007E-03     91.3147E-03    -171.542E-03     339.605E-03    -168.845E-03     85.4704E-03
            1751     3.04068E-03     48.7771E-03    -96.2132E+06    -243.720E+06    -72.9605E+06    -412.451E+03    -169.995E-03     338.974E-03    -168.980E-03     73.4170E-03    -170.515E-03     338.499E-03    -168.852E-03     68.8995E-03
            1752     2.28055E-03     48.6967E-03    -101.612E+06    -263.354E+06    -86.6639E+06    -353.185E+03    -169.501E-03     338.477E-03    -168.976E-03     55.4894E-03    -169.777E-03     337.708E-03    -168.880E-03     52.1859E-03
            1753     1.51996E-03     48.6390E-03    -105.877E+06    -278.274E+06    -98.2166E+06    -114.459E+03    -169.204E-03     338.189E-03    -168.985E-03     37.5998E-03    -169.313E-03     337.220E-03    -168.919E-03     35.4173E-03
            1754     759.840E-06     48.6038E-03    -108.684E+06    -283.667E+06    -106.645E+06     33.2269E+03    -169.179E-03     338.055E-03    -168.876E-03     20.5331E-03    -169.196E-03     336.990E-03    -168.841E-03     19.3553E-03
            1755     14.4381E-03     50.9000E-03    -4.51611E+06     93.7768E+06     85.8366E+06    -6.72499E+03    -169.539E-03     339.002E-03    -169.462E-03     151.729E-03    -178.390E-03     347.921E-03    -169.163E-03     134.385E-03
            1756     13.6814E-03     50.6548E-03    -9.53084E+06     92.0541E+06     87.6763E+06    -930.591E+03    -170.358E-03     339.735E-03    -169.377E-03     212.011E-03    -184.136E-03     353.552E-03    -169.058E-03     189.197E-03
            1757     12.9218E-03     50.3868E-03    -14.8169E+06     87.3174E+06     88.8403E+06    -202.670E+03    -171.582E-03     340.911E-03    -169.329E-03     243.067E-03    -187.077E-03     356.406E-03    -168.990E-03     218.197E-03
            1758     12.1612E-03     50.0730E-03    -20.9601E+06     83.1876E+06     86.5368E+06     786.815E+03    -173.328E-03     342.658E-03    -169.330E-03     267.795E-03    -189.918E-03     359.218E-03    -168.988E-03     240.941E-03
            1759     11.3999E-03     49.7447E-03    -27.9360E+06     72.3068E+06     74.2883E+06     1.09262E+06    -175.107E-03     344.417E-03    -169.311E-03     268.732E-03    -190.414E-03     359.667E-03    -169.004E-03     241.920E-03
            1760     10.6414E-03     49.4262E-03    -35.2399E+06     58.5112E+06     53.8361E+06     2.36952E+06    -175.928E-03     345.157E-03    -169.228E-03     254.374E-03    -188.732E-03     357.887E-03    -168.993E-03     229.317E-03
            1761     9.88149E-03     49.1302E-03    -42.9943E+06     43.7503E+06     32.1843E+06     2.80477E+06    -175.586E-03     344.712E-03    -169.126E-03     233.950E-03    -185.712E-03     354.747E-03    -168.966E-03     211.565E-03
            1762     9.12036E-03     48.8597E-03    -50.4525E+06     10.3931E+06     17.9037E+06     900.703E+03    -175.090E-03     344.182E-03    -169.092E-03     213.476E-03    -182.914E-03     351.812E-03    -168.945E-03     193.847E-03
            1763     8.36166E-03     48.6133E-03    -56.1762E+06    -40.4102E+06     7.76067E+06    -1.67163E+06    -174.861E-03     343.959E-03    -169.098E-03     195.153E-03    -180.865E-03     349.598E-03    -168.919E-03     178.038E-03
            1764     7.60109E-03     48.3848E-03    -60.8980E+06    -87.2720E+06    -3.09950E+06    -2.19482E+06    -174.478E-03     343.558E-03    -169.080E-03     178.179E-03    -179.054E-03     347.617E-03    -168.881E-03     163.381E-03
            1765     6.84175E-03     48.1772E-03    -65.6676E+06    -124.262E+06    -12.6542E+06    -1.39554E+06    -173.822E-03     342.872E-03    -169.050E-03     161.211E-03    -177.263E-03     345.675E-03    -168.838E-03     148.567E-03
            1766     6.08156E-03     47.9889E-03    -71.0654E+06    -154.544E+06    -22.5905E+06    -1.01544E+06    -173.036E-03     342.048E-03    -169.012E-03     143.957E-03    -175.571E-03     343.847E-03    -168.797E-03     133.290E-03
            1767     5.32145E-03     47.8220E-03    -77.0128E+06    -185.863E+06    -33.3241E+06    -874.306E+03    -172.255E-03     341.228E-03    -168.973E-03     126.439E-03    -174.072E-03     342.208E-03    -168.758E-03     117.541E-03
            1768     4.56181E-03     47.6760E-03    -83.3509E+06    -207.527E+06    -45.1664E+06    -727.487E+03    -171.429E-03     340.344E-03    -168.915E-03     108.832E-03    -172.695E-03     340.709E-03    -168.719E-03     101.534E-03
            1769     3.80155E-03     47.5519E-03    -89.8266E+06    -224.299E+06    -58.3821E+06    -321.846E+03    -170.607E-03     339.461E-03    -168.854E-03     91.1383E-03    -171.450E-03     339.359E-03    -168.690E-03     85.3074E-03
            1770     3.04128E-03     47.4495E-03    -95.8952E+06    -243.687E+06    -72.7681E+06    -94.1080E+03    -169.874E-03     338.685E-03    -168.812E-03     73.2713E-03    -170.390E-03     338.207E-03    -168.683E-03     68.7737E-03
            1771     2.28061E-03     47.3693E-03    -101.339E+06    -263.431E+06    -86.8595E+06    -235.445E+03    -169.328E-03     338.126E-03    -168.798E-03     55.1936E-03    -169.600E-03     337.355E-03    -168.703E-03     51.9064E-03
            1772     1.52045E-03     47.3113E-03    -105.904E+06    -278.655E+06    -98.5326E+06    -365.901E+03    -169.046E-03     337.842E-03    -168.796E-03     37.1065E-03    -169.153E-03     336.870E-03    -168.731E-03     34.9288E-03
            1773     760.234E-06     47.2754E-03    -108.807E+06    -284.057E+06    -106.887E+06    -100.491E+03    -168.861E-03     337.651E-03    -168.791E-03     20.0104E-03    -168.877E-03     336.584E-03    -168.756E-03     18.8294E-03
            1774     14.4439E-03     49.5678E-03    -3.79039E+06     94.5511E+06     87.7958E+06    -127.727E+03    -169.357E-03     338.705E-03    -169.348E-03     154.414E-03    -178.231E-03     347.646E-03    -169.041E-03     137.213E-03
            1775     13.6822E-03     49.3260E-03    -9.13135E+06     91.3163E+06     88.5852E+06    -594.869E+03    -168.672E-03     338.002E-03    -169.330E-03     215.705E-03    -182.465E-03     351.829E-03    -169.006E-03     193.261E-03
            1776     12.9205E-03     49.0575E-03    -15.6798E+06     85.6485E+06     87.5230E+06    -245.399E+03    -170.895E-03     340.253E-03    -169.358E-03     243.921E-03    -186.374E-03     355.727E-03    -169.022E-03     219.202E-03
            1777     12.1599E-03     48.7431E-03    -22.5922E+06     81.8392E+06     84.0852E+06     18.5646E+03    -173.844E-03     343.206E-03    -169.362E-03     267.284E-03    -190.439E-03     359.767E-03    -169.027E-03     240.300E-03
            1778     11.4011E-03     48.4145E-03    -29.6856E+06     71.0629E+06     71.4652E+06     1.35556E+06    -175.717E-03     345.015E-03    -169.298E-03     267.848E-03    -191.007E-03     360.244E-03    -169.001E-03     240.940E-03
            1779     10.6407E-03     48.0947E-03    -36.6777E+06     57.2162E+06     53.0986E+06     2.79027E+06    -175.988E-03     345.183E-03    -169.195E-03     253.852E-03    -188.765E-03     357.879E-03    -168.960E-03     228.824E-03
            1780     9.88123E-03     47.8006E-03    -41.5568E+06     44.9182E+06     37.0896E+06     2.85550E+06    -175.665E-03     344.766E-03    -169.101E-03     233.453E-03    -185.780E-03     354.786E-03    -168.920E-03     211.070E-03
            1781     9.12225E-03     47.5308E-03    -45.1517E+06     15.6963E+06     24.8311E+06     1.65138E+06    -175.296E-03     344.340E-03    -169.044E-03     212.717E-03    -183.092E-03     351.960E-03    -168.877E-03     193.094E-03
            1782     8.36149E-03     47.2829E-03    -50.0109E+06    -37.7766E+06     11.6941E+06    -99.8153E+03    -174.977E-03     343.988E-03    -169.011E-03     194.440E-03    -180.943E-03     349.608E-03    -168.825E-03     177.348E-03
            1783     7.60267E-03     47.0563E-03    -56.4948E+06    -87.8648E+06    -1.29053E+06    -839.484E+03    -174.496E-03     343.465E-03    -168.969E-03     177.551E-03    -179.042E-03     347.502E-03    -168.766E-03     162.775E-03
            1784     6.84232E-03     46.8479E-03    -63.2143E+06    -124.621E+06    -11.7588E+06    -896.305E+03    -173.786E-03     342.708E-03    -168.921E-03     160.691E-03    -177.203E-03     345.492E-03    -168.708E-03     148.079E-03
            1785     6.08265E-03     46.6609E-03    -69.6043E+06    -155.032E+06    -21.9565E+06    -486.904E+03    -173.015E-03     341.882E-03    -168.867E-03     143.493E-03    -175.534E-03     343.667E-03    -168.651E-03     132.851E-03
            1786     5.32272E-03     46.4935E-03    -76.2133E+06    -186.038E+06    -32.7033E+06    -216.055E+03    -172.144E-03     340.957E-03    -168.813E-03     125.997E-03    -173.950E-03     341.927E-03    -168.596E-03     117.128E-03
            1787     4.56222E-03     46.3484E-03    -83.0268E+06    -207.993E+06    -44.8100E+06    -110.382E+03    -171.236E-03     339.986E-03    -168.751E-03     108.435E-03    -172.494E-03     340.342E-03    -168.553E-03     101.172E-03
            1788     3.80196E-03     46.2241E-03    -89.8339E+06    -224.764E+06    -58.1474E+06    -82.2729E+03    -170.466E-03     339.152E-03    -168.685E-03     90.8009E-03    -171.305E-03     339.042E-03    -168.520E-03     84.9941E-03
            1789     3.04167E-03     46.1222E-03    -95.9944E+06    -243.898E+06    -72.4550E+06    -45.9527E+03    -169.844E-03     338.459E-03    -168.615E-03     72.9101E-03    -170.359E-03     337.978E-03    -168.485E-03     68.4170E-03
            1790     2.28162E-03     46.0420E-03    -101.279E+06    -263.147E+06    -86.2831E+06     131.853E+03    -169.311E-03     337.847E-03    -168.536E-03     54.9933E-03    -169.583E-03     337.076E-03    -168.439E-03     51.7173E-03
            1791     1.52115E-03     45.9841E-03    -105.923E+06    -278.659E+06    -98.4260E+06     114.964E+03    -168.866E-03     337.313E-03    -168.447E-03     37.1137E-03    -168.973E-03     336.340E-03    -168.382E-03     34.9546E-03
            1792     760.726E-06     45.9485E-03    -108.948E+06    -284.323E+06    -107.067E+06     18.5057E+03    -168.461E-03     336.868E-03    -168.408E-03     19.9575E-03    -168.477E-03     335.800E-03    -168.373E-03     18.7909E-03
            1793     14.4384E-03     48.2391E-03    -4.63710E+06     94.5231E+06     87.0714E+06    -254.119E+03    -168.590E-03     338.019E-03    -169.429E-03     156.370E-03    -177.513E-03     347.009E-03    -169.124E-03     139.153E-03
            1794     13.6783E-03     47.9943E-03    -9.69457E+06     91.2942E+06     87.9343E+06    -87.5835E+03    -169.255E-03     338.677E-03    -169.422E-03     215.591E-03    -183.057E-03     352.513E-03    -169.100E-03     193.081E-03
            1795     12.9198E-03     47.7273E-03    -15.3438E+06     85.3845E+06     88.0294E+06    -72.8351E+03    -171.688E-03     341.106E-03    -169.418E-03     243.698E-03    -187.192E-03     356.603E-03    -169.079E-03     218.828E-03
            1796     12.1607E-03     47.4123E-03    -21.9183E+06     80.8988E+06     84.4940E+06     702.795E+03    -174.765E-03     344.133E-03    -169.367E-03     266.991E-03    -191.377E-03     360.708E-03    -169.030E-03     239.855E-03
            1797     11.4013E-03     47.0823E-03    -28.5671E+06     68.6026E+06     71.2401E+06     1.93220E+06    -175.964E-03     345.223E-03    -169.258E-03     267.073E-03    -191.221E-03     360.415E-03    -168.960E-03     240.153E-03
            1798     10.6423E-03     46.7669E-03    -33.8475E+06     56.5652E+06     55.2795E+06     2.43395E+06    -176.046E-03     345.189E-03    -169.143E-03     253.260E-03    -188.787E-03     357.851E-03    -168.900E-03     228.233E-03
            1799     9.88213E-03     46.4693E-03    -38.4347E+06     47.6924E+06     39.9936E+06     926.594E+03    -175.884E-03     344.910E-03    -169.027E-03     232.790E-03    -185.965E-03     354.909E-03    -168.840E-03     210.374E-03
            1800     9.12242E-03     46.2009E-03    -43.9961E+06     16.6456E+06     25.1305E+06     126.769E+03    -175.477E-03     344.410E-03    -168.933E-03     211.987E-03    -183.245E-03     352.008E-03    -168.768E-03     192.349E-03
            1801     8.36365E-03     45.9540E-03    -50.2644E+06    -37.2967E+06     11.5522E+06     1.07574E+06    -174.924E-03     343.804E-03    -168.880E-03     193.926E-03    -180.875E-03     349.411E-03    -168.695E-03     176.877E-03
            1802     7.60311E-03     45.7267E-03    -56.4447E+06    -86.0508E+06    -919.403E+03     1.07869E+06    -174.413E-03     343.240E-03    -168.828E-03     177.125E-03    -178.943E-03     347.268E-03    -168.626E-03     162.414E-03
            1803     6.84374E-03     45.5199E-03    -62.9068E+06    -124.244E+06    -11.5133E+06     594.503E+03    -173.793E-03     342.559E-03    -168.765E-03     160.215E-03    -177.199E-03     345.333E-03    -168.552E-03     147.643E-03
            1804     6.08353E-03     45.3320E-03    -69.5361E+06    -155.246E+06    -21.6963E+06     561.726E+03    -172.934E-03     341.627E-03    -168.693E-03     143.030E-03    -175.444E-03     343.402E-03    -168.476E-03     132.424E-03
            1805     5.32344E-03     45.1661E-03    -76.1616E+06    -185.924E+06    -32.0917E+06     617.367E+03    -172.036E-03     340.661E-03    -168.625E-03     125.529E-03    -173.836E-03     341.623E-03    -168.405E-03     116.696E-03
            1806     4.56341E-03     45.0208E-03    -82.8921E+06    -207.619E+06    -43.9762E+06     558.857E+03    -171.157E-03     339.697E-03    -168.541E-03     107.841E-03    -172.407E-03     340.044E-03    -168.339E-03     100.614E-03
            1807     3.80299E-03     44.8973E-03    -89.5176E+06    -224.185E+06    -57.1584E+06     301.531E+03    -170.305E-03     338.755E-03    -168.450E-03     90.1840E-03    -171.138E-03     338.641E-03    -168.281E-03     84.4047E-03
            1808     3.04258E-03     44.7949E-03    -95.9653E+06    -243.894E+06    -72.0928E+06     144.382E+03    -169.584E-03     337.951E-03    -168.367E-03     72.5688E-03    -170.097E-03     337.466E-03    -168.235E-03     68.1000E-03
            1809     2.28197E-03     44.7154E-03    -101.767E+06    -263.608E+06    -86.6869E+06     115.942E+03    -169.037E-03     337.326E-03    -168.289E-03     55.0007E-03    -169.309E-03     336.553E-03    -168.193E-03     51.7386E-03
            1810     1.52151E-03     44.6576E-03    -105.919E+06    -278.468E+06    -98.0789E+06     140.218E+03    -168.562E-03     336.792E-03    -168.229E-03     37.2640E-03    -168.670E-03     335.819E-03    -168.162E-03     35.1103E-03
            1811     760.673E-06     44.6227E-03    -108.620E+06    -283.830E+06    -106.470E+06     200.559E+03    -168.336E-03     336.478E-03    -168.142E-03     20.2099E-03    -168.353E-03     335.411E-03    -168.105E-03     19.0488E-03
            1812     14.4363E-03     46.9003E-03    -4.75270E+06     94.5623E+06     85.6411E+06    -317.185E+03    -168.654E-03     338.154E-03    -169.500E-03     153.766E-03    -177.519E-03     347.090E-03    -169.202E-03     136.499E-03
            1813     13.6805E-03     46.6651E-03    -9.74149E+06     92.1036E+06     86.5896E+06     270.327E+03    -169.961E-03     339.418E-03    -169.456E-03     212.343E-03    -183.695E-03     353.192E-03    -169.143E-03     189.671E-03
            1814     12.9189E-03     46.3964E-03    -16.4732E+06     85.1041E+06     85.9803E+06     88.5482E+03    -172.306E-03     341.707E-03    -169.400E-03     242.308E-03    -187.743E-03     357.138E-03    -169.070E-03     217.359E-03
            1815     12.1607E-03     46.0778E-03    -22.6977E+06     79.9312E+06     84.3218E+06     9.52094E+03    -174.644E-03     343.983E-03    -169.339E-03     266.374E-03    -191.188E-03     360.485E-03    -169.000E-03     239.304E-03
            1816     11.4020E-03     45.7536E-03    -27.6733E+06     66.8506E+06     75.2143E+06    -281.027E+03    -176.158E-03     345.401E-03    -169.243E-03     266.903E-03    -191.400E-03     360.564E-03    -168.924E-03     239.952E-03
            1817     10.6422E-03     45.4341E-03    -31.6136E+06     55.8158E+06     60.7254E+06    -644.426E+03    -176.650E-03     345.747E-03    -169.098E-03     252.959E-03    -189.395E-03     358.403E-03    -168.829E-03     227.801E-03
            1818     9.88367E-03     45.1408E-03    -37.1281E+06     48.0607E+06     41.1025E+06     1.07926E+06    -176.062E-03     344.982E-03    -168.920E-03     232.282E-03    -186.111E-03     354.951E-03    -168.731E-03     209.892E-03
            1819     9.12428E-03     44.8702E-03    -44.4872E+06     15.9857E+06     23.5748E+06     2.61658E+06    -175.410E-03     344.212E-03    -168.802E-03     211.665E-03    -183.151E-03     351.784E-03    -168.643E-03     192.106E-03
            1820     8.36413E-03     44.6253E-03    -51.7748E+06    -35.8883E+06     11.2515E+06     2.03877E+06    -174.986E-03     343.725E-03    -168.739E-03     193.497E-03    -180.938E-03     349.333E-03    -168.556E-03     176.463E-03
            1821     7.60472E-03     44.3982E-03    -58.2006E+06    -84.5451E+06    -1.01430E+06     1.47981E+06    -174.456E-03     343.120E-03    -168.664E-03     176.582E-03    -178.976E-03     347.136E-03    -168.462E-03     161.919E-03
            1822     6.84464E-03     44.1909E-03    -64.2479E+06    -123.849E+06    -11.4942E+06     1.33812E+06    -173.734E-03     342.314E-03    -168.580E-03     159.538E-03    -177.129E-03     345.075E-03    -168.365E-03     147.009E-03
            1823     6.08501E-03     44.0048E-03    -70.4042E+06    -154.832E+06    -21.7077E+06     922.399E+03    -172.869E-03     341.353E-03    -168.484E-03     142.324E-03    -175.373E-03     343.120E-03    -168.266E-03     131.743E-03
            1824     5.32475E-03     43.8383E-03    -76.6414E+06    -185.711E+06    -32.0751E+06     671.426E+03    -171.943E-03     340.331E-03    -168.389E-03     124.814E-03    -173.734E-03     341.284E-03    -168.169E-03     116.012E-03
            1825     4.56448E-03     43.6938E-03    -82.9058E+06    -206.889E+06    -43.5355E+06     658.240E+03    -171.027E-03     339.304E-03    -168.277E-03     107.309E-03    -172.271E-03     339.646E-03    -168.075E-03     100.113E-03
            1826     3.80426E-03     43.5705E-03    -89.3399E+06    -223.740E+06    -56.7688E+06     529.464E+03    -170.100E-03     338.262E-03    -168.163E-03     89.8064E-03    -170.929E-03     338.145E-03    -167.993E-03     84.0540E-03
            1827     3.04344E-03     43.4693E-03    -95.5670E+06    -243.622E+06    -71.4966E+06     419.194E+03    -169.250E-03     337.323E-03    -168.073E-03     72.2080E-03    -169.757E-03     336.834E-03    -167.939E-03     67.7709E-03
            1828     2.28252E-03     43.3892E-03    -101.095E+06    -263.344E+06    -86.1609E+06     189.020E+03    -168.623E-03     336.643E-03    -168.020E-03     54.5626E-03    -168.890E-03     335.867E-03    -167.923E-03     51.3207E-03
            1829     1.52151E-03     43.3320E-03    -105.685E+06    -278.406E+06    -98.2410E+06    -111.836E+03    -168.255E-03     336.251E-03    -167.996E-03     36.8068E-03    -168.360E-03     335.278E-03    -167.931E-03     34.6583E-03
            1830     760.678E-06     43.2968E-03    -108.562E+06    -283.683E+06    -106.367E+06    -155.695E+03    -168.103E-03     336.044E-03    -167.941E-03     19.9951E-03    -168.119E-03     334.977E-03    -167.904E-03     18.8308E-03
            1831     14.4409E-03     45.5746E-03    -4.82519E+06     94.2140E+06     84.7456E+06    -134.882E+03    -168.999E-03     338.458E-03    -169.458E-03     153.183E-03    -177.802E-03     347.332E-03    -169.164E-03     135.975E-03
            1832     13.6772E-03     45.3293E-03    -10.6592E+06     90.9668E+06     84.8634E+06     22.5623E+03    -169.934E-03     339.337E-03    -169.403E-03     211.967E-03    -183.611E-03     353.053E-03    -169.096E-03     189.321E-03
            1833     12.9228E-03     45.0649E-03    -16.1017E+06     85.5613E+06     84.9851E+06     640.149E+03    -172.317E-03     341.660E-03    -169.343E-03     241.713E-03    -187.722E-03     357.065E-03    -169.019E-03     216.779E-03
            1834     12.1617E-03     44.7499E-03    -21.9256E+06     80.7214E+06     83.2869E+06     41.0302E+03    -174.566E-03     343.845E-03    -169.279E-03     266.379E-03    -191.067E-03     360.314E-03    -168.948E-03     239.343E-03
            1835     11.4013E-03     44.4199E-03    -28.9220E+06     68.7232E+06     71.6706E+06    -1.97620E+06    -176.362E-03     345.525E-03    -169.163E-03     266.260E-03    -191.568E-03     360.664E-03    -168.862E-03     239.242E-03
            1836     10.6439E-03     44.1038E-03    -37.1621E+06     53.8540E+06     52.5130E+06    -3.44861E+06    -176.783E-03     345.763E-03    -168.981E-03     251.961E-03    -189.516E-03     358.404E-03    -168.742E-03     226.741E-03
            1837     9.88455E-03     43.8094E-03    -43.9726E+06     41.1526E+06     35.3727E+06    -1.17455E+06    -176.156E-03     344.956E-03    -168.799E-03     231.588E-03    -186.193E-03     354.880E-03    -168.618E-03     209.185E-03
            1838     9.12480E-03     43.5419E-03    -49.0274E+06     15.2252E+06     22.9270E+06     1.54689E+06    -175.517E-03     344.186E-03    -168.669E-03     211.101E-03    -183.262E-03     351.744E-03    -168.505E-03     191.535E-03
            1839     8.36554E-03     43.2951E-03    -53.7270E+06    -33.7743E+06     11.4163E+06     1.50651E+06    -175.088E-03     343.660E-03    -168.571E-03     192.548E-03    -181.026E-03     349.254E-03    -168.388E-03     175.529E-03
            1840     7.60618E-03     43.0698E-03    -59.1587E+06    -84.5189E+06    -772.224E+03     1.37334E+06    -174.506E-03     342.969E-03    -168.464E-03     175.614E-03    -179.014E-03     346.970E-03    -168.259E-03     160.961E-03
            1841     6.84649E-03     42.8632E-03    -65.0212E+06    -122.977E+06    -11.5160E+06     1.05320E+06    -173.667E-03     342.014E-03    -168.346E-03     158.763E-03    -177.048E-03     344.760E-03    -168.131E-03     146.273E-03
            1842     6.08629E-03     42.6767E-03    -70.6729E+06    -154.158E+06    -21.4643E+06     568.862E+03    -172.789E-03     341.012E-03    -168.223E-03     141.507E-03    -175.278E-03     342.765E-03    -168.004E-03     130.962E-03
            1843     5.32646E-03     42.5117E-03    -76.6062E+06    -185.059E+06    -31.8801E+06     479.720E+03    -171.777E-03     339.877E-03    -168.099E-03     124.112E-03    -173.558E-03     340.821E-03    -167.879E-03     115.343E-03
            1844     4.56602E-03     42.3674E-03    -82.9369E+06    -206.813E+06    -43.7891E+06     355.818E+03    -170.720E-03     338.692E-03    -167.972E-03     106.753E-03    -171.956E-03     339.026E-03    -167.771E-03     99.5909E-03
            1845     3.80514E-03     42.2447E-03    -89.2064E+06    -223.653E+06    -56.9182E+06     353.154E+03    -169.839E-03     337.686E-03    -167.847E-03     89.2914E-03    -170.661E-03     337.563E-03    -167.678E-03     83.5668E-03
            1846     3.04455E-03     42.1437E-03    -95.2827E+06    -243.331E+06    -71.2092E+06     306.446E+03    -169.079E-03     336.807E-03    -167.727E-03     71.6681E-03    -169.583E-03     336.314E-03    -167.592E-03     67.2480E-03
            1847     2.28356E-03     42.0646E-03    -100.810E+06    -262.751E+06    -85.3085E+06     293.908E+03    -168.394E-03     336.013E-03    -167.619E-03     54.0138E-03    -168.660E-03     335.236E-03    -167.519E-03     50.7878E-03
            1848     1.52243E-03     42.0070E-03    -105.179E+06    -277.784E+06    -97.5494E+06     231.556E+03    -167.917E-03     335.442E-03    -167.526E-03     36.3203E-03    -168.020E-03     334.469E-03    -167.458E-03     34.1941E-03
            1849     761.408E-06     41.9718E-03    -108.485E+06    -283.765E+06    -106.570E+06    -172.564E+03    -167.600E-03     335.020E-03    -167.421E-03     19.5081E-03    -167.614E-03     333.952E-03    -167.385E-03     18.3614E-03
            1850     14.4372E-03     44.2408E-03    -4.16583E+06     94.2320E+06     85.1474E+06     837.471E+03    -169.648E-03     339.095E-03    -169.447E-03     154.026E-03    -178.450E-03     347.970E-03    -169.152E-03     136.760E-03
            1851     13.6833E-03     43.9991E-03    -9.77458E+06     90.9347E+06     85.8949E+06     510.421E+03    -169.963E-03     339.346E-03    -169.383E-03     213.156E-03    -183.637E-03     353.059E-03    -169.071E-03     190.551E-03
            1852     12.9193E-03     43.7330E-03    -14.9628E+06     85.9061E+06     87.1415E+06     46.1552E+03    -172.617E-03     341.939E-03    -169.322E-03     242.152E-03    -188.043E-03     357.364E-03    -168.989E-03     217.146E-03
            1853     12.1619E-03     43.4175E-03    -20.9443E+06     81.2032E+06     84.3471E+06     110.413E+03    -175.541E-03     344.746E-03    -169.205E-03     265.189E-03    -192.034E-03     361.208E-03    -168.870E-03     237.969E-03
            1854     11.4046E-03     43.0898E-03    -28.4374E+06     71.1048E+06     69.5398E+06     920.192E+03    -176.409E-03     345.430E-03    -169.021E-03     265.140E-03    -191.544E-03     360.515E-03    -168.736E-03     238.179E-03
            1855     10.6444E-03     42.7719E-03    -37.4347E+06     56.6996E+06     49.0508E+06     1.24173E+06    -176.464E-03     345.292E-03    -168.828E-03     250.968E-03    -189.106E-03     357.861E-03    -168.611E-03     225.933E-03
            1856     9.88560E-03     42.4800E-03    -46.1085E+06     39.9337E+06     32.1457E+06    -1.28076E+06    -176.274E-03     344.920E-03    -168.646E-03     230.470E-03    -186.284E-03     354.815E-03    -168.476E-03     208.049E-03
            1857     9.12696E-03     42.2115E-03    -51.2621E+06     12.8315E+06     21.4365E+06    -3.14679E+06    -175.755E-03     344.242E-03    -168.487E-03     209.944E-03    -183.488E-03     351.775E-03    -168.324E-03     190.287E-03
            1858     8.36775E-03     41.9667E-03    -55.0324E+06    -36.0235E+06     10.5553E+06    -1.29664E+06    -175.112E-03     343.464E-03    -168.352E-03     191.662E-03    -181.014E-03     349.012E-03    -168.167E-03     174.668E-03
            1859     7.60798E-03     41.7412E-03    -59.4789E+06    -85.3974E+06    -1.20636E+06     143.896E+03    -174.467E-03     342.680E-03    -168.214E-03     174.700E-03    -178.948E-03     346.651E-03    -168.010E-03     160.072E-03
            1860     6.84832E-03     41.5357E-03    -64.2853E+06    -121.956E+06    -10.8803E+06     436.887E+03    -173.647E-03     341.712E-03    -168.064E-03     157.890E-03    -177.007E-03     344.442E-03    -167.849E-03     145.429E-03
            1861     6.08856E-03     41.3499E-03    -69.9997E+06    -153.575E+06    -21.1890E+06     352.345E+03    -172.597E-03     340.507E-03    -167.911E-03     140.702E-03    -175.063E-03     342.242E-03    -167.692E-03     130.214E-03
            1862     5.32805E-03     41.1852E-03    -76.0887E+06    -185.022E+06    -31.7567E+06     261.936E+03    -171.515E-03     339.283E-03    -167.768E-03     123.326E-03    -173.280E-03     340.213E-03    -167.548E-03     114.595E-03
            1863     4.56749E-03     41.0421E-03    -82.3829E+06    -206.740E+06    -43.6715E+06     367.000E+03    -170.494E-03     338.112E-03    -167.618E-03     106.017E-03    -171.719E-03     338.437E-03    -167.417E-03     98.8856E-03
            1864     3.80676E-03     40.9196E-03    -88.9006E+06    -223.326E+06    -56.5268E+06     304.079E+03    -169.562E-03     337.029E-03    -167.466E-03     88.5775E-03    -170.376E-03     336.898E-03    -167.296E-03     82.8890E-03
            1865     3.04565E-03     40.8190E-03    -95.2671E+06    -242.984E+06    -70.6884E+06     208.169E+03    -168.796E-03     336.109E-03    -167.313E-03     71.0469E-03    -169.296E-03     335.613E-03    -167.176E-03     66.6504E-03
            1866     2.28468E-03     40.7404E-03    -100.825E+06    -262.660E+06    -85.0497E+06     12.3165E+03    -168.116E-03     335.266E-03    -167.150E-03     53.6325E-03    -168.380E-03     334.486E-03    -167.048E-03     50.4180E-03
            1867     1.52348E-03     40.6834E-03    -105.104E+06    -277.343E+06    -96.7090E+06     148.204E+03    -167.450E-03     334.461E-03    -167.011E-03     36.2899E-03    -167.554E-03     333.487E-03    -166.939E-03     34.1824E-03
            1868     761.698E-06     40.6486E-03    -108.260E+06    -283.335E+06    -105.836E+06     361.967E+03    -166.965E-03     333.962E-03    -166.997E-03     19.7192E-03    -166.980E-03     332.894E-03    -166.958E-03     18.5946E-03
            1869     14.4405E-03     42.9036E-03    -4.15629E+06     93.9640E+06     85.8370E+06     714.270E+03    -169.563E-03     339.062E-03    -169.499E-03     154.259E-03    -178.392E-03     347.961E-03    -169.200E-03     136.976E-03
            1870     13.6770E-03     42.6701E-03    -8.92045E+06     91.6556E+06     88.1472E+06     896.874E+03    -171.050E-03     340.463E-03    -169.413E-03     213.225E-03    -184.759E-03     354.210E-03    -169.092E-03     190.429E-03
            1871     12.9221E-03     42.3985E-03    -14.3452E+06     87.1402E+06     89.2907E+06    -1.01098E+03    -173.844E-03     343.124E-03    -169.279E-03     240.986E-03    -189.217E-03     358.495E-03    -168.938E-03     215.810E-03
            1872     12.1647E-03     42.0850E-03    -20.4736E+06     80.0487E+06     86.0999E+06    -500.030E+03    -175.767E-03     344.875E-03    -169.108E-03     264.132E-03    -192.207E-03     361.277E-03    -168.764E-03     236.882E-03
            1873     11.4054E-03     41.7585E-03    -26.8884E+06     67.8418E+06     73.6191E+06     2.46943E+06    -176.663E-03     345.574E-03    -168.910E-03     264.786E-03    -191.752E-03     360.594E-03    -168.602E-03     237.896E-03
            1874     10.6469E-03     41.4435E-03    -32.5836E+06     58.6419E+06     56.8915E+06     5.11736E+06    -176.771E-03     345.466E-03    -168.695E-03     250.457E-03    -189.339E-03     357.961E-03    -168.448E-03     225.534E-03
            1875     9.88779E-03     41.1484E-03    -37.5037E+06     48.6425E+06     39.1543E+06     2.31213E+06    -176.413E-03     344.875E-03    -168.462E-03     229.665E-03    -186.368E-03     354.755E-03    -168.282E-03     207.299E-03
            1876     9.12893E-03     40.8826E-03    -44.2906E+06     13.9396E+06     23.4799E+06    -986.242E+03    -175.853E-03     344.113E-03    -168.260E-03     208.988E-03    -183.517E-03     351.601E-03    -168.099E-03     189.395E-03
            1877     8.36951E-03     40.6377E-03    -51.5652E+06    -39.7734E+06     10.9101E+06    -983.466E+03    -175.205E-03     343.300E-03    -168.094E-03     190.672E-03    -181.050E-03     348.789E-03    -167.907E-03     173.723E-03
            1878     7.61035E-03     40.4136E-03    -57.4597E+06    -85.4828E+06    -596.427E+03    -475.130E+03    -174.448E-03     342.366E-03    -167.918E-03     173.730E-03    -178.890E-03     346.302E-03    -167.714E-03     159.147E-03
            1879     6.85065E-03     40.2082E-03    -63.1163E+06    -122.832E+06    -10.7855E+06     29.1533E+03    -173.513E-03     341.250E-03    -167.736E-03     156.889E-03    -176.843E-03     343.950E-03    -167.521E-03     144.472E-03
            1880     6.09048E-03     40.0238E-03    -68.9759E+06    -153.095E+06    -20.8889E+06     742.419E+03    -172.374E-03     339.928E-03    -167.554E-03     139.738E-03    -174.818E-03     341.645E-03    -167.337E-03     129.307E-03
            1881     5.33014E-03     39.8600E-03    -75.5127E+06    -184.720E+06    -31.5844E+06     644.914E+03    -171.282E-03     338.667E-03    -167.385E-03     122.461E-03    -173.029E-03     339.582E-03    -167.166E-03     113.789E-03
            1882     4.56947E-03     39.7172E-03    -82.2677E+06    -206.341E+06    -43.0642E+06     525.712E+03    -170.264E-03     337.468E-03    -167.203E-03     105.171E-03    -171.479E-03     337.783E-03    -167.000E-03     98.0805E-03
            1883     3.80852E-03     39.5955E-03    -88.7617E+06    -222.772E+06    -55.9493E+06     379.379E+03    -169.229E-03     336.245E-03    -167.016E-03     87.8955E-03    -170.036E-03     336.109E-03    -166.844E-03     82.2435E-03
            1884     3.04732E-03     39.4956E-03    -94.9479E+06    -242.780E+06    -70.4790E+06     8.55170E+03    -168.298E-03     335.146E-03    -166.848E-03     70.6172E-03    -168.792E-03     334.645E-03    -166.711E-03     66.2528E-03
            1885     2.28572E-03     39.4171E-03    -100.469E+06    -262.371E+06    -84.9707E+06    -75.3513E+03    -167.550E-03     334.255E-03    -166.705E-03     53.3211E-03    -167.810E-03     333.474E-03    -166.604E-03     50.1309E-03
            1886     1.52384E-03     39.3614E-03    -105.059E+06    -277.643E+06    -97.3872E+06    -69.4358E+03    -166.955E-03     333.560E-03    -166.605E-03     36.0731E-03    -167.056E-03     332.585E-03    -166.537E-03     33.9727E-03
            1887     761.872E-06     39.3267E-03    -108.210E+06    -283.287E+06    -105.886E+06    -126.572E+03    -166.601E-03     333.199E-03    -166.598E-03     19.6477E-03    -166.615E-03     332.131E-03    -166.560E-03     18.5223E-03
            1888     14.4348E-03     41.5790E-03    -4.89421E+06     93.7162E+06     86.9638E+06    -113.436E+03    -170.085E-03     339.591E-03    -169.506E-03     152.782E-03    -178.866E-03     348.435E-03    -169.200E-03     135.411E-03
            1889     13.6807E-03     41.3287E-03    -9.11744E+06     91.8058E+06     88.5010E+06    -578.327E+03    -171.872E-03     341.240E-03    -169.368E-03     211.085E-03    -185.491E-03     354.896E-03    -169.046E-03     188.148E-03
            1890     12.9238E-03     41.0671E-03    -14.8266E+06     87.9142E+06     88.3321E+06    -27.6477E+03    -173.913E-03     343.105E-03    -169.191E-03     240.220E-03    -189.231E-03     358.426E-03    -168.856E-03     215.023E-03
            1891     12.1642E-03     40.7518E-03    -21.9460E+06     79.2548E+06     84.9991E+06    -15.5569E+03    -175.777E-03     344.791E-03    -169.015E-03     264.078E-03    -192.181E-03     361.153E-03    -168.673E-03     236.871E-03
            1892     11.4065E-03     40.4275E-03    -28.4467E+06     63.6204E+06     74.6491E+06    -1.35612E+03    -177.137E-03     345.945E-03    -168.808E-03     264.077E-03    -192.195E-03     360.912E-03    -168.486E-03     237.127E-03
            1893     10.6484E-03     40.1111E-03    -31.8521E+06     56.3058E+06     61.1590E+06    -166.954E+03    -177.418E-03     345.965E-03    -168.547E-03     249.801E-03    -189.970E-03     358.427E-03    -168.277E-03     224.740E-03
            1894     9.89015E-03     39.8196E-03    -35.6512E+06     49.6656E+06     42.5733E+06     1.67328E+06    -176.678E-03     344.928E-03    -168.251E-03     228.846E-03    -186.570E-03     354.747E-03    -168.058E-03     206.530E-03
            1895     9.13095E-03     39.5522E-03    -41.6468E+06     17.0512E+06     25.8975E+06     3.24400E+06    -175.894E-03     343.896E-03    -168.002E-03     207.740E-03    -183.499E-03     351.339E-03    -167.837E-03     188.269E-03
            1896     8.37250E-03     39.3097E-03    -48.6480E+06    -37.5876E+06     12.8695E+06     1.97303E+06    -175.224E-03     343.024E-03    -167.800E-03     189.449E-03    -181.026E-03     348.482E-03    -167.610E-03     172.580E-03
            1897     7.61288E-03     39.0858E-03    -55.8168E+06    -85.2347E+06     268.425E+03     1.08840E+06    -174.410E-03     341.995E-03    -167.585E-03     172.755E-03    -178.816E-03     345.899E-03    -167.379E-03     158.249E-03
            1898     6.85320E-03     38.8820E-03    -62.5353E+06    -122.917E+06    -10.6745E+06     974.200E+03    -173.360E-03     340.727E-03    -167.367E-03     155.836E-03    -176.661E-03     343.400E-03    -167.151E-03     143.490E-03
            1899     6.09309E-03     38.6983E-03    -69.0310E+06    -153.654E+06    -21.0701E+06     967.245E+03    -172.199E-03     339.348E-03    -167.149E-03     138.649E-03    -174.622E-03     341.042E-03    -166.932E-03     128.268E-03
            1900     5.33246E-03     38.5354E-03    -75.2556E+06    -183.651E+06    -31.0516E+06     1.39001E+06    -171.055E-03     337.996E-03    -166.941E-03     121.460E-03    -172.786E-03     338.898E-03    -166.721E-03     112.853E-03
            1901     4.57165E-03     38.3932E-03    -81.8256E+06    -205.103E+06    -42.7017E+06     806.080E+03    -169.878E-03     336.604E-03    -166.726E-03     104.278E-03    -171.078E-03     336.910E-03    -166.524E-03     97.2519E-03
            1902     3.81039E-03     38.2727E-03    -88.3880E+06    -222.342E+06    -56.2145E+06     282.822E+03    -168.733E-03     335.256E-03    -166.523E-03     87.1660E-03    -169.530E-03     335.113E-03    -166.354E-03     81.5612E-03
            1903     3.04867E-03     38.1733E-03    -94.8072E+06    -242.340E+06    -71.2423E+06     296.561E+03    -167.720E-03     334.079E-03    -166.360E-03     70.0715E-03    -168.207E-03     333.576E-03    -166.227E-03     65.7502E-03
            1904     2.28659E-03     38.0959E-03    -100.594E+06    -262.159E+06    -85.5219E+06     164.299E+03    -166.944E-03     333.195E-03    -166.251E-03     52.8659E-03    -167.201E-03     332.413E-03    -166.153E-03     49.7115E-03
            1905     1.52448E-03     38.0398E-03    -105.132E+06    -277.557E+06    -97.5047E+06     54.7189E+03    -166.491E-03     332.678E-03    -166.186E-03     35.7111E-03    -166.591E-03     331.702E-03    -166.119E-03     33.6271E-03
            1906     762.311E-06     38.0059E-03    -108.583E+06    -283.651E+06    -106.618E+06    -19.6604E+03    -166.434E-03     332.377E-03    -165.943E-03     19.6281E-03    -166.448E-03     331.309E-03    -165.908E-03     18.5108E-03
            1907     14.4414E-03     40.2349E-03    -4.23500E+06     94.7528E+06     87.4856E+06    -39.5125E+03    -171.097E-03     340.511E-03    -169.414E-03     151.769E-03    -179.806E-03     349.288E-03    -169.108E-03     134.341E-03
            1908     13.6830E-03     40.0017E-03    -10.2973E+06     90.5372E+06     85.9345E+06    -1.21272E+06    -171.303E-03     340.557E-03    -169.254E-03     211.304E-03    -184.833E-03     354.122E-03    -168.941E-03     188.485E-03
            1909     12.9223E-03     39.7302E-03    -16.5029E+06     85.2756E+06     85.6173E+06    -142.091E+03    -173.587E-03     342.690E-03    -169.103E-03     239.912E-03    -188.839E-03     357.938E-03    -168.774E-03     214.799E-03
            1910     12.1666E-03     39.4211E-03    -22.3892E+06     79.6821E+06     83.5460E+06     635.465E+03    -176.318E-03     345.225E-03    -168.908E-03     262.589E-03    -192.656E-03     361.525E-03    -168.573E-03     235.331E-03
            1911     11.4081E-03     39.0943E-03    -28.3413E+06     66.6380E+06     71.9403E+06    -1.76316E+06    -177.700E-03     346.334E-03    -168.634E-03     262.650E-03    -192.701E-03     361.263E-03    -168.330E-03     235.582E-03
            1912     10.6506E-03     38.7803E-03    -35.7356E+06     54.0867E+06     53.7868E+06    -4.05532E+06    -177.629E-03     345.938E-03    -168.309E-03     248.026E-03    -190.129E-03     358.347E-03    -168.067E-03     222.888E-03
            1913     9.89236E-03     38.4886E-03    -42.4343E+06     42.9084E+06     36.7444E+06    -2.26199E+06    -176.837E-03     344.822E-03    -167.985E-03     227.422E-03    -186.680E-03     354.560E-03    -167.802E-03     205.111E-03
            1914     9.13445E-03     38.2238E-03    -47.2250E+06     15.1646E+06     24.0777E+06     786.976E+03    -175.925E-03     343.633E-03    -167.708E-03     206.775E-03    -183.500E-03     351.024E-03    -167.541E-03     187.351E-03
            1915     8.37472E-03     37.9813E-03    -52.2297E+06    -35.2078E+06     11.9073E+06     2.18947E+06    -175.187E-03     342.651E-03    -167.464E-03     188.416E-03    -180.966E-03     348.086E-03    -167.278E-03     171.620E-03
            1916     7.61570E-03     37.7589E-03    -57.9675E+06     -84.478E+06    -372.290E+03     2.02331E+06    -174.326E-03     341.539E-03    -167.214E-03     171.503E-03    -178.709E-03     345.418E-03    -167.009E-03     157.069E-03
            1917     6.85593E-03     37.5560E-03    -64.2852E+06    -121.707E+06    -11.1423E+06     1.63234E+06    -173.223E-03     340.177E-03    -166.954E-03     154.616E-03    -176.503E-03     342.829E-03    -166.740E-03     142.347E-03
            1918     6.09576E-03     37.3736E-03    -70.7279E+06    -153.519E+06    -21.9980E+06     1.32085E+06    -172.028E-03     338.720E-03    -166.692E-03     137.524E-03    -174.435E-03     340.394E-03    -166.477E-03     127.212E-03
            1919     5.33532E-03     37.2116E-03    -77.1031E+06    -182.812E+06    -32.9984E+06     803.249E+03    -170.714E-03     337.153E-03    -166.439E-03     120.444E-03    -172.434E-03     338.046E-03    -166.227E-03     111.891E-03
            1920     4.57412E-03     37.0708E-03    -82.9696E+06    -204.035E+06    -44.8693E+06     348.206E+03    -169.381E-03     335.581E-03    -166.199E-03     103.409E-03    -170.572E-03     335.882E-03    -166.008E-03     96.4413E-03
            1921     3.81241E-03     36.9510E-03    -89.2441E+06    -222.628E+06    -57.8444E+06     440.902E+03    -168.192E-03     334.184E-03    -165.992E-03     86.3676E-03    -168.980E-03     334.033E-03    -165.829E-03     80.8190E-03
            1922     3.05030E-03     36.8528E-03    -95.2989E+06    -241.680E+06    -71.6581E+06     471.155E+03    -167.203E-03     333.028E-03    -165.824E-03     69.2824E-03    -167.687E-03     332.523E-03    -165.694E-03     65.0059E-03
            1923     2.28793E-03     36.7756E-03    -100.652E+06    -261.770E+06    -85.4360E+06     332.271E+03    -166.458E-03     332.155E-03    -165.697E-03     52.1820E-03    -166.712E-03     331.371E-03    -165.599E-03     49.0624E-03
            1924     1.52523E-03     36.7201E-03    -105.429E+06    -277.450E+06    -97.4619E+06     254.866E+03    -165.948E-03     331.553E-03    -165.605E-03     35.1865E-03    -166.047E-03     330.575E-03    -165.537E-03     33.1287E-03
            1925     762.600E-06     36.6855E-03    -108.474E+06    -283.107E+06    -106.174E+06     283.326E+03    -165.790E-03     331.184E-03    -165.394E-03     19.3946E-03    -165.804E-03     330.117E-03    -165.357E-03     18.2907E-03
            1926     14.4411E-03     38.9090E-03    -3.79563E+06     94.7737E+06     85.7355E+06     462.585E+03    -171.579E-03     340.953E-03    -169.374E-03     154.037E-03    -180.341E-03     349.790E-03    -169.077E-03     136.484E-03
            1927     13.6810E-03     38.6638E-03    -8.58902E+06     91.8931E+06     86.9883E+06     1.09739E+06    -172.168E-03     341.356E-03    -169.188E-03     211.367E-03    -185.719E-03     354.951E-03    -168.874E-03     188.399E-03
            1928     12.9267E-03     38.4006E-03    -14.1023E+06     84.6299E+06     87.2957E+06     241.162E+03    -174.353E-03     343.339E-03    -168.986E-03     238.411E-03    -189.507E-03     358.490E-03    -168.652E-03     213.227E-03
            1929     12.1668E-03     38.0856E-03    -20.0282E+06     80.1163E+06     84.7392E+06     367.662E+03    -176.805E-03     345.538E-03    -168.733E-03     261.048E-03    -192.994E-03     361.695E-03    -168.397E-03     233.803E-03
            1930     11.4112E-03     37.7621E-03    -27.6533E+06     70.1864E+06     72.2731E+06     31.7258E+03    -177.895E-03     346.305E-03    -168.409E-03     260.828E-03    -192.791E-03     361.141E-03    -168.109E-03     233.812E-03
            1931     10.6537E-03     37.4490E-03    -36.3757E+06     56.8570E+06     52.5623E+06    -514.156E+03    -177.634E-03     345.680E-03    -168.046E-03     246.939E-03    -190.073E-03     358.039E-03    -167.813E-03     221.907E-03
            1932     9.89582E-03     37.1591E-03    -44.5539E+06     42.1496E+06     33.4174E+06    -1.87686E+06    -176.907E-03     344.595E-03    -167.688E-03     226.419E-03    -186.701E-03     354.283E-03    -167.517E-03     204.163E-03
            1933     9.13640E-03     36.8949E-03    -51.3241E+06     10.8286E+06     19.7848E+06    -2.40430E+06    -176.059E-03     343.432E-03    -167.373E-03     205.538E-03    -183.581E-03     350.753E-03    -167.215E-03     186.139E-03
            1934     8.37831E-03     36.6536E-03    -56.0876E+06    -37.9876E+06     9.06361E+06    -747.742E+03    -175.212E-03     342.299E-03    -167.086E-03     187.006E-03    -180.952E-03     347.679E-03    -166.905E-03     170.243E-03
            1935     7.61889E-03     36.4325E-03    -60.5349E+06    -84.3810E+06    -2.12708E+06     567.975E+03    -174.205E-03     340.994E-03    -166.789E-03     170.025E-03    -178.557E-03     344.838E-03    -166.590E-03     155.648E-03
            1936     6.85915E-03     36.2310E-03    -65.3848E+06    -121.694E+06    -12.5391E+06     1.07787E+06    -173.017E-03     339.505E-03    -166.488E-03     153.265E-03    -176.266E-03     342.126E-03    -166.279E-03     141.071E-03
            1937     6.09897E-03     36.0495E-03    -70.6393E+06    -152.691E+06    -23.1348E+06     1.30443E+06    -171.685E-03     337.874E-03    -166.189E-03     136.340E-03    -174.064E-03     339.527E-03    -165.981E-03     126.110E-03
            1938     5.33800E-03     35.8892E-03    -76.3591E+06    -181.341E+06    -33.7458E+06     809.497E+03    -170.305E-03     336.214E-03    -165.909E-03     119.368E-03    -172.003E-03     337.095E-03    -165.704E-03     110.888E-03
            1939     4.57652E-03     35.7495E-03    -82.9947E+06    -203.883E+06    -45.5570E+06     549.739E+03    -168.954E-03     334.599E-03    -165.645E-03     102.366E-03    -170.130E-03     334.889E-03    -165.457E-03     95.4607E-03
            1940     3.81450E-03     35.6309E-03    -89.4630E+06    -222.529E+06    -58.3689E+06     475.900E+03    -167.761E-03     333.165E-03    -165.404E-03     85.3414E-03    -168.539E-03     333.005E-03    -165.243E-03     79.8434E-03
            1941     3.05215E-03     35.5332E-03    -95.3463E+06    -241.280E+06    -72.0190E+06     305.746E+03    -166.770E-03     331.955E-03    -165.185E-03     68.2855E-03    -167.246E-03     331.445E-03    -165.057E-03     64.0467E-03
            1942     2.28944E-03     35.4570E-03    -100.782E+06    -261.438E+06    -85.5665E+06     282.425E+03    -165.953E-03     330.944E-03    -164.991E-03     51.3554E-03    -166.203E-03     330.157E-03    -164.894E-03     48.2636E-03
            1943     1.52670E-03     35.4016E-03    -105.335E+06    -277.215E+06    -97.5050E+06     276.122E+03    -165.302E-03     330.126E-03    -164.824E-03     34.5827E-03    -165.399E-03     329.148E-03    -164.757E-03     32.5471E-03
            1944     763.404E-06     35.3681E-03    -108.198E+06    -282.510E+06    -106.265E+06     201.093E+03    -164.958E-03     329.544E-03    -164.586E-03     18.9182E-03    -164.971E-03     328.479E-03    -164.551E-03     17.8251E-03
            1945     14.4365E-03     37.5665E-03    -4.91524E+06     93.5654E+06     84.1129E+06    -471.315E+03    -172.420E-03     341.787E-03    -169.367E-03     152.030E-03    -181.154E-03     350.591E-03    -169.075E-03     134.291E-03
            1946     13.6857E-03     37.3297E-03    -8.71622E+06     92.9270E+06     88.1612E+06     38.0416E+03    -173.420E-03     342.539E-03    -169.120E-03     209.340E-03    -186.920E-03     356.083E-03    -168.801E-03     186.131E-03
            1947     12.9263E-03     37.0657E-03    -13.9043E+06     85.4024E+06     88.2222E+06     151.860E+03    -175.337E-03     344.177E-03    -168.840E-03     237.906E-03    -190.437E-03     359.275E-03    -168.502E-03     212.598E-03
            1948     12.1724E-03     36.7528E-03    -21.4033E+06     79.1329E+06     84.2216E+06     799.637E+03    -177.256E-03     345.788E-03    -168.532E-03     260.926E-03    -193.379E-03     361.872E-03    -168.195E-03     233.688E-03
            1949     11.4139E-03     36.4302E-03    -28.6623E+06     70.7959E+06     73.2685E+06     1.18868E+06    -177.906E-03     346.093E-03    -168.187E-03     260.412E-03    -192.719E-03     360.843E-03    -167.882E-03     233.524E-03
            1950     10.6560E-03     36.1179E-03    -34.5781E+06     59.1864E+06     56.2891E+06     1.61789E+06    -177.909E-03     345.714E-03    -167.805E-03     246.225E-03    -190.276E-03     358.005E-03    -167.559E-03     221.280E-03
            1951     9.89785E-03     35.8290E-03    -40.5782E+06     45.9752E+06     37.2392E+06     1.35904E+06    -177.290E-03     344.681E-03    -167.391E-03     225.013E-03    -187.009E-03     354.312E-03    -167.213E-03     202.829E-03
            1952     9.14080E-03     35.5663E-03    -47.0619E+06     12.5373E+06     21.3268E+06     297.493E+03    -176.275E-03     343.283E-03    -167.007E-03     203.896E-03    -183.723E-03     350.545E-03    -166.851E-03     184.584E-03
            1953     8.38157E-03     35.3265E-03    -53.9555E+06    -39.9760E+06     7.72093E+06    -841.063E+03    -175.198E-03     341.860E-03    -166.662E-03     185.575E-03    -180.872E-03     347.177E-03    -166.487E-03     168.893E-03
            1954     7.62248E-03     35.1068E-03    -59.8468E+06    -86.1598E+06    -3.93472E+06    -543.729E+03    -174.097E-03     340.415E-03    -166.318E-03     168.670E-03    -178.395E-03     344.207E-03    -166.126E-03     154.369E-03
            1955     6.86273E-03     34.9067E-03    -65.2912E+06    -122.568E+06    -13.9466E+06     419.167E+03    -172.782E-03     338.757E-03    -165.975E-03     151.845E-03    -175.992E-03     341.341E-03    -165.772E-03     139.725E-03
            1956     6.10206E-03     34.7271E-03    -71.0239E+06    -152.512E+06    -24.4395E+06     757.532E+03    -171.333E-03     336.969E-03    -165.637E-03     134.844E-03    -173.681E-03     338.595E-03    -165.435E-03     124.693E-03
            1957     5.34093E-03     34.5677E-03    -77.0776E+06    -180.546E+06    -34.7498E+06     969.857E+03    -169.911E-03     335.229E-03    -165.317E-03     117.721E-03    -171.587E-03     336.091E-03    -165.118E-03     109.320E-03
            1958     4.57933E-03     34.4296E-03    -83.1206E+06    -203.071E+06    -45.7169E+06     743.062E+03    -168.560E-03     333.567E-03    -165.008E-03     100.761E-03    -169.719E-03     333.843E-03    -164.821E-03     93.9178E-03
            1959     3.81720E-03     34.3119E-03    -89.3658E+06    -222.168E+06    -58.5819E+06     512.247E+03    -167.296E-03     332.004E-03    -164.709E-03     83.9719E-03    -168.061E-03     331.834E-03    -164.550E-03     78.5249E-03
            1960     3.05458E-03     34.2153E-03    -95.6307E+06    -240.742E+06    -72.7846E+06     516.179E+03    -166.180E-03     330.613E-03    -164.433E-03     67.2751E-03    -166.650E-03     330.100E-03    -164.309E-03     63.0857E-03
            1961     2.29158E-03     34.1398E-03    -101.002E+06    -261.309E+06    -86.2166E+06     255.194E+03    -165.250E-03     329.447E-03    -164.197E-03     50.6844E-03    -165.497E-03     328.658E-03    -164.103E-03     47.6340E-03
            1962     1.52784E-03     34.0856E-03    -105.372E+06    -277.032E+06    -97.6963E+06     104.402E+03    -164.534E-03     328.533E-03    -163.998E-03     34.2675E-03    -164.630E-03     327.554E-03    -163.932E-03     32.2566E-03
            1963     764.149E-06     34.0521E-03    -108.506E+06    -282.001E+06    -106.009E+06     118.165E+03    -164.105E-03     327.861E-03    -163.756E-03     18.8096E-03    -164.120E-03     326.798E-03    -163.720E-03     17.7250E-03
            1964     14.4448E-03     36.2323E-03    -5.28213E+06     93.7420E+06     85.4830E+06    -628.108E+03    -173.130E-03     342.410E-03    -169.280E-03     150.590E-03    -181.743E-03     351.089E-03    -168.981E-03     132.858E-03
            1965     13.6830E-03     35.9925E-03    -10.9896E+06     91.9557E+06     86.3258E+06    -1.03667E+06    -173.355E-03     342.353E-03    -168.998E-03     208.062E-03    -186.673E-03     355.709E-03    -168.684E-03     184.971E-03
            1966     12.9304E-03     35.7300E-03    -17.0961E+06     84.5482E+06     85.7573E+06    -718.234E+03    -175.633E-03     344.337E-03    -168.703E-03     237.388E-03    -190.649E-03     359.342E-03    -168.372E-03     212.107E-03
            1967     12.1716E-03     35.4187E-03    -22.5787E+06     77.0545E+06     83.1092E+06    -19.0868E+03    -177.595E-03     345.969E-03    -168.374E-03     260.460E-03    -193.650E-03     361.976E-03    -168.037E-03     233.231E-03
            1968     11.4156E-03     35.0977E-03    -27.9163E+06     69.5858E+06     73.3202E+06     918.096E+03    -178.561E-03     346.546E-03    -167.985E-03     259.621E-03    -193.295E-03     361.216E-03    -167.679E-03     232.699E-03
            1969     10.6588E-03     34.7867E-03    -34.0558E+06     58.8784E+06     55.9260E+06     816.647E+03    -178.598E-03     346.127E-03    -167.529E-03     244.527E-03    -190.883E-03     358.338E-03    -167.285E-03     219.538E-03
            1970     9.90227E-03     34.4986E-03    -39.6566E+06     45.9360E+06      37.409E+06     1.48568E+06    -177.598E-03     344.643E-03    -167.044E-03     223.126E-03    -187.233E-03     354.191E-03    -166.866E-03     200.995E-03
            1971     9.14363E-03     34.2377E-03    -45.6762E+06     14.9686E+06     22.1052E+06     2.45867E+06    -176.299E-03     342.902E-03    -166.603E-03     202.116E-03    -183.675E-03     350.104E-03    -166.448E-03     182.920E-03
            1972     8.38555E-03     34.0002E-03    -52.3445E+06    -37.0363E+06     8.21523E+06     2.05749E+06    -175.177E-03     341.382E-03    -166.205E-03     183.931E-03    -180.788E-03     346.652E-03    -166.034E-03     167.384E-03
            1973     7.62625E-03     33.7816E-03    -59.7828E+06    -86.1486E+06    -5.06810E+06     1.03036E+06    -173.996E-03     339.804E-03    -165.808E-03     166.973E-03    -178.246E-03     343.550E-03    -165.622E-03     152.779E-03
            1974     6.86635E-03     33.5837E-03    -66.8024E+06    -123.088E+06    -15.5637E+06     462.218E+03    -172.635E-03     338.043E-03    -165.407E-03     150.010E-03    -175.811E-03     340.590E-03    -165.210E-03     137.968E-03
            1975     6.10601E-03     33.4053E-03    -73.0127E+06    -152.858E+06    -25.3263E+06     776.735E+03    -171.115E-03     336.121E-03    -165.007E-03     132.874E-03    -173.438E-03     337.717E-03    -164.806E-03     122.798E-03
            1976     5.34488E-03     33.2479E-03    -79.0334E+06    -179.294E+06    -36.1879E+06     433.163E+03    -169.493E-03     334.112E-03    -164.618E-03     115.898E-03    -171.153E-03     334.959E-03    -164.425E-03     107.567E-03
            1977     4.58292E-03     33.1109E-03    -84.9616E+06    -202.553E+06    -47.6686E+06    -278.686E+03    -167.992E-03     332.248E-03    -164.256E-03     99.3064E-03    -169.139E-03     332.513E-03    -164.078E-03     92.5274E-03
            1978     3.82038E-03     32.9948E-03    -90.5556E+06    -222.804E+06    -59.7080E+06     49.2720E+03    -166.621E-03     330.545E-03    -163.924E-03     82.8129E-03    -167.378E-03     330.362E-03    -163.768E-03     77.4250E-03
            1979     3.05706E-03     32.8995E-03    -95.9704E+06    -240.034E+06    -73.1564E+06     332.188E+03    -165.391E-03     329.017E-03    -163.626E-03     66.4204E-03    -165.855E-03     328.500E-03    -163.505E-03     62.2872E-03
            1980     2.29312E-03     32.8249E-03    -101.071E+06    -261.030E+06    -86.3282E+06     228.847E+03    -164.445E-03     327.825E-03    -163.381E-03     49.9665E-03    -164.687E-03     327.033E-03    -163.287E-03     46.9594E-03
            1981     1.52912E-03     32.7716E-03    -105.363E+06    -276.861E+06    -97.7708E+06     30.6606E+03    -163.718E-03     326.889E-03    -163.171E-03     33.6241E-03    -163.811E-03     325.909E-03    -163.106E-03     31.6388E-03
            1982     764.534E-06     32.7385E-03    -108.198E+06    -281.609E+06    -106.396E+06    -192.417E+03    -163.127E-03     326.188E-03    -163.061E-03     18.2013E-03    -163.140E-03     325.127E-03    -163.028E-03     17.1209E-03
            1983     14.4401E-03     34.8923E-03    -4.32624E+06     94.2006E+06     86.0002E+06     268.839E+03    -173.611E-03     342.843E-03    -169.232E-03     151.961E-03    -182.240E-03     351.542E-03    -168.932E-03     134.108E-03
            1984     13.6896E-03     34.6598E-03    -9.58173E+06     93.4624E+06     86.9856E+06     1.35596E+06    -174.083E-03     343.003E-03    -168.920E-03     209.139E-03    -187.387E-03     356.353E-03    -168.607E-03     186.013E-03
            1985     12.9293E-03     34.3934E-03    -15.6860E+06     85.9267E+06     86.1529E+06     2.37022E+03    -176.236E-03     344.822E-03    -168.585E-03     236.884E-03    -191.160E-03     359.744E-03    -168.256E-03     211.569E-03
            1986     12.1752E-03     34.0859E-03    -21.9646E+06     76.2164E+06     82.7987E+06    -1.05564E+06    -178.293E-03     346.494E-03    -168.201E-03     258.207E-03    -194.207E-03     362.361E-03    -167.866E-03     230.904E-03
            1987     11.4183E-03     33.7637E-03    -29.0023E+06     68.3266E+06     72.2412E+06    -325.718E+03    -179.275E-03     347.013E-03    -167.738E-03     257.572E-03    -193.892E-03     361.560E-03    -167.434E-03     230.607E-03
            1988     10.6627E-03     33.4543E-03    -35.5034E+06     57.8911E+06     54.1239E+06     236.831E+03    -178.987E-03     346.194E-03    -167.207E-03     242.795E-03    -191.186E-03     358.315E-03    -166.969E-03     217.824E-03
            1989     9.90545E-03     33.1686E-03    -42.4616E+06     42.6170E+06     33.5086E+06     1.22502E+06    -177.778E-03     344.437E-03    -166.659E-03     221.547E-03    -187.344E-03     353.906E-03    -166.491E-03     199.469E-03
            1990     9.14835E-03     32.9103E-03    -49.0147E+06     14.2128E+06     19.5037E+06     2.39675E+06    -176.438E-03     342.601E-03    -166.163E-03     200.380E-03    -183.755E-03     349.738E-03    -166.015E-03     181.260E-03
            1991     8.38949E-03     32.6737E-03    -55.3382E+06    -34.7630E+06     7.67021E+06     2.99433E+06    -175.283E-03     340.987E-03    -165.704E-03     181.951E-03    -180.854E-03     346.217E-03    -165.535E-03     165.484E-03
            1992     7.63055E-03     32.4577E-03    -61.2459E+06    -83.2079E+06    -4.50305E+06     2.38328E+06    -173.983E-03     339.218E-03    -165.236E-03     164.734E-03    -178.191E-03     342.927E-03    -165.049E-03     150.641E-03
            1993     6.87090E-03     32.2610E-03    -66.9512E+06    -121.587E+06    -14.8749E+06     1.28149E+06    -172.426E-03     337.190E-03    -164.764E-03     147.824E-03    -175.561E-03     339.699E-03    -164.565E-03     135.885E-03
            1994     6.11046E-03     32.0848E-03    -72.6424E+06    -152.575E+06    -24.8835E+06     511.897E+03    -170.697E-03     335.001E-03    -164.304E-03     131.059E-03    -172.987E-03     336.564E-03    -164.102E-03     121.071E-03
            1995     5.34901E-03     31.9294E-03    -78.1470E+06    -177.962E+06    -35.3552E+06     8.95526E+03    -168.982E-03     332.848E-03    -163.866E-03     114.487E-03    -170.615E-03     333.674E-03    -163.672E-03     106.243E-03
            1996     4.58661E-03     31.7943E-03    -83.9150E+06    -202.095E+06    -47.1116E+06    -429.250E+03    -167.347E-03     330.810E-03    -163.463E-03     98.0482E-03    -168.472E-03     331.057E-03    -163.284E-03     91.3497E-03
            1997     3.82335E-03     31.6796E-03    -89.9900E+06    -223.643E+06    -59.7020E+06    -612.483E+03    -165.879E-03     328.979E-03    -163.100E-03     81.6365E-03    -166.618E-03     328.778E-03    -162.944E-03     76.3154E-03
            1998     3.05959E-03     31.5858E-03    -95.6855E+06    -240.312E+06    -72.9936E+06    -232.007E+03    -164.604E-03     327.381E-03    -162.777E-03     65.2695E-03    -165.058E-03     326.854E-03    -162.655E-03     61.1830E-03
            1999     2.29533E-03     31.5122E-03    -100.676E+06    -260.694E+06    -85.8974E+06     137.199E+03    -163.562E-03     326.080E-03    -162.518E-03     49.1156E-03    -163.799E-03     325.282E-03    -162.423E-03     46.1509E-03
            2000     1.53055E-03     31.4595E-03    -105.088E+06    -276.570E+06    -97.3541E+06     41.6329E+03    -162.818E-03     325.133E-03    -162.315E-03     33.0831E-03    -162.909E-03     324.152E-03    -162.249E-03     31.1229E-03
            2001     765.530E-06     31.4278E-03    -108.028E+06    -281.568E+06    -105.983E+06     152.323E+03    -162.216E-03     324.488E-03    -162.272E-03     17.9939E-03    -162.228E-03     323.426E-03    -162.237E-03     16.9289E-03
            2002     14.4435E-03     33.5549E-03    -4.57270E+06     92.8031E+06     84.5453E+06     344.260E+03    -174.233E-03     343.494E-03    -169.262E-03     151.749E-03    -182.828E-03     352.157E-03    -168.967E-03     133.833E-03
            2003     13.6834E-03     33.3200E-03    -9.42925E+06     93.2411E+06     86.7212E+06     385.762E+03    -175.540E-03     344.437E-03    -168.896E-03     208.636E-03    -188.829E-03     357.771E-03    -168.584E-03     185.210E-03
            2004     12.9331E-03     33.0571E-03    -14.3783E+06     87.0686E+06     87.2044E+06     753.190E+03    -177.754E-03     346.223E-03    -168.468E-03     235.404E-03    -192.618E-03     361.092E-03    -168.138E-03     209.830E-03
            2005     12.1768E-03     32.7499E-03    -21.1647E+06     76.7347E+06     82.4754E+06     902.354E+03    -179.302E-03     347.285E-03    -167.983E-03     256.645E-03    -195.128E-03     363.070E-03    -167.651E-03     229.235E-03
            2006     11.4226E-03     32.4304E-03    -28.5415E+06     68.8946E+06     70.4652E+06     583.778E+03    -179.730E-03     347.172E-03    -167.442E-03     256.290E-03    -194.254E-03     361.635E-03    -167.148E-03     229.347E-03
            2007     10.6658E-03     32.1225E-03    -36.4298E+06     56.3566E+06     50.9540E+06     1.18047E+06    -179.131E-03     345.991E-03    -166.860E-03     241.351E-03    -191.225E-03     358.009E-03    -166.634E-03     216.481E-03
            2008     9.90957E-03     31.8386E-03    -43.3931E+06     40.9652E+06     32.1770E+06     2.58064E+06    -178.119E-03     344.385E-03    -166.266E-03     219.654E-03    -187.592E-03     353.757E-03    -166.102E-03     197.665E-03
            2009     9.15180E-03     31.5822E-03    -49.8762E+06     14.2228E+06     19.5481E+06     3.25222E+06    -176.863E-03     342.557E-03    -165.694E-03     198.184E-03    -184.119E-03     349.630E-03    -165.545E-03     179.105E-03
            2010     8.39438E-03     31.3479E-03    -55.4446E+06    -33.3273E+06     8.70401E+06     2.53412E+06    -175.430E-03     340.579E-03    -165.149E-03     179.617E-03    -180.950E-03     345.759E-03    -164.977E-03     163.196E-03
            2011     7.63571E-03     31.1340E-03    -60.4224E+06    -81.0980E+06    -2.49289E+06     2.01226E+06    -173.830E-03     338.439E-03    -164.609E-03     162.750E-03    -177.987E-03     342.100E-03    -164.416E-03     148.755E-03
            2012     6.87608E-03     30.9397E-03    -65.5734E+06    -118.946E+06    -12.9705E+06     1.34636E+06    -172.040E-03     336.120E-03    -164.080E-03     146.151E-03    -175.134E-03     338.596E-03    -163.877E-03     134.321E-03
            2013     6.11493E-03     30.7662E-03    -71.3306E+06    -150.955E+06    -23.6153E+06     273.459E+03    -170.210E-03     333.783E-03    -163.573E-03     129.456E-03    -172.464E-03     335.316E-03    -163.369E-03     119.574E-03
            2014     5.35293E-03     30.6123E-03    -77.3526E+06    -177.498E+06    -34.5649E+06    -406.662E+03    -168.447E-03     331.537E-03    -163.089E-03     112.783E-03    -170.051E-03     332.336E-03    -162.893E-03     104.627E-03
            2015     4.59034E-03     30.4795E-03    -83.0300E+06    -201.942E+06    -46.0885E+06    -675.624E+03    -166.710E-03     329.350E-03    -162.640E-03     96.3604E-03    -167.813E-03     329.576E-03    -162.458E-03     89.7345E-03
            2016     3.82680E-03     30.3665E-03    -89.0243E+06    -224.027E+06    -58.8684E+06    -426.939E+03    -165.082E-03     327.323E-03    -162.242E-03     80.2750E-03    -165.803E-03     327.104E-03    -162.082E-03     75.0292E-03
            2017     3.06251E-03     30.2739E-03    -95.0091E+06    -241.000E+06    -72.9153E+06    -253.742E+03    -163.699E-03     325.602E-03    -161.904E-03     64.3504E-03    -164.139E-03     325.062E-03    -161.781E-03     60.3266E-03
            2018     2.29739E-03     30.2022E-03    -100.180E+06    -261.046E+06    -86.2390E+06     39.0107E+03    -162.644E-03     324.293E-03    -161.649E-03     48.5622E-03    -162.873E-03     323.490E-03    -161.556E-03     45.6390E-03
            2019     1.53162E-03     30.1500E-03    -104.196E+06    -276.270E+06    -97.2562E+06     185.949E+03    -161.905E-03     323.376E-03    -161.471E-03     32.6625E-03    -161.990E-03     322.392E-03    -161.405E-03     30.7336E-03
            2020     765.732E-06     30.1186E-03    -106.876E+06    -281.269E+06    -104.721E+06     125.615E+03    -161.367E-03     322.838E-03    -161.471E-03     17.6430E-03    -161.375E-03     321.773E-03    -161.432E-03     16.5967E-03
            2021     14.4386E-03     32.2172E-03    -5.00562E+06     93.3448E+06     85.4566E+06     533.581E+03    -175.678E-03     344.915E-03    -169.237E-03     148.962E-03    -184.118E-03     353.421E-03    -168.938E-03     130.988E-03
            2022     13.6896E-03     31.9788E-03    -10.1761E+06     93.4153E+06     87.2441E+06    -771.443E+03    -176.495E-03     345.288E-03    -168.793E-03     205.255E-03    -189.572E-03     358.407E-03    -168.477E-03     181.743E-03
            2023     12.9330E-03     31.7187E-03    -15.4961E+06     85.5381E+06     86.5209E+06    -234.347E+03    -178.226E-03     346.527E-03    -168.301E-03     232.681E-03    -192.902E-03     361.201E-03    -167.970E-03     207.117E-03
            2024     12.1807E-03     31.4127E-03    -21.2602E+06     75.7794E+06     82.3929E+06     1.49963E+06    -179.779E-03     347.546E-03    -167.767E-03     255.119E-03    -195.473E-03     363.195E-03    -167.434E-03     227.750E-03
            2025     11.4248E-03     31.0970E-03    -28.4369E+06     68.1825E+06     71.2192E+06     2.76874E+06    -180.345E-03     347.515E-03    -167.170E-03     254.780E-03    -194.789E-03     361.894E-03    -166.871E-03     227.820E-03
            2026     10.6699E-03     30.7902E-03    -35.7915E+06     56.6268E+06     53.5975E+06     3.48977E+06    -179.797E-03     346.314E-03    -166.516E-03     239.171E-03    -191.788E-03     358.223E-03    -166.278E-03     214.346E-03
            2027     9.91327E-03     30.5090E-03    -42.7526E+06     41.4298E+06     34.7998E+06     3.77086E+06    -178.568E-03     344.402E-03    -165.834E-03     217.100E-03    -187.930E-03     353.659E-03    -165.658E-03     195.201E-03
            2028     9.15742E-03     30.2534E-03    -47.9403E+06     15.6421E+06     22.3179E+06     2.94771E+06    -176.989E-03     342.169E-03    -165.180E-03     195.665E-03    -184.164E-03     349.164E-03    -165.021E-03     176.653E-03
            2029     8.39967E-03     30.0231E-03    -52.9693E+06    -31.1071E+06     11.1109E+06     2.35333E+06    -175.275E-03     339.842E-03    -164.567E-03     177.603E-03    -180.726E-03     344.962E-03    -164.389E-03     161.291E-03
            2030     7.64059E-03     29.8112E-03    -58.4548E+06    -79.8192E+06    -1.15560E+06     1.76230E+06    -173.529E-03     337.503E-03    -163.974E-03     161.098E-03    -177.633E-03     341.119E-03    -163.779E-03     147.212E-03
            2031     6.88024E-03     29.6201E-03    -63.9266E+06    -117.492E+06    -11.3480E+06     995.483E+03    -171.725E-03     335.121E-03    -163.396E-03     144.318E-03    -174.772E-03     337.558E-03    -163.190E-03     132.590E-03
            2032     6.11943E-03     29.4482E-03    -69.5958E+06    -149.295E+06    -21.6283E+06     534.667E+03    -169.851E-03     332.682E-03    -162.832E-03     127.556E-03    -172.067E-03     334.185E-03    -162.622E-03     117.768E-03
            2033     5.35767E-03     29.2974E-03    -75.6488E+06    -176.194E+06    -32.9769E+06    -49.1018E+03    -167.875E-03     330.167E-03    -162.292E-03     111.045E-03    -169.448E-03     330.942E-03    -162.092E-03     102.987E-03
            2034     4.59443E-03     29.1663E-03    -82.1642E+06    -202.022E+06    -45.3419E+06    -384.629E+03    -165.975E-03     327.779E-03    -161.804E-03     94.9311E-03    -167.054E-03     327.981E-03    -161.619E-03     88.4022E-03
            2035     3.83031E-03     29.0557E-03    -88.3328E+06    -224.545E+06    -58.3920E+06    -190.571E+03    -164.261E-03     325.643E-03    -161.383E-03     79.1042E-03    -164.966E-03     325.408E-03    -161.221E-03     73.9323E-03
            2036     3.06485E-03     28.9650E-03    -94.0794E+06    -241.209E+06    -72.7056E+06     226.188E+03    -162.834E-03     323.863E-03    -161.028E-03     63.2798E-03    -163.262E-03     323.310E-03    -160.906E-03     59.3240E-03
            2037     2.29906E-03     28.8938E-03    -99.3936E+06    -261.334E+06    -86.5899E+06     293.969E+03    -161.773E-03     322.532E-03    -160.759E-03     47.5228E-03    -161.992E-03     321.722E-03    -160.669E-03     44.6436E-03
            2038     1.53320E-03     28.8429E-03    -103.167E+06    -275.885E+06    -97.2375E+06     381.218E+03    -161.014E-03     321.585E-03    -160.571E-03     32.0036E-03    -161.092E-03     320.599E-03    -160.507E-03     30.1088E-03
            2039     766.768E-06     28.8116E-03    -105.379E+06    -280.454E+06    -104.082E+06     260.709E+03    -160.688E-03     321.036E-03    -160.348E-03     17.1740E-03    -160.690E-03     319.971E-03    -160.309E-03     16.1466E-03
            2040     14.4465E-03     30.8723E-03    -4.38436E+06     93.8114E+06     85.8709E+06     801.867E+03    -177.390E-03     346.530E-03    -169.140E-03     147.976E-03    -185.789E-03     354.998E-03    -168.840E-03     129.771E-03
            2041     13.6898E-03     30.6415E-03    -9.43776E+06     92.6411E+06     86.8327E+06    -348.902E+03    -177.053E-03     345.678E-03    -168.625E-03     204.692E-03    -190.026E-03     358.695E-03    -168.312E-03     181.123E-03
            2042     12.9382E-03     30.3793E-03    -15.6800E+06     83.6591E+06     85.7017E+06     236.681E+03    -178.461E-03     346.566E-03    -168.105E-03     231.806E-03    -192.959E-03     361.057E-03    -167.775E-03     206.357E-03
            2043     12.1819E-03     30.0780E-03    -22.8225E+06     72.7359E+06     81.1250E+06     1.23515E+06    -180.406E-03     347.936E-03    -167.530E-03     253.279E-03    -195.941E-03     363.412E-03    -167.197E-03     225.917E-03
            2044     11.4284E-03     29.7601E-03    -29.1792E+06     66.7632E+06     72.3057E+06     2.73169E+06    -181.144E-03     348.006E-03    -166.862E-03     251.836E-03    -195.438E-03     362.224E-03    -166.555E-03     224.867E-03
            2045     10.6739E-03     29.4584E-03    -35.4455E+06     57.0929E+06     56.5666E+06     4.16305E+06    -180.333E-03     346.455E-03    -166.122E-03     236.241E-03    -192.195E-03     358.230E-03    -165.870E-03     211.475E-03
            2046     9.91941E-03     29.1779E-03    -40.4992E+06     43.2566E+06     38.1671E+06     3.52798E+06    -178.647E-03     344.011E-03    -165.364E-03     215.146E-03    -187.920E-03     353.183E-03    -165.177E-03     193.331E-03
            2047     9.16220E-03     28.9268E-03    -45.8634E+06     16.9088E+06     23.9659E+06     2.53748E+06    -176.755E-03     341.412E-03    -164.657E-03     194.172E-03    -183.844E-03     348.329E-03    -164.496E-03     175.306E-03
            2048     8.40407E-03     28.6982E-03    -51.4795E+06    -29.8814E+06     12.2425E+06     2.22453E+06    -175.154E-03     339.155E-03    -164.001E-03     175.877E-03    -180.540E-03     344.217E-03    -163.822E-03     159.675E-03
            2049     7.64519E-03     28.4901E-03    -56.6313E+06    -77.8521E+06     450.425E+03     1.59128E+06    -173.459E-03     336.805E-03    -163.347E-03     158.897E-03    -177.511E-03     340.379E-03    -163.149E-03     145.086E-03
            2050     6.88551E-03     28.3007E-03    -62.1145E+06    -116.413E+06    -10.1442E+06     1.19364E+06    -171.453E-03     334.153E-03    -162.700E-03     142.089E-03    -174.449E-03     336.545E-03    -162.492E-03     130.468E-03
            2051     6.12433E-03     28.1323E-03    -68.0560E+06    -148.463E+06    -20.6033E+06     924.052E+03    -169.308E-03     331.390E-03    -162.082E-03     125.590E-03    -171.482E-03     332.855E-03    -161.871E-03     115.919E-03
            2052     5.36160E-03     27.9836E-03    -74.2927E+06    -174.899E+06    -31.6577E+06     783.526E+03    -167.184E-03     328.694E-03    -161.510E-03     109.377E-03    -168.726E-03     329.444E-03    -161.307E-03     101.433E-03
            2053     4.59801E-03     27.8555E-03    -80.9130E+06    -201.465E+06    -44.1009E+06     688.418E+03    -165.248E-03     326.246E-03    -160.998E-03     93.4027E-03    -166.304E-03     326.427E-03    -160.809E-03     86.9788E-03
            2054     3.83309E-03     27.7468E-03    -87.6270E+06    -224.685E+06    -57.7318E+06     585.118E+03    -163.585E-03     324.125E-03    -160.539E-03     77.6361E-03    -164.274E-03     323.872E-03    -160.375E-03     72.5441E-03
            2055     3.06800E-03     27.6577E-03    -93.9638E+06    -241.284E+06    -72.3056E+06     812.011E+03    -162.133E-03     322.265E-03    -160.131E-03     62.0154E-03    -162.552E-03     321.703E-03    -160.007E-03     58.1196E-03
            2056     2.30180E-03     27.5882E-03    -99.3737E+06    -261.069E+06    -86.0009E+06     1.04656E+06    -160.934E-03     320.743E-03    -159.809E-03     46.5768E-03    -161.148E-03     319.928E-03    -159.717E-03     43.7555E-03
            2057     1.53452E-03     27.5381E-03    -103.565E+06    -274.828E+06    -96.8812E+06     784.596E+03    -160.083E-03     319.659E-03    -159.576E-03     31.3289E-03    -160.163E-03     318.676E-03    -159.511E-03     29.4718E-03
            2058     767.231E-06     27.5073E-03    -106.325E+06    -279.529E+06    -104.413E+06     139.684E+03    -159.749E-03     318.993E-03    -159.244E-03     17.0258E-03    -159.756E-03     317.934E-03    -159.207E-03     16.0153E-03
            2059     14.4423E-03     29.5321E-03    -3.52157E+06     93.8521E+06     85.9160E+06     593.209E+03    -178.204E-03     347.314E-03    -169.111E-03     148.895E-03    -186.593E-03     355.775E-03    -168.812E-03     130.529E-03
            2060     13.6930E-03     29.2975E-03    -8.90335E+06     92.9897E+06     86.3613E+06     1.62956E+06    -178.333E-03     346.871E-03    -168.538E-03     204.727E-03    -191.272E-03     359.858E-03    -168.228E-03     180.969E-03
            2061     12.9378E-03     29.0435E-03    -15.7488E+06     82.9472E+06     84.5281E+06     2.06294E+06    -180.037E-03     347.963E-03    -167.926E-03     230.586E-03    -194.455E-03     362.374E-03    -167.600E-03     204.920E-03
            2062     12.1864E-03     28.7377E-03    -21.7366E+06     72.8803E+06     81.6248E+06     1.72126E+06    -181.566E-03     348.818E-03    -167.252E-03     251.195E-03    -196.961E-03     364.158E-03    -166.918E-03     223.734E-03
            2063     11.4336E-03     28.4263E-03    -27.4198E+06     64.4992E+06     73.5664E+06     1.69606E+06    -181.590E-03     348.098E-03    -166.508E-03     249.742E-03    -195.708E-03     362.135E-03    -166.194E-03     222.868E-03
            2064     10.6794E-03     28.1245E-03    -32.2209E+06     55.5081E+06     59.3057E+06     2.88549E+06    -180.421E-03     346.141E-03    -165.720E-03     234.829E-03    -192.155E-03     357.786E-03    -165.457E-03     210.177E-03
            2065     9.92309E-03     27.8493E-03    -37.7979E+06     44.7956E+06     40.4182E+06     3.81875E+06    -178.557E-03     343.474E-03    -164.917E-03     213.416E-03    -187.738E-03     352.563E-03    -164.725E-03     191.723E-03
            2066     9.16625E-03     27.5998E-03    -44.0574E+06     19.4566E+06     25.3472E+06     3.50862E+06    -176.744E-03     340.904E-03    -164.160E-03     192.139E-03    -183.745E-03     347.745E-03    -163.998E-03     173.412E-03
            2067     8.40878E-03     27.3744E-03    -49.7207E+06    -27.8927E+06     13.3137E+06     2.05941E+06    -175.164E-03     338.607E-03    -163.443E-03     173.570E-03    -180.479E-03     343.608E-03    -163.264E-03     157.458E-03
            2068     7.65037E-03     27.1684E-03    -55.2377E+06    -76.9751E+06     689.273E+03     1.62066E+06    -173.299E-03     336.020E-03    -162.721E-03     156.725E-03    -177.292E-03     339.541E-03    -162.526E-03     143.011E-03
            2069     6.89027E-03     26.9833E-03    -61.2582E+06    -115.349E+06    -10.2382E+06     1.97860E+06    -171.084E-03     333.102E-03    -162.018E-03     140.212E-03    -174.036E-03     335.456E-03    -161.813E-03     128.704E-03
            2070     6.12859E-03     26.8175E-03    -67.6521E+06    -147.354E+06    -20.5556E+06     1.86846E+06    -168.776E-03     330.134E-03    -161.359E-03     123.705E-03    -170.914E-03     331.569E-03    -161.150E-03     114.156E-03
            2071     5.36589E-03     26.6722E-03    -74.2394E+06    -173.989E+06    -31.3200E+06     1.59213E+06    -166.579E-03     327.330E-03    -160.751E-03     107.426E-03    -168.094E-03     328.054E-03    -160.548E-03     99.5917E-03
            2072     4.60164E-03     26.5462E-03    -80.7360E+06    -200.907E+06    -43.0457E+06     1.53511E+06    -164.627E-03     324.828E-03    -160.202E-03     91.5812E-03    -165.661E-03     324.988E-03    -160.008E-03     85.2525E-03
            2073     3.83688E-03     26.4398E-03    -87.5517E+06    -224.338E+06    -56.3600E+06     1.73608E+06    -162.881E-03     322.583E-03    -159.703E-03     76.1512E-03    -163.556E-03     322.315E-03    -159.532E-03     71.1469E-03
            2074     3.07047E-03     26.3525E-03    -94.3703E+06    -240.798E+06    -71.4121E+06     1.83371E+06    -161.335E-03     320.593E-03    -159.258E-03     60.8966E-03    -161.748E-03     320.023E-03    -159.129E-03     57.0750E-03
            2075     2.30349E-03     26.2849E-03    -100.143E+06    -259.782E+06    -85.3625E+06     1.57912E+06    -160.137E-03     319.032E-03    -158.896E-03     45.8538E-03    -160.353E-03     318.219E-03    -158.800E-03     43.0864E-03
            2076     1.53643E-03     26.2357E-03    -104.359E+06    -272.950E+06    -96.6006E+06     819.735E+03    -159.222E-03     317.826E-03    -158.604E-03     30.8320E-03    -159.306E-03     316.851E-03    -158.540E-03     29.0075E-03
            2077     768.501E-06     26.2060E-03    -107.424E+06    -278.859E+06    -105.274E+06     132.985E+03    -158.524E-03     316.977E-03    -158.453E-03     16.7938E-03    -158.535E-03     315.923E-03    -158.419E-03     15.8055E-03
            2078     14.4442E-03     28.1837E-03    -5.17147E+06     92.3934E+06     83.6828E+06      12.733E+03    -179.035E-03     348.137E-03    -169.102E-03     146.326E-03    -187.262E-03     356.431E-03    -168.810E-03     127.956E-03
            2079     13.6905E-03     27.9561E-03    -9.96495E+06      91.278E+06     85.0475E+06     1.39661E+06    -179.949E-03     348.409E-03    -168.460E-03     202.131E-03    -192.710E-03     361.212E-03    -168.152E-03     178.208E-03
            2080     12.9422E-03     27.6993E-03    -14.4777E+06     83.1497E+06     85.0473E+06     2.64652E+06    -181.569E-03     349.310E-03    -167.741E-03     227.691E-03    -195.855E-03     363.594E-03    -167.415E-03     201.831E-03
            2081     12.1903E-03     27.4003E-03    -20.3921E+06     75.1280E+06     81.9821E+06     1.99012E+06    -182.061E-03     349.040E-03    -166.979E-03     249.742E-03    -197.311E-03     364.247E-03    -166.648E-03     222.328E-03
            2082     11.4366E-03     27.0898E-03    -26.9922E+06     63.9527E+06     70.9546E+06     841.908E+03    -181.817E-03     347.999E-03    -166.182E-03     248.944E-03    -195.810E-03     361.918E-03    -165.881E-03     222.162E-03
            2083     10.6821E-03     26.7922E-03    -33.3787E+06     51.8001E+06     55.2427E+06     833.034E+03    -180.702E-03     346.051E-03    -165.349E-03     233.221E-03    -192.334E-03     357.589E-03    -165.100E-03     208.610E-03
            2084     9.92753E-03     26.5193E-03    -38.6063E+06     43.0498E+06     39.4675E+06     2.31680E+06    -178.883E-03     343.377E-03    -164.494E-03     211.022E-03    -187.974E-03     352.370E-03    -164.303E-03     189.367E-03
            2085     9.17139E-03     26.2739E-03    -43.2154E+06     21.8086E+06     26.2714E+06     3.39475E+06    -176.909E-03     340.574E-03    -163.665E-03     189.765E-03    -183.833E-03     347.346E-03    -163.503E-03     171.116E-03
            2086     8.41378E-03     26.0504E-03    -49.0507E+06    -25.2875E+06     13.1638E+06     3.01841E+06    -174.881E-03     337.769E-03    -162.887E-03     171.501E-03    -180.122E-03     342.708E-03    -162.714E-03     155.543E-03
            2087     7.65465E-03     25.8489E-03    -55.7858E+06    -76.6468E+06    -549.139E+03     2.67961E+06    -172.864E-03     334.997E-03    -162.132E-03     154.812E-03    -176.802E-03     338.466E-03    -161.943E-03     141.245E-03
            2088     6.89432E-03     25.6661E-03    -62.2118E+06    -114.461E+06    -10.9767E+06     2.67271E+06    -170.754E-03     332.148E-03    -161.394E-03     138.181E-03    -173.665E-03     334.464E-03    -161.193E-03     126.787E-03
            2089     6.13292E-03     25.5044E-03    -68.3058E+06    -145.999E+06    -20.5785E+06     2.49113E+06    -168.441E-03     329.125E-03    -160.684E-03     121.547E-03    -170.549E-03     330.532E-03    -160.476E-03     112.093E-03
            2090     5.36967E-03     25.3617E-03    -74.5121E+06    -172.471E+06    -30.8914E+06     2.13331E+06    -166.119E-03     326.141E-03    -160.022E-03     105.486E-03    -167.607E-03     326.842E-03    -159.818E-03     97.7591E-03
            2091     4.60551E-03     25.2389E-03    -81.1170E+06    -200.629E+06    -42.5151E+06     2.01004E+06    -164.001E-03     323.430E-03    -159.429E-03     89.9394E-03    -165.018E-03     323.570E-03    -159.233E-03     83.7036E-03
            2092     3.83955E-03     25.1346E-03    -87.7085E+06    -224.250E+06    -55.6042E+06     2.46162E+06    -162.110E-03     321.014E-03    -158.903E-03     74.7263E-03    -162.773E-03     320.730E-03    -158.729E-03     69.8081E-03
            2093     3.07316E-03     25.0499E-03    -93.8953E+06    -239.372E+06    -70.4290E+06     2.56227E+06    -160.529E-03     318.971E-03    -158.442E-03     59.7108E-03    -160.933E-03     318.396E-03    -158.311E-03     55.9623E-03
            2094     2.30576E-03     24.9833E-03    -99.1576E+06    -257.242E+06    -84.4441E+06     1.81148E+06    -159.300E-03     317.368E-03    -158.068E-03     44.9865E-03    -159.511E-03     316.559E-03    -157.974E-03     42.2632E-03
            2095     1.53735E-03     24.9357E-03    -103.618E+06    -270.941E+06    -96.1593E+06     861.652E+03    -158.377E-03     316.153E-03    -157.776E-03     30.2895E-03    -158.459E-03     315.184E-03    -157.714E-03     28.4909E-03
            2096     768.686E-06     24.9069E-03    -107.086E+06    -278.003E+06    -104.991E+06     539.562E+03    -157.766E-03     315.326E-03    -157.559E-03     16.3061E-03    -157.776E-03     314.274E-03    -157.526E-03     15.3387E-03
            2097     14.4445E-03     26.8457E-03    -3.75830E+06     92.3485E+06     83.4315E+06     953.538E+03    -181.226E-03     350.279E-03    -169.053E-03     144.963E-03    -189.335E-03     358.461E-03    -168.764E-03     126.402E-03
            2098     13.6953E-03     26.6065E-03    -8.91031E+06     89.3382E+06     84.5662E+06     1.19161E+06    -180.958E-03     349.278E-03    -168.321E-03     200.195E-03    -193.512E-03     361.873E-03    -168.015E-03     176.228E-03
            2099     12.9444E-03     26.3574E-03    -14.2103E+06     81.7914E+06     84.4781E+06     1.03314E+06    -181.599E-03     349.162E-03    -167.563E-03     226.352E-03    -195.709E-03     363.267E-03    -167.239E-03     200.572E-03
            2100     12.1919E-03     26.0615E-03    -19.2442E+06     75.7408E+06     82.4793E+06     1.87087E+06    -182.577E-03     349.348E-03    -166.771E-03     248.082E-03    -197.669E-03     364.402E-03    -166.441E-03     220.732E-03
            2101     11.4394E-03     25.7536E-03    -25.8790E+06     65.4419E+06     71.8037E+06     2.88500E+06    -182.297E-03     348.215E-03    -165.918E-03     246.574E-03    -196.151E-03     362.002E-03    -165.617E-03     219.865E-03
            2102     10.6864E-03     25.4590E-03    -33.4161E+06     53.2870E+06     53.5217E+06     1.83539E+06    -181.030E-03     346.040E-03    -165.010E-03     230.806E-03    -192.555E-03     357.481E-03    -164.771E-03     206.250E-03
            2103     9.93146E-03     25.1893E-03    -40.3375E+06     40.9468E+06     34.9223E+06     570.086E+03    -179.119E-03     343.204E-03    -164.086E-03     209.090E-03    -188.123E-03     352.109E-03    -163.912E-03     187.479E-03
            2104     9.17562E-03     24.9472E-03    -46.3772E+06     20.1417E+06     22.6804E+06     1.80227E+06    -176.893E-03     340.103E-03    -163.209E-03     188.067E-03    -183.755E-03     346.806E-03    -163.058E-03     169.494E-03
            2105     8.41787E-03     24.7285E-03    -51.9210E+06    -24.7231E+06     11.7784E+06     3.19481E+06    -174.720E-03     337.114E-03    -162.394E-03     169.691E-03    -179.915E-03     342.003E-03    -162.224E-03     153.841E-03
            2106     7.65866E-03     24.5296E-03    -57.5666E+06    -75.4627E+06    -922.408E+03     3.22953E+06    -172.682E-03     334.277E-03    -161.595E-03     152.597E-03    -176.571E-03     337.696E-03    -161.407E-03     139.148E-03
            2107     6.89841E-03     24.3504E-03    -63.1619E+06    -113.257E+06    -11.6018E+06     2.59443E+06    -170.480E-03     331.281E-03    -160.801E-03     135.617E-03    -173.341E-03     333.550E-03    -160.603E-03     124.333E-03
            2108     6.13657E-03     24.1917E-03    -68.6817E+06    -145.218E+06    -20.8520E+06     2.19452E+06    -168.060E-03     328.100E-03    -160.040E-03     118.980E-03    -170.124E-03     329.465E-03    -159.834E-03     109.635E-03
            2109     5.37358E-03     24.0530E-03    -74.5168E+06    -171.178E+06    -30.7192E+06     2.19486E+06    -165.629E-03     324.959E-03    -159.330E-03     103.196E-03    -167.084E-03     325.631E-03    -159.127E-03     95.5704E-03
            2110     4.60855E-03     23.9328E-03    -80.8358E+06    -200.444E+06    -42.3939E+06     2.17911E+06    -163.374E-03     322.073E-03    -158.699E-03     87.9415E-03    -164.366E-03     322.189E-03    -158.503E-03     81.7941E-03
            2111     3.84282E-03     23.8318E-03    -86.8897E+06    -223.996E+06    -55.3248E+06     2.58178E+06    -161.398E-03     319.544E-03    -158.146E-03     73.0069E-03    -162.040E-03     319.243E-03    -157.972E-03     68.1686E-03
            2112     3.07534E-03     23.7486E-03    -92.7746E+06    -237.637E+06    -70.0726E+06     2.67172E+06    -159.775E-03     317.440E-03    -157.665E-03     58.4141E-03    -160.167E-03     316.862E-03    -157.536E-03     54.7261E-03
            2113     2.30723E-03     23.6842E-03    -98.1968E+06    -254.826E+06    -83.9391E+06     2.12804E+06    -158.528E-03     315.804E-03    -157.276E-03     43.8450E-03    -158.734E-03     315.000E-03    -157.184E-03     41.1645E-03
            2114     1.53863E-03     23.6378E-03    -102.589E+06    -268.738E+06    -95.3927E+06     1.48081E+06    -157.579E-03     314.552E-03    -156.973E-03     29.2984E-03    -157.657E-03     313.589E-03    -156.911E-03     27.5342E-03
            2115     769.613E-06     23.6095E-03    -105.830E+06    -276.172E+06    -104.039E+06     691.346E+03    -157.012E-03     313.706E-03    -156.694E-03     15.6772E-03    -157.019E-03     312.659E-03    -156.660E-03     14.7259E-03
            2116     14.4442E-03     25.4836E-03    -3.81593E+06     91.3803E+06     82.7989E+06     399.778E+03    -182.482E-03     351.496E-03    -169.014E-03     143.703E-03    -190.507E-03     359.592E-03    -168.727E-03     125.010E-03
            2117     13.6978E-03     25.2675E-03    -8.28416E+06     89.1212E+06     84.6707E+06     848.080E+03    -181.617E-03     349.846E-03    -168.229E-03     199.423E-03    -194.039E-03     362.310E-03    -167.923E-03     175.420E-03
            2118     12.9441E-03     25.0135E-03    -13.5990E+06     81.4122E+06     84.0413E+06     1.04921E+06    -182.311E-03     349.735E-03    -167.424E-03     224.784E-03    -196.221E-03     363.642E-03    -167.103E-03     199.065E-03
            2119     12.1946E-03     24.7201E-03    -20.0684E+06     74.3447E+06     81.4372E+06     1.63458E+06    -182.976E-03     349.555E-03    -166.580E-03     244.945E-03    -197.881E-03     364.417E-03    -166.251E-03     217.640E-03
            2120     11.4430E-03     24.4176E-03    -26.0373E+06     65.1430E+06     73.0431E+06     2.57545E+06    -182.628E-03     348.312E-03    -165.684E-03     244.751E-03    -196.347E-03     361.959E-03    -165.376E-03     218.130E-03
            2121     10.6891E-03     24.1250E-03    -31.6369E+06     54.7768E+06     56.1105E+06     3.34495E+06    -181.225E-03     345.959E-03    -164.734E-03     229.252E-03    -192.630E-03     357.284E-03    -164.487E-03     204.827E-03
            2122     9.93489E-03     23.8597E-03    -38.4550E+06     42.3412E+06     35.9192E+06     3.77311E+06    -179.119E-03     342.884E-03    -163.765E-03     207.285E-03    -188.017E-03     351.692E-03    -163.591E-03     185.837E-03
            2123     9.17850E-03     23.6209E-03    -45.6658E+06     19.9150E+06     22.5960E+06     3.15733E+06    -176.980E-03     339.825E-03    -162.845E-03     185.905E-03    -183.760E-03     346.449E-03    -162.695E-03     167.427E-03
            2124     8.42117E-03     23.4063E-03    -52.0927E+06    -24.6335E+06     11.9762E+06     2.85244E+06    -175.005E-03     336.970E-03    -161.966E-03     167.200E-03    -180.135E-03     341.793E-03    -161.795E-03     151.399E-03
            2125     7.66273E-03     23.2106E-03    -57.5600E+06    -73.9126E+06    -847.082E+03     2.67865E+06    -172.839E-03     333.919E-03    -161.079E-03     149.829E-03    -176.658E-03     337.274E-03    -160.893E-03     136.468E-03
            2126     6.90253E-03     23.0356E-03    -62.5849E+06    -111.910E+06    -11.9371E+06     2.17305E+06    -170.272E-03     330.481E-03    -160.209E-03     132.629E-03    -173.064E-03     332.689E-03    -160.015E-03     121.470E-03
            2127     6.14071E-03     22.8804E-03    -68.0095E+06    -144.511E+06    -21.5514E+06     2.05231E+06    -167.639E-03     327.031E-03    -159.391E-03     115.998E-03    -169.641E-03     328.341E-03    -159.191E-03     106.792E-03
            2128     5.37696E-03     22.7454E-03    -73.8519E+06    -170.665E+06    -31.2377E+06     1.99751E+06    -165.145E-03     323.778E-03    -158.633E-03     100.317E-03    -166.557E-03     324.412E-03    -158.434E-03     92.7962E-03
            2129     4.61213E-03     22.6286E-03    -79.6206E+06    -199.890E+06    -41.7922E+06     2.09501E+06    -162.838E-03     320.792E-03    -157.954E-03     85.2174E-03    -163.795E-03     320.878E-03    -157.758E-03     79.1669E-03
            2130     3.84530E-03     22.5303E-03    -85.7715E+06    -223.904E+06    -54.6941E+06     2.46254E+06    -160.771E-03     318.119E-03    -157.349E-03     70.4922E-03    -161.387E-03     317.795E-03    -157.173E-03     65.7333E-03
            2131     3.07783E-03     22.4498E-03    -91.7563E+06    -236.350E+06    -69.6051E+06     2.95130E+06    -159.007E-03     315.828E-03    -156.820E-03     56.2119E-03    -159.382E-03     315.239E-03    -156.693E-03     52.6000E-03
            2132     2.30932E-03     22.3866E-03    -97.0186E+06    -251.959E+06    -83.2540E+06     2.67451E+06    -157.644E-03     314.054E-03    -156.410E-03     42.2016E-03    -157.839E-03     313.252E-03    -156.320E-03     39.5923E-03
            2133     1.54010E-03     22.3419E-03    -101.272E+06    -266.076E+06    -94.0448E+06     1.67028E+06    -156.664E-03     312.782E-03    -156.118E-03     28.3648E-03    -156.738E-03     311.824E-03    -156.055E-03     26.6475E-03
            2134     770.067E-06     22.3147E-03    -103.990E+06    -273.756E+06    -101.967E+06     864.958E+03    -156.258E-03     312.019E-03    -155.760E-03     15.1671E-03    -156.261E-03     310.977E-03    -155.722E-03     14.2490E-03
            2135     14.4476E-03     24.1428E-03    -4.58370E+06     90.1770E+06     82.0969E+06    -382.262E+03    -183.080E-03     352.119E-03    -169.039E-03     143.484E-03    -191.017E-03     360.121E-03    -168.752E-03     124.724E-03
            2136     13.6930E-03     23.9158E-03    -8.91975E+06     87.9825E+06     83.3501E+06     451.875E+03    -182.929E-03     351.125E-03    -168.196E-03     197.220E-03    -195.205E-03     363.441E-03    -167.894E-03     173.061E-03
            2137     12.9493E-03     23.6687E-03    -14.0426E+06     81.1794E+06     83.9967E+06     1.40527E+06    -183.323E-03     350.641E-03    -167.319E-03     222.333E-03    -197.059E-03     364.372E-03    -166.996E-03     196.603E-03
            2138     12.1972E-03     23.3818E-03    -20.1653E+06     73.7427E+06     81.4339E+06     1.83344E+06    -183.243E-03     349.667E-03    -166.423E-03     243.602E-03    -197.984E-03     364.361E-03    -166.094E-03     216.421E-03
            2139     11.4440E-03     23.0790E-03    -26.6958E+06     64.1194E+06     71.0180E+06     1.93253E+06    -182.727E-03     348.219E-03    -165.492E-03     242.980E-03    -196.302E-03     361.721E-03    -165.191E-03     216.447E-03
            2140     10.6917E-03     22.7918E-03    -33.6013E+06     53.1665E+06     54.4447E+06     2.66768E+06    -181.251E-03     345.771E-03    -164.519E-03     227.374E-03    -192.533E-03     356.964E-03    -164.275E-03     203.055E-03
            2141     9.93686E-03     22.5291E-03    -38.7366E+06     41.9887E+06     37.7709E+06     3.96748E+06    -179.457E-03     342.978E-03    -163.521E-03     205.083E-03    -188.253E-03     351.676E-03    -163.337E-03     183.702E-03
            2142     9.18155E-03     22.2950E-03    -43.7166E+06     21.6224E+06     24.5609E+06     4.64998E+06    -177.595E-03     340.113E-03    -162.518E-03     182.992E-03    -184.270E-03     346.638E-03    -162.363E-03     164.577E-03
            2143     8.42477E-03     22.0829E-03    -49.7456E+06    -22.4578E+06     12.7374E+06     3.98548E+06    -175.582E-03     337.107E-03    -161.525E-03     163.561E-03    -180.595E-03     341.827E-03    -161.356E-03     147.858E-03
            2144     7.66657E-03     21.8921E-03    -55.5912E+06    -71.7774E+06    -144.957E+03     2.87204E+06    -173.094E-03     333.622E-03    -160.527E-03     145.616E-03    -176.803E-03     336.879E-03    -160.343E-03     132.379E-03
            2145     6.90663E-03     21.7210E-03    -61.1512E+06    -110.681E+06    -11.9636E+06     2.33986E+06    -170.206E-03     329.759E-03    -159.554E-03     128.173E-03    -172.897E-03     331.875E-03    -159.364E-03     117.177E-03
            2146     6.14466E-03     21.5707E-03    -66.6885E+06    -143.702E+06    -22.2125E+06     2.29671E+06    -167.326E-03     325.971E-03    -158.645E-03     111.577E-03    -169.242E-03     327.205E-03    -158.451E-03     102.535E-03
            2147     5.38115E-03     21.4390E-03    -72.3778E+06    -169.788E+06    -31.6366E+06     2.13852E+06    -164.682E-03     322.488E-03    -157.806E-03     96.0470E-03    -166.025E-03     323.063E-03    -157.613E-03     88.6794E-03
            2148     4.61575E-03     21.3260E-03    -78.6405E+06    -199.694E+06    -41.5517E+06     2.34443E+06    -162.297E-03     319.345E-03    -157.047E-03     81.1882E-03    -163.202E-03     319.382E-03    -156.851E-03     75.2785E-03
            2149     3.84939E-03     21.2307E-03    -85.2413E+06    -223.996E+06    -53.8018E+06     2.82345E+06    -160.121E-03     316.475E-03    -156.354E-03     66.9237E-03    -160.701E-03     316.114E-03    -156.175E-03     62.2904E-03
            2150     3.08121E-03     21.1527E-03    -91.2597E+06    -235.297E+06    -68.1574E+06     3.23698E+06    -158.144E-03     313.884E-03    -155.740E-03     53.1427E-03    -158.497E-03     313.275E-03    -155.607E-03     49.6425E-03
            2151     2.31168E-03     21.0922E-03    -96.4150E+06    -248.203E+06    -82.1783E+06     2.73741E+06    -156.510E-03     311.784E-03    -155.274E-03     39.7568E-03    -156.695E-03     310.984E-03    -155.185E-03     37.2415E-03
            2152     1.54121E-03     21.0482E-03    -100.409E+06    -262.737E+06    -93.3526E+06     1.13045E+06    -155.450E-03     310.434E-03    -154.983E-03     26.5623E-03    -155.518E-03     309.483E-03    -154.924E-03     24.9049E-03
            2153     770.698E-06     21.0222E-03    -102.892E+06    -272.271E+06    -100.670E+06     238.389E+03    -155.222E-03     309.777E-03    -154.555E-03     14.3697E-03    -155.221E-03     308.737E-03    -154.514E-03     13.4838E-03
            2154     14.4393E-03     22.7861E-03    -4.54105E+06     89.3840E+06     81.9565E+06     134.012E+03    -184.571E-03     353.649E-03    -169.077E-03     140.984E-03    -192.355E-03     361.496E-03    -168.791E-03     122.131E-03
            2155     13.7005E-03     22.5660E-03    -9.38195E+06     88.0688E+06     83.4969E+06     940.608E+03    -183.794E-03     351.961E-03    -168.166E-03     194.045E-03    -195.854E-03     364.057E-03    -167.863E-03     169.867E-03
            2156     12.9462E-03     22.3253E-03    -15.2344E+06     81.1798E+06     83.3924E+06     453.721E+03    -183.280E-03     350.533E-03    -167.253E-03     219.856E-03    -196.798E-03     364.043E-03    -166.931E-03     194.255E-03
            2157     12.1968E-03     22.0375E-03    -20.8836E+06     72.9096E+06     81.3485E+06     795.809E+03    -183.454E-03     349.798E-03    -166.344E-03     241.684E-03    -198.001E-03     364.294E-03    -166.013E-03     214.612E-03
            2158     11.4471E-03     21.7433E-03    -26.9748E+06     63.0798E+06     72.7938E+06     2.17549E+06    -183.001E-03     348.396E-03    -165.395E-03     241.526E-03    -196.441E-03     361.754E-03    -165.084E-03     215.066E-03
            2159     10.6927E-03     21.4574E-03    -33.0903E+06     53.5915E+06     57.6333E+06     3.18714E+06    -182.100E-03     346.471E-03    -164.371E-03     225.463E-03    -193.256E-03     357.533E-03    -164.113E-03     201.150E-03
            2160     9.93922E-03     21.1985E-03    -39.9791E+06     40.6981E+06     37.2056E+06     2.89934E+06    -180.677E-03     343.927E-03    -163.250E-03     201.299E-03    -189.313E-03     352.457E-03    -163.065E-03     179.897E-03
            2161     9.18452E-03     20.9668E-03    -45.7612E+06     20.6812E+06     21.9054E+06     3.05922E+06    -178.680E-03     340.769E-03    -162.089E-03     177.883E-03    -185.181E-03     347.118E-03    -161.943E-03     159.504E-03
            2162     8.42910E-03     20.7596E-03    -50.1756E+06    -20.4932E+06     11.2632E+06     3.37036E+06    -176.292E-03     337.231E-03    -160.939E-03     157.658E-03    -181.132E-03     341.788E-03    -160.780E-03     142.077E-03
            2163     7.67186E-03     20.5732E-03      -54.87E+06    -69.6751E+06    -79.3782E+03     3.13272E+06    -173.447E-03     333.241E-03    -159.794E-03     139.111E-03    -176.992E-03     336.344E-03    -159.614E-03     126.063E-03
            2164     6.91245E-03     20.4078E-03    -60.4056E+06    -109.510E+06    -11.6141E+06     2.97947E+06    -170.298E-03     328.970E-03    -158.672E-03     121.476E-03    -172.844E-03     330.947E-03    -158.484E-03     110.701E-03
            2165     6.15092E-03     20.2619E-03    -66.0202E+06    -142.631E+06    -22.7552E+06     2.77966E+06    -167.197E-03     324.801E-03    -157.605E-03     104.922E-03    -168.990E-03     325.920E-03    -157.416E-03     96.1151E-03
            2166     5.38710E-03     20.1347E-03    -71.7713E+06    -168.784E+06    -32.5915E+06     2.72973E+06    -164.250E-03     320.859E-03    -156.609E-03     89.4941E-03    -165.490E-03     321.340E-03    -156.423E-03     82.3718E-03
            2167     4.62166E-03     20.0253E-03    -77.9230E+06    -199.590E+06    -42.0115E+06     3.07459E+06    -161.542E-03     317.251E-03    -155.709E-03     74.9565E-03    -162.366E-03     317.212E-03    -155.517E-03     69.2830E-03
            2168     3.85418E-03     19.9334E-03    -84.2607E+06    -223.290E+06    -52.4392E+06     3.39692E+06    -159.088E-03     313.980E-03    -154.892E-03     61.3163E-03    -159.612E-03     313.565E-03    -154.708E-03     56.8927E-03
            2169     3.08550E-03     19.8587E-03    -90.5636E+06    -233.473E+06    -65.4335E+06     2.87369E+06    -156.920E-03     311.077E-03    -154.157E-03     48.3625E-03    -157.242E-03     310.437E-03    -154.014E-03     45.0184E-03
            2170     2.31558E-03     19.8006E-03    -95.8103E+06    -244.622E+06    -80.3504E+06     1.88374E+06    -155.147E-03     308.690E-03    -153.543E-03     35.8717E-03    -155.317E-03     307.885E-03    -153.451E-03     33.4696E-03
            2171     1.54445E-03     19.7588E-03    -99.9458E+06    -259.775E+06    -93.2094E+06     1.01392E+06    -153.841E-03     306.926E-03    -153.085E-03     23.7991E-03    -153.901E-03     305.980E-03    -153.030E-03     22.2361E-03
            2172     772.402E-06     19.7325E-03    -103.030E+06    -271.555E+06    -101.118E+06     488.628E+03    -152.893E-03     305.805E-03    -152.912E-03     12.7530E-03    -152.890E-03     304.766E-03    -152.874E-03     11.9274E-03
            2173     14.4491E-03     21.4313E-03    -5.21291E+06     88.9904E+06     82.2456E+06     484.993E+03    -185.410E-03     354.485E-03    -169.075E-03     138.125E-03    -192.990E-03     362.124E-03    -168.785E-03     119.393E-03
            2174     13.6939E-03     21.2171E-03    -10.3049E+06     86.8897E+06     82.1235E+06    -19.7180E+03    -183.288E-03     351.435E-03    -168.147E-03     191.544E-03    -195.079E-03     363.260E-03    -167.848E-03     167.581E-03
            2175     12.9500E-03     20.9786E-03    -14.8149E+06     80.8797E+06     82.5601E+06     728.863E+03    -183.222E-03     350.469E-03    -167.246E-03     217.825E-03    -196.504E-03     363.746E-03    -166.929E-03     192.406E-03
            2176     12.1990E-03     20.6983E-03    -21.6697E+06     72.0474E+06     79.4491E+06     1.36892E+06    -183.688E-03     350.019E-03    -166.330E-03     240.624E-03    -198.031E-03     364.310E-03    -166.006E-03     213.662E-03
            2177     11.4445E-03     20.4036E-03    -28.6576E+06     61.5097E+06     69.8461E+06     1.01251E+06    -184.595E-03     349.908E-03    -165.312E-03     239.189E-03    -197.855E-03     363.082E-03    -165.011E-03     212.582E-03
            2178     10.6944E-03     20.1213E-03    -34.4806E+06     51.8437E+06     55.1390E+06     1.62772E+06    -184.430E-03     348.552E-03    -164.122E-03     220.370E-03    -195.359E-03     359.383E-03    -163.871E-03     195.852E-03
            2179     9.94305E-03     19.8646E-03    -39.1447E+06     40.4965E+06     37.1119E+06     3.04292E+06    -182.702E-03     345.484E-03    -162.782E-03     194.212E-03    -191.044E-03     353.724E-03    -162.598E-03     172.797E-03
            2180     9.19108E-03     19.6388E-03    -44.6533E+06     21.3915E+06     21.7366E+06     3.34637E+06    -180.097E-03     341.486E-03    -161.389E-03     169.644E-03    -186.299E-03     347.543E-03    -161.247E-03     151.406E-03
            2181     8.43644E-03     19.4358E-03    -50.8692E+06    -18.9049E+06     9.55603E+06     2.78268E+06    -177.179E-03     337.190E-03    -160.011E-03     148.768E-03    -181.739E-03     341.475E-03    -159.862E-03     133.441E-03
            2182     7.67996E-03     19.2554E-03    -56.5273E+06    -68.8489E+06    -2.07933E+06     2.36728E+06    -174.040E-03     332.683E-03    -158.642E-03     129.528E-03    -177.334E-03     335.538E-03    -158.471E-03     116.789E-03
            2183     6.92112E-03     19.0953E-03    -61.3390E+06    -108.957E+06    -12.0552E+06     2.64754E+06    -170.617E-03     327.902E-03    -157.286E-03     111.402E-03    -172.945E-03     329.661E-03    -157.099E-03     100.971E-03
            2184     6.16001E-03     18.9549E-03    -66.5483E+06    -141.580E+06    -23.3083E+06     3.10234E+06    -167.105E-03     323.067E-03    -155.962E-03     94.8382E-03    -168.718E-03     324.009E-03    -155.777E-03     86.3990E-03
            2185     5.39684E-03     18.8327E-03    -72.1005E+06    -168.006E+06    -34.0423E+06     3.24619E+06    -163.681E-03     318.389E-03    -154.707E-03     79.7668E-03    -164.779E-03     318.733E-03    -154.529E-03     73.0076E-03
            2186     4.63104E-03     18.7280E-03    -77.9183E+06    -199.167E+06    -42.4654E+06     3.80319E+06    -160.420E-03     313.992E-03    -153.572E-03     65.8486E-03    -161.137E-03     313.849E-03    -153.383E-03     60.5200E-03
            2187     3.86327E-03     18.6405E-03    -84.3834E+06    -220.549E+06    -52.4365E+06     3.42275E+06    -157.410E-03     309.955E-03    -152.545E-03     53.1254E-03    -157.863E-03     309.478E-03    -152.365E-03     49.0009E-03
            2188     3.09322E-03     18.5691E-03    -90.2893E+06    -230.385E+06    -65.4674E+06     1.59040E+06    -154.831E-03     306.468E-03    -151.637E-03     41.5935E-03    -155.107E-03     305.795E-03    -151.499E-03     38.4766E-03
            2189     2.32152E-03     18.5139E-03    -95.3556E+06    -243.652E+06    -80.5094E+06     1.16605E+06    -152.811E-03     303.686E-03    -150.876E-03     30.8579E-03    -152.954E-03     302.859E-03    -150.787E-03     28.6305E-03
            2190     1.54872E-03     18.4742E-03    -99.6287E+06    -257.842E+06    -93.0086E+06     1.84387E+06    -151.252E-03     301.533E-03    -150.281E-03     20.6285E-03    -151.303E-03     300.584E-03    -150.228E-03     19.2020E-03
            2191     774.821E-06     18.4504E-03    -102.582E+06    -268.931E+06    -100.882E+06     1.36911E+06    -150.003E-03     300.050E-03    -150.047E-03     10.8286E-03    -149.998E-03     299.020E-03    -150.013E-03     10.0820E-03
            2192     14.4413E-03     20.0830E-03    -4.03671E+06     89.2881E+06     82.3006E+06     733.868E+03    -185.966E-03     355.125E-03    -169.159E-03     137.468E-03    -193.408E-03     362.632E-03    -168.871E-03     118.755E-03
            2193     13.6993E-03     19.8655E-03    -7.97534E+06     87.8932E+06     83.2812E+06     1.32109E+06    -183.355E-03     351.583E-03    -168.228E-03     190.488E-03    -194.897E-03     363.168E-03    -167.928E-03     166.772E-03
            2194     12.9461E-03     19.6343E-03    -14.9370E+06     79.5221E+06     81.2372E+06     1.72081E+06    -183.681E-03     350.998E-03    -167.318E-03     216.858E-03    -196.755E-03     364.067E-03    -167.005E-03     191.479E-03
            2195     12.1944E-03     19.3551E-03    -20.9144E+06     72.1877E+06     79.1071E+06     2.34391E+06    -186.411E-03     352.712E-03    -166.302E-03     237.276E-03    -200.503E-03     366.757E-03    -165.980E-03     209.999E-03
            2196     11.4484E-03     19.0613E-03    -27.1120E+06     62.3353E+06     68.3069E+06     2.11799E+06    -187.967E-03     353.008E-03    -165.041E-03     232.363E-03    -200.874E-03     365.843E-03    -164.751E-03     205.391E-03
            2197     10.7001E-03     18.7813E-03    -33.7359E+06     50.9082E+06     51.2819E+06     1.19094E+06    -187.338E-03     350.890E-03    -163.551E-03     211.617E-03    -197.853E-03     361.317E-03    -163.320E-03     186.906E-03
            2198     9.95175E-03     18.5299E-03    -40.1369E+06     38.1834E+06     33.9220E+06     2.25044E+06    -185.133E-03     347.048E-03    -161.915E-03     184.252E-03    -193.017E-03     354.827E-03    -161.743E-03     162.931E-03
            2199     9.20093E-03     18.3090E-03    -45.9305E+06     22.3257E+06     20.7978E+06     3.68099E+06    -182.134E-03     342.346E-03    -160.211E-03     158.333E-03    -187.896E-03     347.964E-03    -160.073E-03     140.391E-03
            2200     8.44855E-03     18.1132E-03    -51.3009E+06    -15.3914E+06     9.21741E+06     3.44005E+06    -178.769E-03     337.260E-03    -158.491E-03     136.033E-03    -182.927E-03     341.155E-03    -158.348E-03     121.114E-03
            2201     7.69352E-03     17.9382E-03    -56.4337E+06    -66.5821E+06    -2.85228E+06     2.13921E+06    -175.009E-03     331.772E-03    -156.763E-03     115.804E-03    -177.942E-03     334.278E-03    -156.599E-03     103.547E-03
            2202     6.93640E-03     17.7848E-03    -61.6982E+06    -109.189E+06    -12.8658E+06     1.99736E+06    -170.909E-03     325.957E-03    -155.048E-03     97.4148E-03    -172.940E-03     327.419E-03    -154.864E-03     87.4860E-03
            2203     6.17614E-03     17.6510E-03    -67.1263E+06    -141.588E+06    -23.5384E+06     3.04140E+06    -166.601E-03     319.976E-03    -153.374E-03     81.4478E-03    -167.988E-03     320.690E-03    -153.189E-03     73.5058E-03
            2204     5.41253E-03     17.5347E-03    -72.9872E+06    -167.448E+06    -35.0827E+06     4.15740E+06    -162.355E-03     314.149E-03    -151.794E-03     67.5841E-03    -163.288E-03     314.331E-03    -151.621E-03     61.3084E-03
            2205     4.64623E-03     17.4361E-03    -79.2625E+06    -197.393E+06    -45.3411E+06     4.29463E+06    -158.414E-03     308.780E-03    -150.366E-03     55.2735E-03    -159.018E-03     308.533E-03    -150.192E-03     50.3745E-03
            2206     3.87680E-03     17.3537E-03    -84.5271E+06    -215.658E+06    -54.9555E+06     2.45218E+06    -154.820E-03     303.910E-03    -149.090E-03     44.3024E-03    -155.200E-03     303.383E-03    -148.930E-03     40.5296E-03
            2207     3.10478E-03     17.2872E-03    -89.6111E+06    -228.019E+06    -67.7754E+06     855.388E+03    -151.718E-03     299.704E-03    -147.986E-03     34.4364E-03    -151.942E-03     298.997E-03    -147.865E-03     31.6115E-03
            2208     2.33055E-03     17.2351E-03    -94.8154E+06    -244.700E+06    -81.2415E+06     1.31353E+06    -149.219E-03     296.323E-03    -147.104E-03     25.2518E-03    -149.330E-03     295.463E-03    -147.018E-03     23.2532E-03
            2209     1.55446E-03     17.1985E-03    -98.8222E+06    -256.371E+06    -92.2161E+06     2.22042E+06    -147.377E-03     293.846E-03    -146.469E-03     16.6846E-03    -147.415E-03     292.889E-03    -146.415E-03     15.4073E-03
            2210     777.372E-06     17.1759E-03    -101.374E+06    -264.204E+06    -99.5866E+06     1.68281E+06    -146.342E-03     292.407E-03    -146.065E-03     8.91752E-03    -146.337E-03     291.392E-03    -146.033E-03     8.24587E-03
            2211     14.4414E-03     18.7158E-03    -3.59009E+06     88.1113E+06     80.4363E+06     421.169E+03    -185.730E-03     355.106E-03    -169.376E-03     136.146E-03    -193.009E-03     362.452E-03    -169.096E-03     117.519E-03
            2212     13.6922E-03     18.5206E-03    -8.98283E+06     84.9543E+06     80.6485E+06     1.10133E+06    -185.383E-03     353.787E-03    -168.405E-03     188.191E-03    -196.731E-03     365.172E-03    -168.112E-03     164.236E-03
            2213     12.9440E-03     18.2870E-03    -13.8127E+06     79.4868E+06     82.0395E+06     2.93185E+06    -187.895E-03     355.213E-03    -167.317E-03     212.203E-03    -200.706E-03     368.019E-03    -167.002E-03     186.244E-03
            2214     12.2008E-03     18.0056E-03    -19.6324E+06     72.3983E+06     80.0733E+06     2.42805E+06    -190.708E-03     356.711E-03    -166.002E-03     229.157E-03    -204.356E-03     370.314E-03    -165.678E-03     201.302E-03
            2215     11.4550E-03     17.7156E-03    -25.3993E+06     62.4271E+06     69.8252E+06     2.39715E+06    -191.954E-03     356.358E-03    -164.404E-03     224.070E-03    -204.326E-03     368.659E-03    -164.108E-03     196.775E-03
            2216     10.7108E-03     17.4388E-03    -31.9803E+06     51.1058E+06      52.692E+06     3.62516E+06    -191.295E-03     353.830E-03    -162.536E-03     200.844E-03    -201.177E-03     363.629E-03    -162.300E-03     176.126E-03
            2217     9.96475E-03     17.1935E-03    -39.3600E+06     37.8135E+06     33.9954E+06     4.29412E+06    -188.667E-03     349.134E-03    -160.467E-03     170.190E-03    -195.887E-03     356.251E-03    -160.294E-03     149.147E-03
            2218     9.21777E-03     16.9786E-03    -45.0626E+06     23.3967E+06     20.6495E+06     3.48769E+06    -185.010E-03     343.302E-03    -158.293E-03     142.250E-03    -190.168E-03     348.325E-03    -158.158E-03     124.731E-03
            2219     8.46831E-03     16.7899E-03    -49.1791E+06    -11.7960E+06     9.97581E+06     2.79970E+06    -180.791E-03     336.874E-03    -156.083E-03     118.880E-03    -184.441E-03     340.281E-03    -155.945E-03     104.470E-03
            2220     7.71612E-03     16.6232E-03    -53.9503E+06    -63.3335E+06    -2.03504E+06     2.95078E+06    -175.836E-03     329.712E-03    -153.877E-03     98.6622E-03    -178.350E-03     331.818E-03    -153.717E-03     87.0354E-03
            2221     6.95946E-03     16.4779E-03    -60.0018E+06    -108.654E+06    -12.6549E+06     3.29145E+06    -170.453E-03     322.182E-03    -151.729E-03     81.2804E-03    -172.157E-03     323.325E-03    -151.548E-03     72.0193E-03
            2222     6.19917E-03     16.3521E-03    -66.3236E+06    -141.882E+06    -23.5980E+06     4.04246E+06    -165.076E-03     314.755E-03    -149.679E-03     66.7850E-03    -166.225E-03     315.234E-03    -149.495E-03     59.4709E-03
            2223     5.43477E-03     16.2443E-03    -72.0964E+06    -166.980E+06    -35.5704E+06     4.99830E+06    -159.851E-03     307.629E-03    -147.778E-03     54.7105E-03    -160.613E-03     307.646E-03    -147.609E-03     49.0099E-03
            2224     4.66608E-03     16.1521E-03    -76.8140E+06    -192.440E+06    -46.5609E+06     4.17645E+06    -155.126E-03     301.210E-03    -146.084E-03     44.3748E-03    -155.611E-03     300.873E-03    -145.927E-03     39.9666E-03
            2225     3.89420E-03     16.0764E-03    -81.5124E+06    -210.947E+06    -56.5809E+06     1.85435E+06    -151.076E-03     295.676E-03    -144.599E-03     35.2889E-03    -151.373E-03     295.097E-03    -144.458E-03     31.9100E-03
            2226     3.11933E-03     16.0147E-03    -86.3816E+06    -227.878E+06    -67.1270E+06     1.37145E+06    -147.613E-03     290.943E-03    -143.329E-03     27.1798E-03    -147.779E-03     290.186E-03    -143.209E-03     24.6746E-03
            2227     2.34197E-03     15.9676E-03    -91.2845E+06    -245.028E+06    -78.3657E+06     2.24972E+06    -144.719E-03     287.028E-03    -142.308E-03     19.7348E-03    -144.793E-03     286.133E-03    -142.212E-03     17.9787E-03
            2228     1.56250E-03     15.9337E-03    -95.8241E+06    -254.184E+06    -89.1940E+06     2.52139E+06    -142.594E-03     284.159E-03    -141.566E-03     12.9228E-03    -142.613E-03     283.193E-03    -141.504E-03     11.8065E-03
            2229     781.560E-06     15.9133E-03    -98.6252E+06    -259.134E+06    -96.6950E+06     1.89567E+06    -141.465E-03     282.492E-03    -141.028E-03     6.76278E-03    -141.454E-03     281.491E-03    -140.992E-03     6.18289E-03
            2230     14.4349E-03     17.3675E-03    -3.97248E+06     87.7743E+06     81.3538E+06     941.431E+03    -187.201E-03     356.777E-03    -169.576E-03     132.556E-03    -194.235E-03     363.872E-03    -169.290E-03     113.924E-03
            2231     13.6884E-03     17.1631E-03    -9.12630E+06     84.9599E+06     80.6716E+06     2.15036E+06    -189.735E-03     358.168E-03    -168.433E-03     181.683E-03    -200.777E-03     369.245E-03    -168.139E-03     157.114E-03
            2232     12.9506E-03     16.9281E-03    -13.9634E+06     78.2641E+06     80.8812E+06     1.41126E+06    -193.324E-03     360.352E-03    -167.028E-03     205.171E-03    -205.767E-03     372.789E-03    -166.717E-03     178.348E-03
            2233     12.2079E-03     16.6559E-03    -18.4778E+06     71.4589E+06     79.9731E+06     2.19227E+06    -196.110E-03     361.445E-03    -165.335E-03     222.506E-03    -209.191E-03     374.483E-03    -165.012E-03     194.049E-03
            2234     11.4669E-03     16.3650E-03    -25.1521E+06     61.0127E+06     69.8565E+06     3.63757E+06    -198.060E-03     361.340E-03    -163.280E-03     213.256E-03    -209.673E-03     372.880E-03    -162.983E-03     185.589E-03
            2235     10.7271E-03     16.0925E-03    -31.8422E+06     50.1405E+06     54.0911E+06     4.39859E+06    -196.970E-03     357.827E-03    -160.857E-03     184.587E-03    -205.975E-03     366.742E-03    -160.613E-03     159.903E-03
            2236     9.98777E-03     15.8537E-03    -36.0754E+06     39.6163E+06     37.6733E+06     4.62149E+06    -193.243E-03     351.422E-03    -158.179E-03     151.193E-03    -199.657E-03     357.742E-03    -157.996E-03     130.476E-03
            2237     9.24496E-03     15.6483E-03    -40.0170E+06     27.1464E+06     23.3354E+06     4.03012E+06    -188.133E-03     343.519E-03    -155.386E-03     122.500E-03    -192.607E-03     347.882E-03    -155.250E-03     105.547E-03
            2238     8.49841E-03     15.4680E-03    -45.5901E+06    -9.35055E+06     10.2863E+06     3.73262E+06    -182.194E-03     334.795E-03    -152.601E-03     99.3231E-03    -185.290E-03     337.669E-03    -152.470E-03     85.6492E-03
            2239     7.74709E-03     15.3123E-03    -51.8837E+06    -61.6500E+06    -2.50817E+06     4.65464E+06    -175.658E-03     325.550E-03    -149.893E-03     80.0365E-03    -177.747E-03     327.246E-03    -149.740E-03     69.2118E-03
            2240     6.99095E-03     15.1776E-03    -57.6839E+06    -106.723E+06    -12.3606E+06     5.53683E+06    -168.842E-03     316.161E-03    -147.320E-03     64.2664E-03    -170.228E-03     317.001E-03    -147.143E-03     55.8074E-03
            2241     6.22908E-03     15.0618E-03    -63.4081E+06    -140.609E+06    -22.1612E+06     5.77586E+06    -162.269E-03     307.194E-03    -144.924E-03     51.5713E-03    -163.184E-03     307.449E-03    -144.739E-03     44.9977E-03
            2242     5.46230E-03     14.9631E-03    -68.5185E+06    -164.351E+06    -33.5188E+06     4.96739E+06    -156.223E-03     298.958E-03    -142.735E-03     41.2874E-03    -156.818E-03     298.824E-03    -142.565E-03     36.2074E-03
            2243     4.69107E-03     14.8800E-03    -72.8011E+06    -187.760E+06    -45.1185E+06     3.83903E+06    -150.791E-03     291.590E-03    -140.799E-03     32.8342E-03    -151.159E-03     291.162E-03    -140.647E-03     28.9477E-03
            2244     3.91557E-03     14.8103E-03    -77.6673E+06    -207.354E+06    -56.4948E+06     3.02973E+06    -146.126E-03     285.258E-03    -139.132E-03     25.7094E-03    -146.341E-03     284.623E-03    -139.001E-03     22.7752E-03
            2245     3.13691E-03     14.7551E-03    -83.0971E+06    -227.934E+06    -66.7464E+06     2.90348E+06    -142.284E-03     280.036E-03    -137.751E-03     19.6092E-03    -142.395E-03     279.233E-03    -137.634E-03     17.4517E-03
            2246     2.35525E-03     14.7124E-03    -88.1639E+06    -244.140E+06    -76.0428E+06     3.49528E+06    -139.249E-03     275.898E-03    -136.649E-03     14.2369E-03    -139.291E-03     274.978E-03    -136.548E-03     12.7342E-03
            2247     1.57143E-03     14.6827E-03    -92.3991E+06    -250.331E+06    -84.7714E+06     2.82897E+06    -137.026E-03     272.840E-03    -135.813E-03     9.41336E-03    -137.032E-03     271.871E-03    -135.740E-03     8.45885E-03
            2248     786.224E-06     14.6637E-03    -94.9672E+06    -254.399E+06    -92.3368E+06     1.43307E+06    -135.813E-03     270.859E-03    -135.046E-03     5.03643E-03    -135.795E-03     269.866E-03    -135.001E-03     4.53396E-03
            2249     14.4348E-03     16.0091E-03    -5.73908E+06     85.8372E+06     79.5520E+06     752.623E+03    -192.016E-03     361.551E-03    -169.535E-03     126.602E-03    -198.823E-03     368.411E-03    -169.253E-03     107.558E-03
            2250     13.6983E-03     15.7979E-03    -8.24288E+06     85.6698E+06     82.2132E+06     458.348E+03    -194.099E-03     362.239E-03    -168.140E-03     177.469E-03    -204.781E-03     372.958E-03    -167.841E-03     152.273E-03
            2251     12.9553E-03     15.5716E-03    -12.3313E+06     77.6350E+06     80.8713E+06     1.00639E+06    -198.983E-03     365.393E-03    -166.410E-03     199.169E-03    -210.848E-03     377.255E-03    -166.101E-03     171.605E-03
            2252     12.2185E-03     15.2942E-03    -19.2786E+06     69.1065E+06     77.6519E+06     2.38164E+06    -204.687E-03     368.890E-03    -164.202E-03     211.132E-03    -216.974E-03     381.130E-03    -163.886E-03     181.729E-03
            2253     11.4872E-03     15.0074E-03    -24.6710E+06     60.8172E+06     70.7764E+06     3.26247E+06    -206.439E-03     367.898E-03    -161.459E-03     196.242E-03    -217.074E-03     378.459E-03    -161.158E-03     168.079E-03
            2254     10.7562E-03     14.7412E-03    -28.7566E+06     51.3859E+06     57.3415E+06     3.52022E+06    -203.480E-03     361.778E-03    -158.297E-03     164.745E-03    -211.495E-03     369.710E-03    -158.043E-03     140.179E-03
            2255     10.0209E-03     14.5128E-03    -33.5515E+06     40.2143E+06     39.2554E+06     3.49016E+06    -197.730E-03     352.634E-03    -154.904E-03     130.213E-03    -203.310E-03     358.127E-03    -154.717E-03     109.977E-03
            2256     9.28207E-03     14.3177E-03    -39.0208E+06     28.0672E+06     22.9101E+06     4.46313E+06    -190.538E-03     341.991E-03    -151.453E-03     101.601E-03    -194.344E-03     345.696E-03    -151.323E-03     85.4086E-03
            2257     8.53742E-03     14.1514E-03    -44.6150E+06    -7.13212E+06     9.29564E+06     5.81312E+06    -182.564E-03     330.662E-03    -148.099E-03     79.1988E-03    -185.138E-03     333.030E-03    -147.977E-03     66.4436E-03
            2258     7.78646E-03     14.0079E-03    -49.8949E+06    -59.1034E+06    -3.31440E+06     6.59857E+06    -174.330E-03     319.243E-03    -144.912E-03     61.1794E-03    -176.023E-03     320.561E-03    -144.771E-03     51.2812E-03
            2259     7.02882E-03     13.8864E-03    -55.2862E+06    -104.616E+06    -12.4202E+06     7.41921E+06    -166.236E-03     308.177E-03    -141.942E-03     46.9150E-03    -167.333E-03     308.745E-03    -141.772E-03     39.3041E-03
            2260     6.26510E-03     13.7825E-03    -60.8103E+06    -136.189E+06    -20.7395E+06     7.04853E+06    -158.547E-03     297.760E-03    -139.213E-03     35.9732E-03    -159.259E-03     297.833E-03    -139.031E-03     30.1510E-03
            2261     5.49541E-03     13.6943E-03    -66.2603E+06    -159.604E+06    -31.0918E+06     5.28369E+06    -151.591E-03     288.346E-03    -136.755E-03     27.5670E-03    -152.049E-03     288.091E-03    -136.583E-03     23.1192E-03
            2262     4.72058E-03     13.6203E-03    -72.0408E+06    -185.321E+06    -44.4259E+06     4.72706E+06    -145.443E-03     280.045E-03    -134.602E-03     21.1728E-03    -145.721E-03     279.537E-03    -134.451E-03     17.8143E-03
            2263     3.94108E-03     13.5594E-03    -77.4880E+06    -204.981E+06    -57.8171E+06     5.02218E+06    -140.133E-03     272.915E-03    -132.782E-03     16.3104E-03    -140.292E-03     272.236E-03    -132.661E-03     13.8255E-03
            2264     3.15718E-03     13.5100E-03    -82.8506E+06    -226.687E+06    -68.0183E+06     5.51285E+06    -135.930E-03     267.261E-03    -131.331E-03     12.2054E-03    -136.006E-03     266.432E-03    -131.222E-03     10.4078E-03
            2265     2.37050E-03     13.4728E-03    -88.0772E+06    -239.975E+06    -76.7821E+06     4.54294E+06    -132.802E-03     262.999E-03    -130.197E-03     8.73841E-03    -132.830E-03     262.082E-03    -130.105E-03     7.48321E-03
            2266     1.58173E-03     13.4459E-03    -91.6989E+06    -245.246E+06    -84.9612E+06     1.94687E+06    -130.570E-03     259.912E-03    -129.342E-03     5.70929E-03    -130.571E-03     258.960E-03    -129.279E-03     4.89111E-03
            2267     791.253E-06     13.4303E-03    -93.3129E+06    -251.634E+06    -91.1999E+06     379.402E+03    -129.136E-03     257.911E-03    -128.774E-03     3.10243E-03    -129.113E-03     256.925E-03    -128.730E-03     2.66165E-03
            2268     14.4428E-03     14.6393E-03    -3.70919E+06     86.7000E+06     79.2075E+06     336.868E+03    -196.812E-03     366.149E-03    -169.338E-03     125.877E-03    -203.500E-03     372.902E-03    -169.062E-03     106.169E-03
            2269     13.7000E-03     14.4384E-03    -8.82097E+06     82.6426E+06     77.7068E+06    -1.45799E+06    -201.092E-03     368.699E-03    -167.607E-03     176.603E-03    -211.481E-03     379.125E-03    -167.326E-03     150.273E-03
            2270     12.9674E-03     14.2010E-03    -14.0627E+06     73.9842E+06     77.5100E+06     999.385E+03    -209.765E-03     375.099E-03    -165.334E-03     190.784E-03    -220.983E-03     386.305E-03    -165.033E-03     161.862E-03
            2271     12.2430E-03     13.9235E-03    -17.8599E+06     68.5065E+06     77.8888E+06     1.69489E+06    -215.191E-03     377.563E-03    -162.372E-03     195.731E-03    -226.530E-03     388.858E-03    -162.056E-03     165.287E-03
            2272     11.5192E-03     13.6419E-03    -22.0666E+06     61.0790E+06     72.4167E+06     1.30324E+06    -214.801E-03     373.623E-03    -158.823E-03     177.903E-03    -224.417E-03     383.172E-03    -158.517E-03     149.401E-03
            2273     10.7930E-03     13.3862E-03    -27.2218E+06     51.2148E+06     58.5601E+06     2.27014E+06    -209.714E-03     364.598E-03    -154.883E-03     144.672E-03    -216.787E-03     371.591E-03    -154.625E-03     120.388E-03
            2274     10.0640E-03     13.1703E-03    -32.6910E+06     39.2294E+06     39.4507E+06     3.76187E+06    -201.498E-03     352.273E-03    -150.774E-03     109.495E-03    -206.306E-03     356.995E-03    -150.587E-03     89.9377E-03
            2275     9.32751E-03     12.9917E-03    -38.0982E+06     26.4193E+06     21.9465E+06     5.57352E+06    -192.018E-03     338.716E-03    -146.698E-03     81.4003E-03    -195.229E-03     341.827E-03    -146.571E-03     66.0737E-03
            2276     8.58369E-03     12.8399E-03    -43.3594E+06    -5.01804E+06     8.36342E+06     7.40548E+06    -182.128E-03     324.935E-03    -142.807E-03     59.8807E-03    -184.257E-03     326.872E-03    -142.695E-03     48.0521E-03
            2277     7.83208E-03     12.7134E-03    -48.9885E+06    -55.6226E+06    -4.78068E+06     8.67577E+06    -172.282E-03     311.449E-03    -139.167E-03     43.2290E-03    -173.655E-03     312.468E-03    -139.039E-03     34.2152E-03
            2278     7.07294E-03     12.6055E-03    -54.5910E+06    -101.501E+06    -15.1504E+06     9.02135E+06    -162.896E-03     298.710E-03    -135.814E-03     30.6318E-03    -163.769E-03     299.075E-03    -135.663E-03     23.7999E-03
            2279     6.30654E-03     12.5161E-03    -59.5358E+06    -130.119E+06    -22.6066E+06     8.05719E+06    -154.150E-03     286.920E-03    -132.771E-03     21.5701E-03    -154.709E-03     286.873E-03    -132.609E-03     16.4130E-03
            2280     5.53328E-03     12.4395E-03    -65.2344E+06    -155.721E+06    -31.3028E+06     7.35572E+06    -146.162E-03     276.245E-03    -130.083E-03     15.2931E-03    -146.518E-03     275.907E-03    -129.919E-03     11.4311E-03
            2281     4.75373E-03     12.3765E-03    -72.4000E+06    -183.012E+06    -43.1219E+06     7.75077E+06    -139.234E-03     267.014E-03    -127.780E-03     10.9639E-03    -139.454E-03     266.451E-03    -127.625E-03     8.09969E-03
            2282     3.96877E-03     12.3242E-03    -79.9355E+06    -202.511E+06    -57.2880E+06     8.04584E+06    -133.518E-03     259.376E-03    -125.858E-03     8.12979E-03    -133.653E-03     258.671E-03    -125.735E-03     6.04366E-03
            2283     3.17993E-03     12.2822E-03    -85.8988E+06    -222.450E+06    -69.4946E+06     7.19756E+06    -129.029E-03     253.365E-03    -124.336E-03     6.00756E-03    -129.100E-03     252.539E-03    -124.236E-03     4.51087E-03
            2284     2.38768E-03     12.2494E-03    -89.3269E+06    -232.720E+06    -79.5096E+06     4.41129E+06    -125.724E-03     248.901E-03    -123.177E-03     4.32132E-03    -125.753E-03     248.013E-03    -123.108E-03     3.26780E-03
            2285     1.59297E-03     12.2267E-03    -91.5608E+06    -240.696E+06    -87.9561E+06     1.77107E+06    -123.487E-03     245.843E-03    -122.357E-03     2.80778E-03    -123.484E-03     244.913E-03    -122.315E-03     2.11793E-03
            2286     797.011E-06     12.2126E-03    -93.6699E+06    -249.979E+06    -93.3110E+06     611.674E+03    -122.068E-03     244.019E-03    -121.951E-03     1.29134E-03    -122.044E-03     243.043E-03    -121.919E-03     920.524E-06
            2287     14.4390E-03     13.2756E-03    -2.87167E+06     86.1710E+06     78.5775E+06     468.140E+03    -204.778E-03     373.896E-03    -169.119E-03     127.067E-03    -211.446E-03     380.632E-03    -168.846E-03     106.013E-03
            2288     13.7103E-03     13.0581E-03    -7.16749E+06     83.9331E+06     78.7017E+06     2.95640E+06    -214.752E-03     381.542E-03    -166.790E-03     172.706E-03    -224.912E-03     391.747E-03    -166.508E-03     144.303E-03
            2289     12.9912E-03     12.8156E-03    -12.5619E+06     75.4885E+06     78.0801E+06     227.568E+03    -222.547E-03     386.237E-03    -163.690E-03     180.314E-03    -233.166E-03     396.855E-03    -163.391E-03     149.676E-03
            2290     12.2739E-03     12.5425E-03    -16.9637E+06     68.1035E+06     77.5689E+06    -1.47754E+06    -225.284E-03     385.179E-03    -159.895E-03     182.284E-03    -235.751E-03     395.607E-03    -159.582E-03     151.004E-03
            2291     11.5572E-03     12.2701E-03    -21.8977E+06     59.3582E+06     71.1393E+06     7.32781E+03    -222.816E-03     378.369E-03    -155.552E-03     161.546E-03    -231.538E-03     387.022E-03    -155.251E-03     132.879E-03
            2292     10.8390E-03     12.0270E-03    -27.5434E+06     48.4237E+06     56.8452E+06     1.81379E+06    -215.083E-03     365.955E-03    -150.872E-03     126.293E-03    -221.372E-03     372.160E-03    -150.618E-03     102.365E-03
            2293     10.1122E-03     11.8301E-03    -32.8303E+06     36.3043E+06     37.7453E+06     3.58817E+06    -204.390E-03     350.500E-03    -146.110E-03     91.0430E-03    -208.575E-03     354.595E-03    -145.926E-03     72.1635E-03
            2294     9.37770E-03     11.6688E-03    -37.7513E+06     23.8935E+06     19.8776E+06     6.26908E+06    -192.771E-03     334.245E-03    -141.474E-03     63.7092E-03    -195.526E-03     336.899E-03    -141.354E-03     49.1612E-03
            2295     8.63414E-03     11.5372E-03    -43.2566E+06    -4.42259E+06     5.77144E+06     9.52904E+06    -180.975E-03     318.086E-03    -137.112E-03     43.5574E-03    -182.781E-03     319.712E-03    -137.014E-03     32.5336E-03
            2296     7.88147E-03     11.4276E-03    -49.2985E+06    -51.5208E+06    -7.62927E+06     11.4368E+06    -169.577E-03     302.668E-03    -133.091E-03     28.9236E-03    -170.741E-03     303.500E-03    -132.983E-03     20.6394E-03
            2297     7.11983E-03     11.3379E-03    -54.6569E+06    -95.3870E+06    -19.1501E+06     10.6399E+06    -158.890E-03     288.328E-03    -129.437E-03     18.7174E-03    -159.630E-03     288.592E-03    -129.315E-03     12.5083E-03
            2298     6.34978E-03     11.2624E-03    -59.5754E+06    -125.154E+06    -26.9922E+06     9.27714E+06    -149.151E-03     275.330E-03    -126.179E-03     11.9256E-03    -149.627E-03     275.229E-03    -126.046E-03     7.28485E-03
            2299     5.57218E-03     11.2008E-03    -65.0633E+06    -154.134E+06    -33.2085E+06     9.96601E+06    -140.511E-03     263.861E-03    -123.351E-03     7.47590E-03    -140.814E-03     263.483E-03    -123.199E-03     4.04297E-03
            2300     4.78759E-03     11.1488E-03    -71.3343E+06    -180.130E+06    -40.5425E+06     11.3419E+06    -133.108E-03     254.057E-03    -120.948E-03     4.71430E-03    -133.300E-03     253.472E-03    -120.787E-03     2.21100E-03
            2301     3.99768E-03     11.1062E-03    -77.7515E+06    -197.414E+06    -51.2859E+06     10.8079E+06    -127.043E-03     245.990E-03    -118.948E-03     3.08545E-03    -127.164E-03     245.282E-03    -118.805E-03     1.27465E-03
            2302     3.20292E-03     11.0711E-03    -83.1409E+06    -214.372E+06    -66.1918E+06     8.02294E+06    -122.247E-03     239.594E-03    -117.347E-03     2.17979E-03    -122.310E-03     238.790E-03    -117.246E-03     877.822E-06
            2303     2.40479E-03     11.0441E-03    -87.2815E+06    -225.787E+06    -80.3003E+06     4.89433E+06    -118.706E-03     234.861E-03    -116.155E-03     1.65777E-03    -118.728E-03     234.000E-03    -116.102E-03     747.646E-06
            2304     1.60441E-03     11.0243E-03    -90.5282E+06    -237.146E+06    -88.3833E+06     3.60412E+06    -116.397E-03     231.778E-03    -115.382E-03     1.10946E-03    -116.391E-03     230.862E-03    -115.348E-03     535.502E-06
            2305     802.337E-06     11.0129E-03    -92.8502E+06    -245.390E+06    -92.2998E+06     2.47564E+06    -115.378E-03     230.148E-03    -114.771E-03     443.191E-06    -115.357E-03     229.192E-03    -114.742E-03     148.546E-06
            2306     14.4438E-03     11.8858E-03    -4.81964E+06     84.4277E+06     77.6979E+06    -380.259E+03    -218.163E-03     386.788E-03    -168.625E-03     124.630E-03    -224.812E-03     393.493E-03    -168.352E-03     101.717E-03
            2307     13.7302E-03     11.6559E-03    -7.62806E+06     84.4755E+06     80.8516E+06    -781.721E+03    -228.074E-03     393.625E-03    -165.551E-03     168.411E-03    -238.056E-03     403.645E-03    -165.258E-03     137.777E-03
            2308     13.0189E-03     11.4198E-03    -9.97114E+06      78.661E+06     81.2217E+06    -437.586E+03    -233.902E-03     395.571E-03    -161.669E-03     173.494E-03    -244.065E-03     405.744E-03    -161.362E-03     141.410E-03
            2309     12.3095E-03     11.1520E-03    -15.8924E+06     69.6855E+06     77.9216E+06    -116.882E+03    -235.212E-03     392.307E-03    -157.095E-03     172.129E-03    -245.062E-03     402.126E-03    -156.783E-03     140.025E-03
            2310     11.6011E-03     10.8901E-03    -22.8036E+06     56.7991E+06     68.8029E+06    -447.826E+03    -230.313E-03     382.307E-03    -151.994E-03     147.835E-03    -238.355E-03     390.278E-03    -151.700E-03     119.007E-03
            2311     10.8853E-03     10.6672E-03    -28.2482E+06     44.7061E+06     54.3702E+06     931.309E+03    -219.451E-03     366.098E-03    -146.647E-03     110.346E-03    -225.139E-03     371.696E-03    -146.399E-03     86.7699E-03
            2312     10.1622E-03     10.4903E-03    -33.6596E+06     32.9544E+06     34.8694E+06     3.83793E+06    -205.845E-03     347.194E-03    -141.350E-03     75.8682E-03    -209.575E-03     350.829E-03    -141.174E-03     57.6630E-03
            2313     9.42838E-03     10.3520E-03    -39.6862E+06     18.9399E+06     15.0079E+06     7.83224E+06    -191.918E-03     328.232E-03    -136.314E-03     51.0056E-03    -194.383E-03     330.586E-03    -136.209E-03     37.1740E-03
            2314     8.68368E-03     10.2417E-03    -46.1070E+06    -6.00947E+06     34.6505E+03     12.3750E+06    -178.412E-03     310.084E-03    -131.673E-03     34.1372E-03    -180.059E-03     311.552E-03    -131.597E-03     23.7728E-03
            2315     7.92826E-03     10.1534E-03    -51.8074E+06    -45.7234E+06    -11.1028E+06     13.7773E+06    -165.775E-03     293.256E-03    -127.481E-03     22.6770E-03    -166.873E-03     294.044E-03    -127.395E-03     14.9393E-03
            2316     7.16291E-03     10.0818E-03    -56.6482E+06    -87.5281E+06    -20.9862E+06     12.0397E+06    -154.280E-03     278.016E-03    -123.737E-03     15.1215E-03    -155.004E-03     278.292E-03    -123.633E-03     9.33380E-03
            2317     6.38845E-03     10.0238E-03    -61.0617E+06    -120.699E+06    -29.6687E+06     10.2148E+06    -144.120E-03     264.552E-03    -120.432E-03     10.2791E-03    -144.597E-03     264.471E-03    -120.316E-03     5.94646E-03
            2318     5.60605E-03     9.97555E-03    -65.4917E+06    -154.079E+06    -34.8950E+06     11.0681E+06    -135.408E-03     252.987E-03    -117.578E-03     7.01975E-03    -135.714E-03     252.614E-03    -117.434E-03     3.80523E-03
            2319     4.81740E-03     9.93634E-03    -69.6416E+06    -176.049E+06    -39.7046E+06     11.9641E+06    -128.011E-03     243.136E-03    -115.125E-03     5.04806E-03    -128.207E-03     242.575E-03    -114.967E-03     2.69280E-03
            2320     4.02270E-03     9.90292E-03    -73.1492E+06    -190.660E+06    -48.1145E+06     10.2122E+06    -121.801E-03     234.851E-03    -113.050E-03     3.71694E-03    -121.920E-03     234.172E-03    -112.908E-03     1.99443E-03
            2321     3.22362E-03     9.87630E-03    -77.0696E+06    -207.944E+06    -60.4966E+06     9.18217E+06    -116.811E-03     228.177E-03    -111.366E-03     2.69236E-03    -116.865E-03     227.394E-03    -111.255E-03     1.47115E-03
            2322     2.42064E-03     9.85455E-03    -81.9896E+06    -219.133E+06    -74.2075E+06     8.39632E+06    -113.002E-03     223.077E-03    -110.075E-03     1.90539E-03    -113.017E-03     222.237E-03    -110.009E-03     1.08873E-03
            2323     1.61486E-03     9.83890E-03    -86.6835E+06    -230.923E+06    -83.4224E+06     6.21903E+06    -110.413E-03     219.618E-03    -109.205E-03     1.19117E-03    -110.405E-03     218.722E-03    -109.162E-03     685.804E-06
            2324     807.854E-06     9.82848E-03    -88.9747E+06    -237.336E+06    -87.7742E+06     3.61052E+06    -109.291E-03     217.707E-03    -108.416E-03     672.582E-06    -109.270E-03     216.780E-03    -108.382E-03     415.616E-06
            2325     14.4636E-03     10.4782E-03    -3.77752E+06     86.7743E+06     80.5211E+06    -938.150E+03    -231.720E-03     399.604E-03    -167.884E-03     128.261E-03    -238.496E-03     406.441E-03    -167.602E-03     103.449E-03
            2326     13.7506E-03     10.2493E-03    -9.02157E+06     83.5769E+06     78.1480E+06    -3.58552E+06    -238.875E-03     403.007E-03    -164.133E-03     171.824E-03    -248.871E-03     413.041E-03    -163.850E-03     139.432E-03
            2327     13.0453E-03     10.0058E-03    -14.2028E+06     75.5588E+06     76.0881E+06    -2.26638E+06    -244.993E-03     404.574E-03    -159.580E-03     171.062E-03    -254.943E-03     414.523E-03    -159.289E-03     137.560E-03
            2328     12.3457E-03     9.75092E-03    -18.5837E+06     68.3436E+06     75.1375E+06    -696.657E+03    -244.857E-03     399.143E-03    -154.287E-03     164.250E-03    -254.349E-03     408.601E-03    -153.983E-03     131.134E-03
            2329     11.6413E-03     9.50302E-03    -23.6031E+06     56.4770E+06     67.5208E+06     187.566E+03    -236.256E-03     384.781E-03    -148.525E-03     135.934E-03    -243.803E-03     392.258E-03    -148.235E-03     107.047E-03
            2330     10.9321E-03     9.30472E-03    -30.0918E+06     41.3691E+06     51.8115E+06     1.36565E+06    -221.172E-03     363.869E-03    -142.697E-03     98.0403E-03    -226.399E-03     368.995E-03    -142.454E-03     75.1107E-03
            2331     10.2085E-03     9.15537E-03    -36.7548E+06     26.9649E+06     31.4183E+06     5.38846E+06    -204.200E-03     341.345E-03    -137.145E-03     67.8027E-03    -207.671E-03     344.699E-03    -136.974E-03     50.4318E-03
            2332     9.47173E-03     9.04241E-03    -43.7842E+06     11.6274E+06     9.77797E+06     11.4576E+06    -188.032E-03     320.082E-03    -132.050E-03     47.9212E-03    -190.393E-03     322.307E-03    -131.954E-03     34.8974E-03
            2333     8.72270E-03     8.95665E-03    -50.3525E+06    -6.62034E+06    -4.23459E+06     15.5465E+06    -173.485E-03     300.977E-03    -127.492E-03     35.6098E-03    -175.141E-03     302.448E-03    -127.431E-03     25.8546E-03
            2334     7.96261E-03     8.88966E-03    -55.8534E+06    -38.2227E+06    -12.3091E+06     15.0060E+06    -160.600E-03     284.068E-03    -123.469E-03     27.6599E-03    -161.771E-03     284.945E-03    -123.394E-03     20.3226E-03
            2335     7.19246E-03     8.83796E-03    -60.1131E+06    -79.4415E+06    -20.5059E+06     11.9868E+06    -149.394E-03     269.313E-03    -119.919E-03     22.4909E-03    -150.210E-03     269.696E-03    -119.820E-03     16.9290E-03
            2336     6.41387E-03     8.79585E-03    -64.1344E+06    -116.981E+06    -29.5952E+06     10.1505E+06    -139.764E-03     256.553E-03    -116.789E-03     18.8935E-03    -140.324E-03     256.557E-03    -116.674E-03     14.6718E-03
            2337     5.62798E-03     8.76233E-03    -67.8327E+06    -152.900E+06    -38.1350E+06     9.92667E+06    -131.591E-03     245.640E-03    -114.050E-03     16.0791E-03    -131.958E-03     245.336E-03    -113.920E-03     12.8947E-03
            2338     4.83558E-03     8.73403E-03    -69.9487E+06    -170.986E+06    -43.5500E+06     8.79867E+06    -124.636E-03     236.294E-03    -111.658E-03     13.7266E-03    -124.876E-03     235.806E-03    -111.526E-03     11.3318E-03
            2339     4.03828E-03     8.71131E-03    -72.3220E+06    -186.930E+06    -49.1962E+06     8.25836E+06    -118.740E-03     228.345E-03    -109.605E-03     11.5523E-03    -118.887E-03     227.715E-03    -109.475E-03     9.78382E-03
            2340     3.23619E-03     8.69205E-03    -76.1673E+06    -205.284E+06    -57.5860E+06     9.50355E+06    -113.893E-03     221.770E-03    -107.877E-03     9.33315E-03    -113.969E-03     221.014E-03    -107.757E-03     8.08862E-03
            2341     2.43071E-03     8.67714E-03    -79.4488E+06    -211.994E+06    -66.4507E+06     9.45190E+06    -109.986E-03     216.445E-03    -106.459E-03     7.02282E-03    -110.020E-03     215.637E-03    -106.369E-03     6.19526E-03
            2342     1.62241E-03     8.66543E-03    -81.6292E+06    -221.331E+06    -74.7308E+06     7.00309E+06    -107.055E-03     212.445E-03    -105.390E-03     4.74499E-03    -107.052E-03     211.583E-03    -105.325E-03     4.23468E-03
            2343     811.722E-06     8.65812E-03    -83.9971E+06    -228.117E+06    -81.6326E+06     3.65086E+06    -105.295E-03     209.845E-03    -104.550E-03     2.67010E-03    -105.271E-03     208.950E-03    -104.506E-03     2.40604E-03
            2344     14.4671E-03     9.06259E-03    -3.27584E+06     88.3498E+06     79.4105E+06    -322.530E+03    -243.878E-03     411.240E-03    -167.363E-03     139.436E-03    -251.127E-03     418.560E-03    -167.089E-03     112.353E-03
            2345     13.7663E-03     8.82130E-03    -7.97728E+06     85.3426E+06     78.0144E+06     621.994E+03    -252.204E-03     415.165E-03    -162.961E-03     178.910E-03    -262.597E-03     425.606E-03    -162.683E-03     144.191E-03
            2346     13.0720E-03     8.58241E-03    -13.9147E+06     76.2564E+06     74.6039E+06    -913.376E+03    -256.106E-03     413.807E-03    -157.702E-03     170.798E-03    -266.061E-03     423.771E-03    -157.419E-03     135.718E-03
            2347     12.3771E-03     8.33435E-03    -20.1121E+06     66.8521E+06     71.3976E+06    -1.56037E+06    -252.173E-03     403.950E-03    -151.777E-03     158.066E-03    -261.421E-03     413.166E-03    -151.488E-03     124.246E-03
            2348     11.6811E-03     8.11197E-03    -26.8265E+06     53.8679E+06     61.7004E+06     294.406E+03    -237.651E-03     383.258E-03    -145.607E-03     127.047E-03    -244.762E-03     390.298E-03    -145.337E-03     98.8190E-03
            2349     10.9671E-03     7.94584E-03    -33.6396E+06     37.2554E+06     44.6119E+06     4.59905E+06    -217.111E-03     356.831E-03    -139.720E-03     93.7593E-03    -221.990E-03     361.604E-03    -139.503E-03     72.2902E-03
            2350     10.2393E-03     7.82739E-03    -41.6489E+06     19.5131E+06     24.8149E+06     9.44658E+06    -197.414E-03     331.847E-03    -134.433E-03     71.1276E-03    -200.797E-03     335.088E-03    -134.277E-03     55.0441E-03
            2351     9.49630E-03     7.74418E-03    -48.3572E+06     5.40248E+06     8.87743E+06     13.8408E+06    -180.546E-03     310.343E-03    -129.797E-03     57.7795E-03    -182.971E-03     312.597E-03    -129.690E-03     45.7009E-03
            2352     8.74055E-03     7.68165E-03    -52.5081E+06    -5.01347E+06    -132.528E+03     15.6769E+06    -166.299E-03     292.064E-03    -125.765E-03     49.7025E-03    -168.086E-03     293.652E-03    -125.682E-03     40.5563E-03
            2353     7.97417E-03     7.63653E-03    -55.3431E+06    -30.1948E+06    -7.17316E+06     13.7590E+06    -154.442E-03     276.709E-03    -122.268E-03     44.5029E-03    -155.759E-03     277.748E-03    -122.180E-03     37.4925E-03
            2354     7.19929E-03     7.60155E-03    -58.4686E+06    -73.3457E+06    -16.1591E+06     10.8784E+06    -144.725E-03     263.938E-03    -119.213E-03     40.7282E-03    -145.673E-03     264.468E-03    -119.103E-03     35.2995E-03
            2355     6.41708E-03     7.57535E-03    -62.5036E+06    -114.634E+06    -24.9590E+06     9.85921E+06    -136.549E-03     253.064E-03    -116.515E-03     37.3177E-03    -137.217E-03     253.178E-03    -116.383E-03     33.1202E-03
            2356     5.62869E-03     7.55384E-03    -66.0176E+06    -147.634E+06    -33.6753E+06     7.60456E+06    -129.566E-03     243.684E-03    -114.119E-03     34.0174E-03    -130.022E-03     243.482E-03    -113.977E-03     30.7669E-03
            2357     4.83540E-03     7.53701E-03    -68.7718E+06    -167.630E+06    -41.4573E+06     4.94917E+06    -123.604E-03     235.597E-03    -111.993E-03     30.4618E-03    -123.909E-03     235.183E-03    -111.857E-03     27.9550E-03
            2358     4.03707E-03     7.52298E-03    -71.3462E+06    -188.022E+06    -45.0669E+06     5.95462E+06    -118.545E-03     228.697E-03    -110.152E-03     26.4103E-03    -118.736E-03     228.097E-03    -110.001E-03     24.5440E-03
            2359     3.23528E-03     7.51190E-03    -74.2103E+06    -202.614E+06    -50.1910E+06     7.16725E+06    -114.194E-03     222.749E-03    -108.555E-03     21.9605E-03    -114.302E-03     222.020E-03    -108.404E-03     20.6276E-03
            2360     2.42998E-03     7.50283E-03    -77.4851E+06    -205.799E+06    -59.8971E+06     6.04788E+06    -110.550E-03     217.751E-03    -107.200E-03     17.2603E-03    -110.609E-03     216.976E-03    -107.089E-03     16.3469E-03
            2361     1.62183E-03     7.49670E-03    -80.2023E+06    -213.496E+06    -69.3726E+06     4.36441E+06    -107.771E-03     213.931E-03    -106.160E-03     12.2351E-03    -107.788E-03     213.105E-03    -106.081E-03     11.6654E-03
            2362     811.760E-06     7.49243E-03    -82.3596E+06    -220.197E+06    -77.9777E+06     2.39559E+06    -105.894E-03     211.373E-03    -105.479E-03     6.95135E-03    -105.882E-03     210.512E-03    -105.430E-03     6.65795E-03
            2363     14.4671E-03     7.61521E-03    -4.62564E+06     88.1736E+06     76.1618E+06     202.400E+03    -255.784E-03     422.944E-03    -167.160E-03     148.097E-03    -263.469E-03     430.702E-03    -166.900E-03     118.916E-03
            2364     13.7791E-03     7.37358E-03    -9.14420E+06     85.3012E+06     76.1501E+06    -325.983E+03    -264.283E-03     426.437E-03    -162.154E-03     183.167E-03    -275.085E-03     437.289E-03    -161.883E-03     146.176E-03
            2365     13.0911E-03     7.14315E-03    -13.6972E+06     77.0271E+06     72.8851E+06     149.881E+03    -264.664E-03     420.981E-03    -156.318E-03     173.913E-03    -274.806E-03     431.143E-03    -156.045E-03     137.589E-03
            2366     12.4044E-03     6.90805E-03    -19.7061E+06     65.6303E+06     67.2026E+06     1.74884E+06    -253.396E-03     403.466E-03    -150.069E-03     155.856E-03    -262.316E-03     412.367E-03    -149.800E-03     122.798E-03
            2367     11.7018E-03     6.72435E-03    -27.1274E+06     48.9011E+06      55.667E+06     5.20541E+06    -230.358E-03     374.403E-03    -144.046E-03     125.239E-03    -236.870E-03     380.847E-03    -143.799E-03     99.5363E-03
            2368     10.9827E-03     6.59777E-03    -36.0393E+06     30.8303E+06     39.2125E+06     10.0198E+06    -205.456E-03     344.231E-03    -138.774E-03     101.630E-03    -210.028E-03     348.683E-03    -138.571E-03     82.7117E-03
            2369     10.2429E-03     6.51436E-03    -43.5650E+06     15.9186E+06     24.5572E+06     13.2539E+06    -185.577E-03     319.938E-03    -134.361E-03     88.0947E-03    -188.934E-03     323.135E-03    -134.198E-03     73.8681E-03
            2370     9.48987E-03     6.45569E-03    -48.2987E+06     5.53749E+06     15.2881E+06     13.0679E+06    -170.406E-03     301.063E-03    -130.657E-03     79.7663E-03    -172.926E-03     303.394E-03    -130.519E-03     68.8477E-03
            2371     8.72664E-03     6.41693E-03    -50.8572E+06    -1.67633E+06     9.78319E+06     11.0388E+06    -158.260E-03     285.773E-03    -127.513E-03     74.2824E-03    -160.183E-03     287.487E-03    -127.388E-03     65.7907E-03
            2372     7.95453E-03     6.38869E-03    -52.2488E+06    -25.2439E+06     2.92699E+06     9.15246E+06    -148.688E-03     273.519E-03    -124.831E-03     70.0680E-03    -150.140E-03     274.691E-03    -124.704E-03     63.3999E-03
            2373     7.17576E-03     6.36888E-03    -54.3940E+06    -72.3056E+06    -6.41800E+06     8.35790E+06    -141.139E-03     263.662E-03    -122.523E-03     65.9812E-03    -142.195E-03     264.289E-03    -122.371E-03     60.7241E-03
            2374     6.39187E-03     6.35416E-03    -56.9310E+06    -112.098E+06    -13.4067E+06     7.56110E+06    -134.937E-03     255.436E-03    -120.499E-03     61.7411E-03    -135.691E-03     255.630E-03    -120.321E-03     57.5993E-03
            2375     5.60348E-03     6.34382E-03    -60.1438E+06    -141.344E+06    -18.9542E+06     4.89021E+06    -129.729E-03     248.437E-03    -118.709E-03     57.1050E-03    -130.260E-03     248.308E-03    -118.512E-03     53.8372E-03
            2376     4.81058E-03     6.33558E-03    -64.9501E+06    -166.868E+06    -27.3624E+06     2.86596E+06    -125.307E-03     242.425E-03    -117.118E-03     51.6577E-03    -125.668E-03     242.041E-03    -116.919E-03     49.1114E-03
            2377     4.01499E-03     6.32937E-03    -69.2663E+06    -187.680E+06    -36.1793E+06     1.46610E+06    -121.510E-03     237.237E-03    -115.727E-03     45.3608E-03    -121.740E-03     236.658E-03    -115.536E-03     43.4205E-03
            2378     3.21599E-03     6.32486E-03    -70.9683E+06    -200.893E+06    -42.5767E+06    -69.5024E+03    -118.306E-03     232.856E-03    -114.550E-03     38.1920E-03    -118.436E-03     232.139E-03    -114.369E-03     36.7519E-03
            2379     2.41425E-03     6.32189E-03    -71.4664E+06    -203.732E+06    -51.4840E+06     28.4831E+03    -115.723E-03     229.295E-03    -113.572E-03     29.9856E-03    -115.782E-03     228.520E-03    -113.431E-03     28.9830E-03
            2380     1.61050E-03     6.31945E-03    -72.8028E+06    -210.467E+06    -62.6761E+06    -32.1798E+03    -113.815E-03     226.649E-03    -112.834E-03     20.8462E-03    -113.817E-03     225.820E-03    -112.737E-03     20.2084E-03
            2381     805.336E-06     6.31836E-03    -73.7495E+06    -217.796E+06    -70.7156E+06    -163.851E+03    -112.450E-03     224.991E-03    -112.541E-03     11.6065E-03    -112.414E-03     224.118E-03    -112.472E-03     11.2725E-03
            2382     14.4716E-03     6.15024E-03    -4.37391E+06     89.8391E+06     75.6589E+06     2.02566E+06    -265.014E-03     432.337E-03    -167.323E-03     162.494E-03    -273.229E-03     440.635E-03    -167.069E-03     132.043E-03
            2383     13.7835E-03     5.91679E-03    -9.82951E+06     84.0497E+06     70.4728E+06     1.06641E+06    -271.105E-03     433.061E-03    -161.956E-03     196.768E-03    -282.460E-03     444.476E-03    -161.711E-03     158.737E-03
            2384     13.1010E-03     5.68475E-03    -14.7576E+06     72.7496E+06     64.5752E+06     486.482E+03    -266.221E-03     422.170E-03    -155.949E-03     180.908E-03    -276.237E-03     432.216E-03    -155.710E-03     145.339E-03
            2385     12.4093E-03     5.48625E-03    -20.2602E+06     58.4780E+06     58.5746E+06     5.58469E+06    -242.757E-03     392.781E-03    -150.024E-03     157.811E-03    -250.706E-03     400.717E-03    -149.786E-03     128.744E-03
            2386     11.6981E-03     5.35199E-03    -27.5331E+06     42.2437E+06     51.2746E+06     12.1379E+06    -213.034E-03     357.991E-03    -144.956E-03     135.901E-03    -218.726E-03     363.604E-03    -144.721E-03     114.735E-03
            2387     10.9593E-03     5.27057E-03    -34.5272E+06     28.2033E+06     43.6072E+06     14.7439E+06    -189.605E-03     330.542E-03    -140.936E-03     121.983E-03    -193.808E-03     334.607E-03    -140.709E-03     106.245E-03
            2388     10.2074E-03     5.21254E-03    -39.0864E+06     18.9254E+06     35.8032E+06     12.9023E+06    -172.720E-03     310.474E-03    -137.754E-03     112.113E-03    -175.887E-03     313.475E-03    -137.545E-03     100.018E-03
            2389     9.44582E-03     5.17778E-03    -42.2733E+06     11.9238E+06     27.9410E+06     9.02019E+06    -160.304E-03     295.508E-03    -135.204E-03     105.446E-03    -162.725E-03     297.748E-03    -135.020E-03     95.9460E-03
            2390     8.67586E-03     5.15466E-03    -45.1574E+06     2.59758E+06     24.2819E+06     5.25930E+06    -151.486E-03     284.634E-03    -133.148E-03     100.698E-03    -153.372E-03     286.303E-03    -132.965E-03     93.0936E-03
            2391     7.90081E-03     5.14066E-03    -48.5233E+06    -25.6866E+06     18.2935E+06     3.55860E+06    -144.882E-03     276.334E-03    -131.452E-03     96.0887E-03    -146.326E-03     277.464E-03    -131.253E-03     89.9933E-03
            2392     7.12113E-03     5.13101E-03    -51.2679E+06    -73.7993E+06     9.11390E+06     2.58152E+06    -139.785E-03     269.825E-03    -130.040E-03     91.1235E-03    -140.845E-03     270.414E-03    -129.813E-03     86.2443E-03
            2393     6.33746E-03     5.12587E-03    -52.9481E+06    -109.821E+06     2.76247E+06     712.480E+03    -135.923E-03     264.764E-03    -128.841E-03     85.3696E-03    -136.688E-03     264.941E-03    -128.591E-03     81.4499E-03
            2394     5.55071E-03     5.12219E-03    -54.4123E+06    -139.561E+06    -2.82419E+06    -1.16264E+06    -132.938E-03     260.745E-03    -127.807E-03     78.4791E-03    -133.473E-03     260.595E-03    -127.540E-03     75.3401E-03
            2395     4.76236E-03     5.12059E-03    -55.8320E+06    -166.807E+06    -9.65828E+06    -2.46687E+06    -130.419E-03     257.335E-03    -126.917E-03     70.3251E-03    -130.768E-03     256.915E-03    -126.642E-03     67.8420E-03
            2396     3.97097E-03     5.11981E-03    -57.8426E+06    -184.812E+06    -22.5625E+06    -4.80672E+06    -128.347E-03     254.489E-03    -126.142E-03     61.1221E-03    -128.551E-03     253.887E-03    -125.903E-03     59.1831E-03
            2397     3.17824E-03     5.11980E-03    -60.4848E+06    -201.600E+06    -36.5503E+06    -7.48232E+06    -126.838E-03     252.350E-03    -125.512E-03     50.7195E-03    -126.930E-03     251.606E-03    -125.315E-03     49.2229E-03
            2398     2.38476E-03     5.11962E-03    -62.5452E+06    -208.501E+06    -47.0601E+06    -7.01157E+06    -125.737E-03     250.753E-03    -125.016E-03     39.3196E-03    -125.757E-03     249.933E-03    -124.858E-03     38.2343E-03
            2399     1.59050E-03     5.12017E-03    -63.3669E+06    -214.470E+06    -56.1925E+06    -4.17615E+06    -124.999E-03     249.632E-03    -124.633E-03     27.0269E-03    -124.963E-03     248.758E-03    -124.511E-03     26.3282E-03
            2400     795.659E-06     5.12021E-03    -63.7745E+06    -221.130E+06    -62.4964E+06    -1.89427E+06    -124.176E-03     248.851E-03    -124.676E-03     14.7577E-03    -124.101E-03     247.931E-03    -124.575E-03     14.3925E-03
            2401     14.4573E-03     4.69256E-03    -3.11137E+06     89.5748E+06     71.5076E+06     2.13622E+06    -271.960E-03     440.531E-03    -168.571E-03     196.849E-03    -281.114E-03     449.781E-03    -168.339E-03     165.404E-03
            2402     13.7703E-03     4.43634E-03    -5.63272E+06     84.1726E+06     66.8303E+06     4.40958E+06    -274.565E-03     437.707E-03    -163.142E-03     221.124E-03    -286.173E-03     449.407E-03    -162.922E-03     184.022E-03
            2403     13.0877E-03     4.22441E-03    -11.8764E+06     66.8135E+06     58.2523E+06     7.39100E+06    -254.919E-03     412.447E-03    -157.528E-03     190.031E-03    -263.683E-03     421.262E-03    -157.316E-03     159.535E-03
            2404     12.3826E-03     4.08942E-03    -19.9209E+06     49.8087E+06     52.6542E+06     12.5260E+06    -222.129E-03     374.816E-03    -152.686E-03     166.318E-03    -228.441E-03     381.103E-03    -152.466E-03     143.900E-03
            2405     11.6429E-03     4.00910E-03    -26.0234E+06     38.8321E+06     52.4549E+06     14.3556E+06    -194.387E-03     343.435E-03    -149.049E-03     149.892E-03    -198.945E-03     347.901E-03    -148.805E-03     133.653E-03
            2406     10.8949E-03     3.95048E-03    -28.8706E+06     32.7772E+06     53.3183E+06     12.2748E+06    -175.589E-03     322.006E-03    -146.416E-03     138.427E-03    -178.994E-03     325.281E-03    -146.155E-03     126.057E-03
            2407     10.1371E-03     3.92046E-03    -31.2759E+06     26.5965E+06     48.5482E+06     8.06100E+06    -162.706E-03     307.188E-03    -144.481E-03     129.972E-03    -165.273E-03     309.605E-03    -144.232E-03     120.321E-03
            2408     9.36845E-03     3.90107E-03    -34.3605E+06     20.0445E+06     41.7810E+06     2.94412E+06    -154.056E-03     297.121E-03    -143.065E-03     124.094E-03    -156.038E-03     298.934E-03    -142.835E-03     116.400E-03
            2409     8.59575E-03     3.88907E-03    -37.5615E+06     4.16648E+06     39.7431E+06    -252.794E+03    -148.493E-03     290.549E-03    -142.056E-03     117.837E-03    -150.035E-03     291.858E-03    -141.809E-03     111.605E-03
            2410     7.81940E-03     3.88325E-03    -41.5946E+06    -28.4797E+06     33.5141E+06    -1.44227E+06    -144.837E-03     286.145E-03    -141.308E-03     111.475E-03    -146.021E-03     286.981E-03    -141.039E-03     106.405E-03
            2411     7.04047E-03     3.88088E-03    -45.2930E+06    -71.9316E+06     22.4001E+06    -5.54245E+06    -142.568E-03     283.297E-03    -140.729E-03     104.363E-03    -143.444E-03     283.686E-03    -140.447E-03     100.185E-03
            2412     6.26028E-03     3.87996E-03    -46.2614E+06    -109.307E+06     11.7602E+06    -10.5213E+06    -141.047E-03     281.315E-03    -140.268E-03     96.1147E-03    -141.666E-03     281.340E-03    -139.984E-03     92.6394E-03
            2413     5.47948E-03     3.88009E-03    -44.6182E+06    -142.246E+06     1.37929E+06    -12.6030E+06    -140.031E-03     279.935E-03    -139.904E-03     86.9033E-03    -140.432E-03     279.659E-03    -139.626E-03     84.0354E-03
            2414     4.69719E-03     3.88167E-03    -43.4095E+06    -170.555E+06    -4.79806E+06    -12.6802E+06    -139.453E-03     279.088E-03    -139.636E-03     76.5676E-03    -139.685E-03     278.563E-03    -139.349E-03     74.2257E-03
            2415     3.91510E-03     3.88349E-03    -44.7182E+06    -189.070E+06    -15.3190E+06    -10.1894E+06    -139.084E-03     278.484E-03    -139.400E-03     65.2953E-03    -139.193E-03     277.793E-03    -139.137E-03     63.4477E-03
            2416     3.13258E-03     3.88474E-03    -49.2309E+06    -204.877E+06    -32.8526E+06    -7.92807E+06    -138.847E-03     278.042E-03    -139.195E-03     53.3464E-03    -138.864E-03     277.237E-03    -138.991E-03     51.9350E-03
            2417     2.34937E-03     3.88648E-03    -55.5545E+06    -215.920E+06    -47.8828E+06    -6.89024E+06    -138.785E-03     277.842E-03    -139.057E-03     40.8972E-03    -138.748E-03     276.964E-03    -138.903E-03     39.8609E-03
            2418     1.56608E-03     3.88689E-03    -60.7680E+06    -223.080E+06    -56.7691E+06    -4.70336E+06    -138.791E-03     277.783E-03    -138.992E-03     27.9600E-03    -138.726E-03     276.857E-03    -138.864E-03     27.2744E-03
            2419     783.038E-06     3.88824E-03    -63.9075E+06    -227.372E+06    -62.2134E+06    -2.31788E+06    -138.711E-03     277.850E-03    -139.139E-03     15.3158E-03    -138.628E-03     276.896E-03    -139.028E-03     14.9483E-03
            2420     14.4061E-03     3.19334E-03    -2.93413E+06     86.9702E+06     67.5304E+06     1.07963E+06    -283.073E-03     454.683E-03    -171.610E-03     239.451E-03    -292.759E-03     464.463E-03    -171.394E-03     207.655E-03
            2421     13.7325E-03     2.93638E-03    -6.70652E+06     74.0594E+06     60.7364E+06     6.60038E+06    -272.417E-03     438.672E-03    -166.255E-03     222.375E-03    -281.899E-03     448.240E-03    -166.049E-03     190.656E-03
            2422     13.0328E-03     2.79914E-03    -12.4438E+06     58.4231E+06     56.7618E+06     13.8463E+06    -234.564E-03     396.055E-03    -161.491E-03     180.205E-03    -240.477E-03     401.992E-03    -161.274E-03     158.536E-03
            2423     12.3000E-03     2.71800E-03    -15.7116E+06     50.3201E+06     60.0948E+06     14.0300E+06    -203.555E-03     361.588E-03    -158.033E-03     159.448E-03    -207.596E-03     365.594E-03    -157.783E-03     144.209E-03
            2424     11.5640E-03     2.67126E-03    -17.5512E+06     45.4369E+06     65.0435E+06     9.75810E+06    -182.828E-03     338.496E-03    -155.668E-03     145.490E-03    -185.703E-03     341.291E-03    -155.383E-03     134.237E-03
            2425     10.8071E-03     2.64173E-03    -19.7083E+06     39.1019E+06     63.5881E+06     5.41841E+06    -168.125E-03     322.227E-03    -154.102E-03     135.125E-03    -170.241E-03     324.232E-03    -153.812E-03     126.597E-03
            2426     10.0396E-03     2.62619E-03    -22.7268E+06     32.9054E+06     54.4450E+06     2.28131E+06    -159.364E-03     312.474E-03    -153.110E-03     126.182E-03    -160.961E-03     313.951E-03    -152.853E-03     119.520E-03
            2427     9.27173E-03     2.61567E-03    -26.3104E+06     26.2926E+06     39.2268E+06    -806.988E+03    -154.649E-03     307.123E-03    -152.474E-03     118.235E-03    -155.884E-03     308.243E-03    -152.278E-03     112.849E-03
            2428     8.50030E-03     2.61117E-03    -31.0007E+06     3.02760E+06     28.2956E+06    -3.80705E+06    -151.685E-03     303.820E-03    -152.135E-03     109.602E-03    -152.637E-03     304.587E-03    -151.953E-03     105.167E-03
            2429     7.72711E-03     2.60907E-03    -33.9303E+06    -28.2470E+06     17.1155E+06    -7.23192E+06    -150.224E-03     302.203E-03    -151.979E-03     101.230E-03    -150.942E-03     302.645E-03    -151.804E-03     97.5165E-03
            2430     6.95428E-03     2.60813E-03    -34.8789E+06    -67.1000E+06     3.36033E+06    -13.1911E+06    -149.835E-03     301.758E-03    -151.923E-03     92.7129E-03    -150.340E-03     301.884E-03    -151.759E-03     89.5269E-03
            2431     6.18139E-03     2.60911E-03    -36.2906E+06    -111.302E+06    -7.34363E+06    -18.0847E+06    -149.861E-03     301.808E-03    -151.947E-03     83.7559E-03    -150.185E-03     301.622E-03    -151.770E-03     81.0039E-03
            2432     5.40749E-03     2.61072E-03    -38.8759E+06    -148.780E+06    -22.1289E+06    -19.1565E+06    -150.038E-03     302.024E-03    -151.985E-03     74.2276E-03    -150.215E-03     301.589E-03    -151.824E-03     71.8884E-03
            2433     4.63451E-03     2.61209E-03    -41.8572E+06    -181.292E+06    -30.4049E+06    -16.6463E+06    -150.409E-03     302.491E-03    -152.082E-03     64.4394E-03    -150.476E-03     301.844E-03    -151.910E-03     62.5009E-03
            2434     3.86159E-03     2.61389E-03    -45.5804E+06    -202.087E+06    -31.6091E+06    -11.0192E+06    -150.920E-03     303.126E-03    -152.206E-03     54.4075E-03    -150.922E-03     302.330E-03    -152.005E-03     52.8696E-03
            2435     3.08859E-03     2.61620E-03    -49.7467E+06    -212.989E+06    -37.3019E+06    -5.18761E+06    -151.407E-03     303.692E-03    -152.284E-03     44.0304E-03    -151.367E-03     302.815E-03    -152.090E-03     42.8763E-03
            2436     2.31625E-03     2.61681E-03    -53.9762E+06    -221.177E+06    -48.1528E+06    -1.78711E+06    -151.741E-03     304.072E-03    -152.331E-03     33.2983E-03    -151.664E-03     303.146E-03    -152.173E-03     32.4753E-03
            2437     1.54413E-03     2.61822E-03    -58.3727E+06    -227.988E+06    -57.1911E+06    -896.122E+03    -151.996E-03     304.412E-03    -152.416E-03     22.5630E-03    -151.898E-03     303.451E-03    -152.287E-03     22.0226E-03
            2438     771.553E-06     2.61837E-03    -61.8473E+06    -232.052E+06    -61.9156E+06    -578.553E+03    -152.428E-03     304.898E-03    -152.470E-03     12.3781E-03    -152.322E-03     303.917E-03    -152.353E-03     12.0925E-03
            2439     14.3412E-03     1.61445E-03    -2.90157E+06     84.1135E+06     75.4285E+06     3.45457E+06    -327.061E-03     503.923E-03    -176.862E-03     249.564E-03    -334.568E-03     511.489E-03    -176.603E-03     220.986E-03
            2440     13.6697E-03     1.46647E-03    -7.20802E+06     68.2420E+06     68.9441E+06     8.20264E+06    -271.319E-03     442.066E-03    -170.747E-03     168.100E-03    -275.865E-03     446.659E-03    -170.490E-03     149.040E-03
            2441     12.9546E-03     1.40169E-03    -8.91136E+06     59.9481E+06     70.0461E+06     8.47353E+06    -223.918E-03     390.425E-03    -166.506E-03     127.279E-03    -226.349E-03     392.847E-03    -166.230E-03     115.940E-03
            2442     12.2242E-03     1.35831E-03    -7.55409E+06     56.3579E+06     74.7268E+06     5.51990E+06    -196.036E-03     359.894E-03    -163.858E-03     108.803E-03    -197.650E-03     361.472E-03    -163.555E-03     101.003E-03
            2443     11.4693E-03     1.33603E-03    -8.87885E+06     51.2945E+06     73.5909E+06     4.12560E+06    -179.244E-03     341.462E-03    -162.218E-03     96.2250E-03    -180.391E-03     342.551E-03    -161.912E-03     90.6277E-03
            2444     10.7136E-03     1.32765E-03    -11.9411E+06     43.8433E+06     60.1629E+06     1.66494E+06    -169.237E-03     330.433E-03    -161.196E-03     87.9617E-03    -170.102E-03     331.236E-03    -160.942E-03     83.6517E-03
            2445     9.95431E-03     1.31967E-03    -15.2509E+06     35.9594E+06     40.0702E+06    -862.972E+03    -163.492E-03     324.078E-03    -160.586E-03     80.7518E-03    -164.143E-03     324.684E-03    -160.416E-03     77.3260E-03
            2446     9.18906E-03     1.31456E-03    -18.6068E+06     26.2386E+06     15.1509E+06    -1.07309E+06    -160.238E-03     320.485E-03    -160.248E-03     73.1870E-03    -160.731E-03     320.960E-03    -160.183E-03     70.4007E-03
            2447     8.42334E-03     1.31326E-03    -21.5135E+06     5.32737E+06    -8.55755E+06    -2.82915E+06    -158.617E-03     318.738E-03    -160.121E-03     66.4318E-03    -158.976E-03     319.061E-03    -160.140E-03     64.0914E-03
            2448     7.65721E-03     1.31221E-03    -24.0226E+06    -22.4480E+06    -28.8025E+06    -8.60892E+06    -157.993E-03     318.135E-03    -160.142E-03     60.4677E-03    -158.232E-03     318.289E-03    -160.218E-03     58.4171E-03
            2449     6.88964E-03     1.31227E-03    -26.2738E+06    -66.0579E+06    -38.5543E+06    -12.9873E+06    -157.910E-03     318.227E-03    -160.317E-03     54.4218E-03    -158.036E-03     318.134E-03    -160.376E-03     52.6103E-03
            2450     6.12211E-03     1.31231E-03    -30.6030E+06    -116.765E+06    -37.4212E+06    -13.1743E+06    -158.278E-03     318.884E-03    -160.606E-03     48.4285E-03    -158.318E-03     318.506E-03    -160.580E-03     46.8566E-03
            2451     5.35636E-03     1.31354E-03    -37.2968E+06    -156.401E+06    -41.7744E+06    -11.8132E+06    -158.874E-03     319.741E-03    -160.868E-03     42.5613E-03    -158.855E-03     319.152E-03    -160.796E-03     41.2241E-03
            2452     4.58986E-03     1.31494E-03    -43.7061E+06    -192.309E+06    -46.0407E+06    -10.2344E+06    -159.490E-03     320.611E-03    -161.121E-03     36.6477E-03    -159.421E-03     319.834E-03    -161.009E-03     35.5304E-03
            2453     3.82355E-03     1.31583E-03    -48.3520E+06    -214.734E+06    -45.4266E+06    -7.17709E+06    -160.153E-03     321.513E-03    -161.361E-03     30.4800E-03    -160.058E-03     320.612E-03    -161.206E-03     29.5773E-03
            2454     3.05867E-03     1.31625E-03    -51.8810E+06    -222.147E+06    -45.7200E+06    -3.20777E+06    -160.773E-03     322.308E-03    -161.535E-03     24.3699E-03    -160.671E-03     321.361E-03    -161.366E-03     23.6854E-03
            2455     2.29381E-03     1.31743E-03    -54.0441E+06    -225.453E+06    -49.3799E+06    -52.9003E+03    -161.211E-03     322.853E-03    -161.642E-03     18.2668E-03    -161.099E-03     321.888E-03    -161.484E-03     17.7877E-03
            2456     1.52869E-03     1.31797E-03    -55.3153E+06    -228.244E+06    -53.2674E+06     1.84260E+06    -161.548E-03     323.250E-03    -161.702E-03     12.3515E-03    -161.425E-03     322.270E-03    -161.557E-03     12.0631E-03
            2457     764.775E-06     1.31744E-03    -56.3642E+06    -230.356E+06    -56.1712E+06     1.84685E+06    -161.804E-03     323.415E-03    -161.610E-03     6.80529E-03    -161.674E-03     322.426E-03    -161.475E-03     6.66832E-03


