********************************************************************************
Field Output Report, written Tue May 28 22:54:18 2024

Source 1
---------

   ODB: G:/Abaqus_calc_2019/1740/Vel_10/odb/zeides_2a_8_red_2500_cal_0_vel_10_fric_050.odb
   Step: Step-1
   Frame: Increment  17225197: Step Time =    1.711

Loc 1 : Nodal values from source 1

Output sorted by column "Nodal Label".

Field Output reported at nodes for region: DIE_2A_8_D0_36-1.Region_1
   Computation algorithm: EXTRAPOLATE_COMPUTE_AVERAGE
   Averaged at nodes
   Averaging regions: ODB_REGIONS

      Node Label     COORD.COOR1     COORD.COOR2
                          @Loc 1          @Loc 1
-------------------------------------------------
               1     14.4417E-03     218.141E-03


Field Output reported at nodes for region: DIE_2A_8_D0_36-1.Region_2
   Computation algorithm: EXTRAPOLATE_COMPUTE_AVERAGE
   Averaged at nodes
   Averaging regions: ODB_REGIONS

      Node Label     COORD.COOR1     COORD.COOR2
                          @Loc 1          @Loc 1
-------------------------------------------------
               1     14.4417E-03     218.141E-03


Field Output reported at nodes for part: WIRE-1
   Computation algorithm: EXTRAPOLATE_COMPUTE_AVERAGE
   Averaged at nodes
   Averaging regions: ODB_REGIONS

      Node Label     COORD.COOR1     COORD.COOR2           S.S11           S.S22           S.S33           S.S12         PE.PE11         PE.PE22         PE.PE33         PE.PE12         LE.LE11         LE.LE22         LE.LE33         LE.LE12
                          @Loc 1          @Loc 1          @Loc 1          @Loc 1          @Loc 1          @Loc 1          @Loc 1          @Loc 1          @Loc 1          @Loc 1          @Loc 1          @Loc 1          @Loc 1          @Loc 1
-------------------------------------------------------------------------------------------------------------------------------------------------------------------------------------------------------------------------------------------------
               1     13.1383E-09     97.7234E-03    -104.901E+06    -205.459E+06    -104.887E+06     141.975E+03    -290.669E-03     581.275E-03    -290.606E-03     2.29364E-03    -290.743E-03     580.551E-03    -290.680E-03     2.41136E-03
               2     13.4652E-03     98.8316E-03    -2.11940E+06     63.9091E+06     86.1220E+06    -202.903E+03    -290.237E-03     580.858E-03    -290.621E-03     43.5878E-03    -290.599E-03     581.190E-03    -290.280E-03     39.1834E-03
               3     13.5118E-03     196.868E-03    -53.1799E+06    -49.6163E+06     2.30821E+06     36.2775E+06    -209.025E-03     496.676E-03    -287.651E-03    -12.7766E-03    -209.201E-03     496.515E-03    -287.490E-03    -12.9705E-03
               4    -1.79896E-06     195.280E-03    -2.93936E+06    -31.0946E+06    -9.86233E+06    -8.17205E+06    -317.391E-03     635.787E-03    -318.395E-03    -17.2873E-03    -317.396E-03     635.595E-03    -318.395E-03    -17.6932E-03
               5    -227.985E-09    -596.745E-18    -58.0296E+06    -187.804E+06    -58.1024E+06    -60.3302E+03    -260.961E-03     522.521E-03    -261.560E-03     304.039E-06    -260.894E-03     521.750E-03    -261.494E-03     277.337E-06
               6     13.3641E-03    -596.745E-18     103.711E+03       71.43E+06     88.2776E+06     1.71827E+06    -426.951E-03     719.430E-03    -292.479E-03     84.7413E-03    -427.593E-03     720.079E-03    -292.141E-03     76.2196E-03
               7     672.959E-06     97.7278E-03    -104.211E+06    -203.697E+06    -102.821E+06     217.025E+03    -290.649E-03     581.274E-03    -290.625E-03     3.81286E-03    -290.726E-03     580.556E-03    -290.692E-03     4.00492E-03
               8     1.34594E-03     97.7380E-03    -102.206E+06    -198.422E+06    -97.0210E+06     392.977E+03    -290.627E-03     581.278E-03    -290.651E-03     7.00896E-03    -290.710E-03     580.575E-03    -290.700E-03     7.34610E-03
               9     2.01892E-03     97.7545E-03    -99.1700E+06    -184.237E+06    -88.9825E+06     632.320E+03    -290.604E-03     581.258E-03    -290.654E-03     10.3895E-03    -290.703E-03     580.610E-03    -290.688E-03     10.8535E-03
              10     2.69194E-03     97.7775E-03    -95.3195E+06    -166.056E+06    -78.2580E+06     932.686E+03    -290.574E-03     581.233E-03    -290.659E-03     13.7966E-03    -290.697E-03     580.655E-03    -290.671E-03     14.3457E-03
              11     3.36500E-03     97.8068E-03    -90.6249E+06    -149.455E+06    -64.8676E+06     1.24939E+06    -290.557E-03     581.232E-03    -290.675E-03     17.2125E-03    -290.700E-03     580.711E-03    -290.651E-03     17.7881E-03
              12     4.03808E-03     97.8424E-03    -85.1828E+06    -129.826E+06    -50.6476E+06     1.54460E+06    -290.539E-03     581.226E-03    -290.687E-03     20.6438E-03    -290.707E-03     580.777E-03    -290.628E-03     21.1750E-03
              13     4.71121E-03     97.8841E-03    -79.2036E+06    -107.517E+06    -36.0533E+06     1.89166E+06    -290.524E-03     581.218E-03    -290.694E-03     24.0691E-03    -290.718E-03     580.854E-03    -290.604E-03     24.4751E-03
              14     5.38439E-03     97.9317E-03    -72.8976E+06    -82.0250E+06    -21.3807E+06     2.34511E+06    -290.513E-03     581.208E-03    -290.695E-03     27.5074E-03    -290.738E-03     580.946E-03    -290.577E-03     27.6960E-03
              15     6.05760E-03     97.9852E-03    -66.3980E+06    -52.3707E+06    -6.76995E+06     2.86809E+06    -290.495E-03     581.183E-03    -290.688E-03     30.9643E-03    -290.761E-03     581.047E-03    -290.550E-03     30.8339E-03
              16     6.73087E-03     98.0443E-03    -59.7211E+06    -17.6254E+06     7.91915E+06     3.44485E+06    -290.463E-03     581.135E-03    -290.672E-03     34.3986E-03    -290.778E-03     581.152E-03    -290.520E-03     33.8442E-03
              17     7.40420E-03     98.1088E-03    -53.0175E+06     7.01125E+06     21.1007E+06     3.56693E+06    -290.473E-03     581.136E-03    -290.663E-03     37.7852E-03    -290.825E-03     581.263E-03    -290.490E-03     36.6981E-03
              18     8.07752E-03     98.1783E-03    -46.4374E+06     14.9636E+06     32.4541E+06     2.99533E+06    -290.544E-03     581.214E-03    -290.671E-03     41.1548E-03    -290.912E-03     581.377E-03    -290.463E-03     39.4236E-03
              19     8.75085E-03     98.2528E-03    -39.9326E+06     25.7617E+06     44.1121E+06     2.29766E+06    -290.591E-03     581.269E-03    -290.679E-03     44.4796E-03    -290.986E-03     581.487E-03    -290.438E-03     42.0006E-03
              20     9.42415E-03     98.3318E-03    -33.6025E+06     36.7255E+06     56.6918E+06     1.71761E+06    -290.620E-03     581.312E-03    -290.693E-03     47.5932E-03    -291.050E-03     581.589E-03    -290.414E-03     44.3038E-03
              21     10.0975E-03     98.4147E-03    -27.3668E+06     41.8420E+06     69.1287E+06     1.22214E+06    -290.634E-03     581.350E-03    -290.716E-03     50.2646E-03    -291.094E-03     581.660E-03    -290.391E-03     46.1647E-03
              22     10.7708E-03     98.5002E-03    -21.1410E+06     47.3136E+06     78.6882E+06     794.018E+03    -290.585E-03     581.308E-03    -290.723E-03     52.3115E-03    -291.068E-03     581.655E-03    -290.367E-03     47.4842E-03
              23     11.4445E-03     98.5872E-03    -15.2309E+06     51.6880E+06     83.9661E+06     756.420E+03    -290.521E-03     581.229E-03    -290.708E-03     53.3147E-03    -291.011E-03     581.605E-03    -290.341E-03     47.9366E-03
              24     12.1182E-03     98.6736E-03    -9.65854E+06     58.1298E+06     86.1542E+06     786.315E+03    -290.499E-03     581.175E-03    -290.676E-03     54.3519E-03    -291.006E-03     581.604E-03    -290.315E-03     48.3018E-03
              25     12.7917E-03     98.7612E-03    -4.52094E+06     63.3771E+06     86.4036E+06     221.411E+03    -290.369E-03     581.007E-03    -290.638E-03     49.4153E-03    -290.812E-03     581.408E-03    -290.291E-03     43.9623E-03
              26     13.4654E-03     100.526E-03    -2.12170E+06     63.7187E+06     86.3592E+06     191.738E+03    -290.260E-03     580.862E-03    -290.602E-03     43.2794E-03    -290.623E-03     581.193E-03    -290.259E-03     38.8400E-03
              27     13.4655E-03     102.221E-03    -2.25699E+06     65.0853E+06     86.5668E+06     426.907E+03    -290.318E-03     580.915E-03    -290.597E-03     43.1145E-03    -290.683E-03     581.252E-03    -290.255E-03     38.6834E-03
              28     13.4652E-03     103.915E-03    -2.22493E+06     66.6037E+06     87.4730E+06     156.002E+03    -290.342E-03     580.953E-03    -290.611E-03     42.8868E-03    -290.710E-03     581.295E-03    -290.267E-03     38.4573E-03
              29     13.4651E-03     105.610E-03    -2.28994E+06     66.6730E+06     87.9425E+06    -209.254E+03    -289.972E-03     580.578E-03    -290.606E-03     43.6800E-03    -290.341E-03     580.920E-03    -290.259E-03     39.3005E-03
              30     13.4665E-03     107.303E-03    -2.23930E+06     65.9230E+06       88.01E+06     27.4508E+03    -289.668E-03     580.201E-03    -290.534E-03     44.7290E-03    -290.037E-03     580.541E-03    -290.186E-03     40.3861E-03
              31     13.4681E-03     108.996E-03    -2.18785E+06     66.4179E+06     87.7331E+06     348.258E+03    -289.726E-03     580.151E-03    -290.425E-03     44.5188E-03    -290.098E-03     580.496E-03    -290.080E-03     40.0928E-03
              32     13.4691E-03     110.690E-03    -2.22753E+06     67.9919E+06     88.3558E+06     479.425E+03    -289.783E-03     580.128E-03    -290.345E-03     43.9362E-03    -290.159E-03     580.482E-03    -289.999E-03     39.4382E-03
              33     13.4697E-03     112.383E-03    -2.32944E+06     70.1982E+06     89.4284E+06     538.362E+03    -289.837E-03     580.137E-03    -290.299E-03     43.6247E-03    -290.218E-03     580.499E-03    -289.951E-03     39.1434E-03
              34     13.4699E-03     114.076E-03    -2.34384E+06     72.0859E+06     90.1766E+06     191.947E+03    -289.835E-03     580.110E-03    -290.276E-03     43.3419E-03    -290.218E-03     580.480E-03    -289.926E-03     38.8601E-03
              35     13.4701E-03     115.769E-03    -2.40852E+06     72.0940E+06     90.6139E+06    -202.220E+03    -289.643E-03     579.894E-03    -290.251E-03     43.6926E-03    -290.028E-03     580.264E-03    -289.899E-03     39.2063E-03
              36     13.4711E-03     117.462E-03    -2.04641E+06     72.7642E+06     91.1583E+06     518.421E+03    -289.542E-03     579.731E-03    -290.188E-03     44.3572E-03    -289.930E-03     580.105E-03    -289.835E-03     39.8552E-03
              37     13.4724E-03     119.154E-03    -2.51854E+06     75.5679E+06     92.1409E+06     792.226E+03    -289.561E-03     579.656E-03    -290.095E-03     44.4557E-03    -289.960E-03     580.047E-03    -289.740E-03     39.8748E-03
              38     13.4737E-03     120.847E-03    -2.34203E+06     78.3017E+06     93.2295E+06     491.763E+03    -289.534E-03     579.528E-03    -289.994E-03     44.4966E-03    -289.940E-03     579.933E-03    -289.638E-03     39.8578E-03
              39     13.4752E-03     122.539E-03    -2.47383E+06     80.0734E+06     93.4235E+06     396.674E+03    -289.467E-03     579.352E-03    -289.885E-03     44.5498E-03    -289.878E-03     579.767E-03    -289.530E-03     39.8691E-03
              40     13.4767E-03     124.231E-03    -2.31857E+06     81.6077E+06     93.5255E+06     399.901E+03    -289.388E-03     579.162E-03    -289.774E-03     44.5093E-03    -289.801E-03     579.586E-03    -289.422E-03     39.7856E-03
              41     13.4781E-03     125.922E-03    -2.30532E+06     84.2026E+06     93.3714E+06     791.426E+03    -289.271E-03     578.933E-03    -289.662E-03     44.5094E-03    -289.690E-03     579.371E-03    -289.314E-03     39.7507E-03
              42     13.4796E-03     127.614E-03    -2.61538E+06     86.8805E+06     93.0572E+06     469.731E+03    -289.175E-03     578.721E-03    -289.546E-03     44.5887E-03    -289.601E-03     579.175E-03    -289.202E-03     39.7798E-03
              43     13.4811E-03     129.304E-03    -2.83548E+06     85.1843E+06     95.9161E+06    -894.955E+03    -289.267E-03     578.710E-03    -289.444E-03     44.7403E-03    -289.697E-03     579.154E-03    -289.083E-03     39.8646E-03
              44     13.4827E-03     130.996E-03    -2.06149E+06     80.4654E+06     98.5910E+06    -797.151E+03    -289.306E-03     578.639E-03    -289.333E-03     44.8992E-03    -289.731E-03     579.057E-03    -288.954E-03     39.9910E-03
              45     13.4848E-03     132.686E-03    -2.42825E+06     79.0136E+06     97.1047E+06     339.033E+03    -289.001E-03     578.189E-03    -289.188E-03     45.0466E-03    -289.425E-03     578.604E-03    -288.814E-03     40.1155E-03
              46     13.4869E-03     134.376E-03    -2.66389E+06     81.6187E+06     100.884E+06     1.13577E+06    -289.256E-03     578.346E-03    -289.090E-03     44.1572E-03    -289.691E-03     578.769E-03    -288.700E-03     39.1594E-03
              47     13.4862E-03     136.068E-03    -2.62321E+06     86.2821E+06     107.193E+06     784.836E+03    -289.797E-03     578.893E-03    -289.096E-03     42.5087E-03    -290.244E-03     579.326E-03    -288.681E-03     37.4566E-03
              48     13.4856E-03     137.759E-03    -2.61117E+06     89.5661E+06     104.505E+06     144.909E+03    -289.004E-03     578.099E-03    -289.095E-03     43.2973E-03    -289.452E-03     578.552E-03    -288.699E-03     38.3158E-03
              49     13.4876E-03     139.447E-03    -2.48143E+06     93.6710E+06     104.743E+06     1.71504E+06    -288.026E-03     577.035E-03    -289.009E-03     45.3478E-03    -288.484E-03     577.513E-03    -288.618E-03     40.4516E-03
              50     13.4898E-03     141.135E-03    -3.40529E+06     100.148E+06     111.098E+06     1.43259E+06    -288.336E-03     577.205E-03    -288.869E-03     45.6256E-03    -288.819E-03     577.709E-03    -288.454E-03     40.6764E-03
              51     13.4916E-03     142.825E-03    -2.43783E+06     104.340E+06     113.457E+06     398.250E+03    -288.364E-03     577.100E-03    -288.736E-03     44.6524E-03    -288.854E-03     577.623E-03    -288.317E-03     39.5401E-03
              52     13.4930E-03     144.512E-03    -3.20048E+06     107.701E+06     114.489E+06     1.26506E+06    -287.941E-03     576.599E-03    -288.658E-03     44.0526E-03    -288.443E-03     577.139E-03    -288.237E-03     38.8666E-03
              53     13.4931E-03     146.200E-03    -2.91960E+06     112.216E+06     115.651E+06     913.947E+03    -288.093E-03     576.676E-03    -288.584E-03     44.6408E-03    -288.597E-03     577.233E-03    -288.164E-03     39.6286E-03
              54     13.4952E-03     147.888E-03    -3.05820E+06     114.667E+06     116.409E+06     26.4929E+03    -287.639E-03     576.121E-03    -288.483E-03     45.2035E-03    -288.145E-03     576.687E-03    -288.062E-03     40.2994E-03
              55     13.4970E-03     149.574E-03    -3.00128E+06     115.065E+06     117.072E+06     408.076E+03    -286.922E-03     575.285E-03    -288.363E-03     45.3827E-03    -287.433E-03     575.854E-03    -287.940E-03     40.4320E-03
              56     13.4987E-03     151.259E-03    -3.06953E+06     116.249E+06     118.573E+06     396.149E+03    -286.738E-03     574.977E-03    -288.239E-03     45.4409E-03    -287.256E-03     575.553E-03    -287.811E-03     40.4067E-03
              57     13.5005E-03     152.944E-03    -3.10829E+06     117.830E+06     119.926E+06     583.671E+03    -286.875E-03     575.009E-03    -288.134E-03     44.9549E-03    -287.401E-03     575.594E-03    -287.701E-03     39.8137E-03
              58     13.5008E-03     154.630E-03    -2.97515E+06     119.791E+06     119.132E+06     516.105E+03    -287.148E-03     575.202E-03    -288.054E-03     44.6468E-03    -287.673E-03     575.796E-03    -287.628E-03     39.5241E-03
              59     13.5019E-03     156.315E-03    -3.00383E+06     121.625E+06     118.840E+06     222.550E+03    -286.731E-03     574.709E-03    -287.979E-03     45.2920E-03    -287.256E-03     575.311E-03    -287.556E-03     40.2696E-03
              60     13.5037E-03     157.999E-03    -3.02910E+06     123.648E+06     118.003E+06     765.393E+03    -286.165E-03     574.033E-03    -287.868E-03     45.8634E-03    -286.695E-03     574.649E-03    -287.453E-03     40.8182E-03
              61     13.5052E-03     159.682E-03    -2.96484E+06     127.027E+06     116.224E+06     924.981E+03    -286.081E-03     573.816E-03    -287.735E-03     45.9300E-03    -286.618E-03     574.456E-03    -287.334E-03     40.7586E-03
              62     13.5068E-03     161.365E-03    -3.02038E+06     130.406E+06     114.234E+06     717.293E+03    -286.131E-03     573.729E-03    -287.598E-03     46.1754E-03    -286.675E-03     574.394E-03    -287.212E-03     40.8796E-03
              63     13.5084E-03     163.048E-03    -3.13030E+06     131.347E+06     113.076E+06     55.2184E+03    -286.264E-03     573.729E-03    -287.465E-03     46.3620E-03    -286.814E-03     574.406E-03    -287.086E-03     40.9384E-03
              64     13.5100E-03     164.731E-03    -2.87249E+06     129.395E+06     110.916E+06    -559.530E+03    -286.404E-03     573.735E-03    -287.332E-03     46.5437E-03    -286.951E-03     574.410E-03    -286.960E-03     40.9909E-03
              65     13.5117E-03     166.414E-03    -2.85093E+06     124.321E+06     105.096E+06    -1.34751E+06    -286.585E-03     573.748E-03    -287.163E-03     47.4378E-03    -287.121E-03     574.411E-03    -286.814E-03     41.8043E-03
              66     13.5143E-03     168.097E-03    -2.23364E+06     121.213E+06     103.103E+06    -602.513E+03    -287.315E-03     574.323E-03    -287.008E-03     47.2442E-03    -287.842E-03     574.973E-03    -286.665E-03     41.5761E-03
              67     13.5142E-03     169.783E-03    -5.42555E+06     115.001E+06     98.1110E+06    -1.87627E+06    -288.188E-03     575.096E-03    -286.909E-03     46.5448E-03    -288.711E-03     575.725E-03    -286.577E-03     40.8529E-03
              68     13.5152E-03     171.469E-03    -1.33090E+06     101.122E+06     94.1687E+06    -2.57057E+06    -288.576E-03     575.394E-03    -286.817E-03     48.0579E-03    -289.059E-03     575.957E-03    -286.491E-03     42.3513E-03
              69     13.5175E-03     173.154E-03    -1.82065E+06     85.8941E+06     89.8345E+06    -3.19711E+06    -289.745E-03     576.447E-03    -286.702E-03     48.2152E-03    -290.206E-03     576.946E-03    -286.375E-03     42.3791E-03
              70     13.5165E-03     174.845E-03    -6.25565E+06     64.8842E+06     85.5309E+06    -3.86029E+06    -290.997E-03     577.615E-03    -286.618E-03     48.6840E-03    -291.442E-03     578.021E-03    -286.276E-03     42.8902E-03
              71     13.5198E-03     176.533E-03     752.010E+03     41.4950E+06     85.2413E+06    -5.54894E+06    -292.258E-03     578.773E-03    -286.515E-03     50.2810E-03    -292.638E-03     579.056E-03    -286.150E-03     44.4774E-03
              72     13.5193E-03     178.227E-03    -7.57719E+06    -2.15436E+06     76.2854E+06    -11.2565E+06    -294.591E-03     580.989E-03    -286.398E-03     50.7092E-03    -294.940E-03     581.082E-03    -286.002E-03     44.7319E-03
              73     13.5217E-03     179.923E-03     5.66326E+06    -42.1518E+06     78.5981E+06    -5.52804E+06    -297.012E-03     583.286E-03    -286.274E-03     52.6388E-03    -297.243E-03     583.160E-03    -285.828E-03     46.7988E-03
              74     13.5236E-03     181.624E-03    -11.4865E+06    -85.7334E+06     65.4582E+06    -10.7225E+06    -300.368E-03     586.471E-03    -286.103E-03     53.1630E-03    -300.604E-03     586.172E-03    -285.635E-03     47.2337E-03
              75     13.5232E-03     183.331E-03     5.70240E+06    -132.489E+06     57.4588E+06    -7.91068E+06    -304.271E-03     590.172E-03    -285.902E-03     55.1004E-03    -304.347E-03     589.631E-03    -285.430E-03     49.1672E-03
              76     13.5281E-03     185.041E-03     954.358E+03    -151.557E+06     48.8549E+06    -2.91925E+06    -308.750E-03     594.425E-03    -285.675E-03     55.8597E-03    -308.810E-03     593.809E-03    -285.212E-03     49.9963E-03
              77     13.5243E-03     186.767E-03    -4.81174E+06    -166.455E+06     23.5920E+06    -2.19844E+06    -312.406E-03     597.848E-03    -285.442E-03     55.4087E-03    -312.427E-03     597.194E-03    -285.076E-03     49.6853E-03
              78     13.5293E-03     188.486E-03     2.48350E+06    -187.000E+06     20.3163E+06    -6.25947E+06    -314.408E-03     599.751E-03    -285.343E-03     57.6141E-03    -314.356E-03     598.986E-03    -284.974E-03     52.0522E-03
              79     13.5262E-03     190.218E-03     5.21658E+06    -171.742E+06     33.6222E+06     10.5123E+06    -315.010E-03     600.324E-03    -285.314E-03     56.4875E-03    -314.966E-03     599.592E-03    -284.905E-03     51.5747E-03
              80     13.5303E-03     191.940E-03    -7.71571E+06    -131.399E+06     30.7149E+06     6.34183E+06    -309.678E-03     595.000E-03    -285.323E-03     55.3385E-03    -309.705E-03     594.445E-03    -284.968E-03     51.6005E-03
              81     13.5287E-03     193.652E-03     7.43102E+06    -136.402E+06     17.5500E+06    -12.0120E+06    -292.560E-03     577.900E-03    -285.340E-03     56.7844E-03    -292.393E-03     577.225E-03    -285.066E-03     55.4824E-03
              82     13.5460E-03     195.315E-03     18.4287E+06    -100.677E+06     11.5145E+06     21.2746E+06    -244.639E-03     531.110E-03    -286.471E-03     22.4715E-03    -244.397E-03     530.560E-03    -286.295E-03     22.7453E-03
              83     12.7551E-03     196.769E-03    -65.8518E+06     36.3050E+06     14.7433E+06     15.1225E+06    -209.111E-03     498.700E-03    -289.589E-03    -41.1801E-03    -209.524E-03     499.023E-03    -289.473E-03    -40.6331E-03
              84     12.0004E-03     196.642E-03    -63.6444E+06     47.5285E+06     39.2096E+06    -26.2986E+06    -212.305E-03     505.835E-03    -293.530E-03    -98.2672E-03    -212.874E-03     506.304E-03    -293.311E-03    -96.6964E-03
              85     11.2722E-03     196.511E-03    -41.1464E+06    -40.5328E+06     51.4157E+06    -30.0700E+06    -219.428E-03     516.606E-03    -297.178E-03    -144.898E-03    -219.902E-03     516.693E-03    -296.803E-03    -142.731E-03
              86     10.5607E-03     196.377E-03    -29.5780E+06    -21.0227E+06     59.1545E+06    -10.4515E+06    -227.012E-03     527.287E-03    -300.274E-03    -173.222E-03    -227.530E-03     527.479E-03    -299.905E-03    -170.718E-03
              87     9.86285E-03     196.247E-03    -28.2362E+06    -1.63686E+06      59.501E+06    -5.47232E+06    -235.227E-03     538.277E-03    -303.050E-03    -188.723E-03    -235.783E-03     538.558E-03    -302.710E-03    -186.237E-03
              88     9.17450E-03     196.127E-03    -33.7447E+06    -795.986E+03     56.8949E+06    -5.81533E+06    -244.813E-03     550.387E-03    -305.574E-03    -195.968E-03    -245.389E-03     550.664E-03    -305.239E-03    -193.595E-03
              89     8.49402E-03     196.013E-03    -38.1564E+06     6.03625E+06     60.3952E+06    -10.9290E+06    -254.648E-03     562.464E-03    -307.816E-03    -198.134E-03    -255.244E-03     562.749E-03    -307.467E-03    -195.954E-03
              90     7.82046E-03     195.906E-03    -39.6408E+06     837.756E+03     59.5209E+06    -16.5667E+06    -264.158E-03     573.900E-03    -309.742E-03    -196.239E-03    -264.724E-03     574.122E-03    -309.388E-03    -194.326E-03
              91     7.15329E-03     195.808E-03    -38.2989E+06    -1.42544E+06     57.8564E+06    -20.5870E+06    -273.071E-03     584.436E-03    -311.365E-03    -190.324E-03    -273.588E-03     584.599E-03    -311.018E-03    -188.710E-03
              92     6.49154E-03     195.717E-03    -35.7859E+06    -9.34145E+06     54.7825E+06    -20.5487E+06    -281.217E-03     593.945E-03    -312.728E-03    -180.928E-03    -281.664E-03     594.020E-03    -312.389E-03    -179.593E-03
              93     5.83351E-03     195.635E-03    -33.7890E+06    -7.64711E+06     53.2348E+06    -19.0866E+06    -288.312E-03     602.176E-03    -313.864E-03    -169.075E-03    -288.710E-03     602.215E-03    -313.538E-03    -167.993E-03
              94     5.17855E-03     195.561E-03    -32.1437E+06    -3.80568E+06     48.2012E+06    -19.8635E+06    -294.445E-03     609.247E-03    -314.801E-03    -155.219E-03    -294.798E-03     609.268E-03    -314.508E-03    -154.429E-03
              95     4.52629E-03     195.496E-03    -29.9485E+06    -6.07981E+06     38.1634E+06    -20.9628E+06    -299.930E-03     615.496E-03    -315.566E-03    -139.605E-03    -300.223E-03     615.482E-03    -315.323E-03    -139.113E-03
              96     3.87597E-03     195.440E-03    -26.4586E+06    -6.87707E+06     28.1387E+06    -21.3407E+06    -304.652E-03     620.832E-03    -316.180E-03    -122.888E-03    -304.887E-03     620.796E-03    -315.991E-03    -122.659E-03
              97     3.22699E-03     195.392E-03    -21.4651E+06    -8.22319E+06     18.0368E+06    -21.5093E+06    -308.502E-03     625.167E-03    -316.664E-03    -105.451E-03    -308.678E-03     625.110E-03    -316.531E-03    -105.471E-03
              98     2.57933E-03     195.352E-03    -14.8521E+06    -8.86911E+06     8.43534E+06    -21.3628E+06    -311.635E-03     628.680E-03    -317.045E-03    -86.9181E-03    -311.753E-03     628.609E-03    -316.968E-03    -87.1209E-03
              99     1.93320E-03     195.322E-03    -8.33478E+06    -18.1236E+06     7.56483E+06    -18.2714E+06    -314.149E-03     631.544E-03    -317.395E-03    -67.1689E-03    -314.217E-03     631.410E-03    -317.319E-03    -67.4571E-03
             100     1.28775E-03     195.299E-03    -4.97830E+06    -17.1777E+06     5.77195E+06    -12.5090E+06    -315.953E-03     633.624E-03    -317.671E-03    -46.6471E-03    -316.005E-03     633.489E-03    -317.610E-03    -46.9176E-03
             101     643.147E-06     195.285E-03    -3.65919E+06    -18.5513E+06    -4.57873E+06    -8.93833E+06    -317.021E-03     635.100E-03    -318.080E-03    -26.7671E-03    -317.053E-03     634.967E-03    -318.070E-03    -27.0879E-03
             102     1.22700E-06     193.488E-03    -48.2618E+06    -55.8335E+06    -47.5732E+06    -6.64632E+06    -304.547E-03     608.859E-03    -304.312E-03    -11.6649E-03    -304.671E-03     608.686E-03    -304.399E-03    -11.5695E-03
             103    -160.665E-09     191.792E-03    -140.400E+06    -103.812E+06    -138.644E+06    -5.71811E+06    -284.722E-03     568.699E-03    -283.976E-03    -3.70458E-03    -285.083E-03     568.578E-03    -284.315E-03    -3.11895E-03
             104     164.909E-09     190.140E-03    -200.096E+06    -142.756E+06    -200.008E+06    -4.22626E+06    -275.386E-03     550.624E-03    -275.238E-03     431.904E-06    -275.891E-03     550.489E-03    -275.741E-03     1.07321E-03
             105     42.6377E-09     188.503E-03    -193.517E+06    -167.313E+06    -192.934E+06    -2.54577E+06    -272.716E-03     545.018E-03    -272.302E-03     2.67347E-03    -273.161E-03     544.742E-03    -272.743E-03     3.32395E-03
             106     315.501E-09     186.869E-03    -123.958E+06    -175.880E+06    -124.596E+06     122.761E+03    -272.462E-03     544.524E-03    -272.062E-03     3.35858E-03    -272.646E-03     544.004E-03    -272.250E-03     3.93873E-03
             107    -140.985E-09     185.235E-03    -87.1801E+06    -172.963E+06    -86.3281E+06     545.841E+03    -272.594E-03     544.918E-03    -272.324E-03     3.61758E-03    -272.653E-03     544.305E-03    -272.379E-03     4.09915E-03
             108     332.525E-09     183.601E-03    -95.9651E+06    -178.235E+06    -96.0788E+06    -1.98626E+06    -273.062E-03     545.649E-03    -272.587E-03     3.78267E-03    -273.143E-03     545.035E-03    -272.670E-03     4.14699E-03
             109     113.152E-09     181.965E-03    -102.921E+06    -189.075E+06    -103.609E+06    -1.11885E+06    -273.849E-03     547.158E-03    -273.309E-03     3.97184E-03    -273.939E-03     546.511E-03    -273.403E-03     4.27649E-03
             110     162.940E-09     180.326E-03    -118.969E+06    -197.333E+06    -118.585E+06    -1.34256E+06    -274.936E-03     549.504E-03    -274.569E-03     4.03497E-03    -275.072E-03     548.861E-03    -274.703E-03     4.28280E-03
             111     54.5733E-09     178.682E-03    -125.138E+06    -205.503E+06    -125.575E+06    -865.454E+03    -276.476E-03     552.659E-03    -276.183E-03     3.98559E-03    -276.621E-03     551.994E-03    -276.332E-03     4.22554E-03
             112     112.522E-09     177.032E-03    -133.283E+06    -209.997E+06    -133.206E+06    -398.474E+03    -278.220E-03     556.170E-03    -277.950E-03     3.78930E-03    -278.388E-03     555.506E-03    -278.119E-03     4.02365E-03
             113     78.6485E-09     175.377E-03    -140.199E+06    -217.453E+06    -139.168E+06    -1.57341E+06    -279.948E-03     559.725E-03    -279.778E-03     3.58014E-03    -280.131E-03     559.043E-03    -279.955E-03     3.78248E-03
             114    -38.0479E-09     173.716E-03    -143.426E+06    -227.243E+06    -144.032E+06    -1.10501E+06    -281.593E-03     563.179E-03    -281.586E-03     3.42931E-03    -281.771E-03     562.459E-03    -281.768E-03     3.65681E-03
             115    -6.31703E-09     172.049E-03    -144.275E+06    -235.705E+06    -144.159E+06    -1.13343E+06    -283.169E-03     566.362E-03    -283.193E-03     3.20178E-03    -283.340E-03     565.601E-03    -283.363E-03     3.44530E-03
             116     12.3639E-09     170.377E-03    -140.694E+06    -244.380E+06    -140.920E+06    -1.18516E+06    -284.572E-03     569.125E-03    -284.554E-03     2.97321E-03    -284.716E-03     568.312E-03    -284.700E-03     3.21167E-03
             117    -2.53106E-09     168.701E-03    -144.236E+06    -251.695E+06    -144.219E+06    -910.782E+03    -285.775E-03     571.550E-03    -285.775E-03     2.81670E-03    -285.921E-03     570.709E-03    -285.922E-03     3.05938E-03
             118    -13.9776E-09     167.021E-03    -139.180E+06    -257.048E+06    -139.282E+06    -548.755E+03    -286.850E-03     573.709E-03    -286.859E-03     2.62930E-03    -286.971E-03     572.827E-03    -286.981E-03     2.87797E-03
             119     12.5689E-09     165.338E-03    -138.778E+06    -261.039E+06    -138.742E+06    -421.321E+03    -287.671E-03     575.332E-03    -287.660E-03     2.47763E-03    -287.785E-03     574.429E-03    -287.774E-03     2.72974E-03
             120    -546.440E-12     163.653E-03    -146.406E+06    -265.661E+06    -146.538E+06    -774.619E+03    -288.212E-03     576.400E-03    -288.188E-03     2.35489E-03    -288.346E-03     575.496E-03    -288.323E-03     2.59741E-03
             121     15.8542E-09     161.966E-03    -142.451E+06    -267.398E+06    -142.656E+06     303.279E+03    -288.590E-03     577.152E-03    -288.563E-03     2.24981E-03    -288.707E-03     576.229E-03    -288.682E-03     2.50307E-03
             122    -531.969E-12     160.278E-03    -140.963E+06    -264.956E+06    -140.799E+06     331.326E+03    -288.818E-03     577.623E-03    -288.805E-03     2.18964E-03    -288.935E-03     576.707E-03    -288.920E-03     2.43972E-03
             123     779.865E-12     158.590E-03    -140.352E+06    -264.426E+06    -140.346E+06    -206.814E+03    -288.959E-03     577.911E-03    -288.952E-03     2.16087E-03    -289.074E-03     576.995E-03    -289.066E-03     2.39424E-03
             124     5.28088E-09     156.901E-03    -138.740E+06    -264.944E+06    -138.713E+06     66.9138E+03    -289.052E-03     578.107E-03    -289.054E-03     2.18626E-03    -289.161E-03     577.184E-03    -289.162E-03     2.41865E-03
             125    -17.5238E-09     155.212E-03    -137.308E+06    -264.281E+06    -137.350E+06     83.3026E+03    -289.108E-03     578.245E-03    -289.137E-03     2.21663E-03    -289.212E-03     577.322E-03    -289.241E-03     2.44187E-03
             126    -13.7547E-09     153.523E-03    -134.727E+06    -263.341E+06    -134.789E+06     172.691E+03    -289.167E-03     578.293E-03    -289.127E-03     2.19120E-03    -289.263E-03     577.367E-03    -289.223E-03     2.40780E-03
             127     94.6161E-09     151.833E-03    -132.046E+06    -264.103E+06    -131.897E+06    -425.011E+03    -289.200E-03     578.249E-03    -289.049E-03     2.21841E-03    -289.286E-03     577.311E-03    -289.134E-03     2.41425E-03
             128     24.9609E-09     150.144E-03    -130.013E+06    -266.952E+06    -129.992E+06    -330.165E+03    -289.177E-03     578.210E-03    -289.032E-03     2.29117E-03    -289.252E-03     577.252E-03    -289.107E-03     2.47596E-03
             129     46.9052E-09     148.455E-03    -129.177E+06    -270.128E+06    -128.938E+06    -557.539E+03    -289.163E-03     578.255E-03    -289.091E-03     2.35854E-03    -289.231E-03     577.278E-03    -289.157E-03     2.53902E-03
             130    -23.6153E-09     146.766E-03    -129.211E+06    -276.962E+06    -129.523E+06    -1.26444E+06    -289.122E-03     578.250E-03    -289.127E-03     2.34266E-03    -289.179E-03     577.240E-03    -289.186E-03     2.51423E-03
             131    -13.5041E-09     145.077E-03    -129.832E+06    -276.688E+06    -130.376E+06     1.30716E+06    -289.008E-03     577.983E-03    -288.975E-03     2.22794E-03    -289.067E-03     576.977E-03    -289.037E-03     2.43473E-03
             132     87.4187E-09     143.389E-03    -129.289E+06    -265.067E+06    -128.694E+06     1.77024E+06    -288.804E-03     577.545E-03    -288.741E-03     2.23618E-03    -288.880E-03     576.594E-03    -288.812E-03     2.44045E-03
             133    -74.5258E-09     141.702E-03    -127.297E+06    -258.511E+06    -127.415E+06     36.3838E+03    -288.594E-03     577.168E-03    -288.574E-03     2.27667E-03    -288.671E-03     576.245E-03    -288.652E-03     2.45093E-03
             134     83.5547E-09     140.014E-03    -126.384E+06    -256.728E+06    -126.377E+06     427.016E+03    -288.545E-03     576.940E-03    -288.395E-03     2.30272E-03    -288.621E-03     576.023E-03    -288.471E-03     2.48822E-03
             135     105.741E-09     138.328E-03    -125.248E+06    -253.553E+06    -125.038E+06     313.621E+03    -288.525E-03     576.840E-03    -288.315E-03     2.35774E-03    -288.602E-03     575.935E-03    -288.391E-03     2.52926E-03
             136    -13.8924E-09     136.641E-03    -123.807E+06    -250.342E+06    -124.051E+06     503.065E+03    -288.499E-03     576.920E-03    -288.420E-03     2.34536E-03    -288.575E-03     576.027E-03    -288.498E-03     2.48792E-03
             137     22.0672E-09     134.954E-03    -122.493E+06    -247.114E+06    -122.306E+06     302.104E+03    -288.621E-03     577.186E-03    -288.565E-03     2.34422E-03    -288.698E-03     576.305E-03    -288.640E-03     2.47664E-03
             138     43.4703E-09     133.266E-03    -120.974E+06    -245.370E+06    -121.136E+06     13.6466E+03    -288.765E-03     577.452E-03    -288.687E-03     2.39849E-03    -288.839E-03     576.576E-03    -288.761E-03     2.55325E-03
             139    -9.25746E-09     131.578E-03    -118.190E+06    -243.796E+06    -118.217E+06     402.615E+03    -288.917E-03     577.755E-03    -288.839E-03     2.42860E-03    -288.983E-03     576.879E-03    -288.905E-03     2.59317E-03
             140     75.8789E-09     129.890E-03    -118.432E+06    -243.290E+06    -118.364E+06    -122.098E+03    -289.133E-03     578.146E-03    -289.012E-03     2.42244E-03    -289.201E-03     577.272E-03    -289.080E-03     2.56239E-03
             141     16.7014E-09     128.200E-03    -117.850E+06    -241.978E+06    -118.082E+06     512.989E+03    -289.324E-03     578.537E-03    -289.212E-03     2.40877E-03    -289.391E-03     577.669E-03    -289.281E-03     2.55856E-03
             142     34.7982E-09     126.510E-03    -115.505E+06    -236.860E+06    -115.371E+06     784.527E+03    -289.504E-03     578.930E-03    -289.427E-03     2.39818E-03    -289.570E-03     578.081E-03    -289.492E-03     2.55280E-03
             143     14.4616E-09     124.819E-03    -114.564E+06    -233.260E+06    -114.640E+06     195.524E+03    -289.666E-03     579.264E-03    -289.597E-03     2.35844E-03    -289.735E-03     578.430E-03    -289.666E-03     2.49969E-03
             144     24.2654E-09     123.128E-03    -113.570E+06    -230.635E+06    -113.659E+06     448.288E+03    -289.768E-03     579.474E-03    -289.706E-03     2.31633E-03    -289.837E-03     578.650E-03    -289.775E-03     2.45812E-03
             145     16.3537E-09     121.437E-03    -113.147E+06    -227.608E+06    -113.123E+06     335.415E+03    -289.833E-03     579.605E-03    -289.772E-03     2.30800E-03    -289.904E-03     578.795E-03    -289.844E-03     2.44183E-03
             146     20.5290E-09     119.745E-03    -112.261E+06    -225.238E+06    -112.298E+06     277.387E+03    -289.901E-03     579.746E-03    -289.845E-03     2.32748E-03    -289.973E-03     578.946E-03    -289.917E-03     2.45595E-03
             147     13.6118E-09     118.053E-03    -111.539E+06    -223.085E+06    -111.501E+06     285.578E+03    -290.014E-03     579.969E-03    -289.956E-03     2.34752E-03    -290.086E-03     579.177E-03    -290.028E-03     2.47641E-03
             148     26.1900E-09     116.360E-03    -110.738E+06    -220.917E+06    -110.775E+06     273.153E+03    -290.168E-03     580.267E-03    -290.099E-03     2.35874E-03    -290.240E-03     579.483E-03    -290.172E-03     2.48739E-03
             149     22.3218E-09     114.667E-03    -110.146E+06    -218.554E+06    -110.140E+06     345.532E+03    -290.332E-03     580.592E-03    -290.260E-03     2.37395E-03    -290.406E-03     579.819E-03    -290.334E-03     2.50338E-03
             150     22.9022E-09     112.974E-03    -109.316E+06    -215.964E+06    -109.350E+06     317.060E+03    -290.470E-03     580.872E-03    -290.402E-03     2.34649E-03    -290.544E-03     580.109E-03    -290.477E-03     2.47425E-03
             151     17.8376E-09     111.280E-03    -108.543E+06    -213.782E+06    -108.526E+06     235.186E+03    -290.550E-03     581.042E-03    -290.492E-03     2.31772E-03    -290.626E-03     580.288E-03    -290.567E-03     2.44150E-03
             152     16.6320E-09     109.585E-03    -107.736E+06    -212.054E+06    -107.765E+06     200.922E+03    -290.596E-03     581.135E-03    -290.539E-03     2.30347E-03    -290.671E-03     580.388E-03    -290.614E-03     2.42562E-03
             153     21.7962E-09     107.891E-03    -106.860E+06    -210.204E+06    -106.863E+06     265.152E+03    -290.630E-03     581.194E-03    -290.564E-03     2.29848E-03    -290.704E-03     580.453E-03    -290.639E-03     2.42125E-03
             154     23.5986E-09     106.197E-03    -106.231E+06    -208.537E+06    -106.208E+06     149.707E+03    -290.662E-03     581.254E-03    -290.592E-03     2.31025E-03    -290.737E-03     580.520E-03    -290.667E-03     2.43068E-03
             155     21.1019E-09     104.502E-03    -105.963E+06    -207.762E+06    -105.972E+06     30.4475E+03    -290.691E-03     581.315E-03    -290.624E-03     2.30963E-03    -290.766E-03     580.583E-03    -290.699E-03     2.42718E-03
             156     20.4568E-09     102.807E-03    -105.928E+06    -207.512E+06    -105.934E+06     9.08947E+03    -290.698E-03     581.336E-03    -290.638E-03     2.30467E-03    -290.773E-03     580.606E-03    -290.713E-03     2.42025E-03
             157     15.6361E-09     101.113E-03    -105.535E+06    -207.277E+06    -105.550E+06     25.4332E+03    -290.689E-03     581.319E-03    -290.631E-03     2.29786E-03    -290.763E-03     580.589E-03    -290.705E-03     2.41305E-03
             158     22.6089E-09     99.4180E-03    -105.071E+06    -206.590E+06    -105.097E+06     132.118E+03    -290.675E-03     581.293E-03    -290.617E-03     2.29173E-03    -290.749E-03     580.564E-03    -290.691E-03     2.40904E-03
             159     31.7007E-09     96.0288E-03    -104.671E+06    -204.363E+06    -104.689E+06     129.326E+03    -290.669E-03     581.267E-03    -290.598E-03     2.31151E-03    -290.744E-03     580.548E-03    -290.673E-03     2.42768E-03
             160     14.4743E-09     94.3342E-03    -104.463E+06    -203.213E+06    -104.463E+06     154.702E+03    -290.660E-03     581.259E-03    -290.598E-03     2.32307E-03    -290.736E-03     580.545E-03    -290.675E-03     2.43871E-03
             161     18.4268E-09     92.6396E-03    -104.248E+06    -202.088E+06    -104.248E+06     134.481E+03    -290.657E-03     581.252E-03    -290.594E-03     2.31878E-03    -290.734E-03     580.544E-03    -290.672E-03     2.43497E-03
             162     29.0793E-09     90.9450E-03    -103.961E+06    -200.981E+06    -103.975E+06     141.414E+03    -290.659E-03     581.255E-03    -290.596E-03     2.32160E-03    -290.737E-03     580.552E-03    -290.674E-03     2.43791E-03
             163     4.06205E-09     89.2505E-03    -103.836E+06    -199.924E+06    -103.842E+06     128.824E+03    -290.642E-03     581.257E-03    -290.614E-03     2.29962E-03    -290.721E-03     580.558E-03    -290.693E-03     2.41689E-03
             164    -3.40106E-09     87.5559E-03    -103.734E+06    -198.936E+06    -103.692E+06     123.329E+03    -290.648E-03     581.251E-03    -290.603E-03     2.25655E-03    -290.727E-03     580.557E-03    -290.683E-03     2.37641E-03
             165     58.8513E-09     85.8613E-03    -103.571E+06    -198.052E+06    -103.622E+06     98.3837E+03    -290.681E-03     581.266E-03    -290.585E-03     2.27454E-03    -290.762E-03     580.576E-03    -290.665E-03     2.39302E-03
             166     11.5879E-09     84.1666E-03    -103.519E+06    -197.294E+06    -103.529E+06     95.5946E+03    -290.677E-03     581.282E-03    -290.605E-03     2.29714E-03    -290.758E-03     580.596E-03    -290.687E-03     2.41368E-03
             167     9.84951E-09     82.4719E-03    -103.410E+06    -196.603E+06    -103.397E+06     78.0563E+03    -290.669E-03     581.281E-03    -290.613E-03     2.29258E-03    -290.751E-03     580.598E-03    -290.695E-03     2.40912E-03
             168     40.2681E-09     80.7773E-03    -103.283E+06    -196.037E+06    -103.312E+06     64.2005E+03    -290.681E-03     581.295E-03    -290.614E-03     2.30513E-03    -290.763E-03     580.615E-03    -290.697E-03     2.42074E-03
             169    -4.90257E-09     79.0826E-03    -103.214E+06    -195.540E+06    -103.194E+06     56.3240E+03    -290.684E-03     581.321E-03    -290.637E-03     2.29608E-03    -290.767E-03     580.643E-03    -290.720E-03     2.41119E-03
             170     29.7166E-09     77.3878E-03    -103.147E+06    -195.143E+06    -103.141E+06     46.2775E+03    -290.696E-03     581.348E-03    -290.652E-03     2.28986E-03    -290.780E-03     580.672E-03    -290.735E-03     2.40425E-03
             171     1.76987E-09     75.6930E-03    -103.032E+06    -194.735E+06    -103.029E+06     52.6354E+03    -290.718E-03     581.388E-03    -290.669E-03     2.29152E-03    -290.802E-03     580.713E-03    -290.753E-03     2.40608E-03
             172     28.7392E-09     73.9981E-03    -103.011E+06    -194.401E+06    -102.973E+06     37.5149E+03    -290.744E-03     581.421E-03    -290.677E-03     2.29168E-03    -290.828E-03     580.747E-03    -290.760E-03     2.40640E-03
             173     27.3906E-09     72.3031E-03    -102.879E+06    -194.064E+06    -102.955E+06     35.6414E+03    -290.752E-03     581.426E-03    -290.674E-03     2.31155E-03    -290.836E-03     580.754E-03    -290.758E-03     2.42644E-03
             174     17.0861E-09     70.6082E-03    -103.006E+06    -193.856E+06    -102.954E+06     20.5863E+03    -290.743E-03     581.425E-03    -290.682E-03     2.31602E-03    -290.828E-03     580.754E-03    -290.766E-03     2.43029E-03
             175     17.2219E-09     68.9133E-03    -102.952E+06    -193.590E+06    -103.012E+06     51.5477E+03    -290.760E-03     581.442E-03    -290.682E-03     2.32168E-03    -290.845E-03     580.773E-03    -290.767E-03     2.43554E-03
             176     49.0087E-09     67.2182E-03    -102.896E+06    -193.264E+06    -102.920E+06     19.6557E+03    -290.784E-03     581.489E-03    -290.705E-03     2.35394E-03    -290.869E-03     580.821E-03    -290.790E-03     2.46787E-03
             177    -12.9733E-09     65.5232E-03    -103.004E+06    -193.179E+06    -103.002E+06         593.639    -290.800E-03     581.531E-03    -290.731E-03     2.32172E-03    -290.886E-03     580.864E-03    -290.816E-03     2.43347E-03
             178     66.6295E-09     63.8281E-03    -102.859E+06    -192.921E+06    -102.863E+06     48.8326E+03    -290.831E-03     581.564E-03    -290.733E-03     2.31635E-03    -290.917E-03     580.898E-03    -290.818E-03     2.42732E-03
             179     8.69773E-09     62.1328E-03    -102.872E+06    -192.722E+06    -102.851E+06    -9.06632E+03    -290.847E-03     581.614E-03    -290.767E-03     2.34369E-03    -290.933E-03     580.948E-03    -290.852E-03     2.45154E-03
             180     20.5383E-09     60.4376E-03    -102.942E+06    -192.586E+06    -102.973E+06     17.9695E+03    -290.871E-03     581.677E-03    -290.805E-03     2.32346E-03    -290.957E-03     581.012E-03    -290.892E-03     2.43039E-03
             181     35.0060E-09     58.7421E-03    -102.942E+06    -192.356E+06    -102.924E+06     16.4742E+03    -290.925E-03     581.768E-03    -290.842E-03     2.35630E-03    -291.012E-03     581.105E-03    -290.929E-03     2.46291E-03
             182     17.0004E-09     57.0464E-03    -102.906E+06    -192.104E+06    -102.950E+06     30.9746E+03    -290.971E-03     581.869E-03    -290.898E-03     2.37906E-03    -291.058E-03     581.207E-03    -290.985E-03     2.48521E-03
             183     24.9726E-09     55.3507E-03    -102.980E+06    -191.853E+06    -102.947E+06     21.0676E+03    -291.015E-03     581.967E-03    -290.952E-03     2.39159E-03    -291.102E-03     581.306E-03    -291.039E-03     2.49649E-03
             184     14.3063E-09     53.6547E-03    -103.045E+06    -191.669E+06    -103.059E+06     15.8494E+03    -291.084E-03     582.095E-03    -291.012E-03     2.41330E-03    -291.172E-03     581.436E-03    -291.100E-03     2.51490E-03
             185     39.1425E-09     51.9584E-03    -103.042E+06    -191.429E+06    -103.040E+06     38.2837E+03    -291.170E-03     582.257E-03    -291.087E-03     2.43294E-03    -291.258E-03     581.599E-03    -291.175E-03     2.53343E-03
             186     14.0783E-09     50.2620E-03    -102.937E+06    -191.129E+06    -102.949E+06     26.1577E+03    -291.274E-03     582.458E-03    -291.184E-03     2.44400E-03    -291.362E-03     581.801E-03    -291.272E-03     2.54127E-03
             187     48.8696E-09     48.5650E-03    -102.928E+06    -190.811E+06    -102.902E+06     27.0532E+03    -291.389E-03     582.675E-03    -291.286E-03     2.45363E-03    -291.478E-03     582.019E-03    -291.374E-03     2.54563E-03
             188     23.0646E-09     46.8678E-03    -102.950E+06    -190.585E+06    -102.967E+06     10.4886E+03    -291.495E-03     582.910E-03    -291.416E-03     2.50107E-03    -291.584E-03     582.256E-03    -291.505E-03     2.58862E-03
             189     6.54741E-09     45.1701E-03    -102.762E+06    -190.291E+06    -102.739E+06     37.3609E+03    -291.629E-03     583.202E-03    -291.573E-03     2.53584E-03    -291.718E-03     582.548E-03    -291.662E-03     2.62450E-03
             190     34.4257E-09     43.4717E-03    -102.632E+06    -190.094E+06    -102.651E+06     20.4361E+03    -291.804E-03     583.530E-03    -291.725E-03     2.58636E-03    -291.893E-03     582.877E-03    -291.814E-03     2.67783E-03
             191     25.8894E-09     41.7729E-03    -102.598E+06    -189.835E+06    -102.601E+06     63.3056E+03    -292.016E-03     583.928E-03    -291.912E-03     2.63408E-03    -292.105E-03     583.277E-03    -292.001E-03     2.72250E-03
             192     49.5463E-09     40.0733E-03    -102.576E+06    -189.517E+06    -102.559E+06     22.7218E+03    -292.277E-03     584.430E-03    -292.153E-03     2.68786E-03    -292.366E-03     583.780E-03    -292.242E-03     2.76645E-03
             193     36.7255E-09     38.3727E-03    -102.577E+06    -189.270E+06    -102.626E+06     52.9808E+03    -292.564E-03     585.033E-03    -292.470E-03     2.77484E-03    -292.653E-03     584.385E-03    -292.560E-03     2.84672E-03
             194    -2.11629E-09     36.6710E-03    -102.558E+06    -188.844E+06    -102.490E+06     57.9829E+03    -292.950E-03     585.773E-03    -292.823E-03     2.83096E-03    -293.040E-03     585.126E-03    -292.913E-03     2.89349E-03
             195     133.195E-09     34.9679E-03    -102.806E+06    -188.670E+06    -102.640E+06     5.28537E+03    -293.418E-03     586.648E-03    -293.230E-03     2.94840E-03    -293.510E-03     586.003E-03    -293.321E-03     3.00176E-03
             196    -15.9647E-09     33.2631E-03    -102.880E+06    -188.464E+06    -103.042E+06     47.1145E+03    -293.905E-03     587.669E-03    -293.764E-03     3.07203E-03    -293.997E-03     587.026E-03    -293.857E-03     3.11597E-03
             197     80.6561E-09     31.5566E-03    -102.856E+06    -187.839E+06    -102.924E+06     107.075E+03    -294.514E-03     588.889E-03    -294.375E-03     3.17276E-03    -294.607E-03     588.248E-03    -294.468E-03     3.20207E-03
             198     33.3231E-09     29.8476E-03    -102.457E+06    -186.835E+06    -102.437E+06     149.594E+03    -295.167E-03     590.246E-03    -295.079E-03     3.29909E-03    -295.260E-03     589.609E-03    -295.171E-03     3.31741E-03
             199    -35.5901E-09     28.1363E-03    -102.018E+06    -185.700E+06    -102.062E+06     143.415E+03    -295.744E-03     591.510E-03    -295.766E-03     3.31167E-03    -295.837E-03     590.877E-03    -295.859E-03     3.32682E-03
             200    -150.294E-12     26.4230E-03    -102.178E+06    -184.665E+06    -102.209E+06     127.069E+03    -296.197E-03     592.428E-03    -296.231E-03     3.27507E-03    -296.292E-03     591.801E-03    -296.327E-03     3.29170E-03
             201    -18.0147E-09     24.7085E-03    -102.438E+06    -184.101E+06    -102.491E+06     2.52659E+03    -296.339E-03     592.816E-03    -296.477E-03     3.24824E-03    -296.435E-03     592.192E-03    -296.574E-03     3.26315E-03
             202    -156.011E-09     22.9939E-03    -102.439E+06    -184.009E+06    -102.518E+06    -4.60392E+03    -296.048E-03     592.366E-03    -296.318E-03     3.00864E-03    -296.145E-03     591.743E-03    -296.415E-03     3.02326E-03
             203    -37.2451E-09     21.2811E-03    -102.324E+06    -183.602E+06    -102.390E+06     40.3779E+03    -295.250E-03     590.725E-03    -295.475E-03     2.67480E-03    -295.347E-03     590.104E-03    -295.572E-03     2.67945E-03
             204    -76.0200E-09     19.5722E-03    -102.007E+06    -183.156E+06    -102.093E+06    -52.6640E+03    -293.729E-03     587.669E-03    -293.940E-03     2.32800E-03    -293.825E-03     587.049E-03    -294.037E-03     2.32568E-03
             205    -97.8613E-09     17.8697E-03    -101.666E+06    -183.352E+06    -101.897E+06    -110.342E+03    -291.269E-03     582.822E-03    -291.553E-03     1.77422E-03    -291.364E-03     582.200E-03    -291.649E-03     1.76893E-03
             206    -111.923E-09     16.1776E-03    -101.202E+06    -183.554E+06    -101.553E+06     31.3451E+03    -287.769E-03     575.858E-03    -288.089E-03     1.10126E-03    -287.862E-03     575.233E-03    -288.184E-03     1.06177E-03
             207    -108.636E-09     14.4990E-03    -99.9955E+06    -182.775E+06    -100.206E+06     99.2711E+03    -283.215E-03     566.710E-03    -283.495E-03     325.156E-06    -283.306E-03     566.085E-03    -283.586E-03     225.919E-06
             208    -42.8255E-09     12.8376E-03    -99.0783E+06    -182.503E+06    -99.1605E+06    -104.784E+03    -277.629E-03     555.439E-03    -277.811E-03    -458.128E-06    -277.717E-03     554.813E-03    -277.898E-03    -632.120E-06
             209    -41.9960E-09     11.1968E-03    -99.8188E+06    -183.298E+06    -99.7426E+06    -151.799E+03    -271.412E-03     542.945E-03    -271.533E-03    -889.255E-06    -271.503E-03     542.316E-03    -271.621E-03    -1.14232E-03
             210    -24.9844E-09     9.57668E-03    -101.112E+06    -183.865E+06    -100.792E+06     7.54356E+03    -265.661E-03     531.428E-03    -265.766E-03    -671.734E-06    -265.755E-03     530.800E-03    -265.857E-03    -966.177E-06
             211    -41.5905E-09     7.97325E-03    -102.476E+06    -184.109E+06    -101.890E+06     11.6060E+03    -261.584E-03     523.328E-03    -261.744E-03     102.446E-06    -261.682E-03     522.704E-03    -261.838E-03    -172.751E-06
             212    -105.021E-09     6.37910E-03    -102.753E+06    -185.892E+06    -102.269E+06    -392.227E+03    -259.695E-03     519.662E-03    -259.967E-03     865.647E-06    -259.791E-03     519.030E-03    -260.060E-03     641.641E-06
             213    -122.137E-09     4.78715E-03    -93.5108E+06    -188.145E+06    -93.5012E+06    -151.124E+03    -259.525E-03     519.439E-03    -259.914E-03     1.15333E-03    -259.584E-03     518.770E-03    -259.973E-03     993.767E-06
             214    -191.360E-09     3.19360E-03    -73.7942E+06    -188.057E+06    -73.7681E+06     187.739E+03    -260.123E-03     520.745E-03    -260.622E-03     977.936E-06    -260.112E-03     520.019E-03    -260.611E-03     876.391E-06
             215    -187.963E-09     1.59758E-03    -60.3306E+06    -187.625E+06    -60.3673E+06    -53.6957E+03    -260.728E-03     522.030E-03    -261.301E-03     550.197E-06    -260.670E-03     521.267E-03    -261.244E-03     496.528E-06
             216     693.025E-06    -596.745E-18    -57.8318E+06    -185.961E+06    -57.8287E+06    -278.379E+03    -261.246E-03     522.700E-03    -261.454E-03     489.956E-06    -261.182E-03     521.938E-03    -261.390E-03     440.877E-06
             217     1.38587E-03    -596.745E-18    -57.4151E+06    -180.598E+06    -57.2099E+06    -372.559E+03    -261.797E-03     523.232E-03    -261.435E-03     892.851E-06    -261.739E-03     522.495E-03    -261.376E-03     803.455E-06
             218     2.07833E-03    -596.745E-18    -56.8443E+06    -171.309E+06    -56.2628E+06    -523.383E+03    -262.471E-03     524.124E-03    -261.653E-03     1.33243E-03    -262.425E-03     523.432E-03    -261.604E-03     1.19958E-03
             219     2.77024E-03    -596.745E-18    -55.6802E+06    -156.703E+06    -54.5994E+06    -1.50255E+06    -263.440E-03     525.401E-03    -261.961E-03     1.76885E-03    -263.412E-03     524.777E-03    -261.926E-03     1.57582E-03
             220     3.46138E-03    -596.745E-18    -53.6001E+06    -136.698E+06    -52.2554E+06    -2.53066E+06    -264.721E-03     527.083E-03    -262.362E-03     2.23181E-03    -264.715E-03     526.554E-03    -262.348E-03     1.97397E-03
             221     4.15142E-03    -596.745E-18    -51.1951E+06    -112.938E+06    -49.9882E+06    -2.46944E+06    -266.341E-03     529.204E-03    -262.862E-03     2.74643E-03    -266.362E-03     528.787E-03    -262.874E-03     2.43654E-03
             222     4.84026E-03    -596.745E-18    -48.7836E+06    -84.1611E+06    -47.7279E+06    -2.79107E+06    -268.335E-03     531.801E-03    -263.466E-03     3.25211E-03    -268.389E-03     531.521E-03    -263.511E-03     2.87773E-03
             223     5.52762E-03    -596.745E-18    -45.9679E+06    -46.3781E+06    -44.4452E+06    -3.35447E+06    -270.749E-03     534.929E-03    -264.180E-03     3.75217E-03    -270.849E-03     534.830E-03    -264.268E-03     3.30031E-03
             224     6.21308E-03    -596.745E-18    -42.9521E+06    -18.4419E+06    -36.4607E+06    -2.65019E+06    -273.702E-03     538.766E-03    -265.065E-03     4.33106E-03    -273.839E-03     538.792E-03    -265.158E-03     3.81036E-03
             225     6.89626E-03    -596.745E-18    -39.7830E+06    -7.61188E+06    -24.8126E+06    -2.23947E+06    -277.287E-03     543.428E-03    -266.141E-03     5.01757E-03    -277.442E-03     543.487E-03    -266.197E-03     4.40587E-03
             226     7.57680E-03    -596.745E-18    -36.1986E+06     2.89794E+06    -14.3574E+06    -2.19936E+06    -281.567E-03     548.945E-03    -267.378E-03     5.79125E-03    -281.735E-03     549.037E-03    -267.402E-03     5.06004E-03
             227     8.25417E-03    -596.745E-18    -32.4337E+06     13.8795E+06     457.922E+03    -1.50517E+06    -286.739E-03     555.564E-03    -268.825E-03     6.54794E-03    -286.927E-03     555.686E-03    -268.796E-03     5.68125E-03
             228     8.92795E-03    -596.745E-18    -28.8070E+06     23.3412E+06     23.4935E+06     518.504E+03    -293.150E-03     563.692E-03    -270.541E-03     7.20083E-03    -293.369E-03     563.824E-03    -270.416E-03     6.17245E-03
             229     9.59691E-03    -596.745E-18    -25.4846E+06     30.7926E+06     45.3309E+06     2.90674E+06    -301.215E-03     573.746E-03    -272.532E-03     8.38447E-03    -301.462E-03     573.883E-03    -272.313E-03     7.13919E-03
             230     10.2592E-03    -596.745E-18    -22.1944E+06     36.2051E+06     59.4250E+06     2.64113E+06    -311.352E-03     586.177E-03    -274.826E-03     10.8781E-03    -311.615E-03     586.321E-03    -274.549E-03     9.35633E-03
             231     10.9138E-03    -596.745E-18    -18.4182E+06     43.7616E+06     69.1870E+06     1.08904E+06    -324.281E-03     601.792E-03    -277.512E-03     14.3717E-03    -324.559E-03     601.965E-03    -277.203E-03     12.3883E-03
             232     11.5596E-03    -596.745E-18    -14.2806E+06     50.0636E+06     75.6264E+06     18.6878E+03    -341.394E-03     622.110E-03    -280.716E-03     17.4670E-03    -341.683E-03     622.314E-03    -280.390E-03     14.7860E-03
             233     12.1939E-03    -596.745E-18    -8.05677E+06     58.0382E+06     81.3493E+06    -1.32271E+06    -365.907E-03     650.552E-03    -284.645E-03     23.5713E-03    -366.222E-03     650.821E-03    -284.311E-03     19.5727E-03
             234     12.8067E-03    -596.745E-18    -1.90481E+06     68.1204E+06     86.7055E+06    -146.910E+03    -403.774E-03     693.426E-03    -289.652E-03     56.6014E-03    -404.265E-03     693.913E-03    -289.314E-03     49.8746E-03
             235     13.4318E-03     2.01032E-03    -488.934E+03     71.6561E+06     84.5777E+06    -334.223E+03    -396.178E-03     687.634E-03    -291.455E-03     84.3007E-03    -396.799E-03     688.263E-03    -291.136E-03     76.4458E-03
             236     13.4549E-03     3.82775E-03    -1.91493E+06     69.6772E+06     82.3181E+06    -1.41330E+06    -354.190E-03     644.334E-03    -290.144E-03     71.2946E-03    -354.723E-03     644.866E-03    -289.831E-03     64.6689E-03
             237     13.4608E-03     5.60746E-03    -2.80753E+06     66.0399E+06     83.4413E+06     254.155E+03    -334.871E-03     624.764E-03    -289.894E-03     56.0723E-03    -335.330E-03     625.205E-03    -289.568E-03     49.9724E-03
             238     13.4632E-03     7.35916E-03     -2.6931E+06     63.9683E+06     82.8403E+06     428.928E+03    -320.889E-03     610.895E-03    -290.006E-03     52.5975E-03    -321.336E-03     611.319E-03    -289.680E-03     46.5190E-03
             239     13.4644E-03     9.09337E-03    -2.41104E+06     62.5932E+06     82.2408E+06    -280.159E+03    -310.693E-03     600.870E-03    -290.177E-03     50.5326E-03    -311.125E-03     601.277E-03    -289.853E-03     44.6307E-03
             240     13.4637E-03     10.8127E-03    -2.08148E+06     61.4930E+06     82.5553E+06    -274.291E+03    -302.784E-03     593.167E-03    -290.383E-03     49.0485E-03    -303.199E-03     593.554E-03    -290.056E-03     43.4590E-03
             241     13.4637E-03     12.5200E-03    -2.45745E+06     60.2587E+06     82.4514E+06    -270.805E+03    -296.346E-03     586.904E-03    -290.558E-03     48.7787E-03    -296.748E-03     587.273E-03    -290.230E-03     43.5284E-03
             242     13.4640E-03     14.2181E-03    -2.19083E+06     58.9132E+06     81.3257E+06    -148.916E+03    -291.683E-03     582.346E-03    -290.663E-03     48.2189E-03    -292.071E-03     582.700E-03    -290.339E-03     43.2097E-03
             243     13.4639E-03     15.9106E-03    -2.00793E+06     58.8001E+06     81.1794E+06     121.625E+03    -288.293E-03     579.045E-03    -290.752E-03     46.7515E-03    -288.671E-03     579.389E-03    -290.428E-03     41.8628E-03
             244     13.4635E-03     17.5979E-03    -2.43102E+06     58.8602E+06     81.4840E+06    -39.6797E+03    -285.622E-03     576.450E-03    -290.828E-03     46.2956E-03    -285.995E-03     576.787E-03    -290.502E-03     41.5792E-03
             245     13.4641E-03     19.2820E-03    -2.12341E+06     58.3086E+06     80.8742E+06    -90.3884E+03    -284.144E-03     575.002E-03    -290.858E-03     45.8564E-03    -284.508E-03     575.331E-03    -290.535E-03     41.2604E-03
             246     13.4637E-03     20.9650E-03    -2.00628E+06     58.2092E+06     80.6164E+06     92.5115E+03    -283.491E-03     574.371E-03    -290.880E-03     44.7551E-03    -283.851E-03     574.696E-03    -290.558E-03     40.1757E-03
             247     13.4636E-03     22.6474E-03    -2.29412E+06     58.4181E+06     80.6884E+06     63.2885E+03    -283.265E-03     574.158E-03    -290.893E-03     44.6953E-03    -283.622E-03     574.480E-03    -290.571E-03     40.2162E-03
             248     13.4638E-03     24.3301E-03    -2.09264E+06     58.4868E+06     80.7142E+06     16.9092E+03    -283.695E-03     574.574E-03    -290.879E-03     44.3526E-03    -284.048E-03     574.893E-03    -290.557E-03     39.9101E-03
             249     13.4636E-03     26.0142E-03    -2.00640E+06     58.7507E+06     80.7066E+06     130.953E+03    -284.389E-03     575.256E-03    -290.867E-03     43.7628E-03    -284.741E-03     575.575E-03    -290.546E-03     39.3131E-03
             250     13.4635E-03     27.6995E-03    -2.18074E+06     59.2348E+06     80.3375E+06     92.6407E+03    -285.091E-03     575.938E-03    -290.848E-03     43.8646E-03    -285.441E-03     576.258E-03    -290.529E-03     39.4654E-03
             251     13.4638E-03     29.3861E-03    -2.06082E+06     59.3026E+06     80.8443E+06    -21.0487E+03    -285.919E-03     576.736E-03    -290.817E-03     43.7589E-03    -286.268E-03     577.054E-03    -290.496E-03     39.3695E-03
             252     13.4638E-03     31.0742E-03    -2.02447E+06     59.4212E+06     81.1451E+06     109.040E+03    -286.692E-03     577.480E-03    -290.788E-03     43.4730E-03    -287.041E-03     577.798E-03    -290.466E-03     39.0736E-03
             253     13.4640E-03     32.7634E-03    -2.17582E+06     59.5114E+06     80.9349E+06    -58.6621E+03    -287.340E-03     578.101E-03    -290.761E-03     43.3949E-03    -287.689E-03     578.419E-03    -290.440E-03     38.9956E-03
             254     13.4641E-03     34.4537E-03    -2.00364E+06     58.7598E+06     81.1327E+06    -209.750E+03    -287.890E-03     578.631E-03    -290.740E-03     43.2372E-03    -288.238E-03     578.944E-03    -290.417E-03     38.8291E-03
             255     13.4642E-03     36.1448E-03    -1.96787E+06     58.7932E+06     80.7259E+06     232.279E+03    -288.340E-03     579.060E-03    -290.719E-03     43.1792E-03    -288.686E-03     579.373E-03    -290.398E-03     38.7876E-03
             256     13.4643E-03     37.8365E-03    -2.18318E+06     59.8837E+06     80.6476E+06     205.925E+03    -288.703E-03     579.407E-03    -290.704E-03     43.0299E-03    -289.051E-03     579.726E-03    -290.385E-03     38.6302E-03
             257     13.4642E-03     39.5287E-03    -2.08239E+06     60.1529E+06     81.2160E+06    -75.6173E+03    -288.974E-03     579.670E-03    -290.696E-03     43.0481E-03    -289.322E-03     579.989E-03    -290.374E-03     38.6439E-03
             258     13.4644E-03     41.2213E-03    -2.08877E+06     59.7236E+06     81.2037E+06    -73.4041E+03    -289.213E-03     579.896E-03    -290.683E-03     43.0902E-03    -289.561E-03     580.213E-03    -290.360E-03     38.6860E-03
             259     13.4645E-03     42.9143E-03    -2.04038E+06     59.5687E+06     81.1816E+06     29.9190E+03    -289.430E-03     580.101E-03    -290.671E-03     42.9548E-03    -289.777E-03     580.417E-03    -290.349E-03     38.5381E-03
             260     13.4645E-03     44.6076E-03    -2.13326E+06      59.795E+06     81.4502E+06     82.4679E+03    -289.600E-03     580.266E-03    -290.666E-03     42.9234E-03    -289.948E-03     580.583E-03    -290.343E-03     38.5091E-03
             261     13.4645E-03     46.3012E-03    -2.12095E+06     60.0179E+06     81.5435E+06     15.1743E+03    -289.742E-03     580.404E-03    -290.662E-03     42.9344E-03    -290.090E-03     580.721E-03    -290.338E-03     38.5229E-03
             262     13.4645E-03     47.9949E-03    -2.04668E+06     60.2496E+06     81.4707E+06     83.4678E+03    -289.845E-03     580.501E-03    -290.656E-03     42.9578E-03    -290.193E-03     580.820E-03    -290.333E-03     38.5415E-03
             263     13.4646E-03     49.6888E-03    -2.14046E+06     60.2642E+06     81.5097E+06    -40.9555E+03    -289.937E-03     580.587E-03    -290.650E-03     42.9743E-03    -290.286E-03     580.906E-03    -290.327E-03     38.5520E-03
             264     13.4646E-03     51.3829E-03    -2.04315E+06     59.8832E+06      81.606E+06    -88.0083E+03    -290.041E-03     580.687E-03    -290.646E-03     42.9407E-03    -290.389E-03     581.004E-03    -290.322E-03     38.5198E-03
             265     13.4646E-03     53.0772E-03    -2.09297E+06     59.9528E+06     81.6084E+06     107.702E+03    -290.110E-03     580.755E-03    -290.645E-03     42.9221E-03    -290.459E-03     581.072E-03    -290.321E-03     38.5012E-03
             266     13.4646E-03     54.7714E-03    -2.11696E+06     60.2598E+06     81.8332E+06     36.5705E+03    -290.159E-03     580.803E-03    -290.644E-03     42.9517E-03    -290.509E-03     581.122E-03    -290.319E-03     38.5225E-03
             267     13.4646E-03     56.4658E-03    -2.03692E+06     60.4183E+06     82.0095E+06     56.3179E+03    -290.217E-03     580.860E-03    -290.643E-03     42.9679E-03    -290.567E-03     581.180E-03    -290.317E-03     38.5381E-03
             268     13.4646E-03     58.1603E-03    -2.20806E+06     60.3516E+06      81.888E+06    -67.0083E+03    -290.256E-03     580.897E-03    -290.641E-03     42.9875E-03    -290.607E-03     581.216E-03    -290.316E-03     38.5566E-03
             269     13.4647E-03     59.8548E-03    -1.98322E+06     60.1282E+06     81.9532E+06    -2.92888E+03    -290.278E-03     580.917E-03    -290.639E-03     43.0063E-03    -290.627E-03     581.235E-03    -290.314E-03     38.5756E-03
             270     13.4647E-03     61.5494E-03    -2.18712E+06     60.1751E+06     81.6547E+06     34.6439E+03    -290.295E-03     580.931E-03    -290.636E-03     43.0110E-03    -290.645E-03     581.250E-03    -290.312E-03     38.5807E-03
             271     13.4647E-03     63.2439E-03    -2.05435E+06     60.0333E+06     82.0317E+06    -62.9689E+03    -290.331E-03     580.968E-03    -290.637E-03     43.0245E-03    -290.681E-03     581.286E-03    -290.310E-03     38.5894E-03
             272     13.4647E-03     64.9386E-03    -2.04215E+06     60.3123E+06     82.2229E+06     190.965E+03    -290.359E-03     580.994E-03    -290.636E-03     43.0359E-03    -290.709E-03     581.313E-03    -290.309E-03     38.6038E-03
             273     13.4647E-03     66.6333E-03    -2.26451E+06     60.8071E+06     81.9607E+06     37.4024E+03    -290.367E-03     581.000E-03    -290.633E-03     43.0547E-03    -290.719E-03     581.322E-03    -290.308E-03     38.6224E-03
             274     13.4647E-03     68.3280E-03    -2.05146E+06     60.7569E+06     82.0646E+06    -34.7134E+03    -290.351E-03     580.984E-03    -290.632E-03     43.0666E-03    -290.702E-03     581.305E-03    -290.307E-03     38.6324E-03
             275     13.4648E-03     70.0225E-03    -2.12804E+06     60.5138E+06     82.1346E+06    -52.5108E+03    -290.348E-03     580.980E-03    -290.632E-03     43.0551E-03    -290.699E-03     581.300E-03    -290.306E-03     38.6144E-03
             276     13.4647E-03     71.7172E-03    -2.01454E+06     60.2848E+06     82.4796E+06    -9.37464E+03    -290.387E-03     581.021E-03    -290.634E-03     43.0682E-03    -290.738E-03     581.340E-03    -290.306E-03     38.6245E-03
             277     13.4648E-03     73.4120E-03    -2.17748E+06     60.3580E+06     82.4012E+06     42.4519E+03    -290.390E-03     581.023E-03    -290.633E-03     43.0774E-03    -290.742E-03     581.343E-03    -290.306E-03     38.6355E-03
             278     13.4647E-03     75.1066E-03    -2.06079E+06     60.2986E+06     82.2445E+06    -49.0440E+03    -290.378E-03     581.010E-03    -290.632E-03     43.0898E-03    -290.729E-03     581.329E-03    -290.305E-03     38.6440E-03
             279     13.4648E-03     76.8013E-03    -2.21458E+06     59.5329E+06     82.1171E+06    -222.742E+03    -290.395E-03     581.026E-03    -290.631E-03     43.1442E-03    -290.746E-03     581.342E-03    -290.304E-03     38.6976E-03
             280     13.4648E-03     78.4961E-03    -2.06037E+06     58.4204E+06     82.5025E+06    -204.065E+03    -290.418E-03     581.049E-03    -290.631E-03     43.1713E-03    -290.767E-03     581.359E-03    -290.300E-03     38.7277E-03
             281     13.4649E-03     80.1908E-03    -1.99040E+06     58.8285E+06     82.6915E+06     356.757E+03    -290.387E-03     581.013E-03    -290.627E-03     43.1874E-03    -290.736E-03     581.325E-03    -290.296E-03     38.7480E-03
             282     13.4649E-03     81.8854E-03    -2.33006E+06     59.7563E+06     82.5199E+06     66.2335E+03    -290.386E-03     581.007E-03    -290.621E-03     43.1542E-03    -290.738E-03     581.324E-03    -290.292E-03     38.7073E-03
             283     13.4649E-03     83.5801E-03    -2.02015E+06     59.5120E+06     83.0016E+06    -128.966E+03    -290.414E-03     581.036E-03    -290.622E-03     43.1273E-03    -290.765E-03     581.351E-03    -290.290E-03     38.6782E-03
             284     13.4649E-03     85.2748E-03    -2.04424E+06     60.2660E+06     83.5368E+06     436.461E+03    -290.294E-03     580.918E-03    -290.623E-03     43.2212E-03    -290.648E-03     581.235E-03    -290.290E-03     38.7832E-03
             285     13.4651E-03     86.9693E-03    -2.31843E+06     61.8021E+06     83.6097E+06     234.736E+03    -290.217E-03     580.835E-03    -290.618E-03     43.3176E-03    -290.575E-03     581.161E-03    -290.286E-03     38.8643E-03
             286     13.4650E-03     88.6635E-03    -2.17696E+06     61.6532E+06     83.7533E+06    -250.675E+03    -290.382E-03     580.998E-03    -290.616E-03     43.1017E-03    -290.739E-03     581.323E-03    -290.284E-03     38.6340E-03
             287     13.4649E-03     90.3583E-03    -1.88202E+06     61.3716E+06     84.4456E+06     131.908E+03    -290.438E-03     581.061E-03    -290.623E-03     42.9272E-03    -290.793E-03     581.382E-03    -290.287E-03     38.4759E-03
             288     13.4650E-03     92.0531E-03    -2.43076E+06     62.1268E+06     84.4518E+06     186.864E+03    -290.340E-03     580.963E-03    -290.623E-03     43.1828E-03    -290.699E-03     581.289E-03    -290.287E-03     38.7531E-03
             289     13.4651E-03     93.7477E-03    -2.16977E+06     61.9878E+06     84.7114E+06    -177.776E+03    -290.449E-03     581.071E-03    -290.622E-03     43.1157E-03    -290.806E-03     581.395E-03    -290.285E-03     38.6756E-03
             290     13.4647E-03     95.4428E-03    -1.89992E+06     62.5890E+06     85.6748E+06     376.388E+03    -290.455E-03     581.092E-03    -290.637E-03     42.8354E-03    -290.813E-03     581.417E-03    -290.297E-03     38.3909E-03
             291     13.4647E-03     97.1373E-03    -2.54524E+06     64.0962E+06     85.6984E+06     209.368E+03    -290.249E-03     580.890E-03    -290.641E-03     43.3343E-03    -290.613E-03     581.223E-03    -290.302E-03     38.9363E-03
             292     672.956E-06     99.4224E-03    -104.381E+06    -204.768E+06    -103.005E+06     222.406E+03    -290.660E-03     581.296E-03    -290.636E-03     3.80723E-03    -290.735E-03     580.572E-03    -290.703E-03     3.99951E-03
             293     1.34591E-03     99.4326E-03    -102.405E+06    -199.449E+06    -97.1858E+06     389.925E+03    -290.639E-03     581.301E-03    -290.662E-03     7.00065E-03    -290.721E-03     580.593E-03    -290.710E-03     7.33837E-03
             294     2.01889E-03     99.4491E-03    -99.4222E+06    -185.511E+06     -89.157E+06     606.368E+03    -290.614E-03     581.280E-03    -290.666E-03     10.3774E-03    -290.713E-03     580.626E-03    -290.699E-03     10.8416E-03
             295     2.69191E-03     99.4721E-03    -95.5767E+06    -167.562E+06    -78.4397E+06     917.436E+03    -290.585E-03     581.256E-03    -290.671E-03     13.7799E-03    -290.707E-03     580.671E-03    -290.682E-03     14.3294E-03
             296     3.36496E-03     99.5015E-03    -90.8399E+06    -150.964E+06    -65.0594E+06     1.24974E+06    -290.569E-03     581.256E-03    -290.687E-03     17.1961E-03    -290.712E-03     580.729E-03    -290.661E-03     17.7723E-03
             297     4.03804E-03     99.5370E-03    -85.3906E+06    -131.336E+06    -50.8510E+06     1.57885E+06    -290.554E-03     581.253E-03    -290.699E-03     20.6277E-03    -290.720E-03     580.797E-03    -290.639E-03     21.1598E-03
             298     4.71116E-03     99.5787E-03    -79.4858E+06    -109.287E+06    -36.2776E+06     1.94208E+06    -290.543E-03     581.250E-03    -290.707E-03     24.0574E-03    -290.735E-03     580.878E-03    -290.615E-03     24.4637E-03
             299     5.38431E-03     99.6263E-03    -73.2129E+06    -84.0046E+06    -21.7101E+06     2.34579E+06    -290.530E-03     581.239E-03    -290.709E-03     27.4980E-03    -290.754E-03     580.968E-03    -290.590E-03     27.6861E-03
             300     6.05752E-03     99.6798E-03    -66.6239E+06    -54.4594E+06    -7.20856E+06     2.76346E+06    -290.508E-03     581.210E-03    -290.702E-03     30.9573E-03    -290.771E-03     581.064E-03    -290.562E-03     30.8259E-03
             301     6.73077E-03     99.7389E-03    -59.8329E+06    -20.1041E+06     7.41262E+06     3.27931E+06    -290.473E-03     581.158E-03    -290.685E-03     34.4035E-03    -290.784E-03     581.164E-03    -290.532E-03     33.8492E-03
             302     7.40407E-03     99.8034E-03    -53.0265E+06     6.31976E+06     20.7810E+06     3.65908E+06    -290.467E-03     581.140E-03    -290.673E-03     37.8158E-03    -290.818E-03     581.264E-03    -290.501E-03     36.7370E-03
             303     8.07740E-03     99.8730E-03    -46.4934E+06     16.0259E+06     32.4378E+06     3.42075E+06    -290.515E-03     581.192E-03    -290.677E-03     41.2414E-03    -290.885E-03     581.360E-03    -290.471E-03     39.5299E-03
             304     8.75072E-03     99.9475E-03    -40.2790E+06     26.9715E+06     44.2018E+06     2.72282E+06    -290.539E-03     581.221E-03    -290.682E-03     44.6571E-03    -290.937E-03     581.444E-03    -290.442E-03     42.2050E-03
             305     9.42417E-03     100.027E-03    -34.0016E+06     37.6757E+06     56.8077E+06     2.07906E+06    -290.531E-03     581.222E-03    -290.691E-03     47.8584E-03    -290.965E-03     581.504E-03    -290.412E-03     44.5988E-03
             306     10.0977E-03     100.109E-03    -27.6267E+06     42.9424E+06     69.6162E+06     1.51480E+06    -290.510E-03     581.218E-03    -290.708E-03     50.5312E-03    -290.974E-03     581.534E-03    -290.382E-03     46.4537E-03
             307     10.7713E-03     100.195E-03    -21.4561E+06     47.8873E+06     79.2046E+06     1.15577E+06    -290.491E-03     581.200E-03    -290.709E-03     52.4326E-03    -290.978E-03     581.551E-03    -290.351E-03     47.6022E-03
             308     11.4449E-03     100.281E-03    -15.4909E+06     51.3558E+06     84.2675E+06     920.646E+03    -290.466E-03     581.157E-03    -290.691E-03     53.2071E-03    -290.959E-03     581.533E-03    -290.322E-03     47.8023E-03
             309     12.1183E-03     100.368E-03    -9.77177E+06     59.1798E+06     86.7730E+06     448.230E+03    -290.434E-03     581.090E-03    -290.657E-03     54.0663E-03    -290.944E-03     581.524E-03    -290.295E-03     47.9878E-03
             310     12.7919E-03     100.456E-03    -4.56129E+06     64.2775E+06     86.9211E+06     175.646E+03    -290.345E-03     580.963E-03    -290.618E-03     49.0874E-03    -290.790E-03     581.369E-03    -290.270E-03     43.6051E-03
             311     672.943E-06     101.117E-03    -104.807E+06    -205.576E+06    -103.464E+06     82.5352E+03    -290.673E-03     581.322E-03    -290.649E-03     3.81013E-03    -290.748E-03     580.596E-03    -290.716E-03     4.00046E-03
             312     1.34590E-03     101.127E-03    -102.728E+06    -200.434E+06    -97.5912E+06     259.309E+03    -290.651E-03     581.326E-03    -290.675E-03     7.00218E-03    -290.733E-03     580.614E-03    -290.723E-03     7.33877E-03
             313     2.01887E-03     101.144E-03    -99.6358E+06    -186.832E+06    -89.3910E+06     549.379E+03    -290.626E-03     581.306E-03    -290.679E-03     10.3814E-03    -290.724E-03     580.645E-03    -290.711E-03     10.8456E-03
             314     2.69187E-03     101.167E-03    -95.7691E+06    -169.237E+06    -78.5988E+06     946.437E+03    -290.597E-03     581.281E-03    -290.685E-03     13.7857E-03    -290.717E-03     580.688E-03    -290.693E-03     14.3375E-03
             315     3.36491E-03     101.196E-03    -91.1406E+06    -152.721E+06    -65.2851E+06     1.41440E+06    -290.579E-03     581.278E-03    -290.700E-03     17.2038E-03    -290.719E-03     580.743E-03    -290.673E-03     17.7854E-03
             316     4.03798E-03     101.232E-03    -85.8352E+06    -133.010E+06    -51.1239E+06     1.83496E+06    -290.562E-03     581.273E-03    -290.711E-03     20.6430E-03    -290.727E-03     580.810E-03    -290.650E-03     21.1827E-03
             317     4.71109E-03     101.273E-03    -79.9771E+06    -110.917E+06    -36.5732E+06     2.14451E+06    -290.548E-03     581.267E-03    -290.719E-03     24.0922E-03    -290.740E-03     580.887E-03    -290.625E-03     24.5063E-03
             318     5.38424E-03     101.321E-03    -73.7472E+06    -85.7627E+06    -22.0494E+06     2.43531E+06    -290.529E-03     581.248E-03    -290.719E-03     27.5583E-03    -290.753E-03     580.970E-03    -290.598E-03     27.7537E-03
             319     6.05744E-03     101.374E-03    -67.3435E+06    -56.3092E+06    -7.69882E+06     2.77664E+06    -290.498E-03     581.207E-03    -290.710E-03     31.0465E-03    -290.761E-03     581.054E-03    -290.569E-03     30.9232E-03
             320     6.73071E-03     101.434E-03    -60.7962E+06    -22.3292E+06     6.69702E+06     3.17757E+06    -290.449E-03     581.139E-03    -290.690E-03     34.5246E-03    -290.760E-03     581.136E-03    -290.536E-03     33.9794E-03
             321     7.40405E-03     101.498E-03    -54.0759E+06     5.13454E+06     19.9442E+06     3.41021E+06    -290.418E-03     581.090E-03    -290.672E-03     37.9628E-03    -290.771E-03     581.211E-03    -290.501E-03     36.8914E-03
             322     8.07746E-03     101.568E-03    -47.2389E+06     16.3409E+06     31.6678E+06     3.29607E+06    -290.438E-03     581.107E-03    -290.668E-03     41.3854E-03    -290.811E-03     581.278E-03    -290.465E-03     39.6813E-03
             323     8.75094E-03     101.642E-03    -40.4952E+06     27.7525E+06     43.8403E+06     3.01137E+06    -290.452E-03     581.120E-03    -290.668E-03     44.7623E-03    -290.852E-03     581.347E-03    -290.430E-03     42.3192E-03
             324     9.42442E-03     101.721E-03    -34.0999E+06     38.7534E+06     57.0086E+06     2.52095E+06    -290.464E-03     581.138E-03    -290.674E-03     47.8764E-03    -290.900E-03     581.426E-03    -290.396E-03     44.6167E-03
             325     10.0979E-03     101.804E-03    -27.8893E+06     43.7135E+06     69.9474E+06     2.07249E+06    -290.496E-03     581.187E-03    -290.691E-03     50.4222E-03    -290.963E-03     581.507E-03    -290.364E-03     46.3333E-03
             326     10.7714E-03     101.889E-03    -21.6140E+06     48.6919E+06      79.479E+06     1.58166E+06    -290.528E-03     581.222E-03    -290.694E-03     52.2672E-03    -291.017E-03     581.577E-03    -290.336E-03     47.4204E-03
             327     11.4448E-03     101.976E-03    -15.3824E+06     53.0686E+06     85.0727E+06     602.338E+03    -290.508E-03     581.190E-03    -290.681E-03     53.0885E-03    -291.006E-03     581.574E-03    -290.311E-03     47.6349E-03
             328     12.1184E-03     102.062E-03    -9.58298E+06     59.4256E+06     87.6258E+06     145.153E+03    -290.468E-03     581.121E-03    -290.652E-03     54.0215E-03    -290.979E-03     581.555E-03    -290.287E-03     47.9204E-03
             329     12.7919E-03     102.150E-03    -4.56094E+06     64.0297E+06     87.2306E+06     359.719E+03    -290.393E-03     581.007E-03    -290.615E-03     49.0007E-03    -290.837E-03     581.410E-03    -290.265E-03     43.5392E-03
             330     672.934E-06     102.812E-03    -105.237E+06    -205.785E+06    -103.853E+06    -30.3109E+03    -290.679E-03     581.335E-03    -290.656E-03     3.82076E-03    -290.756E-03     580.609E-03    -290.724E-03     4.01043E-03
             331     1.34588E-03     102.822E-03    -103.196E+06    -200.977E+06    -98.0354E+06    -45.3089E+03    -290.655E-03     581.336E-03    -290.681E-03     7.02174E-03    -290.737E-03     580.623E-03    -290.730E-03     7.35557E-03
             332     2.01884E-03     102.838E-03    -100.112E+06    -188.618E+06    -89.8409E+06     367.493E+03    -290.630E-03     581.316E-03    -290.686E-03     10.4083E-03    -290.726E-03     580.648E-03    -290.717E-03     10.8728E-03
             333     2.69185E-03     102.861E-03    -96.2891E+06    -171.612E+06    -78.9576E+06     1.16726E+06    -290.598E-03     581.290E-03    -290.692E-03     13.8176E-03    -290.717E-03     580.686E-03    -290.698E-03     14.3774E-03
             334     3.36489E-03     102.891E-03    -91.6329E+06    -154.554E+06    -65.5382E+06     1.71371E+06    -290.575E-03     581.280E-03    -290.705E-03     17.2471E-03    -290.715E-03     580.737E-03    -290.676E-03     17.8394E-03
             335     4.03797E-03     102.926E-03    -86.1419E+06    -134.733E+06    -51.3309E+06     2.00243E+06    -290.551E-03     581.266E-03    -290.714E-03     20.7069E-03    -290.715E-03     580.794E-03    -290.651E-03     21.2560E-03
             336     4.71109E-03     102.968E-03    -80.1683E+06    -112.637E+06    -36.8124E+06     2.35702E+06    -290.527E-03     581.245E-03    -290.719E-03     24.1779E-03    -290.717E-03     580.858E-03    -290.623E-03     24.6026E-03
             337     5.38427E-03     103.016E-03    -73.9591E+06    -87.5371E+06    -22.2452E+06     2.75637E+06    -290.501E-03     581.217E-03    -290.716E-03     27.6615E-03    -290.723E-03     580.930E-03    -290.593E-03     27.8690E-03
             338     6.05751E-03     103.069E-03    -67.5767E+06    -58.2860E+06    -7.79586E+06     3.20876E+06    -290.466E-03     581.170E-03    -290.704E-03     31.1577E-03    -290.727E-03     581.006E-03    -290.560E-03     31.0466E-03
             339     6.73081E-03     103.128E-03    -61.1095E+06    -24.2613E+06     6.62754E+06     3.65418E+06    -290.414E-03     581.095E-03    -290.682E-03     34.6272E-03    -290.724E-03     581.083E-03    -290.525E-03     34.0914E-03
             340     7.40420E-03     103.193E-03    -54.6312E+06     4.69612E+06     19.9749E+06     3.65183E+06    -290.381E-03     581.041E-03    -290.659E-03     38.0328E-03    -290.736E-03     581.160E-03    -290.487E-03     36.9621E-03
             341     8.07762E-03     103.262E-03    -48.1138E+06     17.1929E+06     31.5381E+06     2.93641E+06    -290.410E-03     581.063E-03    -290.653E-03     41.4008E-03    -290.788E-03     581.240E-03    -290.450E-03     39.6816E-03
             342     8.75104E-03     103.336E-03    -41.4664E+06     27.4409E+06     43.0082E+06     2.44340E+06    -290.446E-03     581.097E-03    -290.650E-03     44.7073E-03    -290.850E-03     581.326E-03    -290.415E-03     42.2412E-03
             343     9.42455E-03     103.415E-03    -34.7167E+06     38.7895E+06     56.1686E+06     2.57427E+06    -290.482E-03     581.140E-03    -290.658E-03     47.7753E-03    -290.921E-03     581.430E-03    -290.383E-03     44.5054E-03
             344     10.0980E-03     103.498E-03    -28.0518E+06     44.3650E+06     69.8027E+06     2.36968E+06    -290.538E-03     581.218E-03    -290.680E-03     50.3498E-03    -291.006E-03     581.541E-03    -290.354E-03     46.2635E-03
             345     10.7715E-03     103.584E-03    -21.5981E+06     50.5562E+06     80.2809E+06     1.56532E+06    -290.591E-03     581.281E-03    -290.690E-03     52.2150E-03    -291.084E-03     581.644E-03    -290.330E-03     47.3728E-03
             346     11.4450E-03     103.670E-03    -15.6034E+06     55.4388E+06     85.9096E+06     650.059E+03    -290.587E-03     581.269E-03    -290.682E-03     52.9062E-03    -291.092E-03     581.666E-03    -290.310E-03     47.4016E-03
             347     12.1185E-03     103.757E-03    -10.1393E+06     58.9204E+06     87.5063E+06     265.613E+03    -290.558E-03     581.216E-03    -290.659E-03     53.6945E-03    -291.072E-03     581.650E-03    -290.292E-03     47.5359E-03
             348     12.7920E-03     103.845E-03    -4.86111E+06     63.8237E+06     87.4659E+06     227.439E+03    -290.450E-03     581.077E-03    -290.627E-03     48.7084E-03    -290.895E-03     581.478E-03    -290.275E-03     43.2435E-03
             349     672.940E-06     104.506E-03    -105.273E+06    -205.811E+06    -103.854E+06     20.4200E+03    -290.670E-03     581.313E-03    -290.644E-03     3.83689E-03    -290.747E-03     580.587E-03    -290.712E-03     4.02915E-03
             350     1.34590E-03     104.517E-03    -103.251E+06    -200.788E+06    -97.7877E+06    -90.8491E+03    -290.644E-03     581.315E-03    -290.671E-03     7.05730E-03    -290.727E-03     580.602E-03    -290.719E-03     7.39271E-03
             351     2.01887E-03     104.533E-03    -100.084E+06    -191.017E+06    -88.9831E+06     330.202E+03    -290.625E-03     581.309E-03    -290.684E-03     10.4512E-03    -290.719E-03     580.628E-03    -290.706E-03     10.9171E-03
             352     2.69188E-03     104.556E-03    -95.9832E+06    -174.667E+06    -78.2940E+06     1.25195E+06    -290.592E-03     581.280E-03    -290.689E-03     13.8643E-03    -290.705E-03     580.660E-03    -290.688E-03     14.4281E-03
             353     3.36493E-03     104.585E-03    -91.1192E+06    -156.094E+06    -65.4820E+06     1.75773E+06    -290.557E-03     581.253E-03    -290.695E-03     17.3046E-03    -290.693E-03     580.700E-03    -290.664E-03     17.9015E-03
             354     4.03803E-03     104.621E-03    -85.7181E+06    -136.742E+06    -51.2543E+06     2.13480E+06    -290.528E-03     581.231E-03    -290.703E-03     20.7698E-03    -290.687E-03     580.749E-03    -290.637E-03     21.3242E-03
             355     4.71119E-03     104.663E-03    -79.8777E+06    -114.637E+06    -36.6484E+06     2.61579E+06    -290.501E-03     581.207E-03    -290.705E-03     24.2366E-03    -290.687E-03     580.809E-03    -290.607E-03     24.6667E-03
             356     5.38440E-03     104.710E-03    -73.6398E+06    -89.5284E+06    -21.9920E+06     3.03428E+06    -290.477E-03     581.179E-03    -290.701E-03     27.7049E-03    -290.695E-03     580.881E-03    -290.575E-03     27.9157E-03
             357     6.05765E-03     104.764E-03    -67.1261E+06    -60.5585E+06    -7.42731E+06     3.50182E+06    -290.451E-03     581.140E-03    -290.689E-03     31.1716E-03    -290.707E-03     580.964E-03    -290.541E-03     31.0611E-03
             358     6.73097E-03     104.823E-03    -60.5000E+06    -26.9586E+06     7.15589E+06     4.24339E+06    -290.415E-03     581.083E-03    -290.669E-03     34.6001E-03    -290.719E-03     581.056E-03    -290.506E-03     34.0661E-03
             359     7.40434E-03     104.887E-03    -53.9933E+06     4.40741E+06     20.8000E+06     4.63385E+06    -290.393E-03     581.040E-03    -290.647E-03     37.9666E-03    -290.746E-03     581.156E-03    -290.471E-03     36.9011E-03
             360     8.07774E-03     104.957E-03    -47.7019E+06     19.8956E+06     32.5756E+06     3.71384E+06    -290.438E-03     581.078E-03    -290.640E-03     41.3191E-03    -290.820E-03     581.266E-03    -290.437E-03     39.6000E-03
             361     8.75116E-03     105.031E-03    -41.4734E+06     27.8321E+06     43.5254E+06     2.50157E+06    -290.512E-03     581.156E-03    -290.644E-03     44.6259E-03    -290.917E-03     581.387E-03    -290.407E-03     42.1476E-03
             362     9.42455E-03     105.110E-03    -35.0723E+06     37.9067E+06     55.9369E+06     2.11387E+06    -290.557E-03     581.213E-03    -290.656E-03     47.6661E-03    -290.996E-03     581.500E-03    -290.381E-03     44.3735E-03
             363     10.0981E-03     105.193E-03    -28.4117E+06     45.0005E+06     69.4616E+06     1.97602E+06    -290.581E-03     581.262E-03    -290.680E-03     50.1744E-03    -291.052E-03     581.590E-03    -290.357E-03     46.0652E-03
             364     10.7715E-03     105.278E-03    -21.7324E+06     52.4091E+06     80.7674E+06     1.46591E+06    -290.609E-03     581.304E-03    -290.695E-03     52.0529E-03    -291.106E-03     581.675E-03    -290.335E-03     47.2137E-03
             365     11.4447E-03     105.365E-03    -15.4074E+06     56.6051E+06     86.6421E+06     1.02351E+06    -290.620E-03     581.311E-03    -290.690E-03     52.8896E-03    -291.127E-03     581.713E-03    -290.317E-03     47.3815E-03
             366     12.1179E-03     105.451E-03    -9.67522E+06     59.2890E+06     88.1788E+06     607.654E+03    -290.541E-03     581.209E-03    -290.668E-03     53.9340E-03    -291.057E-03     581.645E-03    -290.299E-03     47.7561E-03
             367     12.7913E-03     105.539E-03    -4.63431E+06     64.5438E+06     88.2375E+06     24.5427E+03    -290.221E-03     580.849E-03    -290.628E-03     49.3059E-03    -290.668E-03     581.253E-03    -290.274E-03     43.8630E-03
             368     672.967E-06     106.201E-03    -105.548E+06    -206.390E+06    -104.048E+06     212.681E+03    -290.642E-03     581.256E-03    -290.614E-03     3.84185E-03    -290.720E-03     580.528E-03    -290.681E-03     4.03811E-03
             369     1.34594E-03     106.211E-03    -103.566E+06    -200.796E+06    -97.8883E+06     276.517E+03    -290.618E-03     581.261E-03    -290.644E-03     7.06628E-03    -290.702E-03     580.549E-03    -290.692E-03     7.40884E-03
             370     2.01893E-03     106.228E-03    -100.312E+06    -192.744E+06    -88.6748E+06     377.579E+03    -290.605E-03     581.267E-03    -290.662E-03     10.4717E-03    -290.698E-03     580.577E-03    -290.680E-03     10.9389E-03
             371     2.69194E-03     106.251E-03    -96.0355E+06    -177.645E+06    -78.0210E+06     920.511E+03    -290.574E-03     581.243E-03    -290.670E-03     13.8986E-03    -290.683E-03     580.608E-03    -290.663E-03     14.4566E-03
             372     3.36502E-03     106.280E-03    -91.1990E+06    -158.308E+06    -65.6034E+06     1.75693E+06    -290.537E-03     581.211E-03    -290.673E-03     17.3293E-03    -290.670E-03     580.648E-03    -290.640E-03     17.9255E-03
             373     4.03815E-03     106.315E-03    -85.8048E+06    -138.837E+06    -51.2725E+06     2.30632E+06    -290.513E-03     581.195E-03    -290.682E-03     20.7767E-03    -290.669E-03     580.702E-03    -290.613E-03     21.3316E-03
             374     4.71131E-03     106.357E-03    -79.7933E+06    -116.647E+06    -36.5225E+06     2.64535E+06    -290.494E-03     581.180E-03    -290.686E-03     24.2318E-03    -290.676E-03     580.771E-03    -290.584E-03     24.6581E-03
             375     5.38452E-03     106.405E-03    -73.4387E+06    -91.8284E+06    -21.8299E+06     3.12302E+06    -290.481E-03     581.166E-03    -290.685E-03     27.6841E-03    -290.695E-03     580.856E-03    -290.554E-03     27.8905E-03
             376     6.05777E-03     106.458E-03    -67.0023E+06    -63.1797E+06    -7.31641E+06     3.77602E+06    -290.468E-03     581.144E-03    -290.676E-03     31.1281E-03    -290.720E-03     580.955E-03    -290.524E-03     31.0158E-03
             377     6.73105E-03     106.517E-03    -60.4638E+06    -30.3994E+06     7.10870E+06     4.56560E+06    -290.447E-03     581.107E-03    -290.660E-03     34.5377E-03    -290.746E-03     581.063E-03    -290.493E-03     34.0034E-03
             378     7.40440E-03     106.582E-03    -53.7090E+06     3.18085E+06     20.9102E+06     5.08607E+06    -290.428E-03     581.067E-03    -290.639E-03     37.8930E-03    -290.778E-03     581.177E-03    -290.461E-03     36.8298E-03
             379     8.07778E-03     106.651E-03    -47.1004E+06     22.0353E+06     33.0332E+06     4.80594E+06    -290.468E-03     581.101E-03    -290.633E-03     41.2460E-03    -290.851E-03     581.299E-03    -290.431E-03     39.5402E-03
             380     8.75113E-03     106.726E-03    -40.9278E+06     30.2188E+06     44.0839E+06     3.65445E+06    -290.543E-03     581.183E-03    -290.640E-03     44.6013E-03    -290.950E-03     581.424E-03    -290.404E-03     42.1405E-03
             381     9.42448E-03     106.805E-03    -34.7833E+06     38.6552E+06     56.4138E+06     2.40571E+06    -290.582E-03     581.239E-03    -290.657E-03     47.7629E-03    -291.021E-03     581.528E-03    -290.380E-03     44.4798E-03
             382     10.0977E-03     106.887E-03    -28.3526E+06     45.4636E+06     69.7996E+06     1.67160E+06    -290.553E-03     581.233E-03    -290.680E-03     50.4509E-03    -291.024E-03     581.563E-03    -290.356E-03     46.3512E-03
             383     10.7711E-03     106.973E-03    -21.8721E+06     53.2177E+06     80.9868E+06     1.28991E+06    -290.418E-03     581.104E-03    -290.686E-03     52.5589E-03    -290.917E-03     581.479E-03    -290.327E-03     47.7530E-03
             384     11.4448E-03     107.060E-03    -15.6729E+06     57.1615E+06     87.2340E+06     1.04555E+06    -290.275E-03     580.942E-03    -290.667E-03     53.7309E-03    -290.783E-03     581.344E-03    -290.291E-03     48.3291E-03
             385     12.1185E-03     107.146E-03    -9.92682E+06     60.8996E+06     89.2476E+06     515.153E+03    -290.170E-03     580.794E-03    -290.624E-03     55.0597E-03    -290.691E-03     581.237E-03    -290.252E-03     48.9649E-03
             386     12.7925E-03     107.233E-03    -4.70960E+06     65.2385E+06     88.8167E+06     71.0210E+03    -289.891E-03     580.456E-03    -290.565E-03     50.4315E-03    -290.343E-03     580.865E-03    -290.209E-03     45.0101E-03
             387     672.989E-06     107.895E-03    -106.203E+06    -207.899E+06    -104.825E+06     427.375E+03    -290.611E-03     581.194E-03    -290.584E-03     3.83291E-03    -290.688E-03     580.461E-03    -290.652E-03     4.03282E-03
             388     1.34598E-03     107.906E-03    -104.253E+06    -201.589E+06    -99.0025E+06     610.287E+03    -290.584E-03     581.193E-03    -290.609E-03     7.05838E-03    -290.670E-03     580.480E-03    -290.661E-03     7.40677E-03
             389     2.01900E-03     107.922E-03    -101.093E+06    -192.878E+06    -89.7131E+06     419.029E+03    -290.571E-03     581.198E-03    -290.627E-03     10.4658E-03    -290.667E-03     580.510E-03    -290.649E-03     10.9345E-03
             390     2.69205E-03     107.945E-03    -96.8546E+06    -180.262E+06    -78.0548E+06     653.198E+03    -290.555E-03     581.199E-03    -290.644E-03     13.8899E-03    -290.665E-03     580.552E-03    -290.633E-03     14.4422E-03
             391     3.36513E-03     107.974E-03    -91.7228E+06    -161.494E+06    -65.3109E+06     1.54792E+06    -290.528E-03     581.182E-03    -290.653E-03     17.3112E-03    -290.659E-03     580.603E-03    -290.613E-03     17.9021E-03
             392     4.03824E-03     108.010E-03    -86.0092E+06    -140.487E+06    -51.4690E+06     2.10237E+06    -290.505E-03     581.165E-03    -290.660E-03     20.7586E-03    -290.660E-03     580.665E-03    -290.589E-03     21.3103E-03
             393     4.71140E-03     108.052E-03    -79.9876E+06    -118.980E+06    -36.8855E+06     2.55018E+06    -290.495E-03     581.162E-03    -290.667E-03     24.2216E-03    -290.675E-03     580.743E-03    -290.563E-03     24.6473E-03
             394     5.38460E-03     108.099E-03    -73.7430E+06    -94.4478E+06    -22.2715E+06     3.21329E+06    -290.490E-03     581.158E-03    -290.669E-03     27.6864E-03    -290.700E-03     580.836E-03    -290.536E-03     27.8969E-03
             395     6.05783E-03     108.153E-03    -67.2384E+06    -66.2810E+06    -7.80813E+06     3.95505E+06    -290.479E-03     581.142E-03    -290.663E-03     31.1528E-03    -290.727E-03     580.938E-03    -290.508E-03     31.0502E-03
             396     6.73110E-03     108.212E-03    -60.6195E+06    -33.9692E+06     6.58887E+06     4.87222E+06    -290.455E-03     581.104E-03    -290.649E-03     34.6068E-03    -290.748E-03     581.043E-03    -290.479E-03     34.0903E-03
             397     7.40441E-03     108.276E-03    -54.0779E+06     1.71147E+06     20.5990E+06     5.33343E+06    -290.413E-03     581.040E-03    -290.627E-03     38.0377E-03    -290.762E-03     581.143E-03    -290.448E-03     36.9986E-03
             398     8.07777E-03     108.346E-03    -47.4364E+06     22.4242E+06     32.7719E+06     5.07314E+06    -290.412E-03     581.027E-03    -290.615E-03     41.5022E-03    -290.796E-03     581.227E-03    -290.415E-03     39.8301E-03
             399     8.75117E-03     108.420E-03    -40.7876E+06     32.5071E+06     43.9913E+06     4.38485E+06    -290.417E-03     581.031E-03    -290.614E-03     45.0073E-03    -290.826E-03     581.283E-03    -290.382E-03     42.6001E-03
             400     9.42463E-03     108.499E-03    -34.4239E+06     41.4118E+06     56.5292E+06     3.10661E+06    -290.371E-03     580.990E-03    -290.618E-03     48.3655E-03    -290.812E-03     581.291E-03    -290.346E-03     45.1486E-03
             401     10.0983E-03     108.582E-03    -28.0687E+06     47.1881E+06     70.3779E+06     1.74319E+06    -290.264E-03     580.893E-03    -290.629E-03     51.2602E-03    -290.737E-03     581.230E-03    -290.305E-03     47.2186E-03
             402     10.7720E-03     108.667E-03    -21.5695E+06     53.3624E+06     81.7280E+06     1.16020E+06    -290.089E-03     580.708E-03    -290.620E-03     53.4231E-03    -290.589E-03     581.084E-03    -290.257E-03     48.6375E-03
             403     11.4460E-03     108.753E-03    -15.2545E+06     57.4472E+06     88.2047E+06     1.00819E+06    -289.916E-03     580.499E-03    -290.583E-03     54.4185E-03    -290.424E-03     580.902E-03    -290.203E-03     49.0619E-03
             404     12.1202E-03     108.839E-03    -9.49242E+06     62.3641E+06     90.4973E+06     824.937E+03    -289.872E-03     580.397E-03    -290.525E-03     55.3629E-03    -290.395E-03     580.845E-03    -290.149E-03     49.3091E-03
             405     12.7942E-03     108.926E-03    -4.49148E+06     65.5923E+06     89.1218E+06     553.735E+03    -289.815E-03     580.273E-03    -290.458E-03     50.3543E-03    -290.269E-03     580.686E-03    -290.101E-03     44.8827E-03
             406     672.999E-06     109.590E-03    -107.039E+06    -209.768E+06    -105.752E+06     358.049E+03    -290.577E-03     581.133E-03    -290.555E-03     3.84011E-03    -290.655E-03     580.392E-03    -290.625E-03     4.03934E-03
             407     1.34602E-03     109.600E-03    -105.056E+06    -202.821E+06    -99.9445E+06     605.196E+03    -290.551E-03     581.127E-03    -290.577E-03     7.06158E-03    -290.637E-03     580.410E-03    -290.630E-03     7.41128E-03
             408     2.01906E-03     109.617E-03    -101.957E+06    -192.861E+06    -90.5866E+06     662.413E+03    -290.537E-03     581.129E-03    -290.592E-03     10.4612E-03    -290.636E-03     580.444E-03    -290.618E-03     10.9372E-03
             409     2.69211E-03     109.639E-03    -97.7734E+06    -181.792E+06    -78.6223E+06     661.890E+03    -290.528E-03     581.142E-03    -290.615E-03     13.8986E-03    -290.639E-03     580.489E-03    -290.602E-03     14.4556E-03
             410     3.36519E-03     109.669E-03    -92.6759E+06    -164.389E+06    -65.9314E+06     1.07122E+06    -290.505E-03     581.132E-03    -290.626E-03     17.3493E-03    -290.636E-03     580.541E-03    -290.583E-03     17.9392E-03
             411     4.03833E-03     109.704E-03    -87.0742E+06    -142.745E+06    -52.3854E+06     1.87499E+06    -290.480E-03     581.112E-03    -290.631E-03     20.8209E-03    -290.635E-03     580.603E-03    -290.560E-03     21.3796E-03
             412     4.71150E-03     109.746E-03    -81.0729E+06    -121.201E+06    -37.7443E+06     2.44318E+06    -290.466E-03     581.105E-03    -290.639E-03     24.3191E-03    -290.647E-03     580.677E-03    -290.534E-03     24.7581E-03
             413     5.38471E-03     109.794E-03    -74.5469E+06    -96.8782E+06    -23.0729E+06     2.81105E+06    -290.449E-03     581.088E-03    -290.639E-03     27.8398E-03    -290.658E-03     580.756E-03    -290.506E-03     28.0648E-03
             414     6.05797E-03     109.847E-03    -67.6989E+06    -69.5161E+06    -8.58037E+06     3.44841E+06    -290.417E-03     581.048E-03    -290.631E-03     31.3778E-03    -290.660E-03     580.829E-03    -290.475E-03     31.2952E-03
             415     6.73129E-03     109.906E-03    -60.7026E+06    -38.0962E+06     5.84602E+06     4.49184E+06    -290.361E-03     580.974E-03    -290.613E-03     34.9233E-03    -290.647E-03     580.892E-03    -290.440E-03     34.4364E-03
             416     7.40471E-03     109.971E-03    -53.7090E+06    -582.472E+03     20.3759E+06     5.53515E+06    -290.267E-03     580.847E-03    -290.580E-03     38.4589E-03    -290.609E-03     580.938E-03    -290.400E-03     37.4653E-03
             417     8.07824E-03     110.040E-03    -47.1390E+06     22.9137E+06     33.1304E+06     5.51552E+06    -290.206E-03     580.762E-03    -290.555E-03     42.0281E-03    -290.589E-03     580.963E-03    -290.355E-03     40.4084E-03
             418     8.75186E-03     110.114E-03    -40.8260E+06     34.0369E+06     44.4315E+06     4.57157E+06    -290.162E-03     580.700E-03    -290.538E-03     45.5846E-03    -290.573E-03     580.959E-03    -290.306E-03     43.2209E-03
             419     9.42566E-03     110.193E-03    -34.3280E+06     44.7301E+06     57.3123E+06     3.31031E+06    -290.081E-03     580.607E-03    -290.526E-03     48.8733E-03    -290.528E-03     580.925E-03    -290.255E-03     45.6826E-03
             420     10.0995E-03     110.275E-03    -27.7812E+06     49.8917E+06     71.0905E+06     1.93897E+06    -290.007E-03     580.532E-03    -290.524E-03     51.5455E-03    -290.485E-03     580.882E-03    -290.201E-03     47.4997E-03
             421     10.7736E-03     110.360E-03    -21.3632E+06     53.5543E+06     81.9424E+06     1.25113E+06    -289.993E-03     580.505E-03    -290.511E-03     53.3772E-03    -290.495E-03     580.883E-03    -290.148E-03     48.5429E-03
             422     11.4476E-03     110.447E-03    -15.3185E+06     56.6011E+06     88.4324E+06     1.42283E+06    -289.970E-03     580.453E-03    -290.483E-03     54.0131E-03    -290.481E-03     580.854E-03    -290.101E-03     48.5489E-03
             423     12.1214E-03     110.532E-03    -9.83260E+06     62.7317E+06     91.2549E+06     1.56934E+06    -289.909E-03     580.345E-03    -290.436E-03     54.7567E-03    -290.437E-03     580.796E-03    -290.056E-03     48.6266E-03
             424     12.7952E-03     110.620E-03    -4.71902E+06     67.3552E+06     90.0206E+06     979.663E+03    -289.838E-03     580.214E-03    -290.376E-03     49.7496E-03    -290.297E-03     580.635E-03    -290.017E-03     44.2362E-03
             425     673.035E-06     111.284E-03    -107.872E+06    -211.454E+06    -106.431E+06     355.208E+03    -290.532E-03     581.041E-03    -290.509E-03     3.86102E-03    -290.610E-03     580.294E-03    -290.578E-03     4.06282E-03
             426     1.34607E-03     111.294E-03    -105.937E+06    -204.528E+06    -100.638E+06     703.392E+03    -290.503E-03     581.034E-03    -290.531E-03     7.10112E-03    -290.590E-03     580.311E-03    -290.584E-03     7.45811E-03
             427     2.01912E-03     111.311E-03    -102.896E+06    -193.880E+06    -91.7726E+06     1.02622E+06    -290.481E-03     581.023E-03    -290.541E-03     10.5297E-03    -290.581E-03     580.335E-03    -290.570E-03     11.0210E-03
             428     2.69222E-03     111.334E-03    -98.8329E+06    -181.794E+06    -80.0129E+06     864.033E+03    -290.462E-03     581.020E-03    -290.559E-03     14.0055E-03    -290.576E-03     580.371E-03    -290.552E-03     14.5796E-03
             429     3.36536E-03     111.363E-03    -93.8647E+06    -166.785E+06    -66.5503E+06     1.00892E+06    -290.441E-03     581.016E-03    -290.575E-03     17.4954E-03    -290.573E-03     580.415E-03    -290.530E-03     18.0999E-03
             430     4.03852E-03     111.398E-03    -88.1913E+06    -145.712E+06    -52.6984E+06     1.77668E+06    -290.407E-03     580.986E-03    -290.579E-03     21.0122E-03    -290.563E-03     580.464E-03    -290.504E-03     21.5881E-03
             431     4.71175E-03     111.440E-03    -82.0321E+06    -122.564E+06    -38.3897E+06     2.18352E+06    -290.369E-03     580.947E-03    -290.578E-03     24.5724E-03    -290.552E-03     580.514E-03    -290.473E-03     25.0311E-03
             432     5.38504E-03     111.488E-03    -75.6987E+06    -98.9029E+06    -23.8663E+06     2.43838E+06    -290.328E-03     580.900E-03    -290.572E-03     28.1524E-03    -290.538E-03     580.560E-03    -290.438E-03     28.3989E-03
             433     6.05841E-03     111.541E-03    -69.2126E+06    -72.1420E+06    -9.56835E+06     2.89293E+06    -290.267E-03     580.823E-03    -290.556E-03     31.7363E-03    -290.513E-03     580.595E-03    -290.399E-03     31.6740E-03
             434     6.73189E-03     111.600E-03    -62.3798E+06    -41.3946E+06     4.60257E+06     3.36197E+06    -290.183E-03     580.711E-03    -290.528E-03     35.3084E-03    -290.471E-03     580.617E-03    -290.354E-03     34.8307E-03
             435     7.40549E-03     111.664E-03    -55.0826E+06    -4.21109E+06     19.0002E+06     4.11737E+06    -290.068E-03     580.553E-03    -290.484E-03     38.8125E-03    -290.410E-03     580.629E-03    -290.303E-03     37.8154E-03
             436     8.07924E-03     111.734E-03    -47.6191E+06     21.6587E+06     32.0799E+06     5.08033E+06    -290.000E-03     580.446E-03    -290.446E-03     42.2711E-03    -290.382E-03     580.643E-03    -290.248E-03     40.6479E-03
             437     8.75305E-03     111.808E-03    -40.7535E+06     35.8232E+06     44.0752E+06     4.96324E+06    -289.992E-03     580.412E-03    -290.421E-03     45.6630E-03    -290.405E-03     580.681E-03    -290.193E-03     43.2883E-03
             438     9.42688E-03     111.886E-03    -34.5197E+06     47.5947E+06     57.5606E+06     3.76943E+06    -290.007E-03     580.418E-03    -290.410E-03     48.7444E-03    -290.460E-03     580.750E-03    -290.141E-03     45.5242E-03
             439     10.1008E-03     111.969E-03    -28.5363E+06     51.5375E+06     71.2888E+06     2.98178E+06    -290.074E-03     580.493E-03    -290.419E-03     51.1920E-03    -290.559E-03     580.853E-03    -290.096E-03     47.1095E-03
             440     10.7745E-03     112.054E-03    -22.8473E+06     54.0404E+06     81.7536E+06     2.57676E+06    -290.162E-03     580.585E-03    -290.423E-03     52.9044E-03    -290.672E-03     580.968E-03    -290.059E-03     48.0397E-03
             441     11.4480E-03     112.140E-03    -17.0013E+06     57.1404E+06     88.1257E+06     1.75523E+06    -290.125E-03     580.536E-03    -290.411E-03     53.5620E-03    -290.649E-03     580.946E-03    -290.028E-03     47.9792E-03
             442     12.1218E-03     112.225E-03    -10.7513E+06     63.1198E+06     91.5251E+06     994.508E+03    -289.998E-03     580.377E-03    -290.379E-03     54.4395E-03    -290.534E-03     580.833E-03    -289.997E-03     48.1992E-03
             443     12.7958E-03     112.313E-03    -4.96163E+06     68.8253E+06     90.9795E+06     667.851E+03    -289.895E-03     580.223E-03    -290.328E-03     49.4860E-03    -290.358E-03     580.648E-03    -289.965E-03     43.9775E-03
             444     673.077E-06     112.978E-03    -108.652E+06    -213.488E+06    -107.278E+06     516.765E+03    -290.446E-03     580.866E-03    -290.420E-03     3.90623E-03    -290.524E-03     580.112E-03    -290.490E-03     4.11533E-03
             445     1.34618E-03     112.988E-03    -106.687E+06    -206.608E+06    -101.405E+06     898.696E+03    -290.409E-03     580.851E-03    -290.442E-03     7.18532E-03    -290.496E-03     580.120E-03    -290.495E-03     7.55362E-03
             446     2.01932E-03     113.005E-03    -103.533E+06    -195.592E+06    -92.3034E+06     1.23764E+06    -290.381E-03     580.831E-03    -290.450E-03     10.6517E-03    -290.481E-03     580.136E-03    -290.478E-03     11.1577E-03
             447     2.69248E-03     113.028E-03    -99.4637E+06    -182.047E+06    -80.3753E+06     1.41589E+06    -290.350E-03     580.812E-03    -290.462E-03     14.1570E-03    -290.467E-03     580.162E-03    -290.456E-03     14.7545E-03
             448     3.36568E-03     113.057E-03    -94.5723E+06    -168.278E+06    -66.6715E+06     1.41968E+06    -290.322E-03     580.800E-03    -290.477E-03     17.6893E-03    -290.455E-03     580.193E-03    -290.430E-03     18.3158E-03
             449     4.03894E-03     113.092E-03    -88.9472E+06    -148.421E+06    -52.8913E+06     1.77154E+06    -290.277E-03     580.756E-03    -290.479E-03     21.2527E-03    -290.432E-03     580.222E-03    -290.399E-03     21.8437E-03
             450     4.71229E-03     113.134E-03    -83.0541E+06    -124.415E+06    -38.8761E+06     2.49308E+06    -290.224E-03     580.693E-03    -290.469E-03     24.8289E-03    -290.408E-03     580.253E-03    -290.363E-03     25.3070E-03
             451     5.38571E-03     113.182E-03    -76.9867E+06    -100.550E+06    -24.3201E+06     2.94020E+06    -290.175E-03     580.633E-03    -290.459E-03     28.3934E-03    -290.389E-03     580.288E-03    -290.323E-03     28.6585E-03
             452     6.05921E-03     113.235E-03    -70.6200E+06    -73.6375E+06    -10.0231E+06     3.05354E+06    -290.117E-03     580.555E-03    -290.438E-03     31.9387E-03    -290.367E-03     580.321E-03    -290.279E-03     31.8828E-03
             453     6.73280E-03     113.294E-03    -64.1435E+06    -43.1329E+06     3.93124E+06     3.19572E+06    -290.052E-03     580.459E-03    -290.407E-03     35.4369E-03    -290.345E-03     580.360E-03    -290.232E-03     34.9508E-03
             454     7.40648E-03     113.358E-03    -57.7139E+06    -6.63862E+06     17.8040E+06     3.39615E+06    -289.978E-03     580.343E-03    -290.365E-03     38.8330E-03    -290.328E-03     580.413E-03    -290.183E-03     37.8084E-03
             455     8.08021E-03     113.427E-03    -50.9837E+06     19.5754E+06     29.9502E+06     3.40161E+06    -289.963E-03     580.291E-03    -290.329E-03     42.1572E-03    -290.356E-03     580.487E-03    -290.133E-03     40.4813E-03
             456     8.75399E-03     113.501E-03    -43.6955E+06     35.5039E+06     41.2252E+06     3.60933E+06    -290.011E-03     580.317E-03    -290.306E-03     45.4032E-03    -290.436E-03     580.593E-03    -290.088E-03     42.9779E-03
             457     9.42776E-03     113.580E-03    -36.6125E+06     48.1279E+06     55.2765E+06     4.02986E+06    -290.100E-03     580.409E-03    -290.309E-03     48.4039E-03    -290.561E-03     580.751E-03    -290.049E-03     45.1686E-03
             458     10.1014E-03     113.662E-03    -29.9702E+06     51.8998E+06     70.7795E+06     3.94968E+06    -290.227E-03     580.568E-03    -290.342E-03     50.9063E-03    -290.718E-03     580.932E-03    -290.020E-03     46.8343E-03
             459     10.7750E-03     113.747E-03    -23.0536E+06     55.8137E+06     83.1897E+06     3.07979E+06    -290.322E-03     580.689E-03    -290.367E-03     52.7273E-03    -290.837E-03     581.079E-03    -289.998E-03     47.8680E-03
             460     11.4488E-03     113.834E-03    -16.2747E+06     60.3483E+06     89.7218E+06     1.59348E+06    -290.262E-03     580.628E-03    -290.366E-03     53.3131E-03    -290.793E-03     581.055E-03    -289.981E-03     47.6190E-03
             461     12.1226E-03     113.918E-03    -10.3445E+06     63.9116E+06     91.9187E+06     538.257E+03    -290.128E-03     580.471E-03    -290.343E-03     54.0530E-03    -290.668E-03     580.935E-03    -289.961E-03     47.6758E-03
             462     12.7963E-03     114.006E-03    -4.96710E+06     69.0277E+06     91.3097E+06     256.716E+03    -289.960E-03     580.262E-03    -290.301E-03     49.1408E-03    -290.424E-03     580.688E-03    -289.938E-03     43.6040E-03
             463     673.187E-06     114.672E-03    -109.441E+06    -215.913E+06    -108.055E+06     536.785E+03    -290.307E-03     580.586E-03    -290.279E-03     3.94549E-03    -290.384E-03     579.821E-03    -290.347E-03     4.15699E-03
             464     1.34639E-03     114.682E-03    -107.388E+06    -208.801E+06    -102.011E+06     928.541E+03    -290.269E-03     580.571E-03    -290.302E-03     7.24757E-03    -290.355E-03     579.831E-03    -290.354E-03     7.62019E-03
             465     2.01961E-03     114.698E-03    -104.174E+06    -197.777E+06    -92.6704E+06     1.38125E+06    -290.240E-03     580.550E-03    -290.311E-03     10.7373E-03    -290.339E-03     579.847E-03    -290.336E-03     11.2505E-03
             466     2.69288E-03     114.721E-03    -99.9183E+06    -183.646E+06    -80.8186E+06     1.80405E+06    -290.203E-03     580.523E-03    -290.320E-03     14.2627E-03    -290.319E-03     579.867E-03    -290.313E-03     14.8719E-03
             467     3.36621E-03     114.750E-03    -94.7790E+06    -168.586E+06    -66.9775E+06     1.76990E+06    -290.172E-03     580.504E-03    -290.333E-03     17.8041E-03    -290.305E-03     579.897E-03    -290.286E-03     18.4407E-03
             468     4.03959E-03     114.786E-03    -88.9914E+06    -150.944E+06    -52.3328E+06     1.93525E+06    -290.143E-03     580.484E-03    -290.341E-03     21.3511E-03    -290.296E-03     579.937E-03    -290.254E-03     21.9433E-03
             469     4.71303E-03     114.827E-03    -82.6597E+06    -127.625E+06    -37.8669E+06     2.80397E+06    -290.106E-03     580.442E-03    -290.336E-03     24.8848E-03    -290.284E-03     579.984E-03    -290.220E-03     25.3614E-03
             470     5.38652E-03     114.875E-03    -76.0691E+06    -102.027E+06    -23.3789E+06     3.40864E+06    -290.073E-03     580.397E-03    -290.325E-03     28.3937E-03    -290.281E-03     580.042E-03    -290.183E-03     28.6570E-03
             471     6.06009E-03     114.928E-03    -69.5661E+06    -75.4012E+06    -8.94425E+06     3.83385E+06    -290.052E-03     580.363E-03    -290.311E-03     31.8690E-03    -290.296E-03     580.118E-03    -290.145E-03     31.8115E-03
             472     6.73369E-03     114.987E-03    -63.1371E+06    -44.4581E+06     5.28556E+06     4.21271E+06    -290.036E-03     580.326E-03    -290.290E-03     35.2942E-03    -290.325E-03     580.217E-03    -290.107E-03     34.8072E-03
             473     7.40733E-03     115.051E-03    -56.4415E+06    -7.18898E+06     19.6219E+06     4.09071E+06    -290.019E-03     580.280E-03    -290.261E-03     38.6376E-03    -290.365E-03     580.343E-03    -290.071E-03     37.6073E-03
             474     8.08102E-03     115.120E-03    -49.5762E+06     20.6514E+06     32.5458E+06     3.24378E+06    -290.062E-03     580.304E-03    -290.242E-03     41.9478E-03    -290.455E-03     580.499E-03    -290.037E-03     40.2561E-03
             475     8.75465E-03     115.194E-03    -42.9104E+06     33.9520E+06     44.2827E+06     2.62930E+06    -290.174E-03     580.418E-03    -290.244E-03     45.1860E-03    -290.597E-03     580.680E-03    -290.010E-03     42.7371E-03
             476     9.42829E-03     115.273E-03    -36.0360E+06     45.2574E+06     57.3448E+06     3.31460E+06    -290.270E-03     580.532E-03    -290.262E-03     48.1380E-03    -290.726E-03     580.855E-03    -289.989E-03     44.8852E-03
             477     10.1020E-03     115.356E-03    -28.8252E+06     52.6975E+06     71.5012E+06      3.5412E+06    -290.329E-03     580.625E-03    -290.296E-03     50.5914E-03    -290.817E-03     580.990E-03    -289.973E-03     46.5017E-03
             478     10.7756E-03     115.441E-03    -21.9671E+06     58.0308E+06     83.9419E+06     2.70421E+06    -290.367E-03     580.695E-03    -290.328E-03     52.4264E-03    -290.881E-03     581.093E-03    -289.960E-03     47.5547E-03
             479     11.4490E-03     115.528E-03    -15.7953E+06     62.7581E+06     90.7940E+06     2.08081E+06    -290.326E-03     580.661E-03    -290.335E-03     53.1022E-03    -290.862E-03     581.100E-03    -289.949E-03     47.3511E-03
             480     12.1223E-03     115.612E-03    -10.1572E+06     65.9620E+06     92.8246E+06     1.11814E+06    -290.189E-03     580.507E-03    -290.318E-03     54.0480E-03    -290.736E-03     580.984E-03    -289.935E-03     47.5771E-03
             481     12.7961E-03     115.699E-03    -4.92598E+06     69.8803E+06     91.9535E+06     73.7963E+03    -289.876E-03     580.154E-03    -290.279E-03     49.3848E-03    -290.343E-03     580.586E-03    -289.913E-03     43.8093E-03
             482     673.306E-06     116.365E-03    -110.038E+06    -218.286E+06    -108.646E+06     489.590E+03    -290.144E-03     580.261E-03    -290.117E-03     3.93558E-03    -290.220E-03     579.487E-03    -290.185E-03     4.14625E-03
             483     1.34661E-03     116.375E-03    -107.991E+06    -211.055E+06    -102.588E+06     909.491E+03    -290.109E-03     580.250E-03    -290.140E-03     7.24378E-03    -290.194E-03     579.500E-03    -290.191E-03     7.61515E-03
             484     2.01997E-03     116.391E-03    -104.654E+06    -199.999E+06    -93.2084E+06     1.28460E+06    -290.086E-03     580.237E-03    -290.151E-03     10.7306E-03    -290.184E-03     579.523E-03    -290.175E-03     11.2401E-03
             485     2.69335E-03     116.414E-03    -100.198E+06    -185.565E+06    -81.0667E+06     1.59133E+06    -290.062E-03     580.226E-03    -290.164E-03     14.2374E-03    -290.176E-03     579.561E-03    -290.155E-03     14.8392E-03
             486     3.36677E-03     116.443E-03    -94.8885E+06    -169.039E+06    -66.8743E+06     1.71459E+06    -290.047E-03     580.227E-03    -290.181E-03     17.7432E-03    -290.180E-03     579.617E-03    -290.132E-03     18.3736E-03
             487     4.04022E-03     116.479E-03    -88.8272E+06    -152.544E+06    -51.7270E+06     1.69510E+06    -290.047E-03     580.246E-03    -290.200E-03     21.2575E-03    -290.197E-03     579.690E-03    -290.108E-03     21.8374E-03
             488     4.71369E-03     116.520E-03     -82.154E+06    -130.680E+06    -36.9791E+06     2.00941E+06    -290.043E-03     580.250E-03    -290.207E-03     24.7608E-03    -290.216E-03     579.775E-03    -290.083E-03     25.2140E-03
             489     5.38725E-03     116.568E-03    -75.1652E+06    -104.623E+06    -22.4538E+06     2.84905E+06    -290.044E-03     580.250E-03    -290.206E-03     28.2180E-03    -290.246E-03     579.879E-03    -290.058E-03     28.4624E-03
             490     6.06081E-03     116.621E-03    -67.9803E+06    -77.9559E+06    -7.62708E+06     3.62323E+06    -290.066E-03     580.272E-03    -290.206E-03     31.6405E-03    -290.300E-03     580.010E-03    -290.032E-03     31.5712E-03
             491     6.73439E-03     116.680E-03    -60.6375E+06    -46.4692E+06     7.20784E+06     4.18821E+06    -290.092E-03     580.293E-03    -290.200E-03     35.0351E-03    -290.368E-03     580.167E-03    -290.009E-03     34.5422E-03
             492     7.40798E-03     116.744E-03    -53.5473E+06    -7.61683E+06     22.3507E+06     4.45067E+06    -290.110E-03     580.298E-03    -290.188E-03     38.3659E-03    -290.445E-03     580.351E-03    -289.988E-03     37.3389E-03
             493     8.08158E-03     116.813E-03    -46.8492E+06     22.5751E+06     36.0690E+06     3.99651E+06    -290.177E-03     580.362E-03    -290.185E-03     41.6775E-03    -290.563E-03     580.557E-03    -289.969E-03     39.9983E-03
             494     8.75517E-03     116.888E-03    -40.3968E+06     32.8820E+06     47.9265E+06     3.78026E+06    -290.307E-03     580.514E-03    -290.207E-03     44.9644E-03    -290.720E-03     580.762E-03    -289.957E-03     42.5366E-03
             495     9.42859E-03     116.967E-03    -34.3516E+06     42.7803E+06     59.7562E+06      4.0242E+06    -290.378E-03     580.613E-03    -290.235E-03     48.0484E-03    -290.826E-03     580.918E-03    -289.949E-03     44.8090E-03
             496     10.1020E-03     117.049E-03    -28.4849E+06     53.5766E+06     72.1171E+06     3.85292E+06    -290.344E-03     580.607E-03    -290.263E-03     50.6622E-03    -290.832E-03     580.976E-03    -289.939E-03     46.5803E-03
             497     10.7755E-03     117.135E-03    -22.3539E+06     59.5506E+06      84.034E+06     3.25153E+06    -290.240E-03     580.531E-03    -290.291E-03     52.6820E-03    -290.758E-03     580.937E-03    -289.925E-03     47.8465E-03
             498     11.4493E-03     117.221E-03    -15.8629E+06     64.8166E+06     91.6360E+06     2.18505E+06    -290.097E-03     580.389E-03    -290.292E-03     53.6030E-03    -290.637E-03     580.836E-03    -289.904E-03     47.9065E-03
             499     12.1233E-03     117.306E-03    -9.56988E+06      68.247E+06     94.1344E+06     1.27408E+06    -289.993E-03     580.258E-03    -290.265E-03     54.7231E-03    -290.545E-03     580.746E-03    -289.880E-03     48.2568E-03
             500     12.7971E-03     117.392E-03    -4.32931E+06     71.1226E+06     92.8615E+06     784.955E+03    -289.754E-03     579.972E-03    -290.218E-03     50.0747E-03    -290.225E-03     580.411E-03    -289.851E-03     44.4709E-03
             501     673.400E-06     118.057E-03    -110.797E+06    -220.481E+06    -109.324E+06     455.027E+03    -289.995E-03     579.967E-03    -289.973E-03     3.91254E-03    -290.070E-03     579.184E-03    -290.039E-03     4.12206E-03
             502     1.34683E-03     118.067E-03    -108.643E+06    -213.169E+06    -103.137E+06     809.214E+03    -289.970E-03     579.966E-03    -289.996E-03     7.19268E-03    -290.055E-03     579.207E-03    -290.045E-03     7.56063E-03
             503     2.02027E-03     118.084E-03    -105.307E+06    -201.877E+06    -93.5498E+06     1.14086E+06    -289.963E-03     579.975E-03    -290.012E-03     10.6443E-03    -290.061E-03     579.253E-03    -290.034E-03     11.1490E-03
             504     2.69372E-03     118.107E-03    -100.945E+06    -187.239E+06    -81.3039E+06     1.41824E+06    -289.960E-03     579.993E-03    -290.033E-03     14.1179E-03    -290.075E-03     579.321E-03    -290.021E-03     14.7145E-03
             505     3.36719E-03     118.136E-03    -95.6820E+06    -170.003E+06    -67.3466E+06     1.57931E+06    -289.964E-03     580.020E-03    -290.056E-03     17.5969E-03    -290.099E-03     579.407E-03    -290.008E-03     18.2241E-03
             506     4.04069E-03     118.171E-03    -89.6961E+06    -152.275E+06    -52.2709E+06     1.23074E+06    -289.987E-03     580.070E-03    -290.083E-03     21.0872E-03    -290.141E-03     579.516E-03    -289.993E-03     21.6611E-03
             507     4.71422E-03     118.213E-03    -83.1271E+06    -132.613E+06    -36.9568E+06     1.09152E+06    -290.025E-03     580.133E-03    -290.108E-03     24.5631E-03    -290.200E-03     579.650E-03    -289.980E-03     25.0021E-03
             508     5.38772E-03     118.260E-03    -76.1158E+06    -107.527E+06    -22.2010E+06     1.60284E+06    -290.062E-03     580.185E-03    -290.124E-03     28.0004E-03    -290.265E-03     579.800E-03    -289.968E-03     28.2271E-03
             509     6.06125E-03     118.314E-03    -68.7793E+06    -79.7243E+06    -7.75334E+06     1.95009E+06    -290.102E-03     580.236E-03    -290.133E-03     31.4235E-03    -290.337E-03     579.966E-03    -289.957E-03     31.3361E-03
             510     6.73477E-03     118.373E-03    -61.2932E+06    -49.4483E+06     6.74887E+06     2.49311E+06    -290.143E-03     580.283E-03    -290.140E-03     34.8348E-03    -290.417E-03     580.144E-03    -289.946E-03     34.3291E-03
             511     7.40831E-03     118.437E-03    -53.9416E+06    -11.4786E+06     21.6783E+06     4.12624E+06    -290.155E-03     580.294E-03    -290.138E-03     38.2056E-03    -290.485E-03     580.328E-03    -289.935E-03     37.1952E-03
             512     8.08184E-03     118.507E-03    -47.5365E+06     21.0033E+06     35.1359E+06     5.92864E+06    -290.170E-03     580.307E-03    -290.137E-03     41.6179E-03    -290.555E-03     580.496E-03    -289.923E-03     39.9985E-03
             513     8.75530E-03     118.581E-03    -42.1166E+06     32.7988E+06     45.6449E+06     6.11186E+06    -290.215E-03     580.367E-03    -290.152E-03     45.0971E-03    -290.633E-03     580.619E-03    -289.910E-03     42.7460E-03
             514     9.42894E-03     118.660E-03    -36.2369E+06     43.0500E+06     57.4444E+06     5.20801E+06    -290.203E-03     580.375E-03    -290.172E-03     48.4258E-03    -290.656E-03     580.686E-03    -289.895E-03     45.2527E-03
             515     10.1027E-03     118.743E-03    -29.4078E+06     54.8968E+06     72.0859E+06     4.19175E+06    -290.114E-03     580.312E-03    -290.198E-03     51.2631E-03    -290.609E-03     580.688E-03    -289.875E-03     47.2336E-03
             516     10.7766E-03     118.828E-03    -22.2952E+06     61.2226E+06     85.5389E+06     3.10758E+06    -290.003E-03     580.222E-03    -290.219E-03     53.3749E-03    -290.525E-03     580.635E-03    -289.848E-03     48.5751E-03
             517     11.4504E-03     118.914E-03    -15.8218E+06     66.7015E+06     93.0953E+06     2.37436E+06    -289.869E-03     580.077E-03    -290.209E-03     54.1688E-03    -290.413E-03     580.532E-03    -289.817E-03     48.5135E-03
             518     12.1244E-03     118.998E-03    -10.3532E+06     69.2289E+06     94.9283E+06     1.99034E+06    -289.814E-03     579.989E-03    -290.174E-03     55.0348E-03    -290.375E-03     580.483E-03    -289.785E-03     48.5831E-03
             519     12.7985E-03     119.085E-03    -5.16330E+06     72.8662E+06     93.6293E+06     1.30659E+06    -289.697E-03     579.822E-03    -290.125E-03     50.2132E-03    -290.179E-03     580.273E-03    -289.755E-03     44.5560E-03
             520     673.493E-06     119.749E-03    -111.555E+06    -222.629E+06    -110.086E+06     479.591E+03    -289.888E-03     579.752E-03    -289.864E-03     3.87356E-03    -289.963E-03     578.960E-03    -289.929E-03     4.08446E-03
             521     1.34697E-03     119.759E-03    -109.500E+06    -215.235E+06    -103.817E+06     875.457E+03    -289.876E-03     579.768E-03    -289.891E-03     7.12458E-03    -289.961E-03     579.001E-03    -289.940E-03     7.49704E-03
             522     2.02046E-03     119.776E-03    -106.173E+06    -203.789E+06    -94.1566E+06     1.26301E+06    -289.881E-03     579.795E-03    -289.914E-03     10.5562E-03    -289.980E-03     579.066E-03    -289.935E-03     11.0689E-03
             523     2.69396E-03     119.799E-03    -101.777E+06    -188.922E+06    -81.8408E+06     1.60305E+06    -289.893E-03     579.834E-03    -289.941E-03     14.0126E-03    -290.009E-03     579.155E-03    -289.929E-03     14.6207E-03
             524     3.36747E-03     119.828E-03    -96.5731E+06    -171.134E+06    -67.6900E+06     1.80863E+06    -289.914E-03     579.886E-03    -289.972E-03     17.4763E-03    -290.051E-03     579.269E-03    -289.922E-03     18.1188E-03
             525     4.04099E-03     119.864E-03    -90.8629E+06    -151.711E+06    -52.4693E+06     1.74075E+06    -289.952E-03     579.957E-03    -290.006E-03     20.9590E-03    -290.112E-03     579.409E-03    -289.916E-03     21.5577E-03
             526     4.71447E-03     119.905E-03    -84.8056E+06    -133.050E+06    -37.2228E+06     1.39936E+06    -290.007E-03     580.049E-03    -290.042E-03     24.4588E-03    -290.189E-03     579.566E-03    -289.912E-03     24.9232E-03
             527     5.38798E-03     119.953E-03    -78.3704E+06    -109.034E+06    -22.7980E+06     1.28393E+06    -290.051E-03     580.116E-03    -290.065E-03     27.9545E-03    -290.261E-03     579.727E-03    -289.908E-03     28.2023E-03
             528     6.06148E-03     120.007E-03    -71.8238E+06    -80.6644E+06    -8.97912E+06     1.46004E+06    -290.077E-03     580.156E-03    -290.078E-03     31.4571E-03    -290.324E-03     579.887E-03    -289.902E-03     31.3967E-03
             529     6.73500E-03     120.066E-03    -65.3239E+06    -52.0492E+06     4.50971E+06     1.85123E+06    -290.089E-03     580.176E-03    -290.086E-03     34.9788E-03    -290.376E-03     580.032E-03    -289.894E-03     34.5063E-03
             530     7.40855E-03     120.130E-03    -58.6097E+06    -18.1150E+06     17.7283E+06     3.27603E+06    -290.051E-03     580.132E-03    -290.080E-03     38.4849E-03    -290.388E-03     580.144E-03    -289.880E-03     37.5130E-03
             531     8.08221E-03     120.200E-03    -51.0720E+06     15.3419E+06     30.9812E+06     5.46242E+06    -289.982E-03     580.049E-03    -290.067E-03     42.0052E-03    -290.369E-03     580.219E-03    -289.860E-03     40.4315E-03
             532     8.75609E-03     120.274E-03    -43.0489E+06     33.1040E+06     43.6693E+06     6.37302E+06    -289.949E-03     580.015E-03    -290.066E-03     45.5386E-03    -290.368E-03     580.272E-03    -289.833E-03     43.2378E-03
             533     9.42990E-03     120.353E-03    -35.8462E+06     44.9942E+06     56.7682E+06     5.50326E+06    -289.906E-03     579.979E-03    -290.073E-03     48.8408E-03    -290.359E-03     580.300E-03    -289.802E-03     45.7073E-03
             534     10.1039E-03     120.436E-03    -29.4388E+06     56.9745E+06     71.4804E+06     4.26882E+06    -289.834E-03     579.919E-03    -290.085E-03     51.5597E-03    -290.331E-03     580.307E-03    -289.768E-03     47.5507E-03
             535     10.7779E-03     120.520E-03    -23.3192E+06     62.4566E+06     85.1685E+06     3.60049E+06    -289.820E-03     579.922E-03    -290.102E-03     53.5564E-03    -290.349E-03     580.343E-03    -289.733E-03     48.7706E-03
             536     11.4519E-03     120.607E-03    -17.2397E+06     67.3194E+06     93.4238E+06     3.25572E+06    -289.813E-03     579.909E-03    -290.096E-03     54.2934E-03    -290.366E-03     580.369E-03    -289.701E-03     48.6492E-03
             537     12.1258E-03     120.691E-03    -10.9435E+06     71.0447E+06     96.2600E+06     2.33721E+06    -289.809E-03     579.877E-03    -290.069E-03     55.1242E-03    -290.378E-03     580.380E-03    -289.675E-03     48.6627E-03
             538     12.7998E-03     120.777E-03    -5.04897E+06     75.4012E+06     95.0608E+06     1.05816E+06    -289.679E-03     579.703E-03    -290.023E-03     50.2695E-03    -290.169E-03     580.166E-03    -289.650E-03     44.5701E-03
             539     673.514E-06     121.441E-03    -112.402E+06    -225.014E+06    -110.884E+06     552.756E+03    -289.819E-03     579.611E-03    -289.792E-03     3.85712E-03    -289.894E-03     578.810E-03    -289.857E-03     4.07615E-03
             540     1.34705E-03     121.451E-03    -110.231E+06    -217.648E+06    -104.507E+06     1.04232E+06    -289.810E-03     579.633E-03    -289.823E-03     7.10739E-03    -289.894E-03     578.856E-03    -289.870E-03     7.49415E-03
             541     2.02058E-03     121.468E-03    -106.878E+06    -206.104E+06    -94.6900E+06     1.55515E+06    -289.820E-03     579.667E-03    -289.847E-03     10.5355E-03    -289.918E-03     578.929E-03    -289.867E-03     11.0687E-03
             542     2.69412E-03     121.491E-03    -102.515E+06    -191.044E+06    -82.1793E+06     2.02681E+06    -289.835E-03     579.713E-03    -289.878E-03     13.9986E-03    -289.951E-03     579.025E-03    -289.863E-03     14.6348E-03
             543     3.36764E-03     121.520E-03    -97.3360E+06    -173.068E+06    -67.9233E+06     2.52644E+06    -289.857E-03     579.768E-03    -289.911E-03     17.4884E-03    -289.995E-03     579.143E-03    -289.858E-03     18.1703E-03
             544     4.04117E-03     121.556E-03    -91.6275E+06    -152.995E+06    -52.8742E+06     3.03337E+06    -289.886E-03     579.829E-03    -289.943E-03     21.0195E-03    -290.047E-03     579.275E-03    -289.853E-03     21.6740E-03
             545     4.71474E-03     121.598E-03    -85.5983E+06    -132.503E+06    -37.5178E+06     2.96132E+06    -289.922E-03     579.897E-03    -289.975E-03     24.5899E-03    -290.108E-03     579.417E-03    -289.846E-03     25.1221E-03
             546     5.38829E-03     121.646E-03    -79.3967E+06    -109.774E+06    -22.6722E+06     2.65695E+06    -289.948E-03     579.947E-03    -289.999E-03     28.1714E-03    -290.162E-03     579.556E-03    -289.838E-03     28.4871E-03
             547     6.06189E-03     121.699E-03    -73.0588E+06    -82.0761E+06    -8.73955E+06     2.91525E+06    -289.943E-03     579.951E-03    -290.008E-03     31.7620E-03    -290.194E-03     579.676E-03    -289.827E-03     31.7738E-03
             548     6.73554E-03     121.758E-03    -66.7302E+06    -53.8867E+06     4.67021E+06     3.39373E+06    -289.918E-03     579.926E-03    -290.008E-03     35.3560E-03    -290.208E-03     579.774E-03    -289.810E-03     34.9560E-03
             549     7.40931E-03     121.823E-03    -60.2432E+06    -21.6796E+06     17.7708E+06     3.62159E+06    -289.855E-03     579.849E-03    -289.994E-03     38.9004E-03    -290.194E-03     579.845E-03    -289.786E-03     37.9734E-03
             550     8.08317E-03     121.892E-03    -53.2086E+06     12.8208E+06     30.2992E+06     3.07857E+06    -289.770E-03     579.736E-03    -289.966E-03     42.4114E-03    -290.163E-03     579.897E-03    -289.756E-03     40.8328E-03
             551     8.75704E-03     121.967E-03    -45.4238E+06     31.8405E+06     41.7701E+06     2.65466E+06    -289.730E-03     579.678E-03    -289.949E-03     45.8462E-03    -290.156E-03     579.935E-03    -289.720E-03     43.5071E-03
             552     9.43112E-03     122.045E-03    -37.2668E+06     44.0938E+06     53.7571E+06     3.45853E+06    -289.712E-03     579.653E-03    -289.941E-03     49.0017E-03    -290.166E-03     579.976E-03    -289.682E-03     45.8436E-03
             553     10.1052E-03     122.128E-03    -29.9456E+06     56.0709E+06     68.7689E+06     4.73765E+06    -289.719E-03     579.669E-03    -289.951E-03     51.6098E-03    -290.213E-03     580.057E-03    -289.645E-03     47.6155E-03
             554     10.7792E-03     122.213E-03    -23.4302E+06     63.1042E+06     84.3358E+06     4.96453E+06    -289.769E-03     579.745E-03    -289.976E-03     53.5221E-03    -290.298E-03     580.170E-03    -289.612E-03     48.7664E-03
             555     11.4532E-03     122.299E-03    -16.8872E+06     69.6867E+06     94.0677E+06     3.65318E+06    -289.774E-03     579.753E-03    -289.979E-03     54.2224E-03    -290.330E-03     580.224E-03    -289.585E-03     48.5827E-03
             556     12.1272E-03     122.383E-03    -10.6598E+06     74.1156E+06     97.3163E+06     2.03046E+06    -289.756E-03     579.713E-03    -289.957E-03     55.0922E-03    -290.330E-03     580.230E-03    -289.563E-03     48.5966E-03
             557     12.8012E-03     122.470E-03    -5.10272E+06     77.8668E+06     95.6732E+06     873.333E+03    -289.614E-03     579.528E-03    -289.914E-03     50.2973E-03    -290.110E-03     580.005E-03    -289.541E-03     44.5511E-03
             558     673.570E-06     123.132E-03    -112.891E+06    -227.910E+06    -111.379E+06     714.951E+03    -289.753E-03     579.479E-03    -289.726E-03     3.88068E-03    -289.826E-03     578.665E-03    -289.789E-03     4.11059E-03
             559     1.34713E-03     123.143E-03    -110.805E+06    -220.425E+06    -104.920E+06     1.22987E+06    -289.739E-03     579.495E-03    -289.756E-03     7.15746E-03    -289.821E-03     578.705E-03    -289.800E-03     7.56161E-03
             560     2.02070E-03     123.159E-03    -107.305E+06    -208.879E+06    -94.9688E+06     1.76369E+06    -289.741E-03     579.519E-03    -289.778E-03     10.6186E-03    -289.836E-03     578.767E-03    -289.794E-03     11.1779E-03
             561     2.69427E-03     123.183E-03    -102.722E+06    -193.838E+06    -82.3581E+06     2.37500E+06    -289.746E-03     579.550E-03    -289.805E-03     14.1291E-03    -289.858E-03     578.849E-03    -289.786E-03     14.8014E-03
             562     3.36789E-03     123.212E-03    -97.3041E+06    -175.970E+06    -68.0394E+06     3.02734E+06    -289.752E-03     579.584E-03    -289.832E-03     17.6687E-03    -289.885E-03     578.944E-03    -289.776E-03     18.3951E-03
             563     4.04153E-03     123.248E-03    -91.1432E+06    -155.729E+06    -52.7201E+06     3.63976E+06    -289.758E-03     579.616E-03    -289.857E-03     21.2468E-03    -289.913E-03     579.047E-03    -289.763E-03     21.9517E-03
             564     4.71518E-03     123.290E-03    -84.5952E+06    -133.594E+06    -36.9987E+06     4.15491E+06    -289.763E-03     579.642E-03    -289.878E-03     24.8573E-03    -289.943E-03     579.154E-03    -289.747E-03     25.4532E-03
             565     5.38890E-03     123.338E-03    -77.9719E+06    -110.647E+06    -21.3626E+06     4.35644E+06    -289.768E-03     579.663E-03    -289.895E-03     28.4722E-03    -289.975E-03     579.263E-03    -289.728E-03     28.8580E-03
             566     6.06264E-03     123.391E-03    -71.3423E+06    -84.4931E+06    -6.56241E+06     4.66683E+06    -289.757E-03     579.657E-03    -289.900E-03     32.0716E-03    -289.998E-03     579.363E-03    -289.707E-03     32.1455E-03
             567     6.73648E-03     123.450E-03    -64.6170E+06    -55.8054E+06     7.28024E+06     5.17900E+06    -289.728E-03     579.619E-03    -289.892E-03     35.6403E-03    -290.008E-03     579.451E-03    -289.681E-03     35.2945E-03
             568     7.41032E-03     123.515E-03    -57.8358E+06    -21.3311E+06     20.9830E+06     4.86153E+06    -289.675E-03     579.545E-03    -289.870E-03     39.1574E-03    -290.007E-03     579.535E-03    -289.650E-03     38.2684E-03
             569     8.08427E-03     123.584E-03    -51.2429E+06     15.4910E+06     33.4880E+06     3.59373E+06    -289.617E-03     579.453E-03    -289.835E-03     42.6547E-03    -290.009E-03     579.620E-03    -289.616E-03     41.0997E-03
             570     8.75833E-03     123.659E-03    -44.9791E+06     33.7620E+06     44.0333E+06     1.73632E+06    -289.639E-03     579.457E-03    -289.817E-03     46.0781E-03    -290.069E-03     579.719E-03    -289.581E-03     43.7403E-03
             571     9.43231E-03     123.737E-03    -38.6178E+06     40.1222E+06     54.8535E+06     1.28762E+06    -289.712E-03     579.533E-03    -289.821E-03     49.1493E-03    -290.169E-03     579.837E-03    -289.549E-03     45.9687E-03
             572     10.1064E-03     123.820E-03    -31.2965E+06     50.8835E+06     68.5254E+06     2.99610E+06    -289.755E-03     579.591E-03    -289.836E-03     51.6174E-03    -290.248E-03     579.955E-03    -289.522E-03     47.6039E-03
             573     10.7804E-03     123.905E-03    -23.4194E+06     63.2466E+06     83.6909E+06     4.00325E+06    -289.756E-03     579.614E-03    -289.858E-03     53.4756E-03    -290.284E-03     580.041E-03    -289.498E-03     48.7063E-03
             574     11.4544E-03     123.991E-03    -16.3517E+06     72.1243E+06     93.7689E+06     3.68846E+06    -289.691E-03     579.554E-03    -289.863E-03     54.2079E-03    -290.247E-03     580.036E-03    -289.475E-03     48.5643E-03
             575     12.1285E-03     124.076E-03    -10.3296E+06     77.4964E+06     97.7188E+06     2.66687E+06    -289.635E-03     579.480E-03    -289.844E-03     55.0828E-03    -290.215E-03     580.014E-03    -289.453E-03     48.5710E-03
             576     12.8026E-03     124.162E-03    -4.91155E+06     80.8052E+06      96.242E+06     1.14552E+06    -289.511E-03     579.314E-03    -289.803E-03     50.2634E-03    -290.012E-03     579.806E-03    -289.432E-03     44.4754E-03
             577     673.622E-06     124.824E-03    -113.705E+06    -230.834E+06    -112.269E+06     510.316E+03    -289.647E-03     579.266E-03    -289.618E-03     3.94360E-03    -289.718E-03     578.439E-03    -289.680E-03     4.17824E-03
             578     1.34726E-03     124.834E-03    -111.405E+06    -223.527E+06    -105.637E+06     1.15933E+06    -289.623E-03     579.271E-03    -289.647E-03     7.26753E-03    -289.703E-03     578.467E-03    -289.690E-03     7.68653E-03
             579     2.02092E-03     124.851E-03    -107.865E+06    -211.930E+06    -95.5596E+06     1.80654E+06    -289.614E-03     579.279E-03    -289.665E-03     10.7751E-03    -289.706E-03     578.513E-03    -289.679E-03     11.3575E-03
             580     2.69462E-03     124.874E-03    -103.223E+06    -196.898E+06    -82.8129E+06     2.41774E+06    -289.604E-03     579.291E-03    -289.686E-03     14.3225E-03    -289.714E-03     578.575E-03    -289.665E-03     15.0223E-03
             581     3.36833E-03     124.903E-03    -97.7244E+06    -179.016E+06    -68.2504E+06     2.98664E+06    -289.595E-03     579.303E-03    -289.708E-03     17.8942E-03    -289.725E-03     578.648E-03    -289.648E-03     18.6489E-03
             582     4.04207E-03     124.939E-03    -91.5013E+06    -158.775E+06    -52.7668E+06     3.53958E+06    -289.585E-03     579.312E-03    -289.727E-03     21.4939E-03    -289.737E-03     578.728E-03    -289.627E-03     22.2271E-03
             583     4.71589E-03     124.981E-03    -84.8085E+06    -136.537E+06    -37.1783E+06     4.18761E+06    -289.576E-03     579.315E-03    -289.739E-03     25.1022E-03    -289.752E-03     578.813E-03    -289.604E-03     25.7284E-03
             584     5.38973E-03     125.029E-03    -77.8391E+06    -112.752E+06    -21.6987E+06     4.84643E+06    -289.569E-03     579.315E-03    -289.745E-03     28.6926E-03    -289.772E-03     578.904E-03    -289.578E-03     29.1147E-03
             585     6.06364E-03     125.083E-03    -70.6909E+06    -87.1487E+06    -6.42499E+06     5.35277E+06    -289.567E-03     579.313E-03    -289.746E-03     32.2724E-03    -289.800E-03     579.005E-03    -289.549E-03     32.3813E-03
             586     6.73755E-03     125.142E-03    -63.4832E+06    -57.9625E+06     8.16728E+06     5.69664E+06    -289.558E-03     579.295E-03    -289.737E-03     35.8327E-03    -289.830E-03     579.112E-03    -289.520E-03     35.5161E-03
             587     7.41158E-03     125.206E-03    -56.4382E+06    -21.2387E+06     22.4604E+06     5.86112E+06    -289.531E-03     579.245E-03    -289.713E-03     39.3230E-03    -289.858E-03     579.230E-03    -289.488E-03     38.4710E-03
             588     8.08566E-03     125.276E-03    -49.7088E+06     18.2501E+06     36.3721E+06     5.26066E+06    -289.521E-03     579.205E-03    -289.684E-03     42.7592E-03    -289.913E-03     579.380E-03    -289.457E-03     41.2476E-03
             589     8.75973E-03     125.350E-03    -43.3475E+06     37.7173E+06     48.0948E+06     4.01358E+06    -289.613E-03     579.291E-03    -289.678E-03     46.1188E-03    -290.046E-03     579.565E-03    -289.429E-03     43.8337E-03
             590     9.43378E-03     125.429E-03    -37.4891E+06     38.8907E+06     58.6171E+06     3.20230E+06    -289.770E-03     579.470E-03    -289.700E-03     49.2267E-03    -290.225E-03     579.760E-03    -289.409E-03     46.0979E-03
             591     10.1075E-03     125.511E-03    -31.8714E+06     48.4160E+06     70.3850E+06     2.62026E+06    -289.820E-03     579.543E-03    -289.723E-03     51.8162E-03    -290.315E-03     579.892E-03    -289.395E-03     47.8150E-03
             592     10.7815E-03     125.596E-03    -25.5304E+06     63.1280E+06     83.0300E+06     2.07868E+06    -289.752E-03     579.493E-03    -289.741E-03     53.6984E-03    -290.290E-03     579.924E-03    -289.380E-03     48.9029E-03
             593     11.4557E-03     125.683E-03    -18.1876E+06     71.6557E+06     92.2722E+06     2.08527E+06    -289.640E-03     579.387E-03    -289.747E-03     54.3357E-03    -290.204E-03     579.873E-03    -289.363E-03     48.6590E-03
             594     12.1298E-03     125.767E-03    -10.9690E+06     79.2736E+06     97.4395E+06     2.12810E+06    -289.551E-03     579.283E-03    -289.732E-03     55.1106E-03    -290.137E-03     579.829E-03    -289.344E-03     48.5611E-03
             595     12.8039E-03     125.853E-03    -4.94566E+06     84.0158E+06     96.5467E+06     1.39884E+06    -289.399E-03     579.091E-03    -289.692E-03     50.2570E-03    -289.908E-03     579.601E-03    -289.324E-03     44.4285E-03
             596     673.747E-06     126.514E-03    -114.866E+06    -234.050E+06    -113.074E+06     939.250E+03    -289.482E-03     578.932E-03    -289.450E-03     4.00153E-03    -289.553E-03     578.092E-03    -289.509E-03     4.24868E-03
             597     1.34751E-03     126.525E-03    -112.723E+06    -226.602E+06    -106.587E+06     1.34827E+06    -289.456E-03     578.936E-03    -289.481E-03     7.36036E-03    -289.536E-03     578.121E-03    -289.522E-03     7.79311E-03
             598     2.02129E-03     126.542E-03    -109.194E+06    -215.023E+06    -96.5203E+06     1.87106E+06    -289.444E-03     578.942E-03    -289.498E-03     10.8977E-03    -289.538E-03     578.165E-03    -289.511E-03     11.4953E-03
             599     2.69507E-03     126.565E-03    -104.569E+06    -199.653E+06    -83.6228E+06     2.34508E+06    -289.427E-03     578.946E-03    -289.518E-03     14.4684E-03    -289.539E-03     578.220E-03    -289.495E-03     15.1823E-03
             600     3.36892E-03     126.594E-03    -98.9152E+06    -181.705E+06     -68.942E+06     2.76499E+06    -289.411E-03     578.949E-03    -289.538E-03     18.0539E-03    -289.542E-03     578.283E-03    -289.476E-03     18.8217E-03
             601     4.04282E-03     126.630E-03    -92.5505E+06    -161.601E+06    -53.4629E+06     3.24721E+06    -289.402E-03     578.956E-03    -289.554E-03     21.6544E-03    -289.553E-03     578.360E-03    -289.453E-03     22.4006E-03
             602     4.71673E-03     126.672E-03    -85.7078E+06    -139.604E+06    -37.8659E+06     3.78744E+06    -289.398E-03     578.963E-03    -289.565E-03     25.2546E-03    -289.572E-03     578.448E-03    -289.428E-03     25.8913E-03
             603     5.39070E-03     126.720E-03    -78.5502E+06    -115.757E+06    -22.6491E+06     4.36625E+06    -289.397E-03     578.966E-03    -289.569E-03     28.8284E-03    -289.597E-03     578.542E-03    -289.401E-03     29.2607E-03
             604     6.06472E-03     126.774E-03    -71.2809E+06    -89.7844E+06    -7.69374E+06     4.93070E+06    -289.405E-03     578.973E-03    -289.568E-03     32.3748E-03    -289.635E-03     578.653E-03    -289.373E-03     32.4985E-03
             605     6.73883E-03     126.833E-03    -64.0020E+06    -60.3238E+06     7.57189E+06     5.45046E+06    -289.428E-03     578.992E-03    -289.564E-03     35.8815E-03    -289.698E-03     578.798E-03    -289.346E-03     35.5824E-03
             606     7.41288E-03     126.897E-03    -56.6967E+06    -23.5432E+06     22.9565E+06     6.06582E+06    -289.451E-03     579.002E-03    -289.551E-03     39.3064E-03    -289.775E-03     578.975E-03    -289.320E-03     38.4776E-03
             607     8.08697E-03     126.967E-03    -49.6947E+06     17.7402E+06     37.6520E+06     6.81595E+06    -289.472E-03     579.004E-03    -289.532E-03     42.7009E-03    -289.864E-03     579.173E-03    -289.297E-03     41.2364E-03
             608     8.76102E-03     127.041E-03    -43.6096E+06     38.7488E+06     48.6774E+06     7.08702E+06    -289.568E-03     579.096E-03    -289.529E-03     46.0879E-03    -290.003E-03     579.373E-03    -289.278E-03     43.8793E-03
             609     9.43498E-03     127.120E-03    -38.0260E+06     40.6627E+06     57.5675E+06     6.24062E+06    -289.698E-03     579.247E-03    -289.549E-03     49.2779E-03    -290.155E-03     579.546E-03    -289.265E-03     46.2274E-03
             610     10.1092E-03     127.203E-03    -31.9916E+06     51.5030E+06     70.0366E+06     4.57127E+06    -289.748E-03     579.325E-03    -289.577E-03     51.9579E-03    -290.247E-03     579.690E-03    -289.255E-03     48.0092E-03
             611     10.7831E-03     127.288E-03    -25.6340E+06     65.9915E+06     84.3888E+06     2.47972E+06    -289.747E-03     579.357E-03    -289.610E-03     53.9244E-03    -290.292E-03     579.800E-03    -289.246E-03     49.1406E-03
             612     11.4571E-03     127.375E-03    -19.1767E+06     72.8676E+06     93.3129E+06     496.568E+03    -289.676E-03     579.302E-03    -289.627E-03     54.6068E-03    -290.249E-03     579.796E-03    -289.238E-03     48.8964E-03
             613     12.1311E-03     127.459E-03    -12.3723E+06     78.6375E+06     97.2570E+06    -155.414E+03    -289.550E-03     579.167E-03    -289.617E-03     55.3407E-03    -290.145E-03     579.715E-03    -289.227E-03     48.7205E-03
             614     12.8054E-03     127.545E-03    -5.74335E+06     84.6957E+06     96.0713E+06     251.152E+03    -289.334E-03     578.911E-03    -289.577E-03     50.3886E-03    -289.849E-03     579.428E-03    -289.211E-03     44.4923E-03
             615     673.900E-06     128.205E-03    -116.887E+06    -238.589E+06    -115.455E+06     1.07171E+06    -289.292E-03     578.536E-03    -289.243E-03     4.00558E-03    -289.363E-03     577.679E-03    -289.305E-03     4.25608E-03
             616     1.34779E-03     128.215E-03    -114.587E+06    -229.717E+06    -108.314E+06     1.77596E+06    -289.255E-03     578.537E-03    -289.282E-03     7.37401E-03    -289.337E-03     577.711E-03    -289.324E-03     7.81868E-03
             617     2.02169E-03     128.232E-03    -111.114E+06    -217.311E+06    -97.8947E+06     1.89905E+06    -289.243E-03     578.543E-03    -289.300E-03     10.9413E-03    -289.340E-03     577.758E-03    -289.313E-03     11.5474E-03
             618     2.69564E-03     128.255E-03    -106.098E+06    -201.998E+06    -84.8464E+06     2.06308E+06    -289.232E-03     578.553E-03    -289.321E-03     14.5311E-03    -289.346E-03     577.819E-03    -289.298E-03     15.2499E-03
             619     3.36961E-03     128.284E-03    -100.150E+06    -184.042E+06    -69.9952E+06     2.43219E+06    -289.226E-03     578.568E-03    -289.342E-03     18.1212E-03    -289.358E-03     577.894E-03    -289.280E-03     18.8942E-03
             620     4.04360E-03     128.320E-03    -93.7446E+06    -163.972E+06    -54.3750E+06     2.80446E+06    -289.227E-03     578.589E-03    -289.362E-03     21.7170E-03    -289.380E-03     577.984E-03    -289.260E-03     22.4677E-03
             621     4.71766E-03     128.362E-03    -86.8407E+06    -142.174E+06    -38.6053E+06     3.20776E+06    -289.238E-03     578.615E-03    -289.377E-03     25.3036E-03    -289.413E-03     578.089E-03    -289.238E-03     25.9434E-03
             622     5.39174E-03     128.410E-03    -79.6511E+06    -118.585E+06    -23.1307E+06     3.72065E+06    -289.265E-03     578.653E-03    -289.388E-03     28.8472E-03    -289.465E-03     578.217E-03    -289.217E-03     29.2821E-03
             623     6.06585E-03     128.464E-03    -72.3936E+06    -92.7259E+06    -8.15533E+06     4.39496E+06    -289.305E-03     578.700E-03    -289.395E-03     32.3502E-03    -289.535E-03     578.368E-03    -289.196E-03     32.4797E-03
             624     6.73992E-03     128.523E-03    -65.1854E+06    -63.5384E+06     6.48632E+06     5.24870E+06    -289.350E-03     578.747E-03    -289.397E-03     35.8282E-03    -289.619E-03     578.540E-03    -289.178E-03     35.5467E-03
             625     7.41404E-03     128.588E-03    -58.3378E+06    -28.0498E+06     21.1301E+06     6.64228E+06    -289.383E-03     578.775E-03    -289.392E-03     39.2683E-03    -289.706E-03     578.730E-03    -289.161E-03     38.4772E-03
             626     8.08812E-03     128.658E-03    -51.7962E+06     13.5365E+06     35.4296E+06     8.25192E+06    -289.393E-03     578.770E-03    -289.378E-03     42.7036E-03    -289.785E-03     578.924E-03    -289.145E-03     41.2945E-03
             627     8.76232E-03     128.732E-03    -44.8972E+06     38.3094E+06     46.7889E+06     8.69243E+06    -289.461E-03     578.835E-03    -289.374E-03     46.1179E-03    -289.899E-03     579.114E-03    -289.130E-03     43.9665E-03
             628     9.43652E-03     128.812E-03    -37.8849E+06     43.1413E+06     57.1164E+06     7.71976E+06    -289.589E-03     578.987E-03    -289.398E-03     49.2966E-03    -290.048E-03     579.298E-03    -289.120E-03     46.2950E-03
             629     10.1105E-03     128.894E-03    -31.2755E+06     56.4682E+06     70.9552E+06     5.63746E+06    -289.632E-03     579.063E-03    -289.430E-03     51.9404E-03    -290.135E-03     579.449E-03    -289.112E-03     48.0277E-03
             630     10.7847E-03     128.980E-03    -24.4114E+06      71.788E+06     86.2208E+06     2.99364E+06    -289.619E-03     579.087E-03    -289.468E-03     53.9420E-03    -290.169E-03     579.555E-03    -289.105E-03     49.1795E-03
             631     11.4588E-03     129.066E-03    -17.5151E+06     76.9533E+06     96.2829E+06     909.429E+03    -289.598E-03     579.093E-03    -289.494E-03     54.7549E-03    -290.174E-03     579.600E-03    -289.099E-03     49.0540E-03
             632     12.1328E-03     129.150E-03    -11.3812E+06     79.9623E+06     100.417E+06    -636.554E+03    -289.563E-03     579.059E-03    -289.496E-03     55.5864E-03    -290.162E-03     579.610E-03    -289.093E-03     48.9267E-03
             633     12.8069E-03     129.236E-03    -5.67188E+06     83.3818E+06     98.8704E+06    -1.13664E+06    -289.408E-03     578.877E-03    -289.469E-03     50.5973E-03    -289.929E-03     579.387E-03    -289.087E-03     44.6261E-03
             634     673.995E-06     129.894E-03    -117.581E+06    -241.859E+06    -116.225E+06     199.309E+03    -289.103E-03     578.151E-03    -289.047E-03     4.02249E-03    -289.172E-03     577.280E-03    -289.107E-03     4.26265E-03
             635     1.34805E-03     129.904E-03    -115.157E+06    -233.346E+06    -110.123E+06     1.00684E+06    -289.059E-03     578.142E-03    -289.083E-03     7.38218E-03    -289.136E-03     577.302E-03    -289.128E-03     7.82007E-03
             636     2.02211E-03     129.921E-03    -111.573E+06    -219.256E+06    -99.8178E+06     1.66652E+06    -289.042E-03     578.137E-03    -289.096E-03     10.9350E-03    -289.136E-03     577.347E-03    -289.115E-03     11.5441E-03
             637     2.69618E-03     129.944E-03    -106.975E+06    -203.870E+06    -86.1937E+06     1.90473E+06    -289.042E-03     578.162E-03    -289.120E-03     14.5195E-03    -289.155E-03     577.421E-03    -289.100E-03     15.2448E-03
             638     3.37028E-03     129.974E-03    -101.307E+06    -186.012E+06    -71.0598E+06     2.10609E+06    -289.052E-03     578.199E-03    -289.146E-03     18.1040E-03    -289.185E-03     577.518E-03    -289.085E-03     18.8816E-03
             639     4.04441E-03     130.010E-03    -94.8603E+06    -166.077E+06    -55.1844E+06     2.44603E+06    -289.074E-03     578.247E-03    -289.173E-03     21.6871E-03    -289.228E-03     577.634E-03    -289.070E-03     22.4425E-03
             640     4.71854E-03     130.052E-03    -88.0404E+06    -144.458E+06    -39.2771E+06     2.89797E+06    -289.112E-03     578.309E-03    -289.197E-03     25.2520E-03    -289.288E-03     577.774E-03    -289.056E-03     25.8993E-03
             641     5.39268E-03     130.100E-03    -81.0170E+06    -121.198E+06    -23.8152E+06     3.43161E+06    -289.163E-03     578.380E-03    -289.218E-03     28.7851E-03    -289.365E-03     577.934E-03    -289.043E-03     29.2316E-03
             642     6.06681E-03     130.154E-03    -73.8119E+06    -95.6711E+06    -9.09290E+06     4.03034E+06    -289.217E-03     578.449E-03    -289.232E-03     32.3100E-03    -289.449E-03     578.106E-03    -289.032E-03     32.4549E-03
             643     6.74098E-03     130.213E-03    -66.4604E+06    -67.1616E+06     4.96694E+06     4.79436E+06    -289.264E-03     578.504E-03    -289.240E-03     35.8294E-03    -289.532E-03     578.283E-03    -289.021E-03     35.5682E-03
             644     7.41514E-03     130.278E-03    -58.7145E+06    -34.1582E+06     18.9309E+06     6.19214E+06    -289.296E-03     578.536E-03    -289.240E-03     39.2880E-03    -289.608E-03     578.464E-03    -289.010E-03     38.5223E-03
             645     8.08940E-03     130.348E-03    -50.7810E+06     7.07892E+06     33.8423E+06     8.34964E+06    -289.308E-03     578.539E-03    -289.231E-03     42.7102E-03    -289.683E-03     578.661E-03    -288.999E-03     41.3361E-03
             646     8.76358E-03     130.423E-03    -43.6448E+06     38.0370E+06     46.7981E+06     9.17737E+06    -289.366E-03     578.596E-03    -289.229E-03     46.1034E-03    -289.796E-03     578.870E-03    -288.987E-03     43.9893E-03
             647     9.43772E-03     130.502E-03    -36.8095E+06     47.0699E+06     57.4423E+06     7.37053E+06    -289.473E-03     578.724E-03    -289.251E-03     49.2978E-03    -289.932E-03     579.053E-03    -288.979E-03     46.3173E-03
             648     10.1120E-03     130.585E-03    -29.4091E+06     60.8495E+06     71.4201E+06     5.18594E+06    -289.501E-03     578.784E-03    -289.284E-03     51.9960E-03    -290.001E-03     579.189E-03    -288.972E-03     48.0984E-03
             649     10.7861E-03     130.670E-03    -22.5838E+06     76.3131E+06     87.4401E+06     3.70832E+06    -289.481E-03     578.806E-03    -289.325E-03     53.9807E-03    -290.030E-03     579.291E-03    -288.965E-03     49.2446E-03
             650     11.4604E-03     130.757E-03    -16.5068E+06     80.9766E+06     98.6276E+06     2.16380E+06    -289.466E-03     578.825E-03    -289.359E-03     54.6988E-03    -290.045E-03     579.347E-03    -288.959E-03     49.0279E-03
             651     12.1346E-03     130.841E-03    -10.3729E+06     84.3010E+06     104.197E+06     406.126E+03    -289.472E-03     578.842E-03    -289.370E-03     55.4987E-03    -290.079E-03     579.408E-03    -288.956E-03     48.8317E-03
             652     12.8088E-03     130.927E-03    -4.67555E+06     83.2480E+06     102.381E+06    -660.906E+03    -289.401E-03     578.753E-03    -289.352E-03     50.6418E-03    -289.923E-03     579.258E-03    -288.954E-03     44.6331E-03
             653     674.180E-06     131.583E-03    -117.590E+06    -242.337E+06    -115.791E+06     66.2457E+03    -288.907E-03     577.774E-03    -288.868E-03     4.02700E-03    -288.975E-03     576.901E-03    -288.925E-03     4.27398E-03
             654     1.34830E-03     131.593E-03    -115.428E+06    -235.759E+06    -109.798E+06     46.3021E+03    -288.889E-03     577.792E-03    -288.903E-03     7.37742E-03    -288.964E-03     576.939E-03    -288.943E-03     7.80176E-03
             655     2.02247E-03     131.610E-03    -111.809E+06    -222.506E+06    -100.631E+06     984.296E+03    -288.876E-03     577.792E-03    -288.916E-03     10.9045E-03    -288.965E-03     576.986E-03    -288.934E-03     11.5088E-03
             656     2.69668E-03     131.633E-03    -107.241E+06    -205.861E+06    -87.5621E+06     1.84980E+06    -288.877E-03     577.816E-03    -288.939E-03     14.4619E-03    -288.987E-03     577.068E-03    -288.922E-03     15.1967E-03
             657     3.37088E-03     131.663E-03    -101.866E+06    -187.783E+06    -72.0704E+06     2.22134E+06    -288.899E-03     577.870E-03    -288.971E-03     18.0335E-03    -289.031E-03     577.182E-03    -288.911E-03     18.8247E-03
             658     4.04509E-03     131.699E-03    -95.7986E+06    -168.114E+06    -56.0015E+06     2.54578E+06    -288.941E-03     577.945E-03    -289.004E-03     21.6156E-03    -289.095E-03     577.325E-03    -288.901E-03     22.3893E-03
             659     4.71930E-03     131.741E-03    -89.1039E+06    -146.657E+06    -40.0843E+06     2.93646E+06    -288.996E-03     578.031E-03    -289.035E-03     25.1932E-03    -289.173E-03     577.487E-03    -288.894E-03     25.8627E-03
             660     5.39351E-03     131.789E-03    -81.9917E+06    -123.387E+06    -24.7049E+06     3.28866E+06    -289.050E-03     578.112E-03    -289.061E-03     28.7517E-03    -289.253E-03     577.657E-03    -288.887E-03     29.2212E-03
             661     6.06775E-03     131.843E-03    -74.7111E+06    -98.1618E+06    -9.96652E+06     3.68827E+06    -289.106E-03     578.187E-03    -289.082E-03     32.2977E-03    -289.337E-03     577.833E-03    -288.881E-03     32.4654E-03
             662     6.74198E-03     131.903E-03    -67.3952E+06    -70.0956E+06     4.27361E+06     4.18344E+06    -289.164E-03     578.260E-03    -289.095E-03     35.8202E-03    -289.431E-03     578.026E-03    -288.874E-03     35.5779E-03
             663     7.41623E-03     131.968E-03    -60.0189E+06    -37.8839E+06     18.2219E+06     4.42427E+06    -289.214E-03     578.316E-03    -289.102E-03     39.2795E-03    -289.526E-03     578.227E-03    -288.868E-03     38.5147E-03
             664     8.09044E-03     132.038E-03    -51.9327E+06     385.661E+03     32.4608E+06     5.18425E+06    -289.231E-03     578.330E-03    -289.099E-03     42.7026E-03    -289.599E-03     578.421E-03    -288.862E-03     41.3104E-03
             665     8.76477E-03     132.113E-03    -42.9500E+06     34.7161E+06     45.7989E+06     6.89428E+06    -289.249E-03     578.342E-03    -289.094E-03     46.1025E-03    -289.668E-03     578.600E-03    -288.853E-03     43.9841E-03
             666     9.43907E-03     132.192E-03    -35.1936E+06     50.6026E+06     57.4297E+06     7.30282E+06    -289.320E-03     578.429E-03    -289.109E-03     49.3030E-03    -289.775E-03     578.772E-03    -288.844E-03     46.3459E-03
             667     10.1133E-03     132.275E-03    -29.4343E+06     64.1374E+06     71.1343E+06     5.90480E+06    -289.374E-03     578.516E-03    -289.142E-03     51.9515E-03    -289.878E-03     578.937E-03    -288.837E-03     48.0811E-03
             668     10.7877E-03     132.361E-03    -23.2863E+06     78.6270E+06     87.5885E+06     4.58162E+06    -289.388E-03     578.577E-03    -289.190E-03     53.8729E-03    -289.943E-03     579.075E-03    -288.832E-03     49.1505E-03
             669     11.4619E-03     132.448E-03    -16.4571E+06     84.7407E+06     99.7186E+06     3.29215E+06    -289.351E-03     578.579E-03    -289.228E-03     54.6185E-03    -289.937E-03     579.118E-03    -288.828E-03     48.9609E-03
             670     12.1360E-03     132.532E-03    -10.3230E+06     88.6136E+06     105.488E+06     1.65462E+06    -289.277E-03     578.515E-03    -289.238E-03     55.4876E-03    -289.892E-03     579.102E-03    -288.824E-03     48.8251E-03
             671     12.8103E-03     132.618E-03    -4.95956E+06     84.3562E+06     102.288E+06     595.994E+03    -289.126E-03     578.340E-03    -289.214E-03     50.7227E-03    -289.653E-03     578.852E-03    -288.818E-03     44.6966E-03
             672     674.245E-06     133.271E-03    -119.900E+06    -242.643E+06    -118.135E+06     174.916E+03    -288.734E-03     577.444E-03    -288.710E-03     3.98303E-03    -288.811E-03     576.576E-03    -288.774E-03     4.23142E-03
             673     1.34854E-03     133.281E-03    -117.300E+06    -236.276E+06    -110.160E+06     234.798E+03    -288.716E-03     577.461E-03    -288.746E-03     7.33495E-03    -288.799E-03     576.609E-03    -288.784E-03     7.76842E-03
             674     2.02279E-03     133.298E-03    -113.486E+06    -225.708E+06    -99.6882E+06     568.227E+03    -288.733E-03     577.503E-03    -288.771E-03     10.8791E-03    -288.827E-03     576.683E-03    -288.777E-03     11.4858E-03
             675     2.69706E-03     133.321E-03    -108.524E+06    -209.213E+06    -87.7132E+06     1.58523E+06    -288.743E-03     577.536E-03    -288.793E-03     14.4263E-03    -288.854E-03     576.774E-03    -288.771E-03     15.1709E-03
             676     3.37137E-03     133.351E-03    -102.924E+06    -189.994E+06    -73.1850E+06     2.46228E+06    -288.768E-03     577.591E-03    -288.822E-03     17.9778E-03    -288.900E-03     576.895E-03    -288.763E-03     18.7923E-03
             677     4.04568E-03     133.387E-03    -96.7505E+06    -169.839E+06    -56.8201E+06     2.72209E+06    -288.812E-03     577.671E-03    -288.859E-03     21.5603E-03    -288.967E-03     577.045E-03    -288.757E-03     22.3605E-03
             678     4.71997E-03     133.430E-03    -89.8340E+06    -148.291E+06    -40.5747E+06     2.78529E+06    -288.865E-03     577.759E-03    -288.894E-03     25.1460E-03    -289.043E-03     577.209E-03    -288.752E-03     25.8401E-03
             679     5.39429E-03     133.478E-03    -82.5455E+06    -125.321E+06    -25.0243E+06     3.08703E+06    -288.925E-03     577.848E-03    -288.923E-03     28.7054E-03    -289.127E-03     577.384E-03    -288.747E-03     29.1986E-03
             680     6.06858E-03     133.532E-03    -75.3084E+06    -100.334E+06    -10.1288E+06     3.50412E+06    -288.993E-03     577.939E-03    -288.947E-03     32.2552E-03    -289.223E-03     577.575E-03    -288.743E-03     32.4490E-03
             681     6.74289E-03     133.592E-03    -68.0880E+06    -72.4663E+06     4.18312E+06     3.98617E+06    -289.061E-03     578.025E-03    -288.964E-03     35.7913E-03    -289.326E-03     577.779E-03    -288.739E-03     35.5779E-03
             682     7.41717E-03     133.657E-03    -61.1727E+06    -39.8387E+06     18.1591E+06     4.64125E+06    -289.110E-03     578.084E-03    -288.974E-03     39.2805E-03    -289.424E-03     577.986E-03    -288.736E-03     38.5537E-03
             683     8.09150E-03     133.728E-03    -54.9277E+06    -1.22546E+06     31.9231E+06     4.47057E+06    -289.129E-03     578.103E-03    -288.973E-03     42.7528E-03    -289.509E-03     578.190E-03    -288.732E-03     41.3832E-03
             684     8.76580E-03     133.803E-03    -48.5417E+06     32.1865E+06     44.0483E+06     3.42744E+06    -289.163E-03     578.134E-03    -288.971E-03     46.1287E-03    -289.604E-03     578.389E-03    -288.727E-03     43.9853E-03
             685     9.44027E-03     133.882E-03    -40.3489E+06     47.9809E+06     55.7467E+06     3.90982E+06    -289.235E-03     578.225E-03    -288.991E-03     49.1668E-03    -289.709E-03     578.565E-03    -288.723E-03     46.1604E-03
             686     10.1147E-03     133.965E-03    -31.2599E+06     64.5441E+06     70.0357E+06     5.15555E+06    -289.251E-03     578.271E-03    -289.021E-03     51.7364E-03    -289.763E-03     578.698E-03    -288.719E-03     47.8475E-03
             687     10.7888E-03     134.051E-03    -23.6290E+06     80.7398E+06     86.1057E+06     4.73420E+06    -289.207E-03     578.268E-03    -289.060E-03     53.7494E-03    -289.765E-03     578.779E-03    -288.713E-03     49.0223E-03
             688     11.4633E-03     134.138E-03    -17.0578E+06     87.0298E+06     99.0745E+06     3.79914E+06    -289.142E-03     578.241E-03    -289.099E-03     54.5929E-03    -289.734E-03     578.794E-03    -288.705E-03     48.9381E-03
             689     12.1378E-03     134.222E-03    -10.7766E+06     91.5687E+06     107.231E+06     3.12741E+06    -289.129E-03     578.246E-03    -289.117E-03     55.4011E-03    -289.753E-03     578.846E-03    -288.698E-03     48.7393E-03
             690     12.8123E-03     134.308E-03    -5.22440E+06     87.1215E+06     105.741E+06     1.91382E+06    -289.209E-03     578.316E-03    -289.108E-03     50.1865E-03    -289.747E-03     578.839E-03    -288.698E-03     44.1147E-03
             691     674.318E-06     134.958E-03    -121.759E+06    -244.386E+06    -119.908E+06     524.284E+03    -288.594E-03     577.174E-03    -288.580E-03     3.95927E-03    -288.675E-03     576.302E-03    -288.648E-03     4.20521E-03
             692     1.34869E-03     134.969E-03    -119.288E+06    -236.964E+06    -112.265E+06     789.310E+03    -288.575E-03     577.182E-03    -288.607E-03     7.31893E-03    -288.664E-03     576.332E-03    -288.652E-03     7.77566E-03
             693     2.02308E-03     134.986E-03    -115.099E+06    -226.965E+06    -100.089E+06     761.715E+03    -288.602E-03     577.243E-03    -288.641E-03     10.8450E-03    -288.702E-03     576.419E-03    -288.646E-03     11.4720E-03
             694     2.69744E-03     135.009E-03    -109.825E+06    -213.242E+06    -86.4422E+06     1.29702E+06    -288.636E-03     577.316E-03    -288.680E-03     14.3929E-03    -288.750E-03     576.533E-03    -288.643E-03     15.1503E-03
             695     3.37179E-03     135.039E-03    -103.707E+06    -192.993E+06    -72.4901E+06     2.28841E+06    -288.660E-03     577.368E-03    -288.708E-03     17.9379E-03    -288.793E-03     576.658E-03    -288.640E-03     18.7705E-03
             696     4.04615E-03     135.075E-03    -97.0668E+06    -170.996E+06    -57.0084E+06     2.66511E+06    -288.691E-03     577.430E-03    -288.739E-03     21.5136E-03    -288.846E-03     576.799E-03    -288.636E-03     22.3366E-03
             697     4.72055E-03     135.118E-03    -90.2977E+06    -149.962E+06    -40.7565E+06     2.85720E+06    -288.741E-03     577.516E-03    -288.775E-03     25.0882E-03    -288.919E-03     576.959E-03    -288.630E-03     25.8095E-03
             698     5.39493E-03     135.166E-03    -83.3169E+06    -127.198E+06    -25.0647E+06     3.19778E+06    -288.806E-03     577.611E-03    -288.805E-03     28.6412E-03    -289.008E-03     577.139E-03    -288.625E-03     29.1666E-03
             699     6.06933E-03     135.221E-03    -76.1051E+06    -102.265E+06    -10.0528E+06     3.49378E+06    -288.878E-03     577.708E-03    -288.830E-03     32.1962E-03    -289.109E-03     577.335E-03    -288.622E-03     32.4227E-03
             700     6.74370E-03     135.281E-03    -68.7970E+06    -74.9067E+06      4.3018E+06     3.95545E+06    -288.947E-03     577.796E-03    -288.849E-03     35.7339E-03    -289.212E-03     577.539E-03    -288.619E-03     35.5530E-03
             701     7.41813E-03     135.346E-03    -61.2455E+06    -42.8957E+06     18.4697E+06     4.67433E+06    -289.005E-03     577.865E-03    -288.860E-03     39.1997E-03    -289.314E-03     577.751E-03    -288.617E-03     38.5048E-03
             702     8.09253E-03     135.417E-03    -53.5743E+06    -2.96895E+06     33.5983E+06     5.97802E+06    -289.049E-03     577.914E-03    -288.865E-03     42.6121E-03    -289.420E-03     577.987E-03    -288.615E-03     41.2932E-03
             703     8.76698E-03     135.492E-03    -46.9538E+06     34.8992E+06     47.5738E+06     5.98336E+06    -289.119E-03     577.988E-03    -288.869E-03     46.0128E-03    -289.559E-03     578.248E-03    -288.614E-03     43.9391E-03
             704     9.44107E-03     135.572E-03    -41.4817E+06     50.5616E+06     58.8494E+06     2.81645E+06    -289.249E-03     578.147E-03    -288.898E-03     49.1700E-03    -289.736E-03     578.496E-03    -288.617E-03     46.1772E-03
             705     10.1154E-03     135.655E-03    -34.8299E+06     62.1561E+06     70.5471E+06     794.883E+03    -289.352E-03     578.290E-03    -288.938E-03     51.5869E-03    -289.879E-03     578.709E-03    -288.625E-03     47.6314E-03
             706     10.7901E-03     135.741E-03    -26.5206E+06     77.7744E+06     81.5595E+06     2.46803E+06    -289.301E-03     578.268E-03    -288.967E-03     53.0156E-03    -289.867E-03     578.779E-03    -288.633E-03     48.1092E-03
             707     11.4646E-03     135.827E-03    -19.0604E+06     86.2753E+06     94.3781E+06     4.29646E+06    -289.148E-03     578.159E-03    -289.011E-03     53.2908E-03    -289.745E-03     578.721E-03    -288.637E-03     47.4493E-03
             708     12.1391E-03     135.912E-03    -12.7059E+06     93.9969E+06     108.326E+06     4.10751E+06    -289.267E-03     578.333E-03    -289.066E-03     53.7454E-03    -289.904E-03     578.944E-03    -288.642E-03     46.9973E-03
             709     12.8132E-03     135.998E-03    -6.07756E+06     91.7776E+06     110.626E+06     2.14372E+06    -289.632E-03     578.725E-03    -289.093E-03     48.4536E-03    -290.184E-03     579.261E-03    -288.664E-03     42.3209E-03
             710     674.460E-06     136.645E-03    -122.984E+06    -247.234E+06    -121.388E+06     729.643E+03    -288.497E-03     576.948E-03    -288.451E-03     3.94505E-03    -288.577E-03     576.066E-03    -288.521E-03     4.20345E-03
             711     1.34885E-03     136.656E-03    -120.620E+06    -239.061E+06    -114.007E+06     1.21609E+06    -288.497E-03     576.996E-03    -288.498E-03     7.27386E-03    -288.588E-03     576.140E-03    -288.547E-03     7.74964E-03
             712     2.02327E-03     136.673E-03    -116.722E+06    -227.650E+06    -102.441E+06     1.40787E+06    -288.507E-03     577.043E-03    -288.536E-03     10.7721E-03    -288.611E-03     576.221E-03    -288.549E-03     11.4261E-03
             713     2.69769E-03     136.697E-03    -111.409E+06    -215.202E+06    -87.5535E+06     1.24834E+06    -288.534E-03     577.117E-03    -288.583E-03     14.3173E-03    -288.651E-03     576.329E-03    -288.547E-03     15.0932E-03
             714     3.37211E-03     136.727E-03    -105.104E+06    -196.212E+06    -72.1329E+06     1.59623E+06    -288.563E-03     577.183E-03    -288.621E-03     17.8717E-03    -288.698E-03     576.458E-03    -288.544E-03     18.7137E-03
             715     4.04657E-03     136.763E-03    -98.1536E+06    -173.118E+06    -56.5056E+06     2.51157E+06    -288.595E-03     577.246E-03    -288.651E-03     21.4238E-03    -288.753E-03     576.605E-03    -288.540E-03     22.2652E-03
             716     4.72102E-03     136.806E-03    -90.9556E+06    -151.692E+06    -40.0507E+06     2.97732E+06    -288.651E-03     577.338E-03    -288.687E-03     24.9612E-03    -288.830E-03     576.771E-03    -288.536E-03     25.7077E-03
             717     5.39549E-03     136.854E-03    -83.4796E+06    -128.659E+06    -23.9948E+06     3.00282E+06    -288.722E-03     577.441E-03    -288.720E-03     28.4793E-03    -288.924E-03     576.960E-03    -288.532E-03     29.0269E-03
             718     6.06994E-03     136.909E-03    -75.7635E+06    -104.204E+06    -8.76614E+06      3.2662E+06    -288.805E-03     577.553E-03    -288.748E-03     31.9802E-03    -289.033E-03     577.168E-03    -288.531E-03     32.2235E-03
             719     6.74441E-03     136.969E-03    -68.0907E+06    -77.1252E+06     5.74663E+06     3.67155E+06    -288.897E-03     577.668E-03    -288.771E-03     35.4405E-03    -289.158E-03     577.397E-03    -288.532E-03     35.2689E-03
             720     7.41882E-03     137.035E-03    -60.5722E+06    -45.3889E+06     19.8214E+06     3.99983E+06    -288.987E-03     577.774E-03    -288.788E-03     38.8149E-03    -289.291E-03     577.645E-03    -288.535E-03     38.1161E-03
             721     8.09323E-03     137.105E-03    -52.8791E+06    -7.97602E+06     34.1185E+06     4.75494E+06    -289.058E-03     577.856E-03    -288.799E-03     42.1345E-03    -289.419E-03     577.903E-03    -288.540E-03     40.7984E-03
             722     8.76759E-03     137.181E-03    -44.5299E+06     33.6130E+06     48.6698E+06     6.24891E+06    -289.117E-03     577.923E-03    -288.805E-03     45.3697E-03    -289.545E-03     578.171E-03    -288.546E-03     43.2900E-03
             723     9.44233E-03     137.261E-03    -37.0567E+06     56.4900E+06     62.6600E+06     6.92450E+06    -289.285E-03     578.127E-03    -288.842E-03     48.3433E-03    -289.764E-03     578.493E-03    -288.557E-03     45.3948E-03
             724     10.1165E-03     137.345E-03    -31.8377E+06     68.1551E+06     78.6496E+06     4.08176E+06    -289.561E-03     578.480E-03    -288.919E-03     50.8669E-03    -290.091E-03     578.911E-03    -288.578E-03     46.9754E-03
             725     10.7898E-03     137.431E-03    -26.9524E+06     73.0472E+06     86.0801E+06     1.76987E+06    -289.767E-03     578.743E-03    -288.976E-03     52.4310E-03    -290.337E-03     579.228E-03    -288.613E-03     47.4042E-03
             726     11.4636E-03     137.517E-03    -20.4809E+06     79.9526E+06     94.0431E+06     3.71319E+06    -289.692E-03     578.725E-03    -289.033E-03     52.5794E-03    -290.291E-03     579.263E-03    -288.649E-03     46.5464E-03
             727     12.1376E-03     137.602E-03    -12.8758E+06     98.5102E+06     109.107E+06     3.71662E+06    -289.487E-03     578.586E-03    -289.099E-03     53.1699E-03    -290.131E-03     579.218E-03    -288.678E-03     46.3990E-03
             728     12.8113E-03     137.690E-03    -5.77491E+06     97.1793E+06     109.473E+06     1.11933E+06    -289.215E-03     578.324E-03    -289.109E-03     48.6735E-03    -289.770E-03     578.886E-03    -288.694E-03     42.5996E-03
             729     674.460E-06     138.332E-03    -124.292E+06    -250.578E+06    -122.428E+06     695.276E+03    -288.486E-03     576.864E-03    -288.378E-03     3.89917E-03    -288.566E-03     575.968E-03    -288.446E-03     4.17576E-03
             730     1.34892E-03     138.343E-03    -121.486E+06    -242.072E+06    -114.947E+06     1.34123E+06    -288.449E-03     576.904E-03    -288.455E-03     7.17174E-03    -288.538E-03     576.036E-03    -288.503E-03     7.65805E-03
             731     2.02336E-03     138.360E-03    -117.379E+06    -229.187E+06    -103.449E+06     1.70151E+06    -288.455E-03     576.943E-03    -288.488E-03     10.6580E-03    -288.559E-03     576.116E-03    -288.503E-03     11.3286E-03
             732     2.69785E-03     138.384E-03    -112.193E+06    -214.956E+06    -88.4144E+06     1.43132E+06    -288.476E-03     577.008E-03    -288.532E-03     14.1658E-03    -288.596E-03     576.223E-03    -288.500E-03     14.9602E-03
             733     3.37234E-03     138.414E-03    -105.903E+06    -198.675E+06    -71.5208E+06     1.35967E+06    -288.515E-03     577.096E-03    -288.581E-03     17.6617E-03    -288.652E-03     576.358E-03    -288.497E-03     18.5160E-03
             734     4.04681E-03     138.450E-03    -98.7200E+06    -176.294E+06    -55.0221E+06     2.00649E+06    -288.561E-03     577.179E-03    -288.618E-03     21.1553E-03    -288.719E-03     576.520E-03    -288.494E-03     22.0025E-03
             735     4.72129E-03     138.493E-03    -90.9676E+06    -152.634E+06    -38.8979E+06     2.30654E+06    -288.626E-03     577.278E-03    -288.652E-03     24.6401E-03    -288.805E-03     576.705E-03    -288.493E-03     25.3900E-03
             736     5.39574E-03     138.542E-03    -83.2556E+06    -130.400E+06    -23.0566E+06     2.54075E+06    -288.719E-03     577.408E-03    -288.689E-03     28.0923E-03    -288.919E-03     576.916E-03    -288.494E-03     28.6438E-03
             737     6.07020E-03     138.597E-03    -75.7107E+06    -106.186E+06    -7.94524E+06     3.01002E+06    -288.831E-03     577.554E-03    -288.724E-03     31.5140E-03    -289.057E-03     577.158E-03    -288.500E-03     31.7598E-03
             738     6.74457E-03     138.657E-03    -68.2830E+06    -79.2371E+06     6.44319E+06     3.47091E+06    -288.951E-03     577.706E-03    -288.755E-03     34.8957E-03    -289.211E-03     577.423E-03    -288.509E-03     34.7238E-03
             739     7.41894E-03     138.723E-03    -61.1084E+06    -48.2689E+06     20.3748E+06     4.36922E+06    -289.068E-03     577.851E-03    -288.782E-03     38.2005E-03    -289.371E-03     577.707E-03    -288.522E-03     37.5059E-03
             740     8.09323E-03     138.794E-03    -54.5851E+06    -11.3356E+06     34.3655E+06     5.31327E+06    -289.174E-03     577.979E-03    -288.806E-03     41.4473E-03    -289.539E-03     578.011E-03    -288.538E-03     40.1098E-03
             741     8.76755E-03     138.870E-03    -48.3585E+06     30.9950E+06     48.1677E+06     5.25123E+06    -289.268E-03     578.092E-03    -288.824E-03     44.6289E-03    -289.710E-03     578.333E-03    -288.558E-03     42.5218E-03
             742     9.44138E-03     138.950E-03    -40.3397E+06     55.7284E+06     61.8095E+06     4.71354E+06    -289.364E-03     578.230E-03    -288.866E-03     47.5865E-03    -289.856E-03     578.597E-03    -288.579E-03     44.5889E-03
             743     10.1156E-03     139.035E-03    -30.6633E+06     71.9213E+06     80.0908E+06     5.43216E+06    -289.428E-03     578.369E-03    -288.941E-03     50.2372E-03    -289.957E-03     578.812E-03    -288.600E-03     46.4200E-03
             744     10.7903E-03     139.122E-03    -22.9952E+06     72.6617E+06     90.4593E+06     6.33411E+06    -289.609E-03     578.614E-03    -289.005E-03     52.3616E-03    -290.161E-03     579.079E-03    -288.624E-03     47.5097E-03
             745     11.4637E-03     139.208E-03    -17.1549E+06     79.2891E+06     98.6555E+06     4.43276E+06    -289.580E-03     578.633E-03    -289.053E-03     53.6197E-03    -290.170E-03     579.157E-03    -288.650E-03     47.6649E-03
             746     12.1372E-03     139.293E-03    -10.7360E+06     102.637E+06     110.683E+06     2.16137E+06    -289.033E-03     578.112E-03    -289.079E-03     55.2836E-03    -289.681E-03     578.765E-03    -288.659E-03     48.5534E-03
             747     12.8122E-03     139.379E-03    -4.91989E+06     100.115E+06     109.125E+06     1.76893E+06    -288.354E-03     577.399E-03    -289.044E-03     50.9532E-03    -288.914E-03     577.980E-03    -288.636E-03     44.9579E-03
             748     674.427E-06     140.019E-03    -125.417E+06    -253.521E+06    -123.599E+06     566.812E+03    -288.504E-03     576.942E-03    -288.437E-03     3.84300E-03    -288.584E-03     576.035E-03    -288.506E-03     4.12663E-03
             749     1.34886E-03     140.030E-03    -122.616E+06    -244.742E+06    -115.757E+06     909.968E+03    -288.466E-03     576.958E-03    -288.491E-03     7.07183E-03    -288.556E-03     576.079E-03    -288.538E-03     7.55821E-03
             750     2.02335E-03     140.047E-03    -118.313E+06    -231.416E+06    -103.763E+06     1.36024E+06    -288.478E-03     576.999E-03    -288.521E-03     10.4668E-03    -288.583E-03     576.163E-03    -288.533E-03     11.1415E-03
             751     2.69779E-03     140.071E-03    -112.909E+06    -215.476E+06    -88.6263E+06     1.71878E+06    -288.504E-03     577.066E-03    -288.563E-03     13.8910E-03    -288.626E-03     576.280E-03    -288.530E-03     14.7003E-03
             752     3.37222E-03     140.101E-03    -106.480E+06    -199.484E+06    -71.7472E+06     1.57673E+06    -288.552E-03     577.165E-03    -288.613E-03     17.3329E-03    -288.690E-03     576.425E-03    -288.528E-03     18.2039E-03
             753     4.04666E-03     140.138E-03    -99.2517E+06    -178.296E+06    -54.9341E+06     1.42635E+06    -288.610E-03     577.267E-03    -288.657E-03     20.7772E-03    -288.768E-03     576.599E-03    -288.529E-03     21.6327E-03
             754     4.72110E-03     140.181E-03    -91.8216E+06    -154.383E+06    -38.7354E+06     1.94677E+06    -288.686E-03     577.381E-03    -288.695E-03     24.1959E-03    -288.867E-03     576.801E-03    -288.532E-03     24.9577E-03
             755     5.39551E-03     140.230E-03    -84.2951E+06    -132.233E+06    -22.8971E+06     2.45494E+06    -288.795E-03     577.533E-03    -288.738E-03     27.5966E-03    -288.998E-03     577.034E-03    -288.539E-03     28.1649E-03
             756     6.06985E-03     140.285E-03    -76.5620E+06    -108.114E+06    -7.77126E+06     2.77005E+06    -288.917E-03     577.696E-03    -288.779E-03     30.9990E-03    -289.144E-03     577.290E-03    -288.550E-03     31.2629E-03
             757     6.74417E-03     140.346E-03     -68.848E+06    -82.1462E+06     6.52216E+06     3.50257E+06    -289.038E-03     577.854E-03    -288.816E-03     34.3923E-03    -289.296E-03     577.557E-03    -288.564E-03     34.2478E-03
             758     7.41840E-03     140.412E-03    -61.1437E+06    -52.0081E+06     20.3976E+06     4.44064E+06    -289.143E-03     577.990E-03    -288.847E-03     37.7636E-03    -289.440E-03     577.826E-03    -288.581E-03     37.1054E-03
             759     8.09260E-03     140.483E-03    -52.9789E+06    -15.6741E+06     34.7198E+06     5.78410E+06    -289.209E-03     578.080E-03    -288.870E-03     41.1878E-03    -289.559E-03     578.085E-03    -288.597E-03     39.9113E-03
             760     8.76661E-03     140.560E-03    -44.8869E+06     30.9110E+06     49.7621E+06     6.59568E+06    -289.180E-03     578.058E-03    -288.878E-03     44.7541E-03    -289.605E-03     578.289E-03    -288.609E-03     42.7532E-03
             761     9.44103E-03     140.640E-03    -38.5930E+06     59.1554E+06     63.7333E+06     4.97272E+06    -289.125E-03     578.027E-03    -288.902E-03     48.2721E-03    -289.613E-03     578.403E-03    -288.613E-03     45.3965E-03
             762     10.1151E-03     140.724E-03    -33.5850E+06     65.0341E+06     75.2710E+06     4.72850E+06    -288.951E-03     577.887E-03    -288.936E-03     51.3790E-03    -289.475E-03     578.304E-03    -288.605E-03     47.6681E-03
             763     10.7892E-03     140.811E-03    -26.8170E+06     71.9394E+06     83.4692E+06     5.89442E+06    -288.629E-03     577.560E-03    -288.931E-03     53.9179E-03    -289.183E-03     578.032E-03    -288.579E-03     49.3142E-03
             764     11.4645E-03     140.898E-03    -19.0274E+06     87.5637E+06     96.1519E+06     4.44958E+06    -288.424E-03     577.345E-03    -288.921E-03     55.4479E-03    -289.026E-03     577.912E-03    -288.540E-03     49.7794E-03
             765     12.1401E-03     140.982E-03    -12.7930E+06     102.737E+06     109.944E+06     3.35514E+06    -288.390E-03     577.309E-03    -288.920E-03     56.7537E-03    -289.050E-03     577.971E-03    -288.500E-03     50.0876E-03
             766     12.8152E-03     141.067E-03    -6.75935E+06     102.392E+06     112.567E+06     2.51378E+06    -288.372E-03     577.264E-03    -288.892E-03     51.6424E-03    -288.955E-03     577.860E-03    -288.468E-03     45.5971E-03
             767     674.359E-06     141.706E-03    -126.499E+06    -255.833E+06    -124.709E+06     389.916E+03    -288.589E-03     577.174E-03    -288.585E-03     3.78058E-03    -288.669E-03     576.259E-03    -288.655E-03     4.06451E-03
             768     1.34874E-03     141.717E-03    -124.099E+06    -247.364E+06    -116.906E+06     1.05568E+06    -288.590E-03     577.200E-03    -288.610E-03     6.93946E-03    -288.681E-03     576.312E-03    -288.656E-03     7.43848E-03
             769     2.02304E-03     141.734E-03    -120.133E+06    -233.852E+06    -105.037E+06     1.56162E+06    -288.596E-03     577.238E-03    -288.642E-03     10.2744E-03    -288.705E-03     576.395E-03    -288.654E-03     10.9645E-03
             770     2.69742E-03     141.758E-03    -114.735E+06    -217.131E+06    -90.3740E+06     1.82566E+06    -288.610E-03     577.290E-03    -288.680E-03     13.6481E-03    -288.737E-03     576.500E-03    -288.650E-03     14.4799E-03
             771     3.37181E-03     141.788E-03    -108.206E+06    -198.806E+06    -73.6770E+06     1.47512E+06    -288.652E-03     577.377E-03    -288.724E-03     17.0491E-03    -288.797E-03     576.645E-03    -288.647E-03     17.9496E-03
             772     4.04616E-03     141.825E-03    -101.031E+06    -179.643E+06    -56.1013E+06     1.30766E+06    -288.713E-03     577.487E-03    -288.774E-03     20.4609E-03    -288.877E-03     576.817E-03    -288.647E-03     21.3517E-03
             773     4.72049E-03     141.869E-03    -93.3617E+06    -157.203E+06    -39.1465E+06     1.89933E+06    -288.778E-03     577.594E-03    -288.816E-03     23.8878E-03    -288.962E-03     577.002E-03    -288.649E-03     24.6933E-03
             774     5.39477E-03     141.918E-03    -85.4112E+06    -133.282E+06    -23.3173E+06     2.22261E+06    -288.848E-03     577.700E-03    -288.852E-03     27.3617E-03    -289.054E-03     577.197E-03    -288.651E-03     27.9826E-03
             775     6.06906E-03     141.973E-03    -77.5744E+06    -110.072E+06    -8.56898E+06     2.42136E+06    -288.916E-03     577.799E-03    -288.883E-03     30.8919E-03    -289.144E-03     577.385E-03    -288.653E-03     31.2212E-03
             776     6.74331E-03     142.034E-03    -69.6960E+06    -84.7514E+06     5.36271E+06     2.76636E+06    -288.954E-03     577.858E-03    -288.904E-03     34.4950E-03    -289.209E-03     577.549E-03    -288.653E-03     34.4309E-03
             777     7.41759E-03     142.101E-03    -61.7518E+06    -55.2356E+06     18.8614E+06     3.29862E+06    -288.932E-03     577.843E-03    -288.911E-03     38.1900E-03    -289.223E-03     577.664E-03    -288.647E-03     37.6322E-03
             778     8.09190E-03     142.172E-03    -54.2033E+06    -20.3711E+06     32.3795E+06     4.11855E+06    -288.815E-03     577.714E-03    -288.900E-03     42.0163E-03    -289.157E-03     577.698E-03    -288.630E-03     40.8607E-03
             779     8.76660E-03     142.248E-03    -47.1234E+06     25.8894E+06     46.8542E+06     6.12479E+06    -288.578E-03     577.440E-03    -288.862E-03     45.8949E-03    -288.999E-03     577.649E-03    -288.597E-03     44.0489E-03
             780     9.44133E-03     142.329E-03    -40.6434E+06     58.2121E+06     61.4009E+06     9.28726E+06    -288.371E-03     577.201E-03    -288.830E-03     49.5888E-03    -288.860E-03     577.575E-03    -288.549E-03     46.9618E-03
             781     10.1165E-03     142.413E-03    -34.4428E+06     67.9405E+06     74.6191E+06     8.31347E+06    -288.278E-03     577.095E-03    -288.818E-03     52.7350E-03    -288.809E-03     577.529E-03    -288.493E-03     49.1883E-03
             782     10.7923E-03     142.498E-03    -28.2515E+06     74.1936E+06     82.8611E+06     4.30243E+06    -288.172E-03     576.956E-03    -288.784E-03     54.6840E-03    -288.738E-03     577.444E-03    -288.436E-03     50.0639E-03
             783     11.4681E-03     142.585E-03    -21.7857E+06     88.2399E+06     94.8788E+06     3.86997E+06    -288.115E-03     576.876E-03    -288.761E-03     54.9063E-03    -288.727E-03     577.449E-03    -288.383E-03     49.2471E-03
             784     12.1429E-03     142.670E-03    -14.0075E+06     104.791E+06     110.662E+06     3.54850E+06    -288.310E-03     577.076E-03    -288.766E-03     55.2132E-03    -288.979E-03     577.746E-03    -288.344E-03     48.4770E-03
             785     12.8173E-03     142.756E-03    -6.06713E+06     106.500E+06     114.914E+06     1.29783E+06    -288.428E-03     577.181E-03    -288.752E-03     50.2623E-03    -289.019E-03     577.795E-03    -288.323E-03     44.0329E-03
             786     674.217E-06     143.394E-03    -128.433E+06    -260.485E+06    -125.888E+06     1.84223E+06    -288.788E-03     577.551E-03    -288.763E-03     3.72758E-03    -288.869E-03     576.617E-03    -288.828E-03     4.04304E-03
             787     1.34841E-03     143.404E-03    -125.889E+06    -250.014E+06    -118.198E+06     1.89412E+06    -288.766E-03     577.562E-03    -288.796E-03     6.86864E-03    -288.861E-03     576.665E-03    -288.842E-03     7.40159E-03
             788     2.02268E-03     143.422E-03    -121.690E+06    -236.097E+06    -106.451E+06     1.95382E+06    -288.759E-03     577.582E-03    -288.822E-03     10.1921E-03    -288.870E-03     576.731E-03    -288.836E-03     10.9181E-03
             789     2.69691E-03     143.446E-03    -116.118E+06    -218.596E+06    -91.4218E+06     1.99554E+06    -288.757E-03     577.612E-03    -288.854E-03     13.5624E-03    -288.887E-03     576.818E-03    -288.826E-03     14.4390E-03
             790     3.37114E-03     143.476E-03    -109.796E+06    -198.749E+06    -74.6360E+06     1.94791E+06    -288.754E-03     577.643E-03    -288.888E-03     16.9824E-03    -288.905E-03     576.915E-03    -288.814E-03     17.9476E-03
             791     4.04540E-03     143.513E-03    -102.807E+06    -180.020E+06    -57.3903E+06     1.58142E+06    -288.761E-03     577.683E-03    -288.923E-03     20.4765E-03    -288.930E-03     577.015E-03    -288.800E-03     21.4415E-03
             792     4.71967E-03     143.557E-03    -95.0658E+06    -158.757E+06    -40.7184E+06     1.19992E+06    -288.757E-03     577.703E-03    -288.946E-03     24.0512E-03    -288.944E-03     577.107E-03    -288.782E-03     24.9308E-03
             793     5.39403E-03     143.606E-03    -87.0122E+06    -134.847E+06    -24.9636E+06     1.51498E+06    -288.729E-03     577.685E-03    -288.955E-03     27.6914E-03    -288.937E-03     577.177E-03    -288.758E-03     28.4018E-03
             794     6.06843E-03     143.662E-03    -79.0121E+06    -111.592E+06    -9.89093E+06     1.93004E+06    -288.678E-03     577.632E-03    -288.954E-03     31.4138E-03    -288.907E-03     577.213E-03    -288.727E-03     31.8503E-03
             795     6.74297E-03     143.723E-03    -71.3653E+06    -86.3669E+06     4.23413E+06     2.20800E+06    -288.578E-03     577.515E-03    -288.937E-03     35.2166E-03    -288.835E-03     577.200E-03    -288.687E-03     35.2670E-03
             796     7.41770E-03     143.789E-03    -64.2149E+06    -58.2573E+06     17.4990E+06     2.90853E+06    -288.428E-03     577.328E-03    -288.900E-03     39.0230E-03    -288.723E-03     577.138E-03    -288.635E-03     38.5776E-03
             797     8.09275E-03     143.860E-03    -57.2034E+06    -23.7630E+06     31.0135E+06     4.00998E+06    -288.246E-03     577.091E-03    -288.844E-03     42.7550E-03    -288.595E-03     577.062E-03    -288.572E-03     41.6906E-03
             798     8.76788E-03     143.936E-03    -50.2837E+06     15.6773E+06     44.8639E+06     6.73206E+06    -288.077E-03     576.851E-03    -288.775E-03     46.2776E-03    -288.495E-03     577.017E-03    -288.500E-03     44.4845E-03
             799     9.44345E-03     144.016E-03    -42.9310E+06     50.7590E+06     58.1675E+06     9.50348E+06    -288.000E-03     576.707E-03    -288.707E-03     49.3230E-03    -288.485E-03     577.051E-03    -288.427E-03     46.6907E-03
             800     10.1190E-03     144.100E-03    -34.6589E+06     78.5200E+06     74.8504E+06     7.96229E+06    -288.144E-03     576.820E-03    -288.676E-03     51.6490E-03    -288.691E-03     577.305E-03    -288.365E-03     48.0667E-03
             801     10.7935E-03     144.186E-03    -26.4068E+06     79.1087E+06     84.9899E+06     4.99348E+06    -288.472E-03     577.146E-03    -288.674E-03     53.0865E-03    -289.042E-03     577.656E-03    -288.325E-03     48.2958E-03
             802     11.4674E-03     144.273E-03    -18.6740E+06     86.3436E+06     97.2172E+06     3.34445E+06    -288.493E-03     577.184E-03    -288.691E-03     53.5986E-03    -289.094E-03     577.743E-03    -288.303E-03     47.7509E-03
             803     12.1422E-03     144.358E-03    -11.5940E+06     108.635E+06     113.642E+06     2.12131E+06    -288.223E-03     576.930E-03    -288.707E-03     54.4948E-03    -288.888E-03     577.610E-03    -288.280E-03     47.6934E-03
             804     12.8173E-03     144.444E-03    -5.74376E+06     109.609E+06     116.124E+06     1.51869E+06    -288.027E-03     576.708E-03    -288.681E-03     49.7041E-03    -288.623E-03     577.337E-03    -288.251E-03     43.4057E-03
             805     674.071E-06     145.082E-03    -129.067E+06    -268.183E+06    -128.341E+06     1.88237E+06    -288.976E-03     577.947E-03    -288.971E-03     3.73546E-03    -289.046E-03     576.979E-03    -289.037E-03     4.06623E-03
             806     1.34818E-03     145.093E-03    -126.764E+06    -252.846E+06    -120.607E+06     2.42568E+06    -288.925E-03     577.900E-03    -288.975E-03     6.91271E-03    -289.017E-03     576.994E-03    -289.027E-03     7.48225E-03
             807     2.02225E-03     145.110E-03    -122.870E+06    -237.924E+06    -107.797E+06     2.29120E+06    -288.887E-03     577.877E-03    -288.990E-03     10.2916E-03    -288.999E-03     577.021E-03    -289.006E-03     11.0691E-03
             808     2.69640E-03     145.134E-03    -117.442E+06    -220.198E+06    -92.4902E+06       2.269E+06    -288.833E-03     577.839E-03    -289.007E-03     13.7384E-03    -288.965E-03     577.041E-03    -288.979E-03     14.6789E-03
             809     3.37061E-03     145.165E-03    -110.810E+06    -200.111E+06    -75.6482E+06     2.42196E+06    -288.756E-03     577.773E-03    -289.017E-03     17.2568E-03    -288.908E-03     577.041E-03    -288.944E-03     18.3012E-03
             810     4.04492E-03     145.202E-03    -103.640E+06    -179.172E+06    -58.2284E+06     2.12711E+06    -288.674E-03     577.693E-03    -289.019E-03     20.8531E-03    -288.846E-03     577.030E-03    -288.900E-03     21.9122E-03
             811     4.71936E-03     145.245E-03    -96.3391E+06    -158.331E+06    -41.1134E+06     1.42827E+06    -288.587E-03     577.599E-03    -289.012E-03     24.5045E-03    -288.779E-03     577.007E-03    -288.848E-03     25.4751E-03
             812     5.39388E-03     145.294E-03    -88.7033E+06    -136.149E+06    -25.1924E+06     1.04501E+06    -288.474E-03     577.463E-03    -288.989E-03     28.1804E-03    -288.687E-03     576.951E-03    -288.789E-03     28.9662E-03
             813     6.06861E-03     145.350E-03    -80.8189E+06    -113.167E+06    -10.4741E+06     1.33826E+06    -288.345E-03     577.294E-03    -288.950E-03     31.8478E-03    -288.579E-03     576.870E-03    -288.721E-03     32.3461E-03
             814     6.74352E-03     145.410E-03    -73.0267E+06    -88.6686E+06     3.67167E+06     2.17593E+06    -288.223E-03     577.121E-03    -288.898E-03     35.4505E-03    -288.484E-03     576.797E-03    -288.646E-03     35.5445E-03
             815     7.41860E-03     145.476E-03    -65.1247E+06    -60.2113E+06     17.4844E+06     2.68446E+06    -288.132E-03     576.969E-03    -288.837E-03     38.9174E-03    -288.429E-03     576.770E-03    -288.568E-03     38.4742E-03
             816     8.09366E-03     145.547E-03    -56.9821E+06    -27.4994E+06     30.7618E+06     3.27873E+06    -288.097E-03     576.865E-03    -288.768E-03     42.2195E-03    -288.440E-03     576.819E-03    -288.492E-03     41.1141E-03
             817     8.76885E-03     145.623E-03    -48.4739E+06     4.88927E+06     43.9588E+06     5.58485E+06    -288.148E-03     576.856E-03    -288.708E-03     45.3225E-03    -288.541E-03     576.967E-03    -288.425E-03     43.4514E-03
             818     9.44363E-03     145.703E-03    -39.9237E+06     45.9906E+06     58.6831E+06     7.69405E+06    -288.228E-03     576.882E-03    -288.654E-03     48.1932E-03    -288.693E-03     577.198E-03    -288.370E-03     45.4727E-03
             819     10.1181E-03     145.787E-03    -32.2332E+06     84.4608E+06     76.5544E+06     7.09881E+06    -288.244E-03     576.876E-03    -288.631E-03     50.8657E-03    -288.788E-03     577.383E-03    -288.324E-03     47.2945E-03
             820     10.7931E-03     145.875E-03    -25.5510E+06     83.9612E+06     85.5660E+06     4.81790E+06    -288.257E-03     576.885E-03    -288.628E-03     53.0916E-03    -288.827E-03     577.414E-03    -288.285E-03     48.3891E-03
             821     11.4685E-03     145.961E-03    -19.4994E+06     88.4453E+06     96.7434E+06     3.32875E+06    -288.156E-03     576.787E-03    -288.631E-03     54.3398E-03    -288.763E-03     577.358E-03    -288.248E-03     48.5705E-03
             822     12.1436E-03     146.046E-03    -13.5104E+06     109.424E+06     113.611E+06     3.11198E+06    -287.995E-03     576.634E-03    -288.639E-03     55.4448E-03    -288.672E-03     577.322E-03    -288.210E-03     48.7169E-03
             823     12.8188E-03     146.131E-03    -6.68262E+06     112.739E+06     117.046E+06     1.99701E+06    -288.026E-03     576.635E-03    -288.609E-03     50.4369E-03    -288.631E-03     577.277E-03    -288.177E-03     44.2601E-03
             824     673.950E-06     146.771E-03    -128.467E+06    -271.916E+06    -128.028E+06    -610.369E+03    -289.093E-03     578.206E-03    -289.113E-03     3.85125E-03    -289.155E-03     577.218E-03    -289.173E-03     4.15338E-03
             825     1.34797E-03     146.781E-03    -126.168E+06    -257.645E+06    -122.221E+06     936.199E+03    -289.015E-03     578.101E-03    -289.086E-03     7.04462E-03    -289.095E-03     577.172E-03    -289.140E-03     7.61406E-03
             826     2.02209E-03     146.799E-03    -122.299E+06    -239.964E+06    -110.123E+06     1.96535E+06    -288.915E-03     577.987E-03    -289.072E-03     10.4747E-03    -289.017E-03     577.123E-03    -289.097E-03     11.2859E-03
             827     2.69625E-03     146.823E-03    -117.011E+06    -221.854E+06    -93.8068E+06     2.09986E+06    -288.805E-03     577.873E-03    -289.068E-03     13.9698E-03    -288.931E-03     577.067E-03    -289.045E-03     14.9550E-03
             828     3.37055E-03     146.853E-03    -110.516E+06    -201.731E+06    -76.2831E+06     2.16114E+06    -288.685E-03     577.741E-03    -289.056E-03     17.4924E-03    -288.832E-03     577.001E-03    -288.985E-03     18.5808E-03
             829     4.04497E-03     146.890E-03    -103.173E+06    -179.697E+06    -58.2388E+06     2.36643E+06    -288.555E-03     577.590E-03    -289.036E-03     21.0425E-03    -288.723E-03     576.924E-03    -288.917E-03     22.1510E-03
             830     4.71951E-03     146.933E-03    -95.4966E+06    -157.643E+06    -40.4280E+06     2.30101E+06    -288.429E-03     577.435E-03    -289.007E-03     24.5994E-03    -288.619E-03     576.844E-03    -288.842E-03     25.6193E-03
             831     5.39422E-03     146.982E-03    -87.9153E+06    -135.821E+06    -23.8120E+06     1.83753E+06    -288.319E-03     577.287E-03    -288.968E-03     28.1209E-03    -288.530E-03     576.773E-03    -288.763E-03     28.9365E-03
             832     6.06902E-03     147.037E-03    -80.4559E+06    -115.031E+06    -9.36387E+06     1.82471E+06    -288.236E-03     577.156E-03    -288.920E-03     31.5608E-03    -288.468E-03     576.720E-03    -288.683E-03     32.0637E-03
             833     6.74390E-03     147.097E-03    -72.7827E+06    -90.2798E+06     3.81257E+06     1.95168E+06    -288.182E-03     577.042E-03    -288.860E-03     34.9373E-03    -288.439E-03     576.710E-03    -288.605E-03     35.0176E-03
             834     7.41878E-03     147.163E-03    -64.9961E+06    -60.6477E+06     17.0159E+06     1.74203E+06    -288.172E-03     576.972E-03    -288.799E-03     38.2783E-03    -288.467E-03     576.771E-03    -288.532E-03     37.8189E-03
             835     8.09370E-03     147.234E-03    -57.8784E+06    -33.2556E+06     29.5153E+06     3.09105E+06    -288.217E-03     576.965E-03    -288.748E-03     41.5924E-03    -288.554E-03     576.892E-03    -288.468E-03     40.4996E-03
             836     8.76844E-03     147.310E-03    -51.5768E+06    -1.27434E+06     41.9189E+06     4.71838E+06    -288.235E-03     576.933E-03    -288.698E-03     44.9838E-03    -288.630E-03     577.019E-03    -288.412E-03     43.1578E-03
             837     9.44339E-03     147.390E-03    -44.4762E+06     44.3821E+06     56.2557E+06     4.45452E+06    -288.108E-03     576.746E-03    -288.638E-03     48.4058E-03    -288.587E-03     577.062E-03    -288.357E-03     45.7445E-03
             838     10.1188E-03     147.475E-03    -35.9244E+06     84.6283E+06     74.0832E+06     4.44691E+06    -287.877E-03     576.473E-03    -288.596E-03     51.4214E-03    -288.433E-03     576.987E-03    -288.296E-03     47.9083E-03
             839     10.7942E-03     147.561E-03    -28.0241E+06     85.3270E+06     83.8630E+06     5.32126E+06    -287.788E-03     576.356E-03    -288.568E-03     53.4127E-03    -288.368E-03     576.896E-03    -288.232E-03     48.7931E-03
             840     11.4695E-03     147.647E-03    -21.4288E+06     90.1725E+06     95.4107E+06     5.14984E+06    -287.769E-03     576.319E-03    -288.550E-03     54.0820E-03    -288.384E-03     576.902E-03    -288.173E-03     48.3623E-03
             841     12.1450E-03     147.733E-03    -14.0330E+06     112.824E+06     113.116E+06     2.93789E+06    -287.757E-03     576.302E-03    -288.545E-03     54.9905E-03    -288.441E-03     577.009E-03    -288.123E-03     48.2302E-03
             842     12.8198E-03     147.819E-03    -6.43667E+06     116.239E+06     117.724E+06     678.474E+03    -287.716E-03     576.227E-03    -288.511E-03     50.5456E-03    -288.324E-03     576.883E-03    -288.081E-03     44.3980E-03
             843     673.986E-06     148.460E-03    -128.264E+06    -268.837E+06    -126.010E+06    -1.12334E+06    -289.128E-03     578.240E-03    -289.112E-03     3.90699E-03    -289.196E-03     577.264E-03    -289.167E-03     4.20272E-03
             844     1.34798E-03     148.470E-03    -125.649E+06    -261.057E+06    -119.664E+06    -1.08190E+06    -289.040E-03     578.161E-03    -289.121E-03     7.12730E-03    -289.116E-03     577.211E-03    -289.158E-03     7.67179E-03
             845     2.02208E-03     148.487E-03    -121.727E+06    -243.772E+06    -110.534E+06     362.047E+03    -288.914E-03     578.003E-03    -289.089E-03     10.4952E-03    -289.007E-03     577.120E-03    -289.112E-03     11.2923E-03
             846     2.69633E-03     148.511E-03    -116.693E+06    -223.464E+06    -95.9268E+06     1.37500E+06    -288.776E-03     577.840E-03    -289.064E-03     13.9031E-03    -288.894E-03     577.029E-03    -289.051E-03     14.8923E-03
             847     3.37064E-03     148.541E-03    -110.472E+06    -203.067E+06    -77.7350E+06     1.58037E+06    -288.646E-03     577.693E-03    -289.047E-03     17.3446E-03    -288.789E-03     576.949E-03    -288.982E-03     18.4372E-03
             848     4.04507E-03     148.578E-03    -103.236E+06    -181.248E+06    -59.4422E+06     1.71559E+06    -288.516E-03     577.538E-03    -289.022E-03     20.8015E-03    -288.681E-03     576.866E-03    -288.907E-03     21.9086E-03
             849     4.71965E-03     148.621E-03    -95.4083E+06    -158.697E+06    -41.6820E+06     2.07675E+06    -288.401E-03     577.390E-03    -288.989E-03     24.2420E-03    -288.587E-03     576.795E-03    -288.829E-03     25.2692E-03
             850     5.39430E-03     148.669E-03    -87.4275E+06    -136.263E+06    -24.4829E+06     2.50091E+06    -288.320E-03     577.273E-03    -288.953E-03     27.6593E-03    -288.527E-03     576.757E-03    -288.751E-03     28.5020E-03
             851     6.06900E-03     148.724E-03    -79.5294E+06    -115.973E+06    -8.82256E+06     2.53634E+06    -288.278E-03     577.193E-03    -288.915E-03     31.0891E-03    -288.504E-03     576.750E-03    -288.675E-03     31.6289E-03
             852     6.74374E-03     148.784E-03    -71.8983E+06    -90.0093E+06     5.12746E+06     2.14603E+06    -288.235E-03     577.099E-03    -288.864E-03     34.5603E-03    -288.489E-03     576.764E-03    -288.604E-03     34.6901E-03
             853     7.41864E-03     148.850E-03    -64.8491E+06    -62.4951E+06     17.6839E+06     2.53160E+06    -288.188E-03     576.996E-03    -288.808E-03     38.0574E-03    -288.479E-03     576.784E-03    -288.535E-03     37.6832E-03
             854     8.09352E-03     148.921E-03    -57.6856E+06    -38.7945E+06      29.337E+06     3.63947E+06    -288.128E-03     576.881E-03    -288.753E-03     41.6118E-03    -288.453E-03     576.778E-03    -288.467E-03     40.6237E-03
             855     8.76866E-03     148.997E-03    -49.6407E+06    -3.94276E+06     42.2327E+06     4.54623E+06    -287.969E-03     576.654E-03    -288.684E-03     45.2387E-03    -288.349E-03     576.720E-03    -288.395E-03     43.5171E-03
             856     9.44397E-03     149.077E-03    -42.1509E+06     46.9905E+06     57.2254E+06     4.11708E+06    -287.733E-03     576.329E-03    -288.596E-03     48.6561E-03    -288.203E-03     576.651E-03    -288.317E-03     46.0721E-03
             857     10.1193E-03     149.161E-03    -35.7195E+06     81.7334E+06     73.4623E+06     3.70748E+06    -287.613E-03     576.150E-03    -288.537E-03     51.4608E-03    -288.162E-03     576.649E-03    -288.236E-03     47.9792E-03
             858     10.7947E-03     149.247E-03    -28.7050E+06     81.6068E+06     82.9516E+06     4.73423E+06    -287.668E-03     576.169E-03    -288.501E-03     53.3910E-03    -288.243E-03     576.691E-03    -288.163E-03     48.8033E-03
             859     11.4700E-03     149.334E-03    -20.5082E+06     94.6076E+06     96.1852E+06     3.70472E+06    -287.609E-03     576.082E-03    -288.473E-03     54.3232E-03    -288.226E-03     576.682E-03    -288.099E-03     48.6431E-03
             860     12.1451E-03     149.419E-03    -12.7036E+06     117.782E+06     114.581E+06     1.44396E+06    -287.369E-03     575.827E-03    -288.458E-03     55.4891E-03    -288.056E-03     576.555E-03    -288.038E-03     48.7429E-03
             861     12.8211E-03     149.505E-03    -6.12061E+06     118.455E+06     118.992E+06     593.442E+03    -287.080E-03     575.486E-03    -288.405E-03     50.9121E-03    -287.695E-03     576.154E-03    -287.973E-03     44.7391E-03
             862     674.004E-06     150.149E-03    -128.895E+06    -264.725E+06    -126.718E+06    -658.008E+03    -289.123E-03     578.195E-03    -289.072E-03     3.81725E-03    -289.200E-03     577.242E-03    -289.135E-03     4.12263E-03
             863     1.34806E-03     150.159E-03    -125.813E+06    -259.724E+06    -117.782E+06    -1.30459E+06    -289.044E-03     578.164E-03    -289.119E-03     6.99840E-03    -289.125E-03     577.218E-03    -289.149E-03     7.54275E-03
             864     2.02211E-03     150.176E-03    -121.376E+06    -248.065E+06    -106.832E+06    -681.243E+03    -288.959E-03     578.075E-03    -289.116E-03     10.3211E-03    -289.050E-03     577.165E-03    -289.115E-03     11.1028E-03
             865     2.69626E-03     150.200E-03    -116.158E+06    -226.003E+06    -94.7625E+06     664.195E+03    -288.816E-03     577.902E-03    -289.086E-03     13.6627E-03    -288.930E-03     577.076E-03    -289.064E-03     14.6473E-03
             866     3.37057E-03     150.230E-03    -110.120E+06    -203.183E+06    -78.9908E+06     832.666E+03    -288.668E-03     577.726E-03    -289.058E-03     17.0385E-03    -288.808E-03     576.982E-03    -288.999E-03     18.1367E-03
             867     4.04499E-03     150.266E-03    -103.142E+06    -182.873E+06    -60.9443E+06     869.671E+03    -288.544E-03     577.580E-03    -289.036E-03     20.4531E-03    -288.704E-03     576.901E-03    -288.926E-03     21.5742E-03
             868     4.71947E-03     150.308E-03    -95.6573E+06    -161.060E+06    -43.3387E+06     1.51831E+06    -288.428E-03     577.433E-03    -289.005E-03     23.8932E-03    -288.609E-03     576.829E-03    -288.849E-03     24.9545E-03
             869     5.39408E-03     150.357E-03    -87.9841E+06    -138.516E+06    -26.6466E+06     2.26208E+06    -288.319E-03     577.285E-03    -288.966E-03     27.3629E-03    -288.522E-03     576.761E-03    -288.771E-03     28.2665E-03
             870     6.06884E-03     150.411E-03    -80.2486E+06    -116.299E+06    -10.5132E+06     2.56072E+06    -288.228E-03     577.151E-03    -288.923E-03     30.8903E-03    -288.453E-03     576.709E-03    -288.691E-03     31.5170E-03
             871     6.74371E-03     150.472E-03    -72.6975E+06    -90.9996E+06     4.79592E+06     2.88874E+06    -288.134E-03     577.006E-03    -288.871E-03     34.4832E-03    -288.390E-03     576.666E-03    -288.610E-03     34.7193E-03
             872     7.41861E-03     150.537E-03    -65.2170E+06    -65.4415E+06     18.0985E+06     3.53873E+06    -288.014E-03     576.822E-03    -288.808E-03     38.1072E-03    -288.301E-03     576.592E-03    -288.528E-03     37.8414E-03
             873     8.09377E-03     150.608E-03    -57.6653E+06    -38.5032E+06     30.1640E+06     2.84641E+06    -287.855E-03     576.587E-03    -288.731E-03     41.7271E-03    -288.180E-03     576.482E-03    -288.441E-03     40.8160E-03
             874     8.76908E-03     150.683E-03    -49.7814E+06    -4.60471E+06     42.5490E+06     1.40061E+06    -287.687E-03     576.328E-03    -288.642E-03     45.2822E-03    -288.065E-03     576.390E-03    -288.350E-03     43.5875E-03
             875     9.44457E-03     150.763E-03    -41.2036E+06     43.8077E+06     57.8477E+06     2.70822E+06    -287.529E-03     576.071E-03    -288.542E-03     48.5878E-03    -287.988E-03     576.372E-03    -288.257E-03     46.0539E-03
             876     10.1202E-03     150.847E-03    -33.0047E+06     78.5491E+06     75.3586E+06     5.03614E+06    -287.443E-03     575.921E-03    -288.477E-03     51.4612E-03    -287.974E-03     576.395E-03    -288.167E-03     48.0745E-03
             877     10.7956E-03     150.933E-03    -25.7511E+06     82.8018E+06     85.1539E+06     4.09163E+06    -287.394E-03     575.819E-03    -288.425E-03     53.6429E-03    -287.957E-03     576.338E-03    -288.082E-03     49.1171E-03
             878     11.4713E-03     151.020E-03    -19.2206E+06     98.4661E+06     96.8790E+06     2.49155E+06    -287.208E-03     575.580E-03    -288.372E-03     54.7239E-03    -287.824E-03     576.196E-03    -288.002E-03     49.0833E-03
             879     12.1475E-03     151.105E-03    -12.9329E+06     119.746E+06     114.691E+06     2.18969E+06    -286.977E-03     575.319E-03    -288.342E-03     55.7641E-03    -287.671E-03     576.059E-03    -287.923E-03     49.0004E-03
             880     12.8230E-03     151.190E-03    -6.36846E+06     120.748E+06     120.315E+06     1.20957E+06    -286.811E-03     575.094E-03    -288.283E-03     51.0133E-03    -287.436E-03     575.776E-03    -287.847E-03     44.7586E-03
             881     673.970E-06     151.838E-03    -131.028E+06    -261.944E+06    -128.858E+06    -612.890E+03    -289.144E-03     578.233E-03    -289.089E-03     3.72096E-03    -289.232E-03     577.300E-03    -289.164E-03     4.03919E-03
             882     1.34796E-03     151.848E-03    -128.026E+06    -256.694E+06    -120.019E+06    -1.13523E+06    -289.057E-03     578.194E-03    -289.137E-03     6.84816E-03    -289.150E-03     577.269E-03    -289.179E-03     7.41372E-03
             883     2.02203E-03     151.865E-03    -123.096E+06    -249.320E+06    -107.046E+06    -1.40153E+06    -288.987E-03     578.136E-03    -289.149E-03     10.1450E-03    -289.084E-03     577.222E-03    -289.145E-03     10.9407E-03
             884     2.69615E-03     151.888E-03    -116.737E+06    -228.637E+06     -93.576E+06    -845.458E+03    -288.858E-03     577.988E-03    -289.129E-03     13.4969E-03    -288.973E-03     577.148E-03    -289.096E-03     14.4891E-03
             885     3.37040E-03     151.918E-03    -110.041E+06    -203.685E+06    -78.7720E+06    -36.1244E+03    -288.700E-03     577.794E-03    -289.094E-03     16.8747E-03    -288.839E-03     577.047E-03    -289.033E-03     18.0044E-03
             886     4.04476E-03     151.954E-03    -103.362E+06    -184.955E+06     -61.516E+06     677.544E+03    -288.555E-03     577.623E-03    -289.068E-03     20.2963E-03    -288.712E-03     576.935E-03    -288.958E-03     21.4742E-03
             887     4.71930E-03     151.996E-03    -96.2940E+06    -163.579E+06    -44.2007E+06     1.44370E+06    -288.402E-03     577.433E-03    -289.032E-03     23.7660E-03    -288.581E-03     576.818E-03    -288.876E-03     24.8989E-03
             888     5.39397E-03     152.044E-03    -88.7556E+06    -140.797E+06    -27.4571E+06     2.03456E+06    -288.246E-03     577.229E-03    -288.983E-03     27.2717E-03    -288.448E-03     576.696E-03    -288.788E-03     28.2547E-03
             889     6.06878E-03     152.099E-03    -80.9785E+06    -117.391E+06    -11.4919E+06     2.40840E+06    -288.088E-03     577.012E-03    -288.924E-03     30.8323E-03    -288.313E-03     576.566E-03    -288.694E-03     31.5500E-03
             890     6.74374E-03     152.158E-03    -73.0022E+06    -93.1981E+06     3.62023E+06     2.76518E+06    -287.927E-03     576.781E-03    -288.854E-03     34.4547E-03    -288.177E-03     576.431E-03    -288.595E-03     34.7847E-03
             891     7.41894E-03     152.224E-03    -64.9428E+06    -66.9766E+06     17.8840E+06     2.96284E+06    -287.771E-03     576.545E-03    -288.774E-03     38.0800E-03    -288.053E-03     576.306E-03    -288.493E-03     37.8948E-03
             892     8.09425E-03     152.294E-03    -57.3482E+06    -36.6358E+06     31.5785E+06     2.89984E+06    -287.633E-03     576.316E-03    -288.684E-03     41.6558E-03    -287.958E-03     576.217E-03    -288.390E-03     40.8286E-03
             893     8.76968E-03     152.369E-03    -50.7505E+06    -799.028E+03     45.0321E+06     1.64764E+06    -287.503E-03     576.090E-03    -288.587E-03     45.2226E-03    -287.892E-03     576.166E-03    -288.287E-03     43.6139E-03
             894     9.44511E-03     152.449E-03    -44.2840E+06     38.6473E+06     57.3850E+06     494.008E+03    -287.329E-03     575.810E-03    -288.481E-03     48.6392E-03    -287.794E-03     576.088E-03    -288.185E-03     46.1537E-03
             895     10.1208E-03     152.532E-03    -36.3333E+06     72.3079E+06     71.5190E+06     2.07743E+06    -287.113E-03     575.501E-03    -288.388E-03     51.6065E-03    -287.644E-03     575.952E-03    -288.082E-03     48.2480E-03
             896     10.7967E-03     152.619E-03    -28.3903E+06     85.8287E+06     83.2282E+06     3.63416E+06    -286.983E-03     575.296E-03    -288.313E-03     53.7947E-03    -287.559E-03     575.834E-03    -287.980E-03     49.3225E-03
             897     11.4726E-03     152.705E-03    -21.4400E+06     99.6779E+06     97.8643E+06     3.17578E+06    -286.920E-03     575.181E-03    -288.261E-03     54.7628E-03    -287.548E-03     575.804E-03    -287.885E-03     49.1755E-03
             898     12.1482E-03     152.790E-03    -13.9863E+06     121.406E+06     116.706E+06     2.03054E+06    -286.859E-03     575.089E-03    -288.230E-03     55.6002E-03    -287.565E-03     575.838E-03    -287.802E-03     48.7992E-03
             899     12.8244E-03     152.875E-03    -6.56582E+06     123.536E+06     122.033E+06     969.214E+03    -286.858E-03     575.030E-03    -288.173E-03     50.6333E-03    -287.494E-03     575.728E-03    -287.732E-03     44.2690E-03
             900     673.937E-06     153.527E-03    -133.854E+06    -260.637E+06    -131.607E+06     34.9646E+03    -289.133E-03     578.270E-03    -289.138E-03     3.68894E-03    -289.233E-03     577.352E-03    -289.224E-03     4.03622E-03
             901     1.34791E-03     153.537E-03    -131.149E+06    -254.075E+06    -122.882E+06    -508.534E+03    -289.059E-03     578.210E-03    -289.151E-03     6.81663E-03    -289.168E-03     577.308E-03    -289.207E-03     7.42442E-03
             902     2.02193E-03     153.554E-03    -126.656E+06    -245.970E+06    -110.047E+06    -1.82125E+06    -288.970E-03     578.126E-03    -289.157E-03     10.1153E-03    -289.085E-03     577.238E-03    -289.167E-03     10.9504E-03
             903     2.69608E-03     153.577E-03    -120.661E+06    -228.752E+06    -95.3962E+06    -2.68201E+06    -288.837E-03     577.979E-03    -289.142E-03     13.4693E-03    -288.969E-03     577.147E-03    -289.112E-03     14.4878E-03
             904     3.37034E-03     153.606E-03    -113.633E+06    -207.461E+06    -79.5107E+06    -1.37019E+06    -288.680E-03     577.792E-03    -289.112E-03     16.8453E-03    -288.830E-03     577.032E-03    -289.044E-03     18.0138E-03
             905     4.04476E-03     153.642E-03    -106.159E+06    -187.808E+06    -62.0512E+06     477.922E+03    -288.515E-03     577.595E-03    -289.080E-03     20.2541E-03    -288.681E-03     576.897E-03    -288.964E-03     21.4966E-03
             906     4.71929E-03     153.684E-03    -98.3308E+06    -164.901E+06    -44.3838E+06      972.59E+03    -288.328E-03     577.362E-03    -289.034E-03     23.7192E-03    -288.515E-03     576.743E-03    -288.874E-03     24.9193E-03
             907     5.39402E-03     153.732E-03    -89.9693E+06    -141.914E+06    -27.5336E+06     861.726E+03    -288.134E-03     577.107E-03    -288.974E-03     27.2304E-03    -288.339E-03     576.569E-03    -288.775E-03     28.2735E-03
             908     6.06893E-03     153.786E-03    -81.2883E+06    -118.784E+06    -11.8354E+06     968.460E+03    -287.936E-03     576.835E-03    -288.899E-03     30.7859E-03    -288.159E-03     576.382E-03    -288.668E-03     31.5616E-03
             909     6.74408E-03     153.845E-03    -72.7430E+06    -94.7353E+06     3.09821E+06     1.23614E+06    -287.751E-03     576.565E-03    -288.814E-03     34.3629E-03    -287.995E-03     576.206E-03    -288.556E-03     34.7522E-03
             910     7.41934E-03     153.910E-03    -64.4763E+06    -68.2739E+06     17.7552E+06     1.59781E+06    -287.590E-03     576.311E-03    -288.722E-03     37.9258E-03    -287.865E-03     576.064E-03    -288.440E-03     37.8073E-03
             911     8.09476E-03     153.980E-03    -56.3290E+06    -38.5075E+06     31.9302E+06     2.36493E+06    -287.445E-03     576.067E-03    -288.623E-03     41.4916E-03    -287.761E-03     575.954E-03    -288.325E-03     40.7493E-03
             912     8.77028E-03     154.054E-03    -48.4376E+06     1.06308E+06     46.9785E+06     3.19244E+06    -287.285E-03     575.800E-03    -288.515E-03     45.0989E-03    -287.665E-03     575.876E-03    -288.212E-03     43.6130E-03
             913     9.44608E-03     154.134E-03    -41.2276E+06     42.1400E+06     63.1665E+06     2.09125E+06    -287.152E-03     575.567E-03    -288.415E-03     48.5171E-03    -287.612E-03     575.847E-03    -288.101E-03     46.1297E-03
             914     10.1220E-03     154.217E-03    -34.7995E+06     65.9274E+06     75.1820E+06     1.46735E+06    -287.019E-03     575.344E-03    -288.325E-03     51.2601E-03    -287.538E-03     575.756E-03    -287.994E-03     47.8582E-03
             915     10.7981E-03     154.303E-03    -28.1590E+06     81.5360E+06     84.2333E+06     3.69668E+06    -286.833E-03     575.067E-03    -288.235E-03     53.1167E-03    -287.403E-03     575.583E-03    -287.891E-03     48.5860E-03
             916     11.4742E-03     154.389E-03    -20.9583E+06     104.869E+06     100.610E+06     3.37118E+06    -286.749E-03     574.925E-03    -288.176E-03     54.0369E-03    -287.384E-03     575.565E-03    -287.794E-03     48.4649E-03
             917     12.1503E-03     154.475E-03    -13.6631E+06     124.058E+06     117.525E+06     1.07148E+06    -286.835E-03     574.975E-03    -288.140E-03     55.0124E-03    -287.543E-03     575.734E-03    -287.713E-03     48.1739E-03
             918     12.8257E-03     154.560E-03    -6.47666E+06     124.336E+06     121.119E+06     540.619E+03    -287.028E-03     575.114E-03    -288.087E-03     50.2137E-03    -287.663E-03     575.817E-03    -287.652E-03     43.8146E-03
             919     673.948E-06     155.216E-03    -136.115E+06    -261.034E+06    -134.023E+06     155.320E+03    -289.084E-03     578.212E-03    -289.128E-03     3.68942E-03    -289.192E-03     577.298E-03    -289.222E-03     4.05692E-03
             920     1.34795E-03     155.226E-03    -132.782E+06    -252.076E+06    -124.534E+06    -141.637E+03    -289.017E-03     578.135E-03    -289.118E-03     6.79977E-03    -289.134E-03     577.247E-03    -289.183E-03     7.44546E-03
             921     2.02203E-03     155.243E-03    -127.761E+06    -240.561E+06    -109.875E+06    -1.34253E+06    -288.921E-03     578.045E-03    -289.123E-03     10.1011E-03    -289.050E-03     577.185E-03    -289.139E-03     10.9879E-03
             922     2.69617E-03     155.266E-03    -121.600E+06    -226.548E+06    -92.7633E+06    -2.34742E+06    -288.797E-03     577.921E-03    -289.124E-03     13.4347E-03    -288.940E-03     577.097E-03    -289.083E-03     14.5096E-03
             923     3.37046E-03     155.295E-03    -114.632E+06    -211.896E+06    -76.2275E+06    -1.70687E+06    -288.648E-03     577.755E-03    -289.107E-03     16.7767E-03    -288.801E-03     576.970E-03    -289.015E-03     17.9910E-03
             924     4.04488E-03     155.330E-03    -106.710E+06    -190.007E+06    -60.5418E+06    -735.512E+03    -288.457E-03     577.518E-03    -289.061E-03     20.1655E-03    -288.624E-03     576.807E-03    -288.933E-03     21.4461E-03
             925     4.71949E-03     155.372E-03    -98.0310E+06    -163.869E+06    -44.1513E+06    -969.404E+03    -288.240E-03     577.237E-03    -288.997E-03     23.6309E-03    -288.427E-03     576.622E-03    -288.838E-03     24.8659E-03
             926     5.39428E-03     155.419E-03    -89.2811E+06    -142.304E+06    -27.4226E+06    -1.24294E+06    -288.037E-03     576.967E-03    -288.930E-03     27.1179E-03    -288.238E-03     576.425E-03    -288.732E-03     28.1947E-03
             927     6.06930E-03     155.472E-03    -80.8621E+06    -119.794E+06    -11.6687E+06    -937.043E+03    -287.843E-03     576.694E-03    -288.851E-03     30.6069E-03    -288.062E-03     576.235E-03    -288.619E-03     31.4190E-03
             928     6.74444E-03     155.531E-03    -72.6414E+06    -96.1071E+06     3.23018E+06    -480.931E+03    -287.665E-03     576.428E-03    -288.763E-03     34.1144E-03    -287.906E-03     576.061E-03    -288.502E-03     34.5433E-03
             929     7.41980E-03     155.595E-03    -64.5907E+06    -70.1950E+06     17.5221E+06     172.668E+03    -287.494E-03     576.162E-03    -288.667E-03     37.6185E-03    -287.766E-03     575.904E-03    -288.384E-03     37.5472E-03
             930     8.09532E-03     155.665E-03    -56.8475E+06    -41.4871E+06       31.27E+06     998.582E+03    -287.339E-03     575.904E-03    -288.565E-03     41.0792E-03    -287.651E-03     575.776E-03    -288.266E-03     40.3815E-03
             931     8.77110E-03     155.739E-03    -49.1628E+06    -1.98538E+06     45.9110E+06     2.10497E+06    -287.188E-03     575.642E-03    -288.454E-03     44.4896E-03    -287.564E-03     575.703E-03    -288.150E-03     43.0413E-03
             932     9.44690E-03     155.819E-03    -41.3255E+06     45.1901E+06     65.4088E+06     2.74436E+06    -287.070E-03     575.430E-03    -288.361E-03     47.7478E-03    -287.535E-03     575.720E-03    -288.039E-03     45.4285E-03
             933     10.1225E-03     155.902E-03    -33.5480E+06     63.1141E+06     79.0291E+06     3.09545E+06    -287.038E-03     575.327E-03    -288.289E-03     50.5221E-03    -287.553E-03     575.718E-03    -287.937E-03     47.0969E-03
             934     10.7980E-03     155.987E-03    -26.1930E+06     76.5533E+06     85.5826E+06     3.54144E+06    -286.884E-03     575.080E-03    -288.196E-03     52.5892E-03    -287.442E-03     575.568E-03    -287.841E-03     47.9591E-03
             935     11.4740E-03     156.073E-03    -19.0775E+06     109.575E+06     100.069E+06     3.33176E+06    -286.650E-03     574.765E-03    -288.116E-03     53.6610E-03    -287.279E-03     575.426E-03    -287.747E-03     48.1025E-03
             936     12.1499E-03     156.159E-03    -12.3408E+06     127.133E+06     115.048E+06     2.31873E+06    -286.634E-03     574.703E-03    -288.068E-03     54.7906E-03    -287.333E-03     575.475E-03    -287.660E-03     48.0195E-03
             937     12.8260E-03     156.245E-03    -6.09710E+06     125.664E+06     119.438E+06     903.271E+03    -286.712E-03     574.724E-03    -288.012E-03     50.4971E-03    -287.343E-03     575.432E-03    -287.588E-03     44.1749E-03
             938     674.004E-06     156.905E-03    -137.622E+06    -261.179E+06    -135.326E+06    -82.2788E+03    -289.023E-03     578.075E-03    -289.052E-03     3.65202E-03    -289.136E-03     577.165E-03    -289.151E-03     4.02888E-03
             939     1.34804E-03     156.915E-03    -134.341E+06    -250.644E+06    -125.676E+06    -411.687E+03    -288.946E-03     577.996E-03    -289.049E-03     6.73918E-03    -289.072E-03     577.119E-03    -289.120E-03     7.40564E-03
             940     2.02216E-03     156.932E-03    -129.169E+06    -236.770E+06    -110.644E+06    -965.941E+03    -288.843E-03     577.895E-03    -289.053E-03     10.0029E-03    -288.983E-03     577.058E-03    -289.075E-03     10.9320E-03
             941     2.69638E-03     156.954E-03    -122.355E+06    -223.922E+06    -92.3164E+06    -1.65756E+06    -288.727E-03     577.787E-03    -289.060E-03     13.3151E-03    -288.878E-03     576.976E-03    -289.019E-03     14.4438E-03
             942     3.37066E-03     156.983E-03    -114.254E+06    -212.978E+06    -74.2809E+06    -1.99810E+06    -288.594E-03     577.650E-03    -289.056E-03     16.6701E-03    -288.746E-03     576.855E-03    -288.952E-03     17.9253E-03
             943     4.04511E-03     157.018E-03    -105.759E+06    -189.395E+06    -58.4817E+06    -2.30329E+06    -288.397E-03     577.404E-03    -289.007E-03     20.0577E-03    -288.563E-03     576.692E-03    -288.872E-03     21.3634E-03
             944     4.71979E-03     157.059E-03    -97.6147E+06    -162.221E+06    -43.3100E+06    -2.62807E+06    -288.182E-03     577.119E-03    -288.937E-03     23.4580E-03    -288.370E-03     576.510E-03    -288.777E-03     24.7196E-03
             945     5.39465E-03     157.106E-03    -89.7349E+06    -142.636E+06    -27.5491E+06    -2.48309E+06    -288.002E-03     576.874E-03    -288.873E-03     26.8521E-03    -288.204E-03     576.331E-03    -288.673E-03     27.9626E-03
             946     6.06963E-03     157.159E-03    -81.7655E+06    -120.546E+06    -12.1449E+06    -2.08984E+06    -287.826E-03     576.623E-03    -288.798E-03     30.2717E-03    -288.047E-03     576.162E-03    -288.565E-03     31.1199E-03
             947     6.74482E-03     157.217E-03    -73.8403E+06    -97.3985E+06     2.34645E+06    -1.58656E+06    -287.658E-03     576.372E-03    -288.714E-03     33.7193E-03    -287.901E-03     576.001E-03    -288.454E-03     34.1848E-03
             948     7.42014E-03     157.281E-03    -66.0475E+06    -72.2153E+06     16.1517E+06    -905.197E+03    -287.501E-03     576.124E-03    -288.623E-03     37.1468E-03    -287.774E-03     575.859E-03    -288.342E-03     37.1109E-03
             949     8.09561E-03     157.350E-03    -58.2359E+06    -44.1396E+06     29.6714E+06    -11.6376E+03    -287.352E-03     575.879E-03    -288.526E-03     40.5632E-03    -287.663E-03     575.740E-03    -288.230E-03     39.9062E-03
             950     8.77104E-03     157.424E-03    -50.6386E+06    -6.27185E+06     43.8301E+06     1.33395E+06    -287.168E-03     575.587E-03    -288.419E-03     44.0740E-03    -287.540E-03     575.629E-03    -288.117E-03     42.6856E-03
             951     9.44663E-03     157.503E-03    -43.3096E+06     43.6250E+06     62.4406E+06     2.51026E+06    -286.898E-03     575.212E-03    -288.314E-03     47.6045E-03    -287.362E-03     575.496E-03    -288.002E-03     45.3956E-03
             952     10.1227E-03     157.586E-03    -35.9541E+06     62.4649E+06     75.8853E+06     2.67964E+06    -286.764E-03     574.992E-03    -288.228E-03     50.7235E-03    -287.281E-03     575.384E-03    -287.887E-03     47.4200E-03
             953     10.7989E-03     157.672E-03    -28.5165E+06     75.2794E+06     83.3796E+06     2.61779E+06    -286.716E-03     574.844E-03    -288.128E-03     53.1324E-03    -287.278E-03     575.330E-03    -287.779E-03     48.5720E-03
             954     11.4748E-03     157.757E-03    -21.1532E+06     110.249E+06     97.7398E+06     2.41861E+06    -286.550E-03     574.588E-03    -288.039E-03     54.5236E-03    -287.186E-03     575.257E-03    -287.679E-03     49.0417E-03
             955     12.1512E-03     157.843E-03    -13.5512E+06     128.906E+06     112.921E+06     1.93008E+06    -286.385E-03     574.366E-03    -287.981E-03     55.7952E-03    -287.088E-03     575.152E-03    -287.584E-03     49.1224E-03
             956     12.8273E-03     157.929E-03    -6.30901E+06     128.494E+06     118.479E+06     1.25769E+06    -286.239E-03     574.149E-03    -287.911E-03     51.2808E-03    -286.875E-03     574.876E-03    -287.495E-03     44.9908E-03
             957     674.057E-06     158.594E-03    -139.153E+06    -260.644E+06    -136.897E+06    -185.861E+03    -288.932E-03     577.886E-03    -288.954E-03     3.61882E-03    -289.051E-03     576.983E-03    -289.058E-03     4.00547E-03
             958     1.34816E-03     158.604E-03    -135.976E+06    -250.118E+06    -127.462E+06    -91.2714E+03    -288.857E-03     577.812E-03    -288.955E-03     6.68959E-03    -288.989E-03     576.943E-03    -289.032E-03     7.38219E-03
             959     2.02231E-03     158.620E-03    -131.330E+06    -235.275E+06    -113.539E+06    -133.554E+03    -288.745E-03     577.698E-03    -288.953E-03     9.93511E-03    -288.894E-03     576.875E-03    -288.989E-03     10.9085E-03
             960     2.69657E-03     158.642E-03    -125.325E+06    -220.167E+06    -96.3403E+06    -1.13817E+06    -288.615E-03     577.566E-03    -288.951E-03     13.2289E-03    -288.781E-03     576.784E-03    -288.932E-03     14.4090E-03
             961     3.37099E-03     158.671E-03    -117.782E+06    -208.422E+06    -77.6893E+06    -3.32922E+06    -288.493E-03     577.442E-03    -288.949E-03     16.5673E-03    -288.664E-03     576.680E-03    -288.864E-03     17.8514E-03
             962     4.04550E-03     158.706E-03    -108.984E+06    -187.891E+06    -59.8377E+06    -4.40244E+06    -288.340E-03     577.260E-03    -288.919E-03     19.9134E-03    -288.523E-03     576.562E-03    -288.788E-03     21.2363E-03
             963     4.72016E-03     158.746E-03    -100.068E+06    -162.535E+06    -43.2692E+06    -3.63044E+06    -288.168E-03     577.035E-03    -288.867E-03     23.2557E-03    -288.368E-03     576.428E-03    -288.703E-03     24.5528E-03
             964     5.39493E-03     158.793E-03    -91.5741E+06    -142.239E+06    -27.5874E+06    -3.14231E+06    -288.004E-03     576.815E-03    -288.811E-03     26.6239E-03    -288.216E-03     576.276E-03    -288.610E-03     27.7811E-03
             965     6.06991E-03     158.845E-03    -83.3099E+06    -120.780E+06    -12.8320E+06    -3.06589E+06    -287.831E-03     576.573E-03    -288.742E-03     30.0470E-03    -288.058E-03     576.113E-03    -288.510E-03     30.9453E-03
             966     6.74501E-03     158.903E-03    -75.0385E+06    -98.2815E+06     1.24382E+06    -2.74781E+06    -287.657E-03     576.320E-03    -288.663E-03     33.5357E-03    -287.903E-03     575.947E-03    -288.406E-03     34.0611E-03
             967     7.42027E-03     158.966E-03    -66.7823E+06    -73.8150E+06     14.8301E+06    -2.24248E+06    -287.466E-03     576.041E-03    -288.575E-03     37.0933E-03    -287.737E-03     575.769E-03    -288.297E-03     37.1337E-03
             968     8.09566E-03     159.035E-03    -58.7465E+06    -46.6064E+06     28.0482E+06    -1.49786E+06    -287.235E-03     575.709E-03    -288.474E-03     40.7395E-03    -287.539E-03     575.558E-03    -288.181E-03     40.1812E-03
             969     8.77144E-03     159.109E-03    -50.7055E+06    -10.8998E+06     42.0144E+06    -144.795E+03    -286.945E-03     575.303E-03    -288.357E-03     44.4875E-03    -287.304E-03     575.321E-03    -288.058E-03     43.2172E-03
             970     9.44758E-03     159.187E-03    -42.3896E+06     40.5332E+06     60.8688E+06     1.48902E+06    -286.618E-03     574.851E-03    -288.234E-03     48.1084E-03    -287.066E-03     575.117E-03    -287.927E-03     46.0267E-03
             971     10.1239E-03     159.270E-03    -34.3543E+06     61.3938E+06     75.2640E+06     2.54748E+06    -286.476E-03     574.608E-03    -288.132E-03     51.1588E-03    -286.978E-03     574.988E-03    -287.795E-03     48.0043E-03
             972     10.8000E-03     159.355E-03    -27.1307E+06     75.7629E+06     84.2473E+06     2.47358E+06    -286.435E-03     574.459E-03    -288.023E-03     53.4858E-03    -286.988E-03     574.940E-03    -287.672E-03     49.0474E-03
             973     11.4764E-03     159.441E-03    -19.9579E+06     111.936E+06     97.7395E+06     1.49826E+06    -286.346E-03     574.264E-03    -287.918E-03     54.8645E-03    -286.977E-03     574.938E-03    -287.563E-03     49.4218E-03
             974     12.1526E-03     159.527E-03    -12.8907E+06     128.553E+06     110.497E+06     1.09429E+06    -286.263E-03     574.112E-03    -287.849E-03     56.0791E-03    -286.962E-03     574.901E-03    -287.464E-03     49.3606E-03
             975     12.8290E-03     159.612E-03    -6.27078E+06     129.889E+06     115.995E+06     1.08262E+06    -286.141E-03     573.917E-03    -287.776E-03     51.4218E-03    -286.780E-03     574.659E-03    -287.376E-03     45.0215E-03
             976     674.142E-06     160.282E-03    -140.046E+06    -261.113E+06    -137.651E+06     367.878E+03    -288.795E-03     577.604E-03    -288.809E-03     3.64856E-03    -288.916E-03     576.701E-03    -288.916E-03     4.05524E-03
             977     1.34831E-03     160.292E-03    -137.093E+06    -250.580E+06    -128.711E+06     414.042E+03    -288.726E-03     577.540E-03    -288.814E-03     6.71857E-03    -288.861E-03     576.672E-03    -288.896E-03     7.43901E-03
             978     2.02258E-03     160.308E-03    -132.083E+06    -234.884E+06    -114.941E+06     299.188E+03    -288.622E-03     577.436E-03    -288.814E-03     9.95869E-03    -288.774E-03     576.618E-03    -288.856E-03     10.9684E-03
             979     2.69693E-03     160.330E-03    -125.589E+06    -216.209E+06    -97.3096E+06    -424.810E+03    -288.502E-03     577.315E-03    -288.812E-03     13.2369E-03    -288.673E-03     576.554E-03    -288.803E-03     14.4694E-03
             980     3.37135E-03     160.359E-03    -118.444E+06    -199.825E+06    -77.4010E+06    -2.62388E+06    -288.391E-03     577.208E-03    -288.817E-03     16.5619E-03    -288.578E-03     576.490E-03    -288.742E-03     17.9125E-03
             981     4.04587E-03     160.393E-03    -110.777E+06    -184.420E+06    -58.7951E+06    -4.96121E+06    -288.273E-03     577.082E-03    -288.809E-03     19.9218E-03    -288.471E-03     576.402E-03    -288.675E-03     21.2963E-03
             982     4.72053E-03     160.433E-03    -102.168E+06    -163.699E+06    -43.0315E+06    -5.25235E+06    -288.115E-03     576.883E-03    -288.769E-03     23.3123E-03    -288.323E-03     576.272E-03    -288.598E-03     24.6528E-03
             983     5.39537E-03     160.479E-03    -93.1176E+06    -141.249E+06    -28.0302E+06    -4.71719E+06    -287.937E-03     576.648E-03    -288.711E-03     26.7563E-03    -288.156E-03     576.116E-03    -288.511E-03     27.9734E-03
             984     6.07034E-03     160.531E-03    -84.1913E+06    -119.895E+06    -13.1830E+06    -4.78157E+06    -287.749E-03     576.394E-03    -288.645E-03     30.2856E-03    -287.979E-03     575.938E-03    -288.415E-03     31.2561E-03
             985     6.74553E-03     160.589E-03    -75.3902E+06    -97.7637E+06     795.633E+03    -5.04315E+06    -287.527E-03     576.091E-03    -288.563E-03     33.9069E-03    -287.773E-03     575.719E-03    -288.308E-03     34.5114E-03
             986     7.42097E-03     160.652E-03    -66.6654E+06    -74.6984E+06     14.1346E+06    -4.90761E+06    -287.272E-03     575.740E-03    -288.467E-03     37.5667E-03    -287.537E-03     575.462E-03    -288.192E-03     37.6905E-03
             987     8.09676E-03     160.720E-03    -58.0082E+06    -48.5616E+06     27.3531E+06    -4.16389E+06    -287.003E-03     575.359E-03    -288.356E-03     41.2048E-03    -287.297E-03     575.196E-03    -288.065E-03     40.7276E-03
             988     8.77271E-03     160.793E-03    -49.6309E+06    -15.2397E+06     41.1385E+06    -2.82460E+06    -286.748E-03     574.979E-03    -288.231E-03     44.8145E-03    -287.091E-03     574.973E-03    -287.932E-03     43.6110E-03
             989     9.44882E-03     160.871E-03    -41.3691E+06     36.1339E+06     59.3544E+06    -1.07875E+06    -286.477E-03     574.576E-03    -288.099E-03     48.2879E-03    -286.909E-03     574.818E-03    -287.795E-03     46.2674E-03
             990     10.1251E-03     160.953E-03    -32.9055E+06     58.0768E+06     73.8111E+06     552.330E+03    -286.349E-03     574.343E-03    -287.994E-03     51.3071E-03    -286.834E-03     574.703E-03    -287.661E-03     48.2208E-03
             991     10.8016E-03     161.038E-03    -24.8366E+06     74.7750E+06     84.2941E+06     1.94174E+06    -286.290E-03     574.176E-03    -287.886E-03     53.6551E-03    -286.826E-03     574.645E-03    -287.537E-03     49.3097E-03
             992     11.4779E-03     161.124E-03    -18.2142E+06     113.702E+06     97.1547E+06     2.40053E+06    -286.227E-03     574.001E-03    -287.773E-03     55.0116E-03    -286.848E-03     574.679E-03    -287.426E-03     49.6533E-03
             993     12.1544E-03     161.210E-03    -12.2127E+06     128.696E+06     107.632E+06     1.93536E+06    -286.241E-03     573.941E-03    -287.699E-03     56.2179E-03    -286.935E-03     574.735E-03    -287.330E-03     49.4777E-03
             994     12.8305E-03     161.295E-03    -6.03598E+06     131.123E+06     113.270E+06     1.19653E+06    -286.183E-03     573.817E-03    -287.634E-03     51.6218E-03    -286.824E-03     574.574E-03    -287.249E-03     45.1110E-03
             995     674.303E-06     161.970E-03    -141.175E+06    -262.987E+06    -139.059E+06     493.132E+03    -288.568E-03     577.140E-03    -288.572E-03     3.72538E-03    -288.691E-03     576.231E-03    -288.681E-03     4.14356E-03
             996     1.34863E-03     161.980E-03    -137.777E+06    -251.193E+06    -129.252E+06     599.048E+03    -288.512E-03     577.099E-03    -288.587E-03     6.83834E-03    -288.649E-03     576.229E-03    -288.669E-03     7.58297E-03
             997     2.02298E-03     161.996E-03    -132.793E+06    -234.446E+06    -114.858E+06     319.814E+03    -288.430E-03     577.026E-03    -288.596E-03     10.1349E-03    -288.586E-03     576.211E-03    -288.638E-03     11.1786E-03
             998     2.69741E-03     162.018E-03    -126.377E+06    -214.009E+06    -97.0561E+06    -150.617E+03    -288.324E-03     576.926E-03    -288.602E-03     13.4739E-03    -288.502E-03     576.177E-03    -288.594E-03     14.7584E-03
             999     3.37196E-03     162.046E-03    -118.674E+06    -192.669E+06    -76.9033E+06    -1.38125E+06    -288.207E-03     576.813E-03    -288.606E-03     16.8698E-03    -288.405E-03     576.129E-03    -288.539E-03     18.3058E-03
            1000     4.04661E-03     162.080E-03    -110.168E+06    -176.617E+06    -56.6901E+06    -3.90379E+06    -288.097E-03     576.706E-03    -288.608E-03     20.3267E-03    -288.305E-03     576.060E-03    -288.476E-03     21.7947E-03
            1001     4.72136E-03     162.120E-03    -101.513E+06    -161.921E+06    -40.0865E+06    -5.84073E+06    -287.966E-03     576.551E-03    -288.586E-03     23.8047E-03    -288.176E-03     575.943E-03    -288.404E-03     25.2132E-03
            1002     5.39632E-03     162.166E-03    -92.7658E+06    -139.389E+06    -26.4923E+06    -6.45814E+06    -287.771E-03     576.296E-03    -288.525E-03     27.3017E-03    -287.992E-03     575.769E-03    -288.320E-03     28.5795E-03
            1003     6.07149E-03     162.217E-03    -83.7969E+06    -116.159E+06    -12.9203E+06    -7.44881E+06    -287.555E-03     576.004E-03    -288.449E-03     30.8641E-03    -287.788E-03     575.564E-03    -288.224E-03     31.8908E-03
            1004     6.74688E-03     162.274E-03    -74.8081E+06    -96.1959E+06     568.662E+03    -8.15328E+06    -287.341E-03     575.708E-03    -288.366E-03     34.4521E-03    -287.584E-03     575.341E-03    -288.116E-03     35.1022E-03
            1005     7.42251E-03     162.336E-03    -66.1752E+06    -74.5117E+06     13.5836E+06    -7.95320E+06    -287.124E-03     575.395E-03    -288.271E-03     37.9847E-03    -287.384E-03     575.116E-03    -287.999E-03     38.1479E-03
            1006     8.09827E-03     162.404E-03    -57.9485E+06    -50.0412E+06     26.2923E+06    -7.34153E+06    -286.922E-03     575.088E-03    -288.165E-03     41.4628E-03    -287.211E-03     574.916E-03    -287.877E-03     41.0203E-03
            1007     8.77426E-03     162.476E-03    -49.7115E+06    -18.9158E+06     39.6854E+06    -6.05644E+06    -286.724E-03     574.775E-03    -288.051E-03     44.9843E-03    -287.058E-03     574.750E-03    -287.753E-03     43.8196E-03
            1008     9.45039E-03     162.554E-03    -41.4355E+06     31.0259E+06     57.1141E+06    -4.01383E+06    -286.454E-03     574.381E-03    -287.927E-03     48.4497E-03    -286.873E-03     574.597E-03    -287.626E-03     46.4742E-03
            1009     10.1268E-03     162.636E-03    -33.8253E+06     52.6662E+06     70.7073E+06    -1.44477E+06    -286.305E-03     574.132E-03    -287.826E-03     51.4607E-03    -286.778E-03     574.467E-03    -287.500E-03     48.4326E-03
            1010     10.8031E-03     162.721E-03    -27.1031E+06     69.8318E+06     80.4569E+06     1.10875E+06    -286.253E-03     573.976E-03    -287.723E-03     53.8061E-03    -286.784E-03     574.425E-03    -287.383E-03     49.5421E-03
            1011     11.4797E-03     162.807E-03    -20.2446E+06     112.749E+06     92.8489E+06     2.74597E+06    -286.202E-03     573.810E-03    -287.608E-03     55.1881E-03    -286.823E-03     574.490E-03    -287.278E-03     49.9136E-03
            1012     12.1559E-03     162.893E-03    -13.3000E+06     131.733E+06     103.844E+06     2.10529E+06    -286.240E-03     573.776E-03    -287.537E-03     56.4183E-03    -286.938E-03     574.594E-03    -287.189E-03     49.6723E-03
            1013     12.8324E-03     162.978E-03    -6.56489E+06     133.315E+06     110.997E+06     537.422E+03    -286.261E-03     573.750E-03    -287.488E-03     51.8187E-03    -286.909E-03     574.526E-03    -287.117E-03     45.2016E-03
            1014     674.524E-06     163.657E-03    -145.069E+06    -262.378E+06    -143.151E+06    -897.809E+03    -288.194E-03     576.391E-03    -288.197E-03     3.87797E-03    -288.331E-03     575.497E-03    -288.322E-03     4.28568E-03
            1015     1.34908E-03     163.667E-03    -141.273E+06    -251.999E+06    -133.227E+06    -613.124E+03    -288.149E-03     576.363E-03    -288.214E-03     7.08980E-03    -288.296E-03     575.500E-03    -288.310E-03     7.83803E-03
            1016     2.02369E-03     163.683E-03    -135.482E+06    -233.833E+06    -117.737E+06    -350.381E+03    -288.081E-03     576.309E-03    -288.228E-03     10.5061E-03    -288.246E-03     575.505E-03    -288.282E-03     11.5736E-03
            1017     2.69835E-03     163.704E-03    -127.950E+06    -211.107E+06    -98.7466E+06    -1.26250E+06    -287.989E-03     576.229E-03    -288.240E-03     13.9833E-03    -288.175E-03     575.498E-03    -288.242E-03     15.2947E-03
            1018     3.37309E-03     163.732E-03    -119.230E+06    -188.244E+06    -78.5710E+06    -2.51218E+06    -287.882E-03     576.127E-03    -288.245E-03     17.4832E-03    -288.086E-03     575.467E-03    -288.192E-03     18.9567E-03
            1019     4.04799E-03     163.766E-03    -110.263E+06    -168.783E+06    -58.1575E+06    -3.95975E+06    -287.784E-03     576.030E-03    -288.246E-03     20.9919E-03    -288.000E-03     575.424E-03    -288.132E-03     22.5276E-03
            1020     4.72300E-03     163.806E-03    -101.151E+06    -155.550E+06    -39.4149E+06    -6.17862E+06    -287.705E-03     575.948E-03    -288.242E-03     24.5165E-03    -287.923E-03     575.368E-03    -288.067E-03     25.9869E-03
            1021     5.39807E-03     163.851E-03    -91.8215E+06    -134.640E+06    -24.0255E+06    -8.27757E+06    -287.574E-03     575.778E-03    -288.204E-03     28.0262E-03    -287.799E-03     575.268E-03    -287.996E-03     29.3355E-03
            1022     6.07340E-03     163.902E-03    -82.8306E+06    -110.638E+06    -11.0448E+06    -9.67931E+06    -287.405E-03     575.545E-03    -288.139E-03     31.4997E-03    -287.642E-03     575.127E-03    -287.914E-03     32.5524E-03
            1023     6.74887E-03     163.959E-03    -74.4411E+06    -93.2720E+06     1.04642E+06    -10.5803E+06    -287.263E-03     575.335E-03    -288.072E-03     34.9509E-03    -287.507E-03     574.981E-03    -287.824E-03     35.6249E-03
            1024     7.42448E-03     164.020E-03    -66.2254E+06    -73.7792E+06     13.0920E+06    -10.6265E+06    -287.121E-03     575.119E-03    -287.998E-03     38.3763E-03    -287.380E-03     574.843E-03    -287.729E-03     38.5669E-03
            1025     8.10028E-03     164.088E-03    -58.1094E+06    -50.6234E+06     25.2657E+06    -9.94196E+06    -286.963E-03     574.877E-03    -287.914E-03     41.8003E-03    -287.248E-03     574.702E-03    -287.630E-03     41.3992E-03
            1026     8.77618E-03     164.160E-03    -50.4508E+06    -21.8428E+06     37.9546E+06    -8.73471E+06    -286.770E-03     574.591E-03    -287.822E-03     45.2817E-03    -287.098E-03     574.553E-03    -287.527E-03     44.1636E-03
            1027     9.45237E-03     164.237E-03    -43.0540E+06     24.6828E+06     53.9192E+06    -6.22999E+06    -286.512E-03     574.227E-03    -287.715E-03     48.6751E-03    -286.922E-03     574.415E-03    -287.419E-03     46.7478E-03
            1028     10.1287E-03     164.318E-03    -35.3340E+06     45.8714E+06     66.8805E+06    -3.18367E+06    -286.384E-03     574.013E-03    -287.629E-03     51.6524E-03    -286.846E-03     574.319E-03    -287.310E-03     48.6811E-03
            1029     10.8051E-03     164.403E-03    -27.3890E+06     62.8662E+06     76.4538E+06    -252.887E+03    -286.351E-03     573.890E-03    -287.539E-03     54.0271E-03    -286.864E-03     574.307E-03    -287.208E-03     49.8362E-03
            1030     11.4814E-03     164.489E-03    -20.0214E+06     110.942E+06     88.5944E+06     1.37075E+06    -286.307E-03     573.736E-03    -287.429E-03     55.4352E-03    -286.914E-03     574.409E-03    -287.118E-03     50.2193E-03
            1031     12.1579E-03     164.575E-03    -12.8331E+06     136.167E+06     100.580E+06     561.544E+03    -286.355E-03     573.722E-03    -287.367E-03     56.6285E-03    -287.054E-03     574.567E-03    -287.043E-03     49.8554E-03
            1032     12.8339E-03     164.661E-03    -5.97791E+06     134.611E+06     108.695E+06    -431.147E+03    -286.396E-03     573.739E-03    -287.342E-03     51.9933E-03    -287.045E-03     574.528E-03    -286.985E-03     45.2672E-03
            1033     674.893E-06     165.342E-03    -137.885E+06    -258.524E+06    -135.482E+06    -885.686E+03    -287.662E-03     575.331E-03    -287.669E-03     4.09070E-03    -287.779E-03     574.435E-03    -287.772E-03     4.50284E-03
            1034     1.34980E-03     165.352E-03    -135.054E+06    -251.245E+06    -127.144E+06    -1.42450E+06    -287.635E-03     575.320E-03    -287.686E-03     7.47351E-03    -287.760E-03     574.443E-03    -287.761E-03     8.21411E-03
            1035     2.02475E-03     165.368E-03    -130.382E+06    -231.955E+06    -115.922E+06    -1.91167E+06    -287.570E-03     575.253E-03    -287.683E-03     11.0486E-03    -287.715E-03     574.447E-03    -287.737E-03     12.1024E-03
            1036     2.69978E-03     165.390E-03    -124.552E+06    -206.844E+06    -100.323E+06    -2.73435E+06    -287.496E-03     575.177E-03    -287.681E-03     14.6596E-03    -287.669E-03     574.465E-03    -287.702E-03     15.9667E-03
            1037     3.37490E-03     165.417E-03    -117.842E+06    -185.136E+06    -80.5812E+06    -3.33240E+06    -287.447E-03     575.145E-03    -287.699E-03     18.2470E-03    -287.645E-03     574.502E-03    -287.662E-03     19.7327E-03
            1038     4.05006E-03     165.451E-03    -110.122E+06    -163.286E+06    -60.2873E+06    -4.14509E+06    -287.401E-03     575.117E-03    -287.715E-03     21.7908E-03    -287.621E-03     574.540E-03    -287.620E-03     23.3598E-03
            1039     4.72530E-03     165.491E-03    -101.795E+06    -145.815E+06    -40.8978E+06    -6.52745E+06    -287.379E-03     575.111E-03    -287.731E-03     25.3136E-03    -287.611E-03     574.581E-03    -287.577E-03     26.8281E-03
            1040     5.40065E-03     165.536E-03    -93.1715E+06    -126.485E+06    -23.5676E+06    -9.55122E+06    -287.361E-03     575.094E-03    -287.733E-03     28.8064E-03    -287.604E-03     574.625E-03    -287.532E-03     30.1442E-03
            1041     6.07599E-03     165.587E-03    -84.5951E+06    -106.638E+06    -9.78685E+06    -10.7664E+06    -287.327E-03     575.040E-03    -287.713E-03     32.2395E-03    -287.578E-03     574.641E-03    -287.485E-03     33.3204E-03
            1042     6.75146E-03     165.643E-03    -76.6994E+06    -89.1133E+06     1.90056E+06    -10.9765E+06    -287.271E-03     574.955E-03    -287.684E-03     35.6298E-03    -287.532E-03     574.622E-03    -287.434E-03     36.3553E-03
            1043     7.42705E-03     165.704E-03    -69.1229E+06    -68.9715E+06     13.3761E+06    -12.4974E+06    -287.179E-03     574.824E-03    -287.644E-03     39.0038E-03    -287.458E-03     574.573E-03    -287.377E-03     39.2368E-03
            1044     8.10275E-03     165.771E-03    -60.6821E+06    -48.7913E+06     24.3987E+06    -14.0084E+06    -287.055E-03     574.649E-03    -287.594E-03     42.3574E-03    -287.351E-03     574.486E-03    -287.314E-03     41.9729E-03
            1045     8.77871E-03     165.843E-03    -51.1827E+06    -24.3974E+06     36.3100E+06    -13.3624E+06    -286.900E-03     574.434E-03    -287.533E-03     45.7502E-03    -287.223E-03     574.383E-03    -287.242E-03     44.6465E-03
            1046     9.45470E-03     165.919E-03    -41.5358E+06     15.9744E+06     51.1895E+06    -10.1759E+06    -286.683E-03     574.139E-03    -287.456E-03     49.0933E-03    -287.066E-03     574.283E-03    -287.163E-03     47.1948E-03
            1047     10.1310E-03     166.001E-03    -33.2181E+06     36.4674E+06     63.6249E+06    -5.32761E+06    -286.567E-03     573.960E-03    -287.393E-03     52.0835E-03    -286.997E-03     574.216E-03    -287.079E-03     49.1849E-03
            1048     10.8071E-03     166.085E-03    -26.4034E+06     57.2106E+06     73.7369E+06    -2.06339E+06    -286.543E-03     573.867E-03    -287.325E-03     54.5440E-03    -287.034E-03     574.254E-03    -287.001E-03     50.4488E-03
            1049     11.4835E-03     166.171E-03    -19.3573E+06     109.230E+06     85.9432E+06    -861.537E+03    -286.497E-03     573.728E-03    -287.231E-03     56.0778E-03    -287.092E-03     574.392E-03    -286.931E-03     50.9420E-03
            1050     12.1595E-03     166.258E-03    -12.4606E+06     139.587E+06     97.7179E+06    -958.824E+03    -286.511E-03     573.690E-03    -287.178E-03     57.4123E-03    -287.209E-03     574.556E-03    -286.874E-03     50.6713E-03
            1051     12.8357E-03     166.344E-03    -6.11621E+06     134.388E+06     104.215E+06    -1.45011E+06    -286.557E-03     573.723E-03    -287.167E-03     52.8703E-03    -287.203E-03     574.523E-03    -286.831E-03     46.0983E-03
            1052     675.432E-06     167.025E-03    -137.948E+06    -254.778E+06    -135.998E+06    -778.439E+03    -286.854E-03     573.718E-03    -286.865E-03     4.35832E-03    -286.976E-03     572.841E-03    -286.975E-03     4.76966E-03
            1053     1.35086E-03     167.035E-03    -134.632E+06    -247.482E+06    -127.135E+06    -1.67946E+06    -286.864E-03     573.750E-03    -286.885E-03     7.97855E-03    -286.993E-03     572.890E-03    -286.967E-03     8.71018E-03
            1054     2.02632E-03     167.051E-03    -130.140E+06    -228.458E+06    -115.205E+06    -2.56250E+06    -286.865E-03     573.769E-03    -286.904E-03     11.7460E-03    -287.014E-03     572.980E-03    -286.960E-03     12.7834E-03
            1055     2.70184E-03     167.073E-03    -124.601E+06    -203.650E+06    -99.5888E+06    -2.93960E+06    -286.874E-03     573.804E-03    -286.930E-03     15.4604E-03    -287.052E-03     573.105E-03    -286.952E-03     16.7607E-03
            1056     3.37733E-03     167.101E-03    -117.447E+06    -181.320E+06    -80.1343E+06    -3.74283E+06    -286.912E-03     573.890E-03    -286.977E-03     19.1149E-03    -287.114E-03     573.263E-03    -286.945E-03     20.5959E-03
            1057     4.05285E-03     167.135E-03    -108.909E+06    -158.290E+06    -59.6864E+06    -5.00133E+06    -286.970E-03     573.998E-03    -287.029E-03     22.7100E-03    -287.190E-03     573.443E-03    -286.940E-03     24.2762E-03
            1058     4.72837E-03     167.174E-03    -99.8379E+06    -136.517E+06    -39.4060E+06    -6.72093E+06    -287.048E-03     574.130E-03    -287.082E-03     26.2463E-03    -287.284E-03     573.641E-03    -286.936E-03     27.7863E-03
            1059     5.40383E-03     167.219E-03    -91.1165E+06    -117.223E+06    -20.9083E+06    -8.99804E+06    -287.145E-03     574.278E-03    -287.133E-03     29.7237E-03    -287.393E-03     573.846E-03    -286.935E-03     31.1118E-03
            1060     6.07937E-03     167.270E-03    -82.7629E+06    -102.811E+06    -6.69464E+06    -10.5404E+06    -287.247E-03     574.418E-03    -287.171E-03     33.1388E-03    -287.498E-03     574.030E-03    -286.935E-03     34.2645E-03
            1061     6.75485E-03     167.326E-03    -74.1481E+06    -84.4715E+06     4.92001E+06    -11.4306E+06    -287.291E-03     574.479E-03    -287.188E-03     36.5281E-03    -287.548E-03     574.159E-03    -286.933E-03     37.2984E-03
            1062     7.43039E-03     167.388E-03    -65.9102E+06    -61.2057E+06     16.5460E+06    -12.6417E+06    -287.270E-03     574.461E-03    -287.191E-03     39.8866E-03    -287.546E-03     574.238E-03    -286.924E-03     40.1875E-03
            1063     8.10604E-03     167.454E-03    -58.9374E+06    -40.4177E+06     27.2639E+06    -15.2902E+06    -287.217E-03     574.404E-03    -287.187E-03     43.2127E-03    -287.519E-03     574.274E-03    -286.907E-03     42.8899E-03
            1064     8.78172E-03     167.525E-03    -52.1729E+06    -22.5664E+06     36.4205E+06    -17.8268E+06    -287.120E-03     574.289E-03    -287.170E-03     46.5666E-03    -287.448E-03     574.247E-03    -286.879E-03     45.4845E-03
            1065     9.45772E-03     167.602E-03    -44.7084E+06     4.90447E+06     46.7989E+06    -15.4556E+06    -286.951E-03     574.084E-03    -287.133E-03     49.8085E-03    -287.325E-03     574.181E-03    -286.841E-03     47.9232E-03
            1066     10.1338E-03     167.683E-03    -36.4780E+06     22.8483E+06     57.4027E+06    -9.47082E+06    -286.848E-03     573.950E-03    -287.101E-03     52.7032E-03    -287.262E-03     574.148E-03    -286.795E-03     49.8526E-03
            1067     10.8101E-03     167.767E-03    -27.9437E+06     51.7089E+06     69.4443E+06    -4.91426E+06    -286.803E-03     573.864E-03    -287.061E-03     55.1549E-03    -287.284E-03     574.227E-03    -286.748E-03     51.1499E-03
            1068     11.4861E-03     167.854E-03    -20.0201E+06     110.099E+06     84.0612E+06    -4.30841E+06    -286.757E-03     573.753E-03    -286.996E-03     56.7037E-03    -287.351E-03     574.423E-03    -286.706E-03     51.6228E-03
            1069     12.1625E-03     167.941E-03    -11.6117E+06     138.427E+06     95.3046E+06    -4.62908E+06    -286.813E-03     573.782E-03    -286.968E-03     57.8802E-03    -287.503E-03     574.645E-03    -286.676E-03     51.0886E-03
            1070     12.8385E-03     168.027E-03    -4.59749E+06     130.297E+06     101.330E+06    -2.32102E+06    -287.090E-03     574.079E-03    -286.989E-03     52.9292E-03    -287.721E-03     574.862E-03    -286.664E-03     46.0888E-03
            1071     676.156E-06     168.705E-03    -142.950E+06    -249.460E+06    -140.647E+06    -1.59673E+06    -285.802E-03     571.595E-03    -285.793E-03     4.64207E-03    -285.950E-03     570.758E-03    -285.927E-03     5.03579E-03
            1072     1.35233E-03     168.715E-03    -139.320E+06    -242.215E+06    -130.504E+06    -2.67529E+06    -285.878E-03     571.723E-03    -285.845E-03     8.44035E-03    -286.033E-03     570.901E-03    -285.944E-03     9.14621E-03
            1073     2.02846E-03     168.731E-03    -133.547E+06    -224.018E+06    -115.828E+06    -3.55670E+06    -285.981E-03     571.893E-03    -285.912E-03     12.3869E-03    -286.153E-03     571.131E-03    -285.972E-03     13.3944E-03
            1074     2.70443E-03     168.753E-03    -125.905E+06    -199.025E+06    -98.2772E+06    -4.81785E+06    -286.107E-03     572.094E-03    -285.987E-03     16.3058E-03    -286.300E-03     571.418E-03    -286.007E-03     17.5606E-03
            1075     3.38039E-03     168.782E-03    -117.201E+06    -176.050E+06    -78.7056E+06    -6.08916E+06    -286.267E-03     572.346E-03    -286.079E-03     20.1358E-03    -286.476E-03     571.742E-03    -286.047E-03     21.5696E-03
            1076     4.05627E-03     168.816E-03    -108.147E+06    -153.279E+06    -58.2849E+06    -7.00408E+06    -286.454E-03     572.634E-03    -286.180E-03     23.8402E-03    -286.678E-03     572.099E-03    -286.092E-03     25.3750E-03
            1077     4.73207E-03     168.856E-03    -98.9918E+06    -130.004E+06    -38.2331E+06    -7.92423E+06    -286.659E-03     572.942E-03    -286.283E-03     27.4433E-03    -286.899E-03     572.480E-03    -286.142E-03     28.9802E-03
            1078     5.40784E-03     168.901E-03    -89.6558E+06    -109.282E+06    -19.6894E+06    -9.27897E+06    -286.880E-03     573.267E-03    -286.386E-03     30.9585E-03    -287.132E-03     572.869E-03    -286.196E-03     32.3774E-03
            1079     6.08342E-03     168.952E-03    -80.2482E+06    -95.7936E+06    -4.51174E+06    -11.3719E+06    -287.113E-03     573.599E-03    -286.486E-03     34.3914E-03    -287.362E-03     573.236E-03    -286.253E-03     35.5529E-03
            1080     6.75901E-03     169.009E-03    -71.1383E+06    -77.6337E+06     7.87212E+06    -13.6300E+06    -287.288E-03     573.851E-03    -286.563E-03     37.7531E-03    -287.542E-03     573.554E-03    -286.308E-03     38.5456E-03
            1081     7.43462E-03     169.070E-03    -62.0275E+06    -55.8643E+06     19.0748E+06    -14.8991E+06    -287.396E-03     574.020E-03    -286.624E-03     41.0031E-03    -287.662E-03     573.812E-03    -286.358E-03     41.3350E-03
            1082     8.11021E-03     169.137E-03    -53.4563E+06    -32.6568E+06     30.8844E+06    -15.0519E+06    -287.460E-03     574.138E-03    -286.678E-03     44.1487E-03    -287.749E-03     574.031E-03    -286.398E-03     43.9057E-03
            1083     8.78592E-03     169.208E-03    -47.1201E+06    -16.1430E+06     41.0459E+06    -15.5852E+06    -287.516E-03     574.244E-03    -286.728E-03     47.2642E-03    -287.833E-03     574.217E-03    -286.431E-03     46.2696E-03
            1084     9.46152E-03     169.284E-03    -42.1205E+06    -2.74968E+06     47.9053E+06    -14.9553E+06    -287.498E-03     574.258E-03    -286.760E-03     50.2346E-03    -287.848E-03     574.310E-03    -286.456E-03     48.3707E-03
            1085     10.1373E-03     169.365E-03    -36.1256E+06     14.3682E+06     54.6962E+06    -12.8695E+06    -287.428E-03     574.203E-03    -286.775E-03     52.8953E-03    -287.822E-03     574.361E-03    -286.470E-03     50.0189E-03
            1086     10.8131E-03     169.449E-03    -28.1271E+06     48.5182E+06     64.8107E+06    -12.0743E+06    -287.389E-03     574.163E-03    -286.774E-03     55.1040E-03    -287.857E-03     574.515E-03    -286.479E-03     51.0296E-03
            1087     11.4892E-03     169.536E-03    -19.0942E+06     108.091E+06     80.1896E+06    -10.1721E+06    -287.363E-03     574.123E-03    -286.761E-03     56.3065E-03    -287.942E-03     574.786E-03    -286.489E-03     51.1148E-03
            1088     12.1646E-03     169.624E-03    -12.7061E+06     133.800E+06     90.5624E+06    -6.89750E+06    -287.550E-03     574.336E-03    -286.786E-03     57.1362E-03    -288.234E-03     575.186E-03    -286.508E-03     50.1986E-03
            1089     12.8400E-03     169.710E-03    -8.10061E+06     122.004E+06     95.1442E+06    -3.71412E+06    -287.962E-03     574.822E-03    -286.860E-03     52.1336E-03    -288.589E-03     575.578E-03    -286.550E-03     45.1945E-03
            1090     677.019E-06     170.381E-03    -139.453E+06    -242.056E+06    -136.876E+06    -1.76687E+06    -284.625E-03     569.214E-03    -284.588E-03     4.88682E-03    -284.773E-03     568.403E-03    -284.719E-03     5.27262E-03
            1091     1.35390E-03     170.392E-03    -135.755E+06    -235.424E+06    -126.519E+06    -3.20427E+06    -284.757E-03     569.427E-03    -284.670E-03     8.91431E-03    -284.909E-03     568.628E-03    -284.764E-03     9.59842E-03
            1092     2.03067E-03     170.408E-03    -130.314E+06    -216.818E+06    -113.641E+06    -5.08364E+06    -284.922E-03     569.677E-03    -284.754E-03     13.1465E-03    -285.090E-03     568.942E-03    -284.819E-03     14.1152E-03
            1093     2.70745E-03     170.431E-03    -124.076E+06    -192.319E+06    -97.7391E+06    -6.54591E+06    -285.148E-03     570.004E-03    -284.856E-03     17.3230E-03    -285.341E-03     569.358E-03    -284.886E-03     18.5359E-03
            1094     3.38403E-03     170.460E-03    -117.123E+06    -170.835E+06    -78.3948E+06    -7.25272E+06    -285.452E-03     570.447E-03    -284.995E-03     21.3680E-03    -285.667E-03     569.867E-03    -284.970E-03     22.7697E-03
            1095     4.06043E-03     170.495E-03    -109.150E+06    -147.466E+06    -58.4048E+06    -8.18242E+06    -285.792E-03     570.941E-03    -285.148E-03     25.2560E-03    -286.028E-03     570.435E-03    -285.068E-03     26.7664E-03
            1096     4.73666E-03     170.535E-03    -100.197E+06    -124.272E+06    -38.9534E+06    -9.39626E+06    -286.158E-03     571.468E-03    -285.309E-03     28.9904E-03    -286.410E-03     571.036E-03    -285.179E-03     30.5119E-03
            1097     5.41265E-03     170.582E-03    -91.0983E+06    -102.297E+06    -20.9052E+06    -10.6957E+06    -286.541E-03     572.014E-03    -285.473E-03     32.5575E-03    -286.806E-03     571.653E-03    -285.297E-03     33.9808E-03
            1098     6.08858E-03     170.633E-03    -82.3226E+06    -85.6230E+06    -5.04517E+06    -12.9819E+06    -286.944E-03     572.585E-03    -285.641E-03     35.9487E-03    -287.216E-03     572.275E-03    -285.422E-03     37.1311E-03
            1099     6.76424E-03     170.690E-03    -73.5996E+06    -68.0892E+06     8.57753E+06    -15.8993E+06    -287.323E-03     573.123E-03    -285.800E-03     39.1890E-03    -287.602E-03     572.874E-03    -285.552E-03     39.9972E-03
            1100     7.43970E-03     170.752E-03    -65.1846E+06    -49.4220E+06     19.4263E+06    -18.2098E+06    -287.640E-03     573.584E-03    -285.944E-03     42.2393E-03    -287.930E-03     573.411E-03    -285.680E-03     42.5666E-03
            1101     8.11510E-03     170.819E-03    -56.8784E+06    -31.7346E+06     28.8375E+06    -18.3379E+06    -287.886E-03     573.962E-03    -286.076E-03     45.0978E-03    -288.188E-03     573.866E-03    -285.804E-03     44.8585E-03
            1102     8.79035E-03     170.891E-03    -47.8659E+06    -14.5885E+06     39.0579E+06    -16.2367E+06    -288.092E-03     574.296E-03    -286.205E-03     47.9249E-03    -288.409E-03     574.279E-03    -285.919E-03     46.9883E-03
            1103     9.46550E-03     170.967E-03    -39.2855E+06    -3.09724E+06     47.8686E+06    -15.0005E+06    -288.266E-03     574.592E-03    -286.326E-03     50.7020E-03    -288.600E-03     574.637E-03    -286.025E-03     48.8696E-03
            1104     10.1406E-03     171.048E-03    -31.9329E+06     14.5679E+06     55.2082E+06    -15.1801E+06    -288.333E-03     574.756E-03    -286.423E-03     53.2727E-03    -288.706E-03     574.907E-03    -286.122E-03     50.3919E-03
            1105     10.8158E-03     171.132E-03    -25.5323E+06     53.9060E+06     64.7227E+06    -16.5513E+06    -288.316E-03     574.806E-03    -286.490E-03     55.5129E-03    -288.776E-03     575.179E-03    -286.208E-03     51.4355E-03
            1106     11.4905E-03     171.220E-03    -19.4140E+06     98.6838E+06     76.2904E+06    -15.3653E+06    -288.306E-03     574.858E-03    -286.553E-03     56.8247E-03    -288.866E-03     575.479E-03    -286.286E-03     51.5897E-03
            1107     12.1658E-03     171.308E-03    -11.4823E+06     122.398E+06     84.5866E+06    -9.59547E+06    -288.429E-03     575.055E-03    -286.627E-03     57.9705E-03    -289.079E-03     575.854E-03    -286.364E-03     51.0654E-03
            1108     12.8401E-03     171.396E-03    -4.06319E+06     114.610E+06     90.5760E+06    -4.41744E+06    -288.559E-03     575.300E-03    -286.741E-03     53.4365E-03    -289.150E-03     576.020E-03    -286.448E-03     46.5523E-03
            1109     677.854E-06     172.053E-03    -142.862E+06    -233.525E+06    -140.520E+06    -2.12080E+06    -283.228E-03     566.441E-03    -283.213E-03     5.27385E-03    -283.400E-03     565.683E-03    -283.369E-03     5.65620E-03
            1110     1.35570E-03     172.064E-03    -138.967E+06    -225.624E+06    -130.527E+06    -4.37356E+06    -283.392E-03     566.673E-03    -283.281E-03     9.62788E-03    -283.568E-03     565.933E-03    -283.405E-03     10.2916E-03
            1111     2.03349E-03     172.081E-03    -133.441E+06    -208.400E+06    -115.654E+06    -6.03149E+06    -283.648E-03     567.042E-03    -283.394E-03     14.1451E-03    -283.841E-03     566.356E-03    -283.477E-03     15.0911E-03
            1112     2.71102E-03     172.104E-03    -126.639E+06    -186.536E+06    -97.1799E+06    -6.67154E+06    -284.005E-03     567.552E-03    -283.547E-03     18.5435E-03    -284.220E-03     566.936E-03    -283.578E-03     19.7424E-03
            1113     3.38833E-03     172.134E-03    -118.384E+06    -164.376E+06    -77.1528E+06    -7.73710E+06    -284.459E-03     568.192E-03    -283.733E-03     22.7955E-03    -284.690E-03     567.643E-03    -283.709E-03     24.1763E-03
            1114     4.06539E-03     172.170E-03    -109.212E+06    -140.646E+06    -57.2414E+06    -9.16650E+06    -284.986E-03     568.927E-03    -283.940E-03     26.8575E-03    -285.233E-03     568.452E-03    -283.864E-03     28.3402E-03
            1115     4.74210E-03     172.212E-03    -99.9854E+06    -117.416E+06    -38.0444E+06    -10.5364E+06    -285.573E-03     569.740E-03    -284.167E-03     30.6996E-03    -285.833E-03     569.339E-03    -284.042E-03     32.1954E-03
            1116     5.41855E-03     172.260E-03    -90.6646E+06    -95.0282E+06    -19.9641E+06    -12.0547E+06    -286.194E-03     570.603E-03    -284.409E-03     34.2860E-03    -286.467E-03     570.275E-03    -284.240E-03     35.6908E-03
            1117     6.09452E-03     172.312E-03    -81.2315E+06    -75.3820E+06    -3.61059E+06    -13.9518E+06    -286.830E-03     571.491E-03    -284.661E-03     37.6131E-03    -287.110E-03     571.226E-03    -284.452E-03     38.8038E-03
            1118     6.77018E-03     172.371E-03    -72.3846E+06    -57.3050E+06     10.4786E+06    -16.3503E+06    -287.447E-03     572.361E-03    -284.915E-03     40.7518E-03    -287.736E-03     572.159E-03    -284.674E-03     41.5928E-03
            1119     7.44553E-03     172.434E-03    -64.4006E+06    -40.8414E+06     21.4960E+06    -18.4569E+06    -288.011E-03     573.172E-03    -285.161E-03     43.6846E-03    -288.310E-03     573.035E-03    -284.901E-03     44.0580E-03
            1120     8.12049E-03     172.501E-03    -56.9271E+06    -28.0242E+06     29.4721E+06    -19.9639E+06    -288.485E-03     573.881E-03    -285.396E-03     46.4337E-03    -288.791E-03     573.800E-03    -285.125E-03     46.2311E-03
            1121     8.79533E-03     172.573E-03    -49.6092E+06    -14.0609E+06     36.6164E+06    -20.8686E+06    -288.815E-03     574.430E-03    -285.615E-03     49.1334E-03    -289.135E-03     574.418E-03    -285.340E-03     48.2244E-03
            1122     9.47013E-03     172.651E-03    -41.2586E+06    -211.757E+03     44.4478E+06    -21.0740E+06    -289.060E-03     574.881E-03    -285.821E-03     51.7888E-03    -289.399E-03     574.944E-03    -285.538E-03     50.0014E-03
            1123     10.1447E-03     172.732E-03    -31.9317E+06     19.3082E+06     53.7927E+06    -21.9008E+06    -289.221E-03     575.229E-03    -286.008E-03     54.3902E-03    -289.595E-03     575.402E-03    -285.720E-03     51.5442E-03
            1124     10.8191E-03     172.817E-03    -22.7443E+06     53.8310E+06     64.8317E+06    -20.4862E+06    -289.231E-03     575.394E-03    -286.163E-03     56.7554E-03    -289.674E-03     575.759E-03    -285.884E-03     52.7530E-03
            1125     11.4940E-03     172.905E-03    -15.4564E+06     89.1724E+06     76.1865E+06    -15.8435E+06    -289.235E-03     575.539E-03    -286.304E-03     58.2291E-03    -289.760E-03     576.105E-03    -286.030E-03     53.1065E-03
            1126     12.1682E-03     172.993E-03    -10.8399E+06     110.786E+06     81.8021E+06    -11.9609E+06    -289.285E-03     575.716E-03    -286.430E-03     59.4116E-03    -289.913E-03     576.461E-03    -286.166E-03     52.5525E-03
            1127     12.8433E-03     173.082E-03    -5.38300E+06     101.856E+06     85.8479E+06    -6.81936E+06    -289.523E-03     576.117E-03    -286.594E-03     54.2003E-03    -290.098E-03     576.785E-03    -286.304E-03     47.2520E-03
            1128     678.999E-06     173.720E-03    -142.299E+06    -223.245E+06    -139.716E+06    -2.31031E+06    -281.652E-03     563.269E-03    -281.617E-03     5.67088E-03    -281.837E-03     562.560E-03    -281.785E-03     6.03773E-03
            1129     1.35793E-03     173.731E-03    -138.678E+06    -213.345E+06    -128.087E+06    -4.95210E+06    -281.869E-03     563.582E-03    -281.713E-03     10.3322E-03    -282.065E-03     562.900E-03    -281.843E-03     10.9791E-03
            1130     2.03661E-03     173.749E-03    -132.506E+06    -200.853E+06    -111.726E+06    -6.67358E+06    -282.250E-03     564.124E-03    -281.874E-03     15.1240E-03    -282.454E-03     563.469E-03    -281.950E-03     16.0474E-03
            1131     2.71509E-03     173.774E-03    -124.631E+06    -180.528E+06    -93.4900E+06    -7.47588E+06    -282.742E-03     564.815E-03    -282.073E-03     19.8008E-03    -282.960E-03     564.220E-03    -282.098E-03     20.9718E-03
            1132     3.39323E-03     173.805E-03    -116.143E+06    -156.009E+06    -74.3953E+06    -8.84807E+06    -283.358E-03     565.663E-03    -282.305E-03     24.3007E-03    -283.592E-03     565.147E-03    -282.283E-03     25.6525E-03
            1133     4.07098E-03     173.842E-03    -107.324E+06    -133.428E+06    -54.7583E+06    -10.3433E+06    -284.097E-03     566.676E-03    -282.580E-03     28.5409E-03    -284.346E-03     566.230E-03    -282.504E-03     29.9965E-03
            1134     4.74828E-03     173.886E-03    -97.9804E+06    -109.929E+06    -35.6335E+06    -11.6412E+06    -284.923E-03     567.806E-03    -282.884E-03     32.5158E-03    -285.185E-03     567.434E-03    -282.760E-03     33.9921E-03
            1135     5.42496E-03     173.935E-03    -88.6474E+06    -87.1662E+06    -17.6990E+06    -13.0928E+06    -285.800E-03     569.012E-03    -283.212E-03     36.2125E-03    -286.075E-03     568.714E-03    -283.046E-03     37.6128E-03
            1136     6.10122E-03     173.990E-03    -79.6242E+06    -66.1211E+06    -1.53836E+06    -14.8925E+06    -286.687E-03     570.245E-03    -283.557E-03     39.6092E-03    -286.973E-03     570.018E-03    -283.354E-03     40.8231E-03
            1137     6.77693E-03     174.050E-03    -70.7746E+06    -47.7036E+06     12.4661E+06    -16.7448E+06    -287.558E-03     571.470E-03    -283.912E-03     42.7546E-03    -287.853E-03     571.308E-03    -283.678E-03     43.6570E-03
            1138     7.45210E-03     174.114E-03    -62.3520E+06    -32.0728E+06     23.8091E+06    -18.5328E+06    -288.376E-03     572.642E-03    -284.266E-03     45.6252E-03    -288.677E-03     572.539E-03    -284.010E-03     46.0882E-03
            1139     8.12692E-03     174.183E-03    -54.3553E+06    -18.8632E+06     32.7365E+06    -20.7021E+06    -289.083E-03     573.695E-03    -284.612E-03     48.2594E-03    -289.391E-03     573.648E-03    -284.342E-03     48.1449E-03
            1140     8.80127E-03     174.257E-03    -46.6134E+06    -6.84653E+06      40.208E+06    -23.0814E+06    -289.623E-03     574.566E-03    -284.943E-03     50.8026E-03    -289.942E-03     574.579E-03    -284.665E-03     49.9591E-03
            1141     9.47534E-03     174.334E-03    -39.5142E+06     7.14644E+06     46.8284E+06    -25.6917E+06    -289.966E-03     575.215E-03    -285.249E-03     53.2432E-03    -290.307E-03     575.305E-03    -284.968E-03     51.5189E-03
            1142     10.1495E-03     174.416E-03    -32.9744E+06     25.4736E+06     54.0237E+06    -27.2513E+06    -290.165E-03     575.692E-03    -285.527E-03     55.5182E-03    -290.549E-03     575.893E-03    -285.246E-03     52.7289E-03
            1143     10.8237E-03     174.502E-03    -26.6940E+06     48.2959E+06     61.7083E+06    -26.2304E+06    -290.296E-03     576.072E-03    -285.776E-03     57.4991E-03    -290.743E-03     576.417E-03    -285.499E-03     53.4812E-03
            1144     11.4974E-03     174.590E-03    -18.7776E+06     77.9034E+06     71.9601E+06    -22.2115E+06    -290.397E-03     576.402E-03    -286.005E-03     58.5588E-03    -290.916E-03     576.922E-03    -285.731E-03     53.3496E-03
            1145     12.1716E-03     174.680E-03    -10.0617E+06     99.7622E+06     78.2076E+06    -14.7655E+06    -290.562E-03     576.774E-03    -286.212E-03     59.2386E-03    -291.168E-03     577.472E-03    -285.951E-03     52.2220E-03
            1146     12.8444E-03     174.768E-03    -6.25074E+06     84.6906E+06     81.6709E+06    -7.03859E+06    -290.837E-03     577.299E-03    -286.462E-03     54.2126E-03    -291.389E-03     577.892E-03    -286.167E-03     47.1789E-03
            1147     680.167E-06     175.382E-03    -138.252E+06    -213.065E+06    -134.970E+06    -2.22594E+06    -280.005E-03     559.866E-03    -279.861E-03     5.98350E-03    -280.190E-03     559.196E-03    -280.027E-03     6.34236E-03
            1148     1.36020E-03     175.394E-03    -133.895E+06    -202.200E+06    -123.112E+06    -3.84705E+06    -280.249E-03     560.276E-03    -280.027E-03     10.9727E-03    -280.444E-03     559.634E-03    -280.155E-03     11.6361E-03
            1149     2.04002E-03     175.412E-03    -128.090E+06    -190.790E+06    -106.465E+06    -6.38403E+06    -280.724E-03     560.950E-03    -280.226E-03     16.1100E-03    -280.928E-03     560.330E-03    -280.295E-03     17.0390E-03
            1150     2.71949E-03     175.438E-03    -120.515E+06    -172.426E+06    -88.7404E+06    -8.63333E+06    -281.364E-03     561.833E-03    -280.469E-03     21.1028E-03    -281.578E-03     561.264E-03    -280.488E-03     22.2608E-03
            1151     3.39856E-03     175.471E-03    -111.901E+06    -148.535E+06    -70.0525E+06    -9.60194E+06    -282.158E-03     562.915E-03    -280.757E-03     25.8611E-03    -282.388E-03     562.423E-03    -280.730E-03     27.2136E-03
            1152     4.07707E-03     175.510E-03    -103.050E+06    -125.953E+06    -50.4022E+06    -10.5064E+06    -283.103E-03     564.202E-03    -281.099E-03     30.3499E-03    -283.346E-03     563.779E-03    -281.019E-03     31.8240E-03
            1153     4.75493E-03     175.556E-03    -94.3952E+06    -102.195E+06    -31.7193E+06    -11.8208E+06    -284.153E-03     565.632E-03    -281.479E-03     34.5640E-03    -284.412E-03     565.285E-03    -281.352E-03     36.0722E-03
            1154     5.43224E-03     175.608E-03    -85.4929E+06    -79.0117E+06    -14.0965E+06    -13.2849E+06    -285.276E-03     567.168E-03    -281.892E-03     38.4411E-03    -285.549E-03     566.898E-03    -281.724E-03     39.8896E-03
            1155     6.10876E-03     175.665E-03    -76.6064E+06    -57.5730E+06     2.08846E+06    -14.7661E+06    -286.439E-03     568.771E-03    -282.331E-03     41.9390E-03    -286.724E-03     568.574E-03    -282.126E-03     43.2252E-03
            1156     6.78459E-03     175.727E-03    -68.5798E+06    -38.6120E+06     15.8140E+06    -16.5147E+06    -287.598E-03     570.386E-03    -282.788E-03     45.1129E-03    -287.896E-03     570.257E-03    -282.553E-03     46.1122E-03
            1157     7.45978E-03     175.794E-03    -60.7956E+06    -22.1827E+06     27.0384E+06    -18.8492E+06    -288.691E-03     571.942E-03    -283.251E-03     47.9278E-03    -289.000E-03     571.877E-03    -282.995E-03     48.4994E-03
            1158     8.13421E-03     175.865E-03    -53.0465E+06    -8.06365E+06     36.2388E+06    -21.4910E+06    -289.657E-03     573.368E-03    -283.711E-03     50.4240E-03    -289.975E-03     573.364E-03    -283.441E-03     50.4244E-03
            1159     8.80822E-03     175.940E-03    -45.7679E+06     4.33999E+06     43.9232E+06    -24.3547E+06    -290.452E-03     574.612E-03    -284.160E-03     52.7492E-03    -290.784E-03     574.670E-03    -283.880E-03     52.0176E-03
            1160     9.48186E-03     176.019E-03    -38.8116E+06     17.7888E+06     51.0244E+06    -26.8743E+06    -291.035E-03     575.622E-03    -284.587E-03     54.8987E-03    -291.391E-03     575.755E-03    -284.302E-03     53.2836E-03
            1161     10.1550E-03     176.102E-03    -32.2868E+06     31.4400E+06     57.3678E+06    -28.3182E+06    -291.420E-03     576.404E-03    -284.984E-03     56.8796E-03    -291.810E-03     576.625E-03    -284.696E-03     54.2122E-03
            1162     10.8279E-03     176.188E-03    -25.9596E+06     48.4018E+06     63.4776E+06    -28.1423E+06    -291.674E-03     577.020E-03    -285.346E-03     58.7155E-03    -292.116E-03     577.358E-03    -285.061E-03     54.8061E-03
            1163     11.5009E-03     176.278E-03    -20.3743E+06     69.3595E+06     70.7653E+06    -26.0109E+06    -291.853E-03     577.534E-03    -285.681E-03     59.9497E-03    -292.363E-03     578.012E-03    -285.398E-03     54.8091E-03
            1164     12.1729E-03     176.368E-03    -14.4127E+06     81.0700E+06     70.8624E+06    -21.3562E+06    -291.990E-03     577.959E-03    -285.969E-03     61.0653E-03    -292.580E-03     578.580E-03    -285.711E-03     54.0580E-03
            1165     12.8459E-03     176.458E-03    -5.01768E+06     62.2159E+06     76.1265E+06    -11.8796E+06    -292.153E-03     578.457E-03    -286.304E-03     56.0495E-03    -292.662E-03     578.948E-03    -286.006E-03     48.9940E-03
            1166     681.381E-06     177.038E-03    -132.288E+06    -205.509E+06    -129.392E+06    -1.12437E+06    -278.275E-03     556.339E-03    -278.064E-03     6.34986E-03    -278.449E-03     555.689E-03    -278.221E-03     6.74172E-03
            1167     1.36262E-03     177.050E-03    -128.833E+06    -193.568E+06    -118.668E+06    -2.83423E+06    -278.545E-03     556.810E-03    -278.266E-03     11.6497E-03    -278.733E-03     556.198E-03    -278.392E-03     12.3543E-03
            1168     2.04362E-03     177.070E-03    -122.939E+06    -178.386E+06    -101.639E+06    -5.46388E+06    -279.103E-03     557.591E-03    -278.488E-03     17.0908E-03    -279.305E-03     557.018E-03    -278.559E-03     18.0758E-03
            1169     2.72418E-03     177.098E-03    -115.485E+06    -162.030E+06    -81.5217E+06    -8.33189E+06    -279.892E-03     558.679E-03    -278.787E-03     22.3873E-03    -280.105E-03     558.144E-03    -278.792E-03     23.6015E-03
            1170     3.40418E-03     177.132E-03    -106.888E+06    -141.258E+06    -62.4555E+06    -10.2402E+06    -280.854E-03     559.989E-03    -279.135E-03     27.4436E-03    -281.078E-03     559.513E-03    -279.088E-03     28.8438E-03
            1171     4.08359E-03     177.174E-03    -97.3705E+06    -118.325E+06    -44.0347E+06    -11.4895E+06    -281.977E-03     561.508E-03    -279.531E-03     32.2077E-03    -282.209E-03     561.102E-03    -279.439E-03     33.7387E-03
            1172     4.76230E-03     177.223E-03    -87.3997E+06    -95.5767E+06    -25.4113E+06    -12.2429E+06    -283.258E-03     563.239E-03    -279.980E-03     36.6461E-03    -283.498E-03     562.902E-03    -279.842E-03     38.2307E-03
            1173     5.44008E-03     177.277E-03    -78.2235E+06    -71.9731E+06    -7.81364E+06    -12.7705E+06    -284.642E-03     565.114E-03    -280.472E-03     40.6877E-03    -284.894E-03     564.856E-03    -280.294E-03     42.2346E-03
            1174     6.11708E-03     177.337E-03    -69.7886E+06    -49.8431E+06     8.22125E+06    -13.7619E+06    -286.083E-03     567.085E-03    -281.002E-03     44.3143E-03    -286.350E-03     566.904E-03    -280.787E-03     45.7202E-03
            1175     6.79313E-03     177.402E-03    -61.0581E+06    -29.3415E+06     22.7043E+06    -15.4551E+06    -287.529E-03     569.088E-03    -281.559E-03     47.5814E-03    -287.808E-03     568.980E-03    -281.314E-03     48.7147E-03
            1176     7.46821E-03     177.472E-03    -52.8542E+06    -11.6480E+06     34.7217E+06    -17.6576E+06    -288.912E-03     571.043E-03    -282.130E-03     50.4359E-03    -289.202E-03     571.003E-03    -281.863E-03     51.1634E-03
            1177     8.14260E-03     177.546E-03    -45.5545E+06     3.32650E+06     44.3254E+06    -20.2312E+06    -290.182E-03     572.888E-03    -282.706E-03     52.8956E-03    -290.486E-03     572.913E-03    -282.423E-03     53.0822E-03
            1178     8.81611E-03     177.624E-03    -38.8069E+06     16.8444E+06     52.3413E+06    -23.2139E+06    -291.276E-03     574.552E-03    -283.275E-03     55.0977E-03    -291.598E-03     574.643E-03    -282.982E-03     54.5755E-03
            1179     9.48896E-03     177.705E-03    -32.5003E+06     28.7031E+06     58.9076E+06    -26.2117E+06    -292.143E-03     575.969E-03    -283.826E-03     57.0947E-03    -292.487E-03     576.129E-03    -283.526E-03     55.7009E-03
            1180     10.1615E-03     177.789E-03    -26.1385E+06     39.0644E+06     64.4780E+06    -28.4119E+06    -292.768E-03     577.117E-03    -284.349E-03     58.9533E-03    -293.141E-03     577.349E-03    -284.045E-03     56.5136E-03
            1181     10.8338E-03     177.877E-03    -19.7330E+06     51.8878E+06     69.7078E+06    -29.4693E+06    -293.152E-03     577.985E-03    -284.833E-03     60.6741E-03    -293.570E-03     578.315E-03    -284.531E-03     56.9761E-03
            1182     11.5058E-03     177.967E-03    -13.1090E+06     62.2756E+06     74.7538E+06    -26.8441E+06    -293.397E-03     578.679E-03    -285.281E-03     61.6942E-03    -293.862E-03     579.101E-03    -284.979E-03     56.7176E-03
            1183     12.1785E-03     178.058E-03    -8.19013E+06     70.7892E+06     73.8475E+06    -21.8164E+06    -293.666E-03     579.342E-03    -285.675E-03     62.3445E-03    -294.214E-03     579.897E-03    -285.397E-03     55.4176E-03
            1184     12.8500E-03     178.149E-03    -7.16556E+06     37.4308E+06     73.3763E+06    -15.4766E+06    -294.206E-03     580.330E-03    -286.124E-03     56.7463E-03    -294.688E-03     580.706E-03    -285.801E-03     49.6160E-03
            1185     682.659E-06     178.687E-03    -123.607E+06    -200.214E+06    -121.572E+06    -1.25590E+06    -276.534E-03     552.837E-03    -276.303E-03     6.63411E-03    -276.685E-03     552.190E-03    -276.441E-03     7.04766E-03
            1186     1.36513E-03     178.701E-03    -119.810E+06    -186.826E+06    -110.133E+06    -2.15125E+06    -276.850E-03     553.371E-03    -276.522E-03     12.1545E-03    -277.014E-03     552.767E-03    -276.628E-03     12.9219E-03
            1187     2.04725E-03     178.722E-03    -114.647E+06    -168.889E+06    -93.1040E+06    -3.44789E+06    -277.484E-03     554.249E-03    -276.765E-03     17.8495E-03    -277.670E-03     553.698E-03    -276.820E-03     18.9499E-03
            1188     2.72894E-03     178.752E-03    -107.720E+06    -149.302E+06    -72.6258E+06    -6.39055E+06    -278.363E-03     555.457E-03    -277.095E-03     23.4188E-03    -278.567E-03     554.960E-03    -277.085E-03     24.7704E-03
            1189     3.41000E-03     178.789E-03    -98.9527E+06    -130.344E+06    -52.2529E+06    -10.2039E+06    -279.477E-03     556.970E-03    -277.493E-03     28.7636E-03    -279.689E-03     556.520E-03    -277.422E-03     30.2831E-03
            1190     4.09034E-03     178.833E-03    -89.5007E+06    -109.829E+06    -34.4285E+06    -12.6723E+06    -280.784E-03     558.727E-03    -277.943E-03     33.7816E-03    -281.000E-03     558.335E-03    -277.826E-03     35.4248E-03
            1191     4.76977E-03     178.885E-03    -79.9489E+06    -88.8412E+06    -17.7821E+06    -14.1012E+06    -282.247E-03     560.693E-03    -278.446E-03     38.4627E-03    -282.466E-03     560.364E-03    -278.290E-03     40.1645E-03
            1192     5.44833E-03     178.943E-03    -69.5444E+06    -67.2915E+06    -777.156E+03    -14.5481E+06    -283.839E-03     562.842E-03    -279.004E-03     42.7718E-03    -284.060E-03     562.580E-03    -278.809E-03     44.4562E-03
            1193     6.12577E-03     179.006E-03    -59.1822E+06    -44.2779E+06     16.0253E+06    -14.3250E+06    -285.506E-03     565.112E-03    -279.606E-03     46.6903E-03    -285.733E-03     564.925E-03    -279.376E-03     48.2697E-03
            1194     6.80215E-03     179.075E-03    -50.5618E+06    -22.6104E+06     31.0863E+06    -14.3684E+06    -287.198E-03     567.442E-03    -280.244E-03     50.2365E-03    -287.440E-03     567.334E-03    -279.982E-03     51.5882E-03
            1195     7.47758E-03     179.149E-03    -43.2566E+06    -3.22505E+06     43.7756E+06    -14.9908E+06    -288.878E-03     569.784E-03    -280.906E-03     53.3050E-03    -289.138E-03     569.752E-03    -280.620E-03     54.3047E-03
            1196     8.15181E-03     179.226E-03    -36.8428E+06     14.6189E+06     54.1018E+06    -16.8796E+06    -290.473E-03     572.054E-03    -281.581E-03     55.9011E-03    -290.754E-03     572.099E-03    -281.278E-03     56.4052E-03
            1197     8.82518E-03     179.307E-03    -31.0715E+06     29.0760E+06     61.8000E+06    -19.7867E+06    -291.917E-03     574.175E-03    -282.258E-03     58.1426E-03    -292.221E-03     574.293E-03    -281.946E-03     57.9803E-03
            1198     9.49777E-03     179.391E-03    -25.8632E+06     41.2012E+06     67.7935E+06    -22.8921E+06    -293.149E-03     576.076E-03    -282.926E-03     60.0297E-03    -293.481E-03     576.265E-03    -282.609E-03     59.0265E-03
            1199     10.1695E-03     179.477E-03    -21.3479E+06     49.6649E+06     72.1046E+06    -26.0166E+06    -294.118E-03     577.694E-03    -283.576E-03     61.6103E-03    -294.483E-03     577.950E-03    -283.256E-03     59.5540E-03
            1200     10.8407E-03     179.567E-03    -17.0732E+06     58.4532E+06     75.2630E+06    -28.0582E+06    -294.829E-03     579.020E-03    -284.191E-03     62.9540E-03    -295.241E-03     579.361E-03    -283.875E-03     59.5953E-03
            1201     11.5116E-03     179.658E-03    -12.7180E+06     59.0887E+06     77.2173E+06    -28.4987E+06    -295.423E-03     580.204E-03    -284.781E-03     63.5895E-03    -295.877E-03     580.598E-03    -284.462E-03     58.8346E-03
            1202     12.1814E-03     179.751E-03    -6.26024E+06     57.2594E+06     73.6224E+06    -24.1518E+06    -296.008E-03     581.324E-03    -285.315E-03     63.9978E-03    -296.520E-03     581.803E-03    -285.021E-03     57.2352E-03
            1203     12.8511E-03     179.845E-03     1.81797E+06     9.80833E+06     74.2025E+06    -12.6821E+06    -296.651E-03     582.567E-03    -285.916E-03     58.5104E-03    -297.046E-03     582.788E-03    -285.562E-03     51.5475E-03
            1204     683.738E-06     180.332E-03    -117.736E+06    -192.901E+06    -115.213E+06    -2.23223E+06    -274.984E-03     549.693E-03    -274.709E-03     6.72100E-03    -275.125E-03     549.065E-03    -274.835E-03     7.16117E-03
            1205     1.36736E-03     180.346E-03    -113.352E+06    -180.254E+06    -104.515E+06    -3.80896E+06    -275.294E-03     550.242E-03    -274.949E-03     12.3211E-03    -275.443E-03     549.653E-03    -275.045E-03     13.1512E-03
            1206     2.05065E-03     180.369E-03    -105.523E+06    -161.832E+06    -86.9605E+06    -5.19338E+06    -275.945E-03     551.137E-03    -275.193E-03     18.1485E-03    -276.103E-03     550.598E-03    -275.240E-03     19.3514E-03
            1207     2.73339E-03     180.400E-03    -96.5882E+06     -139.99E+06    -65.5582E+06    -6.07360E+06    -276.857E-03     552.380E-03    -275.523E-03     23.8991E-03    -277.027E-03     551.900E-03    -275.508E-03     25.4266E-03
            1208     3.41553E-03     180.440E-03    -88.7384E+06    -118.567E+06    -43.2593E+06    -7.55144E+06    -278.039E-03     553.978E-03    -275.939E-03     29.4880E-03    -278.227E-03     553.555E-03    -275.854E-03     31.2570E-03
            1209     4.09675E-03     180.488E-03    -81.1353E+06    -99.1030E+06    -23.2710E+06    -10.3784E+06    -279.451E-03     555.874E-03    -276.423E-03     34.8583E-03    -279.653E-03     555.503E-03    -276.278E-03     36.7658E-03
            1210     4.77712E-03     180.543E-03    -72.7243E+06    -77.6503E+06    -6.84428E+06    -13.8397E+06    -281.015E-03     557.968E-03    -276.953E-03     39.9605E-03    -281.224E-03     557.663E-03    -276.770E-03     41.9192E-03
            1211     5.45640E-03     180.604E-03    -63.6458E+06    -59.0498E+06     7.31266E+06    -17.2871E+06    -282.708E-03     560.241E-03    -277.534E-03     44.7334E-03    -282.916E-03     559.992E-03    -277.319E-03     46.6628E-03
            1212     6.13472E-03     180.672E-03    -54.2088E+06    -43.8612E+06     20.7561E+06    -17.2417E+06    -284.525E-03     562.690E-03    -278.166E-03     49.1019E-03    -284.725E-03     562.483E-03    -277.920E-03     50.9528E-03
            1213     6.81191E-03     180.745E-03    -45.0415E+06    -22.2055E+06     35.3625E+06    -14.2257E+06    -286.436E-03     565.278E-03    -278.842E-03     53.0515E-03    -286.645E-03     565.146E-03    -278.568E-03     54.7607E-03
            1214     7.48775E-03     180.823E-03    -36.8169E+06     1.74135E+06     49.5838E+06    -12.8064E+06    -288.406E-03     567.964E-03    -279.558E-03     56.5038E-03    -288.635E-03     567.925E-03    -279.259E-03     57.9314E-03
            1215     8.16246E-03     180.904E-03    -29.5442E+06     23.1158E+06     61.2482E+06    -13.3662E+06    -290.374E-03     570.678E-03    -280.304E-03     59.3985E-03    -290.627E-03     570.730E-03    -279.988E-03     60.3857E-03
            1216     8.83587E-03     180.989E-03    -23.4382E+06     39.8071E+06     69.5459E+06    -14.9939E+06    -292.292E-03     573.363E-03    -281.071E-03     61.7558E-03    -292.568E-03     573.495E-03    -280.747E-03     62.1408E-03
            1217     9.50801E-03     181.077E-03    -18.5273E+06     51.8433E+06     75.2372E+06    -17.0464E+06    -294.065E-03     575.917E-03    -281.852E-03     63.5367E-03    -294.368E-03     576.120E-03    -281.524E-03     63.1284E-03
            1218     10.1792E-03     181.167E-03    -14.8305E+06     60.4393E+06     79.1465E+06    -18.7693E+06    -295.604E-03     578.239E-03    -282.635E-03     64.8060E-03    -295.944E-03     578.512E-03    -282.306E-03     63.3783E-03
            1219     10.8495E-03     181.258E-03    -12.3569E+06     67.7030E+06     81.5976E+06    -20.8221E+06    -296.892E-03     580.299E-03    -283.407E-03     65.7074E-03    -297.285E-03     580.652E-03    -283.079E-03     62.9685E-03
            1220     11.5190E-03     181.352E-03    -10.7207E+06     62.9556E+06     81.5106E+06    -21.8770E+06    -297.972E-03     582.139E-03    -284.168E-03     65.9358E-03    -298.412E-03     582.529E-03    -283.836E-03     61.7105E-03
            1221     12.1883E-03     181.448E-03    -11.0438E+06     49.5286E+06     73.0760E+06    -21.6388E+06    -298.816E-03     583.694E-03    -284.878E-03     65.9913E-03    -299.329E-03     584.132E-03    -284.569E-03     59.5786E-03
            1222     12.8569E-03     181.542E-03    -11.7263E+06    -20.0758E+06     65.6600E+06    -16.1747E+06    -299.763E-03     585.419E-03    -285.656E-03     59.6751E-03    -300.167E-03     585.520E-03    -285.282E-03     52.7840E-03
            1223     684.644E-06     181.971E-03    -102.390E+06    -185.251E+06    -100.450E+06    -1.47523E+06    -273.846E-03     547.334E-03    -273.489E-03     6.60993E-03    -273.942E-03     546.701E-03    -273.574E-03     7.13877E-03
            1224     1.36903E-03     181.986E-03    -100.635E+06    -169.533E+06    -93.1165E+06    -4.02108E+06    -274.059E-03     547.799E-03    -273.740E-03     12.1682E-03    -274.177E-03     547.228E-03    -273.814E-03     13.1276E-03
            1225     2.05317E-03     182.011E-03    -97.1084E+06    -151.519E+06    -80.8908E+06    -7.58172E+06    -274.624E-03     548.564E-03    -273.941E-03     17.9963E-03    -274.763E-03     548.055E-03    -273.985E-03     19.3540E-03
            1226     2.73698E-03     182.044E-03    -90.6539E+06    -136.280E+06    -62.4510E+06    -8.38423E+06    -275.441E-03     549.677E-03    -274.235E-03     23.8010E-03    -275.590E-03     549.201E-03    -274.219E-03     25.5480E-03
            1227     3.42011E-03     182.087E-03    -81.3297E+06    -113.272E+06    -39.9551E+06    -7.24799E+06    -276.503E-03     551.106E-03    -274.603E-03     29.5924E-03    -276.663E-03     550.691E-03    -274.520E-03     31.6923E-03
            1228     4.10257E-03     182.137E-03    -71.4810E+06    -88.6015E+06    -16.6706E+06    -7.88369E+06    -277.828E-03     552.870E-03    -275.042E-03     35.3493E-03    -278.000E-03     552.522E-03    -274.893E-03     37.6801E-03
            1229     4.78401E-03     182.196E-03    -62.8459E+06    -64.8242E+06     3.23509E+06    -10.5214E+06    -279.381E-03     554.921E-03    -275.540E-03     40.9848E-03    -279.566E-03     554.643E-03    -275.339E-03     43.4256E-03
            1230     5.46454E-03     182.261E-03    -55.8357E+06    -46.4132E+06     18.1894E+06    -13.4110E+06    -281.130E-03     557.223E-03    -276.093E-03     46.3464E-03    -281.322E-03     556.999E-03    -275.853E-03     48.8012E-03
            1231     6.14390E-03     182.333E-03    -49.3820E+06    -40.3836E+06     28.0201E+06    -15.8747E+06    -283.097E-03     559.802E-03    -276.705E-03     51.3294E-03    -283.275E-03     559.580E-03    -276.435E-03     53.7035E-03
            1232     6.82201E-03     182.410E-03    -41.7690E+06    -25.5639E+06     37.5004E+06    -15.4304E+06    -285.194E-03     562.559E-03    -277.365E-03     55.8639E-03    -285.368E-03     562.385E-03    -277.080E-03     58.1169E-03
            1233     7.49892E-03     182.493E-03    -33.7637E+06     1.23378E+06     50.1350E+06    -12.3839E+06    -287.430E-03     565.513E-03    -278.083E-03     59.8269E-03    -287.623E-03     565.444E-03    -277.785E-03     61.8924E-03
            1234     8.17425E-03     182.579E-03    -27.0411E+06     26.7215E+06     62.7675E+06    -10.3988E+06    -289.864E-03     568.731E-03    -278.867E-03     63.1164E-03    -290.087E-03     568.771E-03    -278.553E-03     64.8344E-03
            1235     8.84805E-03     182.669E-03    -21.6662E+06     45.8636E+06     71.9724E+06    -9.95699E+06    -292.411E-03     572.120E-03    -279.709E-03     65.6520E-03    -292.664E-03     572.250E-03    -279.384E-03     66.8341E-03
            1236     9.52028E-03     182.762E-03    -17.0689E+06     60.8469E+06     78.4893E+06    -11.2024E+06    -294.923E-03     575.523E-03    -280.600E-03     67.3485E-03    -295.209E-03     575.737E-03    -280.271E-03     67.7712E-03
            1237     10.1908E-03     182.856E-03    -12.4338E+06     67.6661E+06     81.8658E+06    -13.1047E+06    -297.297E-03     578.827E-03    -281.530E-03     68.2187E-03    -297.612E-03     579.101E-03    -281.201E-03     67.6199E-03
            1238     10.8598E-03     182.953E-03    -7.87269E+06     74.4888E+06     85.0674E+06    -13.6827E+06    -299.342E-03     581.825E-03    -282.483E-03     68.4978E-03    -299.700E-03     582.173E-03    -282.154E-03     66.5807E-03
            1239     11.5275E-03     183.050E-03    -4.64791E+06     67.1355E+06     85.4122E+06    -14.2364E+06    -300.976E-03     584.422E-03    -283.445E-03     68.0933E-03    -301.375E-03     584.794E-03    -283.109E-03     64.5680E-03
            1240     12.1937E-03     183.148E-03    -569.786E+03     51.8763E+06     79.2957E+06    -14.0391E+06    -302.397E-03     586.769E-03    -284.373E-03     67.5836E-03    -302.849E-03     587.174E-03    -284.051E-03     61.7464E-03
            1241     12.8589E-03     183.246E-03     4.03105E+06    -39.8906E+06     66.6521E+06    -10.5851E+06    -303.674E-03     589.033E-03    -285.359E-03     61.3074E-03    -303.963E-03     589.002E-03    -284.974E-03     54.6998E-03
            1242     685.082E-06     183.608E-03     -94.581E+06    -176.710E+06    -93.3907E+06      -2.812E+06    -273.033E-03     545.767E-03    -272.735E-03     6.36715E-03    -273.112E-03     545.155E-03    -272.809E-03     6.98498E-03
            1243     1.37016E-03     183.623E-03    -91.5312E+06    -162.492E+06    -84.9870E+06    -2.75019E+06    -273.152E-03     546.086E-03    -272.934E-03     11.7894E-03    -273.246E-03     545.524E-03    -272.990E-03     12.9637E-03
            1244     2.05499E-03     183.649E-03    -88.2187E+06    -141.976E+06    -69.6654E+06    -2.75444E+06    -273.570E-03     546.658E-03    -273.088E-03     17.5279E-03    -273.693E-03     546.166E-03    -273.103E-03     19.2447E-03
            1245     2.73940E-03     183.684E-03    -84.0070E+06    -127.684E+06    -52.0930E+06    -5.90704E+06    -274.185E-03     547.498E-03    -273.313E-03     23.3771E-03    -274.326E-03     547.038E-03    -273.266E-03     25.5254E-03
            1246     3.42358E-03     183.728E-03    -77.4257E+06    -108.282E+06    -36.9806E+06    -9.21275E+06    -274.955E-03     548.515E-03    -273.560E-03     29.3129E-03    -275.103E-03     548.111E-03    -273.476E-03     31.8353E-03
            1247     4.10722E-03     183.782E-03    -68.9156E+06    -85.1222E+06    -19.7156E+06    -9.05576E+06    -275.972E-03     549.831E-03    -273.860E-03     35.3026E-03    -276.124E-03     549.494E-03    -273.735E-03     38.1785E-03
            1248     4.79026E-03     183.843E-03    -60.9050E+06    -61.2633E+06     1.21024E+06    -6.39933E+06    -277.324E-03     551.565E-03    -274.241E-03     41.2739E-03    -277.490E-03     551.294E-03    -274.058E-03     44.4357E-03
            1249     5.47228E-03     183.912E-03    -54.5818E+06    -38.8405E+06     19.8361E+06    -5.11890E+06    -279.032E-03     553.730E-03    -274.698E-03     47.1555E-03    -279.215E-03     553.523E-03    -274.463E-03     50.4673E-03
            1250     6.15316E-03     183.988E-03    -49.7522E+06    -27.3871E+06     32.1045E+06    -7.82744E+06    -281.109E-03     556.341E-03    -275.232E-03     52.8451E-03    -281.293E-03     556.158E-03    -274.960E-03     56.1358E-03
            1251     6.83271E-03     184.070E-03    -45.2874E+06    -20.7187E+06     39.0823E+06    -12.1854E+06    -283.495E-03     559.339E-03    -275.844E-03     58.0633E-03    -283.671E-03     559.167E-03    -275.553E-03     61.2087E-03
            1252     7.51080E-03     184.158E-03    -39.6440E+06    -5.19492E+06     46.4473E+06    -11.6374E+06    -286.143E-03     562.684E-03    -276.540E-03     62.4940E-03    -286.322E-03     562.568E-03    -276.243E-03     65.4751E-03
            1253     8.18727E-03     184.251E-03    -33.6077E+06     23.3046E+06     57.8812E+06    -7.07254E+06    -289.092E-03     566.429E-03    -277.337E-03     66.0572E-03    -289.302E-03     566.435E-03    -277.033E-03     68.7954E-03
            1254     8.86160E-03     184.347E-03    -28.3383E+06     48.6061E+06     68.4492E+06    -5.02639E+06    -292.360E-03     570.600E-03    -278.240E-03     68.7317E-03    -292.609E-03     570.723E-03    -277.928E-03     70.9772E-03
            1255     9.53363E-03     184.446E-03    -23.6135E+06     69.0287E+06     76.3482E+06    -6.02958E+06    -295.764E-03     575.005E-03    -279.241E-03     70.3883E-03    -296.055E-03     575.237E-03    -278.925E-03     71.8731E-03
            1256     10.2034E-03     184.547E-03    -19.5224E+06     77.2841E+06     79.2715E+06    -9.13683E+06    -299.073E-03     579.398E-03    -280.324E-03     71.0520E-03    -299.398E-03     579.698E-03    -280.012E-03     71.4649E-03
            1257     10.8709E-03     184.649E-03    -14.6386E+06     80.6250E+06     80.9189E+06    -13.0783E+06    -301.937E-03     583.403E-03    -281.467E-03     70.9446E-03    -302.298E-03     583.765E-03    -281.158E-03     69.9209E-03
            1258     11.5369E-03     184.752E-03    -7.65492E+06     67.8447E+06     81.5158E+06    -13.9064E+06    -304.310E-03     586.959E-03    -282.649E-03     70.0428E-03    -304.687E-03     587.314E-03    -282.329E-03     67.3151E-03
            1259     12.2016E-03     184.854E-03    -4.07250E+06     44.1635E+06     73.3601E+06    -10.5462E+06    -306.153E-03     589.958E-03    -283.804E-03     69.3196E-03    -306.574E-03     590.308E-03    -283.496E-03     64.2352E-03
            1260     12.8648E-03     184.958E-03    -1.71856E+06    -55.5543E+06     58.0575E+06    -5.48361E+06    -307.812E-03     592.828E-03    -285.017E-03     62.5713E-03    -308.080E-03     592.726E-03    -284.643E-03     56.3712E-03
            1261     685.395E-06     185.242E-03    -87.3754E+06    -170.855E+06    -83.5883E+06     162.447E+03    -272.568E-03     544.980E-03    -272.412E-03     6.04876E-03    -272.634E-03     544.372E-03    -272.455E-03     6.84881E-03
            1262     1.37069E-03     185.258E-03    -86.6692E+06    -164.670E+06    -76.6526E+06     841.699E+03    -272.591E-03     545.116E-03    -272.525E-03     11.1576E-03    -272.669E-03     544.524E-03    -272.544E-03     12.6299E-03
            1263     2.05602E-03     185.285E-03    -84.1914E+06    -144.665E+06    -67.2935E+06     3.49755E+06    -272.706E-03     545.269E-03    -272.563E-03     16.6887E-03    -272.807E-03     544.752E-03    -272.567E-03     18.8644E-03
            1264     2.74129E-03     185.321E-03    -81.6303E+06    -118.305E+06    -52.9802E+06     3.77116E+06    -272.975E-03     545.604E-03    -272.630E-03     22.5442E-03    -273.113E-03     545.186E-03    -272.605E-03     25.3355E-03
            1265     3.42618E-03     185.366E-03    -80.1022E+06    -96.5649E+06    -35.8989E+06    -116.843E+03    -273.485E-03     546.243E-03    -272.758E-03     28.5802E-03    -273.660E-03     545.894E-03    -272.681E-03     31.8561E-03
            1266     4.11100E-03     185.421E-03    -78.0225E+06    -83.2899E+06    -22.0036E+06    -3.28707E+06    -274.241E-03     547.174E-03    -272.934E-03     34.5776E-03    -274.431E-03     546.855E-03    -272.810E-03     38.2748E-03
            1267     4.79537E-03     185.485E-03    -73.0700E+06    -66.2504E+06    -8.07596E+06    -2.44949E+06    -275.290E-03     548.452E-03    -273.162E-03     40.5081E-03    -275.484E-03     548.175E-03    -273.000E-03     44.5967E-03
            1268     5.47915E-03     185.557E-03    -65.7669E+06    -39.1436E+06     9.12665E+06    -69.5782E+03    -276.798E-03     550.267E-03    -273.469E-03     46.4375E-03    -277.005E-03     550.075E-03    -273.271E-03     50.8287E-03
            1269     6.16188E-03     185.637E-03    -58.3505E+06      -16.97E+06     26.5318E+06    -71.5551E+03    -278.910E-03     552.803E-03    -273.894E-03     52.2185E-03    -279.122E-03     552.672E-03    -273.652E-03     56.7256E-03
            1270     6.84315E-03     185.724E-03    -52.3834E+06    -6.19402E+06     38.2590E+06    -3.72954E+06    -281.625E-03     556.070E-03    -274.444E-03     57.6179E-03    -281.830E-03     555.956E-03    -274.168E-03     62.0359E-03
            1271     7.52241E-03     185.818E-03    -47.3880E+06    -6.10644E+06     42.8419E+06    -7.30285E+06    -284.854E-03     559.979E-03    -275.125E-03     62.3171E-03    -285.036E-03     559.847E-03    -274.833E-03     66.5101E-03
            1272     8.19955E-03     185.917E-03    -41.0133E+06     14.0018E+06     50.6733E+06    -5.74313E+06    -288.376E-03     564.314E-03    -275.938E-03     66.0599E-03    -288.567E-03     564.263E-03    -275.646E-03     69.9748E-03
            1273     8.87441E-03     186.021E-03    -33.4476E+06     48.9621E+06     63.1468E+06    -2.79132E+06    -292.236E-03     569.131E-03    -276.895E-03     68.8786E-03    -292.468E-03     569.235E-03    -276.602E-03     72.3413E-03
            1274     9.54650E-03     186.129E-03    -25.8902E+06     77.2160E+06     73.8929E+06    -3.98859E+06    -296.403E-03     574.397E-03    -277.994E-03     70.7467E-03    -296.676E-03     574.638E-03    -277.698E-03     73.4137E-03
            1275     10.2156E-03     186.239E-03    -18.3718E+06     85.2957E+06     77.8399E+06    -6.23477E+06    -300.582E-03     579.797E-03    -279.215E-03     71.4976E-03    -300.873E-03     580.101E-03    -278.923E-03     73.0146E-03
            1276     10.8820E-03     186.349E-03    -13.9935E+06     91.1794E+06     80.9627E+06    -8.01775E+06    -304.445E-03     584.985E-03    -280.540E-03     71.1213E-03    -304.782E-03     585.362E-03    -280.247E-03     71.1362E-03
            1277     11.5459E-03     186.458E-03    -12.3854E+06     75.0166E+06     78.9865E+06    -12.3758E+06    -307.676E-03     589.613E-03    -281.937E-03     69.6464E-03    -308.050E-03     589.981E-03    -281.633E-03     67.7289E-03
            1278     12.2073E-03     186.566E-03    -7.67035E+06     33.6114E+06     66.9246E+06    -12.4450E+06    -310.041E-03     593.370E-03    -283.329E-03     67.9677E-03    -310.425E-03     593.652E-03    -283.032E-03     63.3832E-03
            1279     12.8684E-03     186.672E-03    -4.35316E+06    -73.1649E+06     42.3445E+06    -5.81150E+06    -311.688E-03     596.415E-03    -284.726E-03     61.3596E-03    -311.903E-03     596.231E-03    -284.402E-03     55.4185E-03
            1280     685.400E-06     186.876E-03    -121.913E+06    -174.204E+06    -120.455E+06     1.21682E+06    -272.329E-03     544.485E-03    -272.156E-03     5.62624E-03    -272.509E-03     543.963E-03    -272.328E-03     6.61771E-03
            1281     1.37085E-03     186.893E-03    -117.492E+06    -169.955E+06    -109.845E+06     2.69603E+06    -272.170E-03     544.417E-03    -272.248E-03     10.4561E-03    -272.346E-03     543.891E-03    -272.380E-03     12.2708E-03
            1282     2.05636E-03     186.918E-03    -112.204E+06    -153.309E+06    -96.9070E+06     3.88498E+06    -272.115E-03     544.338E-03    -272.223E-03     15.6182E-03    -272.300E-03     543.862E-03    -272.322E-03     18.2566E-03
            1283     2.74226E-03     186.954E-03    -104.876E+06    -120.418E+06    -79.0693E+06     5.50807E+06    -272.127E-03     544.325E-03    -272.198E-03     20.8515E-03    -272.340E-03     543.967E-03    -272.267E-03     24.2815E-03
            1284     3.42835E-03     187.001E-03    -95.8231E+06    -92.5997E+06    -53.8222E+06     6.86982E+06    -272.406E-03     544.648E-03    -272.242E-03     26.2099E-03    -272.638E-03     544.367E-03    -272.238E-03     30.3519E-03
            1285     4.11387E-03     187.057E-03    -87.3699E+06    -77.5828E+06    -29.6171E+06     5.64412E+06    -273.058E-03     545.417E-03    -272.359E-03     31.6850E-03    -273.290E-03     545.150E-03    -272.268E-03     36.4068E-03
            1286     4.79905E-03     187.122E-03    -79.8060E+06    -64.1562E+06    -12.6056E+06     1.94680E+06    -274.082E-03     546.607E-03    -272.525E-03     37.0793E-03    -274.305E-03     546.355E-03    -272.379E-03     42.2518E-03
            1287     5.48379E-03     187.196E-03    -70.8162E+06    -41.2627E+06     2.83849E+06    -16.1185E+03    -275.520E-03     548.284E-03    -272.764E-03     42.2260E-03    -275.737E-03     548.095E-03    -272.587E-03     47.7617E-03
            1288     6.16755E-03     187.281E-03    -60.6868E+06    -18.2248E+06     19.3608E+06     1.43107E+06    -277.544E-03     550.669E-03    -273.125E-03     47.1291E-03    -277.753E-03     550.541E-03    -272.913E-03     52.9140E-03
            1289     6.84979E-03     187.373E-03    -52.0639E+06     1.92172E+06     34.8372E+06     2.67188E+06    -280.272E-03     553.904E-03    -273.632E-03     51.8594E-03    -280.477E-03     553.830E-03    -273.385E-03     57.7154E-03
            1290     7.53009E-03     187.473E-03    -44.6476E+06     9.19408E+06     43.8864E+06    -2.15077E+06    -283.717E-03     558.014E-03    -274.297E-03     56.3677E-03    -283.900E-03     557.944E-03    -274.026E-03     61.9931E-03
            1291     8.20770E-03     187.580E-03    -35.9575E+06     13.0156E+06     49.4405E+06    -8.33067E+06    -287.664E-03     562.789E-03    -275.124E-03     60.3864E-03    -287.815E-03     562.715E-03    -274.844E-03     65.5680E-03
            1292     8.88266E-03     187.693E-03    -24.7155E+06     44.1233E+06     61.5470E+06    -8.47728E+06    -291.845E-03     567.954E-03    -276.109E-03     63.6933E-03    -292.006E-03     568.006E-03    -275.829E-03     68.3668E-03
            1293     9.55470E-03     187.810E-03    -13.8614E+06     80.8354E+06     75.7681E+06    -6.41858E+06    -296.324E-03     573.576E-03    -277.252E-03     66.2052E-03    -296.520E-03     573.791E-03    -276.970E-03     70.1116E-03
            1294     10.2236E-03     187.930E-03    -6.52749E+06     86.4464E+06     79.9755E+06    -5.32842E+06    -301.170E-03     579.716E-03    -278.545E-03     67.7422E-03    -301.376E-03     579.974E-03    -278.261E-03     70.4782E-03
            1295     10.8890E-03     188.050E-03     81.3133E+03     93.9497E+06     85.5000E+06    -3.97886E+06    -305.815E-03     585.791E-03    -279.976E-03     68.3055E-03    -306.055E-03     586.118E-03    -279.685E-03     69.5252E-03
            1296     11.5509E-03     188.169E-03     4.73550E+06     78.5095E+06     85.8954E+06    -511.225E+03    -309.809E-03     591.317E-03    -281.507E-03     67.8713E-03    -310.073E-03     591.627E-03    -281.198E-03     67.1609E-03
            1297     12.2107E-03     188.283E-03     315.984E+03     36.7018E+06     72.2536E+06    -19.9342E+03    -312.601E-03     595.649E-03    -283.048E-03     67.8186E-03    -312.917E-03     595.888E-03    -282.741E-03     64.3296E-03
            1298     12.8672E-03     188.397E-03    -1.18877E+06    -80.0153E+06     43.0916E+06    -4.19421E+06    -313.970E-03     598.545E-03    -284.575E-03     62.9428E-03    -314.138E-03     598.301E-03    -284.242E-03     57.5751E-03
            1299     685.262E-06     188.510E-03    -191.670E+06    -167.299E+06    -189.816E+06    -4.62613E+06    -272.571E-03     544.969E-03    -272.398E-03     4.46856E-03    -273.010E-03     544.684E-03    -272.827E-03     5.53345E-03
            1300     1.37084E-03     188.525E-03    -184.768E+06    -164.398E+06    -178.034E+06    -8.27046E+06    -272.392E-03     544.890E-03    -272.498E-03     8.19164E-03    -272.816E-03     544.591E-03    -272.882E-03     10.1269E-03
            1301     2.05659E-03     188.551E-03    -172.284E+06    -148.667E+06    -157.859E+06    -11.5389E+06    -272.368E-03     544.873E-03    -272.505E-03     12.1017E-03    -272.778E-03     544.600E-03    -272.829E-03     14.9360E-03
            1302     2.74199E-03     188.587E-03    -156.564E+06    -121.246E+06    -132.331E+06    -13.1218E+06    -272.424E-03     544.952E-03    -272.528E-03     16.0113E-03    -272.826E-03     544.752E-03    -272.787E-03     19.7289E-03
            1303     3.42745E-03     188.633E-03    -138.566E+06    -96.5502E+06    -102.185E+06    -12.0992E+06    -272.627E-03     545.226E-03    -272.599E-03     19.7908E-03    -273.013E-03     545.073E-03    -272.769E-03     24.3642E-03
            1304     4.11329E-03     188.690E-03    -117.939E+06    -74.5925E+06    -68.5522E+06    -11.0406E+06    -273.179E-03     545.915E-03    -272.736E-03     23.5035E-03    -273.535E-03     545.785E-03    -272.799E-03     28.8495E-03
            1305     4.79855E-03     188.757E-03    -96.7482E+06    -57.4520E+06    -36.6882E+06    -11.6263E+06    -274.243E-03     547.199E-03    -272.955E-03     27.2653E-03    -274.555E-03     547.069E-03    -272.915E-03     33.2475E-03
            1306     5.48258E-03     188.834E-03    -77.9900E+06    -40.3376E+06    -9.98459E+06    -12.6092E+06    -275.733E-03     548.996E-03    -273.263E-03     31.0256E-03    -276.005E-03     548.877E-03    -273.141E-03     37.4987E-03
            1307     6.16574E-03     188.921E-03    -60.9921E+06    -26.7698E+06     10.4412E+06    -11.0090E+06    -277.640E-03     551.307E-03    -273.666E-03     34.6514E-03    -277.866E-03     551.191E-03    -273.487E-03     41.5020E-03
            1308     6.84761E-03     189.019E-03    -43.1276E+06    -2.13505E+06     30.2496E+06    -8.06712E+06    -279.974E-03     554.148E-03    -274.174E-03     38.2649E-03    -280.164E-03     554.090E-03    -273.957E-03     45.3312E-03
            1309     7.52768E-03     189.125E-03    -26.4178E+06     22.8393E+06     47.9072E+06    -7.98482E+06    -282.843E-03     557.649E-03    -274.806E-03     42.1434E-03    -283.001E-03     557.655E-03    -274.561E-03     49.1484E-03
            1310     8.20567E-03     189.240E-03    -14.9463E+06     23.9351E+06     56.8958E+06    -11.0380E+06    -286.377E-03     561.960E-03    -275.582E-03     46.3504E-03    -286.483E-03     561.933E-03    -275.311E-03     52.9915E-03
            1311     8.88084E-03     189.361E-03    -8.50039E+06     38.0250E+06     65.7545E+06    -11.5371E+06    -290.272E-03     566.769E-03    -276.497E-03     50.6731E-03    -290.370E-03     566.782E-03    -276.211E-03     56.7724E-03
            1312     9.55346E-03     189.488E-03    -5.09437E+06     65.2951E+06     76.1669E+06    -3.85495E+06    -294.484E-03     572.032E-03    -277.548E-03     54.7952E-03    -294.618E-03     572.159E-03    -277.254E-03     60.2547E-03
            1313     10.2230E-03     189.619E-03    -4.29692E+06     84.3480E+06     82.4938E+06     3.27109E+06    -299.183E-03     577.919E-03    -278.736E-03     58.6554E-03    -299.361E-03     578.143E-03    -278.440E-03     63.1213E-03
            1314     10.8888E-03     189.751E-03    -4.93374E+06     105.121E+06     90.1740E+06    -419.850E+03    -303.953E-03     584.020E-03    -280.066E-03     61.9999E-03    -304.207E-03     584.368E-03    -279.761E-03     64.8025E-03
            1315     11.5524E-03     189.879E-03    -701.864E+03     64.8150E+06     81.7009E+06    -2.49816E+06    -308.441E-03     589.947E-03    -281.506E-03     64.1322E-03    -308.661E-03     590.158E-03    -281.191E-03     64.8058E-03
            1316     12.2124E-03     190.004E-03     10.6703E+06     23.0912E+06     72.2327E+06     7.44728E+06    -311.910E-03     594.902E-03    -282.992E-03     65.3289E-03    -312.103E-03     595.006E-03    -282.679E-03     63.1933E-03
            1317     12.8737E-03     190.118E-03     11.3346E+06    -68.0848E+06     55.4115E+06     12.6572E+06    -314.100E-03     598.627E-03    -284.527E-03     61.1697E-03    -314.205E-03     598.370E-03    -284.168E-03     56.7956E-03
            1318     684.148E-06     190.146E-03    -197.915E+06    -138.883E+06    -194.287E+06    -8.20413E+06    -275.368E-03     550.677E-03    -275.309E-03     790.002E-06    -275.878E-03     550.552E-03    -275.792E-03     1.81209E-03
            1319     1.36794E-03     190.162E-03    -192.447E+06    -131.729E+06    -181.589E+06    -17.8951E+06    -275.357E-03     550.776E-03    -275.419E-03     1.51844E-03    -275.871E-03     550.663E-03    -275.857E-03     3.32609E-03
            1320     2.05168E-03     190.187E-03    -184.870E+06    -120.620E+06    -167.652E+06    -27.3993E+06    -275.352E-03     550.843E-03    -275.491E-03     2.20180E-03    -275.870E-03     550.760E-03    -275.886E-03     4.83925E-03
            1321     2.73586E-03     190.223E-03    -174.371E+06    -102.038E+06    -149.000E+06    -33.9658E+06    -275.377E-03     550.955E-03    -275.578E-03     2.80446E-03    -275.904E-03     550.930E-03    -275.922E-03     6.28674E-03
            1322     3.41972E-03     190.270E-03    -159.881E+06    -82.6426E+06    -123.057E+06    -39.2770E+06    -275.538E-03     551.257E-03    -275.718E-03     3.40146E-03    -276.068E-03     551.279E-03    -275.982E-03     7.71361E-03
            1323     4.10286E-03     190.327E-03    -142.078E+06    -65.2088E+06    -94.1400E+06    -42.7775E+06    -275.858E-03     551.770E-03    -275.912E-03     4.06742E-03    -276.377E-03     551.823E-03    -276.082E-03     9.19820E-03
            1324     4.78571E-03     190.396E-03    -122.199E+06    -50.8448E+06    -64.9574E+06    -43.4786E+06    -276.369E-03     552.526E-03    -276.157E-03     4.97703E-03    -276.862E-03     552.591E-03    -276.231E-03     10.8773E-03
            1325     5.46825E-03     190.476E-03    -101.171E+06    -38.7725E+06    -36.8906E+06    -41.8550E+06    -277.175E-03     553.633E-03    -276.458E-03     6.44413E-03    -277.630E-03     553.696E-03    -276.440E-03     13.0379E-03
            1326     6.14946E-03     190.566E-03    -80.2698E+06    -29.9568E+06    -13.5233E+06    -39.9798E+06    -278.305E-03     555.115E-03    -276.811E-03     8.72622E-03    -278.706E-03     555.163E-03    -276.718E-03     15.9153E-03
            1327     6.82935E-03     190.667E-03    -61.3965E+06    -9.92775E+06     8.47622E+06    -37.4298E+06    -279.639E-03     556.852E-03    -277.213E-03     11.8383E-03    -280.005E-03     556.940E-03    -277.067E-03     19.4970E-03
            1328     7.50841E-03     190.778E-03    -45.2483E+06     14.0585E+06     30.3248E+06    -31.0143E+06    -281.270E-03     558.952E-03    -277.682E-03     15.7211E-03    -281.612E-03     559.095E-03    -277.485E-03     23.7075E-03
            1329     8.18613E-03     190.898E-03    -31.8222E+06     22.9354E+06     48.4285E+06    -23.6005E+06    -283.428E-03     561.664E-03    -278.235E-03     20.4657E-03    -283.725E-03     561.788E-03    -277.980E-03     28.5271E-03
            1330     8.86250E-03     191.026E-03    -20.8387E+06     27.4730E+06     63.6937E+06    -17.1788E+06    -286.234E-03     565.114E-03    -278.880E-03     26.0324E-03    -286.479E-03     565.199E-03    -278.571E-03     33.8324E-03
            1331     9.53673E-03     191.161E-03    -9.72687E+06     34.7019E+06     74.8828E+06    -7.78385E+06    -289.616E-03     569.227E-03    -279.611E-03     32.1319E-03    -289.804E-03     569.288E-03    -279.273E-03     39.3847E-03
            1332     10.2089E-03     191.301E-03     1.43834E+06     59.5200E+06     85.7922E+06     6.51401E+06    -293.257E-03     573.685E-03    -280.428E-03     38.4949E-03    -293.417E-03     573.814E-03    -280.087E-03     44.8371E-03
            1333     10.8791E-03     191.443E-03     4.50278E+06     102.402E+06     98.5187E+06     22.2673E+06    -297.172E-03     578.517E-03    -281.345E-03     45.0531E-03    -297.392E-03     578.833E-03    -281.008E-03     49.9082E-03
            1334     11.5450E-03     191.584E-03    -6.74648E+06     83.0313E+06     86.2005E+06     21.5767E+06    -301.588E-03     583.947E-03    -282.360E-03     51.2493E-03    -301.845E-03     584.227E-03    -282.039E-03     53.7881E-03
            1335     12.2091E-03     191.715E-03    -21.2076E+06     17.1335E+06     67.4835E+06     8.22645E+06    -305.882E-03     589.400E-03    -283.519E-03     57.0277E-03    -306.159E-03     589.469E-03    -283.175E-03     56.5188E-03
            1336     12.8664E-03     191.843E-03    -17.0922E+06    -68.7158E+06     48.9901E+06     4.68517E+06    -308.755E-03     593.491E-03    -284.737E-03     57.6420E-03    -308.928E-03     593.218E-03    -284.367E-03     54.6988E-03
            1337     678.673E-06     191.799E-03    -138.958E+06    -94.4831E+06    -137.976E+06    -11.2679E+06    -284.552E-03     568.749E-03    -284.198E-03    -6.49479E-03    -284.923E-03     568.675E-03    -284.549E-03    -5.69393E-03
            1338     1.35755E-03     191.814E-03    -134.895E+06    -82.8081E+06    -129.237E+06    -21.3710E+06    -284.362E-03     568.867E-03    -284.505E-03    -12.2556E-03    -284.752E-03     568.842E-03    -284.835E-03    -10.9514E-03
            1339     2.03621E-03     191.840E-03    -128.513E+06    -77.3728E+06    -110.528E+06    -30.3089E+06    -284.229E-03     568.916E-03    -284.688E-03    -18.2174E-03    -284.637E-03     568.897E-03    -284.942E-03    -16.3418E-03
            1340     2.71418E-03     191.876E-03    -120.547E+06    -63.5875E+06    -91.5267E+06    -39.2181E+06    -283.866E-03     568.715E-03    -284.849E-03    -24.0945E-03    -284.303E-03     568.748E-03    -285.040E-03    -21.6358E-03
            1341     3.39224E-03     191.923E-03    -112.487E+06    -49.0336E+06    -74.7727E+06    -46.7814E+06    -283.293E-03     568.270E-03    -284.977E-03    -29.5987E-03    -283.762E-03     568.367E-03    -285.117E-03    -26.5180E-03
            1342     4.07033E-03     191.981E-03    -105.125E+06    -40.8160E+06    -58.0572E+06    -51.5557E+06    -282.517E-03     567.605E-03    -285.088E-03    -34.3676E-03    -283.017E-03     567.740E-03    -285.166E-03    -30.6119E-03
            1343     4.74816E-03     192.049E-03    -98.2684E+06    -34.2739E+06    -42.2513E+06    -54.1510E+06    -281.546E-03     566.710E-03    -285.164E-03    -38.1194E-03    -282.079E-03     566.883E-03    -285.183E-03    -33.6419E-03
            1344     5.42576E-03     192.129E-03    -91.5594E+06    -29.0350E+06    -28.2273E+06    -55.3839E+06    -280.440E-03     565.635E-03    -285.195E-03    -40.6522E-03    -281.005E-03     565.844E-03    -285.162E-03    -35.4444E-03
            1345     6.10397E-03     192.220E-03    -84.9857E+06    -23.6308E+06    -14.7221E+06    -54.5699E+06    -279.283E-03     564.470E-03    -285.187E-03    -41.6920E-03    -279.878E-03     564.714E-03    -285.103E-03    -35.7545E-03
            1346     6.78257E-03     192.321E-03    -78.6951E+06    -14.0615E+06     1.07188E+06    -50.6648E+06    -278.224E-03     563.378E-03    -285.154E-03    -40.9782E-03    -278.852E-03     563.668E-03    -285.014E-03    -34.3144E-03
            1347     7.46087E-03     192.434E-03    -71.9674E+06    -184.677E+03     17.5030E+06    -44.6249E+06    -277.398E-03     562.493E-03    -285.095E-03    -38.3304E-03    -278.054E-03     562.840E-03    -284.903E-03    -31.0091E-03
            1348     8.13915E-03     192.556E-03    -63.4714E+06     9.24381E+06     32.5721E+06    -37.6611E+06    -276.931E-03     561.955E-03    -285.024E-03    -33.6031E-03    -277.583E-03     562.320E-03    -284.782E-03    -25.7705E-03
            1349     8.81696E-03     192.687E-03    -53.4238E+06     13.4731E+06     47.0667E+06    -31.1817E+06    -276.972E-03     561.926E-03    -284.954E-03    -26.3656E-03    -277.584E-03     562.264E-03    -284.661E-03    -18.2257E-03
            1350     9.49394E-03     192.827E-03    -43.7841E+06     10.2200E+06     57.4124E+06    -24.3049E+06    -277.666E-03     562.552E-03    -284.887E-03    -16.1978E-03    -278.199E-03     562.807E-03    -284.551E-03    -8.05150E-03
            1351     10.1697E-03     192.973E-03    -34.0483E+06     15.7535E+06     68.0843E+06    -12.5645E+06    -279.069E-03     563.900E-03    -284.831E-03    -3.27800E-03    -279.512E-03     564.089E-03    -284.464E-03     4.51616E-03
            1352     10.8443E-03     193.121E-03    -18.4117E+06     37.1049E+06     83.2167E+06     11.7570E+06    -281.362E-03     566.171E-03    -284.809E-03     11.5348E-03    -281.702E-03     566.344E-03    -284.420E-03     18.6219E-03
            1353     11.5195E-03     193.270E-03    -403.269E+03     64.8927E+06     93.2895E+06     42.8159E+06    -285.097E-03     569.938E-03    -284.841E-03     27.1167E-03    -285.336E-03     570.142E-03    -284.468E-03     32.8876E-03
            1354     12.1905E-03     193.414E-03     9.50427E+06     77.1854E+06     107.101E+06     38.9748E+06    -289.294E-03     574.349E-03    -285.055E-03     43.0003E-03    -289.509E-03     574.566E-03    -284.646E-03     45.8366E-03
            1355     12.8642E-03     193.546E-03     9.58664E+06    -31.8015E+06     68.0853E+06     4.34151E+06    -291.866E-03     577.155E-03    -285.290E-03     53.9055E-03    -291.896E-03     576.911E-03    -284.917E-03     53.6416E-03
            1356     666.592E-06     193.495E-03    -49.6593E+06    -43.3460E+06    -49.1809E+06    -10.9037E+06    -304.177E-03     608.526E-03    -304.349E-03    -18.8895E-03    -304.325E-03     608.423E-03    -304.460E-03    -18.7231E-03
            1357     1.33257E-03     193.512E-03    -51.3102E+06    -37.6080E+06    -45.7572E+06    -18.2037E+06    -303.418E-03     607.808E-03    -304.389E-03    -33.9832E-03    -303.592E-03     607.738E-03    -304.489E-03    -33.6705E-03
            1358     1.99836E-03     193.537E-03    -50.8064E+06    -36.3148E+06    -36.0749E+06    -24.4879E+06    -302.360E-03     606.718E-03    -304.358E-03    -49.4439E-03    -302.555E-03     606.651E-03    -304.412E-03    -48.9519E-03
            1359     2.66458E-03     193.573E-03    -49.4478E+06    -24.8796E+06    -24.0304E+06    -29.8593E+06    -300.769E-03     605.049E-03    -304.280E-03    -64.2109E-03    -301.006E-03     605.038E-03    -304.292E-03    -63.4676E-03
            1360     3.33074E-03     193.617E-03    -48.6150E+06    -19.2590E+06    -10.2300E+06    -32.8588E+06    -298.610E-03     602.757E-03    -304.147E-03    -78.1197E-03    -298.892E-03     602.778E-03    -304.100E-03    -77.0452E-03
            1361     3.99750E-03     193.672E-03    -48.4393E+06    -16.3460E+06     1.44704E+06    -34.2177E+06    -295.844E-03     599.758E-03    -303.914E-03    -91.0675E-03    -296.175E-03     599.808E-03    -303.813E-03    -89.5972E-03
            1362     4.66547E-03     193.737E-03    -48.9759E+06    -14.2811E+06     11.6645E+06    -34.9682E+06    -292.487E-03     596.055E-03    -303.567E-03    -102.813E-03    -292.875E-03     596.140E-03    -303.417E-03    -100.881E-03
            1363     5.33491E-03     193.812E-03    -50.2452E+06    -11.7002E+06     21.2378E+06    -35.5611E+06    -288.576E-03     591.675E-03    -303.099E-03    -113.129E-03    -289.030E-03     591.807E-03    -302.903E-03    -110.700E-03
            1364     6.00552E-03     193.897E-03    -51.8705E+06    -13.3934E+06     28.2316E+06    -35.2146E+06    -284.173E-03     586.672E-03    -302.499E-03    -121.882E-03    -284.687E-03     586.837E-03    -302.263E-03    -118.947E-03
            1365     6.67785E-03     193.993E-03    -52.7071E+06    -11.8313E+06     34.2930E+06    -33.6706E+06    -279.253E-03     581.006E-03    -301.753E-03    -128.688E-03    -279.828E-03     581.222E-03    -301.488E-03    -125.238E-03
            1366     7.35274E-03     194.100E-03    -52.2338E+06    -2.70719E+06     40.9485E+06    -31.6060E+06    -273.909E-03     574.757E-03    -300.848E-03    -132.862E-03    -274.547E-03     575.056E-03    -300.563E-03    -128.901E-03
            1367     8.02995E-03     194.216E-03    -51.9602E+06     2.00341E+06     45.0239E+06    -28.0725E+06    -268.333E-03     568.107E-03    -299.774E-03    -133.704E-03    -269.014E-03     568.464E-03    -299.476E-03    -129.256E-03
            1368     8.71012E-03     194.343E-03    -52.7965E+06     6.89017E+06     47.9765E+06    -24.0772E+06    -262.567E-03     561.085E-03    -298.518E-03    -130.521E-03    -263.278E-03     561.486E-03    -298.211E-03    -125.623E-03
            1369     9.39432E-03     194.477E-03    -54.0783E+06     556.141E+03     48.2009E+06    -19.1024E+06    -256.927E-03     554.002E-03    -297.076E-03    -122.768E-03    -257.624E-03     554.371E-03    -296.757E-03    -117.506E-03
            1370     10.0828E-03     194.620E-03    -53.0940E+06    -3.33461E+06     53.8658E+06    -16.3288E+06    -252.054E-03     547.533E-03    -295.479E-03    -109.841E-03    -252.708E-03     547.839E-03    -295.127E-03    -104.391E-03
            1371     10.7745E-03     194.769E-03    -45.2836E+06    -16.1907E+06     61.4018E+06    -12.8606E+06    -248.673E-03     542.431E-03    -293.759E-03    -91.3163E-03    -249.209E-03     542.591E-03    -293.362E-03    -85.9488E-03
            1372     11.4659E-03     194.922E-03    -24.7408E+06    -9.98206E+06     69.5633E+06     376.183E+03    -246.538E-03     538.425E-03    -291.887E-03    -65.9725E-03    -246.896E-03     538.489E-03    -291.489E-03    -61.0118E-03
            1373     12.1591E-03     195.076E-03     6.94054E+06     83.9968E+06     92.0702E+06     16.5365E+06    -244.990E-03     534.809E-03    -289.819E-03    -32.1776E-03    -245.261E-03     535.175E-03    -289.491E-03    -28.8879E-03
            1374     12.8473E-03     195.214E-03     21.3446E+06     25.4734E+06     59.0933E+06     22.3718E+06    -244.500E-03     532.103E-03    -287.603E-03     4.70265E-03    -244.509E-03     532.137E-03    -287.376E-03     5.79120E-03
            1375     12.7910E-03     97.0668E-03    -4.94909E+06     62.2949E+06     85.7823E+06     272.457E+03    -290.436E-03     581.093E-03    -290.657E-03     49.0881E-03    -290.877E-03     581.489E-03    -290.311E-03     43.6336E-03
            1376     12.1175E-03     96.9788E-03    -9.78004E+06     57.6933E+06     85.6728E+06     394.450E+03    -290.654E-03     581.342E-03    -290.688E-03     53.8964E-03    -291.161E-03     581.770E-03    -290.329E-03     47.7925E-03
            1377     11.4443E-03     96.8926E-03    -15.1038E+06     51.7714E+06     83.4575E+06     590.158E+03    -290.694E-03     581.403E-03    -290.709E-03     52.8298E-03    -291.184E-03     581.782E-03    -290.345E-03     47.3872E-03
            1378     10.7711E-03     96.8053E-03    -21.1269E+06     46.8858E+06     78.1793E+06     793.087E+03    -290.680E-03     581.395E-03    -290.715E-03     51.9452E-03    -291.161E-03     581.741E-03    -290.361E-03     47.0886E-03
            1379     10.0978E-03     96.7199E-03    -27.4444E+06     41.3933E+06     68.8891E+06     919.701E+03    -290.643E-03     581.348E-03    -290.705E-03     50.1049E-03    -291.102E-03     581.657E-03    -290.381E-03     45.9820E-03
            1380     9.42441E-03     96.6371E-03    -33.8847E+06     35.4599E+06     56.3923E+06     1.33203E+06    -290.605E-03     581.288E-03    -290.683E-03     47.6027E-03    -291.035E-03     581.560E-03    -290.403E-03     44.3034E-03
            1381     8.75098E-03     96.5581E-03    -40.2989E+06     24.4691E+06     43.7699E+06     2.07774E+06    -290.577E-03     581.246E-03    -290.669E-03     44.5452E-03    -290.972E-03     581.457E-03    -290.427E-03     42.0682E-03
            1382     8.07761E-03     96.4836E-03    -46.7358E+06     13.7161E+06     32.1207E+06     2.84489E+06    -290.530E-03     581.192E-03    -290.661E-03     41.2120E-03    -290.898E-03     581.348E-03    -290.453E-03     39.4857E-03
            1383     7.40425E-03     96.4141E-03    -53.3179E+06     7.43033E+06     21.0654E+06     3.21766E+06    -290.458E-03     581.111E-03    -290.653E-03     37.8345E-03    -290.812E-03     581.241E-03    -290.481E-03     36.7473E-03
            1384     6.73092E-03     96.3496E-03    -59.8715E+06    -15.5313E+06     8.12856E+06     3.02226E+06    -290.449E-03     581.111E-03    -290.661E-03     34.4420E-03    -290.768E-03     581.138E-03    -290.511E-03     33.8834E-03
            1385     6.05766E-03     96.2905E-03    -66.3559E+06    -50.3202E+06    -6.53945E+06     2.61280E+06    -290.482E-03     581.159E-03    -290.677E-03     30.9933E-03    -290.750E-03     581.032E-03    -290.541E-03     30.8598E-03
            1386     5.38443E-03     96.2371E-03    -72.7955E+06    -80.1874E+06    -21.1612E+06     2.23223E+06    -290.497E-03     581.182E-03    -290.685E-03     27.5308E-03    -290.725E-03     580.928E-03    -290.569E-03     27.7178E-03
            1387     4.71125E-03     96.1895E-03    -79.0616E+06    -105.817E+06    -35.8483E+06     1.89347E+06    -290.511E-03     581.196E-03    -290.685E-03     24.0940E-03    -290.707E-03     580.839E-03    -290.596E-03     24.4989E-03
            1388     4.03811E-03     96.1478E-03    -85.0081E+06    -128.310E+06    -50.4732E+06     1.54864E+06    -290.527E-03     581.205E-03    -290.678E-03     20.6645E-03    -290.696E-03     580.763E-03    -290.621E-03     21.1943E-03
            1389     3.36501E-03     96.1123E-03    -90.4649E+06    -147.995E+06    -64.7249E+06     1.23136E+06    -290.544E-03     581.211E-03    -290.667E-03     17.2291E-03    -290.689E-03     580.697E-03    -290.645E-03     17.8040E-03
            1390     2.69195E-03     96.0830E-03    -95.1764E+06    -164.632E+06    -78.1502E+06     945.151E+03    -290.564E-03     581.216E-03    -290.652E-03     13.8142E-03    -290.688E-03     580.644E-03    -290.666E-03     14.3629E-03
            1391     2.01892E-03     96.0600E-03    -98.9995E+06    -182.957E+06    -88.8441E+06     680.370E+03    -290.596E-03     581.245E-03    -290.649E-03     10.4055E-03    -290.697E-03     580.602E-03    -290.684E-03     10.8692E-03
            1392     1.34593E-03     96.0434E-03    -101.983E+06    -197.291E+06    -96.8169E+06     448.543E+03    -290.622E-03     581.268E-03    -290.646E-03     7.01952E-03    -290.705E-03     580.570E-03    -290.697E-03     7.35713E-03
            1393     672.962E-06     96.0332E-03    -103.974E+06    -202.600E+06    -102.611E+06     234.907E+03    -290.647E-03     581.266E-03    -290.619E-03     3.82588E-03    -290.724E-03     580.552E-03    -290.687E-03     4.01749E-03
            1394     12.7915E-03     95.3721E-03    -4.24860E+06     62.1267E+06     85.6943E+06     404.500E+03    -290.561E-03     581.209E-03    -290.647E-03     48.6327E-03    -290.999E-03     581.604E-03    -290.303E-03     43.1458E-03
            1395     12.1182E-03     95.2840E-03    -9.45883E+06     57.6920E+06     85.2557E+06     510.250E+03    -290.661E-03     581.333E-03    -290.672E-03     53.6178E-03    -291.165E-03     581.761E-03    -290.316E-03     47.5067E-03
            1396     11.4448E-03     95.1976E-03    -15.2615E+06     51.4310E+06     83.0818E+06     612.929E+03    -290.654E-03     581.348E-03    -290.694E-03     52.8465E-03    -291.144E-03     581.726E-03    -290.331E-03     47.4011E-03
            1397     10.7714E-03     95.1107E-03    -21.3431E+06     46.6657E+06     77.8709E+06     753.939E+03    -290.622E-03     581.325E-03    -290.703E-03     52.1670E-03    -291.104E-03     581.671E-03    -290.350E-03     47.3178E-03
            1398     10.0978E-03     95.0253E-03    -27.7846E+06     41.0501E+06      68.274E+06     1.06147E+06    -290.591E-03     581.287E-03    -290.696E-03     50.3210E-03    -291.050E-03     581.595E-03    -290.373E-03     46.2256E-03
            1399     9.42433E-03     94.9425E-03    -34.2863E+06     34.6787E+06     55.6352E+06     1.30965E+06    -290.589E-03     581.265E-03    -290.676E-03     47.7289E-03    -291.018E-03     581.534E-03    -290.398E-03     44.4491E-03
            1400     8.75096E-03     94.8635E-03    -40.6605E+06     22.9412E+06     43.1563E+06     1.74150E+06    -290.582E-03     581.246E-03    -290.664E-03     44.6059E-03    -290.975E-03     581.452E-03    -290.423E-03     42.1326E-03
            1401     8.07763E-03     94.7890E-03    -46.9390E+06     12.8702E+06     31.9163E+06     2.30378E+06    -290.537E-03     581.194E-03    -290.657E-03     41.2432E-03    -290.904E-03     581.347E-03    -290.448E-03     39.5114E-03
            1402     7.40429E-03     94.7195E-03    -53.2219E+06     7.99568E+06     21.0897E+06     2.53643E+06    -290.459E-03     581.106E-03    -290.646E-03     37.8506E-03    -290.814E-03     581.238E-03    -290.475E-03     36.7531E-03
            1403     6.73096E-03     94.6550E-03    -59.7247E+06    -14.0315E+06     8.17379E+06     2.46515E+06    -290.438E-03     581.091E-03    -290.653E-03     34.4481E-03    -290.758E-03     581.126E-03    -290.505E-03     33.8798E-03
            1404     6.05769E-03     94.5959E-03    -66.3235E+06    -48.8231E+06    -6.49383E+06     2.26102E+06    -290.463E-03     581.133E-03    -290.670E-03     31.0062E-03    -290.734E-03     581.014E-03    -290.536E-03     30.8654E-03
            1405     5.38445E-03     94.5425E-03    -72.7801E+06    -78.6783E+06    -21.0645E+06     2.02422E+06    -290.483E-03     581.162E-03    -290.679E-03     27.5559E-03    -290.713E-03     580.916E-03    -290.565E-03     27.7379E-03
            1406     4.71126E-03     94.4949E-03    -79.0167E+06    -104.321E+06    -35.7019E+06     1.73858E+06    -290.501E-03     581.181E-03    -290.680E-03     24.1243E-03    -290.699E-03     580.832E-03    -290.593E-03     24.5251E-03
            1407     4.03813E-03     94.4533E-03    -84.9228E+06    -126.825E+06    -50.3039E+06     1.46181E+06    -290.519E-03     581.193E-03    -290.674E-03     20.6931E-03    -290.690E-03     580.758E-03    -290.619E-03     21.2197E-03
            1408     3.36502E-03     94.4177E-03    -90.3325E+06    -146.612E+06    -64.5404E+06     1.18261E+06    -290.540E-03     581.204E-03    -290.663E-03     17.2500E-03    -290.687E-03     580.696E-03    -290.643E-03     17.8234E-03
            1409     2.69196E-03     94.3884E-03    -95.0038E+06    -163.314E+06    -77.9486E+06     921.454E+03    -290.560E-03     581.209E-03    -290.649E-03     13.8186E-03    -290.685E-03     580.643E-03    -290.664E-03     14.3673E-03
            1410     2.01893E-03     94.3654E-03    -98.8140E+06    -181.708E+06    -88.6415E+06     681.555E+03    -290.591E-03     581.236E-03    -290.646E-03     10.4006E-03    -290.693E-03     580.600E-03    -290.682E-03     10.8647E-03
            1411     1.34593E-03     94.3488E-03    -101.806E+06    -196.099E+06    -96.6183E+06     450.623E+03    -290.620E-03     581.263E-03    -290.644E-03     7.01298E-03    -290.704E-03     580.570E-03    -290.695E-03     7.35097E-03
            1412     672.962E-06     94.3386E-03    -103.782E+06    -201.434E+06    -102.396E+06     245.807E+03    -290.643E-03     581.261E-03    -290.618E-03     3.82717E-03    -290.721E-03     580.553E-03    -290.687E-03     4.01861E-03
            1413     12.7917E-03     93.6772E-03    -4.52517E+06     61.2019E+06     85.0974E+06     198.314E+03    -290.524E-03     581.159E-03    -290.635E-03     49.0053E-03    -290.961E-03     581.551E-03    -290.292E-03     43.5327E-03
            1414     12.1182E-03     93.5894E-03    -9.40909E+06     57.2690E+06     85.2436E+06     735.543E+03    -290.571E-03     581.237E-03    -290.666E-03     54.0554E-03    -291.073E-03     581.662E-03    -290.309E-03     47.9976E-03
            1415     11.4446E-03     93.5031E-03    -14.8212E+06     52.0697E+06     83.0909E+06     754.767E+03    -290.572E-03     581.264E-03    -290.692E-03     53.1380E-03    -291.060E-03     581.644E-03    -290.330E-03     47.7379E-03
            1416     10.7711E-03     93.4161E-03    -20.7517E+06     45.6912E+06     77.4546E+06     919.779E+03    -290.630E-03     581.334E-03    -290.704E-03     52.2443E-03    -291.107E-03     581.675E-03    -290.353E-03     47.3998E-03
            1417     10.0978E-03     93.3307E-03    -26.9293E+06     40.6493E+06     68.3247E+06     1.30797E+06    -290.648E-03     581.344E-03    -290.696E-03     50.2771E-03    -291.103E-03     581.649E-03    -290.374E-03     46.1792E-03
            1418     9.42439E-03     93.2479E-03    -33.2859E+06     34.5792E+06     56.0110E+06     1.49606E+06    -290.626E-03     581.300E-03    -290.673E-03     47.6501E-03    -291.051E-03     581.566E-03    -290.395E-03     44.3650E-03
            1419     8.75101E-03     93.1688E-03    -39.7211E+06     22.1259E+06     43.3361E+06     1.73017E+06    -290.594E-03     581.255E-03    -290.660E-03     44.5356E-03    -290.982E-03     581.454E-03    -290.418E-03     42.0564E-03
            1420     8.07766E-03     93.0944E-03    -46.1652E+06     12.8582E+06     32.1241E+06     1.84777E+06    -290.537E-03     581.188E-03    -290.651E-03     41.2098E-03    -290.900E-03     581.339E-03    -290.442E-03     39.4684E-03
            1421     7.40434E-03     93.0248E-03    -52.7294E+06     8.06060E+06     21.2444E+06     1.98091E+06    -290.449E-03     581.090E-03    -290.641E-03     37.8483E-03    -290.801E-03     581.222E-03    -290.470E-03     36.7399E-03
            1422     6.73101E-03     92.9604E-03    -59.3977E+06    -13.1553E+06     8.46678E+06     2.14865E+06    -290.415E-03     581.064E-03    -290.649E-03     34.4659E-03    -290.736E-03     581.103E-03    -290.501E-03     33.8916E-03
            1423     6.05770E-03     92.9014E-03    -66.0230E+06    -47.6321E+06    -6.15194E+06     2.04593E+06    -290.446E-03     581.113E-03    -290.667E-03     31.0307E-03    -290.717E-03     580.999E-03    -290.533E-03     30.8875E-03
            1424     5.38445E-03     92.8480E-03    -72.4960E+06    -77.3395E+06    -20.7296E+06     1.78941E+06    -290.474E-03     581.152E-03    -290.678E-03     27.5764E-03    -290.705E-03     580.911E-03    -290.564E-03     27.7552E-03
            1425     4.71126E-03     92.8004E-03    -78.7410E+06    -103.034E+06    -35.3877E+06     1.54173E+06    -290.497E-03     581.176E-03    -290.679E-03     24.1374E-03    -290.696E-03     580.832E-03    -290.593E-03     24.5356E-03
            1426     4.03811E-03     92.7587E-03    -84.6539E+06    -125.550E+06    -50.0018E+06     1.30878E+06    -290.518E-03     581.192E-03    -290.674E-03     20.6995E-03    -290.690E-03     580.762E-03    -290.619E-03     21.2239E-03
            1427     3.36501E-03     92.7231E-03    -90.0668E+06    -145.353E+06    -64.2381E+06     1.07974E+06    -290.541E-03     581.204E-03    -290.663E-03     17.2560E-03    -290.689E-03     580.702E-03    -290.642E-03     17.8275E-03
            1428     2.69196E-03     92.6938E-03    -94.7578E+06    -162.118E+06    -77.6518E+06     860.960E+03    -290.561E-03     581.209E-03    -290.648E-03     13.8254E-03    -290.688E-03     580.648E-03    -290.663E-03     14.3729E-03
            1429     2.01894E-03     92.6708E-03    -98.5788E+06    -180.528E+06    -88.3653E+06     650.575E+03    -290.592E-03     581.235E-03    -290.643E-03     10.4090E-03    -290.695E-03     580.604E-03    -290.681E-03     10.8718E-03
            1430     1.34594E-03     92.6542E-03    -101.558E+06    -194.916E+06    -96.3661E+06     437.696E+03    -290.618E-03     581.258E-03    -290.641E-03     7.01789E-03    -290.703E-03     580.570E-03    -290.693E-03     7.35538E-03
            1431     672.968E-06     92.6440E-03    -103.549E+06    -200.292E+06    -102.168E+06     232.875E+03    -290.640E-03     581.254E-03    -290.614E-03     3.82464E-03    -290.719E-03     580.550E-03    -290.684E-03     4.01660E-03
            1432     12.7914E-03     91.9827E-03    -4.77809E+06     60.3281E+06     84.5650E+06     203.720E+03    -290.460E-03     581.098E-03    -290.638E-03     48.9969E-03    -290.897E-03     581.487E-03    -290.296E-03     43.5191E-03
            1433     12.1179E-03     91.8949E-03    -9.65819E+06     56.7657E+06     84.6590E+06     259.639E+03    -290.606E-03     581.275E-03    -290.669E-03     53.9162E-03    -291.108E-03     581.699E-03    -290.314E-03     47.8375E-03
            1434     11.4446E-03     91.8085E-03    -14.9891E+06     51.8310E+06     82.5846E+06     550.610E+03    -290.652E-03     581.343E-03    -290.691E-03     52.9061E-03    -291.140E-03     581.722E-03    -290.332E-03     47.4883E-03
            1435     10.7713E-03     91.7214E-03    -20.7941E+06     45.3299E+06     77.0517E+06     750.467E+03    -290.667E-03     581.366E-03    -290.699E-03     52.0447E-03    -291.143E-03     581.706E-03    -290.349E-03     47.1858E-03
            1436     10.0978E-03     91.6359E-03    -26.8721E+06     40.0340E+06     68.0849E+06     918.345E+03    -290.654E-03     581.344E-03    -290.690E-03     50.2014E-03    -291.107E-03     581.647E-03    -290.369E-03     46.0897E-03
            1437     9.42447E-03     91.5532E-03    -33.0882E+06     33.8422E+06     56.0791E+06     1.46983E+06    -290.621E-03     581.290E-03    -290.669E-03     47.6572E-03    -291.044E-03     581.553E-03    -290.390E-03     44.3667E-03
            1438     8.75111E-03     91.4742E-03    -39.4011E+06     22.4589E+06     43.6684E+06     1.69641E+06    -290.579E-03     581.235E-03    -290.656E-03     44.5876E-03    -290.967E-03     581.436E-03    -290.413E-03     42.1095E-03
            1439     8.07775E-03     91.3998E-03    -45.7743E+06     13.0781E+06     32.3490E+06     1.67436E+06    -290.516E-03     581.164E-03    -290.648E-03     41.2737E-03    -290.878E-03     581.316E-03    -290.439E-03     39.5322E-03
            1440     7.40437E-03     91.3303E-03    -52.3116E+06     7.97447E+06     21.4940E+06     1.85000E+06    -290.427E-03     581.067E-03    -290.640E-03     37.9006E-03    -290.777E-03     581.197E-03    -290.468E-03     36.7914E-03
            1441     6.73098E-03     91.2659E-03    -59.0001E+06    -12.6907E+06     8.79819E+06     1.95504E+06    -290.406E-03     581.055E-03    -290.649E-03     34.5034E-03    -290.726E-03     581.095E-03    -290.501E-03     33.9279E-03
            1442     6.05769E-03     91.2068E-03    -65.6347E+06    -46.4120E+06    -5.75840E+06     1.84215E+06    -290.447E-03     581.114E-03    -290.668E-03     31.0505E-03    -290.718E-03     581.005E-03    -290.534E-03     30.9066E-03
            1443     5.38445E-03     91.1534E-03    -72.1206E+06    -76.1797E+06    -20.3853E+06     1.61718E+06    -290.478E-03     581.155E-03    -290.677E-03     27.5826E-03    -290.710E-03     580.920E-03    -290.564E-03     27.7594E-03
            1444     4.71126E-03     91.1058E-03    -78.4009E+06    -101.904E+06    -35.0893E+06     1.41231E+06    -290.502E-03     581.180E-03    -290.678E-03     24.1311E-03    -290.701E-03     580.841E-03    -290.592E-03     24.5273E-03
            1445     4.03813E-03     91.0641E-03    -84.3506E+06    -124.426E+06    -49.7272E+06     1.21029E+06    -290.518E-03     581.190E-03    -290.672E-03     20.6895E-03    -290.691E-03     580.766E-03    -290.618E-03     21.2133E-03
            1446     3.36503E-03     91.0285E-03    -89.8068E+06    -144.242E+06    -63.9892E+06     1.01558E+06    -290.536E-03     581.197E-03    -290.661E-03     17.2535E-03    -290.684E-03     580.700E-03    -290.642E-03     17.8237E-03
            1447     2.69195E-03     90.9992E-03    -94.5060E+06    -161.014E+06    -77.4149E+06     816.751E+03    -290.557E-03     581.204E-03    -290.647E-03     13.8252E-03    -290.684E-03     580.648E-03    -290.663E-03     14.3710E-03
            1448     2.01893E-03     90.9762E-03    -98.3236E+06    -179.416E+06    -88.1275E+06     613.876E+03    -290.590E-03     581.233E-03    -290.644E-03     10.4131E-03    -290.693E-03     580.606E-03    -290.682E-03     10.8746E-03
            1449     1.34594E-03     90.9597E-03    -101.318E+06    -193.811E+06    -96.1293E+06     415.454E+03    -290.617E-03     581.259E-03    -290.642E-03     7.02970E-03    -290.703E-03     580.576E-03    -290.694E-03     7.36598E-03
            1450     672.963E-06     90.9495E-03    -103.288E+06    -199.187E+06    -101.914E+06     230.143E+03    -290.641E-03     581.257E-03    -290.615E-03     3.83353E-03    -290.721E-03     580.558E-03    -290.686E-03     4.02505E-03
            1451     12.7916E-03     90.2882E-03    -4.17770E+06     60.1316E+06     84.4279E+06     207.418E+03    -290.547E-03     581.182E-03    -290.634E-03     48.7497E-03    -290.980E-03     581.569E-03    -290.293E-03     43.2575E-03
            1452     12.1182E-03     90.2002E-03    -9.12763E+06     56.8408E+06     84.3714E+06     276.624E+03    -290.649E-03     581.309E-03    -290.660E-03     53.7534E-03    -291.147E-03     581.732E-03    -290.307E-03     47.6828E-03
            1453     11.4448E-03     90.1136E-03    -14.6472E+06     50.9912E+06     82.3138E+06     391.614E+03    -290.650E-03     581.332E-03    -290.682E-03     52.8967E-03    -291.134E-03     581.707E-03    -290.323E-03     47.4882E-03
            1454     10.7714E-03     90.0268E-03    -20.6144E+06     45.2358E+06     77.0289E+06     663.055E+03    -290.638E-03     581.330E-03    -290.692E-03     52.1325E-03    -291.113E-03     581.669E-03    -290.342E-03     47.2807E-03
            1455     10.0979E-03     89.9413E-03    -26.9806E+06     39.3847E+06     67.7019E+06     945.589E+03    -290.608E-03     581.292E-03    -290.684E-03     50.2775E-03    -291.060E-03     581.592E-03    -290.364E-03     46.1806E-03
            1456     9.42447E-03     89.8586E-03    -33.3579E+06     33.0792E+06     55.4382E+06     1.16444E+06    -290.581E-03     581.246E-03    -290.666E-03     47.7107E-03    -291.003E-03     581.507E-03    -290.388E-03     44.4247E-03
            1457     8.75104E-03     89.7796E-03    -39.5178E+06     22.9784E+06     43.4473E+06     1.24649E+06    -290.555E-03     581.210E-03    -290.655E-03     44.6463E-03    -290.943E-03     581.413E-03    -290.414E-03     42.1652E-03
            1458     8.07767E-03     89.7052E-03    -45.7423E+06     13.0230E+06     32.3009E+06     1.32310E+06    -290.506E-03     581.156E-03    -290.650E-03     41.3146E-03    -290.868E-03     581.308E-03    -290.441E-03     39.5683E-03
            1459     7.40430E-03     89.6357E-03    -52.1822E+06     7.70936E+06     21.5338E+06     1.57533E+06    -290.433E-03     581.076E-03    -290.643E-03     37.9199E-03    -290.782E-03     581.205E-03    -290.471E-03     36.8071E-03
            1460     6.73097E-03     89.5713E-03    -58.7761E+06    -12.2591E+06     8.89872E+06     1.76411E+06    -290.419E-03     581.070E-03    -290.651E-03     34.5076E-03    -290.738E-03     581.111E-03    -290.504E-03     33.9288E-03
            1461     6.05768E-03     89.5123E-03    -65.4132E+06    -45.2996E+06    -5.62915E+06     1.67874E+06    -290.454E-03     581.122E-03    -290.668E-03     31.0520E-03    -290.726E-03     581.017E-03    -290.535E-03     30.9047E-03
            1462     5.38444E-03     89.4588E-03    -71.9265E+06    -75.2173E+06    -20.2464E+06     1.50347E+06    -290.482E-03     581.160E-03    -290.677E-03     27.5955E-03    -290.715E-03     580.929E-03    -290.565E-03     27.7688E-03
            1463     4.71128E-03     89.4112E-03    -78.2258E+06    -100.880E+06    -34.9352E+06     1.34961E+06    -290.502E-03     581.179E-03    -290.678E-03     24.1551E-03    -290.702E-03     580.845E-03    -290.593E-03     24.5463E-03
            1464     4.03813E-03     89.3695E-03    -84.1981E+06    -123.386E+06    -49.5810E+06     1.16947E+06    -290.519E-03     581.190E-03    -290.672E-03     20.7170E-03    -290.692E-03     580.770E-03    -290.618E-03     21.2380E-03
            1465     3.36502E-03     89.3340E-03    -89.6448E+06    -143.207E+06    -63.8373E+06     973.091E+03    -290.539E-03     581.199E-03    -290.660E-03     17.2706E-03    -290.688E-03     580.707E-03    -290.642E-03     17.8389E-03
            1466     2.69196E-03     89.3046E-03    -94.3461E+06    -159.963E+06    -77.2537E+06     780.014E+03    -290.555E-03     581.201E-03    -290.646E-03     13.8284E-03    -290.683E-03     580.650E-03    -290.663E-03     14.3725E-03
            1467     2.01893E-03     89.2817E-03    -98.1724E+06    -178.364E+06    -87.9608E+06     589.780E+03    -290.585E-03     581.228E-03    -290.643E-03     10.4075E-03    -290.690E-03     580.607E-03    -290.682E-03     10.8697E-03
            1468     1.34593E-03     89.2651E-03    -101.156E+06    -192.767E+06    -95.9564E+06     398.585E+03    -290.616E-03     581.259E-03    -290.642E-03     7.02464E-03    -290.703E-03     580.581E-03    -290.696E-03     7.36155E-03
            1469     672.960E-06     89.2549E-03    -103.143E+06    -198.133E+06    -101.760E+06     215.575E+03    -290.634E-03     581.259E-03    -290.625E-03     3.82264E-03    -290.715E-03     580.565E-03    -290.697E-03     4.01450E-03
            1470     12.7917E-03     88.5932E-03    -4.49911E+06     59.6418E+06     83.9092E+06    -145.374E+03    -290.521E-03     581.152E-03    -290.630E-03     48.9728E-03    -290.956E-03     581.538E-03    -290.291E-03     43.4710E-03
            1471     12.1183E-03     88.5056E-03    -9.38898E+06     56.2243E+06     84.0924E+06     251.903E+03    -290.628E-03     581.287E-03    -290.659E-03     54.0442E-03    -291.127E-03     581.708E-03    -290.306E-03     47.9883E-03
            1472     11.4447E-03     88.4191E-03    -14.8559E+06     50.9453E+06     81.9172E+06     535.242E+03    -290.621E-03     581.303E-03    -290.682E-03     53.1367E-03    -291.106E-03     581.678E-03    -290.325E-03     47.7478E-03
            1473     10.7713E-03     88.3322E-03    -20.7296E+06     44.6057E+06     76.4907E+06     655.494E+03    -290.640E-03     581.333E-03    -290.693E-03     52.2602E-03    -291.115E-03     581.670E-03    -290.345E-03     47.4082E-03
            1474     10.0979E-03     88.2468E-03    -26.7232E+06     39.1054E+06     67.6625E+06     860.273E+03    -290.618E-03     581.305E-03    -290.687E-03     50.3569E-03    -291.068E-03     581.603E-03    -290.366E-03     46.2557E-03
            1475     9.42445E-03     88.1640E-03    -32.8392E+06     33.0949E+06     55.6589E+06     912.639E+03    -290.586E-03     581.255E-03    -290.668E-03     47.7549E-03    -291.006E-03     581.514E-03    -290.391E-03     44.4646E-03
            1476     8.75105E-03     88.0850E-03    -39.1358E+06     22.9635E+06     43.3702E+06     1.00170E+06    -290.556E-03     581.213E-03    -290.657E-03     44.6359E-03    -290.942E-03     581.416E-03    -290.416E-03     42.1483E-03
            1477     8.07766E-03     88.0106E-03    -45.5485E+06     13.1478E+06     32.0861E+06     1.08942E+06    -290.510E-03     581.161E-03    -290.651E-03     41.2810E-03    -290.871E-03     581.314E-03    -290.444E-03     39.5297E-03
            1478     7.40431E-03     87.9411E-03    -52.0469E+06     7.15863E+06     21.3545E+06     1.23376E+06    -290.445E-03     581.090E-03    -290.645E-03     37.8979E-03    -290.793E-03     581.217E-03    -290.473E-03     36.7797E-03
            1479     6.73096E-03     87.8767E-03    -58.6798E+06    -12.1617E+06     8.88094E+06     1.54406E+06    -290.423E-03     581.076E-03    -290.652E-03     34.5030E-03    -290.743E-03     581.118E-03    -290.505E-03     33.9192E-03
            1480     6.05767E-03     87.8177E-03    -65.3299E+06    -44.3507E+06    -5.55865E+06     1.59717E+06    -290.452E-03     581.120E-03    -290.668E-03     31.0603E-03    -290.725E-03     581.020E-03    -290.537E-03     30.9094E-03
            1481     5.38444E-03     87.7642E-03    -71.8685E+06    -74.3358E+06    -20.1809E+06     1.43890E+06    -290.475E-03     581.154E-03    -290.679E-03     27.6106E-03    -290.709E-03     580.927E-03    -290.567E-03     27.7801E-03
            1482     4.71123E-03     87.7166E-03    -78.1827E+06    -99.9421E+06    -34.8724E+06     1.28815E+06    -290.497E-03     581.177E-03    -290.680E-03     24.1736E-03    -290.698E-03     580.847E-03    -290.596E-03     24.5616E-03
            1483     4.03809E-03     87.6749E-03    -84.1139E+06    -122.393E+06    -49.4972E+06     1.10436E+06    -290.523E-03     581.198E-03    -290.674E-03     20.7314E-03    -290.698E-03     580.782E-03    -290.622E-03     21.2499E-03
            1484     3.36502E-03     87.6394E-03    -89.5452E+06    -142.207E+06    -63.7294E+06     914.868E+03    -290.542E-03     581.205E-03    -290.663E-03     17.2828E-03    -290.693E-03     580.718E-03    -290.646E-03     17.8489E-03
            1485     2.69196E-03     87.6101E-03    -94.2487E+06    -158.964E+06    -77.1494E+06     733.039E+03    -290.558E-03     581.206E-03    -290.648E-03     13.8521E-03    -290.687E-03     580.660E-03    -290.667E-03     14.3945E-03
            1486     2.01893E-03     87.5871E-03    -98.0619E+06    -177.379E+06    -87.8540E+06     539.914E+03    -290.592E-03     581.237E-03    -290.645E-03     10.4300E-03    -290.698E-03     580.620E-03    -290.685E-03     10.8909E-03
            1487     1.34594E-03     87.5705E-03    -101.042E+06    -191.790E+06      -95.84E+06     361.091E+03    -290.621E-03     581.264E-03    -290.642E-03     7.03690E-03    -290.709E-03     580.590E-03    -290.697E-03     7.37315E-03
            1488     672.966E-06     87.5602E-03    -103.034E+06    -197.149E+06    -101.627E+06     201.534E+03    -290.637E-03     581.256E-03    -290.619E-03     3.80660E-03    -290.719E-03     580.567E-03    -290.692E-03     3.99954E-03
            1489     12.7914E-03     86.8985E-03    -4.85414E+06     59.5687E+06     83.5009E+06     192.277E+03    -290.388E-03     581.023E-03    -290.635E-03     49.1015E-03    -290.823E-03     581.410E-03    -290.297E-03     43.6082E-03
            1490     12.1179E-03     86.8109E-03    -9.97343E+06     55.5555E+06     83.4091E+06     122.442E+03    -290.606E-03     581.274E-03    -290.668E-03     54.0957E-03    -291.106E-03     581.694E-03    -290.317E-03     48.0386E-03
            1491     11.4446E-03     86.7244E-03    -15.2359E+06     50.8120E+06     81.5795E+06     177.707E+03    -290.670E-03     581.361E-03    -290.692E-03     53.1836E-03    -291.156E-03     581.737E-03    -290.335E-03     47.7876E-03
            1492     10.7712E-03     86.6375E-03    -20.8817E+06     44.4201E+06     76.1981E+06     268.941E+03    -290.675E-03     581.376E-03    -290.701E-03     52.2837E-03    -291.151E-03     581.714E-03    -290.354E-03     47.4163E-03
            1493     10.0978E-03     86.5522E-03    -26.9017E+06     38.7918E+06     67.1518E+06     348.256E+03    -290.654E-03     581.346E-03    -290.692E-03     50.3789E-03    -291.105E-03     581.644E-03    -290.374E-03     46.2589E-03
            1494     9.42439E-03     86.4694E-03    -33.0369E+06     32.9451E+06     55.3211E+06     546.183E+03    -290.620E-03     581.292E-03    -290.673E-03     47.7818E-03    -291.040E-03     581.552E-03    -290.396E-03     44.4788E-03
            1495     8.75102E-03     86.3904E-03    -39.1844E+06     22.6768E+06     43.2381E+06     762.106E+03    -290.577E-03     581.237E-03    -290.660E-03     44.6723E-03    -290.963E-03     581.439E-03    -290.420E-03     42.1760E-03
            1496     8.07766E-03     86.3160E-03    -45.4446E+06     13.1464E+06     31.9927E+06     962.720E+03    -290.520E-03     581.173E-03    -290.653E-03     41.3285E-03    -290.880E-03     581.326E-03    -290.446E-03     39.5725E-03
            1497     7.40430E-03     86.2465E-03    -52.0234E+06     6.66269E+06     21.1183E+06     1.23840E+06    -290.446E-03     581.094E-03    -290.648E-03     37.9410E-03    -290.793E-03     581.218E-03    -290.476E-03     36.8223E-03
            1498     6.73096E-03     86.1821E-03    -58.7763E+06    -12.1741E+06     8.71081E+06     1.43378E+06    -290.422E-03     581.077E-03    -290.655E-03     34.5429E-03    -290.742E-03     581.120E-03    -290.509E-03     33.9579E-03
            1499     6.05766E-03     86.1231E-03    -65.4307E+06    -43.5812E+06    -5.57787E+06     1.42684E+06    -290.449E-03     581.120E-03    -290.671E-03     31.0918E-03    -290.724E-03     581.025E-03    -290.541E-03     30.9369E-03
            1500     5.38441E-03     86.0697E-03    -71.9074E+06    -73.5089E+06    -20.1759E+06     1.32079E+06    -290.475E-03     581.157E-03    -290.682E-03     27.6297E-03    -290.710E-03     580.935E-03    -290.572E-03     27.7958E-03
            1501     4.71123E-03     86.0220E-03    -78.1508E+06    -99.0554E+06    -34.8503E+06     1.15891E+06    -290.500E-03     581.184E-03    -290.684E-03     24.1874E-03    -290.703E-03     580.859E-03    -290.601E-03     24.5744E-03
            1502     4.03810E-03     85.9803E-03    -84.0780E+06    -121.460E+06    -49.4565E+06     989.449E+03    -290.520E-03     581.199E-03    -290.678E-03     20.7434E-03    -290.696E-03     580.788E-03    -290.628E-03     21.2597E-03
            1503     3.36498E-03     85.9448E-03    -89.5123E+06    -141.292E+06    -63.6924E+06     828.496E+03    -290.539E-03     581.208E-03    -290.669E-03     17.2958E-03    -290.691E-03     580.725E-03    -290.652E-03     17.8598E-03
            1504     2.69192E-03     85.9154E-03    -94.1771E+06    -158.039E+06    -77.0967E+06     651.760E+03    -290.564E-03     581.219E-03    -290.655E-03     13.8614E-03    -290.695E-03     580.678E-03    -290.675E-03     14.4039E-03
            1505     2.01890E-03     85.8924E-03    -97.9695E+06    -176.470E+06    -87.7836E+06     479.958E+03    -290.601E-03     581.252E-03    -290.651E-03     10.4365E-03    -290.708E-03     580.639E-03    -290.692E-03     10.8966E-03
            1506     1.34592E-03     85.8759E-03    -100.947E+06    -190.918E+06    -95.7613E+06     318.984E+03    -290.627E-03     581.275E-03    -290.648E-03     7.04662E-03    -290.716E-03     580.606E-03    -290.704E-03     7.38084E-03
            1507     672.961E-06     85.8656E-03    -102.905E+06    -196.271E+06    -101.549E+06     168.655E+03    -290.656E-03     581.268E-03    -290.613E-03     3.82112E-03    -290.738E-03     580.583E-03    -290.687E-03     4.01232E-03
            1508     12.7915E-03     85.2044E-03    -4.22608E+06     59.7599E+06     83.8662E+06     454.516E+03    -290.415E-03     581.054E-03    -290.639E-03     48.9675E-03    -290.847E-03     581.440E-03    -290.300E-03     43.4884E-03
            1509     12.1180E-03     85.1163E-03    -8.98874E+06     56.2961E+06     83.8716E+06     227.273E+03    -290.571E-03     581.242E-03    -290.671E-03     53.9007E-03    -291.066E-03     581.662E-03    -290.321E-03     47.8582E-03
            1510     11.4445E-03     85.0296E-03    -14.5015E+06     50.4692E+06     81.6399E+06     52.7668E+03    -290.633E-03     581.330E-03    -290.697E-03     53.0164E-03    -291.114E-03     581.702E-03    -290.341E-03     47.6277E-03
            1511     10.7711E-03     84.9428E-03    -20.4740E+06     44.4263E+06     76.2669E+06     142.095E+03    -290.670E-03     581.377E-03    -290.707E-03     52.1986E-03    -291.143E-03     581.714E-03    -290.361E-03     47.3318E-03
            1512     10.0977E-03     84.8574E-03    -26.6567E+06     38.4198E+06     67.0059E+06     252.079E+03    -290.664E-03     581.363E-03    -290.699E-03     50.3421E-03    -291.112E-03     581.659E-03    -290.381E-03     46.2212E-03
            1513     9.42434E-03     84.7747E-03    -32.9697E+06     32.5877E+06     54.8785E+06     424.991E+03    -290.621E-03     581.299E-03    -290.678E-03     47.7939E-03    -291.040E-03     581.558E-03    -290.403E-03     44.4858E-03
            1514     8.75095E-03     84.6958E-03    -39.3214E+06     22.4694E+06     42.7319E+06     545.728E+03    -290.582E-03     581.249E-03    -290.666E-03     44.7267E-03    -290.968E-03     581.451E-03    -290.428E-03     42.2255E-03
            1515     8.07759E-03     84.6214E-03    -45.7250E+06     12.4900E+06     31.5854E+06     819.832E+03    -290.534E-03     581.195E-03    -290.661E-03     41.3858E-03    -290.894E-03     581.345E-03    -290.454E-03     39.6265E-03
            1516     7.40423E-03     84.5519E-03    -52.2026E+06     6.27483E+06     20.9702E+06     1.16808E+06    -290.463E-03     581.118E-03    -290.655E-03     37.9825E-03    -290.810E-03     581.242E-03    -290.484E-03     36.8616E-03
            1517     6.73088E-03     84.4875E-03    -58.7716E+06    -11.9093E+06     8.69540E+06     1.28803E+06    -290.434E-03     581.096E-03    -290.661E-03     34.5634E-03    -290.754E-03     581.139E-03    -290.515E-03     33.9744E-03
            1518     6.05760E-03     84.4285E-03    -65.3772E+06    -42.8965E+06    -5.57946E+06     1.23034E+06    -290.451E-03     581.128E-03    -290.677E-03     31.1048E-03    -290.727E-03     581.036E-03    -290.548E-03     30.9444E-03
            1519     5.38437E-03     84.3751E-03    -71.8566E+06    -72.8084E+06    -20.1510E+06     1.10655E+06    -290.480E-03     581.168E-03    -290.688E-03     27.6606E-03    -290.716E-03     580.949E-03    -290.579E-03     27.8216E-03
            1520     4.71119E-03     84.3274E-03    -78.1197E+06    -98.2729E+06    -34.8059E+06     993.789E+03    -290.506E-03     581.196E-03    -290.690E-03     24.2229E-03    -290.709E-03     580.874E-03    -290.608E-03     24.6055E-03
            1521     4.03805E-03     84.2857E-03    -84.0481E+06    -120.636E+06    -49.4338E+06     861.214E+03    -290.524E-03     581.209E-03    -290.685E-03     20.7641E-03    -290.701E-03     580.803E-03    -290.635E-03     21.2778E-03
            1522     3.36495E-03     84.2501E-03    -89.4433E+06    -140.483E+06    -63.6588E+06     700.523E+03    -290.550E-03     581.226E-03    -290.675E-03     17.3009E-03    -290.703E-03     580.746E-03    -290.660E-03     17.8644E-03
            1523     2.69191E-03     84.2208E-03    -94.1005E+06    -157.234E+06    -77.0474E+06     551.277E+03    -290.576E-03     581.236E-03    -290.660E-03     13.8529E-03    -290.707E-03     580.699E-03    -290.681E-03     14.3946E-03
            1524     2.01890E-03     84.1978E-03    -97.9028E+06    -175.682E+06    -87.7204E+06     416.849E+03    -290.606E-03     581.262E-03    -290.656E-03     10.4230E-03    -290.713E-03     580.653E-03    -290.698E-03     10.8821E-03
            1525     1.34591E-03     84.1812E-03    -100.872E+06    -190.143E+06    -95.6788E+06     285.185E+03    -290.629E-03     581.283E-03    -290.654E-03     7.02860E-03    -290.719E-03     580.617E-03    -290.710E-03     7.36276E-03
            1526     672.943E-06     84.1710E-03    -102.837E+06    -195.504E+06    -101.459E+06     157.815E+03    -290.655E-03     581.281E-03    -290.626E-03     3.82088E-03    -290.738E-03     580.600E-03    -290.701E-03     4.01121E-03
            1527     12.7915E-03     83.5097E-03    -4.23881E+06     59.4885E+06     83.5191E+06    -14.4634E+03    -290.501E-03     581.137E-03    -290.636E-03     48.9558E-03    -290.933E-03     581.522E-03    -290.298E-03     43.4669E-03
            1528     12.1181E-03     83.4218E-03    -9.11628E+06     56.5178E+06     83.6522E+06     301.217E+03    -290.567E-03     581.234E-03    -290.666E-03     53.9469E-03    -291.063E-03     581.655E-03    -290.317E-03     47.9075E-03
            1529     11.4446E-03     83.3351E-03    -14.6367E+06     50.5731E+06     81.2952E+06     420.797E+03    -290.564E-03     581.257E-03    -290.693E-03     53.0075E-03    -291.045E-03     581.630E-03    -290.339E-03     47.6327E-03
            1530     10.7711E-03     83.2480E-03    -20.5476E+06     44.6531E+06     75.9611E+06     260.020E+03    -290.598E-03     581.306E-03    -290.708E-03     52.1701E-03    -291.071E-03     581.644E-03    -290.363E-03     47.3169E-03
            1531     10.0976E-03     83.1627E-03    -26.6857E+06     38.3597E+06     66.8629E+06     132.630E+03    -290.619E-03     581.324E-03    -290.705E-03     50.3270E-03    -291.067E-03     581.619E-03    -290.387E-03     46.2130E-03
            1532     9.42422E-03     83.0801E-03    -32.8599E+06     31.7257E+06     54.7642E+06     381.749E+03    -290.610E-03     581.298E-03    -290.688E-03     47.7851E-03    -291.027E-03     581.552E-03    -290.412E-03     44.4807E-03
            1533     8.75082E-03     83.0011E-03    -39.1912E+06     22.0941E+06     42.6272E+06     879.011E+03    -290.589E-03     581.265E-03    -290.676E-03     44.7058E-03    -290.974E-03     581.465E-03    -290.438E-03     42.2113E-03
            1534     8.07747E-03     82.9267E-03    -45.6737E+06     12.6038E+06     31.4700E+06     884.019E+03    -290.550E-03     581.219E-03    -290.669E-03     41.3566E-03    -290.910E-03     581.370E-03    -290.464E-03     39.5966E-03
            1535     7.40415E-03     82.8572E-03    -52.1339E+06     5.94269E+06     20.8482E+06     784.245E+03    -290.479E-03     581.143E-03    -290.664E-03     37.9718E-03    -290.825E-03     581.265E-03    -290.493E-03     36.8417E-03
            1536     6.73086E-03     82.7928E-03    -58.6752E+06    -11.8451E+06     8.69243E+06     987.306E+03    -290.438E-03     581.108E-03    -290.670E-03     34.5754E-03    -290.757E-03     581.152E-03    -290.524E-03     33.9768E-03
            1537     6.05757E-03     82.7338E-03    -65.2696E+06    -42.2788E+06    -5.49127E+06     1.03400E+06    -290.454E-03     581.140E-03    -290.686E-03     31.1390E-03    -290.730E-03     581.050E-03    -290.557E-03     30.9711E-03
            1538     5.38432E-03     82.6804E-03    -71.7568E+06    -72.2223E+06    -20.0629E+06     938.053E+03    -290.488E-03     581.186E-03    -290.698E-03     27.6983E-03    -290.724E-03     580.969E-03    -290.589E-03     27.8544E-03
            1539     4.71113E-03     82.6327E-03    -78.0204E+06    -97.6332E+06    -34.7446E+06     843.116E+03    -290.520E-03     581.219E-03    -290.699E-03     24.2363E-03    -290.725E-03     580.901E-03    -290.618E-03     24.6149E-03
            1540     4.03801E-03     82.5910E-03    -83.9135E+06    -119.928E+06    -49.3652E+06     714.986E+03    -290.548E-03     581.241E-03    -290.692E-03     20.7581E-03    -290.725E-03     580.837E-03    -290.644E-03     21.2691E-03
            1541     3.36494E-03     82.5554E-03    -89.3196E+06    -139.792E+06    -63.5722E+06     589.256E+03    -290.570E-03     581.250E-03    -290.680E-03     17.2911E-03    -290.723E-03     580.774E-03    -290.665E-03     17.8529E-03
            1542     2.69190E-03     82.5261E-03    -94.0054E+06    -156.559E+06    -76.9684E+06     476.352E+03    -290.584E-03     581.247E-03    -290.663E-03     13.8392E-03    -290.716E-03     580.712E-03    -290.684E-03     14.3782E-03
            1543     2.01889E-03     82.5031E-03    -97.7938E+06    -175.005E+06    -87.6353E+06     355.806E+03    -290.609E-03     581.266E-03    -290.657E-03     10.4125E-03    -290.717E-03     580.660E-03    -290.700E-03     10.8692E-03
            1544     1.34592E-03     82.4865E-03    -100.759E+06    -189.484E+06    -95.5820E+06     235.717E+03    -290.631E-03     581.286E-03    -290.655E-03     7.02481E-03    -290.722E-03     580.623E-03    -290.712E-03     7.35760E-03
            1545     672.960E-06     82.4763E-03    -102.733E+06    -194.832E+06    -101.346E+06     129.566E+03    -290.652E-03     581.282E-03    -290.630E-03     3.81777E-03    -290.736E-03     580.604E-03    -290.705E-03     4.00772E-03
            1546     12.7915E-03     81.8150E-03    -4.82068E+06     59.0465E+06     82.7387E+06     161.546E+03    -290.497E-03     581.132E-03    -290.635E-03     48.9893E-03    -290.930E-03     581.517E-03    -290.300E-03     43.5047E-03
            1547     12.1180E-03     81.7272E-03    -9.78843E+06     56.3366E+06     82.8974E+06     154.204E+03    -290.593E-03     581.257E-03    -290.664E-03     54.0137E-03    -291.091E-03     581.680E-03    -290.317E-03     47.9728E-03
            1548     11.4446E-03     81.6405E-03    -14.9183E+06     50.6872E+06     80.8638E+06     90.3541E+03    -290.568E-03     581.260E-03    -290.691E-03     53.0933E-03    -291.051E-03     581.635E-03    -290.339E-03     47.7121E-03
            1549     10.7711E-03     81.5536E-03    -20.5402E+06     44.7306E+06     75.6631E+06     204.865E+03    -290.560E-03     581.268E-03    -290.708E-03     52.2175E-03    -291.032E-03     581.606E-03    -290.364E-03     47.3654E-03
            1550     10.0976E-03     81.4681E-03    -26.6956E+06     38.7299E+06     66.5870E+06     221.917E+03    -290.585E-03     581.292E-03    -290.707E-03     50.3031E-03    -291.033E-03     581.589E-03    -290.391E-03     46.1952E-03
            1551     9.42415E-03     81.3854E-03    -33.0150E+06     30.5772E+06     54.4475E+06     322.888E+03    -290.612E-03     581.305E-03    -290.693E-03     47.7082E-03    -291.027E-03     581.553E-03    -290.417E-03     44.4058E-03
            1552     8.75080E-03     81.3065E-03    -39.0907E+06     21.5452E+06     42.7781E+06     584.322E+03    -290.587E-03     581.270E-03    -290.682E-03     44.6361E-03    -290.971E-03     581.467E-03    -290.443E-03     42.1378E-03
            1553     8.07746E-03     81.2320E-03    -45.1324E+06     13.1950E+06     31.8769E+06     707.966E+03    -290.532E-03     581.209E-03    -290.676E-03     41.3320E-03    -290.891E-03     581.361E-03    -290.471E-03     39.5695E-03
            1554     7.40412E-03     81.1625E-03    -51.6355E+06     5.71417E+06     21.0183E+06     816.043E+03    -290.465E-03     581.138E-03    -290.673E-03     37.9763E-03    -290.809E-03     581.258E-03    -290.501E-03     36.8441E-03
            1555     6.73075E-03     81.0982E-03    -58.4239E+06    -11.8372E+06     8.79972E+06     903.476E+03    -290.436E-03     581.117E-03    -290.681E-03     34.5903E-03    -290.755E-03     581.161E-03    -290.535E-03     33.9872E-03
            1556     6.05746E-03     81.0392E-03    -65.0952E+06    -41.8155E+06    -5.36437E+06     887.395E+03    -290.469E-03     581.166E-03    -290.697E-03     31.1454E-03    -290.745E-03     581.078E-03    -290.568E-03     30.9721E-03
            1557     5.38425E-03     80.9857E-03    -71.5651E+06    -71.7048E+06    -19.9538E+06     814.687E+03    -290.511E-03     581.218E-03    -290.707E-03     27.6918E-03    -290.747E-03     581.004E-03    -290.599E-03     27.8433E-03
            1558     4.71109E-03     80.9380E-03    -77.8217E+06    -97.0741E+06    -34.6287E+06     714.658E+03    -290.543E-03     581.250E-03    -290.707E-03     24.2262E-03    -290.747E-03     580.934E-03    -290.626E-03     24.6014E-03
            1559     4.03799E-03     80.8963E-03    -83.7632E+06    -119.345E+06    -49.2460E+06     624.584E+03    -290.564E-03     581.262E-03    -290.698E-03     20.7519E-03    -290.741E-03     580.861E-03    -290.650E-03     21.2598E-03
            1560     3.36493E-03     80.8607E-03    -89.1897E+06    -139.197E+06    -63.4661E+06     526.333E+03    -290.576E-03     581.261E-03    -290.684E-03     17.2999E-03    -290.730E-03     580.787E-03    -290.671E-03     17.8583E-03
            1561     2.69191E-03     80.8314E-03    -93.8649E+06    -155.948E+06    -76.8558E+06     409.356E+03    -290.586E-03     581.253E-03    -290.668E-03     13.8605E-03    -290.718E-03     580.721E-03    -290.690E-03     14.3960E-03
            1562     2.01890E-03     80.8084E-03    -97.6816E+06    -174.433E+06    -87.5244E+06     299.671E+03    -290.611E-03     581.275E-03    -290.664E-03     10.4403E-03    -290.720E-03     580.671E-03    -290.707E-03     10.8943E-03
            1563     1.34591E-03     80.7919E-03    -100.655E+06    -188.922E+06    -95.4709E+06     205.064E+03    -290.638E-03     581.300E-03    -290.662E-03     7.05023E-03    -290.729E-03     580.639E-03    -290.719E-03     7.38100E-03
            1564     672.943E-06     80.7817E-03    -102.605E+06    -194.262E+06    -101.240E+06     110.067E+03    -290.662E-03     581.297E-03    -290.635E-03     3.83593E-03    -290.747E-03     580.621E-03    -290.710E-03     4.02477E-03
            1565     12.7914E-03     80.1204E-03    -4.14336E+06     58.9935E+06     83.1909E+06     315.144E+03    -290.505E-03     581.145E-03    -290.640E-03     48.9858E-03    -290.935E-03     581.528E-03    -290.304E-03     43.5052E-03
            1566     12.1180E-03     80.0325E-03    -8.93280E+06     56.8454E+06     83.3743E+06     198.101E+03    -290.607E-03     581.276E-03    -290.668E-03     53.9680E-03    -291.102E-03     581.699E-03    -290.321E-03     47.9252E-03
            1567     11.4445E-03     79.9460E-03    -14.5324E+06     50.7009E+06     80.8796E+06     111.962E+03    -290.592E-03     581.286E-03    -290.694E-03     53.0598E-03    -291.072E-03     581.660E-03    -290.342E-03     47.6751E-03
            1568     10.7711E-03     79.8591E-03    -20.4731E+06     44.5865E+06     75.5043E+06     82.3794E+03    -290.589E-03     581.297E-03    -290.708E-03     52.2086E-03    -291.061E-03     581.636E-03    -290.366E-03     47.3517E-03
            1569     10.0976E-03     79.7736E-03    -26.4993E+06     38.3829E+06     66.5177E+06     298.021E+03    -290.592E-03     581.298E-03    -290.707E-03     50.3078E-03    -291.038E-03     581.594E-03    -290.391E-03     46.2011E-03
            1570     9.42420E-03     79.6907E-03    -32.6671E+06     30.6626E+06     54.4518E+06     394.104E+03    -290.592E-03     581.286E-03    -290.693E-03     47.7190E-03    -291.006E-03     581.534E-03    -290.418E-03     44.4187E-03
            1571     8.75081E-03     79.6118E-03    -38.9745E+06     21.4811E+06     42.5936E+06     189.242E+03    -290.561E-03     581.245E-03    -290.684E-03     44.6582E-03    -290.943E-03     581.442E-03    -290.446E-03     42.1534E-03
            1572     8.07739E-03     79.5374E-03    -45.3741E+06     12.6128E+06     31.6262E+06     386.734E+03    -290.503E-03     581.185E-03    -290.682E-03     41.3536E-03    -290.862E-03     581.335E-03    -290.476E-03     39.5868E-03
            1573     7.40400E-03     79.4679E-03    -51.7928E+06     5.48021E+06     21.0015E+06     743.950E+03    -290.454E-03     581.135E-03    -290.681E-03     37.9676E-03    -290.798E-03     581.254E-03    -290.509E-03     36.8351E-03
            1574     6.73070E-03     79.4035E-03    -58.2895E+06    -11.6591E+06     8.89821E+06     846.653E+03    -290.450E-03     581.139E-03    -290.689E-03     34.5545E-03    -290.768E-03     581.183E-03    -290.543E-03     33.9500E-03
            1575     6.05744E-03     79.3444E-03    -64.8991E+06    -41.3477E+06    -5.26519E+06     806.534E+03    -290.486E-03     581.190E-03    -290.704E-03     31.1164E-03    -290.762E-03     581.104E-03    -290.576E-03     30.9405E-03
            1576     5.38423E-03     79.2910E-03    -71.4285E+06    -71.2712E+06    -19.8477E+06     725.379E+03    -290.528E-03     581.241E-03    -290.713E-03     27.6812E-03    -290.765E-03     581.029E-03    -290.606E-03     27.8286E-03
            1577     4.71108E-03     79.2432E-03    -77.7230E+06    -96.5855E+06    -34.5112E+06     662.077E+03    -290.549E-03     581.261E-03    -290.712E-03     24.2229E-03    -290.754E-03     580.947E-03    -290.632E-03     24.5941E-03
            1578     4.03797E-03     79.2016E-03    -83.6626E+06    -118.818E+06    -49.1392E+06     575.146E+03    -290.557E-03     581.261E-03    -290.704E-03     20.7589E-03    -290.735E-03     580.863E-03    -290.656E-03     21.2637E-03
            1579     3.36489E-03     79.1660E-03    -89.0931E+06    -138.655E+06    -63.3638E+06     470.496E+03    -290.567E-03     581.261E-03    -290.694E-03     17.3162E-03    -290.721E-03     580.790E-03    -290.680E-03     17.8708E-03
            1580     2.69184E-03     79.1367E-03    -93.7841E+06    -155.408E+06    -76.7668E+06     375.005E+03    -290.585E-03     581.265E-03    -290.680E-03     13.8836E-03    -290.718E-03     580.736E-03    -290.703E-03     14.4165E-03
            1581     2.01883E-03     79.1137E-03    -97.5837E+06    -173.919E+06    -87.4383E+06     274.986E+03    -290.624E-03     581.303E-03    -290.679E-03     10.4563E-03    -290.733E-03     580.701E-03    -290.722E-03     10.9087E-03
            1582     1.34587E-03     79.0972E-03    -100.554E+06    -188.432E+06    -95.3844E+06     173.274E+03    -290.655E-03     581.331E-03    -290.676E-03     7.05304E-03    -290.746E-03     580.673E-03    -290.734E-03     7.38221E-03
            1583     672.941E-06     79.0869E-03    -102.527E+06    -193.769E+06    -101.139E+06     90.9022E+03    -290.672E-03     581.325E-03    -290.653E-03     3.83119E-03    -290.757E-03     580.651E-03    -290.729E-03     4.01918E-03
            1584     12.7914E-03     78.4257E-03    -4.31476E+06     58.9303E+06     83.0605E+06    -132.349E+03    -290.518E-03     581.162E-03    -290.644E-03     48.9786E-03    -290.949E-03     581.546E-03    -290.308E-03     43.4911E-03
            1585     12.1180E-03     78.3379E-03    -9.04618E+06     56.5494E+06     83.2742E+06     158.696E+03    -290.612E-03     581.285E-03    -290.673E-03     53.9704E-03    -291.108E-03     581.707E-03    -290.325E-03     47.9239E-03
            1586     11.4445E-03     78.2514E-03    -14.2807E+06     50.8192E+06     81.0813E+06     390.643E+03    -290.621E-03     581.318E-03    -290.697E-03     53.0672E-03    -291.100E-03     581.692E-03    -290.345E-03     47.6875E-03
            1587     10.7711E-03     78.1645E-03    -20.1745E+06     44.6447E+06     75.7694E+06     435.193E+03    -290.628E-03     581.338E-03    -290.710E-03     52.2126E-03    -291.098E-03     581.676E-03    -290.367E-03     47.3615E-03
            1588     10.0976E-03     78.0790E-03    -26.5323E+06     37.9253E+06     66.4828E+06     461.725E+03    -290.598E-03     581.305E-03    -290.707E-03     50.3260E-03    -291.044E-03     581.599E-03    -290.392E-03     46.2199E-03
            1589     9.42416E-03     77.9961E-03    -32.8915E+06     31.3766E+06     54.3570E+06     378.544E+03    -290.559E-03     581.253E-03    -290.693E-03     47.7491E-03    -290.975E-03     581.505E-03    -290.419E-03     44.4481E-03
            1590     8.75071E-03     77.9172E-03    -39.1538E+06     21.7633E+06     42.3810E+06     270.319E+03    -290.541E-03     581.227E-03    -290.686E-03     44.6520E-03    -290.925E-03     581.426E-03    -290.449E-03     42.1469E-03
            1591     8.07736E-03     77.8428E-03    -45.4076E+06     12.0170E+06     31.3726E+06     240.056E+03    -290.514E-03     581.200E-03    -290.685E-03     41.3188E-03    -290.872E-03     581.348E-03    -290.480E-03     39.5481E-03
            1592     7.40402E-03     77.7732E-03    -51.7684E+06     5.06460E+06     20.8338E+06     350.471E+03    -290.461E-03     581.146E-03    -290.684E-03     37.9346E-03    -290.804E-03     581.262E-03    -290.512E-03     36.7966E-03
            1593     6.73068E-03     77.7087E-03    -58.3380E+06    -11.7309E+06     8.82623E+06     573.250E+03    -290.443E-03     581.135E-03    -290.692E-03     34.5375E-03    -290.761E-03     581.179E-03    -290.547E-03     33.9283E-03
            1594     6.05740E-03     77.6498E-03    -64.9279E+06    -41.0117E+06    -5.22661E+06     676.925E+03    -290.482E-03     581.190E-03    -290.708E-03     31.1300E-03    -290.759E-03     581.106E-03    -290.580E-03     30.9516E-03
            1595     5.38420E-03     77.5962E-03    -71.3902E+06    -70.8748E+06    -19.7766E+06     641.718E+03    -290.521E-03     581.240E-03    -290.718E-03     27.7012E-03    -290.758E-03     581.029E-03    -290.611E-03     27.8447E-03
            1596     4.71105E-03     77.5485E-03    -77.6687E+06    -96.1601E+06    -34.4451E+06     578.811E+03    -290.535E-03     581.255E-03    -290.719E-03     24.2494E-03    -290.740E-03     580.943E-03    -290.640E-03     24.6163E-03
            1597     4.03793E-03     77.5068E-03    -83.6067E+06    -118.344E+06    -49.0710E+06     506.410E+03    -290.550E-03     581.265E-03    -290.715E-03     20.7895E-03    -290.729E-03     580.869E-03    -290.667E-03     21.2916E-03
            1598     3.36485E-03     77.4713E-03    -89.0379E+06    -138.176E+06    -63.3086E+06     430.795E+03    -290.571E-03     581.277E-03    -290.706E-03     17.3250E-03    -290.725E-03     580.808E-03    -290.693E-03     17.8773E-03
            1599     2.69181E-03     77.4420E-03    -93.6983E+06    -154.931E+06    -76.7060E+06     338.464E+03    -290.597E-03     581.291E-03    -290.694E-03     13.8809E-03    -290.730E-03     580.764E-03    -290.717E-03     14.4129E-03
            1600     2.01882E-03     77.4189E-03    -97.4788E+06    -173.434E+06    -87.3498E+06     243.304E+03    -290.638E-03     581.331E-03    -290.692E-03     10.4473E-03    -290.748E-03     580.732E-03    -290.736E-03     10.8989E-03
            1601     1.34587E-03     77.4024E-03    -100.457E+06    -187.972E+06    -95.2911E+06     160.975E+03    -290.669E-03     581.359E-03    -290.690E-03     7.04671E-03    -290.760E-03     580.703E-03    -290.748E-03     7.37466E-03
            1602     672.927E-06     77.3922E-03    -102.450E+06    -193.348E+06    -101.074E+06     83.7692E+03    -290.685E-03     581.352E-03    -290.667E-03     3.82718E-03    -290.770E-03     580.681E-03    -290.744E-03     4.01374E-03
            1603     12.7913E-03     76.7310E-03    -4.48447E+06     58.8292E+06     82.5610E+06    -255.706E+03    -290.505E-03     581.151E-03    -290.646E-03     48.9495E-03    -290.935E-03     581.535E-03    -290.312E-03     43.4572E-03
            1604     12.1179E-03     76.6433E-03    -9.28524E+06     55.5915E+06     82.7929E+06    -132.003E+03    -290.625E-03     581.301E-03    -290.676E-03     53.9507E-03    -291.119E-03     581.719E-03    -290.329E-03     47.9015E-03
            1605     11.4444E-03     76.5567E-03    -14.6263E+06     50.3003E+06     80.7541E+06     235.932E+03    -290.643E-03     581.344E-03    -290.700E-03     53.0529E-03    -291.123E-03     581.716E-03    -290.348E-03     47.6724E-03
            1606     10.7710E-03     76.4697E-03    -20.3354E+06     44.5732E+06     75.6353E+06     506.091E+03    -290.634E-03     581.347E-03    -290.713E-03     52.2019E-03    -291.106E-03     581.685E-03    -290.370E-03     47.3480E-03
            1607     10.0976E-03     76.3844E-03    -26.1932E+06     38.3986E+06     66.7227E+06     435.027E+03    -290.603E-03     581.312E-03    -290.710E-03     50.3329E-03    -291.048E-03     581.608E-03    -290.394E-03     46.2218E-03
            1608     9.42417E-03     76.3016E-03    -32.1723E+06     31.6074E+06     54.8538E+06     308.870E+03    -290.574E-03     581.270E-03    -290.696E-03     47.7604E-03    -290.987E-03     581.522E-03    -290.421E-03     44.4557E-03
            1609     8.75075E-03     76.2226E-03    -38.3143E+06     21.9064E+06     42.8373E+06     337.303E+03    -290.554E-03     581.242E-03    -290.688E-03     44.6517E-03    -290.934E-03     581.440E-03    -290.450E-03     42.1483E-03
            1610     8.07737E-03     76.1481E-03    -44.6858E+06     12.0771E+06     31.6089E+06     363.355E+03    -290.524E-03     581.210E-03    -290.686E-03     41.3214E-03    -290.879E-03     581.357E-03    -290.481E-03     39.5525E-03
            1611     7.40403E-03     76.0785E-03    -51.3358E+06     4.69952E+06     20.9084E+06     460.121E+03    -290.458E-03     581.143E-03    -290.685E-03     37.9576E-03    -290.798E-03     581.258E-03    -290.513E-03     36.8188E-03
            1612     6.73068E-03     76.0141E-03    -58.1101E+06    -11.8557E+06     8.89588E+06     571.220E+03    -290.430E-03     581.125E-03    -290.695E-03     34.5741E-03    -290.747E-03     581.168E-03    -290.549E-03     33.9653E-03
            1613     6.05739E-03     75.9550E-03    -64.7977E+06    -40.7872E+06    -5.14695E+06     571.072E+03    -290.469E-03     581.180E-03    -290.711E-03     31.1555E-03    -290.746E-03     581.097E-03    -290.584E-03     30.9749E-03
            1614     5.38418E-03     75.9014E-03    -71.3351E+06    -70.5387E+06    -19.7298E+06     546.510E+03    -290.502E-03     581.226E-03    -290.725E-03     27.7070E-03    -290.739E-03     581.017E-03    -290.617E-03     27.8455E-03
            1615     4.71098E-03     75.8538E-03    -77.6221E+06    -95.7982E+06    -34.4127E+06     508.580E+03    -290.525E-03     581.254E-03    -290.728E-03     24.2502E-03    -290.731E-03     580.943E-03    -290.649E-03     24.6147E-03
            1616     4.03786E-03     75.8120E-03    -83.5482E+06    -117.949E+06    -49.0508E+06     448.612E+03    -290.555E-03     581.281E-03    -290.725E-03     20.7784E-03    -290.734E-03     580.886E-03    -290.678E-03     21.2780E-03
            1617     3.36480E-03     75.7765E-03    -88.9507E+06    -137.737E+06    -63.2619E+06     368.188E+03    -290.584E-03     581.301E-03    -290.717E-03     17.3153E-03    -290.738E-03     580.834E-03    -290.705E-03     17.8648E-03
            1618     2.69178E-03     75.7471E-03    -93.6063E+06    -154.482E+06    -76.6215E+06     280.254E+03    -290.609E-03     581.314E-03    -290.705E-03     13.8875E-03    -290.742E-03     580.789E-03    -290.728E-03     14.4172E-03
            1619     2.01879E-03     75.7241E-03    -97.4152E+06    -173.026E+06    -87.2743E+06     208.610E+03    -290.644E-03     581.348E-03    -290.704E-03     10.4591E-03    -290.753E-03     580.751E-03    -290.749E-03     10.9087E-03
            1620     1.34584E-03     75.7076E-03    -100.390E+06    -187.579E+06    -95.2101E+06     145.107E+03    -290.676E-03     581.381E-03    -290.705E-03     7.05712E-03    -290.768E-03     580.727E-03    -290.764E-03     7.38513E-03
            1621     672.920E-06     75.6973E-03    -102.352E+06    -192.941E+06    -100.969E+06     83.8370E+03    -290.702E-03     581.386E-03    -290.685E-03     3.83174E-03    -290.787E-03     580.716E-03    -290.761E-03     4.01888E-03
            1622     12.7913E-03     75.0363E-03    -4.43151E+06     59.0552E+06     82.5361E+06    -98.2329E+03    -290.502E-03     581.150E-03    -290.647E-03     48.8886E-03    -290.933E-03     581.534E-03    -290.314E-03     43.3993E-03
            1623     12.1179E-03     74.9486E-03    -9.40899E+06     55.0349E+06     82.5045E+06    -77.3159E+03    -290.632E-03     581.309E-03    -290.677E-03     53.8997E-03    -291.125E-03     581.725E-03    -290.331E-03     47.8547E-03
            1624     11.4445E-03     74.8620E-03    -14.7243E+06     49.7509E+06     80.4281E+06     20.3466E+03    -290.631E-03     581.333E-03    -290.702E-03     53.0273E-03    -291.110E-03     581.703E-03    -290.350E-03     47.6426E-03
            1625     10.7710E-03     74.7751E-03    -20.3261E+06     44.6086E+06     75.4765E+06    -13.3031E+03    -290.616E-03     581.330E-03    -290.715E-03     52.1969E-03    -291.087E-03     581.669E-03    -290.373E-03     47.3310E-03
            1626     10.0975E-03     74.6898E-03    -26.2675E+06     38.5554E+06     66.5873E+06    -7.34521E+03    -290.605E-03     581.318E-03    -290.713E-03     50.3446E-03    -291.051E-03     581.615E-03    -290.398E-03     46.2259E-03
            1627     9.42412E-03     74.6070E-03    -32.4584E+06     31.4176E+06     54.5508E+06     147.339E+03    -290.596E-03     581.294E-03    -290.699E-03     47.7899E-03    -291.010E-03     581.546E-03    -290.424E-03     44.4829E-03
            1628     8.75072E-03     74.5280E-03    -38.7491E+06     21.6719E+06     42.5058E+06     338.891E+03    -290.569E-03     581.258E-03    -290.690E-03     44.7048E-03    -290.950E-03     581.456E-03    -290.452E-03     42.2010E-03
            1629     8.07736E-03     74.4534E-03    -45.1088E+06     12.0032E+06     31.3848E+06     541.799E+03    -290.517E-03     581.204E-03    -290.687E-03     41.3617E-03    -290.873E-03     581.352E-03    -290.482E-03     39.5925E-03
            1630     7.40398E-03     74.3839E-03    -51.5783E+06     4.65726E+06     20.7351E+06     638.835E+03    -290.454E-03     581.142E-03    -290.687E-03     37.9759E-03    -290.796E-03     581.257E-03    -290.516E-03     36.8364E-03
            1631     6.73064E-03     74.3194E-03    -58.1483E+06    -11.6842E+06     8.82925E+06     601.313E+03    -290.434E-03     581.131E-03    -290.697E-03     34.5951E-03    -290.751E-03     581.175E-03    -290.551E-03     33.9844E-03
            1632     6.05737E-03     74.2602E-03    -64.7876E+06    -40.4380E+06    -5.13694E+06     537.524E+03    -290.453E-03     581.168E-03    -290.715E-03     31.1702E-03    -290.731E-03     581.087E-03    -290.588E-03     30.9845E-03
            1633     5.38412E-03     74.2067E-03    -71.3216E+06    -70.2588E+06    -19.7291E+06     479.019E+03    -290.489E-03     581.219E-03    -290.730E-03     27.7176E-03    -290.727E-03     581.012E-03    -290.623E-03     27.8535E-03
            1634     4.71097E-03     74.1590E-03    -77.5771E+06    -95.4881E+06    -34.3840E+06     418.387E+03    -290.530E-03     581.266E-03    -290.735E-03     24.2563E-03    -290.736E-03     580.957E-03    -290.656E-03     24.6201E-03
            1635     4.03786E-03     74.1172E-03    -83.4902E+06    -117.575E+06    -48.9866E+06     354.779E+03    -290.560E-03     581.293E-03    -290.733E-03     20.7790E-03    -290.739E-03     580.900E-03    -290.686E-03     21.2758E-03
            1636     3.36479E-03     74.0817E-03    -88.9150E+06    -137.352E+06    -63.1985E+06     289.249E+03    -290.587E-03     581.312E-03    -290.725E-03     17.3201E-03    -290.742E-03     580.848E-03    -290.713E-03     17.8672E-03
            1637     2.69176E-03     74.0523E-03    -93.5940E+06    -154.129E+06    -76.5889E+06     233.251E+03    -290.615E-03     581.329E-03    -290.714E-03     13.8852E-03    -290.749E-03     580.805E-03    -290.737E-03     14.4127E-03
            1638     2.01877E-03     74.0293E-03    -97.3760E+06    -172.679E+06    -87.2366E+06      177.88E+03    -290.650E-03     581.364E-03    -290.714E-03     10.4492E-03    -290.760E-03     580.768E-03    -290.758E-03     10.8965E-03
            1639     1.34583E-03     74.0127E-03    -100.312E+06    -187.228E+06    -95.1504E+06     113.260E+03    -290.682E-03     581.398E-03    -290.716E-03     7.05147E-03    -290.774E-03     580.746E-03    -290.775E-03     7.37799E-03
            1640     672.893E-06     74.0025E-03    -102.298E+06    -192.596E+06    -100.910E+06     58.8421E+03    -290.717E-03     581.412E-03    -290.695E-03     3.83040E-03    -290.803E-03     580.743E-03    -290.771E-03     4.01717E-03
            1641     12.7913E-03     73.3416E-03    -4.45904E+06     59.1782E+06     82.6732E+06     61.2206E+03    -290.508E-03     581.156E-03    -290.648E-03     48.8804E-03    -290.939E-03     581.541E-03    -290.314E-03     43.3969E-03
            1642     12.1179E-03     73.2539E-03    -9.29605E+06     54.9292E+06     82.5300E+06     78.1858E+03    -290.618E-03     581.296E-03    -290.678E-03     53.8989E-03    -291.111E-03     581.711E-03    -290.331E-03     47.8560E-03
            1643     11.4444E-03     73.1674E-03    -14.7326E+06     49.9698E+06     80.4027E+06    -2.54243E+03    -290.605E-03     581.308E-03    -290.703E-03     53.0270E-03    -291.084E-03     581.679E-03    -290.352E-03     47.6396E-03
            1644     10.7709E-03     73.0805E-03    -20.6858E+06     44.8892E+06     75.2687E+06    -132.324E+03    -290.605E-03     581.322E-03    -290.717E-03     52.1887E-03    -291.078E-03     581.662E-03    -290.376E-03     47.3215E-03
            1645     10.0975E-03     72.9951E-03    -26.8762E+06     38.1975E+06     66.0469E+06    -118.034E+03    -290.610E-03     581.324E-03    -290.715E-03     50.3276E-03    -291.057E-03     581.621E-03    -290.401E-03     46.2086E-03
            1646     9.42408E-03     72.9123E-03    -33.0632E+06     30.9321E+06     53.9869E+06     75.8053E+03    -290.598E-03     581.299E-03    -290.700E-03     47.7690E-03    -291.014E-03     581.550E-03    -290.427E-03     44.4608E-03
            1647     8.75069E-03     72.8333E-03    -39.2325E+06     21.2956E+06     42.1285E+06     283.359E+03    -290.566E-03     581.258E-03    -290.692E-03     44.6915E-03    -290.949E-03     581.455E-03    -290.455E-03     42.1821E-03
            1648     8.07731E-03     72.7588E-03    -45.4514E+06     11.9327E+06     31.1796E+06     346.439E+03    -290.515E-03     581.205E-03    -290.690E-03     41.3659E-03    -290.873E-03     581.353E-03    -290.486E-03     39.5879E-03
            1649     7.40397E-03     72.6893E-03    -51.7569E+06     4.73452E+06     20.6185E+06     332.247E+03    -290.456E-03     581.146E-03    -290.690E-03     38.0033E-03    -290.799E-03     581.262E-03    -290.519E-03     36.8556E-03
            1650     6.73065E-03     72.6247E-03    -58.2506E+06    -11.5252E+06     8.72524E+06     374.961E+03    -290.428E-03     581.128E-03    -290.700E-03     34.6338E-03    -290.746E-03     581.173E-03    -290.555E-03     34.0140E-03
            1651     6.05734E-03     72.5656E-03    -64.8106E+06    -40.1893E+06    -5.19242E+06     405.166E+03    -290.452E-03     581.171E-03    -290.719E-03     31.2058E-03    -290.730E-03     581.092E-03    -290.593E-03     31.0127E-03
            1652     5.38411E-03     72.5120E-03    -71.2368E+06    -69.9728E+06    -19.6744E+06     361.618E+03    -290.498E-03     581.233E-03    -290.735E-03     27.7408E-03    -290.736E-03     581.026E-03    -290.629E-03     27.8744E-03
            1653     4.71092E-03     72.4642E-03    -77.5000E+06    -95.1884E+06    -34.2917E+06     313.088E+03    -290.531E-03     581.271E-03    -290.741E-03     24.2673E-03    -290.737E-03     580.964E-03    -290.662E-03     24.6280E-03
            1654     4.03781E-03     72.4224E-03    -83.4533E+06    -117.291E+06    -48.9343E+06     280.005E+03    -290.559E-03     581.298E-03    -290.739E-03     20.7956E-03    -290.738E-03     580.906E-03    -290.692E-03     21.2889E-03
            1655     3.36475E-03     72.3868E-03    -88.8628E+06    -137.055E+06    -63.1816E+06     239.793E+03    -290.593E-03     581.324E-03    -290.732E-03     17.3352E-03    -290.748E-03     580.861E-03    -290.720E-03     17.8808E-03
            1656     2.69174E-03     72.3574E-03    -93.5179E+06    -153.820E+06     -76.581E+06     180.764E+03    -290.620E-03     581.341E-03    -290.720E-03     13.8933E-03    -290.754E-03     580.819E-03    -290.745E-03     14.4188E-03
            1657     2.01877E-03     72.3344E-03    -97.3223E+06    -172.384E+06    -87.2199E+06     123.753E+03    -290.657E-03     581.378E-03    -290.721E-03     10.4647E-03    -290.767E-03     580.784E-03    -290.766E-03     10.9112E-03
            1658     1.34582E-03     72.3178E-03    -100.319E+06    -186.962E+06    -95.1393E+06     91.6900E+03    -290.693E-03     581.416E-03    -290.723E-03     7.06915E-03    -290.785E-03     580.764E-03    -290.782E-03     7.39601E-03
            1659     672.908E-06     72.3075E-03    -102.249E+06    -192.299E+06    -100.900E+06     58.1403E+03    -290.727E-03     581.424E-03    -290.696E-03     3.84691E-03    -290.813E-03     580.757E-03    -290.774E-03     4.03398E-03
            1660     12.7913E-03     71.6469E-03    -4.29367E+06     59.0882E+06     82.7476E+06     28.9332E+03    -290.495E-03     581.144E-03    -290.649E-03     48.8789E-03    -290.925E-03     581.529E-03    -290.315E-03     43.3955E-03
            1661     12.1178E-03     71.5593E-03    -9.09291E+06     55.0254E+06     82.6294E+06     59.1689E+03    -290.601E-03     581.280E-03    -290.680E-03     53.8998E-03    -291.093E-03     581.696E-03    -290.333E-03     47.8567E-03
            1662     11.4444E-03     71.4728E-03    -14.3362E+06     50.1178E+06     80.5052E+06     86.2309E+03    -290.602E-03     581.307E-03    -290.705E-03     53.0227E-03    -291.080E-03     581.679E-03    -290.354E-03     47.6366E-03
            1663     10.7709E-03     71.3859E-03    -20.0355E+06     45.0815E+06     75.4203E+06     133.621E+03    -290.612E-03     581.331E-03    -290.719E-03     52.1883E-03    -291.082E-03     581.671E-03    -290.378E-03     47.3273E-03
            1664     10.0975E-03     71.3005E-03    -26.1107E+06     38.1923E+06     66.3317E+06     92.8999E+03    -290.619E-03     581.336E-03    -290.717E-03     50.3335E-03    -291.063E-03     581.631E-03    -290.403E-03     46.2169E-03
            1665     9.42409E-03     71.2177E-03    -32.3443E+06     30.4034E+06     54.3131E+06     151.547E+03    -290.600E-03     581.304E-03    -290.704E-03     47.7830E-03    -291.012E-03     581.552E-03    -290.430E-03     44.4715E-03
            1666     8.75069E-03     71.1386E-03    -38.6000E+06     21.2366E+06     42.4713E+06     267.323E+03    -290.560E-03     581.255E-03    -290.696E-03     44.7137E-03    -290.940E-03     581.451E-03    -290.458E-03     42.2006E-03
            1667     8.07731E-03     71.0642E-03    -44.8809E+06     12.2160E+06     31.5159E+06     187.009E+03    -290.513E-03     581.207E-03    -290.695E-03     41.3988E-03    -290.869E-03     581.356E-03    -290.490E-03     39.6148E-03
            1668     7.40393E-03     70.9946E-03    -51.3434E+06     4.64114E+06     20.8260E+06     174.861E+03    -290.451E-03     581.147E-03    -290.696E-03     38.0400E-03    -290.792E-03     581.261E-03    -290.524E-03     36.8844E-03
            1669     6.73057E-03     70.9301E-03    -57.9856E+06    -11.5690E+06     8.82986E+06     275.175E+03    -290.426E-03     581.132E-03    -290.706E-03     34.6636E-03    -290.743E-03     581.177E-03    -290.561E-03     34.0378E-03
            1670     6.05728E-03     70.8708E-03    -64.6318E+06    -40.0925E+06    -5.14176E+06     313.703E+03    -290.467E-03     581.192E-03    -290.725E-03     31.2349E-03    -290.744E-03     581.112E-03    -290.599E-03     31.0380E-03
            1671     5.38408E-03     70.8172E-03    -71.1714E+06    -69.7178E+06    -19.7076E+06     310.625E+03    -290.510E-03     581.249E-03    -290.739E-03     27.7662E-03    -290.748E-03     581.044E-03    -290.634E-03     27.8953E-03
            1672     4.71093E-03     70.7694E-03    -77.4628E+06    -94.9086E+06    -34.3431E+06     261.646E+03    -290.528E-03     581.273E-03    -290.745E-03     24.2914E-03    -290.735E-03     580.967E-03    -290.667E-03     24.6466E-03
            1673     4.03780E-03     70.7276E-03    -83.3903E+06    -117.114E+06    -48.9732E+06     232.208E+03    -290.557E-03     581.302E-03    -290.745E-03     20.8279E-03    -290.737E-03     580.912E-03    -290.699E-03     21.3184E-03
            1674     3.36474E-03     70.6919E-03    -88.8272E+06    -136.806E+06    -63.2146E+06     216.632E+03    -290.597E-03     581.335E-03    -290.739E-03     17.3633E-03    -290.752E-03     580.873E-03    -290.728E-03     17.9061E-03
            1675     2.69172E-03     70.6626E-03    -93.5277E+06    -153.544E+06    -76.5960E+06     186.990E+03    -290.626E-03     581.355E-03    -290.728E-03     13.9094E-03    -290.761E-03     580.834E-03    -290.753E-03     14.4324E-03
            1676     2.01872E-03     70.6395E-03    -97.3262E+06    -172.112E+06    -87.2378E+06     148.889E+03    -290.668E-03     581.397E-03    -290.729E-03     10.4715E-03    -290.779E-03     580.804E-03    -290.774E-03     10.9180E-03
            1677     1.34580E-03     70.6229E-03    -100.272E+06    -186.700E+06    -95.1505E+06     83.2355E+03    -290.706E-03     581.434E-03    -290.728E-03     7.06690E-03    -290.798E-03     580.784E-03    -290.788E-03     7.39313E-03
            1678     672.897E-06     70.6126E-03    -102.279E+06    -192.061E+06    -100.901E+06     34.0685E+03    -290.728E-03     581.430E-03    -290.701E-03     3.84593E-03    -290.815E-03     580.764E-03    -290.779E-03     4.03187E-03
            1679     12.7912E-03     69.9523E-03    -4.39086E+06     59.2325E+06     82.4329E+06    -144.429E+03    -290.469E-03     581.117E-03    -290.648E-03     48.8656E-03    -290.898E-03     581.502E-03    -290.316E-03     43.3818E-03
            1680     12.1178E-03     69.8646E-03    -9.07416E+06     55.1445E+06     82.4061E+06    -290.220E+03    -290.593E-03     581.274E-03    -290.680E-03     53.8911E-03    -291.085E-03     581.690E-03    -290.335E-03     47.8448E-03
            1681     11.4443E-03     69.7781E-03    -14.2104E+06     49.7303E+06     80.3062E+06    -227.583E+03    -290.607E-03     581.313E-03    -290.707E-03     53.0214E-03    -291.083E-03     581.683E-03    -290.357E-03     47.6316E-03
            1682     10.7709E-03     69.6913E-03    -19.9079E+06     44.4152E+06     75.2945E+06     163.821E+03    -290.616E-03     581.337E-03    -290.721E-03     52.1913E-03    -291.085E-03     581.674E-03    -290.380E-03     47.3310E-03
            1683     10.0975E-03     69.6058E-03    -26.0794E+06     38.4600E+06     66.3805E+06     443.143E+03    -290.608E-03     581.327E-03    -290.719E-03     50.3371E-03    -291.053E-03     581.623E-03    -290.406E-03     46.2233E-03
            1684     9.42403E-03     69.5230E-03    -32.3794E+06     30.7068E+06     54.3722E+06     257.233E+03    -290.586E-03     581.293E-03    -290.707E-03     47.7979E-03    -290.999E-03     581.542E-03    -290.433E-03     44.4825E-03
            1685     8.75062E-03     69.4440E-03    -38.5248E+06     21.2279E+06     42.5302E+06     81.8023E+03    -290.554E-03     581.255E-03    -290.701E-03     44.7467E-03    -290.935E-03     581.451E-03    -290.463E-03     42.2272E-03
            1686     8.07724E-03     69.3695E-03    -44.7692E+06     12.2795E+06     31.5337E+06     197.943E+03    -290.507E-03     581.207E-03    -290.700E-03     41.4309E-03    -290.863E-03     581.356E-03    -290.495E-03     39.6427E-03
            1687     7.40389E-03     69.2999E-03    -51.2864E+06     4.48974E+06     20.7766E+06     334.362E+03    -290.452E-03     581.154E-03    -290.702E-03     38.0647E-03    -290.792E-03     581.268E-03    -290.530E-03     36.9066E-03
            1688     6.73056E-03     69.2353E-03    -57.9564E+06    -11.5577E+06     8.85304E+06     374.701E+03    -290.437E-03     581.150E-03    -290.713E-03     34.6931E-03    -290.754E-03     581.195E-03    -290.568E-03     34.0663E-03
            1689     6.05728E-03     69.1761E-03    -64.6507E+06    -39.9483E+06    -5.11691E+06     372.344E+03    -290.470E-03     581.202E-03    -290.732E-03     31.2723E-03    -290.748E-03     581.123E-03    -290.605E-03     31.0739E-03
            1690     5.38405E-03     69.1224E-03    -71.1971E+06    -69.4224E+06    -19.8012E+06     331.222E+03    -290.505E-03     581.251E-03    -290.746E-03     27.8074E-03    -290.743E-03     581.048E-03    -290.641E-03     27.9323E-03
            1691     4.71087E-03     69.0746E-03    -77.5063E+06    -94.6644E+06    -34.5027E+06     280.866E+03    -290.534E-03     581.287E-03    -290.753E-03     24.3421E-03    -290.740E-03     580.982E-03    -290.676E-03     24.6936E-03
            1692     4.03775E-03     69.0328E-03    -83.4595E+06    -116.962E+06    -49.0703E+06     249.867E+03    -290.568E-03     581.321E-03    -290.753E-03     20.8781E-03    -290.747E-03     580.931E-03    -290.708E-03     21.3665E-03
            1693     3.36469E-03     68.9970E-03    -88.9029E+06    -136.552E+06    -63.2817E+06     228.390E+03    -290.602E-03     581.349E-03    -290.748E-03     17.3941E-03    -290.758E-03     580.889E-03    -290.737E-03     17.9342E-03
            1694     2.69168E-03     68.9677E-03    -93.5737E+06    -153.281E+06    -76.6648E+06     181.927E+03    -290.638E-03     581.376E-03    -290.737E-03     13.9305E-03    -290.773E-03     580.856E-03    -290.763E-03     14.4510E-03
            1695     2.01874E-03     68.9446E-03    -97.3238E+06    -171.826E+06    -87.2455E+06     118.675E+03    -290.684E-03     581.420E-03    -290.736E-03     10.4924E-03    -290.795E-03     580.829E-03    -290.782E-03     10.9366E-03
            1696     1.34582E-03     68.9279E-03    -100.298E+06    -186.438E+06    -95.1303E+06     89.2863E+03    -290.712E-03     581.447E-03    -290.735E-03     7.08243E-03    -290.806E-03     580.798E-03    -290.795E-03     7.40538E-03
            1697     672.905E-06     68.9177E-03    -102.279E+06    -191.804E+06    -100.925E+06     67.7296E+03    -290.737E-03     581.442E-03    -290.705E-03     3.85481E-03    -290.824E-03     580.778E-03    -290.783E-03     4.03870E-03
            1698     12.7913E-03     68.2577E-03    -4.39192E+06     59.6551E+06     82.2983E+06    -94.3339E+03    -290.469E-03     581.116E-03    -290.648E-03     48.8521E-03    -290.899E-03     581.504E-03    -290.316E-03     43.3718E-03
            1699     12.1178E-03     68.1700E-03    -9.45076E+06     55.3771E+06     82.1004E+06    -181.205E+03    -290.588E-03     581.267E-03    -290.680E-03     53.8571E-03    -291.081E-03     581.686E-03    -290.336E-03     47.8119E-03
            1700     11.4443E-03     68.0835E-03    -15.0877E+06     49.3560E+06     79.8352E+06    -166.804E+03    -290.598E-03     581.305E-03    -290.707E-03     52.9981E-03    -291.077E-03     581.674E-03    -290.358E-03     47.6098E-03
            1701     10.7709E-03     67.9966E-03    -20.9422E+06     43.5561E+06     74.7410E+06    -64.7907E+03    -290.601E-03     581.324E-03    -290.723E-03     52.1857E-03    -291.073E-03     581.659E-03    -290.382E-03     47.3209E-03
            1702     10.0974E-03     67.9112E-03    -26.7719E+06     38.3429E+06     66.0430E+06     88.6944E+03    -290.583E-03     581.305E-03    -290.722E-03     50.3447E-03    -291.030E-03     581.602E-03    -290.408E-03     46.2225E-03
            1703     9.42400E-03     67.8284E-03    -32.6794E+06     31.4829E+06     54.1847E+06     69.8016E+03    -290.564E-03     581.274E-03    -290.710E-03     47.8131E-03    -290.979E-03     581.528E-03    -290.438E-03     44.4924E-03
            1704     8.75059E-03     67.7494E-03    -38.8551E+06     21.1327E+06     42.1213E+06    -17.0826E+03    -290.540E-03     581.246E-03    -290.705E-03     44.7706E-03    -290.922E-03     581.442E-03    -290.469E-03     42.2454E-03
            1705     8.07720E-03     67.6749E-03    -45.1799E+06     11.7915E+06     31.1224E+06     155.135E+03    -290.498E-03     581.204E-03    -290.707E-03     41.4687E-03    -290.854E-03     581.352E-03    -290.503E-03     39.6767E-03
            1706     7.40382E-03     67.6052E-03    -51.5893E+06     4.43176E+06     20.5450E+06     327.507E+03    -290.454E-03     581.164E-03    -290.710E-03     38.1199E-03    -290.796E-03     581.279E-03    -290.539E-03     36.9605E-03
            1707     6.73048E-03     67.5406E-03    -58.1535E+06    -11.4652E+06     8.69644E+06     362.049E+03    -290.441E-03     581.162E-03    -290.722E-03     34.7593E-03    -290.759E-03     581.208E-03    -290.577E-03     34.1282E-03
            1708     6.05719E-03     67.4813E-03    -64.7539E+06    -39.6837E+06    -5.18424E+06     338.478E+03    -290.466E-03     581.207E-03    -290.742E-03     31.3389E-03    -290.744E-03     581.130E-03    -290.616E-03     31.1345E-03
            1709     5.38397E-03     67.4276E-03    -71.2642E+06    -69.2346E+06    -19.7691E+06     325.382E+03    -290.505E-03     581.264E-03    -290.758E-03     27.8621E-03    -290.745E-03     581.062E-03    -290.654E-03     27.9830E-03
            1710     4.71081E-03     67.3798E-03    -77.5508E+06    -94.4569E+06    -34.4544E+06     336.827E+03    -290.548E-03     581.314E-03    -290.766E-03     24.3837E-03    -290.756E-03     581.011E-03    -290.689E-03     24.7325E-03
            1711     4.03771E-03     67.3379E-03    -83.4882E+06    -116.650E+06    -49.0629E+06     278.047E+03    -290.583E-03     581.348E-03    -290.765E-03     20.9104E-03    -290.763E-03     580.960E-03    -290.720E-03     21.3940E-03
            1712     3.36467E-03     67.3022E-03    -88.9040E+06    -136.270E+06    -63.2648E+06     190.900E+03    -290.609E-03     581.370E-03    -290.760E-03     17.4337E-03    -290.766E-03     580.910E-03    -290.750E-03     17.9704E-03
            1713     2.69166E-03     67.2727E-03    -93.5511E+06    -152.986E+06    -76.6319E+06     126.409E+03    -290.643E-03     581.395E-03    -290.752E-03     13.9820E-03    -290.778E-03     580.877E-03    -290.777E-03     14.5007E-03
            1714     2.01869E-03     67.2496E-03    -97.3545E+06    -171.597E+06    -87.2585E+06     85.2139E+03    -290.690E-03     581.444E-03    -290.754E-03     10.5427E-03    -290.802E-03     580.854E-03    -290.800E-03     10.9835E-03
            1715     1.34577E-03     67.2329E-03    -100.344E+06    -186.250E+06    -95.1712E+06     59.7000E+03    -290.727E-03     581.483E-03    -290.756E-03     7.12065E-03    -290.821E-03     580.835E-03    -290.816E-03     7.44179E-03
            1716     672.875E-06     67.2227E-03    -102.268E+06    -191.543E+06    -100.899E+06     33.5994E+03    -290.760E-03     581.487E-03    -290.727E-03     3.88496E-03    -290.847E-03     580.824E-03    -290.806E-03     4.06893E-03
            1717     12.7912E-03     66.5630E-03    -4.54175E+06     59.6587E+06     82.3393E+06     123.869E+03    -290.478E-03     581.127E-03    -290.649E-03     48.8503E-03    -290.909E-03     581.515E-03    -290.317E-03     43.3752E-03
            1718     12.1178E-03     66.4754E-03    -9.30534E+06     55.7231E+06     82.3924E+06     135.452E+03    -290.585E-03     581.266E-03    -290.681E-03     53.8732E-03    -291.079E-03     581.686E-03    -290.336E-03     47.8340E-03
            1719     11.4443E-03     66.3889E-03    -14.4787E+06     49.4636E+06     80.1325E+06    -5.50312E+03    -290.586E-03     581.295E-03    -290.709E-03     53.0305E-03    -291.063E-03     581.664E-03    -290.359E-03     47.6456E-03
            1720     10.7709E-03     66.3020E-03    -20.1304E+06     43.5539E+06     75.0301E+06    -113.212E+03    -290.582E-03     581.308E-03    -290.725E-03     52.2225E-03    -291.050E-03     581.641E-03    -290.384E-03     47.3562E-03
            1721     10.0974E-03     66.2166E-03    -26.2525E+06     38.1461E+06     66.1658E+06    -165.789E+03    -290.566E-03     581.293E-03    -290.726E-03     50.3876E-03    -291.011E-03     581.588E-03    -290.413E-03     46.2607E-03
            1722     9.42395E-03     66.1338E-03    -32.5601E+06     31.3131E+06     54.0996E+06     21.4535E+03    -290.547E-03     581.263E-03    -290.716E-03     47.8608E-03    -290.962E-03     581.517E-03    -290.444E-03     44.5382E-03
            1723     8.75050E-03     66.0548E-03    -38.8679E+06     21.2380E+06     42.0197E+06     200.213E+03    -290.523E-03     581.236E-03    -290.713E-03     44.8159E-03    -290.905E-03     581.433E-03    -290.477E-03     42.2894E-03
            1724     8.07709E-03     65.9802E-03    -45.2061E+06     11.5411E+06     30.9870E+06     149.849E+03    -290.494E-03     581.210E-03    -290.716E-03     41.5216E-03    -290.850E-03     581.357E-03    -290.513E-03     39.7272E-03
            1725     7.40373E-03     65.9105E-03    -51.6325E+06     4.33258E+06     20.4323E+06     173.129E+03    -290.454E-03     581.174E-03    -290.721E-03     38.1713E-03    -290.795E-03     581.289E-03    -290.550E-03     37.0071E-03
            1726     6.73040E-03     65.8459E-03    -58.1914E+06    -11.3997E+06     8.58358E+06     239.418E+03    -290.437E-03     581.170E-03    -290.734E-03     34.8005E-03    -290.756E-03     581.217E-03    -290.590E-03     34.1608E-03
            1727     6.05711E-03     65.7865E-03    -64.8088E+06    -39.4716E+06    -5.25862E+06     251.888E+03    -290.469E-03     581.224E-03    -290.755E-03     31.3734E-03    -290.749E-03     581.149E-03    -290.630E-03     31.1609E-03
            1728     5.38388E-03     65.7328E-03    -71.2912E+06    -69.1635E+06    -19.7255E+06     247.488E+03    -290.520E-03     581.293E-03    -290.773E-03     27.8978E-03    -290.760E-03     581.092E-03    -290.668E-03     28.0125E-03
            1729     4.71074E-03     65.6849E-03    -77.5247E+06    -94.2763E+06    -34.3206E+06     239.189E+03    -290.559E-03     581.340E-03    -290.781E-03     24.4247E-03    -290.766E-03     581.037E-03    -290.703E-03     24.7668E-03
            1730     4.03764E-03     65.6430E-03    -83.4320E+06    -116.273E+06    -48.9574E+06     206.940E+03    -290.587E-03     581.368E-03    -290.781E-03     20.9571E-03    -290.768E-03     580.982E-03    -290.737E-03     21.4338E-03
            1731     3.36459E-03     65.6072E-03    -88.8462E+06    -136.003E+06    -63.1934E+06     149.350E+03    -290.621E-03     581.399E-03    -290.778E-03     17.4844E-03    -290.778E-03     580.941E-03    -290.768E-03     18.0159E-03
            1732     2.69159E-03     65.5777E-03    -93.5441E+06    -152.776E+06    -76.5882E+06     121.025E+03    -290.658E-03     581.429E-03    -290.771E-03     14.0145E-03    -290.794E-03     580.912E-03    -290.797E-03     14.5291E-03
            1733     2.01864E-03     65.5546E-03    -97.3382E+06    -171.399E+06    -87.2345E+06     104.755E+03    -290.706E-03     581.480E-03    -290.774E-03     10.5404E-03    -290.817E-03     580.890E-03    -290.821E-03     10.9773E-03
            1734     1.34573E-03     65.5379E-03    -100.266E+06    -186.020E+06    -95.1291E+06     59.1448E+03    -290.747E-03     581.524E-03    -290.777E-03     7.10472E-03    -290.841E-03     580.877E-03    -290.838E-03     7.42362E-03
            1735     672.864E-06     65.5276E-03    -102.270E+06    -191.377E+06    -100.911E+06     15.4564E+03    -290.780E-03     581.531E-03    -290.751E-03     3.86239E-03    -290.867E-03     580.869E-03    -290.830E-03     4.04465E-03
            1736     12.7912E-03     64.8684E-03    -4.30347E+06     59.6144E+06     82.5721E+06     150.144E+03    -290.465E-03     581.116E-03    -290.651E-03     48.8358E-03    -290.895E-03     581.503E-03    -290.319E-03     43.3618E-03
            1737     12.1178E-03     64.7808E-03    -9.13188E+06     56.0935E+06     82.5461E+06     57.7139E+03    -290.567E-03     581.250E-03    -290.684E-03     53.8795E-03    -291.060E-03     581.671E-03    -290.339E-03     47.8428E-03
            1738     11.4443E-03     64.6943E-03    -14.5702E+06     49.7742E+06     80.1191E+06    -41.4119E+03    -290.565E-03     581.277E-03    -290.712E-03     53.0564E-03    -291.043E-03     581.648E-03    -290.363E-03     47.6709E-03
            1739     10.7708E-03     64.6074E-03    -20.4297E+06     43.8689E+06     74.8219E+06    -148.094E+03    -290.560E-03     581.289E-03    -290.730E-03     52.2559E-03    -291.030E-03     581.626E-03    -290.390E-03     47.3862E-03
            1740     10.0973E-03     64.5221E-03    -26.4439E+06     37.8756E+06     65.8956E+06    -97.3983E+03    -290.550E-03     581.283E-03    -290.733E-03     50.4282E-03    -290.996E-03     581.578E-03    -290.420E-03     46.3000E-03
            1741     9.42386E-03     64.4392E-03    -32.5752E+06     30.6738E+06     54.0274E+06     130.194E+03    -290.537E-03     581.263E-03    -290.725E-03     47.9005E-03    -290.951E-03     581.513E-03    -290.453E-03     44.5755E-03
            1742     8.75042E-03     64.3602E-03    -38.7652E+06     21.3189E+06     42.1871E+06     270.501E+03    -290.521E-03     581.244E-03    -290.724E-03     44.8527E-03    -290.903E-03     581.442E-03    -290.487E-03     42.3224E-03
            1743     8.07702E-03     64.2855E-03    -45.0262E+06     11.8274E+06     31.1177E+06     236.593E+03    -290.495E-03     581.223E-03    -290.727E-03     41.5568E-03    -290.851E-03     581.371E-03    -290.524E-03     39.7573E-03
            1744     7.40365E-03     64.2158E-03    -51.5041E+06     4.32322E+06     20.4659E+06     174.253E+03    -290.449E-03     581.182E-03    -290.733E-03     38.2118E-03    -290.790E-03     581.296E-03    -290.562E-03     37.0400E-03
            1745     6.73030E-03     64.1511E-03    -58.1474E+06    -11.3332E+06     8.62275E+06     172.638E+03    -290.438E-03     581.185E-03    -290.747E-03     34.8473E-03    -290.756E-03     581.232E-03    -290.604E-03     34.2001E-03
            1746     6.05702E-03     64.0917E-03    -64.7504E+06    -39.3639E+06    -5.22346E+06     160.117E+03    -290.482E-03     581.252E-03    -290.769E-03     31.4182E-03    -290.762E-03     581.177E-03    -290.645E-03     31.1974E-03
            1747     5.38382E-03     64.0379E-03    -71.2258E+06    -69.0127E+06    -19.7365E+06     134.159E+03    -290.528E-03     581.316E-03    -290.788E-03     27.9449E-03    -290.768E-03     581.115E-03    -290.684E-03     28.0507E-03
            1748     4.71067E-03     63.9900E-03    -77.5130E+06    -94.1117E+06    -34.3617E+06     115.275E+03    -290.560E-03     581.358E-03    -290.798E-03     24.4714E-03    -290.768E-03     581.056E-03    -290.721E-03     24.8043E-03
            1749     4.03756E-03     63.9480E-03    -83.4376E+06    -116.142E+06    -48.9748E+06     121.394E+03    -290.600E-03     581.400E-03    -290.800E-03     20.9928E-03    -290.781E-03     581.014E-03    -290.756E-03     21.4621E-03
            1750     3.36452E-03     63.9122E-03    -88.8272E+06    -135.815E+06    -63.2082E+06     137.861E+03    -290.645E-03     581.442E-03    -290.797E-03     17.5002E-03    -290.802E-03     580.984E-03    -290.787E-03     18.0256E-03
            1751     2.69155E-03     63.8826E-03    -93.4571E+06    -152.572E+06    -76.5933E+06     109.923E+03    -290.683E-03     581.470E-03    -290.788E-03     14.0220E-03    -290.818E-03     580.954E-03    -290.814E-03     14.5305E-03
            1752     2.01863E-03     63.8594E-03    -97.2451E+06    -171.196E+06    -87.1959E+06     70.7083E+03    -290.726E-03     581.515E-03    -290.790E-03     10.5586E-03    -290.837E-03     580.927E-03    -290.836E-03     10.9909E-03
            1753     1.34574E-03     63.8428E-03    -100.226E+06    -185.831E+06    -95.0614E+06     60.2208E+03    -290.762E-03     581.555E-03    -290.792E-03     7.13044E-03    -290.856E-03     580.909E-03    -290.853E-03     7.44704E-03
            1754     672.858E-06     63.8324E-03    -102.184E+06    -191.152E+06    -100.801E+06     54.5905E+03    -290.802E-03     581.561E-03    -290.760E-03     3.87309E-03    -290.889E-03     580.900E-03    -290.839E-03     4.05434E-03
            1755     12.7912E-03     63.1738E-03    -4.33253E+06     59.4381E+06     82.3677E+06     70.2871E+03    -290.437E-03     581.090E-03    -290.652E-03     48.8237E-03    -290.866E-03     581.476E-03    -290.321E-03     43.3491E-03
            1756     12.1177E-03     63.0862E-03    -9.21876E+06     56.1480E+06     82.3156E+06     271.475E+03    -290.536E-03     581.223E-03    -290.686E-03     53.8739E-03    -291.030E-03     581.644E-03    -290.343E-03     47.8419E-03
            1757     11.4442E-03     62.9997E-03    -14.6003E+06     50.5148E+06     80.0809E+06     137.902E+03    -290.536E-03     581.253E-03    -290.717E-03     53.0652E-03    -291.015E-03     581.627E-03    -290.368E-03     47.6821E-03
            1758     10.7707E-03     62.9129E-03    -20.3343E+06     44.1792E+06     74.8896E+06    -137.638E+03    -290.543E-03     581.280E-03    -290.737E-03     52.2769E-03    -291.013E-03     581.618E-03    -290.397E-03     47.4045E-03
            1759     10.0972E-03     62.8275E-03    -26.4233E+06     37.2943E+06     65.8544E+06    -74.6563E+03    -290.542E-03     581.284E-03    -290.742E-03     50.4487E-03    -290.987E-03     581.576E-03    -290.429E-03     46.3161E-03
            1760     9.42375E-03     62.7447E-03    -32.6302E+06     30.3850E+06     53.9552E+06     99.3462E+03    -290.534E-03     581.269E-03    -290.735E-03     47.9251E-03    -290.948E-03     581.519E-03    -290.462E-03     44.5939E-03
            1761     8.75032E-03     62.6655E-03    -38.7886E+06     21.3235E+06     42.1555E+06     133.376E+03    -290.519E-03     581.253E-03    -290.734E-03     44.8976E-03    -290.901E-03     581.451E-03    -290.498E-03     42.3591E-03
            1762     8.07692E-03     62.5908E-03    -45.0173E+06     12.0048E+06     31.2121E+06     162.667E+03    -290.487E-03     581.227E-03    -290.740E-03     41.6188E-03    -290.844E-03     581.376E-03    -290.536E-03     39.8090E-03
            1763     7.40355E-03     62.5211E-03    -51.4056E+06     4.49464E+06     20.6216E+06     166.804E+03    -290.448E-03     581.196E-03    -290.747E-03     38.2780E-03    -290.790E-03     581.311E-03    -290.576E-03     37.0970E-03
            1764     6.73020E-03     62.4563E-03    -57.9580E+06    -11.2365E+06     8.75411E+06     129.980E+03    -290.446E-03     581.209E-03    -290.763E-03     34.9071E-03    -290.765E-03     581.257E-03    -290.619E-03     34.2511E-03
            1765     6.05693E-03     62.3968E-03    -64.5970E+06    -39.2852E+06    -5.16335E+06     143.822E+03    -290.486E-03     581.272E-03    -290.786E-03     31.4738E-03    -290.765E-03     581.197E-03    -290.661E-03     31.2434E-03
            1766     5.38371E-03     62.3430E-03    -71.1488E+06    -68.8328E+06    -19.7772E+06     152.175E+03    -290.531E-03     581.337E-03    -290.806E-03     28.0017E-03    -290.771E-03     581.137E-03    -290.702E-03     28.0982E-03
            1767     4.71056E-03     62.2950E-03    -77.4406E+06    -93.9503E+06    -34.4360E+06     111.581E+03    -290.575E-03     581.391E-03    -290.816E-03     24.5238E-03    -290.783E-03     581.091E-03    -290.740E-03     24.8499E-03
            1768     4.03748E-03     62.2530E-03    -83.3670E+06    -116.094E+06    -49.0218E+06     85.6967E+03    -290.622E-03     581.442E-03    -290.820E-03     21.0433E-03    -290.803E-03     581.057E-03    -290.775E-03     21.5064E-03
            1769     3.36448E-03     62.2171E-03    -88.7794E+06    -135.676E+06    -63.2134E+06     79.2004E+03    -290.663E-03     581.479E-03    -290.816E-03     17.5609E-03    -290.820E-03     581.022E-03    -290.807E-03     18.0786E-03
            1770     2.69151E-03     62.1875E-03    -93.4728E+06    -152.392E+06    -76.5790E+06     84.7247E+03    -290.696E-03     581.505E-03    -290.809E-03     14.0889E-03    -290.832E-03     580.990E-03    -290.835E-03     14.5914E-03
            1771     2.01857E-03     62.1643E-03    -97.2758E+06    -171.019E+06    -87.2004E+06     84.7781E+03    -290.743E-03     581.556E-03    -290.813E-03     10.6198E-03    -290.855E-03     580.969E-03    -290.860E-03     11.0489E-03
            1772     1.34568E-03     62.1476E-03    -100.213E+06    -185.642E+06    -95.0856E+06     45.7201E+03    -290.786E-03     581.604E-03    -290.817E-03     7.17260E-03    -290.880E-03     580.958E-03    -290.878E-03     7.48656E-03
            1773     672.837E-06     62.1373E-03    -102.180E+06    -190.961E+06    -100.814E+06     5.03446E+03    -290.823E-03     581.612E-03    -290.789E-03     3.90098E-03    -290.911E-03     580.952E-03    -290.868E-03     4.07914E-03
            1774     12.7912E-03     61.4792E-03    -4.45620E+06     59.1615E+06     82.0162E+06     27.3262E+03    -290.404E-03     581.058E-03    -290.654E-03     48.8090E-03    -290.833E-03     581.443E-03    -290.323E-03     43.3353E-03
            1775     12.1177E-03     61.3917E-03    -9.09737E+06     55.9876E+06     82.2143E+06     33.7797E+03    -290.509E-03     581.199E-03    -290.690E-03     53.8670E-03    -291.001E-03     581.619E-03    -290.347E-03     47.8300E-03
            1776     11.4441E-03     61.3052E-03    -14.2280E+06     50.9239E+06     80.1918E+06     119.245E+03    -290.510E-03     581.232E-03    -290.722E-03     53.0643E-03    -290.989E-03     581.608E-03    -290.374E-03     47.6793E-03
            1777     10.7706E-03     61.2184E-03    -20.0849E+06     44.5266E+06     74.9399E+06     173.721E+03    -290.524E-03     581.268E-03    -290.744E-03     52.2798E-03    -290.994E-03     581.607E-03    -290.405E-03     47.4097E-03
            1778     10.0971E-03     61.1329E-03    -26.2344E+06     37.2819E+06     65.9052E+06     35.2283E+03    -290.535E-03     581.286E-03    -290.751E-03     50.4696E-03    -290.979E-03     581.579E-03    -290.438E-03     46.3329E-03
            1779     9.42368E-03     61.0501E-03    -32.3251E+06     30.1255E+06     54.1198E+06    -8.11665E+03    -290.527E-03     581.273E-03    -290.747E-03     47.9657E-03    -290.939E-03     581.521E-03    -290.473E-03     44.6254E-03
            1780     8.75023E-03     60.9709E-03    -38.4905E+06     21.3225E+06     42.3740E+06     117.079E+03    -290.502E-03     581.249E-03    -290.747E-03     44.9527E-03    -290.883E-03     581.446E-03    -290.510E-03     42.4059E-03
            1781     8.07680E-03     60.8962E-03    -44.7894E+06     12.1350E+06     31.3597E+06     110.056E+03    -290.479E-03     581.233E-03    -290.755E-03     41.6853E-03    -290.835E-03     581.383E-03    -290.551E-03     39.8665E-03
            1782     7.40341E-03     60.8263E-03    -51.2091E+06     4.49291E+06     20.6788E+06     98.4465E+03    -290.454E-03     581.217E-03    -290.764E-03     38.3506E-03    -290.795E-03     581.333E-03    -290.593E-03     37.1588E-03
            1783     6.73009E-03     60.7614E-03    -57.8330E+06    -11.2120E+06     8.76606E+06     189.406E+03    -290.445E-03     581.226E-03    -290.781E-03     34.9875E-03    -290.764E-03     581.274E-03    -290.637E-03     34.3203E-03
            1784     6.05681E-03     60.7019E-03    -64.5484E+06    -39.1704E+06    -5.16673E+06     236.487E+03    -290.483E-03     581.289E-03    -290.806E-03     31.5629E-03    -290.762E-03     581.215E-03    -290.681E-03     31.3233E-03
            1785     5.38359E-03     60.6481E-03    -71.0923E+06    -68.6448E+06    -19.7688E+06     210.235E+03    -290.545E-03     581.373E-03    -290.828E-03     28.0850E-03    -290.785E-03     581.174E-03    -290.724E-03     28.1745E-03
            1786     4.71047E-03     60.6000E-03    -77.3745E+06    -93.7568E+06    -34.4175E+06     167.067E+03    -290.596E-03     581.435E-03    -290.840E-03     24.5987E-03    -290.804E-03     581.136E-03    -290.764E-03     24.9181E-03
            1787     4.03740E-03     60.5579E-03    -83.3462E+06    -115.927E+06    -49.0085E+06     137.742E+03    -290.633E-03     581.477E-03    -290.845E-03     21.1248E-03    -290.814E-03     581.093E-03    -290.801E-03     21.5797E-03
            1788     3.36437E-03     60.5219E-03    -88.8415E+06    -135.540E+06    -63.2369E+06     130.136E+03    -290.673E-03     581.517E-03    -290.845E-03     17.6402E-03    -290.830E-03     581.062E-03    -290.835E-03     18.1493E-03
            1789     2.69140E-03     60.4923E-03    -93.5290E+06    -152.255E+06    -76.6185E+06     110.949E+03    -290.719E-03     581.559E-03    -290.840E-03     14.1455E-03    -290.855E-03     581.045E-03    -290.867E-03     14.6412E-03
            1790     2.01849E-03     60.4690E-03    -97.2916E+06    -170.823E+06    -87.2203E+06     70.1347E+03    -290.775E-03     581.621E-03    -290.846E-03     10.6539E-03    -290.887E-03     581.034E-03    -290.893E-03     11.0779E-03
            1791     1.34565E-03     60.4523E-03    -100.270E+06    -185.438E+06    -95.1135E+06     48.3590E+03    -290.819E-03     581.669E-03    -290.849E-03     7.19307E-03    -290.914E-03     581.025E-03    -290.911E-03     7.50298E-03
            1792     672.818E-06     60.4419E-03    -102.257E+06    -190.799E+06    -100.893E+06     31.2890E+03    -290.851E-03     581.676E-03    -290.825E-03     3.89887E-03    -290.939E-03     581.017E-03    -290.904E-03     4.07488E-03
            1793     12.7912E-03     59.7847E-03    -4.24277E+06      59.278E+06     82.2532E+06    -22.7023E+03    -290.384E-03     581.041E-03    -290.657E-03     48.7990E-03    -290.813E-03     581.426E-03    -290.325E-03     43.3248E-03
            1794     12.1176E-03     59.6972E-03    -9.17777E+06     55.9865E+06     82.2218E+06    -33.9715E+03    -290.485E-03     581.178E-03    -290.694E-03     53.8541E-03    -290.978E-03     581.599E-03    -290.350E-03     47.8141E-03
            1795     11.4441E-03     59.6107E-03    -14.6744E+06     50.4577E+06     79.9633E+06     107.755E+03    -290.487E-03     581.214E-03    -290.727E-03     53.0635E-03    -290.967E-03     581.589E-03    -290.379E-03     47.6758E-03
            1796     10.7706E-03     59.5239E-03    -20.3886E+06     44.6641E+06     74.7852E+06     250.712E+03    -290.499E-03     581.249E-03    -290.751E-03     52.2912E-03    -290.970E-03     581.590E-03    -290.412E-03     47.4209E-03
            1797     10.0970E-03     59.4384E-03    -26.3930E+06     38.0887E+06     65.8076E+06     82.4995E+03    -290.503E-03     581.262E-03    -290.759E-03     50.4978E-03    -290.949E-03     581.559E-03    -290.447E-03     46.3562E-03
            1798     9.42356E-03     59.3555E-03    -32.6052E+06     30.1421E+06     53.8823E+06    -167.115E+03    -290.494E-03     581.252E-03    -290.758E-03     48.0282E-03    -290.909E-03     581.502E-03    -290.485E-03     44.6759E-03
            1799     8.75008E-03     59.2763E-03    -38.7111E+06     21.0104E+06     42.1686E+06    -150.739E+03    -290.485E-03     581.247E-03    -290.762E-03     45.0424E-03    -290.867E-03     581.444E-03    -290.526E-03     42.4837E-03
            1800     8.07666E-03     59.2015E-03    -44.8352E+06     12.0495E+06     31.2209E+06     31.2015E+03    -290.474E-03     581.245E-03    -290.772E-03     41.7829E-03    -290.830E-03     581.395E-03    -290.568E-03     39.9548E-03
            1801     7.40330E-03     59.1315E-03    -51.2958E+06     4.31213E+06     20.5296E+06     207.668E+03    -290.441E-03     581.225E-03    -290.784E-03     38.4564E-03    -290.782E-03     581.340E-03    -290.613E-03     37.2536E-03
            1802     6.72993E-03     59.0666E-03    -57.9997E+06    -11.2154E+06     8.64948E+06     311.281E+03    -290.436E-03     581.240E-03    -290.804E-03     35.0981E-03    -290.756E-03     581.289E-03    -290.660E-03     34.4198E-03
            1803     6.05663E-03     59.0070E-03    -64.6220E+06    -38.9825E+06    -5.21732E+06     288.029E+03    -290.494E-03     581.326E-03    -290.832E-03     31.6629E-03    -290.774E-03     581.253E-03    -290.708E-03     31.4144E-03
            1804     5.38344E-03     58.9530E-03    -71.1150E+06    -68.4272E+06    -19.7692E+06     245.000E+03    -290.559E-03     581.415E-03    -290.856E-03     28.1788E-03    -290.800E-03     581.218E-03    -290.753E-03     28.2604E-03
            1805     4.71032E-03     58.9049E-03    -77.4533E+06    -93.5566E+06    -34.4328E+06     242.061E+03    -290.606E-03     581.477E-03    -290.870E-03     24.6941E-03    -290.815E-03     581.178E-03    -290.795E-03     25.0032E-03
            1806     4.03725E-03     58.8627E-03    -83.4389E+06    -115.720E+06    -49.0679E+06     228.936E+03    -290.651E-03     581.529E-03    -290.878E-03     21.2117E-03    -290.833E-03     581.146E-03    -290.834E-03     21.6558E-03
            1807     3.36425E-03     58.8267E-03    -88.8450E+06    -135.310E+06    -63.2914E+06     176.757E+03    -290.702E-03     581.582E-03    -290.880E-03     17.7085E-03    -290.860E-03     581.128E-03    -290.871E-03     18.2098E-03
            1808     2.69132E-03     58.7970E-03     -93.496E+06    -152.022E+06    -76.6493E+06     113.234E+03    -290.753E-03     581.630E-03    -290.877E-03     14.2006E-03    -290.890E-03     581.117E-03    -290.904E-03     14.6893E-03
            1809     2.01844E-03     58.7737E-03    -97.3126E+06    -170.626E+06    -87.2574E+06     86.7707E+03    -290.809E-03     581.693E-03    -290.883E-03     10.7052E-03    -290.922E-03     581.107E-03    -290.931E-03     11.1231E-03
            1810     1.34559E-03     58.7569E-03    -100.283E+06    -185.250E+06    -95.1459E+06     64.8429E+03    -290.853E-03     581.742E-03    -290.889E-03     7.23747E-03    -290.948E-03     581.099E-03    -290.951E-03     7.54332E-03
            1811     672.791E-06     58.7465E-03    -102.252E+06    -190.579E+06    -100.882E+06     32.7958E+03    -290.895E-03     581.759E-03    -290.864E-03     3.93450E-03    -290.983E-03     581.100E-03    -290.944E-03     4.10906E-03
            1812     12.7911E-03     58.0902E-03    -4.52140E+06     59.2159E+06     82.2077E+06    -8.40248E+03    -290.361E-03     581.020E-03    -290.659E-03     48.7844E-03    -290.790E-03     581.406E-03    -290.328E-03     43.3112E-03
            1813     12.1176E-03     58.0028E-03    -9.31975E+06     55.8816E+06     82.2839E+06     123.095E+03    -290.460E-03     581.159E-03    -290.698E-03     53.8625E-03    -290.954E-03     581.579E-03    -290.354E-03     47.8260E-03
            1814     11.4440E-03     57.9163E-03    -14.5352E+06     50.4124E+06     80.1103E+06     95.2484E+03    -290.465E-03     581.199E-03    -290.734E-03     53.0992E-03    -290.945E-03     581.573E-03    -290.385E-03     47.7102E-03
            1815     10.7705E-03     57.8294E-03    -20.2358E+06     44.5235E+06     74.9407E+06     57.0257E+03    -290.469E-03     581.228E-03    -290.759E-03     52.3439E-03    -290.940E-03     581.568E-03    -290.420E-03     47.4669E-03
            1816     10.0970E-03     57.7439E-03    -26.3137E+06     38.4933E+06     65.9436E+06     203.363E+03    -290.457E-03     581.227E-03    -290.770E-03     50.5581E-03    -290.905E-03     581.527E-03    -290.458E-03     46.4121E-03
            1817     9.42341E-03     57.6610E-03    -32.5691E+06     30.9851E+06     53.7945E+06     45.3351E+03    -290.456E-03     581.227E-03    -290.771E-03     48.0972E-03    -290.872E-03     581.481E-03    -290.500E-03     44.7410E-03
            1818     8.74992E-03     57.5816E-03    -38.8646E+06     20.8573E+06     41.7475E+06    -258.876E+03    -290.464E-03     581.243E-03    -290.779E-03     45.1355E-03    -290.847E-03     581.441E-03    -290.544E-03     42.5664E-03
            1819     8.07649E-03     57.5067E-03    -45.2206E+06     11.3275E+06     30.7794E+06    -86.6439E+03    -290.450E-03     581.244E-03    -290.793E-03     41.8997E-03    -290.808E-03     581.392E-03    -290.590E-03     40.0561E-03
            1820     7.40307E-03     57.4367E-03    -51.6521E+06     4.10839E+06     20.2517E+06     199.243E+03    -290.425E-03     581.234E-03    -290.809E-03     38.5780E-03    -290.768E-03     581.350E-03    -290.639E-03     37.3606E-03
            1821     6.72971E-03     57.3717E-03    -58.1430E+06    -11.1808E+06     8.47812E+06     249.033E+03    -290.442E-03     581.275E-03    -290.833E-03     35.2129E-03    -290.762E-03     581.325E-03    -290.690E-03     34.5217E-03
            1822     6.05646E-03     57.3120E-03    -64.7381E+06    -38.7969E+06    -5.32584E+06     263.744E+03    -290.505E-03     581.368E-03    -290.864E-03     31.7748E-03    -290.786E-03     581.297E-03    -290.740E-03     31.5131E-03
            1823     5.38327E-03     57.2579E-03    -71.2728E+06    -68.2543E+06    -19.8681E+06     267.159E+03    -290.567E-03     581.458E-03    -290.891E-03     28.2885E-03    -290.809E-03     581.262E-03    -290.788E-03     28.3573E-03
            1824     4.71013E-03     57.2097E-03    -77.5524E+06    -93.3696E+06    -34.5279E+06     259.212E+03    -290.623E-03     581.532E-03    -290.909E-03     24.7930E-03    -290.833E-03     581.235E-03    -290.833E-03     25.0909E-03
            1825     4.03709E-03     57.1674E-03    -83.4447E+06    -115.451E+06    -49.1368E+06     214.632E+03    -290.682E-03     581.601E-03    -290.919E-03     21.3032E-03    -290.865E-03     581.220E-03    -290.876E-03     21.7359E-03
            1826     3.36411E-03     57.1313E-03    -88.8433E+06    -135.038E+06    -63.3324E+06     160.556E+03    -290.737E-03     581.660E-03    -290.923E-03     17.8042E-03    -290.896E-03     581.207E-03    -290.915E-03     18.2954E-03
            1827     2.69119E-03     57.1015E-03    -93.5381E+06    -151.789E+06    -76.6982E+06     145.727E+03    -290.788E-03     581.710E-03    -290.922E-03     14.2909E-03    -290.925E-03     581.199E-03    -290.950E-03     14.7713E-03
            1828     2.01832E-03     57.0782E-03    -97.3220E+06    -170.403E+06    -87.2893E+06     112.077E+03    -290.850E-03     581.781E-03    -290.931E-03     10.7741E-03    -290.963E-03     581.197E-03    -290.979E-03     11.1852E-03
            1829     1.34553E-03     57.0613E-03    -100.269E+06    -185.023E+06    -95.1361E+06     72.1810E+03    -290.901E-03     581.840E-03    -290.939E-03     7.27583E-03    -290.996E-03     581.198E-03    -291.001E-03     7.57738E-03
            1830     672.740E-06     57.0509E-03    -102.228E+06    -190.337E+06    -100.879E+06     43.3635E+03    -290.943E-03     581.860E-03    -290.917E-03     3.95676E-03    -291.032E-03     581.203E-03    -290.997E-03     4.12949E-03
            1831     12.7911E-03     56.3957E-03    -4.31840E+06     59.1092E+06     82.2612E+06     69.5811E+03    -290.323E-03     580.985E-03    -290.663E-03     48.7712E-03    -290.751E-03     581.369E-03    -290.331E-03     43.3006E-03
            1832     12.1175E-03     56.3084E-03    -9.16317E+06     55.7941E+06     82.3117E+06     65.0137E+03    -290.426E-03     581.130E-03    -290.704E-03     53.8760E-03    -290.919E-03     581.549E-03    -290.360E-03     47.8420E-03
            1833     11.4440E-03     56.2218E-03    -14.5466E+06     50.7375E+06     80.1963E+06     38.7666E+03    -290.428E-03     581.169E-03    -290.741E-03     53.1435E-03    -290.908E-03     581.545E-03    -290.393E-03     47.7513E-03
            1834     10.7704E-03     56.1350E-03    -20.3341E+06     44.4521E+06     74.9021E+06     10.4562E+03    -290.424E-03     581.194E-03    -290.770E-03     52.4096E-03    -290.896E-03     581.534E-03    -290.431E-03     47.5227E-03
            1835     10.0968E-03     56.0494E-03    -26.3173E+06      38.226E+06     65.8877E+06     65.0613E+03    -290.420E-03     581.205E-03    -290.785E-03     50.6422E-03    -290.867E-03     581.503E-03    -290.473E-03     46.4866E-03
            1836     9.42325E-03     55.9664E-03    -32.3737E+06     31.5588E+06     53.9520E+06     163.731E+03    -290.427E-03     581.216E-03    -290.789E-03     48.1968E-03    -290.844E-03     581.473E-03    -290.518E-03     44.8367E-03
            1837     8.74974E-03     55.8870E-03    -38.6392E+06     21.1242E+06     41.8379E+06     186.440E+03    -290.431E-03     581.232E-03    -290.801E-03     45.2422E-03    -290.814E-03     581.432E-03    -290.566E-03     42.6663E-03
            1838     8.07626E-03     55.8121E-03    -45.0718E+06     10.9659E+06     30.6887E+06     136.543E+03    -290.426E-03     581.246E-03    -290.820E-03     42.0132E-03    -290.783E-03     581.393E-03    -290.617E-03     40.1569E-03
            1839     7.40285E-03     55.7419E-03    -51.5452E+06     3.93309E+06     20.1460E+06     128.725E+03    -290.420E-03     581.260E-03    -290.840E-03     38.6992E-03    -290.762E-03     581.375E-03    -290.670E-03     37.4675E-03
            1840     6.72951E-03     55.6767E-03    -58.1905E+06    -11.1647E+06     8.36789E+06     207.484E+03    -290.441E-03     581.308E-03    -290.867E-03     35.3447E-03    -290.762E-03     581.358E-03    -290.725E-03     34.6386E-03
            1841     6.05621E-03     55.6169E-03    -64.8656E+06    -38.6707E+06    -5.46345E+06     245.050E+03    -290.505E-03     581.408E-03    -290.902E-03     31.9131E-03    -290.788E-03     581.338E-03    -290.779E-03     31.6362E-03
            1842     5.38301E-03     55.5627E-03    -71.3386E+06    -68.1133E+06    -19.9976E+06     230.953E+03    -290.584E-03     581.517E-03    -290.933E-03     28.4162E-03    -290.826E-03     581.323E-03    -290.831E-03     28.4686E-03
            1843     4.70992E-03     55.5144E-03    -77.5732E+06    -93.1585E+06    -34.5966E+06     189.591E+03    -290.649E-03     581.604E-03    -290.955E-03     24.9167E-03    -290.859E-03     581.308E-03    -290.880E-03     25.2002E-03
            1844     4.03688E-03     55.4720E-03    -83.5289E+06    -115.225E+06    -49.1903E+06     180.478E+03    -290.712E-03     581.681E-03    -290.968E-03     21.4254E-03    -290.896E-03     581.301E-03    -290.926E-03     21.8457E-03
            1845     3.36392E-03     55.4358E-03    -88.9624E+06    -134.842E+06    -63.3995E+06     179.840E+03    -290.779E-03     581.754E-03    -290.975E-03     17.9084E-03    -290.938E-03     581.303E-03    -290.968E-03     18.3870E-03
            1846     2.69104E-03     55.4059E-03    -93.5899E+06    -151.556E+06    -76.7418E+06     139.760E+03    -290.840E-03     581.817E-03    -290.976E-03     14.3654E-03    -290.978E-03     581.307E-03    -291.004E-03     14.8354E-03
            1847     2.01821E-03     55.3825E-03    -97.3539E+06    -170.147E+06    -87.3193E+06     98.9907E+03    -290.907E-03     581.892E-03    -290.985E-03     10.8198E-03    -291.021E-03     581.310E-03    -291.034E-03     11.2231E-03
            1848     1.34544E-03     55.3656E-03    -100.316E+06    -184.790E+06    -95.1820E+06     62.3141E+03    -290.959E-03     581.951E-03    -290.992E-03     7.30513E-03    -291.054E-03     581.310E-03    -291.054E-03     7.60046E-03
            1849     672.732E-06     55.3551E-03    -102.293E+06    -190.107E+06    -100.908E+06     33.3792E+03    -290.994E-03     581.964E-03    -290.970E-03     3.97598E-03    -291.083E-03     581.308E-03    -291.050E-03     4.14535E-03
            1850     12.7910E-03     54.7014E-03    -4.41538E+06     59.1235E+06     82.1228E+06     34.7522E+03    -290.273E-03     580.939E-03    -290.665E-03     48.7636E-03    -290.702E-03     581.323E-03    -290.334E-03     43.2965E-03
            1851     12.1175E-03     54.6140E-03    -9.21648E+06     55.9089E+06     82.1770E+06     17.4061E+03    -290.377E-03     581.086E-03    -290.709E-03     53.8883E-03    -290.870E-03     581.506E-03    -290.366E-03     47.8532E-03
            1852     11.4438E-03     54.5275E-03    -14.4490E+06     50.9089E+06     80.0819E+06    -20.1405E+03    -290.366E-03     581.116E-03    -290.750E-03     53.1862E-03    -290.846E-03     581.494E-03    -290.403E-03     47.7861E-03
            1853     10.7702E-03     54.4406E-03    -20.1236E+06     44.6011E+06     74.8457E+06    -72.9066E+03    -290.373E-03     581.157E-03    -290.783E-03     52.4768E-03    -290.845E-03     581.498E-03    -290.445E-03     47.5793E-03
            1854     10.0966E-03     54.3550E-03    -26.1174E+06     37.9771E+06     65.8372E+06    -81.2590E+03    -290.386E-03     581.188E-03    -290.803E-03     50.7304E-03    -290.832E-03     581.486E-03    -290.491E-03     46.5645E-03
            1855     9.42303E-03     54.2719E-03    -32.2844E+06     30.9798E+06     53.9342E+06     173.414E+03    -290.390E-03     581.202E-03    -290.812E-03     48.3077E-03    -290.806E-03     581.457E-03    -290.541E-03     44.9376E-03
            1856     8.74949E-03     54.1925E-03    -38.5199E+06     21.1472E+06     41.9445E+06     496.312E+03    -290.399E-03     581.227E-03    -290.829E-03     45.3700E-03    -290.782E-03     581.427E-03    -290.594E-03     42.7836E-03
            1857     8.07601E-03     54.1174E-03    -44.8364E+06     11.4179E+06     30.8683E+06     474.270E+03    -290.411E-03     581.263E-03    -290.852E-03     42.1603E-03    -290.769E-03     581.413E-03    -290.649E-03     40.2935E-03
            1858     7.40260E-03     54.0470E-03    -51.3966E+06     4.03228E+06     20.2829E+06     352.405E+03    -290.410E-03     581.287E-03    -290.877E-03     38.8550E-03    -290.753E-03     581.403E-03    -290.706E-03     37.6104E-03
            1859     6.72920E-03     53.9817E-03    -58.0890E+06    -11.0759E+06     8.44607E+06     326.616E+03    -290.436E-03     581.344E-03    -290.908E-03     35.4915E-03    -290.757E-03     581.395E-03    -290.766E-03     34.7701E-03
            1860     6.05592E-03     53.9217E-03    -64.7175E+06    -38.5014E+06    -5.42042E+06     278.709E+03    -290.513E-03     581.460E-03    -290.948E-03     32.0448E-03    -290.795E-03     581.392E-03    -290.825E-03     31.7523E-03
            1861     5.38276E-03     53.8674E-03    -71.2611E+06    -67.9187E+06    -19.9748E+06     242.338E+03    -290.597E-03     581.581E-03    -290.984E-03     28.5482E-03    -290.840E-03     581.388E-03    -290.882E-03     28.5839E-03
            1862     4.70965E-03     53.8190E-03    -77.6090E+06    -92.9755E+06    -34.6030E+06     234.705E+03    -290.675E-03     581.685E-03    -291.010E-03     25.0539E-03    -290.886E-03     581.391E-03    -290.936E-03     25.3202E-03
            1863     4.03663E-03     53.7765E-03    -83.5556E+06    -115.040E+06    -49.1855E+06     198.603E+03    -290.756E-03     581.783E-03    -291.027E-03     21.5491E-03    -290.940E-03     581.405E-03    -290.985E-03     21.9554E-03
            1864     3.36372E-03     53.7401E-03    -88.9531E+06    -134.614E+06    -63.3809E+06     140.091E+03    -290.834E-03     581.870E-03    -291.036E-03     18.0125E-03    -290.994E-03     581.420E-03    -291.029E-03     18.4776E-03
            1865     2.69088E-03     53.7102E-03    -93.6217E+06    -151.339E+06    -76.7408E+06     107.015E+03    -290.902E-03     581.940E-03    -291.038E-03     14.4586E-03    -291.040E-03     581.431E-03    -291.067E-03     14.9169E-03
            1866     2.01810E-03     53.6866E-03    -97.4189E+06    -169.930E+06    -87.3570E+06     88.1956E+03    -290.970E-03     582.018E-03    -291.048E-03     10.9002E-03    -291.084E-03     581.436E-03    -291.097E-03     11.2946E-03
            1867     1.34538E-03     53.6697E-03    -100.387E+06    -184.564E+06    -95.2464E+06     60.7218E+03    -291.020E-03     582.074E-03    -291.054E-03     7.36363E-03    -291.116E-03     581.435E-03    -291.117E-03     7.65193E-03
            1868     672.667E-06     53.6592E-03    -102.360E+06    -189.902E+06    -100.997E+06     29.9150E+03    -291.058E-03     582.089E-03    -291.031E-03     4.01001E-03    -291.148E-03     581.434E-03    -291.112E-03     4.17492E-03
            1869     12.7910E-03     53.0071E-03    -4.34627E+06     59.3071E+06     82.0047E+06     57.9323E+03    -290.211E-03     580.878E-03    -290.667E-03     48.7381E-03    -290.639E-03     581.263E-03    -290.337E-03     43.2768E-03
            1870     12.1174E-03     52.9197E-03    -9.14735E+06     56.2623E+06     82.0892E+06    -96.9314E+03    -290.298E-03     581.013E-03    -290.715E-03     53.8947E-03    -290.791E-03     581.436E-03    -290.373E-03     47.8556E-03
            1871     11.4437E-03     52.8333E-03    -14.4756E+06     50.7901E+06     79.8390E+06    -142.129E+03    -290.294E-03     581.055E-03    -290.761E-03     53.2359E-03    -290.775E-03     581.433E-03    -290.415E-03     47.8271E-03
            1872     10.7700E-03     52.7463E-03    -20.2766E+06     44.6997E+06     74.5684E+06    -49.4520E+03    -290.312E-03     581.111E-03    -290.799E-03     52.5566E-03    -290.785E-03     581.455E-03    -290.462E-03     47.6536E-03
            1873     10.0964E-03     52.6606E-03    -26.4294E+06     37.7532E+06     65.4980E+06     38.0751E+03    -290.332E-03     581.156E-03    -290.824E-03     50.8377E-03    -290.780E-03     581.454E-03    -290.513E-03     46.6638E-03
            1874     9.42279E-03     52.5775E-03    -32.6886E+06     30.1329E+06     53.5356E+06     264.709E+03    -290.347E-03     581.186E-03    -290.839E-03     48.4390E-03    -290.764E-03     581.439E-03    -290.568E-03     45.0562E-03
            1875     8.74921E-03     52.4979E-03    -38.9002E+06     21.0019E+06     41.7639E+06     451.191E+03    -290.369E-03     581.230E-03    -290.861E-03     45.5258E-03    -290.755E-03     581.431E-03    -290.626E-03     42.9256E-03
            1876     8.07570E-03     52.4226E-03    -45.1203E+06     11.8309E+06     30.8579E+06     472.455E+03    -290.391E-03     581.280E-03    -290.889E-03     42.3275E-03    -290.751E-03     581.433E-03    -290.686E-03     40.4424E-03
            1877     7.40226E-03     52.3521E-03    -51.4562E+06     4.28455E+06     20.2703E+06     446.921E+03    -290.398E-03     581.317E-03    -290.919E-03     39.0243E-03    -290.743E-03     581.435E-03    -290.749E-03     37.7593E-03
            1878     6.72891E-03     52.2866E-03    -57.9981E+06    -10.8558E+06     8.51072E+06     392.238E+03    -290.436E-03     581.392E-03    -290.956E-03     35.6670E-03    -290.758E-03     581.445E-03    -290.814E-03     34.9277E-03
            1879     6.05563E-03     52.2265E-03    -64.6911E+06    -38.2418E+06    -5.29269E+06     361.928E+03    -290.519E-03     581.520E-03    -291.001E-03     32.2231E-03    -290.802E-03     581.453E-03    -290.879E-03     31.9127E-03
            1880     5.38242E-03     52.1720E-03    -71.2748E+06    -67.7092E+06    -19.8877E+06     340.613E+03    -290.616E-03     581.659E-03    -291.043E-03     28.7211E-03    -290.860E-03     581.467E-03    -290.941E-03     28.7410E-03
            1881     4.70934E-03     52.1234E-03    -77.5552E+06    -92.7186E+06    -34.5569E+06     276.122E+03    -290.715E-03     581.789E-03    -291.073E-03     25.2093E-03    -290.927E-03     581.496E-03    -290.999E-03     25.4586E-03
            1882     4.03637E-03     52.0807E-03    -83.4644E+06    -114.756E+06    -49.1454E+06     187.640E+03    -290.808E-03     581.902E-03    -291.094E-03     21.6878E-03    -290.992E-03     581.525E-03    -291.052E-03     22.0775E-03
            1883     3.36349E-03     52.0442E-03    -88.9157E+06    -134.416E+06    -63.3634E+06     158.600E+03    -290.890E-03     581.996E-03    -291.106E-03     18.1394E-03    -291.050E-03     581.547E-03    -291.099E-03     18.5911E-03
            1884     2.69067E-03     52.0141E-03    -93.6075E+06    -151.153E+06    -76.7515E+06     146.061E+03    -290.961E-03     582.072E-03    -291.111E-03     14.5684E-03    -291.099E-03     581.565E-03    -291.140E-03     15.0150E-03
            1885     2.01793E-03     51.9905E-03    -97.3994E+06    -169.714E+06    -87.3610E+06     110.441E+03    -291.035E-03     582.160E-03    -291.125E-03     10.9904E-03    -291.150E-03     581.580E-03    -291.174E-03     11.3754E-03
            1886     1.34525E-03     51.9735E-03    -100.381E+06    -184.332E+06    -95.2457E+06     79.9669E+03    -291.096E-03     582.231E-03    -291.135E-03     7.42665E-03    -291.193E-03     581.593E-03    -291.198E-03     7.70848E-03
            1887     672.630E-06     51.9630E-03    -102.357E+06    -189.666E+06    -100.986E+06     51.2122E+03    -291.143E-03     582.253E-03    -291.110E-03     4.04227E-03    -291.233E-03     581.599E-03    -291.191E-03     4.20430E-03
            1888     12.7910E-03     51.3129E-03    -4.26150E+06     59.4652E+06     81.9573E+06    -75.6340E+03    -290.128E-03     580.799E-03    -290.671E-03     48.7631E-03    -290.556E-03     581.185E-03    -290.341E-03     43.3012E-03
            1889     12.1173E-03     51.2256E-03    -9.04142E+06     56.3984E+06     81.9424E+06     2.41914E+03    -290.208E-03     580.931E-03    -290.723E-03     53.9449E-03    -290.701E-03     581.355E-03    -290.382E-03     47.9077E-03
            1890     11.4435E-03     51.1391E-03    -14.4813E+06     50.5414E+06     79.6285E+06     136.260E+03    -290.216E-03     580.991E-03    -290.775E-03     53.3203E-03    -290.696E-03     581.369E-03    -290.429E-03     47.9131E-03
            1891     10.7698E-03     51.0521E-03    -20.4196E+06     44.4884E+06     74.3721E+06     293.502E+03    -290.243E-03     581.062E-03    -290.819E-03     52.6712E-03    -290.716E-03     581.405E-03    -290.482E-03     47.7686E-03
            1892     10.0961E-03     50.9663E-03    -26.6500E+06     37.6761E+06     65.2940E+06     418.304E+03    -290.275E-03     581.125E-03    -290.850E-03     50.9592E-03    -290.725E-03     581.425E-03    -290.539E-03     46.7810E-03
            1893     9.42246E-03     50.8831E-03    -32.8855E+06     30.1373E+06     53.4184E+06     310.064E+03    -290.307E-03     581.178E-03    -290.871E-03     48.5724E-03    -290.726E-03     581.432E-03    -290.600E-03     45.1737E-03
            1894     8.74888E-03     50.8033E-03    -38.9639E+06     21.0767E+06     41.7343E+06     147.756E+03    -290.335E-03     581.233E-03    -290.898E-03     45.6983E-03    -290.722E-03     581.436E-03    -290.664E-03     43.0758E-03
            1895     8.07536E-03     50.7278E-03    -45.1002E+06     11.7874E+06     30.7615E+06     204.035E+03    -290.361E-03     581.294E-03    -290.932E-03     42.5260E-03    -290.722E-03     581.447E-03    -290.730E-03     40.6162E-03
            1896     7.40191E-03     50.6571E-03    -51.4800E+06     4.26813E+06     20.2014E+06     339.656E+03    -290.383E-03     581.352E-03    -290.969E-03     39.2401E-03    -290.728E-03     581.471E-03    -290.800E-03     37.9513E-03
            1897     6.72851E-03     50.5915E-03    -58.0982E+06    -10.6966E+06     8.46448E+06     435.372E+03    -290.433E-03     581.446E-03    -291.013E-03     35.8843E-03    -290.756E-03     581.500E-03    -290.871E-03     35.1236E-03
            1898     6.05521E-03     50.5311E-03    -64.7370E+06    -37.9688E+06    -5.33130E+06     425.292E+03    -290.533E-03     581.597E-03    -291.064E-03     32.4220E-03    -290.817E-03     581.532E-03    -290.942E-03     32.0915E-03
            1899     5.38205E-03     50.4764E-03    -71.1949E+06    -67.4214E+06    -19.8425E+06     328.270E+03    -290.652E-03     581.763E-03    -291.111E-03     28.9131E-03    -290.896E-03     581.573E-03    -291.010E-03     28.9118E-03
            1900     4.70901E-03     50.4276E-03    -77.4753E+06    -92.4142E+06    -34.5198E+06     268.281E+03    -290.761E-03     581.907E-03    -291.146E-03     25.4010E-03    -290.973E-03     581.616E-03    -291.073E-03     25.6299E-03
            1901     4.03606E-03     50.3848E-03    -83.4613E+06    -114.518E+06    -49.1944E+06     256.809E+03    -290.862E-03     582.033E-03    -291.171E-03     21.8643E-03    -291.046E-03     581.657E-03    -291.130E-03     22.2363E-03
            1902     3.36321E-03     50.3481E-03    -88.8935E+06    -134.232E+06    -63.4144E+06     227.368E+03    -290.953E-03     582.141E-03    -291.188E-03     18.2888E-03    -291.113E-03     581.693E-03    -291.181E-03     18.7259E-03
            1903     2.69045E-03     50.3179E-03    -93.5557E+06    -150.914E+06    -76.7488E+06     189.131E+03    -291.032E-03     582.229E-03    -291.197E-03     14.6876E-03    -291.170E-03     581.723E-03    -291.227E-03     15.1226E-03
            1904     2.01775E-03     50.2941E-03    -97.3497E+06    -169.464E+06    -87.3304E+06     156.793E+03    -291.113E-03     582.329E-03    -291.215E-03     11.0787E-03    -291.228E-03     581.749E-03    -291.265E-03     11.4552E-03
            1905     1.34513E-03     50.2770E-03    -100.317E+06    -184.060E+06    -95.1972E+06     114.223E+03    -291.183E-03     582.412E-03    -291.230E-03     7.48889E-03    -291.280E-03     581.776E-03    -291.293E-03     7.76588E-03
            1906     672.551E-06     50.2665E-03    -102.271E+06    -189.370E+06    -100.915E+06     58.8236E+03    -291.240E-03     582.447E-03    -291.207E-03     4.07360E-03    -291.331E-03     581.795E-03    -291.288E-03     4.23211E-03
            1907     12.7909E-03     49.6189E-03    -4.51599E+06     59.4800E+06     81.7837E+06    -44.6333E+03    -290.034E-03     580.712E-03    -290.677E-03     48.8047E-03    -290.463E-03     581.099E-03    -290.348E-03     43.3427E-03
            1908     12.1171E-03     49.5316E-03    -9.45871E+06     55.8830E+06     81.6600E+06     104.890E+03    -290.127E-03     580.863E-03    -290.736E-03     54.0097E-03    -290.622E-03     581.285E-03    -290.395E-03     47.9727E-03
            1909     11.4433E-03     49.4451E-03    -14.8114E+06     50.2479E+06     79.4208E+06     365.689E+03    -290.139E-03     580.932E-03    -290.793E-03     53.4080E-03    -290.621E-03     581.310E-03    -290.448E-03     47.9987E-03
            1910     10.7695E-03     49.3579E-03    -20.5595E+06     44.3118E+06     74.3124E+06     497.237E+03    -290.177E-03     581.020E-03    -290.843E-03     52.7736E-03    -290.652E-03     581.364E-03    -290.506E-03     47.8634E-03
            1911     10.0958E-03     49.2721E-03    -26.5093E+06     37.9147E+06     65.4732E+06     451.067E+03    -290.217E-03     581.096E-03    -290.880E-03     51.0833E-03    -290.667E-03     581.398E-03    -290.569E-03     46.8913E-03
            1912     9.42215E-03     49.1886E-03    -32.5329E+06     30.9446E+06     53.6426E+06     219.826E+03    -290.250E-03     581.156E-03    -290.907E-03     48.7398E-03    -290.669E-03     581.415E-03    -290.636E-03     45.3213E-03
            1913     8.74852E-03     49.1087E-03    -38.7077E+06     21.0966E+06     41.6740E+06     76.1221E+03    -290.287E-03     581.229E-03    -290.941E-03     45.9112E-03    -290.674E-03     581.432E-03    -290.708E-03     43.2633E-03
            1914     8.07494E-03     49.0330E-03    -45.0884E+06     11.3967E+06     30.6414E+06     227.725E+03    -290.329E-03     581.313E-03    -290.984E-03     42.7581E-03    -290.690E-03     581.466E-03    -290.782E-03     40.8261E-03
            1915     7.40144E-03     48.9621E-03    -51.6224E+06     4.16049E+06     20.1296E+06     391.479E+03    -290.368E-03     581.396E-03    -291.028E-03     39.4684E-03    -290.715E-03     581.516E-03    -290.859E-03     38.1571E-03
            1916     6.72806E-03     48.8962E-03    -58.2123E+06    -10.6496E+06     8.35381E+06     420.200E+03    -290.436E-03     581.514E-03    -291.079E-03     36.1000E-03    -290.760E-03     581.570E-03    -290.937E-03     35.3140E-03
            1917     6.05480E-03     48.8356E-03    -64.8036E+06    -37.5866E+06    -5.50015E+06     362.063E+03    -290.548E-03     581.684E-03    -291.136E-03     32.6446E-03    -290.834E-03     581.622E-03    -291.015E-03     32.2903E-03
            1918     5.38164E-03     48.7807E-03    -71.3338E+06    -67.1027E+06    -20.0371E+06     280.298E+03    -290.680E-03     581.870E-03    -291.190E-03     29.1577E-03    -290.925E-03     581.682E-03    -291.090E-03     29.1318E-03
            1919     4.70860E-03     48.7316E-03     -77.627E+06    -92.3154E+06    -34.6580E+06     278.885E+03    -290.809E-03     582.041E-03    -291.232E-03     25.6400E-03    -291.022E-03     581.751E-03    -291.159E-03     25.8468E-03
            1920     4.03569E-03     48.6885E-03    -83.5224E+06    -114.307E+06    -49.2382E+06     278.627E+03    -290.927E-03     582.190E-03    -291.263E-03     22.0703E-03    -291.113E-03     581.816E-03    -291.222E-03     22.4233E-03
            1921     3.36289E-03     48.6517E-03    -88.9221E+06    -133.961E+06    -63.4060E+06     235.617E+03    -291.030E-03     582.314E-03    -291.284E-03     18.4634E-03    -291.191E-03     581.868E-03    -291.278E-03     18.8844E-03
            1922     2.69017E-03     48.6213E-03    -93.5817E+06    -150.668E+06    -76.7405E+06     195.602E+03    -291.121E-03     582.419E-03    -291.298E-03     14.8333E-03    -291.260E-03     581.913E-03    -291.328E-03     15.2560E-03
            1923     2.01754E-03     48.5975E-03    -97.3447E+06    -169.195E+06    -87.3103E+06     153.914E+03    -291.213E-03     582.531E-03    -291.318E-03     11.1893E-03    -291.328E-03     581.953E-03    -291.368E-03     11.5565E-03
            1924     1.34499E-03     48.5802E-03    -100.288E+06    -183.749E+06    -95.1619E+06     105.289E+03    -291.284E-03     582.619E-03    -291.335E-03     7.56161E-03    -291.381E-03     581.984E-03    -291.398E-03     7.83323E-03
            1925     672.476E-06     48.5696E-03    -102.248E+06    -189.056E+06    -100.871E+06     52.5413E+03    -291.348E-03     582.659E-03    -291.311E-03     4.10520E-03    -291.439E-03     582.008E-03    -291.393E-03     4.25950E-03
            1926     12.7907E-03     47.9250E-03    -4.33034E+06     59.2252E+06     81.8214E+06     210.294E+03    -289.944E-03     580.630E-03    -290.687E-03     48.7864E-03    -290.372E-03     581.016E-03    -290.357E-03     43.3285E-03
            1927     12.1169E-03     47.8378E-03    -9.22259E+06     55.5294E+06     81.8513E+06     379.131E+03    -290.042E-03     580.793E-03    -290.751E-03     54.0261E-03    -290.536E-03     581.214E-03    -290.409E-03     47.9878E-03
            1928     11.4431E-03     47.7511E-03    -14.6081E+06     50.0656E+06     79.7176E+06     410.028E+03    -290.064E-03     580.878E-03    -290.815E-03     53.4867E-03    -290.546E-03     581.255E-03    -290.468E-03     48.0682E-03
            1929     10.7693E-03     47.6639E-03    -20.2842E+06     44.4554E+06     74.6261E+06     350.596E+03    -290.096E-03     580.967E-03    -290.870E-03     52.9050E-03    -290.572E-03     581.312E-03    -290.532E-03     47.9760E-03
            1930     10.0955E-03     47.5778E-03    -26.2550E+06     38.3735E+06     65.6264E+06     231.738E+03    -290.124E-03     581.038E-03    -290.914E-03     51.2690E-03    -290.575E-03     581.342E-03    -290.603E-03     47.0557E-03
            1931     9.42172E-03     47.4943E-03    -32.4863E+06     31.2021E+06     53.5655E+06     269.400E+03    -290.172E-03     581.121E-03    -290.949E-03     48.9695E-03    -290.593E-03     581.382E-03    -290.680E-03     45.5333E-03
            1932     8.74803E-03     47.4141E-03    -38.8243E+06     20.9927E+06     41.5414E+06     421.870E+03    -290.240E-03     581.233E-03    -290.993E-03     46.1583E-03    -290.629E-03     581.438E-03    -290.760E-03     43.4893E-03
            1933     8.07446E-03     47.3382E-03    -45.1508E+06     11.2760E+06     30.5631E+06     424.087E+03    -290.302E-03     581.346E-03    -291.044E-03     43.0184E-03    -290.665E-03     581.500E-03    -290.842E-03     41.0620E-03
            1934     7.40097E-03     47.2670E-03    -51.5351E+06     4.20229E+06     20.1105E+06     391.183E+03    -290.353E-03     581.450E-03    -291.096E-03     39.7456E-03    -290.701E-03     581.571E-03    -290.927E-03     38.4083E-03
            1935     6.72757E-03     47.2008E-03    -58.1156E+06    -10.4778E+06     8.43888E+06     377.381E+03    -290.431E-03     581.587E-03    -291.156E-03     36.3912E-03    -290.756E-03     581.644E-03    -291.014E-03     35.5783E-03
            1936     6.05427E-03     47.1400E-03    -64.7889E+06    -37.2771E+06    -5.38549E+06     349.435E+03    -290.559E-03     581.782E-03    -291.222E-03     32.9461E-03    -290.846E-03     581.722E-03    -291.101E-03     32.5660E-03
            1937     5.38111E-03     47.0848E-03    -71.3150E+06    -66.8690E+06    -19.9942E+06     316.265E+03    -290.719E-03     582.003E-03    -291.285E-03     29.4454E-03    -290.965E-03     581.817E-03    -291.184E-03     29.3944E-03
            1938     4.70811E-03     47.0354E-03    -77.5787E+06    -92.1798E+06    -34.5968E+06     247.684E+03    -290.871E-03     582.205E-03    -291.334E-03     25.8949E-03    -291.085E-03     581.917E-03    -291.261E-03     26.0781E-03
            1939     4.03525E-03     46.9920E-03    -83.5111E+06    -114.111E+06    -49.1462E+06     210.495E+03    -291.003E-03     582.374E-03    -291.371E-03     22.2929E-03    -291.189E-03     582.001E-03    -291.330E-03     22.6244E-03
            1940     3.36250E-03     46.9550E-03    -88.9074E+06    -133.721E+06    -63.3232E+06     189.115E+03    -291.121E-03     582.519E-03    -291.398E-03     18.6585E-03    -291.282E-03     582.074E-03    -291.392E-03     19.0619E-03
            1941     2.68986E-03     46.9244E-03    -93.5466E+06    -150.448E+06    -76.6566E+06     151.288E+03    -291.227E-03     582.643E-03    -291.416E-03     14.9958E-03    -291.367E-03     582.139E-03    -291.445E-03     15.4042E-03
            1942     2.01731E-03     46.9004E-03    -97.3243E+06    -168.957E+06    -87.2525E+06     123.806E+03    -291.328E-03     582.767E-03    -291.438E-03     11.3145E-03    -291.444E-03     582.190E-03    -291.488E-03     11.6709E-03
            1943     1.34483E-03     46.8830E-03    -100.259E+06    -183.462E+06    -95.1230E+06     85.2460E+03    -291.406E-03     582.861E-03    -291.455E-03     7.65284E-03    -291.504E-03     582.227E-03    -291.519E-03     7.91728E-03
            1944     672.412E-06     46.8723E-03    -102.238E+06    -188.797E+06    -100.883E+06     35.7133E+03    -291.463E-03     582.899E-03    -291.435E-03     4.16648E-03    -291.554E-03     582.249E-03    -291.518E-03     4.31594E-03
            1945     12.7907E-03     46.2312E-03    -4.35653E+06     58.7204E+06     81.8309E+06     106.067E+03    -289.839E-03     580.535E-03    -290.696E-03     48.7764E-03    -290.267E-03     580.918E-03    -290.365E-03     43.3184E-03
            1946     12.1168E-03     46.1440E-03    -9.00251E+06     55.1952E+06     81.9344E+06     322.712E+03    -289.934E-03     580.701E-03    -290.766E-03     54.0753E-03    -290.427E-03     581.119E-03    -290.424E-03     48.0322E-03
            1947     11.4429E-03     46.0573E-03    -14.1435E+06     50.3699E+06     79.9522E+06     374.611E+03    -289.946E-03     580.783E-03    -290.837E-03     53.6209E-03    -290.427E-03     581.161E-03    -290.490E-03     48.1920E-03
            1948     10.7689E-03     45.9699E-03    -19.8682E+06     44.7591E+06     74.7805E+06     258.323E+03    -289.978E-03     580.880E-03    -290.902E-03     53.1087E-03    -290.454E-03     581.228E-03    -290.564E-03     48.1610E-03
            1949     10.0951E-03     45.8838E-03    -25.9762E+06     38.1584E+06     65.6831E+06     408.575E+03    -290.030E-03     580.986E-03    -290.956E-03     51.4972E-03    -290.482E-03     581.290E-03    -290.645E-03     47.2665E-03
            1950     9.42124E-03     45.8000E-03    -32.2202E+06     30.9079E+06     53.7485E+06     665.533E+03    -290.098E-03     581.099E-03    -291.002E-03     49.2088E-03    -290.519E-03     581.360E-03    -290.731E-03     45.7565E-03
            1951     8.74752E-03     45.7195E-03    -38.4650E+06     21.2734E+06     41.8513E+06     663.398E+03    -290.178E-03     581.233E-03    -291.055E-03     46.4428E-03    -290.567E-03     581.440E-03    -290.821E-03     43.7507E-03
            1952     8.07389E-03     45.6433E-03    -44.7391E+06     11.6668E+06     30.8362E+06     513.559E+03    -290.259E-03     581.375E-03    -291.116E-03     43.3572E-03    -290.622E-03     581.531E-03    -290.914E-03     41.3720E-03
            1953     7.40036E-03     45.5718E-03    -51.2106E+06     4.33759E+06     20.3483E+06     428.882E+03    -290.329E-03     581.508E-03    -291.179E-03     40.1127E-03    -290.676E-03     581.630E-03    -291.010E-03     38.7462E-03
            1954     6.72693E-03     45.5053E-03    -57.8475E+06    -10.2542E+06     8.65844E+06     413.694E+03    -290.432E-03     581.681E-03    -291.249E-03     36.7470E-03    -290.758E-03     581.740E-03    -291.107E-03     35.9055E-03
            1955     6.05364E-03     45.4441E-03    -64.4467E+06    -37.1400E+06    -5.09338E+06     382.705E+03    -290.598E-03     581.923E-03    -291.325E-03     33.2802E-03    -290.885E-03     581.864E-03    -291.203E-03     32.8700E-03
            1956     5.38053E-03     45.3886E-03    -70.9485E+06    -66.6676E+06    -19.5933E+06     359.797E+03    -290.782E-03     582.177E-03    -291.396E-03     29.7597E-03    -291.027E-03     581.992E-03    -291.294E-03     29.6797E-03
            1957     4.70757E-03     45.3388E-03    -77.2801E+06    -91.8252E+06    -34.2494E+06     302.972E+03    -290.943E-03     582.395E-03    -291.452E-03     26.1833E-03    -291.157E-03     582.108E-03    -291.378E-03     26.3398E-03
            1958     4.03475E-03     45.2952E-03    -83.2587E+06    -113.907E+06    -48.8968E+06     213.314E+03    -291.091E-03     582.587E-03    -291.496E-03     22.5519E-03    -291.277E-03     582.214E-03    -291.454E-03     22.8597E-03
            1959     3.36206E-03     45.2579E-03    -88.6974E+06    -133.546E+06    -63.1222E+06     164.059E+03    -291.230E-03     582.759E-03    -291.529E-03     18.8810E-03    -291.392E-03     582.314E-03    -291.522E-03     19.2651E-03
            1960     2.68949E-03     45.2271E-03    -93.3714E+06    -150.271E+06    -76.4808E+06     142.265E+03    -291.350E-03     582.901E-03    -291.551E-03     15.1750E-03    -291.490E-03     582.397E-03    -291.580E-03     15.5674E-03
            1961     2.01702E-03     45.2029E-03    -97.1600E+06    -168.747E+06    -87.0941E+06     112.436E+03    -291.461E-03     583.037E-03    -291.576E-03     11.4506E-03    -291.576E-03     582.461E-03    -291.626E-03     11.7947E-03
            1962     1.34463E-03     45.1854E-03    -100.143E+06    -183.242E+06    -95.0029E+06     81.2061E+03    -291.542E-03     583.137E-03    -291.595E-03     7.74395E-03    -291.639E-03     582.504E-03    -291.659E-03     7.99938E-03
            1963     672.296E-06     45.1746E-03    -102.105E+06    -188.550E+06    -100.720E+06     52.9658E+03    -291.598E-03     583.183E-03    -291.585E-03     4.21757E-03    -291.689E-03     582.534E-03    -291.667E-03     4.36375E-03
            1964     12.7905E-03     44.5377E-03    -4.41912E+06     58.6088E+06     81.7206E+06     50.1855E+03    -289.694E-03     580.398E-03    -290.704E-03     48.7993E-03    -290.122E-03     580.781E-03    -290.374E-03     43.3412E-03
            1965     12.1166E-03     44.4505E-03    -9.24776E+06     54.8230E+06     81.5895E+06     48.8440E+03    -289.784E-03     580.567E-03    -290.783E-03     54.1803E-03    -290.277E-03     580.985E-03    -290.441E-03     48.1290E-03
            1966     11.4425E-03     44.3637E-03    -14.5610E+06     50.3287E+06     79.4714E+06     198.391E+03    -289.790E-03     580.653E-03    -290.863E-03     53.7941E-03    -290.275E-03     581.034E-03    -290.518E-03     48.3473E-03
            1967     10.7685E-03     44.2762E-03    -20.3319E+06     44.8814E+06     74.4024E+06     352.471E+03    -289.841E-03     580.780E-03    -290.940E-03     53.3248E-03    -290.320E-03     581.131E-03    -290.603E-03     48.3603E-03
            1968     10.0946E-03     44.1898E-03    -26.3280E+06     37.7066E+06     65.4994E+06     378.069E+03    -289.924E-03     580.930E-03    -291.006E-03     51.7646E-03    -290.379E-03     581.235E-03    -290.695E-03     47.5119E-03
            1969     9.42070E-03     44.1057E-03    -32.2836E+06     30.6431E+06     53.8286E+06     456.262E+03    -290.005E-03     581.069E-03    -291.064E-03     49.5444E-03    -290.428E-03     581.330E-03    -290.792E-03     46.0634E-03
            1970     8.74688E-03     44.0250E-03    -38.3131E+06     21.4900E+06     42.0805E+06     595.987E+03    -290.097E-03     581.227E-03    -291.130E-03     46.8294E-03    -290.488E-03     581.436E-03    -290.895E-03     44.1101E-03
            1971     8.07318E-03     43.9484E-03    -44.5758E+06     12.0747E+06     31.1043E+06     628.493E+03    -290.204E-03     581.407E-03    -291.203E-03     43.7508E-03    -290.569E-03     581.567E-03    -291.001E-03     41.7357E-03
            1972     7.39961E-03     43.8765E-03    -51.0324E+06     4.59226E+06     20.5502E+06     573.154E+03    -290.311E-03     581.589E-03    -291.279E-03     40.4992E-03    -290.660E-03     581.714E-03    -291.109E-03     39.0986E-03
            1973     6.72618E-03     43.8096E-03    -57.6469E+06    -10.0314E+06     8.81597E+06     502.817E+03    -290.453E-03     581.812E-03    -291.359E-03     37.1309E-03    -290.779E-03     581.873E-03    -291.217E-03     36.2550E-03
            1974     6.05293E-03     43.7480E-03    -64.3539E+06    -36.9663E+06    -4.97837E+06     457.965E+03    -290.646E-03     582.091E-03    -291.445E-03     33.6705E-03    -290.933E-03     582.033E-03    -291.323E-03     33.2243E-03
            1975     5.37985E-03     43.6920E-03    -70.9320E+06    -66.3774E+06    -19.5288E+06     395.236E+03    -290.846E-03     582.371E-03    -291.524E-03     30.1458E-03    -291.094E-03     582.187E-03    -291.423E-03     30.0315E-03
            1976     4.70693E-03     43.6420E-03    -77.2212E+06    -91.4479E+06    -34.1517E+06     291.600E+03    -291.031E-03     582.620E-03    -291.589E-03     26.5395E-03    -291.245E-03     582.335E-03    -291.515E-03     26.6653E-03
            1977     4.03417E-03     43.5980E-03    -83.1295E+06    -113.702E+06    -48.7397E+06     224.212E+03    -291.205E-03     582.845E-03    -291.641E-03     22.8637E-03    -291.391E-03     582.474E-03    -291.599E-03     23.1453E-03
            1978     3.36156E-03     43.5604E-03    -88.5295E+06    -133.373E+06    -62.9531E+06     190.725E+03    -291.359E-03     583.039E-03    -291.679E-03     19.1423E-03    -291.521E-03     582.595E-03    -291.672E-03     19.5036E-03
            1979     2.68908E-03     43.5293E-03    -93.2142E+06    -150.099E+06    -76.3278E+06     162.168E+03    -291.490E-03     583.196E-03    -291.706E-03     15.3878E-03    -291.629E-03     582.693E-03    -291.735E-03     15.7613E-03
            1980     2.01671E-03     43.5049E-03    -97.0258E+06    -168.558E+06    -86.9552E+06     140.631E+03    -291.610E-03     583.346E-03    -291.735E-03     11.6172E-03    -291.726E-03     582.770E-03    -291.785E-03     11.9472E-03
            1981     1.34443E-03     43.4873E-03    -99.9809E+06    -182.992E+06    -94.8564E+06     100.484E+03    -291.700E-03     583.458E-03    -291.758E-03     7.85545E-03    -291.798E-03     582.826E-03    -291.821E-03     8.10038E-03
            1982     672.201E-06     43.4765E-03    -101.941E+06    -188.312E+06    -100.596E+06     45.7310E+03    -291.767E-03     583.510E-03    -291.743E-03     4.28286E-03    -291.858E-03     582.862E-03    -291.825E-03     4.42605E-03
            1983     12.7904E-03     42.8444E-03    -4.26510E+06     58.6021E+06     81.4557E+06     72.0249E+03    -289.512E-03     580.225E-03    -290.713E-03     48.8564E-03    -289.939E-03     580.609E-03    -290.385E-03     43.3980E-03
            1984     12.1163E-03     42.7572E-03    -9.01596E+06     54.8731E+06     81.4200E+06     93.1884E+03    -289.591E-03     580.395E-03    -290.804E-03     54.3121E-03    -290.084E-03     580.815E-03    -290.463E-03     48.2555E-03
            1985     11.4421E-03     42.6703E-03    -14.2786E+06     49.8409E+06     79.4802E+06     156.177E+03    -289.620E-03     580.518E-03    -290.898E-03     54.0199E-03    -290.104E-03     580.898E-03    -290.553E-03     48.5590E-03
            1986     10.7680E-03     42.5826E-03    -19.9026E+06     44.6092E+06     74.6177E+06     328.349E+03    -289.694E-03     580.682E-03    -290.988E-03     53.6360E-03    -290.173E-03     581.032E-03    -290.651E-03     48.6557E-03
            1987     10.0940E-03     42.4959E-03    -25.9090E+06     38.0451E+06     65.6897E+06     345.013E+03    -289.787E-03     580.854E-03    -291.067E-03     52.1299E-03    -290.242E-03     581.162E-03    -290.756E-03     47.8553E-03
            1988     9.41995E-03     42.4116E-03    -32.1663E+06     30.3269E+06     53.7708E+06     326.635E+03    -289.901E-03     581.040E-03    -291.139E-03     49.9400E-03    -290.325E-03     581.302E-03    -290.868E-03     46.4253E-03
            1989     8.74608E-03     42.3305E-03    -38.3970E+06     21.1433E+06     42.0291E+06     505.250E+03    -290.028E-03     581.247E-03    -291.219E-03     47.2481E-03    -290.421E-03     581.457E-03    -290.984E-03     44.4891E-03
            1990     8.07235E-03     42.2534E-03    -44.6361E+06     12.3190E+06     31.1450E+06     627.658E+03    -290.159E-03     581.464E-03    -291.305E-03     44.1886E-03    -290.527E-03     581.627E-03    -291.103E-03     42.1315E-03
            1991     7.39877E-03     42.1811E-03    -51.0524E+06     4.79716E+06     20.6014E+06     628.888E+03    -290.297E-03     581.691E-03    -291.394E-03     40.9591E-03    -290.648E-03     581.818E-03    -291.224E-03     39.5157E-03
            1992     6.72534E-03     42.1137E-03    -57.6907E+06    -9.76126E+06     8.91488E+06     621.089E+03    -290.466E-03     581.954E-03    -291.488E-03     37.6068E-03    -290.795E-03     582.017E-03    -291.346E-03     36.6876E-03
            1993     6.05208E-03     42.0516E-03    -64.3697E+06    -36.6358E+06    -4.86462E+06     550.123E+03    -290.686E-03     582.272E-03    -291.586E-03     34.1498E-03    -290.976E-03     582.217E-03    -291.464E-03     33.6605E-03
            1994     5.37902E-03     41.9952E-03    -70.8847E+06    -65.9147E+06    -19.4790E+06     397.075E+03    -290.923E-03     582.599E-03    -291.677E-03     30.6006E-03    -291.171E-03     582.419E-03    -291.576E-03     30.4464E-03
            1995     4.70616E-03     41.9447E-03    -77.1544E+06    -91.0993E+06    -34.1451E+06     242.768E+03    -291.141E-03     582.892E-03    -291.751E-03     26.9568E-03    -291.356E-03     582.609E-03    -291.678E-03     27.0467E-03
            1996     4.03349E-03     41.9003E-03    -83.0873E+06    -113.585E+06    -48.7145E+06     178.677E+03    -291.337E-03     583.148E-03    -291.812E-03     23.2449E-03    -291.523E-03     582.778E-03    -291.770E-03     23.4943E-03
            1997     3.36098E-03     41.8624E-03    -88.5170E+06    -133.236E+06    -62.9178E+06     177.683E+03    -291.506E-03     583.364E-03    -291.858E-03     19.4820E-03    -291.667E-03     582.920E-03    -291.851E-03     19.8148E-03
            1998     2.68860E-03     41.8310E-03    -93.1895E+06    -149.951E+06    -76.2769E+06     179.101E+03    -291.651E-03     583.543E-03    -291.892E-03     15.6793E-03    -291.791E-03     583.041E-03    -291.921E-03     16.0304E-03
            1999     2.01633E-03     41.8064E-03    -96.9773E+06    -168.341E+06    -86.9044E+06     154.103E+03    -291.787E-03     583.715E-03    -291.928E-03     11.8464E-03    -291.902E-03     583.141E-03    -291.978E-03     12.1590E-03
            2000     1.34416E-03     41.7886E-03    -99.9450E+06    -182.718E+06    -94.8107E+06     107.987E+03    -291.892E-03     583.848E-03    -291.955E-03     8.01734E-03    -291.990E-03     583.217E-03    -292.019E-03     8.25059E-03
            2001     672.067E-06     41.7776E-03    -101.917E+06    -188.050E+06    -100.546E+06     74.3410E+03    -291.973E-03     583.909E-03    -291.936E-03     4.37171E-03    -292.065E-03     583.263E-03    -292.018E-03     4.50943E-03
            2002     12.7902E-03     41.1514E-03    -4.34439E+06     58.4747E+06     81.4664E+06    -54.6224E+03    -289.307E-03     580.038E-03    -290.731E-03     49.0158E-03    -289.734E-03     580.421E-03    -290.402E-03     43.5641E-03
            2003     12.1160E-03     41.0643E-03    -9.10971E+06     54.7059E+06     81.4601E+06     43.8261E+03    -289.401E-03     580.236E-03    -290.834E-03     54.5266E-03    -289.896E-03     580.656E-03    -290.493E-03     48.4641E-03
            2004     11.4416E-03     40.9771E-03    -14.3827E+06     49.8110E+06     79.4611E+06     74.4168E+03    -289.438E-03     580.380E-03    -290.942E-03     54.2915E-03    -289.924E-03     580.761E-03    -290.596E-03     48.8143E-03
            2005     10.7674E-03     40.8892E-03    -20.0859E+06     44.2550E+06     74.4060E+06     73.3316E+03    -289.526E-03     580.571E-03    -291.045E-03     53.9541E-03    -290.007E-03     580.923E-03    -290.708E-03     48.9430E-03
            2006     10.0932E-03     40.8021E-03    -26.0479E+06     37.7158E+06     65.4820E+06     365.192E+03    -289.643E-03     580.782E-03    -291.139E-03     52.4807E-03    -290.101E-03     581.091E-03    -290.829E-03     48.1676E-03
            2007     9.41913E-03     40.7174E-03    -32.1960E+06     30.2811E+06     53.6712E+06     622.390E+03    -289.782E-03     581.009E-03    -291.227E-03     50.3390E-03    -290.209E-03     581.273E-03    -290.956E-03     46.7841E-03
            2008     8.74520E-03     40.6359E-03    -38.4564E+06     21.0866E+06     41.9390E+06     578.137E+03    -289.935E-03     581.257E-03    -291.323E-03     47.7242E-03    -290.331E-03     581.470E-03    -291.088E-03     44.9166E-03
            2009     8.07140E-03     40.5583E-03    -44.7609E+06     12.3381E+06     31.1233E+06     563.709E+03    -290.096E-03     581.522E-03    -291.426E-03     44.7384E-03    -290.467E-03     581.688E-03    -291.223E-03     42.6297E-03
            2010     7.39777E-03     40.4854E-03    -51.1972E+06     4.96207E+06     20.6781E+06     595.371E+03    -290.266E-03     581.797E-03    -291.532E-03     41.5517E-03    -290.620E-03     581.928E-03    -291.361E-03     40.0553E-03
            2011     6.72431E-03     40.4175E-03    -57.7754E+06    -9.53727E+06     8.97318E+06     572.130E+03    -290.473E-03     582.115E-03    -291.642E-03     38.2104E-03    -290.805E-03     582.182E-03    -291.499E-03     37.2364E-03
            2012     6.05106E-03     40.3549E-03    -64.3499E+06    -36.1697E+06    -4.84303E+06     462.415E+03    -290.739E-03     582.494E-03    -291.755E-03     34.7410E-03    -291.031E-03     582.443E-03    -291.634E-03     34.2002E-03
            2013     5.37805E-03     40.2979E-03    -70.8031E+06    -65.4624E+06    -19.4079E+06     305.862E+03    -291.015E-03     582.875E-03    -291.860E-03     31.1608E-03    -291.265E-03     582.697E-03    -291.759E-03     30.9590E-03
            2014     4.70526E-03     40.2469E-03    -77.0655E+06    -90.8776E+06    -34.0741E+06     239.687E+03    -291.260E-03     583.208E-03    -291.948E-03     27.4835E-03    -291.476E-03     582.926E-03    -291.874E-03     27.5297E-03
            2015     4.03266E-03     40.2021E-03    -83.0312E+06    -113.443E+06    -48.7013E+06     215.837E+03    -291.480E-03     583.500E-03    -292.020E-03     23.7316E-03    -291.667E-03     583.131E-03    -291.979E-03     23.9422E-03
            2016     3.36023E-03     40.1637E-03    -88.4979E+06    -133.142E+06    -62.9247E+06     192.880E+03    -291.678E-03     583.757E-03    -292.079E-03     19.9106E-03    -291.840E-03     583.314E-03    -292.072E-03     20.2097E-03
            2017     2.68797E-03     40.1320E-03    -93.1793E+06    -149.826E+06    -76.2618E+06     176.585E+03    -291.851E-03     583.974E-03    -292.123E-03     16.0339E-03    -291.991E-03     583.472E-03    -292.152E-03     16.3572E-03
            2018     2.01584E-03     40.1071E-03    -96.9812E+06    -168.125E+06    -86.8864E+06     157.982E+03    -292.008E-03     584.175E-03    -292.167E-03     12.1175E-03    -292.124E-03     583.601E-03    -292.217E-03     12.4083E-03
            2019     1.34384E-03     40.0891E-03    -99.9621E+06    -182.440E+06    -94.8288E+06     118.482E+03    -292.128E-03     584.327E-03    -292.199E-03     8.20030E-03    -292.226E-03     583.698E-03    -292.264E-03     8.41908E-03
            2020     671.894E-06     40.0780E-03    -101.913E+06     -187.76E+06    -100.542E+06     55.3532E+03    -292.224E-03     584.403E-03    -292.180E-03     4.46765E-03    -292.315E-03     583.758E-03    -292.263E-03     4.59530E-03
            2021     12.7898E-03     39.4588E-03    -4.34655E+06      58.401E+06     81.4876E+06    -59.0356E+03    -289.075E-03     579.827E-03    -290.752E-03     49.0030E-03    -289.502E-03     580.210E-03    -290.423E-03     43.5472E-03
            2022     12.1154E-03     39.3715E-03    -9.13758E+06     54.3848E+06     81.4288E+06     10.1637E+03    -289.183E-03     580.052E-03    -290.869E-03     54.6175E-03    -289.679E-03     580.473E-03    -290.527E-03     48.5299E-03
            2023     11.4411E-03     39.2843E-03    -14.4361E+06     49.9836E+06     79.3423E+06     48.4119E+03    -289.225E-03     580.215E-03    -290.990E-03     54.5219E-03    -289.715E-03     580.601E-03    -290.645E-03     49.0067E-03
            2024     10.7667E-03     39.1959E-03    -20.2059E+06     43.9223E+06     74.1604E+06     132.619E+03    -289.321E-03     580.432E-03    -291.111E-03     54.3098E-03    -289.806E-03     580.786E-03    -290.774E-03     49.2603E-03
            2025     10.0924E-03     39.1085E-03    -26.3042E+06     36.8078E+06     65.2178E+06     364.087E+03    -289.459E-03     580.683E-03    -291.224E-03     52.9580E-03    -289.920E-03     580.992E-03    -290.913E-03     48.6007E-03
            2026     9.41820E-03     39.0234E-03    -32.4427E+06     30.2412E+06     53.6122E+06     563.550E+03    -289.619E-03     580.950E-03    -291.331E-03     50.9171E-03    -290.050E-03     581.218E-03    -291.060E-03     47.3142E-03
            2027     8.74412E-03     38.9413E-03    -38.5549E+06     21.4555E+06     41.9972E+06     579.870E+03    -289.803E-03     581.250E-03    -291.447E-03     48.3715E-03    -290.204E-03     581.469E-03    -291.213E-03     45.5113E-03
            2028     8.07023E-03     38.8632E-03    -44.7716E+06     12.4620E+06     31.2000E+06     473.966E+03    -290.008E-03     581.581E-03    -291.573E-03     45.4443E-03    -290.383E-03     581.751E-03    -291.370E-03     43.2751E-03
            2029     7.39654E-03     38.7896E-03    -51.1313E+06     5.07572E+06     20.7501E+06     428.611E+03    -290.227E-03     581.926E-03    -291.699E-03     42.2891E-03    -290.584E-03     582.060E-03    -291.529E-03     40.7260E-03
            2030     6.72305E-03     38.7210E-03    -57.6680E+06    -9.39311E+06     9.05247E+06     426.586E+03    -290.489E-03     582.319E-03    -291.830E-03     38.9524E-03    -290.823E-03     582.389E-03    -291.687E-03     37.9141E-03
            2031     6.04982E-03     38.6577E-03    -64.2807E+06    -35.7348E+06    -4.77921E+06     349.570E+03    -290.804E-03     582.765E-03    -291.961E-03     35.4687E-03    -291.098E-03     582.718E-03    -291.840E-03     34.8670E-03
            2032     5.37686E-03     38.6001E-03    -70.8029E+06    -65.1874E+06    -19.4368E+06     253.821E+03    -291.115E-03     583.198E-03    -292.083E-03     31.8572E-03    -291.367E-03     583.024E-03    -291.983E-03     31.5966E-03
            2033     4.70412E-03     38.5485E-03    -77.1240E+06    -90.8662E+06    -34.1376E+06     250.731E+03    -291.397E-03     583.586E-03    -292.189E-03     28.1337E-03    -291.614E-03     583.306E-03    -292.116E-03     28.1249E-03
            2034     4.03162E-03     38.5032E-03    -83.0683E+06    -113.303E+06    -48.7366E+06     267.763E+03    -291.658E-03     583.936E-03    -292.278E-03     24.3125E-03    -291.846E-03     583.568E-03    -292.237E-03     24.4748E-03
            2035     3.35932E-03     38.4643E-03    -88.4791E+06    -132.976E+06    -62.9263E+06     232.958E+03    -291.895E-03     584.246E-03    -292.350E-03     20.4086E-03    -292.058E-03     583.805E-03    -292.344E-03     20.6670E-03
            2036     2.68722E-03     38.4322E-03    -93.1667E+06    -149.691E+06    -76.2604E+06     203.640E+03    -292.101E-03     584.506E-03    -292.406E-03     16.4427E-03    -292.241E-03     584.006E-03    -292.435E-03     16.7311E-03
            2037     2.01526E-03     38.4070E-03    -96.9794E+06    -167.926E+06    -86.8946E+06     180.624E+03    -292.280E-03     584.738E-03    -292.458E-03     12.4371E-03    -292.397E-03     584.166E-03    -292.509E-03     12.7008E-03
            2038     1.34343E-03     38.3888E-03    -99.9298E+06    -182.121E+06    -94.8181E+06     126.683E+03    -292.417E-03     584.914E-03    -292.497E-03     8.42088E-03    -292.515E-03     584.286E-03    -292.562E-03     8.62100E-03
            2039     671.699E-06     38.3775E-03    -101.887E+06    -187.464E+06    -100.560E+06     71.6458E+03    -292.515E-03     585.003E-03    -292.488E-03     4.59421E-03    -292.607E-03     584.360E-03    -292.571E-03     4.71090E-03
            2040     12.7898E-03     37.7666E-03    -4.52591E+06     58.4561E+06     80.8675E+06     186.313E+03    -288.786E-03     579.553E-03    -290.768E-03     49.0507E-03    -289.214E-03     579.939E-03    -290.442E-03     43.5949E-03
            2041     12.1152E-03     37.6792E-03    -9.37804E+06     54.8856E+06     80.9400E+06    -68.2055E+03    -288.867E-03     579.770E-03    -290.903E-03     54.8397E-03    -289.366E-03     580.196E-03    -290.564E-03     48.7337E-03
            2042     11.4405E-03     37.5917E-03    -14.5607E+06     49.6848E+06     79.0371E+06    -189.336E+03    -288.922E-03     579.969E-03    -291.047E-03     54.9407E-03    -289.414E-03     580.357E-03    -290.703E-03     49.3930E-03
            2043     10.7659E-03     37.5031E-03    -20.1714E+06     43.0608E+06     73.9632E+06     183.362E+03    -289.055E-03     580.246E-03    -291.191E-03     54.8762E-03    -289.542E-03     580.600E-03    -290.855E-03     49.7922E-03
            2044     10.0913E-03     37.4152E-03    -26.1334E+06     36.6473E+06     65.2551E+06     409.512E+03    -289.225E-03     580.553E-03    -291.329E-03     53.6185E-03    -289.689E-03     580.866E-03    -291.018E-03     49.2138E-03
            2045     9.41696E-03     37.3294E-03    -32.1947E+06     30.1561E+06     53.8176E+06     363.181E+03    -289.425E-03     580.886E-03    -291.461E-03     51.6456E-03    -289.860E-03     581.158E-03    -291.189E-03     47.9806E-03
            2046     8.74278E-03     37.2467E-03    -38.2700E+06     21.5920E+06     42.2494E+06     370.830E+03    -289.654E-03     581.256E-03    -291.603E-03     49.1652E-03    -290.058E-03     581.479E-03    -291.367E-03     46.2353E-03
            2047     8.06879E-03     37.1679E-03    -44.4551E+06     12.7493E+06     31.3360E+06     366.557E+03    -289.910E-03     581.662E-03    -291.753E-03     46.2981E-03    -290.288E-03     581.837E-03    -291.550E-03     44.0530E-03
            2048     7.39502E-03     37.0936E-03    -50.8881E+06     5.01963E+06     20.7777E+06     374.570E+03    -290.192E-03     582.097E-03    -291.905E-03     43.1737E-03    -290.552E-03     582.233E-03    -291.734E-03     41.5321E-03
            2049     6.72152E-03     37.0242E-03    -57.5016E+06    -9.29740E+06     9.12473E+06     393.278E+03    -290.511E-03     582.570E-03    -292.059E-03     39.8371E-03    -290.847E-03     582.643E-03    -291.916E-03     38.7214E-03
            2050     6.04830E-03     36.9601E-03    -64.1678E+06    -35.4397E+06    -4.69304E+06     353.756E+03    -290.870E-03     583.083E-03    -292.214E-03     36.3342E-03    -291.166E-03     583.040E-03    -292.093E-03     35.6568E-03
            2051     5.37538E-03     36.9017E-03    -70.7455E+06    -65.1127E+06    -19.3610E+06     337.380E+03    -291.232E-03     583.592E-03    -292.359E-03     32.6798E-03    -291.486E-03     583.420E-03    -292.259E-03     32.3468E-03
            2052     4.70273E-03     36.8494E-03    -77.0737E+06    -90.8585E+06    -34.0843E+06     345.177E+03    -291.572E-03     584.058E-03    -292.486E-03     28.8957E-03    -291.791E-03     583.779E-03    -292.413E-03     28.8211E-03
            2053     4.03035E-03     36.8034E-03    -83.0415E+06    -113.099E+06    -48.7080E+06     301.587E+03    -291.885E-03     584.478E-03    -292.593E-03     24.9994E-03    -292.075E-03     584.113E-03    -292.552E-03     25.1026E-03
            2054     3.35822E-03     36.7641E-03    -88.4873E+06    -132.803E+06    -62.9068E+06     248.030E+03    -292.166E-03     584.846E-03    -292.681E-03     21.0055E-03    -292.329E-03     584.407E-03    -292.674E-03     21.2118E-03
            2055     2.68629E-03     36.7315E-03    -93.1646E+06    -149.545E+06    -76.2681E+06     231.823E+03    -292.405E-03     585.154E-03    -292.749E-03     16.9343E-03    -292.546E-03     584.654E-03    -292.778E-03     17.1793E-03
            2056     2.01455E-03     36.7058E-03    -96.9426E+06    -167.688E+06    -86.9270E+06     206.060E+03    -292.611E-03     585.422E-03    -292.811E-03     12.8149E-03    -292.728E-03     584.852E-03    -292.862E-03     13.0455E-03
            2057     1.34295E-03     36.6873E-03    -99.9010E+06    -181.797E+06    -94.8424E+06     166.186E+03    -292.766E-03     585.624E-03    -292.858E-03     8.68218E-03    -292.865E-03     584.998E-03    -292.924E-03     8.86045E-03
            2058     671.450E-06     36.6759E-03    -101.875E+06    -187.090E+06    -100.495E+06     102.189E+03    -292.887E-03     585.734E-03    -292.847E-03     4.72380E-03    -292.980E-03     585.092E-03    -292.931E-03     4.82754E-03
            2059     12.7894E-03     36.0748E-03    -4.13448E+06     58.5707E+06     81.1205E+06     246.344E+03    -288.408E-03     579.201E-03    -290.793E-03     49.2670E-03    -288.836E-03     579.587E-03    -290.466E-03     43.8132E-03
            2060     12.1145E-03     35.9874E-03    -8.89789E+06     55.6980E+06     81.1856E+06     189.063E+03    -288.486E-03     579.436E-03    -290.950E-03     55.2020E-03    -288.987E-03     579.868E-03    -290.612E-03     49.0825E-03
            2061     11.4396E-03     35.8996E-03    -14.4592E+06     49.3598E+06     78.8359E+06     150.014E+03    -288.568E-03     579.687E-03    -291.119E-03     55.4272E-03    -289.063E-03     580.078E-03    -290.776E-03     49.8489E-03
            2062     10.7647E-03     35.8105E-03    -20.3739E+06     42.5564E+06     73.6813E+06     135.982E+03    -288.730E-03     580.021E-03    -291.291E-03     55.4679E-03    -289.221E-03     580.378E-03    -290.955E-03     50.3305E-03
            2063     10.0901E-03     35.7220E-03    -26.2993E+06     36.7815E+06     65.2009E+06     77.5177E+03    -288.933E-03     580.390E-03    -291.457E-03     54.3437E-03    -289.404E-03     580.709E-03    -291.146E-03     49.8658E-03
            2064     9.41550E-03     35.6356E-03    -32.2692E+06     30.2568E+06     53.7161E+06     28.5068E+03    -289.184E-03     580.804E-03    -291.619E-03     52.4962E-03    -289.626E-03     581.082E-03    -291.348E-03     48.7515E-03
            2065     8.74113E-03     35.5522E-03    -38.3101E+06     21.3366E+06     42.0546E+06     64.8656E+03    -289.478E-03     581.270E-03    -291.792E-03     50.1105E-03    -289.887E-03     581.496E-03    -291.557E-03     47.0944E-03
            2066     8.06701E-03     35.4725E-03    -44.5055E+06     12.5084E+06     31.2246E+06     274.620E+03    -289.802E-03     581.775E-03    -291.973E-03     47.3144E-03    -290.185E-03     581.954E-03    -291.770E-03     44.9781E-03
            2067     7.39319E-03     35.3972E-03    -50.9275E+06     4.95822E+06     20.7486E+06     434.650E+03    -290.151E-03     582.306E-03    -292.155E-03     44.2301E-03    -290.515E-03     582.447E-03    -291.984E-03     42.4963E-03
            2068     6.71966E-03     35.3269E-03    -57.5727E+06    -9.21332E+06     9.05994E+06     459.824E+03    -290.532E-03     582.870E-03    -292.338E-03     40.8954E-03    -290.873E-03     582.947E-03    -292.196E-03     39.6858E-03
            2069     6.04645E-03     35.2619E-03    -64.2763E+06    -35.2569E+06    -4.74730E+06     427.004E+03    -290.955E-03     583.476E-03    -292.521E-03     37.3597E-03    -291.255E-03     583.437E-03    -292.401E-03     36.5900E-03
            2070     5.37358E-03     35.2026E-03    -70.8368E+06    -65.0819E+06    -19.3139E+06     389.100E+03    -291.387E-03     584.081E-03    -292.694E-03     33.6474E-03    -291.644E-03     583.912E-03    -292.594E-03     33.2271E-03
            2071     4.70104E-03     35.1495E-03    -77.1395E+06    -90.7468E+06    -33.9921E+06     363.929E+03    -291.794E-03     584.639E-03    -292.845E-03     29.7871E-03    -292.015E-03     584.363E-03    -292.772E-03     29.6313E-03
            2072     4.02882E-03     35.1027E-03    -83.0756E+06    -112.860E+06    -48.6680E+06     323.391E+03    -292.164E-03     585.137E-03    -292.973E-03     25.7948E-03    -292.356E-03     584.774E-03    -292.932E-03     25.8237E-03
            2073     3.35688E-03     35.0626E-03    -88.5080E+06    -132.629E+06    -62.8664E+06     280.554E+03    -292.493E-03     585.571E-03    -293.078E-03     21.6892E-03    -292.658E-03     585.133E-03    -293.072E-03     21.8294E-03
            2074     2.68519E-03     35.0295E-03    -93.2177E+06    -149.358E+06    -76.1661E+06     229.647E+03    -292.773E-03     585.934E-03    -293.162E-03     17.4966E-03    -292.915E-03     585.436E-03    -293.191E-03     17.6861E-03
            2075     2.01369E-03     35.0034E-03    -97.0557E+06    -167.433E+06    -86.8069E+06     178.357E+03    -293.011E-03     586.246E-03    -293.235E-03     13.2424E-03    -293.129E-03     585.677E-03    -293.286E-03     13.4297E-03
            2076     1.34237E-03     34.9845E-03    -100.008E+06    -181.449E+06    -94.7495E+06     92.6629E+03    -293.185E-03     586.475E-03    -293.289E-03     8.97078E-03    -293.286E-03     585.850E-03    -293.355E-03     9.11835E-03
            2077     671.149E-06     34.9729E-03    -102.034E+06    -186.822E+06    -100.535E+06     18.3426E+03    -293.334E-03     586.602E-03    -293.268E-03     4.89239E-03    -293.428E-03     585.962E-03    -293.352E-03     4.97935E-03
            2078     12.7890E-03     34.3839E-03    -4.23487E+06     58.1578E+06     81.4091E+06    -65.3523E+03    -287.961E-03     578.787E-03    -290.826E-03     49.3950E-03    -288.390E-03     579.172E-03    -290.497E-03     43.9226E-03
            2079     12.1138E-03     34.2962E-03    -8.99317E+06     54.9827E+06     81.3396E+06     468.936E+03    -288.048E-03     579.058E-03    -291.010E-03     55.5049E-03    -288.552E-03     579.489E-03    -290.670E-03     49.3538E-03
            2080     11.4386E-03     34.2081E-03    -14.2898E+06     49.7788E+06     79.2004E+06     722.831E+03    -288.139E-03     579.348E-03    -291.208E-03     55.9608E-03    -288.640E-03     579.744E-03    -290.864E-03     50.3385E-03
            2081     10.7635E-03     34.1184E-03    -20.0644E+06     43.5251E+06     74.0191E+06     273.454E+03    -288.325E-03     579.737E-03    -291.412E-03     56.2203E-03    -288.823E-03     580.103E-03    -291.076E-03     51.0265E-03
            2082     10.0885E-03     34.0293E-03    -26.1088E+06     37.0032E+06     65.1342E+06    -138.296E+03    -288.582E-03     580.195E-03    -291.613E-03     55.2586E-03    -289.059E-03     580.521E-03    -291.303E-03     50.7048E-03
            2083     9.41366E-03     33.9420E-03    -32.2181E+06     30.1086E+06     53.4601E+06    -164.499E+03    -288.903E-03     580.714E-03    -291.811E-03     53.5100E-03    -289.350E-03     580.999E-03    -291.541E-03     49.6766E-03
            2084     8.73911E-03     33.8576E-03    -38.4381E+06     20.8032E+06     41.7372E+06     42.9563E+03    -289.272E-03     581.293E-03    -292.021E-03     51.2011E-03    -289.687E-03     581.524E-03    -291.786E-03     48.0874E-03
            2085     8.06487E-03     33.7769E-03    -44.7716E+06     12.0039E+06     30.9221E+06     253.918E+03    -289.675E-03     581.913E-03    -292.238E-03     48.4878E-03    -290.064E-03     582.096E-03    -292.036E-03     46.0457E-03
            2086     7.39095E-03     33.7005E-03    -51.2264E+06     4.79781E+06     20.5134E+06     401.348E+03    -290.101E-03     582.557E-03    -292.456E-03     45.4428E-03    -290.472E-03     582.703E-03    -292.286E-03     43.6004E-03
            2087     6.71737E-03     33.6290E-03    -57.8311E+06    -9.13110E+06     8.92162E+06     464.333E+03    -290.566E-03     583.241E-03    -292.674E-03     42.0933E-03    -290.913E-03     583.323E-03    -292.532E-03     40.7754E-03
            2088     6.04420E-03     33.5629E-03    -64.4659E+06    -35.1071E+06    -4.80459E+06     424.667E+03    -291.077E-03     583.967E-03    -292.890E-03     38.5085E-03    -291.383E-03     583.933E-03    -292.770E-03     37.6302E-03
            2089     5.37142E-03     33.5026E-03    -70.9903E+06    -64.9707E+06    -19.3260E+06     362.879E+03    -291.588E-03     584.681E-03    -293.093E-03     34.7288E-03    -291.849E-03     584.515E-03    -292.992E-03     34.2043E-03
            2090     4.69903E-03     33.4484E-03    -77.3064E+06    -90.5512E+06    -33.9220E+06     290.079E+03    -292.064E-03     585.335E-03    -293.271E-03     30.7828E-03    -292.289E-03     585.062E-03    -293.197E-03     30.5279E-03
            2091     4.02701E-03     33.4007E-03    -83.2628E+06    -112.681E+06    -48.5527E+06     208.805E+03    -292.495E-03     585.917E-03    -293.422E-03     26.6882E-03    -292.689E-03     585.557E-03    -293.381E-03     26.6236E-03
            2092     3.35530E-03     33.3599E-03    -88.6639E+06    -132.493E+06    -62.7998E+06     161.444E+03    -292.876E-03     586.425E-03    -293.549E-03     22.4711E-03    -293.044E-03     585.990E-03    -293.542E-03     22.5294E-03
            2093     2.68387E-03     33.3260E-03    -93.3240E+06    -149.209E+06    -76.0775E+06     153.203E+03    -293.205E-03     586.856E-03    -293.650E-03     18.1496E-03    -293.349E-03     586.359E-03    -293.679E-03     18.2718E-03
            2094     2.01269E-03     33.2994E-03    -97.1651E+06    -167.184E+06    -86.7649E+06     112.295E+03    -293.484E-03     587.221E-03    -293.737E-03     13.7496E-03    -293.603E-03     586.654E-03    -293.788E-03     13.8847E-03
            2095     1.34170E-03     33.2801E-03    -100.237E+06    -181.232E+06    -94.9808E+06     67.5533E+03    -293.688E-03     587.485E-03    -293.798E-03     9.31733E-03    -293.789E-03     586.863E-03    -293.865E-03     9.42877E-03
            2096     670.823E-06     33.2683E-03    -102.235E+06    -186.662E+06    -100.932E+06     55.2907E+03    -293.834E-03     587.624E-03    -293.790E-03     5.08472E-03    -293.929E-03     586.986E-03    -293.876E-03     5.15300E-03
            2097     12.7886E-03     32.6936E-03    -4.49700E+06     57.7193E+06     81.1885E+06    -31.3797E+03    -287.423E-03     578.287E-03    -290.865E-03     49.6745E-03    -287.854E-03     578.673E-03    -290.536E-03     44.2032E-03
            2098     12.1130E-03     32.6057E-03    -9.21197E+06     53.7931E+06     81.2824E+06     76.6311E+03    -287.523E-03     578.606E-03    -291.083E-03     56.0406E-03    -288.030E-03     579.036E-03    -290.741E-03     49.8566E-03
            2099     11.4374E-03     32.5172E-03    -14.1858E+06     49.8496E+06     79.4589E+06     289.269E+03    -287.630E-03     578.947E-03    -291.317E-03     56.7043E-03    -288.137E-03     579.349E-03    -290.971E-03     51.0226E-03
            2100     10.7618E-03     32.4268E-03    -19.6637E+06     44.5542E+06     74.3734E+06     345.327E+03    -287.861E-03     579.418E-03    -291.558E-03     57.0876E-03    -288.365E-03     579.796E-03    -291.222E-03     51.8261E-03
            2101     10.0866E-03     32.3368E-03    -25.7221E+06     37.4413E+06     65.2572E+06     198.098E+03    -288.184E-03     579.983E-03    -291.799E-03     56.2564E-03    -288.667E-03     580.319E-03    -291.490E-03     51.6189E-03
            2102     9.41151E-03     32.2485E-03    -32.1054E+06     29.7013E+06     53.3245E+06     236.842E+03    -288.585E-03     580.625E-03    -292.040E-03     54.6389E-03    -289.038E-03     580.915E-03    -291.770E-03     50.7115E-03
            2103     8.73675E-03     32.1630E-03    -38.4974E+06     20.5205E+06     41.5479E+06     342.340E+03    -289.046E-03     581.338E-03    -292.292E-03     52.4242E-03    -289.468E-03     581.576E-03    -292.058E-03     49.2073E-03
            2104     8.06232E-03     32.0811E-03    -44.8411E+06     11.8792E+06     30.7422E+06     329.463E+03    -289.550E-03     582.100E-03    -292.550E-03     49.7622E-03    -289.946E-03     582.289E-03    -292.348E-03     47.2056E-03
            2105     7.38830E-03     32.0034E-03    -51.2475E+06     4.63507E+06     20.3889E+06     328.055E+03    -290.076E-03     582.883E-03    -292.807E-03     46.7045E-03    -290.453E-03     583.035E-03    -292.638E-03     44.7404E-03
            2106     6.71473E-03     31.9305E-03    -57.7754E+06    -9.09700E+06     8.87618E+06     331.317E+03    -290.629E-03     583.692E-03    -293.063E-03     43.3147E-03    -290.980E-03     583.780E-03    -292.921E-03     41.8729E-03
            2107     6.04160E-03     31.8631E-03    -64.3839E+06    -35.0918E+06    -4.82566E+06     347.831E+03    -291.223E-03     584.537E-03    -293.314E-03     39.6862E-03    -291.532E-03     584.507E-03    -293.194E-03     38.6866E-03
            2108     5.36893E-03     31.8015E-03    -70.9181E+06    -64.8766E+06    -19.3516E+06     356.849E+03    -291.817E-03     585.368E-03    -293.551E-03     35.8570E-03    -292.081E-03     585.206E-03    -293.451E-03     35.2167E-03
            2109     4.69672E-03     31.7461E-03    -77.2533E+06    -90.2776E+06    -33.9063E+06     290.733E+03    -292.365E-03     586.125E-03    -293.760E-03     31.8463E-03    -292.592E-03     585.856E-03    -293.687E-03     31.4834E-03
            2110     4.02490E-03     31.6974E-03    -83.3010E+06    -112.428E+06    -48.4466E+06     179.688E+03    -292.865E-03     586.807E-03    -293.942E-03     27.6617E-03    -293.062E-03     586.450E-03    -293.900E-03     27.4983E-03
            2111     3.35345E-03     31.6555E-03    -88.8376E+06    -132.236E+06    -62.7621E+06     14.8832E+03    -293.315E-03     587.410E-03    -294.095E-03     23.3265E-03    -293.485E-03     586.977E-03    -294.088E-03     23.2972E-03
            2112     2.68234E-03     31.6209E-03    -93.5412E+06    -149.407E+06    -76.4077E+06    -38.9319E+03    -293.702E-03     587.919E-03    -294.217E-03     18.8594E-03    -293.847E-03     587.424E-03    -294.247E-03     18.9085E-03
            2113     2.01149E-03     31.5936E-03    -97.3278E+06    -167.381E+06    -87.3936E+06     187.973E+03    -294.028E-03     588.348E-03    -294.320E-03     14.2955E-03    -294.148E-03     587.782E-03    -294.374E-03     14.3785E-03
            2114     1.34087E-03     31.5739E-03    -100.308E+06    -180.884E+06    -95.4137E+06     320.352E+03    -294.268E-03     588.663E-03    -294.395E-03     9.69020E-03    -294.370E-03     588.043E-03    -294.464E-03     9.76796E-03
            2115     670.403E-06     31.5618E-03    -102.229E+06    -186.108E+06    -100.969E+06     193.942E+03    -294.436E-03     588.834E-03    -294.397E-03     5.27753E-03    -294.532E-03     588.198E-03    -294.484E-03     5.32506E-03
            2116     12.7879E-03     31.0042E-03    -4.23813E+06     57.9122E+06     81.2822E+06     18.2218E+03    -286.766E-03     577.675E-03    -290.909E-03     49.8456E-03    -287.199E-03     578.063E-03    -290.581E-03     44.3581E-03
            2117     12.1119E-03     30.9161E-03    -8.97828E+06     53.8592E+06     81.0918E+06    -177.327E+03    -286.875E-03     578.040E-03    -291.166E-03     56.4656E-03    -287.386E-03     578.475E-03    -290.825E-03     50.2266E-03
            2118     11.4359E-03     30.8270E-03    -14.2695E+06     49.1388E+06     79.0197E+06    -157.972E+03    -287.038E-03     578.481E-03    -291.442E-03     57.4268E-03    -287.550E-03     578.887E-03    -291.098E-03     51.6702E-03
            2119     10.7601E-03     30.7358E-03    -20.0034E+06     44.2320E+06     74.0691E+06     182.071E+03    -287.344E-03     579.073E-03    -291.729E-03     58.0398E-03    -287.857E-03     579.457E-03    -291.394E-03     52.7045E-03
            2120     10.0844E-03     30.6448E-03    -26.0839E+06     37.3314E+06     65.1402E+06     551.098E+03    -287.759E-03     579.776E-03    -292.017E-03     57.3635E-03    -288.252E-03     580.120E-03    -291.707E-03     52.6448E-03
            2121     9.40898E-03     30.5553E-03    -32.2825E+06     29.6833E+06     53.3251E+06     645.057E+03    -288.271E-03     580.573E-03    -292.303E-03     55.8166E-03    -288.733E-03     580.872E-03    -292.032E-03     51.7934E-03
            2122     8.73397E-03     30.4684E-03    -38.4266E+06     20.9240E+06     41.6976E+06     451.003E+03    -288.845E-03     581.442E-03    -292.597E-03     53.6155E-03    -289.276E-03     581.690E-03    -292.363E-03     50.2852E-03
            2123     8.05944E-03     30.3849E-03    -44.5761E+06     11.9742E+06     30.9019E+06     285.503E+03    -289.456E-03     582.353E-03    -292.897E-03     50.9600E-03    -289.858E-03     582.550E-03    -292.695E-03     48.2794E-03
            2124     7.38540E-03     30.3056E-03    -50.9212E+06     4.56846E+06     20.4574E+06     287.200E+03    -290.071E-03     583.265E-03    -293.194E-03     47.8989E-03    -290.453E-03     583.423E-03    -293.025E-03     45.8082E-03
            2125     6.71183E-03     30.2312E-03    -57.5386E+06    -9.15831E+06     8.79164E+06     345.885E+03    -290.704E-03     584.193E-03    -293.488E-03     44.4924E-03    -291.059E-03     584.285E-03    -293.348E-03     42.9277E-03
            2126     6.03875E-03     30.1622E-03    -64.2226E+06    -35.1789E+06    -4.95811E+06     376.731E+03    -291.380E-03     585.159E-03    -293.779E-03     40.8310E-03    -291.692E-03     585.132E-03    -293.659E-03     39.7171E-03
            2127     5.36619E-03     30.0991E-03    -70.7484E+06    -64.7755E+06    -19.5026E+06     353.993E+03    -292.057E-03     586.110E-03    -294.052E-03     36.9374E-03    -292.324E-03     585.952E-03    -293.953E-03     36.1894E-03
            2128     4.69412E-03     30.0424E-03    -77.0075E+06    -90.0071E+06    -34.1058E+06     280.615E+03    -292.689E-03     586.986E-03    -294.297E-03     32.8338E-03    -292.918E-03     586.721E-03    -294.225E-03     32.3709E-03
            2129     4.02253E-03     29.9924E-03    -82.8871E+06    -112.190E+06    -48.6435E+06     195.807E+03    -293.275E-03     587.786E-03    -294.511E-03     28.5383E-03    -293.472E-03     587.432E-03    -294.471E-03     28.2891E-03
            2130     3.35138E-03     29.9494E-03    -88.2015E+06    -131.396E+06    -62.8207E+06    -87.7019E+03    -293.802E-03     588.493E-03    -294.691E-03     24.0728E-03    -293.971E-03     588.065E-03    -294.687E-03     23.9675E-03
            2131     2.68061E-03     29.9138E-03    -92.8047E+06    -150.356E+06    -75.6635E+06    -143.118E+03    -294.257E-03     589.099E-03    -294.843E-03     19.4634E-03    -294.399E-03     588.598E-03    -294.869E-03     19.4485E-03
            2132     2.01016E-03     29.8857E-03    -96.7014E+06    -168.347E+06    -86.3512E+06     442.157E+03    -294.627E-03     589.594E-03    -294.966E-03     14.7443E-03    -294.744E-03     589.020E-03    -295.014E-03     14.7833E-03
            2133     1.33996E-03     29.8654E-03    -99.7692E+06    -179.646E+06    -94.7677E+06     606.115E+03    -294.894E-03     589.946E-03    -295.052E-03     9.99004E-03    -294.996E-03     589.331E-03    -295.121E-03     10.0404E-03
            2134     669.931E-06     29.8530E-03    -101.757E+06    -185.029E+06    -100.405E+06     261.953E+03    -295.084E-03     590.166E-03    -295.082E-03     5.45756E-03    -295.179E-03     589.534E-03    -295.168E-03     5.48878E-03
            2135     12.7874E-03     29.3160E-03    -4.38339E+06     58.0910E+06     80.8949E+06     8.56681E+03    -286.017E-03     576.976E-03    -290.959E-03     50.2583E-03    -286.453E-03     577.368E-03    -290.633E-03     44.7732E-03
            2136     12.1109E-03     29.2276E-03    -9.27033E+06     54.3095E+06     80.6743E+06    -47.9527E+03    -286.182E-03     577.441E-03    -291.259E-03     57.1167E-03    -286.700E-03     577.885E-03    -290.921E-03     50.8458E-03
            2137     11.4343E-03     29.1378E-03    -14.6359E+06     48.7515E+06     78.5732E+06    -91.4838E+03    -286.425E-03     578.009E-03    -291.583E-03     58.2462E-03    -286.945E-03     578.421E-03    -291.240E-03     52.4330E-03
            2138     10.7579E-03     29.0455E-03    -20.4041E+06     43.1186E+06     73.5699E+06     184.773E+03    -286.844E-03     578.761E-03    -291.917E-03     58.9189E-03    -287.364E-03     579.148E-03    -291.582E-03     53.5113E-03
            2139     10.0818E-03     28.9531E-03    -26.3304E+06     36.9302E+06     64.8932E+06     445.005E+03    -287.376E-03     579.625E-03    -292.248E-03     58.2694E-03    -287.878E-03     579.976E-03    -291.939E-03     53.4493E-03
            2140     9.40628E-03     28.8620E-03    -32.2148E+06     30.1512E+06     53.4625E+06     352.000E+03    -287.989E-03     580.567E-03    -292.578E-03     56.7718E-03    -288.461E-03     580.876E-03    -292.307E-03     52.6305E-03
            2141     8.73116E-03     28.7735E-03    -38.1648E+06     21.2404E+06     41.9162E+06     234.076E+03    -288.663E-03     581.578E-03    -292.914E-03     54.6239E-03    -289.100E-03     581.833E-03    -292.680E-03     51.1758E-03
            2142     8.05653E-03     28.6883E-03    -44.4030E+06     11.8717E+06     30.9305E+06     318.090E+03    -289.367E-03     582.622E-03    -293.255E-03     51.9999E-03    -289.774E-03     582.824E-03    -293.053E-03     49.2102E-03
            2143     7.38239E-03     28.6072E-03    -50.9445E+06     4.47570E+06     20.3683E+06     438.664E+03    -290.070E-03     583.663E-03    -293.592E-03     48.9253E-03    -290.457E-03     583.825E-03    -293.423E-03     46.7354E-03
            2144     6.70879E-03     28.5310E-03    -57.6098E+06    -9.14855E+06     8.69677E+06     461.914E+03    -290.803E-03     584.728E-03    -293.925E-03     45.4590E-03    -291.162E-03     584.825E-03    -293.785E-03     43.8044E-03
            2145     6.03577E-03     28.4603E-03    -64.2061E+06    -35.0428E+06    -5.04560E+06     363.764E+03    -291.578E-03     585.828E-03    -294.250E-03     41.6984E-03    -291.893E-03     585.806E-03    -294.132E-03     40.5023E-03
            2146     5.36334E-03     28.3955E-03    -70.6111E+06    -64.5807E+06    -19.6147E+06     222.033E+03    -292.342E-03     586.898E-03    -294.556E-03     37.6770E-03    -292.610E-03     586.743E-03    -294.458E-03     36.8538E-03
            2147     4.69148E-03     28.3372E-03    -76.7335E+06    -89.8240E+06    -34.2546E+06     122.300E+03    -293.055E-03     587.884E-03    -294.829E-03     33.4378E-03    -293.284E-03     587.621E-03    -294.758E-03     32.9104E-03
            2148     4.02016E-03     28.2857E-03    -82.4485E+06    -111.913E+06    -48.8122E+06    -9.15306E+03    -293.710E-03     588.777E-03    -295.067E-03     29.0216E-03    -293.906E-03     588.424E-03    -295.029E-03     28.7198E-03
            2149     3.34932E-03     28.2414E-03    -87.6714E+06    -130.715E+06    -62.9873E+06    -161.838E+03    -294.290E-03     589.558E-03    -295.268E-03     24.4471E-03    -294.458E-03     589.134E-03    -295.267E-03     24.3011E-03
            2150     2.67890E-03     28.2046E-03    -92.3687E+06    -151.632E+06    -75.0551E+06    -31.1905E+03    -294.800E-03     590.245E-03    -295.445E-03     19.7456E-03    -294.939E-03     589.736E-03    -295.467E-03     19.7008E-03
            2151     2.00886E-03     28.1757E-03    -96.3856E+06    -169.361E+06    -85.2410E+06     396.575E+03    -295.208E-03     590.793E-03    -295.585E-03     14.9478E-03    -295.324E-03     590.213E-03    -295.626E-03     14.9629E-03
            2152     1.33907E-03     28.1548E-03    -99.4285E+06    -178.121E+06    -94.1440E+06     550.794E+03    -295.498E-03     591.173E-03    -295.675E-03     10.1211E-03    -295.601E-03     590.565E-03    -295.744E-03     10.1591E-03
            2153     669.478E-06     28.1419E-03    -101.343E+06    -183.689E+06    -100.018E+06     306.861E+03    -295.681E-03     591.420E-03    -295.739E-03     5.51262E-03    -295.777E-03     590.794E-03    -295.826E-03     5.54062E-03
            2154     12.7864E-03     27.6291E-03    -4.40058E+06     58.0574E+06     80.6343E+06     114.094E+03    -285.239E-03     576.252E-03    -291.012E-03     50.4400E-03    -285.676E-03     576.645E-03    -290.687E-03     44.9447E-03
            2155     12.1093E-03     27.5400E-03    -9.15591E+06     54.4547E+06     80.7354E+06     172.373E+03    -285.530E-03     576.887E-03    -291.357E-03     57.4476E-03    -286.052E-03     577.336E-03    -291.019E-03     51.1227E-03
            2156     11.4325E-03     27.4493E-03    -14.4855E+06     48.7334E+06     78.6207E+06     154.387E+03    -285.898E-03     577.621E-03    -291.722E-03     58.6997E-03    -286.424E-03     578.040E-03    -291.379E-03     52.7952E-03
            2157     10.7559E-03     27.3556E-03    -20.1400E+06     42.6238E+06     73.6435E+06     78.7270E+03    -286.402E-03     578.498E-03    -292.097E-03     59.4805E-03    -286.927E-03     578.890E-03    -291.761E-03     53.9851E-03
            2158     10.0797E-03     27.2617E-03    -25.9861E+06     36.8238E+06     65.1556E+06     65.8757E+03    -287.015E-03     579.484E-03    -292.469E-03     58.9572E-03    -287.521E-03     579.840E-03    -292.159E-03     54.0496E-03
            2159     9.40383E-03     27.1689E-03    -32.1151E+06     30.3230E+06     53.4996E+06     133.386E+03    -287.731E-03     580.569E-03    -292.837E-03     57.5415E-03    -288.208E-03     580.884E-03    -292.567E-03     53.3259E-03
            2160     8.72845E-03     27.0785E-03    -38.4570E+06     20.9806E+06     41.5857E+06     291.890E+03    -288.526E-03     581.737E-03    -293.211E-03     55.3643E-03    -288.968E-03     581.997E-03    -292.978E-03     51.8590E-03
            2161     8.05367E-03     26.9913E-03    -44.8196E+06     11.6922E+06     30.7072E+06     411.638E+03    -289.346E-03     582.933E-03    -293.587E-03     52.6183E-03    -289.758E-03     583.138E-03    -293.385E-03     49.7807E-03
            2162     7.37951E-03     26.9082E-03    -51.1524E+06     4.54607E+06     20.4230E+06     382.784E+03    -290.157E-03     584.110E-03    -293.953E-03     49.3815E-03    -290.546E-03     584.275E-03    -293.784E-03     47.1486E-03
            2163     6.70598E-03     26.8300E-03    -57.5622E+06    -8.96573E+06     8.89359E+06     275.166E+03    -290.981E-03     585.291E-03    -294.311E-03     45.7554E-03    -291.341E-03     585.390E-03    -294.170E-03     44.0647E-03
            2164     6.03312E-03     26.7573E-03    -64.0382E+06    -34.7753E+06    -4.86234E+06     167.005E+03    -291.830E-03     586.486E-03    -294.656E-03     41.8585E-03    -292.145E-03     586.465E-03    -294.537E-03     40.6340E-03
            2165     5.36091E-03     26.6906E-03    -70.4525E+06    -64.3923E+06    -19.5162E+06     81.3270E+03    -292.655E-03     587.633E-03    -294.978E-03     37.7352E-03    -292.924E-03     587.479E-03    -294.880E-03     36.8936E-03
            2166     4.68931E-03     26.6305E-03    -76.6557E+06    -89.6821E+06    -34.2028E+06    -3.35891E+03    -293.416E-03     588.679E-03    -295.263E-03     33.4240E-03    -293.645E-03     588.417E-03    -295.193E-03     32.8867E-03
            2167     4.01826E-03     26.5773E-03    -82.5303E+06    -111.738E+06    -48.8052E+06    -58.7498E+03    -294.101E-03     589.611E-03    -295.511E-03     28.9553E-03    -294.297E-03     589.260E-03    -295.473E-03     28.6483E-03
            2168     3.34771E-03     26.5316E-03    -87.9391E+06    -130.872E+06    -63.1039E+06     26.8535E+03    -294.702E-03     590.423E-03    -295.721E-03     24.3487E-03    -294.871E-03     589.998E-03    -295.719E-03     24.2039E-03
            2169     2.67760E-03     26.4937E-03    -92.6935E+06    -152.212E+06    -75.4503E+06     152.819E+03    -295.231E-03     591.135E-03    -295.905E-03     19.6361E-03    -295.370E-03     590.624E-03    -295.927E-03     19.5929E-03
            2170     2.00786E-03     26.4638E-03    -96.6786E+06    -169.609E+06    -85.7525E+06     150.917E+03    -295.661E-03     591.710E-03    -296.048E-03     14.8521E-03    -295.778E-03     591.129E-03    -296.091E-03     14.8624E-03
            2171     1.33841E-03     26.4421E-03    -99.7120E+06    -177.498E+06    -94.4798E+06     155.061E+03    -295.966E-03     592.105E-03    -296.139E-03     10.0498E-03    -296.071E-03     591.501E-03    -296.210E-03     10.0815E-03
            2172     669.162E-06     26.4288E-03    -101.567E+06    -182.630E+06    -100.205E+06     161.155E+03    -296.143E-03     592.346E-03    -296.203E-03     5.46352E-03    -296.241E-03     591.726E-03    -296.292E-03     5.48967E-03
            2173     12.7861E-03     25.9435E-03    -4.28582E+06      57.892E+06     80.8339E+06     161.786E+03    -284.538E-03     575.588E-03    -291.050E-03     50.4247E-03    -284.977E-03     575.983E-03    -290.723E-03     44.8839E-03
            2174     12.1087E-03     25.8534E-03    -9.04341E+06     54.5049E+06     80.7592E+06     215.563E+03    -284.866E-03     576.299E-03    -291.434E-03     57.6959E-03    -285.392E-03     576.753E-03    -291.096E-03     51.3275E-03
            2175     11.4314E-03     25.7614E-03    -14.2795E+06     48.8851E+06     78.7371E+06     229.211E+03    -285.357E-03     577.197E-03    -291.840E-03     59.2486E-03    -285.888E-03     577.622E-03    -291.497E-03     53.2964E-03
            2176     10.7543E-03     25.6663E-03    -20.1139E+06     42.9522E+06     73.6673E+06     118.704E+03    -286.023E-03     578.274E-03    -292.252E-03     60.1677E-03    -286.553E-03     578.672E-03    -291.917E-03     54.6379E-03
            2177     10.0776E-03     25.5707E-03    -26.3328E+06     36.7108E+06     64.7693E+06     47.4943E+03    -286.801E-03     579.457E-03    -292.656E-03     59.5588E-03    -287.312E-03     579.817E-03    -292.347E-03     54.6331E-03
            2178     9.40160E-03     25.4759E-03    -32.5309E+06     29.7973E+06     53.1169E+06     224.919E+03    -287.679E-03     580.728E-03    -293.049E-03     57.9052E-03    -288.158E-03     581.043E-03    -292.780E-03     53.6724E-03
            2179     8.72623E-03     25.3832E-03    -38.5879E+06     20.9244E+06     41.6755E+06     311.387E+03    -288.591E-03     582.032E-03    -293.441E-03     55.4526E-03    -289.035E-03     582.293E-03    -293.207E-03     51.9281E-03
            2180     8.05155E-03     25.2938E-03    -44.6150E+06     11.9420E+06     31.0598E+06     127.177E+03    -289.494E-03     583.321E-03    -293.827E-03     52.4697E-03    -289.906E-03     583.527E-03    -293.624E-03     49.6159E-03
            2181     7.37757E-03     25.2084E-03    -50.8248E+06     4.65200E+06     20.7528E+06     3.72183E+03    -290.363E-03     584.562E-03    -294.199E-03     49.0680E-03    -290.751E-03     584.726E-03    -294.028E-03     46.8286E-03
            2182     6.70425E-03     25.1281E-03    -57.3077E+06    -8.92639E+06     9.14206E+06     26.7123E+03    -291.222E-03     585.779E-03    -294.557E-03     45.3318E-03    -291.581E-03     585.876E-03    -294.415E-03     43.6461E-03
            2183     6.03157E-03     25.0533E-03    -63.9168E+06    -34.7013E+06    -4.65400E+06     60.2428E+03    -292.088E-03     586.988E-03    -294.900E-03     41.3563E-03    -292.403E-03     586.966E-03    -294.780E-03     40.1454E-03
            2184     5.35954E-03     24.9846E-03    -70.4299E+06    -64.2695E+06    -19.2855E+06     47.8742E+03    -292.922E-03     588.139E-03    -295.217E-03     37.1894E-03    -293.190E-03     587.985E-03    -295.118E-03     36.3659E-03
            2185     4.68813E-03     24.9227E-03    -76.7110E+06    -89.6189E+06    -33.9887E+06     36.4277E+03    -293.684E-03     589.180E-03    -295.496E-03     32.8653E-03    -293.913E-03     588.917E-03    -295.425E-03     32.3459E-03
            2186     4.01727E-03     24.8679E-03    -82.6378E+06    -111.819E+06    -48.6430E+06     78.6037E+03    -294.363E-03     590.100E-03    -295.737E-03     28.4060E-03    -294.560E-03     589.747E-03    -295.698E-03     28.1130E-03
            2187     3.34691E-03     24.8207E-03    -87.9648E+06    -131.197E+06    -62.9337E+06     158.704E+03    -294.953E-03     590.891E-03    -295.938E-03     23.8379E-03    -295.121E-03     590.463E-03    -295.935E-03     23.7037E-03
            2188     2.67698E-03     24.7815E-03    -92.6045E+06    -152.155E+06    -75.3091E+06     218.078E+03    -295.463E-03     591.575E-03    -296.112E-03     19.1882E-03    -295.602E-03     591.064E-03    -296.134E-03     19.1514E-03
            2189     2.00741E-03     24.7506E-03    -96.6110E+06    -169.242E+06    -85.7726E+06     169.889E+03    -295.875E-03     592.123E-03    -296.248E-03     14.4967E-03    -295.991E-03     591.544E-03    -296.292E-03     14.5100E-03
            2190     1.33812E-03     24.7282E-03    -99.7992E+06    -177.314E+06    -94.6800E+06     57.8448E+03    -296.164E-03     592.499E-03    -296.335E-03     9.80949E-03    -296.270E-03     591.895E-03    -296.406E-03     9.83835E-03
            2191     669.012E-06     24.7145E-03    -101.790E+06    -182.267E+06    -100.484E+06     3.35156E+03    -296.310E-03     592.732E-03    -296.423E-03     5.35984E-03    -296.409E-03     592.115E-03    -296.513E-03     5.38148E-03
            2192     12.7858E-03     24.2588E-03    -4.34956E+06     57.5831E+06     80.8924E+06     132.946E+03    -283.921E-03     575.001E-03    -291.080E-03     51.1128E-03    -284.363E-03     575.398E-03    -290.753E-03     45.5750E-03
            2193     12.1078E-03     24.1681E-03    -9.21554E+06     54.4980E+06     80.8371E+06     209.963E+03    -284.398E-03     575.896E-03    -291.498E-03     58.4586E-03    -284.929E-03     576.353E-03    -291.159E-03     52.0904E-03
            2194     11.4300E-03     24.0744E-03    -14.6085E+06     48.8662E+06     78.5318E+06     272.226E+03    -285.075E-03     577.005E-03    -291.930E-03     59.8053E-03    -285.610E-03     577.434E-03    -291.587E-03     53.8495E-03
            2195     10.7527E-03     23.9773E-03    -20.2915E+06     43.2094E+06     73.3672E+06     352.771E+03    -285.982E-03     578.340E-03    -292.357E-03     60.3230E-03    -286.516E-03     578.741E-03    -292.024E-03     54.7731E-03
            2196     10.0762E-03     23.8795E-03    -26.1938E+06     36.9191E+06     64.7903E+06     215.098E+03    -286.947E-03     579.713E-03    -292.766E-03     59.3258E-03    -287.458E-03     580.074E-03    -292.457E-03     54.3689E-03
            2197     9.40044E-03     23.7824E-03    -32.1303E+06     29.7384E+06     53.4974E+06    -37.8471E+03    -287.906E-03     581.060E-03    -293.154E-03     57.4152E-03    -288.383E-03     581.374E-03    -292.883E-03     53.1546E-03
            2198     8.72533E-03     23.6874E-03    -38.0179E+06     21.1379E+06     42.2018E+06    -221.364E+03    -288.859E-03     582.392E-03    -293.533E-03     54.8005E-03    -289.299E-03     582.650E-03    -293.297E-03     51.2655E-03
            2199     8.05089E-03     23.5957E-03    -44.1192E+06     11.9625E+06     31.4334E+06    -177.219E+03    -289.784E-03     583.684E-03    -293.900E-03     51.6598E-03    -290.191E-03     583.885E-03    -293.696E-03     48.8221E-03
            2200     7.37709E-03     23.5081E-03    -50.5782E+06     4.55653E+06     20.9968E+06    -43.9249E+03    -290.649E-03     584.898E-03    -294.249E-03     48.1094E-03    -291.033E-03     585.058E-03    -294.077E-03     45.9033E-03
            2201     6.70393E-03     23.4256E-03    -57.2470E+06    -9.02343E+06     9.40821E+06     13.0094E+03    -291.490E-03     586.070E-03    -294.581E-03     44.2511E-03    -291.846E-03     586.164E-03    -294.438E-03     42.6020E-03
            2202     6.03144E-03     23.3487E-03    -63.8896E+06    -34.6711E+06    -4.31613E+06     14.2402E+03    -292.324E-03     587.218E-03    -294.894E-03     40.1763E-03    -292.636E-03     587.193E-03    -294.773E-03     38.9993E-03
            2203     5.35958E-03     23.2781E-03    -70.3595E+06    -64.2202E+06    -18.9153E+06     5.43217E+03    -293.108E-03     588.286E-03    -295.178E-03     35.9455E-03    -293.374E-03     588.129E-03    -295.078E-03     35.1535E-03
            2204     4.68830E-03     23.2144E-03    -76.5958E+06    -89.6255E+06    -33.6237E+06     28.0749E+03    -293.808E-03     589.231E-03    -295.424E-03     31.6035E-03    -294.035E-03     588.966E-03    -295.351E-03     31.1129E-03
            2205     4.01754E-03     23.1580E-03    -82.4753E+06    -111.895E+06    -48.2984E+06     69.2881E+03    -294.422E-03     590.052E-03    -295.630E-03     27.1810E-03    -294.617E-03     589.698E-03    -295.590E-03     26.9136E-03
            2206     3.34724E-03     23.1095E-03    -87.8427E+06    -131.389E+06    -62.6036E+06     158.761E+03    -294.944E-03     590.744E-03    -295.800E-03     22.7064E-03    -295.112E-03     590.315E-03    -295.795E-03     22.5955E-03
            2207     2.67731E-03     23.0691E-03    -92.5890E+06    -152.036E+06    -75.0964E+06     258.130E+03    -295.385E-03     591.328E-03    -295.943E-03     18.2076E-03    -295.524E-03     590.817E-03    -295.964E-03     18.1940E-03
            2208     2.00771E-03     23.0373E-03    -96.6179E+06    -168.753E+06    -85.6694E+06     250.004E+03    -295.731E-03     591.784E-03    -296.054E-03     13.7102E-03    -295.848E-03     591.208E-03    -296.097E-03     13.7440E-03
            2209     1.33832E-03     23.0143E-03    -99.7400E+06    -176.889E+06    -94.5907E+06     168.576E+03    -295.972E-03     592.095E-03    -296.123E-03     9.24646E-03    -296.078E-03     591.494E-03    -296.195E-03     9.29178E-03
            2210     669.104E-06     23.0000E-03    -101.739E+06    -182.042E+06    -100.460E+06      62.193E+03    -296.060E-03     592.295E-03    -296.234E-03     5.01863E-03    -296.160E-03     591.678E-03    -296.325E-03     5.04770E-03
            2211     12.7851E-03     22.5753E-03    -4.51348E+06     57.4132E+06     80.7635E+06     71.7492E+03    -283.627E-03     574.729E-03    -291.102E-03     51.3447E-03    -284.073E-03     575.129E-03    -290.775E-03     45.7636E-03
            2212     12.1070E-03     22.4829E-03    -9.16387E+06     54.0845E+06     80.6719E+06     278.178E+03    -284.414E-03     575.942E-03    -291.528E-03     58.4670E-03    -284.948E-03     576.402E-03    -291.189E-03     52.0238E-03
            2213     11.4296E-03     22.3875E-03    -14.3097E+06     48.8314E+06     78.6853E+06     339.840E+03    -285.342E-03     577.296E-03    -291.954E-03     59.5509E-03    -285.880E-03     577.728E-03    -291.610E-03     53.5121E-03
            2214     10.7527E-03     22.2879E-03    -19.8417E+06     43.6265E+06     73.9697E+06     85.4687E+03    -286.342E-03     578.704E-03    -292.362E-03     59.8066E-03    -286.875E-03     579.107E-03    -292.027E-03     54.2019E-03
            2215     10.0766E-03     22.1878E-03    -25.5892E+06     37.4974E+06     65.6150E+06    -147.580E+03    -287.350E-03     580.094E-03    -292.743E-03     58.6325E-03    -287.859E-03     580.454E-03    -292.433E-03     53.6556E-03
            2216     9.40105E-03     22.0885E-03    -31.6177E+06     30.1812E+06     54.0200E+06    -325.815E+03    -288.369E-03     581.463E-03    -293.095E-03     56.5282E-03    -288.841E-03     581.774E-03    -292.823E-03     52.2862E-03
            2217     8.72615E-03     21.9912E-03    -37.9022E+06     20.9196E+06     42.1688E+06    -288.854E+03    -289.351E-03     582.778E-03    -293.427E-03     53.5988E-03    -289.786E-03     583.030E-03    -293.191E-03     50.1051E-03
            2218     8.05199E-03     21.8972E-03    -44.2764E+06     11.6070E+06     31.3284E+06    -135.001E+03    -290.251E-03     583.990E-03    -293.740E-03     50.1104E-03    -290.653E-03     584.186E-03    -293.536E-03     47.3204E-03
            2219     7.37852E-03     21.8075E-03    -50.6636E+06     4.48207E+06     21.2195E+06    -96.7334E+03    -291.054E-03     585.082E-03    -294.028E-03     46.2856E-03    -291.434E-03     585.236E-03    -293.855E-03     44.1231E-03
            2220     6.70570E-03     21.7229E-03    -57.1329E+06    -8.95048E+06     9.82747E+06    -142.647E+03    -291.804E-03     586.098E-03    -294.293E-03     42.2323E-03    -292.157E-03     586.187E-03    -294.148E-03     40.6191E-03
            2221     6.03345E-03     21.6441E-03    -63.6730E+06    -34.6129E+06    -3.90064E+06    -150.242E+03    -292.525E-03     587.061E-03    -294.536E-03     38.0345E-03    -292.834E-03     587.032E-03    -294.413E-03     36.8885E-03
            2222     5.36176E-03     21.5718E-03    -70.1317E+06    -64.1967E+06    -18.5443E+06    -111.788E+03    -293.179E-03     587.926E-03    -294.748E-03     33.7604E-03    -293.442E-03     587.766E-03    -294.646E-03     32.9979E-03
            2223     4.69056E-03     21.5066E-03    -76.3766E+06    -89.6368E+06    -33.2555E+06    -62.7884E+03    -293.732E-03     588.652E-03    -294.921E-03     29.4518E-03    -293.957E-03     588.385E-03    -294.846E-03     28.9903E-03
            2224     4.01975E-03     21.4488E-03    -82.3048E+06    -111.969E+06    -47.9319E+06     29.3111E+03    -294.190E-03     589.248E-03    -295.058E-03     25.1405E-03    -294.383E-03     588.891E-03    -295.016E-03     24.9012E-03
            2225     3.34930E-03     21.3992E-03    -87.7166E+06    -131.569E+06    -62.2525E+06     167.794E+03    -294.563E-03     589.726E-03    -295.163E-03     20.8621E-03    -294.729E-03     589.294E-03    -295.157E-03     20.7772E-03
            2226     2.67912E-03     21.3579E-03    -92.4352E+06    -151.875E+06    -74.8009E+06     275.545E+03    -294.868E-03     590.117E-03    -295.250E-03     16.6334E-03    -295.006E-03     589.605E-03    -295.270E-03     16.6415E-03
            2227     2.00915E-03     21.3254E-03    -96.4614E+06    -168.223E+06    -85.4672E+06     251.652E+03    -295.097E-03     590.408E-03    -295.311E-03     12.4635E-03    -295.214E-03     589.833E-03    -295.355E-03     12.5131E-03
            2228     1.33936E-03     21.3018E-03    -99.5991E+06    -176.398E+06    -94.4047E+06     157.846E+03    -295.250E-03     590.592E-03    -295.342E-03     8.37902E-03    -295.356E-03     589.992E-03    -295.414E-03     8.43580E-03
            2229     669.670E-06     21.2873E-03    -101.607E+06    -181.583E+06    -100.291E+06     78.0943E+03    -295.281E-03     590.695E-03    -295.414E-03     4.51847E-03    -295.380E-03     590.080E-03    -295.505E-03     4.54736E-03
            2230     12.7856E-03     20.8918E-03    -4.27267E+06     57.3223E+06     80.7271E+06     53.0260E+03    -283.916E-03     574.997E-03    -291.081E-03     51.3451E-03    -284.366E-03     575.400E-03    -290.754E-03     45.6632E-03
            2231     12.1078E-03     20.7976E-03    -8.91782E+06     53.9206E+06     80.8096E+06    -52.4089E+03    -284.828E-03     576.314E-03    -291.486E-03     58.4499E-03    -285.366E-03     576.777E-03    -291.147E-03     51.9303E-03
            2232     11.4306E-03     20.6996E-03    -13.9196E+06     49.0702E+06     79.2561E+06    -93.9531E+03    -285.916E-03     577.797E-03    -291.881E-03     59.5303E-03    -286.455E-03     578.231E-03    -291.535E-03     53.4485E-03
            2233     10.7542E-03     20.5981E-03    -19.5874E+06     44.0788E+06     74.4351E+06    -144.622E+03    -287.092E-03     579.333E-03    -292.241E-03     59.5077E-03    -287.625E-03     579.738E-03    -291.905E-03     53.8936E-03
            2234     10.0782E-03     20.4957E-03    -25.7787E+06     37.7140E+06     65.3419E+06    -217.827E+03    -288.228E-03     580.783E-03    -292.555E-03     57.7073E-03    -288.734E-03     581.142E-03    -292.245E-03     52.7495E-03
            2235     9.40318E-03     20.3939E-03    -32.0018E+06     30.1962E+06     53.4835E+06    -175.569E+03    -289.278E-03     582.101E-03    -292.823E-03     54.8748E-03    -289.747E-03     582.408E-03    -292.553E-03     50.6503E-03
            2236     8.72907E-03     20.2944E-03    -38.1118E+06     20.7761E+06     42.0447E+06    -164.927E+03    -290.186E-03     583.246E-03    -293.060E-03     51.3897E-03    -290.616E-03     583.493E-03    -292.825E-03     47.9028E-03
            2237     8.05561E-03     20.1984E-03    -44.2144E+06     11.7011E+06     31.6099E+06    -289.847E+03    -290.953E-03     584.222E-03    -293.269E-03     47.5258E-03    -291.351E-03     584.413E-03    -293.064E-03     44.7346E-03
            2238     7.38270E-03     20.1069E-03    -50.4644E+06     4.64571E+06     21.4926E+06    -460.234E+03    -291.595E-03     585.040E-03    -293.445E-03     43.4403E-03    -291.971E-03     585.190E-03    -293.271E-03     41.2713E-03
            2239     6.71026E-03     20.0206E-03    -56.9243E+06    -8.91404E+06     10.0497E+06    -501.237E+03    -292.152E-03     585.744E-03    -293.593E-03     39.2159E-03    -292.500E-03     585.830E-03    -293.447E-03     37.5933E-03
            2240     6.03829E-03     19.9404E-03    -63.4875E+06    -34.6884E+06    -3.62334E+06    -390.163E+03    -292.653E-03     586.369E-03    -293.715E-03     34.9267E-03    -292.959E-03     586.337E-03    -293.591E-03     33.7703E-03
            2241     5.36669E-03     19.8668E-03    -69.9738E+06    -64.2279E+06    -18.2198E+06    -244.991E+03    -293.069E-03     586.876E-03    -293.807E-03     30.6447E-03    -293.330E-03     586.713E-03    -293.703E-03     29.8675E-03
            2242     4.69541E-03     19.8004E-03    -76.2415E+06    -89.6553E+06    -32.8960E+06    -139.695E+03    -293.369E-03     587.231E-03    -293.862E-03     26.4286E-03    -293.592E-03     586.961E-03    -293.786E-03     25.9463E-03
            2243     4.02436E-03     19.7419E-03    -82.1452E+06    -112.023E+06    -47.5155E+06    -65.4747E+03    -293.570E-03     587.459E-03    -293.889E-03     22.3155E-03    -293.763E-03     587.100E-03    -293.845E-03     22.0505E-03
            2244     3.35346E-03     19.6915E-03    -87.5044E+06    -131.695E+06    -61.7455E+06     34.9631E+03    -293.699E-03     587.592E-03    -293.893E-03     18.3285E-03    -293.864E-03     587.158E-03    -293.884E-03     18.2143E-03
            2245     2.68268E-03     19.6497E-03    -92.2618E+06    -151.689E+06    -74.3692E+06     139.821E+03    -293.782E-03     587.673E-03    -293.890E-03     14.4804E-03    -293.921E-03     587.160E-03    -293.909E-03     14.4572E-03
            2246     2.01198E-03     19.6169E-03    -96.3121E+06    -167.710E+06    -85.1789E+06     146.107E+03    -293.827E-03     587.705E-03    -293.878E-03     10.7762E-03    -293.945E-03     587.132E-03    -293.921E-03     10.7972E-03
            2247     1.34130E-03     19.5931E-03    -99.4075E+06    -175.972E+06    -94.1707E+06     82.0614E+03    -293.834E-03     587.688E-03    -293.854E-03     7.21446E-03    -293.940E-03     587.090E-03    -293.926E-03     7.24760E-03
            2248     670.643E-06     19.5784E-03    -101.348E+06    -181.182E+06    -100.044E+06         359.322    -293.780E-03     587.671E-03    -293.892E-03     3.89790E-03    -293.879E-03     587.058E-03    -293.982E-03     3.91242E-03
            2249     12.7863E-03     19.2073E-03    -4.38923E+06     57.4800E+06     81.1019E+06    -72.7923E+03    -284.740E-03     575.777E-03    -291.037E-03     52.3930E-03    -285.196E-03     576.187E-03    -290.709E-03     46.6750E-03
            2250     12.1090E-03     19.1116E-03    -9.34248E+06     54.2477E+06     81.0910E+06    -240.078E+03    -285.935E-03     577.322E-03    -291.387E-03     59.0953E-03    -286.482E-03     577.794E-03    -291.047E-03     52.5099E-03
            2251     11.4322E-03     19.0112E-03    -14.8428E+06     49.0885E+06     78.8509E+06    -390.238E+03    -287.229E-03     578.930E-03    -291.702E-03     59.2457E-03    -287.775E-03     579.370E-03    -291.357E-03     53.0919E-03
            2252     10.7564E-03     18.9068E-03    -20.4732E+06     43.7658E+06     73.5899E+06    -220.724E+03    -288.577E-03     580.534E-03    -291.957E-03     58.1068E-03    -289.113E-03     580.939E-03    -291.623E-03     52.4079E-03
            2253     10.0820E-03     18.8019E-03    -26.2112E+06     37.8720E+06     65.0221E+06    -183.246E+03    -289.734E-03     581.879E-03    -292.145E-03     55.4426E-03    -290.240E-03     582.238E-03    -291.837E-03     50.3872E-03
            2254     9.40840E-03     18.6981E-03    -32.0887E+06     30.5124E+06     53.7389E+06    -445.824E+03    -290.628E-03     582.900E-03    -292.272E-03     52.0788E-03    -291.095E-03     583.205E-03    -292.001E-03     47.7697E-03
            2255     8.73520E-03     18.5970E-03    -38.0006E+06     20.9491E+06     42.3185E+06    -658.269E+03    -291.337E-03     583.694E-03    -292.357E-03     48.2012E-03    -291.763E-03     583.937E-03    -292.121E-03     44.6430E-03
            2256     8.06249E-03     18.4995E-03    -44.0123E+06     11.9363E+06     31.7624E+06    -739.072E+03    -291.888E-03     584.291E-03    -292.403E-03     43.9684E-03    -292.282E-03     584.479E-03    -292.198E-03     41.1086E-03
            2257     7.39021E-03     18.4067E-03    -50.2685E+06     4.81872E+06     21.6586E+06    -803.616E+03    -292.272E-03     584.681E-03    -292.409E-03     39.5581E-03    -292.644E-03     584.829E-03    -292.235E-03     37.3147E-03
            2258     6.71826E-03     18.3194E-03    -56.7735E+06    -9.04226E+06     10.2423E+06    -781.234E+03    -292.528E-03     584.908E-03    -292.380E-03     35.0886E-03    -292.874E-03     584.990E-03    -292.233E-03     33.3814E-03
            2259     6.04653E-03     18.2384E-03    -63.3269E+06    -34.8876E+06    -3.39641E+06    -623.530E+03    -292.686E-03     585.009E-03    -292.323E-03     30.6629E-03    -292.990E-03     584.975E-03    -292.198E-03     29.4094E-03
            2260     5.37497E-03     18.1643E-03    -69.7590E+06    -64.2044E+06    -17.8523E+06    -471.543E+03    -292.725E-03     584.962E-03    -292.237E-03     26.3789E-03    -292.985E-03     584.798E-03    -292.132E-03     25.4924E-03
            2261     4.70346E-03     18.0976E-03    -75.9642E+06    -89.6183E+06    -32.4157E+06    -391.347E+03    -292.641E-03     584.762E-03    -292.121E-03     22.2990E-03    -292.864E-03     584.491E-03    -292.043E-03     21.6985E-03
            2262     4.03189E-03     18.0390E-03    -81.7943E+06    -112.027E+06    -46.9717E+06    -315.754E+03    -292.469E-03     584.455E-03    -291.986E-03     18.4563E-03    -292.661E-03     584.095E-03    -291.940E-03     18.0712E-03
            2263     3.36025E-03     17.9886E-03    -87.1548E+06    -131.821E+06    -61.1836E+06    -196.552E+03    -292.242E-03     584.085E-03    -291.844E-03     14.8704E-03    -292.406E-03     583.650E-03    -291.832E-03     14.6409E-03
            2264     2.68845E-03     17.9470E-03    -91.9166E+06    -151.585E+06    -73.8236E+06    -72.1039E+03    -292.003E-03     583.716E-03    -291.713E-03     11.5415E-03    -292.141E-03     583.203E-03    -291.729E-03     11.4156E-03
            2265     2.01650E-03     17.9143E-03    -95.9609E+06    -167.317E+06    -84.6687E+06    -54.7331E+03    -291.776E-03     583.371E-03    -291.595E-03     8.45538E-03    -291.893E-03     582.799E-03    -291.637E-03     8.39167E-03
            2266     1.34443E-03     17.8906E-03    -99.1148E+06    -175.711E+06    -93.7507E+06    -117.432E+03    -291.577E-03     583.072E-03    -291.495E-03     5.58355E-03    -291.684E-03     582.474E-03    -291.565E-03     5.55314E-03
            2267     672.228E-06     17.8761E-03    -101.050E+06    -181.192E+06    -99.7732E+06    -129.804E+03    -291.380E-03     582.883E-03    -291.503E-03     2.98505E-03    -291.479E-03     582.268E-03    -291.593E-03     2.97234E-03
            2268     12.7864E-03     17.5214E-03    -4.65832E+06     57.6281E+06     81.3451E+06    -98.6841E+03    -286.420E-03     577.379E-03    -290.959E-03     52.4425E-03    -286.885E-03     577.796E-03    -290.629E-03     46.5712E-03
            2269     12.1104E-03     17.4227E-03    -9.29125E+06     54.1783E+06     80.8879E+06     40.6189E+03    -287.996E-03     579.191E-03    -291.195E-03     58.3799E-03    -288.552E-03     579.672E-03    -290.855E-03     51.5496E-03
            2270     11.4359E-03     17.3200E-03    -14.4659E+06     49.5345E+06     78.9272E+06    -76.4769E+03    -289.487E-03     580.853E-03    -291.365E-03     57.8431E-03    -290.040E-03     581.301E-03    -291.022E-03     51.4421E-03
            2271     10.7624E-03     17.2130E-03    -20.1293E+06     43.9418E+06     74.1820E+06    -585.497E+03    -290.748E-03     582.204E-03    -291.456E-03     56.0944E-03    -291.286E-03     582.611E-03    -291.120E-03     50.2219E-03
            2272     10.0893E-03     17.1063E-03    -25.9753E+06     38.2712E+06     65.7844E+06    -854.222E+03    -291.721E-03     583.183E-03    -291.462E-03     52.8157E-03    -292.227E-03     583.542E-03    -291.151E-03     47.6132E-03
            2273     9.41661E-03     17.0012E-03    -31.8757E+06     30.9892E+06     54.2925E+06    -1.02526E+06    -292.456E-03     583.845E-03    -291.389E-03     48.7499E-03    -292.921E-03     584.150E-03    -291.116E-03     44.3008E-03
            2274     8.74462E-03     16.8990E-03    -37.8493E+06     20.9139E+06     42.4596E+06    -1.09152E+06    -292.948E-03     584.203E-03    -291.255E-03     44.1230E-03    -293.371E-03     584.444E-03    -291.018E-03     40.4107E-03
            2275     8.07307E-03     16.8007E-03    -43.9556E+06     12.0276E+06     31.6569E+06    -1.10575E+06    -293.183E-03     584.249E-03    -291.065E-03     39.2237E-03    -293.575E-03     584.435E-03    -290.861E-03     36.1835E-03
            2276     7.40170E-03     16.7076E-03    -50.1962E+06     4.73552E+06     21.4376E+06    -1.13311E+06    -293.173E-03     583.997E-03    -290.824E-03     34.2868E-03    -293.543E-03     584.144E-03    -290.651E-03     31.8352E-03
            2277     6.73040E-03     16.6202E-03    -56.5653E+06    -9.15537E+06     10.0591E+06    -1.07467E+06    -292.962E-03     583.503E-03    -290.542E-03     29.4722E-03    -293.306E-03     583.585E-03    -290.396E-03     27.5330E-03
            2278     6.05903E-03     16.5395E-03    -62.9766E+06    -34.8610E+06    -3.42656E+06    -987.057E+03    -292.598E-03     582.829E-03    -290.231E-03     24.9023E-03    -292.900E-03     582.794E-03    -290.106E-03     23.3995E-03
            2279     5.38741E-03     16.4659E-03    -69.2575E+06    -64.1583E+06    -17.7445E+06    -877.837E+03    -292.091E-03     581.988E-03    -289.897E-03     20.6604E-03    -292.349E-03     581.824E-03    -289.792E-03     19.5158E-03
            2280     4.71545E-03     16.4001E-03    -75.3406E+06    -89.6173E+06    -32.1429E+06    -721.927E+03    -291.459E-03     581.005E-03    -289.546E-03     16.8082E-03    -291.681E-03     580.734E-03    -289.468E-03     15.9512E-03
            2281     4.04309E-03     16.3424E-03    -81.2107E+06    -112.045E+06    -46.5667E+06    -555.668E+03    -290.756E-03     579.950E-03    -289.194E-03     13.3832E-03    -290.947E-03     579.589E-03    -289.147E-03     12.7532E-03
            2282     3.37024E-03     16.2931E-03    -86.6044E+06    -131.892E+06    -60.7378E+06    -431.445E+03    -290.038E-03     578.896E-03    -288.858E-03     10.3868E-03    -290.202E-03     578.459E-03    -288.845E-03     9.93324E-03
            2283     2.69691E-03     16.2524E-03    -91.3041E+06    -151.572E+06    -73.3863E+06    -315.441E+03    -289.370E-03     577.930E-03    -288.560E-03     7.79204E-03    -289.506E-03     577.416E-03    -288.575E-03     7.47440E-03
            2284     2.02316E-03     16.2206E-03    -95.3189E+06    -167.239E+06    -84.2744E+06    -195.530E+03    -288.791E-03     577.099E-03    -288.308E-03     5.54367E-03    -288.907E-03     576.526E-03    -288.349E-03     5.32956E-03
            2285     1.34900E-03     16.1977E-03    -98.4960E+06    -175.705E+06    -93.4002E+06    -102.965E+03    -288.337E-03     576.443E-03    -288.106E-03     3.57459E-03    -288.441E-03     575.844E-03    -288.176E-03     3.44057E-03
            2286     674.597E-06     16.1835E-03    -100.516E+06    -181.319E+06    -99.4263E+06    -16.6713E+03    -287.959E-03     576.014E-03    -288.055E-03     1.87646E-03    -288.055E-03     575.397E-03    -288.144E-03     1.80726E-03
            2287     12.7892E-03     15.8318E-03    -4.29876E+06     57.8124E+06     81.2316E+06     16.8711E+03    -289.163E-03     579.970E-03    -290.807E-03     52.7151E-03    -289.637E-03     580.398E-03    -290.478E-03     46.6383E-03
            2288     12.1153E-03     15.7305E-03    -9.01668E+06     54.4931E+06     81.2006E+06    -355.851E+03    -290.837E-03     581.717E-03    -290.880E-03     58.2275E-03    -291.405E-03     582.211E-03    -290.540E-03     51.1581E-03
            2289     11.4421E-03     15.6250E-03    -13.9706E+06     50.1658E+06     79.8141E+06    -605.016E+03    -292.396E-03     583.257E-03    -290.861E-03     56.9867E-03    -292.958E-03     583.716E-03    -290.514E-03     50.3588E-03
            2290     10.7698E-03     15.5165E-03    -19.4648E+06     44.5851E+06     75.0129E+06    -697.947E+03    -293.689E-03     584.418E-03    -290.730E-03     54.1109E-03    -294.229E-03     584.831E-03    -290.391E-03     48.0225E-03
            2291     10.0985E-03     15.4085E-03    -25.4747E+06     38.6769E+06     65.8612E+06    -943.902E+03    -294.574E-03     585.052E-03    -290.478E-03     49.4689E-03    -295.078E-03     585.413E-03    -290.168E-03     44.0279E-03
            2292     9.42823E-03     15.3025E-03    -31.5541E+06     31.3074E+06     53.8377E+06    -1.15346E+06    -295.083E-03     585.202E-03    -290.120E-03     44.1483E-03    -295.546E-03     585.509E-03    -289.850E-03     39.4130E-03
            2293     8.75821E-03     15.2000E-03    -37.5834E+06     20.9681E+06     42.0556E+06    -1.29196E+06    -295.208E-03     584.886E-03    -289.678E-03     38.5393E-03    -295.630E-03     585.127E-03    -289.443E-03     34.4895E-03
            2294     8.08826E-03     15.1022E-03    -43.6039E+06     12.0703E+06     31.5133E+06    -1.37123E+06    -294.945E-03     584.107E-03    -289.162E-03     32.8898E-03    -295.335E-03     584.294E-03    -288.959E-03     29.4695E-03
            2295     7.41820E-03     15.0099E-03    -49.7612E+06     4.73831E+06     21.2504E+06    -1.44553E+06    -294.328E-03     582.910E-03    -288.582E-03     27.4186E-03    -294.696E-03     583.057E-03    -288.411E-03     24.5541E-03
            2296     6.74774E-03     14.9240E-03    -56.0373E+06    -8.97093E+06     9.84379E+06    -1.54938E+06    -293.431E-03     581.391E-03    -287.959E-03     22.2918E-03    -293.773E-03     581.474E-03    -287.816E-03     19.9142E-03
            2297     6.07665E-03     14.8451E-03    -62.2739E+06    -34.7265E+06    -3.64865E+06    -1.49032E+06    -292.333E-03     579.646E-03    -287.314E-03     17.6321E-03    -292.632E-03     579.613E-03    -287.191E-03     15.6753E-03
            2298     5.40485E-03     14.7736E-03    -68.4397E+06    -64.3406E+06    -18.0489E+06    -1.19394E+06    -291.066E-03     577.725E-03    -286.659E-03     13.5458E-03    -291.321E-03     577.561E-03    -286.557E-03     11.9487E-03
            2299     4.73219E-03     14.7102E-03    -74.5154E+06    -89.8444E+06    -32.4812E+06    -824.465E+03    -289.685E-03     575.695E-03    -286.010E-03     10.0972E-03    -289.903E-03     575.423E-03    -285.934E-03     8.80567E-03
            2300     4.05853E-03     14.6548E-03    -80.3096E+06    -112.140E+06    -46.7709E+06    -503.612E+03    -288.281E-03     573.671E-03    -285.390E-03     7.28800E-03    -288.468E-03     573.309E-03    -285.345E-03     6.25525E-03
            2301     3.38393E-03     14.6079E-03    -85.6874E+06    -131.702E+06    -60.6795E+06    -326.894E+03    -286.941E-03     571.762E-03    -284.822E-03     5.08005E-03    -287.101E-03     571.325E-03    -284.810E-03     4.26829E-03
            2302     2.70840E-03     14.5694E-03    -90.5151E+06    -151.506E+06    -73.2423E+06    -239.585E+03    -285.748E-03     570.078E-03    -284.331E-03     3.40198E-03    -285.881E-03     569.564E-03    -284.346E-03     2.78214E-03
            2303     2.03205E-03     14.5394E-03    -94.5835E+06    -167.433E+06    -84.1283E+06    -80.0977E+03    -284.754E-03     568.681E-03    -283.927E-03     2.16177E-03    -284.867E-03     568.105E-03    -283.968E-03     1.71341E-03
            2304     1.35510E-03     14.5178E-03    -97.6764E+06    -175.718E+06    -92.9500E+06     111.552E+03    -283.998E-03     567.615E-03    -283.617E-03     1.26498E-03    -284.099E-03     567.013E-03    -283.685E-03     973.316E-06
            2305     677.660E-06     14.5046E-03    -99.4705E+06    -180.863E+06    -98.3922E+06     148.312E+03    -283.451E-03     566.943E-03    -283.492E-03     607.760E-06    -283.545E-03     566.325E-03    -283.578E-03     449.759E-06
            2306     12.7910E-03     14.1370E-03    -4.40120E+06      58.447E+06     81.7998E+06    -245.827E+03    -292.782E-03     583.403E-03    -290.620E-03     53.8762E-03    -293.271E-03     583.846E-03    -290.290E-03     47.6082E-03
            2307     12.1192E-03     14.0335E-03    -9.19402E+06     55.4837E+06     81.9826E+06    -636.854E+03    -294.830E-03     585.302E-03    -290.472E-03     58.2794E-03    -295.418E-03     585.816E-03    -290.129E-03     50.8922E-03
            2308     11.4490E-03     13.9259E-03    -14.5543E+06     50.4274E+06     79.7588E+06    -1.07636E+06    -296.553E-03     586.734E-03    -290.181E-03     55.2149E-03    -297.130E-03     587.207E-03    -289.834E-03     48.2101E-03
            2309     10.7802E-03     13.8154E-03    -19.9524E+06     44.6391E+06     74.5224E+06    -1.25992E+06    -297.803E-03     587.538E-03    -289.735E-03     50.5135E-03    -298.352E-03     587.959E-03    -289.398E-03     44.0040E-03
            2310     10.1123E-03     13.7067E-03    -25.4325E+06     38.6954E+06     65.6855E+06    -1.24857E+06    -298.449E-03     587.583E-03    -289.134E-03     44.4982E-03    -298.958E-03     587.949E-03    -288.825E-03     38.5847E-03
            2311     9.44447E-03     13.6011E-03    -31.2555E+06     31.5467E+06     53.8507E+06    -1.20124E+06    -298.522E-03     586.917E-03    -288.395E-03     38.1104E-03    -298.986E-03     587.227E-03    -288.127E-03     32.8699E-03
            2312     8.77682E-03     13.4998E-03    -37.1918E+06     21.5671E+06     42.0327E+06    -1.37941E+06    -298.064E-03     585.614E-03    -287.550E-03     31.6109E-03    -298.486E-03     585.860E-03    -287.318E-03     27.0089E-03
            2313     8.10893E-03     13.4039E-03    -43.1392E+06     12.4009E+06     31.3850E+06    -1.70936E+06    -297.091E-03     583.709E-03    -286.618E-03     25.2919E-03    -297.480E-03     583.898E-03    -286.416E-03     21.2707E-03
            2314     7.44034E-03     13.3144E-03    -49.0397E+06     5.13927E+06     21.1257E+06    -2.05086E+06    -295.645E-03     581.259E-03    -285.615E-03     19.3848E-03    -296.010E-03     581.408E-03    -285.445E-03     15.8766E-03
            2315     6.77076E-03     13.2319E-03    -55.0300E+06    -8.92104E+06     9.52701E+06    -2.08612E+06    -293.824E-03     578.397E-03    -284.573E-03     14.0899E-03    -294.161E-03     578.480E-03    -284.433E-03     11.0409E-03
            2316     6.09999E-03     13.1569E-03    -61.2652E+06    -35.1252E+06    -4.29368E+06    -1.58921E+06    -291.751E-03     575.277E-03    -283.526E-03     9.56525E-03    -292.044E-03     575.240E-03    -283.408E-03     6.93229E-03
            2317     5.42773E-03     13.0897E-03    -67.5922E+06    -64.7064E+06    -18.9552E+06    -956.771E+03    -289.516E-03     572.013E-03    -282.496E-03     5.88776E-03    -289.764E-03     571.845E-03    -282.399E-03     3.63093E-03
            2318     4.75386E-03     13.0306E-03    -73.7041E+06    -90.0893E+06    -33.4819E+06    -465.545E+03    -287.223E-03     568.731E-03    -281.508E-03     3.05378E-03    -287.434E-03     568.457E-03    -281.438E-03     1.13685E-03
            2319     4.07840E-03     12.9795E-03    -79.4424E+06    -112.245E+06     -47.746E+06    -76.8641E+03    -284.997E-03     565.587E-03    -280.589E-03     1.01459E-03    -285.177E-03     565.223E-03    -280.550E-03    -591.612E-06
            2320     3.40137E-03     12.9364E-03    -84.6609E+06    -131.404E+06    -61.4043E+06     234.867E+03    -282.946E-03     562.713E-03    -279.767E-03    -309.387E-06    -283.100E-03     562.276E-03    -279.761E-03    -1.62464E-03
            2321     2.72293E-03     12.9014E-03    -89.2982E+06    -150.971E+06    -73.0832E+06     397.652E+03    -281.166E-03     560.237E-03    -279.071E-03    -1.01733E-03    -281.295E-03     559.722E-03    -279.088E-03    -2.05675E-03
            2322     2.04335E-03     12.8741E-03    -93.3711E+06    -166.909E+06    -82.9005E+06     322.569E+03    -279.714E-03     558.223E-03    -278.509E-03    -1.22237E-03    -279.823E-03     557.646E-03    -278.546E-03    -1.99715E-03
            2323     1.36275E-03     12.8547E-03    -96.5222E+06    -175.167E+06    -91.3186E+06     58.8228E+03    -278.631E-03     556.714E-03    -278.083E-03    -1.05528E-03    -278.730E-03     556.110E-03    -278.146E-03    -1.57507E-03
            2324     681.548E-06     12.8427E-03    -98.4398E+06    -180.483E+06    -97.0748E+06    -99.1508E+03    -277.909E-03     555.769E-03    -277.859E-03    -677.192E-06    -278.001E-03     555.149E-03    -277.940E-03    -961.747E-06
            2325     12.7938E-03     12.4361E-03    -4.61862E+06     59.2050E+06     82.4522E+06    -500.638E+03    -297.749E-03     588.126E-03    -290.376E-03     53.7827E-03    -298.255E-03     588.586E-03    -290.043E-03     47.1913E-03
            2326     12.1259E-03     12.3290E-03    -9.10321E+06     55.8078E+06     81.9376E+06    -698.055E+03    -300.261E-03     590.179E-03    -289.918E-03     56.7145E-03    -300.867E-03     590.714E-03    -289.576E-03     48.7992E-03
            2327     11.4599E-03     12.2194E-03    -14.1279E+06     51.2013E+06     79.8259E+06    -966.426E+03    -302.040E-03     591.305E-03    -289.264E-03     52.1160E-03    -302.631E-03     591.796E-03    -288.919E-03     44.5123E-03
            2328     10.7946E-03     12.1082E-03    -19.9491E+06     45.4887E+06     74.7058E+06    -1.57275E+06    -302.972E-03     591.388E-03    -288.416E-03     46.0637E-03    -303.530E-03     591.820E-03    -288.079E-03     38.9862E-03
            2329     10.1298E-03     12.0002E-03    -25.9719E+06     38.5103E+06     65.5208E+06    -1.95170E+06    -303.154E-03     590.535E-03    -287.381E-03     38.7900E-03    -303.670E-03     590.906E-03    -287.071E-03     32.2557E-03
            2330     9.46549E-03     11.8964E-03    -31.5909E+06     31.3383E+06     53.8273E+06    -2.00874E+06    -302.618E-03     588.798E-03    -286.181E-03     31.2786E-03    -303.086E-03     589.111E-03    -285.911E-03     25.3519E-03
            2331     8.80073E-03     11.7983E-03    -37.0454E+06     22.1470E+06     41.9976E+06    -2.05168E+06    -301.342E-03     586.197E-03    -284.854E-03     23.9394E-03    -301.765E-03     586.446E-03    -284.623E-03     18.5895E-03
            2332     8.13502E-03     11.7065E-03    -42.5614E+06     12.9531E+06     30.7639E+06    -2.28608E+06    -299.371E-03     582.806E-03    -283.435E-03     17.1430E-03    -299.757E-03     582.998E-03    -283.238E-03     12.3163E-03
            2333     7.46804E-03     11.6221E-03    -48.4386E+06     5.13642E+06     19.4898E+06    -2.30620E+06    -296.789E-03     578.745E-03    -281.956E-03     11.1900E-03    -297.148E-03     578.895E-03    -281.796E-03     6.83900E-03
            2334     6.79928E-03     11.5456E-03    -54.8668E+06    -9.82395E+06     7.00102E+06    -1.69844E+06    -293.786E-03     574.253E-03    -280.466E-03     6.25530E-03    -294.116E-03     574.333E-03    -280.338E-03     2.36282E-03
            2335     6.12831E-03     11.4770E-03    -61.5213E+06    -35.9132E+06    -6.79477E+06    -784.766E+03    -290.569E-03     569.580E-03    -279.011E-03     2.36826E-03    -290.857E-03     569.541E-03    -278.903E-03    -1.08564E-03
            2336     5.45508E-03     11.4165E-03    -68.0076E+06    -64.8478E+06    -21.1231E+06    -70.9868E+03    -287.279E-03     564.894E-03    -277.615E-03    -511.891E-06    -287.524E-03     564.728E-03    -277.528E-03    -3.55255E-03
            2337     4.77953E-03     11.3639E-03    -74.2050E+06    -90.0352E+06    -35.5666E+06     418.279E+03    -284.041E-03     560.345E-03    -276.304E-03    -2.46189E-03    -284.250E-03     560.073E-03    -276.244E-03    -5.10620E-03
            2338     4.10164E-03     11.3190E-03    -80.0533E+06    -112.008E+06    -49.7156E+06     850.835E+03    -280.995E-03     556.105E-03    -275.109E-03    -3.59207E-03    -281.175E-03     555.745E-03    -275.079E-03    -5.84708E-03
            2339     3.42166E-03     11.2815E-03    -85.4356E+06    -131.159E+06    -63.0468E+06     1.26154E+06    -278.261E-03     552.318E-03    -274.057E-03    -4.03253E-03    -278.415E-03     551.884E-03    -274.058E-03    -5.90269E-03
            2340     2.73977E-03     11.2512E-03    -90.2590E+06    -149.479E+06    -74.4956E+06     1.40233E+06    -275.927E-03     549.098E-03    -273.171E-03    -3.91332E-03    -276.059E-03     548.593E-03    -273.196E-03    -5.40543E-03
            2341     2.05626E-03     11.2279E-03    -94.2564E+06    -164.182E+06    -84.0618E+06     613.812E+03    -274.048E-03     546.508E-03    -272.460E-03    -3.34835E-03    -274.163E-03     545.947E-03    -272.506E-03    -4.47718E-03
            2342     1.37159E-03     11.2112E-03    -97.1856E+06    -174.320E+06    -92.0406E+06    -365.848E+03    -272.658E-03     544.588E-03    -271.929E-03    -2.45751E-03    -272.761E-03     543.990E-03    -271.996E-03    -3.22957E-03
            2343     686.041E-06     11.2010E-03    -99.0941E+06    -181.321E+06    -97.6010E+06    -391.262E+03    -271.752E-03     543.374E-03    -271.622E-03    -1.41852E-03    -271.845E-03     542.752E-03    -271.704E-03    -1.84121E-03
            2344     12.7984E-03     10.7256E-03    -4.34938E+06     60.1415E+06     82.5854E+06    -548.570E+03    -304.253E-03     594.275E-03    -290.022E-03     53.5857E-03    -304.774E-03     594.755E-03    -289.690E-03     46.5839E-03
            2345     12.1349E-03     10.6151E-03    -9.11507E+06     56.4294E+06     82.0374E+06    -1.05230E+06    -306.798E-03     595.979E-03    -289.181E-03     55.2772E-03    -307.424E-03     596.536E-03    -288.840E-03     46.8284E-03
            2346     11.4730E-03     10.5044E-03    -14.2860E+06     51.7535E+06     79.9181E+06    -1.31436E+06    -308.504E-03     596.601E-03    -288.098E-03     48.9685E-03    -309.109E-03     597.109E-03    -287.752E-03     40.7565E-03
            2347     10.8122E-03     10.3941E-03    -19.6507E+06     46.4291E+06     75.2964E+06    -1.49836E+06    -309.158E-03     595.930E-03    -286.773E-03     41.1040E-03    -309.724E-03     596.375E-03    -286.435E-03     33.3578E-03
            2348     10.1520E-03     10.2882E-03    -25.2674E+06     39.5640E+06     66.1706E+06    -2.05155E+06    -308.657E-03     593.881E-03    -285.225E-03     32.2721E-03    -309.174E-03     594.259E-03    -284.914E-03     24.9753E-03
            2349     9.49116E-03     10.1883E-03    -31.0286E+06     31.6093E+06     53.5321E+06    -2.71723E+06    -307.061E-03     590.556E-03    -283.495E-03     23.7361E-03    -307.526E-03     590.870E-03    -283.228E-03     16.9495E-03
            2350     8.82935E-03     10.0956E-03    -36.6228E+06     21.9689E+06     40.3575E+06    -2.83553E+06    -304.456E-03     586.105E-03    -281.649E-03     16.0900E-03    -304.873E-03     586.355E-03    -281.426E-03     9.82795E-03
            2351     8.16587E-03     10.0109E-03    -42.4383E+06     12.0868E+06     27.7132E+06    -2.18721E+06    -301.028E-03     580.772E-03    -279.744E-03     9.69173E-03    -301.405E-03     580.962E-03    -279.562E-03     3.95595E-03
            2352     7.49987E-03     9.93473E-03    -48.9467E+06     3.16332E+06     15.8350E+06    -882.731E+03    -297.022E-03     574.858E-03    -277.836E-03     4.63957E-03    -297.375E-03     575.003E-03    -277.690E-03    -578.376E-06
            2353     6.83094E-03     9.86708E-03    -55.9499E+06    -10.9500E+06     3.64624E+06     398.714E+03    -292.721E-03     568.697E-03    -275.975E-03     871.330E-06    -293.049E-03     568.777E-03    -275.860E-03    -3.83158E-03
            2354     6.15904E-03     9.80763E-03    -62.9533E+06    -35.7028E+06    -9.71978E+06     1.05451E+06    -288.366E-03     562.573E-03    -274.208E-03    -1.72085E-03    -288.657E-03     562.543E-03    -274.113E-03    -5.92138E-03
            2355     5.48405E-03     9.75611E-03    -69.7334E+06    -64.3734E+06    -23.5131E+06     1.46151E+06    -284.125E-03     556.684E-03    -272.559E-03    -3.30416E-03    -284.377E-03     556.527E-03    -272.482E-03    -7.00962E-03
            2356     4.80600E-03     9.71205E-03    -76.2343E+06    -89.3264E+06    -37.2022E+06     1.80325E+06    -280.133E-03     551.182E-03    -271.049E-03    -4.09123E-03    -280.352E-03     550.921E-03    -270.995E-03    -7.30560E-03
            2357     4.12517E-03     9.67498E-03    -82.3065E+06    -111.141E+06    -50.8923E+06     1.99438E+06    -276.508E-03     546.206E-03    -269.699E-03    -4.28725E-03    -276.700E-03     545.858E-03    -269.672E-03    -7.01530E-03
            2358     3.44175E-03     9.64439E-03    -87.6965E+06    -130.347E+06    -63.9876E+06     2.13297E+06    -273.335E-03     541.860E-03    -268.525E-03    -4.06360E-03    -273.502E-03     541.437E-03    -268.529E-03    -6.31278E-03
            2359     2.75616E-03     9.61994E-03    -92.1575E+06    -146.972E+06    -76.1135E+06     1.90700E+06    -270.672E-03     538.213E-03    -267.542E-03    -3.54056E-03    -270.816E-03     537.727E-03    -267.575E-03    -5.32599E-03
            2360     2.06882E-03     9.60120E-03    -95.7056E+06    -160.144E+06    -87.2188E+06     1.03856E+06    -268.551E-03     535.306E-03    -266.755E-03    -2.80408E-03    -268.675E-03     534.773E-03    -266.820E-03    -4.14481E-03
            2361     1.38001E-03     9.58803E-03    -98.4520E+06    -173.241E+06    -95.0274E+06     133.140E+03    -267.010E-03     533.197E-03    -266.187E-03    -1.94692E-03    -267.116E-03     532.612E-03    -266.269E-03    -2.85514E-03
            2362     690.252E-06     9.58004E-03    -100.367E+06    -182.381E+06    -99.1774E+06    -90.2723E+03    -266.026E-03     531.891E-03    -265.865E-03    -1.08639E-03    -266.121E-03     531.268E-03    -265.951E-03    -1.58025E-03
            2363     12.8041E-03     9.00340E-03    -4.76965E+06     61.3909E+06     82.6683E+06    -481.914E+03    -312.277E-03     601.877E-03    -289.600E-03     54.3407E-03    -312.823E-03     602.384E-03    -289.269E-03     46.9026E-03
            2364     12.1457E-03     8.89105E-03    -9.67451E+06     57.8217E+06     82.6470E+06    -1.11398E+06    -314.975E-03     603.269E-03    -288.294E-03     53.8144E-03    -315.627E-03     603.852E-03    -287.950E-03     44.7756E-03
            2365     11.4891E-03     8.77946E-03    -14.5502E+06     52.7705E+06     80.4541E+06    -2.11523E+06    -316.434E-03     603.117E-03    -286.683E-03     44.5725E-03    -317.053E-03     603.640E-03    -286.336E-03     35.6395E-03
            2366     10.8336E-03     8.67084E-03    -19.2493E+06     46.6835E+06     75.1832E+06    -2.87425E+06    -316.163E-03     600.957E-03    -284.794E-03     34.4726E-03    -316.731E-03     601.406E-03    -284.458E-03     25.8474E-03
            2367     10.1779E-03     8.56969E-03    -24.0654E+06     39.7093E+06     65.2160E+06    -2.82124E+06    -314.137E-03     596.820E-03    -282.684E-03     24.6712E-03    -314.645E-03     597.197E-03    -282.380E-03     16.4405E-03
            2368     9.52101E-03     8.47698E-03    -29.4841E+06     31.2609E+06     51.8251E+06    -2.12601E+06    -310.677E-03     591.116E-03    -280.439E-03     16.3295E-03    -311.128E-03     591.425E-03    -280.182E-03     8.64537E-03
            2369     8.86161E-03     8.39368E-03    -35.9926E+06     20.5892E+06     37.8890E+06    -1.04505E+06    -306.150E-03     584.303E-03    -278.153E-03     9.78451E-03    -306.554E-03     584.544E-03    -277.941E-03     2.71046E-03
            2370     8.19869E-03     8.31977E-03    -43.1864E+06     9.83327E+06     24.8148E+06     329.169E+03    -300.958E-03     576.856E-03    -275.898E-03     5.01004E-03    -301.330E-03     577.039E-03    -275.726E-03    -1.42522E-03
            2371     7.53212E-03     8.25499E-03    -50.3333E+06     326.531E+03     13.6060E+06     1.84077E+06    -295.469E-03     569.204E-03    -273.735E-03     1.83269E-03    -295.822E-03     569.340E-03    -273.594E-03    -3.96229E-03
            2372     6.86180E-03     8.19883E-03    -57.3436E+06    -11.3526E+06     2.87536E+06     3.00022E+06    -289.995E-03     561.700E-03    -271.705E-03     4.14678E-06    -290.332E-03     561.785E-03    -271.591E-03    -5.14904E-03
            2373     6.18753E-03     8.15071E-03    -64.4515E+06    -33.9441E+06    -9.28989E+06     3.42376E+06    -284.799E-03     554.643E-03    -269.844E-03    -817.398E-06    -285.107E-03     554.628E-03    -269.747E-03    -5.33991E-03
            2374     5.50958E-03     8.10981E-03    -71.5208E+06    -62.6311E+06    -22.3180E+06     3.32109E+06    -280.029E-03     548.194E-03    -268.165E-03    -998.938E-06    -280.301E-03     548.054E-03    -268.082E-03    -4.91025E-03
            2375     4.82831E-03     8.07539E-03    -78.2605E+06    -87.3717E+06    -35.2329E+06     2.98474E+06    -275.750E-03     542.419E-03    -266.670E-03    -826.014E-06    -275.992E-03     542.175E-03    -266.605E-03    -4.15160E-03
            2376     4.14406E-03     8.04684E-03    -84.4741E+06    -108.841E+06    -48.2295E+06     2.35987E+06    -272.015E-03     537.378E-03    -265.363E-03    -495.394E-06    -272.232E-03     537.047E-03    -265.324E-03    -3.26788E-03
            2377     3.45732E-03     8.02361E-03    -89.9178E+06    -128.200E+06    -61.8675E+06     1.48914E+06    -268.848E-03     533.094E-03    -264.246E-03    -144.959E-06    -269.037E-03     532.687E-03    -264.239E-03    -2.39810E-03
            2378     2.76843E-03     8.00520E-03    -94.4273E+06    -145.138E+06    -75.7027E+06     1.03816E+06    -266.257E-03     529.579E-03    -263.322E-03     126.893E-06    -266.419E-03     529.109E-03    -263.353E-03    -1.63143E-03
            2379     2.07776E-03     7.99133E-03    -97.8867E+06    -157.597E+06    -87.8301E+06     924.783E+03    -264.249E-03     526.846E-03    -262.597E-03     261.817E-06    -264.388E-03     526.332E-03    -262.666E-03    -1.02818E-03
            2380     1.38588E-03     7.98157E-03    -100.205E+06    -171.596E+06    -95.7287E+06     527.395E+03    -262.835E-03     524.921E-03    -262.087E-03     255.036E-06    -262.951E-03     524.350E-03    -262.171E-03    -601.877E-06
            2381     693.173E-06     7.97571E-03    -101.781E+06    -182.391E+06    -100.071E+06     127.605E+03    -261.931E-03     523.748E-03    -261.816E-03     160.761E-06    -262.032E-03     523.129E-03    -261.905E-03    -301.452E-06
            2382     12.8092E-03     7.26698E-03    -4.99314E+06     62.9326E+06     83.1896E+06    -326.708E+03    -322.911E-03     612.054E-03    -289.143E-03     54.6926E-03    -323.480E-03     612.588E-03    -288.811E-03     46.7696E-03
            2383     12.1579E-03     7.15169E-03    -9.12826E+06     59.9706E+06     83.2336E+06    -1.91476E+06    -325.535E-03     612.767E-03    -287.232E-03     50.5089E-03    -326.209E-03     613.381E-03    -286.890E-03     40.5764E-03
            2384     11.5087E-03     7.04116E-03    -13.3436E+06     54.4365E+06     80.7095E+06    -3.05754E+06    -325.352E-03     610.341E-03    -284.989E-03     38.3084E-03    -325.975E-03     610.878E-03    -284.645E-03     28.4109E-03
            2385     10.8594E-03     6.93847E-03    -18.6126E+06     46.5184E+06     74.2685E+06    -3.20978E+06    -322.599E-03     605.114E-03    -282.514E-03     27.1198E-03    -323.156E-03     605.556E-03    -282.184E-03     17.6347E-03
            2386     10.2079E-03     6.84663E-03    -24.8026E+06     37.6240E+06     62.2767E+06    -2.42542E+06    -317.841E-03     597.756E-03    -279.915E-03     17.9298E-03    -318.334E-03     598.116E-03    -279.622E-03     9.00753E-03
            2387     9.55253E-03     6.76615E-03    -31.4071E+06     27.9808E+06     47.8315E+06    -589.778E+03    -311.795E-03     589.106E-03    -277.311E-03     11.3850E-03    -312.234E-03     589.395E-03    -277.066E-03     3.21832E-03
            2388     8.89285E-03     6.69644E-03    -37.8574E+06     17.6767E+06     36.0872E+06     1.62859E+06    -305.113E-03     579.924E-03    -274.812E-03     7.24575E-03    -305.513E-03     580.150E-03    -274.602E-03    -91.7822E-06
            2389     8.22871E-03     6.63674E-03    -44.2908E+06     7.99220E+06     26.2407E+06     3.23337E+06    -298.300E-03     570.773E-03    -272.473E-03     5.06908E-03    -298.676E-03     570.945E-03    -272.289E-03    -1.42634E-03
            2390     7.55971E-03     6.58604E-03    -51.1293E+06     -968.16E+03     16.6337E+06     4.25103E+06    -291.735E-03     562.063E-03    -270.328E-03     4.27693E-03    -292.099E-03     562.193E-03    -270.169E-03    -1.39303E-03
            2391     6.88592E-03     6.54323E-03    -58.1643E+06    -10.4706E+06     7.13482E+06     4.64794E+06    -285.683E-03     554.080E-03    -268.397E-03     4.27293E-03    -286.038E-03     554.171E-03    -268.262E-03    -612.456E-06
            2392     6.20800E-03     6.50719E-03    -64.9213E+06    -31.0791E+06    -3.35171E+06     4.29415E+06    -280.320E-03     547.015E-03    -266.696E-03     4.61644E-03    -280.650E-03     547.014E-03    -266.573E-03     455.789E-06
            2393     5.52650E-03     6.47701E-03    -71.3563E+06    -59.3504E+06    -15.1237E+06     3.45513E+06    -275.674E-03     540.887E-03    -265.212E-03     5.01884E-03    -275.967E-03     540.759E-03    -265.098E-03     1.51934E-03
            2394     4.84187E-03     6.45195E-03    -77.5048E+06    -83.5660E+06    -27.5824E+06     2.07325E+06    -271.692E-03     535.617E-03    -263.925E-03     5.29674E-03    -271.952E-03     535.385E-03    -263.829E-03     2.38866E-03
            2395     4.15465E-03     6.43135E-03    -83.0939E+06    -104.833E+06    -41.3126E+06     221.922E+03    -268.349E-03     531.172E-03    -262.823E-03     5.34244E-03    -268.578E-03     530.853E-03    -262.757E-03     2.95880E-03
            2396     3.46522E-03     6.41473E-03    -88.1967E+06    -126.604E+06    -55.4635E+06    -961.548E+03    -265.629E-03     527.536E-03    -261.907E-03     5.08138E-03    -265.824E-03     527.129E-03    -261.873E-03     3.17357E-03
            2397     2.77407E-03     6.40172E-03    -93.0374E+06    -145.438E+06    -69.3372E+06    -1.03734E+06    -263.485E-03     524.648E-03    -261.164E-03     4.48747E-03    -263.650E-03     524.168E-03    -261.165E-03     3.02079E-03
            2398     2.08167E-03     6.39182E-03    -97.1127E+06    -157.538E+06    -82.8951E+06    -888.198E+03    -261.857E-03     522.435E-03    -260.578E-03     3.61651E-03    -262.001E-03     521.915E-03    -260.623E-03     2.55274E-03
            2399     1.38830E-03     6.38491E-03    -100.055E+06    -171.518E+06    -93.6123E+06    -648.663E+03    -260.735E-03     520.900E-03    -260.165E-03     2.55096E-03    -260.854E-03     520.326E-03    -260.239E-03     1.85273E-03
            2400     694.307E-06     6.38079E-03    -102.007E+06    -183.024E+06    -99.9949E+06    -411.218E+03    -259.997E-03     519.983E-03    -259.986E-03     1.42235E-03    -260.097E-03     519.361E-03    -260.073E-03     1.04870E-03
            2401     12.8157E-03     5.50784E-03    -4.39559E+06     65.1507E+06     83.0978E+06    -1.03998E+06    -336.749E-03     625.415E-03    -288.666E-03     55.4893E-03    -337.342E-03     625.983E-03    -288.339E-03     47.0372E-03
            2402     12.1745E-03     5.39288E-03    -8.19177E+06     61.3910E+06     81.0233E+06    -2.57587E+06    -337.526E-03     623.555E-03    -286.029E-03     46.9730E-03    -338.220E-03     624.205E-03    -285.701E-03     36.0092E-03
            2403     11.5321E-03     5.29023E-03    -13.2039E+06     53.7919E+06     76.9300E+06    -2.19082E+06    -333.479E-03     616.622E-03    -283.143E-03     32.6251E-03    -334.088E-03     617.155E-03    -282.817E-03     22.0388E-03
            2404     10.8866E-03     5.19982E-03    -19.4048E+06     45.1031E+06     71.2517E+06    -720.323E+03    -326.517E-03     606.723E-03    -280.206E-03     21.7294E-03    -327.043E-03     607.136E-03    -279.887E-03     12.1400E-03
            2405     10.2361E-03     5.12414E-03    -26.4264E+06     35.8631E+06     61.6534E+06     734.939E+03    -318.147E-03     595.497E-03    -277.351E-03     14.7933E-03    -318.616E-03     595.823E-03    -277.056E-03     6.17131E-03
            2406     9.58001E-03     5.06107E-03    -33.3944E+06     25.9313E+06     49.7241E+06     1.47124E+06    -309.478E-03     584.155E-03    -274.678E-03     11.2648E-03    -309.905E-03     584.414E-03    -274.418E-03     3.68289E-03
            2407     8.91789E-03     5.00882E-03    -39.7178E+06     15.5324E+06     38.5786E+06     1.97875E+06    -301.161E-03     573.412E-03    -272.251E-03     9.95541E-03    -301.558E-03     573.612E-03    -272.023E-03     3.42315E-03
            2408     8.24965E-03     4.96561E-03    -45.4652E+06     6.09418E+06     29.1141E+06     3.05473E+06    -293.597E-03     563.689E-03    -270.092E-03     9.83147E-03    -293.972E-03     563.841E-03    -269.889E-03     4.29209E-03
            2409     7.57623E-03     4.92977E-03    -50.8664E+06    -767.721E+03     21.9907E+06     3.75713E+06    -286.939E-03     555.138E-03    -268.199E-03     10.1277E-03    -287.303E-03     555.255E-03    -268.015E-03     5.47581E-03
            2410     6.89861E-03     4.89988E-03    -56.1520E+06    -7.86979E+06     14.7411E+06     3.18342E+06    -281.192E-03     547.745E-03    -266.552E-03     10.4458E-03    -281.546E-03     547.829E-03    -266.386E-03     6.55809E-03
            2411     6.21729E-03     4.87500E-03    -61.4471E+06    -27.1691E+06     4.04917E+06     1.77653E+06    -276.352E-03     541.485E-03    -265.133E-03     10.5883E-03    -276.676E-03     541.483E-03    -264.984E-03     7.35580E-03
            2412     5.53287E-03     4.85428E-03    -66.3791E+06    -55.1705E+06    -9.57876E+06    -53.7484E+03    -272.335E-03     536.253E-03    -263.918E-03     10.4468E-03    -272.612E-03     536.127E-03    -263.789E-03     7.77284E-03
            2413     4.84595E-03     4.83710E-03    -70.6301E+06    -78.8684E+06    -23.7638E+06    -2.20802E+06    -269.014E-03     531.894E-03    -262.880E-03     9.97866E-03    -269.248E-03     531.666E-03    -262.782E-03     7.77467E-03
            2414     4.15695E-03     4.82305E-03    -74.8038E+06    -103.147E+06    -37.6927E+06    -3.51502E+06    -266.322E-03     528.337E-03    -262.015E-03     9.16194E-03    -266.514E-03     528.006E-03    -261.945E-03     7.36657E-03
            2415     3.46636E-03     4.81168E-03    -79.4111E+06    -128.034E+06    -51.2419E+06    -3.33252E+06    -264.186E-03     525.492E-03    -261.306E-03     8.02685E-03    -264.338E-03     525.056E-03    -261.262E-03     6.60283E-03
            2416     2.77455E-03     4.80264E-03    -83.8740E+06    -147.025E+06    -64.4252E+06    -3.04912E+06    -262.518E-03     523.249E-03    -260.731E-03     6.67285E-03    -262.641E-03     522.738E-03    -260.718E-03     5.57770E-03
            2417     2.08172E-03     4.79590E-03    -87.6480E+06    -160.862E+06    -76.5816E+06    -2.33214E+06    -261.265E-03     521.547E-03    -260.282E-03     5.15658E-03    -261.364E-03     520.986E-03    -260.304E-03     4.36304E-03
            2418     1.38818E-03     4.79117E-03    -90.6643E+06    -174.143E+06    -86.0186E+06    -965.507E+03    -260.403E-03     520.370E-03    -259.967E-03     3.52080E-03    -260.481E-03     519.758E-03    -260.013E-03     3.00999E-03
            2419     694.206E-06     4.78833E-03    -92.7421E+06    -184.524E+06    -91.6034E+06    -262.543E+03    -259.796E-03     519.675E-03    -259.879E-03     1.91840E-03    -259.860E-03     519.020E-03    -259.935E-03     1.64984E-03
            2420     12.8213E-03     3.72005E-03    -4.03481E+06     65.7598E+06     80.3418E+06    -2.17435E+06    -354.802E-03     643.275E-03    -288.472E-03     63.5185E-03    -355.443E-03     643.901E-03    -288.160E-03     54.4717E-03
            2421     12.1887E-03     3.61358E-03    -8.08659E+06     59.1613E+06     76.8334E+06    -1.46462E+06    -350.459E-03     635.489E-03    -285.030E-03     45.0713E-03    -351.127E-03     636.120E-03    -284.720E-03     34.0450E-03
            2422     11.5524E-03     3.52861E-03    -12.9796E+06     51.9899E+06     73.6777E+06     968.131E+03    -339.203E-03     620.794E-03    -281.592E-03     28.5394E-03    -339.736E-03     621.258E-03    -281.280E-03     18.8602E-03
            2423     10.9088E-03     3.46141E-03    -19.2584E+06     44.0929E+06     69.8005E+06     2.43746E+06    -326.724E-03     605.144E-03    -278.420E-03     19.8662E-03    -327.178E-03     605.487E-03    -278.107E-03     11.8309E-03
            2424     10.2566E-03     3.40856E-03    -25.7174E+06     36.4554E+06     63.0605E+06     2.90693E+06    -315.104E-03     590.690E-03    -275.585E-03     16.0456E-03    -315.516E-03     590.959E-03    -275.286E-03     9.37282E-03
            2425     9.59630E-03     3.36678E-03    -31.9749E+06     27.6494E+06     52.7504E+06     2.57353E+06    -305.029E-03     578.117E-03    -273.088E-03     14.7017E-03    -305.411E-03     578.333E-03    -272.818E-03     9.18155E-03
            2426     8.92927E-03     3.33338E-03    -38.0891E+06     16.3223E+06     40.9206E+06     1.85921E+06    -296.498E-03     567.410E-03    -270.912E-03     14.1926E-03    -296.855E-03     567.572E-03    -270.676E-03     9.63998E-03
            2427     8.25717E-03     3.30602E-03    -43.4509E+06     6.41269E+06     29.5960E+06     766.822E+03    -289.314E-03     558.339E-03    -269.025E-03     13.8434E-03    -289.649E-03     558.458E-03    -268.824E-03     10.0854E-03
            2428     7.58081E-03     3.28341E-03    -47.5978E+06     654.502E+03     18.4730E+06    -423.535E+03    -283.279E-03     550.669E-03    -267.390E-03     13.4502E-03    -283.596E-03     550.767E-03    -267.230E-03     10.3441E-03
            2429     6.90064E-03     3.26474E-03    -51.1581E+06    -5.87168E+06     6.38728E+06    -1.17002E+06    -278.262E-03     544.242E-03    -265.980E-03     12.9207E-03    -278.559E-03     544.319E-03    -265.865E-03     10.3616E-03
            2430     6.21745E-03     3.24919E-03    -54.6607E+06    -23.1715E+06    -7.08290E+06    -2.33204E+06    -274.160E-03     538.940E-03    -264.780E-03     12.1886E-03    -274.420E-03     538.945E-03    -264.702E-03     10.0763E-03
            2431     5.53185E-03     3.23622E-03    -57.8193E+06    -50.4523E+06    -20.8429E+06    -4.69259E+06    -270.822E-03     534.589E-03    -263.767E-03     11.2462E-03    -271.031E-03     534.474E-03    -263.714E-03     9.48082E-03
            2432     4.84419E-03     3.22542E-03    -60.6914E+06    -77.8026E+06    -33.5455E+06    -6.17753E+06    -268.091E-03     531.004E-03    -262.914E-03     10.1029E-03    -268.250E-03     530.769E-03    -262.881E-03     8.63176E-03
            2433     4.15494E-03     3.21646E-03    -63.6696E+06    -106.944E+06    -44.1518E+06    -5.33317E+06    -265.886E-03     528.097E-03    -262.212E-03     8.80133E-03    -265.997E-03     527.731E-03    -262.185E-03     7.60669E-03
            2434     3.46439E-03     3.20921E-03    -66.5225E+06    -131.378E+06    -53.2660E+06    -4.06075E+06    -264.115E-03     525.750E-03    -261.635E-03     7.42212E-03    -264.188E-03     525.275E-03    -261.614E-03     6.47513E-03
            2435     2.77269E-03     3.20352E-03    -68.9879E+06    -150.015E+06    -60.9795E+06    -3.27105E+06    -262.723E-03     523.895E-03    -261.172E-03     5.99452E-03    -262.767E-03     523.338E-03    -261.159E-03     5.26433E-03
            2436     2.08021E-03     3.19919E-03    -71.1204E+06    -166.350E+06    -66.3141E+06    -2.01977E+06    -261.685E-03     522.510E-03    -260.825E-03     4.51767E-03    -261.706E-03     521.880E-03    -260.812E-03     3.98979E-03
            2437     1.38715E-03     3.19616E-03    -72.6711E+06    -177.478E+06    -70.2121E+06    -616.222E+03    -260.960E-03     521.536E-03    -260.576E-03     3.03133E-03    -260.966E-03     520.857E-03    -260.564E-03     2.69360E-03
            2438     693.682E-06     3.19434E-03    -73.5176E+06    -185.114E+06    -72.8088E+06     71.0740E+03    -260.398E-03     520.947E-03    -260.549E-03     1.63533E-03    -260.392E-03     520.234E-03    -260.538E-03     1.46071E-03
            2439     12.8133E-03     1.88607E-03    -3.03159E+06     66.5589E+06     82.4025E+06    -1.40229E+06    -384.477E-03     673.561E-03    -289.084E-03     63.4763E-03    -385.059E-03     674.137E-03    -288.765E-03     55.4138E-03
            2440     12.1958E-03     1.81065E-03    -8.08387E+06     57.5358E+06     78.2860E+06    -885.456E+03    -361.587E-03     646.236E-03    -284.649E-03     33.8362E-03    -362.061E-03     646.667E-03    -284.329E-03     26.5164E-03
            2441     11.5635E-03     1.76356E-03    -13.3148E+06     50.7544E+06     74.5798E+06     1.47072E+06    -341.333E-03     622.174E-03    -280.841E-03     21.9387E-03    -341.713E-03     622.477E-03    -280.522E-03     16.2745E-03
            2442     10.9175E-03     1.72903E-03    -18.4027E+06     43.9403E+06     69.9229E+06     2.39956E+06    -325.053E-03     602.681E-03    -277.628E-03     17.1251E-03    -325.395E-03     602.915E-03    -277.315E-03     12.7646E-03
            2443     10.2614E-03     1.70296E-03    -23.2893E+06     36.8874E+06     61.7741E+06     2.82104E+06    -312.139E-03     587.042E-03    -274.903E-03     14.3600E-03    -312.456E-03     587.232E-03    -274.614E-03     10.9989E-03
            2444     9.59812E-03     1.68220E-03    -28.2468E+06     29.8817E+06     48.5384E+06     2.77067E+06    -301.930E-03     574.498E-03    -272.569E-03     12.5980E-03    -302.227E-03     574.663E-03    -272.328E-03     9.92835E-03
            2445     8.92952E-03     1.66556E-03    -32.7250E+06     20.3898E+06     31.8254E+06     1.35507E+06    -293.800E-03     564.357E-03    -270.557E-03     11.3974E-03    -294.071E-03     564.493E-03    -270.380E-03     9.22364E-03
            2446     8.25612E-03     1.65226E-03    -36.6641E+06     10.9225E+06     14.8240E+06    -1.00948E+06    -287.206E-03     556.027E-03    -268.821E-03     10.5260E-03    -287.451E-03     556.138E-03    -268.709E-03     8.71741E-03
            2447     7.57859E-03     1.64151E-03    -40.4700E+06     2.31679E+06    -861.385E+03    -2.70127E+06    -281.788E-03     549.113E-03    -267.325E-03     9.69153E-03    -282.011E-03     549.203E-03    -267.274E-03     8.18519E-03
            2448     6.89788E-03     1.63252E-03    -44.0137E+06    -6.59886E+06    -15.3224E+06    -2.89323E+06    -277.326E-03     543.364E-03    -266.038E-03     8.78212E-03    -277.528E-03     543.431E-03    -266.041E-03     7.53926E-03
            2449     6.21449E-03     1.62492E-03    -46.9570E+06    -19.9029E+06    -28.7748E+06    -3.44782E+06    -273.653E-03     538.589E-03    -264.936E-03     7.84982E-03    -273.828E-03     538.610E-03    -264.983E-03     6.81181E-03
            2450     5.52887E-03     1.61853E-03    -49.5909E+06    -47.1797E+06    -38.5030E+06    -4.97096E+06    -270.649E-03     534.675E-03    -264.026E-03     6.94726E-03    -270.780E-03     534.575E-03    -264.079E-03     6.05880E-03
            2451     4.84146E-03     1.61322E-03    -52.3865E+06    -81.5686E+06    -44.6954E+06    -4.95750E+06    -268.186E-03     531.466E-03    -263.280E-03     6.04896E-03    -268.270E-03     531.205E-03    -263.310E-03     5.30415E-03
            2452     4.15246E-03     1.60885E-03    -54.9203E+06    -111.525E+06    -49.9183E+06    -3.93436E+06    -266.158E-03     528.813E-03    -262.655E-03     5.15051E-03    -266.203E-03     528.412E-03    -262.663E-03     4.54474E-03
            2453     3.46216E-03     1.60528E-03    -56.5696E+06    -134.929E+06    -53.6871E+06    -3.28023E+06    -264.514E-03     526.654E-03    -262.140E-03     4.26322E-03    -264.526E-03     526.142E-03    -262.131E-03     3.77590E-03
            2454     2.77092E-03     1.60244E-03    -57.7093E+06    -154.394E+06    -55.5589E+06    -2.13235E+06    -263.223E-03     524.958E-03    -261.735E-03     3.38375E-03    -263.209E-03     524.352E-03    -261.705E-03     3.01153E-03
            2455     2.07887E-03     1.60030E-03    -58.8173E+06    -170.188E+06    -56.9726E+06    -1.05196E+06    -262.250E-03     523.675E-03    -261.425E-03     2.52525E-03    -262.216E-03     522.993E-03    -261.378E-03     2.25929E-03
            2456     1.38622E-03     1.59881E-03    -59.7264E+06    -179.806E+06    -58.7198E+06    -543.377E+03    -261.566E-03     522.766E-03    -261.199E-03     1.69359E-03    -261.519E-03     522.039E-03    -261.146E-03     1.51921E-03
            2457     693.212E-06     1.59794E-03    -60.2068E+06    -185.526E+06    -59.9365E+06    -198.731E+03    -261.012E-03     522.217E-03    -261.205E-03     916.635E-06    -260.957E-03     521.463E-03    -261.148E-03     824.357E-06


