********************************************************************************
Field Output Report, written Tue May 28 21:55:30 2024

Source 1
---------

   ODB: G:/Abaqus_calc_2019/1740/Vel_10/odb/zeides_2a_32_red_150_cal_10_vel_10_fric_050.odb
   Step: Step-1
   Frame: Increment   6213262: Step Time =   0.8120

Loc 1 : Nodal values from source 1

Output sorted by column "Nodal Label".

Field Output reported at nodes for region: DIE_2A_32_D0_36-1.Region_1
   Computation algorithm: EXTRAPOLATE_COMPUTE_AVERAGE
   Averaged at nodes
   Averaging regions: ODB_REGIONS

      Node Label     COORD.COOR1     COORD.COOR2
                          @Loc 1          @Loc 1
-------------------------------------------------
               1     22.6170E-03     117.948E-03


Field Output reported at nodes for region: DIE_2A_32_D0_36-1.Region_2
   Computation algorithm: EXTRAPOLATE_COMPUTE_AVERAGE
   Averaged at nodes
   Averaging regions: ODB_REGIONS

      Node Label     COORD.COOR1     COORD.COOR2
                          @Loc 1          @Loc 1
-------------------------------------------------
               1     22.6170E-03     117.948E-03


Field Output reported at nodes for part: WIRE-1
   Computation algorithm: EXTRAPOLATE_COMPUTE_AVERAGE
   Averaged at nodes
   Averaging regions: ODB_REGIONS

      Node Label     COORD.COOR1     COORD.COOR2           S.S11           S.S22           S.S33           S.S12         PE.PE11         PE.PE22         PE.PE33         PE.PE12         LE.LE11         LE.LE22         LE.LE33         LE.LE12
                          @Loc 1          @Loc 1          @Loc 1          @Loc 1          @Loc 1          @Loc 1          @Loc 1          @Loc 1          @Loc 1          @Loc 1          @Loc 1          @Loc 1          @Loc 1          @Loc 1
-------------------------------------------------------------------------------------------------------------------------------------------------------------------------------------------------------------------------------------------------
               1    -39.8604E-09     56.3777E-03    -13.6890E+06    -68.6906E+06    -13.7769E+06     59.3580E+03    -15.6116E-03     31.2445E-03    -15.6328E-03     2.10344E-03    -15.5605E-03     30.9410E-03    -15.5823E-03     2.10389E-03
               2     17.7225E-03     57.4552E-03    -2.21643E+06     183.066E+06     98.6092E+06     70.8029E+03    -26.8785E-03     42.6635E-03    -15.7851E-03     270.478E-03    -35.2926E-03     51.4337E-03    -15.5543E-03     277.956E-03
               3     17.4949E-03     114.162E-03     20.5483E+06    -12.4889E+06     17.4230E+06     1.04160E+06     11.9649E-03     11.8351E-03    -23.8000E-03     2.31640E-03     12.0407E-03     11.6978E-03    -23.7245E-03     2.32980E-03
               4    -691.192E-09     113.019E-03     22.1970E+06    -2.14685E+06     18.7252E+06    -1.50838E+06    -18.6795E-03     37.7716E-03    -19.0921E-03    -441.460E-06    -18.5928E-03     37.7014E-03    -19.0275E-03    -460.946E-06
               5     135.516E-09     48.5723E-18    -4.21983E+06    -58.6034E+06    -4.20785E+06    -760.208E+03    -12.9602E-03     25.8047E-03    -12.8444E-03     90.9993E-06    -12.8897E-03     25.5242E-03    -12.7744E-03     81.3159E-06
               6     17.6366E-03     48.5723E-18    -2.18267E+06     96.0401E+06     68.5361E+06     11.7251E+06    -60.2815E-03     78.4117E-03    -18.1302E-03     63.4518E-03    -60.7081E-03     78.9747E-03    -17.9236E-03     63.1841E-03
               7     886.114E-06     56.3799E-03    -13.6225E+06    -67.6962E+06    -13.3582E+06     79.2477E+03    -15.6203E-03     31.2487E-03    -15.6284E-03     3.49829E-03    -15.5709E-03     30.9494E-03    -15.5773E-03     3.49880E-03
               8     1.77219E-03     56.3843E-03    -13.1280E+06    -66.4328E+06    -11.8317E+06     157.445E+03    -15.6296E-03     31.2577E-03    -15.6281E-03     6.49230E-03    -15.5819E-03     30.9618E-03    -15.5719E-03     6.49338E-03
               9     2.65828E-03     56.3919E-03    -12.1718E+06    -64.1338E+06    -9.65426E+06     108.720E+03    -15.6328E-03     31.2653E-03    -15.6325E-03     9.73648E-03    -15.5869E-03     30.9765E-03    -15.5701E-03     9.73643E-03
              10     3.54439E-03     56.4024E-03    -10.8771E+06    -61.8660E+06    -7.06161E+06    -131.782E+03    -15.6457E-03     31.2831E-03    -15.6374E-03     13.0876E-03    -15.6004E-03     31.0001E-03    -15.5672E-03     13.0839E-03
              11     4.43050E-03     56.4163E-03    -9.32846E+06    -64.0898E+06    -3.80159E+06     39.8088E+03    -15.6820E-03     31.3346E-03    -15.6526E-03     16.5657E-03    -15.6307E-03     31.0337E-03    -15.5652E-03     16.5636E-03
              12     5.31661E-03     56.4333E-03    -7.34599E+06    -64.5744E+06    -1.00450E+06     73.7979E+03    -15.7324E-03     31.3965E-03    -15.6641E-03     20.2042E-03    -15.6748E-03     31.0866E-03    -15.5649E-03     20.2018E-03
              13     6.20267E-03     56.4539E-03    -6.02362E+06    -60.3738E+06     744.417E+03    -128.309E+03    -15.7816E-03     31.4475E-03    -15.6659E-03     24.0388E-03    -15.7265E-03     31.1546E-03    -15.5659E-03     24.0330E-03
              14     7.08882E-03     56.4780E-03    -6.22375E+06    -62.8732E+06     1.67151E+06     440.174E+03    -15.8521E-03     31.5288E-03    -15.6768E-03     28.0187E-03    -15.7964E-03     31.2230E-03    -15.5682E-03     28.0189E-03
              15     7.97480E-03     56.5060E-03    -5.87607E+06    -64.5884E+06     1.73254E+06     839.975E+03    -15.9205E-03     31.6023E-03    -15.6818E-03     32.1693E-03    -15.8616E-03     31.2883E-03    -15.5710E-03     32.1731E-03
              16     8.86100E-03     56.5379E-03    -4.34928E+06    -58.2445E+06     1.83428E+06     171.965E+03    -15.9844E-03     31.6572E-03    -15.6728E-03     36.4621E-03    -15.9288E-03     31.3740E-03    -15.5729E-03     36.4552E-03
              17     9.74692E-03     56.5738E-03    -3.52091E+06    -58.4278E+06     1.58577E+06    -347.399E+03    -16.0760E-03     31.7479E-03    -15.6719E-03     40.7125E-03    -16.0181E-03     31.4655E-03    -15.5741E-03     40.6957E-03
              18     10.6332E-03     56.6137E-03    -3.31482E+06    -56.4318E+06    -2.57815E+06    -324.942E+03    -16.1893E-03     31.8392E-03    -15.6499E-03     44.9924E-03    -16.1312E-03     31.5765E-03    -15.5762E-03     44.9718E-03
              19     11.5190E-03     56.6574E-03    -2.90932E+06    -43.3571E+06    -511.735E+03    -85.2083E+03    -16.2856E-03     31.9293E-03    -15.6436E-03     49.5106E-03    -16.2537E-03     31.7346E-03    -15.5791E-03     49.4877E-03
              20     12.4053E-03     56.7059E-03    -3.10790E+06    -36.5035E+06     1.58667E+06     695.001E+03    -16.4555E-03     32.1031E-03    -15.6476E-03     56.3730E-03    -16.4497E-03     31.9520E-03    -15.5822E-03     56.3530E-03
              21     13.2911E-03     56.7620E-03    -3.74418E+06    -36.3874E+06    -7.51263E+06     1.48320E+06    -16.5915E-03     32.1998E-03    -15.6083E-03     58.5649E-03    -16.5922E-03     32.0798E-03    -15.5877E-03     58.5469E-03
              22     14.1764E-03     56.8155E-03    -3.97826E+06    -18.7285E+06     -9.7637E+06     1.36681E+06    -16.6030E-03     32.1787E-03    -15.5757E-03     63.8937E-03    -16.6605E-03     32.1840E-03    -15.5916E-03     63.8691E-03
              23     15.0643E-03     56.8813E-03    -5.03769E+06     21.1913E+06    -11.7506E+06     378.474E+03    -17.8658E-03     33.3720E-03    -15.5062E-03     98.5756E-03    -18.1775E-03     33.7751E-03    -15.5884E-03     98.5575E-03
              24     15.9493E-03     56.9982E-03    -6.16278E+06     82.9115E+06    -10.9404E+06    -261.459E+03    -21.2796E-03     36.6937E-03    -15.4141E-03     167.057E-03    -23.1501E-03     38.8684E-03    -15.5801E-03     167.613E-03
              25     16.8350E-03     57.1936E-03    -4.20604E+06     152.308E+06     46.8548E+06    -116.420E+03    -25.1606E-03     40.7448E-03    -15.5842E-03     239.499E-03    -30.9823E-03     46.9563E-03    -15.5647E-03     243.798E-03
              26     17.7223E-03     58.4347E-03    -1.97604E+06     183.264E+06     100.486E+06     202.429E+03    -27.2537E-03     43.0496E-03    -15.7960E-03     270.360E-03    -35.6783E-03     51.8264E-03    -15.5564E-03     277.800E-03
              27     17.7215E-03     59.4121E-03    -2.16772E+06     184.054E+06     99.5861E+06     69.1805E+03    -26.6467E-03     42.4518E-03    -15.8050E-03     268.278E-03    -35.0441E-03     51.2061E-03    -15.5709E-03     275.773E-03
              28     17.7229E-03     60.3874E-03    -2.90636E+06     184.297E+06     95.6215E+06     519.629E+03    -27.6302E-03     43.3725E-03    -15.7423E-03     272.876E-03    -36.2212E-03     52.3302E-03    -15.5272E-03     280.400E-03
              29     17.7232E-03     61.3805E-03    -2.77009E+06     184.443E+06     96.2770E+06     239.175E+03    -28.0781E-03     43.8190E-03    -15.7409E-03     279.766E-03    -36.8799E-03     52.9867E-03    -15.5229E-03     287.239E-03
              30     17.7222E-03     62.3529E-03    -3.03346E+06     184.340E+06     99.2006E+06    -762.845E+03    -26.3578E-03     42.1793E-03    -15.8215E-03     277.175E-03    -35.0704E-03     51.2481E-03    -15.5884E-03     284.778E-03
              31     17.7218E-03     63.3182E-03    -2.81511E+06     184.282E+06     99.5978E+06     154.569E+03    -26.7811E-03     42.5845E-03    -15.8034E-03     269.101E-03    -35.1888E-03     51.3477E-03    -15.5685E-03     276.638E-03
              32     17.7226E-03     64.3077E-03    -2.25768E+06     184.784E+06     99.0365E+06     425.678E+03    -27.6592E-03     43.4270E-03    -15.7678E-03     269.924E-03    -36.0808E-03     52.2094E-03    -15.5372E-03     277.356E-03
              33     17.7222E-03     65.2846E-03    -2.67672E+06     185.527E+06     99.1373E+06     133.315E+03    -26.6644E-03     42.4614E-03    -15.7970E-03     272.057E-03    -35.1818E-03     51.3404E-03    -15.5665E-03     279.607E-03
              34     17.7223E-03     66.2593E-03    -2.15702E+06     185.989E+06     99.7217E+06     49.9187E+03    -26.1635E-03     41.9745E-03    -15.8110E-03     270.892E-03    -34.6349E-03     50.8093E-03    -15.5789E-03     278.486E-03
              35     17.7223E-03     67.2401E-03    -2.74827E+06     185.479E+06     99.5898E+06    -168.234E+03    -27.0763E-03     42.8699E-03    -15.7936E-03     272.313E-03    -35.6066E-03     51.7601E-03    -15.5606E-03     279.841E-03
              36     17.7221E-03     68.2189E-03    -2.82162E+06     185.270E+06     99.8758E+06    -63.4922E+03    -27.2449E-03     43.0398E-03    -15.7949E-03     271.971E-03    -35.7609E-03     51.9138E-03    -15.5600E-03     279.460E-03
              37     17.7222E-03     69.1955E-03    -2.32756E+06     185.882E+06     99.8584E+06     227.747E+03    -26.8544E-03     42.6522E-03    -15.7978E-03     270.368E-03    -35.3066E-03     51.4665E-03    -15.5647E-03     277.897E-03
              38     17.7224E-03     70.1731E-03    -2.55929E+06     186.631E+06     99.0728E+06     567.116E+03    -26.8025E-03     42.5889E-03    -15.7864E-03     269.642E-03    -35.2265E-03     51.3791E-03    -15.5580E-03     277.177E-03
              39     17.7223E-03     71.1542E-03    -2.21602E+06     187.732E+06     98.6081E+06     756.907E+03    -26.3777E-03     42.1691E-03    -15.7915E-03     271.519E-03    -34.8672E-03     51.0312E-03    -15.5674E-03     279.095E-03
              40     17.7226E-03     72.1307E-03    -2.89200E+06     188.083E+06     100.639E+06    -152.638E+03    -26.7777E-03     42.5833E-03    -15.8056E-03     271.954E-03    -35.3084E-03     51.4796E-03    -15.5709E-03     279.505E-03
              41     17.7212E-03     73.1086E-03    -1.63526E+06     188.331E+06     99.1159E+06    -301.015E+03    -26.8875E-03     42.6719E-03    -15.7844E-03     268.974E-03    -35.3401E-03     51.4998E-03    -15.5595E-03     276.497E-03
              42     17.7238E-03     74.0846E-03    -2.51586E+06     188.135E+06     96.1461E+06     211.964E+03    -27.5100E-03     43.2501E-03    -15.7401E-03     273.442E-03    -36.1516E-03     52.2720E-03    -15.5286E-03     281.008E-03
              43     17.7220E-03     75.0774E-03    -3.53620E+06     188.198E+06     99.0536E+06     76.5062E+03    -28.0779E-03     43.8517E-03    -15.7739E-03     280.585E-03    -36.9681E-03     53.1104E-03    -15.5463E-03     288.130E-03
              44     17.7222E-03     76.0480E-03    -2.86007E+06     189.218E+06     100.756E+06     82.8642E+03    -26.3439E-03     42.1828E-03    -15.8389E-03     277.123E-03    -35.0528E-03     51.2614E-03    -15.6053E-03     284.737E-03
              45     17.7219E-03     77.0150E-03    -2.08671E+06     190.201E+06     100.422E+06     769.771E+03    -26.2567E-03     42.0654E-03    -15.8087E-03     268.255E-03    -34.5895E-03     50.7750E-03    -15.5794E-03     275.786E-03
              46     17.7226E-03     78.0007E-03    -2.15896E+06     190.900E+06     99.0944E+06     476.364E+03    -26.8879E-03     42.6591E-03    -15.7712E-03     267.690E-03    -35.2026E-03     51.3565E-03    -15.5494E-03     275.122E-03
              47     17.7223E-03     78.9791E-03    -2.90082E+06     191.457E+06     99.0079E+06     255.700E+03    -26.5164E-03     42.3042E-03    -15.7879E-03     272.002E-03    -35.0366E-03     51.2067E-03    -15.5662E-03     279.571E-03
              48     17.7224E-03     79.9572E-03    -2.72077E+06     192.812E+06     99.5407E+06     661.107E+03    -26.3519E-03     42.1467E-03    -15.7948E-03     272.031E-03    -34.8806E-03     51.0615E-03    -15.5727E-03     279.641E-03
              49     17.7224E-03     80.9337E-03    -2.40109E+06     194.251E+06     99.7614E+06     705.870E+03    -26.4376E-03     42.2251E-03    -15.7875E-03     271.308E-03    -34.9176E-03     51.0969E-03    -15.5669E-03     278.862E-03
              50     17.7225E-03     81.9120E-03    -2.00085E+06     195.917E+06     100.582E+06     863.789E+03    -26.9011E-03     42.6734E-03    -15.7723E-03     270.501E-03    -35.3435E-03     51.5125E-03    -15.5505E-03     277.989E-03
              51     17.7225E-03     82.8904E-03    -2.73276E+06     197.222E+06     102.259E+06     354.434E+03    -27.0720E-03     42.8559E-03    -15.7839E-03     269.426E-03    -35.5001E-03     51.6779E-03    -15.5546E-03     276.890E-03
              52     17.7215E-03     83.8691E-03    -2.21717E+06     198.123E+06     100.976E+06    -8.98039E+03    -26.6197E-03     42.4061E-03    -15.7865E-03     268.636E-03    -35.0675E-03     51.2566E-03    -15.5657E-03     276.153E-03
              53     17.7232E-03     84.8448E-03    -2.89448E+06     197.191E+06      95.155E+06     480.116E+03    -27.1043E-03     42.8285E-03    -15.7243E-03     272.995E-03    -35.7377E-03     51.8758E-03    -15.5302E-03     280.561E-03
              54     17.7233E-03     85.8355E-03    -2.79168E+06     198.074E+06     96.6135E+06     56.5468E+03    -27.9145E-03     43.6270E-03    -15.7125E-03     280.847E-03    -36.8383E-03     52.9639E-03    -15.5126E-03     288.420E-03
              55     17.7228E-03     86.8107E-03    -1.92252E+06     199.732E+06     99.9450E+06    -91.3809E+03    -26.6393E-03     42.4062E-03    -15.7669E-03     280.544E-03    -35.5089E-03     51.6883E-03    -15.5540E-03     288.181E-03
              56     17.7230E-03     87.7791E-03    -2.67083E+06     198.973E+06     100.389E+06     208.470E+03    -25.8700E-03     41.6478E-03    -15.7777E-03     272.520E-03    -34.3825E-03     50.5661E-03    -15.5604E-03     280.088E-03
              57     17.7225E-03     88.7571E-03    -2.38856E+06     198.797E+06     98.1729E+06    -164.603E+03    -26.0881E-03     41.8247E-03    -15.7366E-03     266.765E-03    -34.3942E-03     50.5433E-03    -15.5305E-03     274.226E-03
              58     17.7239E-03     89.7336E-03    -2.74477E+06     198.392E+06     95.3625E+06     302.704E+03    -27.1387E-03     42.8199E-03    -15.6812E-03     271.173E-03    -35.6405E-03     51.7398E-03    -15.4881E-03     278.661E-03
              59     17.7235E-03     90.7241E-03    -3.02345E+06     198.051E+06     97.1781E+06    -247.989E+03    -27.8288E-03     43.5053E-03    -15.6765E-03     277.330E-03    -36.5515E-03     52.6386E-03    -15.4734E-03     284.797E-03
              60     17.7238E-03     91.6961E-03    -2.73573E+06     197.629E+06     98.3323E+06     -671.51E+03    -26.7647E-03     42.4658E-03    -15.7011E-03     275.599E-03    -35.4068E-03     51.5148E-03    -15.4920E-03     283.111E-03
              61     17.7238E-03     92.6689E-03    -2.52055E+06     197.338E+06     97.4506E+06     169.456E+03    -26.6395E-03     42.3048E-03    -15.6653E-03     270.012E-03    -35.0491E-03     51.1234E-03    -15.4605E-03     277.495E-03
              62     17.7249E-03     93.6507E-03    -2.51370E+06     196.842E+06     96.3038E+06    -111.497E+03    -26.7675E-03     42.3878E-03    -15.6203E-03     268.353E-03    -35.0982E-03     51.1291E-03    -15.4206E-03     275.789E-03
              63     17.7250E-03     94.6268E-03    -2.43661E+06     196.278E+06     96.7039E+06    -195.198E+03    -26.7075E-03     42.3039E-03    -15.5964E-03     268.450E-03    -35.0509E-03     51.0550E-03    -15.3940E-03     275.902E-03
              64     17.7257E-03     95.6059E-03    -2.38926E+06     195.213E+06     96.6793E+06    -441.011E+03    -27.2617E-03     42.8139E-03    -15.5522E-03     267.426E-03    -35.5736E-03     51.5300E-03    -15.3484E-03     274.813E-03
              65     17.7261E-03     96.5846E-03    -2.43597E+06     193.657E+06     96.9498E+06    -489.265E+03    -28.0180E-03     43.5264E-03    -15.5084E-03     268.182E-03    -36.3563E-03     52.2625E-03    -15.3010E-03     275.499E-03
              66     17.7266E-03     97.5676E-03    -2.77161E+06     191.734E+06     98.8478E+06    -985.084E+03    -28.5465E-03     44.0369E-03    -15.4904E-03     269.084E-03    -36.9211E-03     52.7957E-03    -15.2701E-03     276.337E-03
              67     17.7266E-03     98.5449E-03    -2.62032E+06     189.771E+06     100.195E+06    -1.04126E+06    -29.2341E-03     44.6979E-03    -15.4639E-03     267.974E-03    -37.5688E-03     53.4065E-03    -15.2342E-03     275.140E-03
              68     17.7273E-03     99.5260E-03    -2.31957E+06     187.250E+06     99.7232E+06    -1.04142E+06    -29.9408E-03     45.3597E-03    -15.4189E-03     266.176E-03    -38.1829E-03     53.9691E-03    -15.1885E-03     273.223E-03
              69     17.7276E-03     100.509E-03    -2.64663E+06     183.719E+06     100.017E+06    -1.48831E+06    -30.3779E-03     45.7711E-03    -15.3932E-03     266.148E-03    -38.5993E-03     54.3453E-03    -15.1557E-03     273.108E-03
              70     17.7278E-03     101.489E-03    -2.90723E+06     180.139E+06     100.435E+06    -1.82209E+06    -31.3507E-03     46.7020E-03    -15.3513E-03     265.564E-03    -39.5342E-03     55.2234E-03    -15.1061E-03     272.374E-03
              71     17.7287E-03     102.473E-03    -2.41718E+06     176.503E+06     101.881E+06    -1.59238E+06    -32.9393E-03     48.2337E-03    -15.2944E-03     265.824E-03    -41.0879E-03     56.7049E-03    -15.0374E-03     272.420E-03
              72     17.7288E-03     103.461E-03    -3.36329E+06     172.178E+06     104.728E+06    -2.03947E+06    -34.2060E-03     49.4733E-03    -15.2673E-03     266.246E-03    -42.3228E-03     57.8856E-03    -14.9884E-03     272.604E-03
              73     17.7290E-03     104.443E-03    -2.17641E+06     167.822E+06     103.217E+06    -2.20117E+06    -34.8937E-03     50.0888E-03    -15.1951E-03     263.293E-03    -42.8260E-03     58.3095E-03    -14.9192E-03     269.360E-03
              74     17.7315E-03     105.427E-03    -2.90228E+06     162.655E+06     98.8250E+06    -1.84671E+06    -39.3391E-03     54.3489E-03    -15.0098E-03     271.429E-03    -47.4250E-03     62.7170E-03    -14.7473E-03     276.991E-03
              75     17.7322E-03     106.444E-03    -2.03188E+06     157.351E+06     97.7535E+06    -2.29978E+06    -41.3490E-03     56.2706E-03    -14.9216E-03     281.167E-03    -49.5016E-03     64.6924E-03    -14.6580E-03     286.210E-03
              76     17.7333E-03     107.415E-03    -5.07798E+06     150.506E+06     94.2520E+06    -4.61911E+06    -39.0496E-03     53.9623E-03    -14.9128E-03     274.132E-03    -46.6306E-03     61.7857E-03    -14.6524E-03     278.773E-03
              77     17.7339E-03     108.392E-03    -4.50901E+06     133.927E+06     83.7109E+06    -9.54893E+06    -43.3278E-03     58.0284E-03    -14.7006E-03     262.512E-03    -50.1056E-03     65.0240E-03    -14.4697E-03     266.143E-03
              78     17.7353E-03     109.403E-03    -635.692E+03     115.304E+06     67.2312E+06    -7.52048E+06    -47.2086E-03     61.7132E-03    -14.5046E-03     264.247E-03    -53.3901E-03     68.1082E-03    -14.3347E-03     266.842E-03
              79     17.7358E-03     110.399E-03    -11.6334E+06     86.5909E+06     33.2212E+06    -17.0069E+06    -39.5007E-03     54.0293E-03    -14.5286E-03     267.311E-03    -44.6454E-03     59.3441E-03    -14.4712E-03     269.260E-03
              80     17.7393E-03     111.367E-03     2.73147E+06     41.7959E+06     10.8747E+06    -26.6779E+06    -18.4906E-03     33.3645E-03    -14.8739E-03     243.808E-03    -21.2915E-03     36.2958E-03    -14.8840E-03     244.950E-03
              81     17.7382E-03     112.293E-03     838.179E+03     7.46798E+06     4.92464E+06    -8.69242E+06     7.73272E-03     8.50936E-03    -16.2421E-03     173.417E-03     6.95376E-03     9.31219E-03    -16.2295E-03     173.853E-03
              82     17.6801E-03     113.200E-03    -667.536E+03    -8.07434E+06     7.53015E+06     3.25255E+06     16.0423E-03     4.51316E-03    -20.5554E-03     62.2178E-03     15.9918E-03     4.49595E-03    -20.5051E-03     62.2958E-03
              83     16.6208E-03     113.990E-03     4.35869E+06     10.4274E+06     34.6227E+06     5.51041E+06     7.86965E-03     16.5105E-03    -24.3801E-03     13.8469E-03     7.81926E-03     16.4993E-03    -24.2284E-03     13.9179E-03
              84     15.7193E-03     113.851E-03    -9.90353E+06     7.57207E+06     49.6989E+06    -3.17384E+06    -11.9144E-03     36.9313E-03    -25.0168E-03     23.6757E-03    -12.0530E-03     36.9095E-03    -24.7649E-03     23.6236E-03
              85     14.8693E-03     113.692E-03     4.02901E+06    -8.36748E+06     40.6945E+06    -11.5193E+06    -27.1631E-03     51.8146E-03    -24.6515E-03     13.8708E-03    -27.2043E-03     51.6988E-03    -24.4417E-03     13.7031E-03
              86     14.0128E-03     113.572E-03     17.2941E+06    -5.36684E+06     47.3700E+06    -2.31478E+06    -26.0302E-03     50.0813E-03    -24.0511E-03     3.37478E-03    -26.0130E-03     49.9542E-03    -23.8315E-03     3.33091E-03
              87     13.1478E-03     113.482E-03     16.6799E+06     682.141E+03     56.8824E+06     529.539E+03    -26.2975E-03     49.9006E-03    -23.6031E-03     82.4369E-06    -26.3020E-03     49.7938E-03    -23.3439E-03     77.4236E-06
              88     12.2797E-03     113.406E-03     15.9236E+06    -112.977E+03     49.5349E+06    -845.433E+03    -27.8146E-03     50.8666E-03    -23.0520E-03    -1.24135E-03    -27.8098E-03     50.7684E-03    -22.8273E-03    -1.26333E-03
              89     11.4130E-03     113.340E-03     16.2385E+06    -1.53325E+06     47.8044E+06    -307.598E+03    -28.0959E-03     50.5492E-03    -22.4532E-03    -1.44134E-03    -28.0844E-03     50.4464E-03    -22.2355E-03    -1.45515E-03
              90     10.5429E-03     113.283E-03     15.2858E+06     1.20195E+06     47.4415E+06    -568.909E+03    -27.3005E-03     49.1387E-03    -21.8382E-03    -1.24588E-03    -27.2965E-03     49.0521E-03    -21.6249E-03    -1.26154E-03
              91     9.67211E-03     113.234E-03     14.8664E+06    -760.602E+03     46.6589E+06    -1.02650E+06    -25.9142E-03     47.1762E-03    -21.2620E-03    -1.06148E-03    -25.9081E-03     47.0818E-03    -21.0492E-03    -1.08155E-03
              92     8.79838E-03     113.192E-03     14.5265E+06     792.142E+03     44.6712E+06    -1.29972E+06    -24.3541E-03     45.0989E-03    -20.7448E-03    -710.198E-06    -24.3486E-03     45.0159E-03    -20.5437E-03    -732.300E-06
              93     7.92290E-03     113.157E-03     14.5240E+06    -598.563E+03     40.9695E+06    -1.51702E+06    -23.0744E-03     43.3732E-03    -20.2988E-03    -449.197E-06    -23.0613E-03     43.2888E-03    -20.1141E-03    -472.940E-06
              94     7.04560E-03     113.126E-03     14.9398E+06     405.602E+03     37.7642E+06    -1.64402E+06    -21.9627E-03     41.8813E-03    -19.9186E-03    -251.428E-06    -21.9442E-03     41.8061E-03    -19.7520E-03    -275.921E-06
              95     6.16727E-03     113.100E-03     15.4261E+06    -601.922E+03     33.9730E+06    -1.60981E+06    -21.0131E-03     40.6171E-03    -19.6040E-03    -113.659E-06    -20.9851E-03     40.5418E-03    -19.4556E-03    -137.023E-06
              96     5.28760E-03     113.078E-03     15.9504E+06     274.719E+03     30.9389E+06    -1.53049E+06    -20.2746E-03     39.6262E-03    -19.3517E-03    -42.9294E-06    -20.2407E-03     39.5590E-03    -19.2205E-03    -64.7241E-06
              97     4.40739E-03     113.060E-03     16.7659E+06    -382.717E+03     27.6461E+06    -1.69751E+06    -19.7067E-03     38.8613E-03    -19.1546E-03    -15.5951E-06    -19.6630E-03     38.7945E-03    -19.0402E-03    -39.0988E-06
              98     3.52637E-03     113.046E-03     17.8001E+06    -85.8679E+03     24.5805E+06    -1.48910E+06    -19.2923E-03     38.3000E-03    -19.0077E-03    -21.2866E-06    -19.2393E-03     38.2376E-03    -18.9105E-03    -41.7118E-06
              99     2.64504E-03     113.035E-03     18.7555E+06    -739.043E+03     22.1532E+06    -1.09317E+06    -19.0319E-03     37.9413E-03    -18.9094E-03    -64.3558E-06    -18.9696E-03     37.8778E-03    -18.8248E-03    -79.3370E-06
             100     1.76332E-03     113.026E-03     19.2985E+06     12.5676E+03     21.1950E+06     -754.89E+03    -18.8494E-03     37.7131E-03    -18.8638E-03    -89.1469E-06    -18.7841E-03     37.6540E-03    -18.7858E-03    -99.4534E-06
             101     881.556E-06     113.022E-03     20.8440E+06    -750.422E+03     19.8646E+06    -1.12361E+06    -18.7229E-03     37.6967E-03    -18.9738E-03    -268.710E-06    -18.6467E-03     37.6336E-03    -18.9037E-03    -283.427E-06
             102     310.506E-09     112.035E-03     16.4126E+06    -2.24346E+06     17.3177E+06    -545.007E+03    -17.2131E-03     34.5491E-03    -17.3360E-03     303.880E-06    -17.1529E-03     34.4890E-03    -17.2700E-03     296.747E-06
             103    -132.022E-09     111.056E-03     11.2715E+06    -4.19893E+06     12.3171E+06    -542.452E+03    -14.6543E-03     29.1932E-03    -14.5389E-03     1.07042E-03    -14.6097E-03     29.1381E-03    -14.4875E-03     1.06319E-03
             104     171.082E-09     110.082E-03     6.58145E+06    -8.69483E+06     6.56463E+06    -1.47581E+06    -12.8261E-03     25.6030E-03    -12.7768E-03     1.23627E-03    -12.7900E-03     25.5406E-03    -12.7410E-03     1.21696E-03
             105    -122.863E-09     109.111E-03    -2.01959E+06    -13.4748E+06    -1.65278E+06    -1.59024E+06    -11.6058E-03     23.1982E-03    -11.5924E-03     1.49562E-03    -11.5939E-03     23.1363E-03    -11.5782E-03     1.47488E-03
             106     101.857E-09     108.142E-03    -14.8561E+06    -19.1259E+06    -15.0386E+06    -1.94622E+06    -10.8547E-03     21.7042E-03    -10.8495E-03     1.71716E-03    -10.8793E-03     21.6522E-03    -10.8754E-03     1.69187E-03
             107    -75.1161E-09     107.173E-03    -31.2693E+06    -26.0715E+06    -30.7600E+06    -2.32345E+06    -10.4962E-03     20.9868E-03    -10.4906E-03     1.92601E-03    -10.5700E-03     20.9466E-03    -10.5613E-03     1.89591E-03
             108     62.2506E-09     106.205E-03    -48.9087E+06    -34.5953E+06    -48.8361E+06    -2.73725E+06    -10.4518E-03     20.9078E-03    -10.4560E-03     2.07743E-03    -10.5752E-03     20.8767E-03    -10.5791E-03     2.04203E-03
             109    -58.1261E-09     105.236E-03    -66.3386E+06    -43.6552E+06    -66.4017E+06    -2.69996E+06    -10.6593E-03     21.2919E-03    -10.6326E-03     2.16869E-03    -10.8313E-03     21.2663E-03    -10.8051E-03     2.13380E-03
             110     98.6254E-09     104.268E-03    -68.9109E+06    -50.7652E+06    -69.4505E+06    -1.71886E+06    -11.0604E-03     22.0737E-03    -11.0133E-03     2.21586E-03    -11.2305E-03     22.0207E-03    -11.1870E-03     2.19364E-03
             111    -63.7963E-09     103.297E-03    -55.5163E+06    -53.0352E+06    -56.2089E+06     360.620E+03    -11.5767E-03     23.1268E-03    -11.5501E-03     2.22190E-03    -11.6958E-03     23.0238E-03    -11.6738E-03     2.22651E-03
             112     65.9371E-09     102.327E-03    -42.0211E+06    -48.7998E+06    -42.4991E+06     2.22745E+06    -12.1157E-03     24.2505E-03    -12.1348E-03     2.23616E-03    -12.1934E-03     24.1292E-03    -12.2156E-03     2.26485E-03
             113    -109.726E-09     101.355E-03    -33.5169E+06    -40.2670E+06    -33.5635E+06     3.02554E+06    -12.6708E-03     25.3552E-03    -12.6844E-03     2.21680E-03    -12.7313E-03     25.2513E-03    -12.7452E-03     2.25577E-03
             114     126.418E-09     100.382E-03    -28.5785E+06    -30.4346E+06    -28.4457E+06     2.86013E+06    -13.2045E-03     26.3803E-03    -13.1758E-03     2.19681E-03    -13.2620E-03     26.3110E-03    -13.2325E-03     2.23361E-03
             115    -92.9424E-09     99.4075E-03    -25.8067E+06    -21.7693E+06    -25.6549E+06     2.30913E+06    -13.6438E-03     27.2843E-03    -13.6405E-03     2.19789E-03    -13.7040E-03     27.2502E-03    -13.6998E-03     2.22757E-03
             116     64.6223E-09     98.4327E-03    -21.8849E+06    -15.0752E+06    -21.7538E+06     1.79959E+06    -14.0405E-03     28.0799E-03    -14.0394E-03     2.18457E-03    -14.0964E-03     28.0679E-03    -14.0946E-03     2.20763E-03
             117    -35.2602E-09     97.4570E-03    -16.9906E+06    -10.6807E+06    -16.6228E+06     926.317E+03    -14.4082E-03     28.7913E-03    -14.3832E-03     2.17273E-03    -14.4535E-03     28.7868E-03    -14.4262E-03     2.18451E-03
             118     52.1784E-09     96.4808E-03    -13.6112E+06    -9.51071E+06    -13.2556E+06    -227.166E+03    -14.7148E-03     29.4125E-03    -14.6977E-03     2.15542E-03    -14.7498E-03     29.4041E-03    -14.7305E-03     2.15229E-03
             119    -36.8812E-09     95.5038E-03    -11.5039E+06    -11.8181E+06    -11.3479E+06    -1.10169E+06    -14.9617E-03     29.9133E-03    -14.9516E-03     2.17495E-03    -14.9856E-03     29.8875E-03    -14.9745E-03     2.16049E-03
             120     39.1876E-09     94.5266E-03    -10.0084E+06    -15.8107E+06    -10.0771E+06    -1.26735E+06    -15.1457E-03     30.2963E-03    -15.1506E-03     2.20575E-03    -15.1582E-03     30.2465E-03    -15.1635E-03     2.18913E-03
             121    -53.1383E-09     93.5489E-03    -9.14528E+06    -19.4619E+06    -9.30086E+06    -979.050E+03    -15.2977E-03     30.5991E-03    -15.3013E-03     2.17779E-03    -15.3017E-03     30.5287E-03    -15.3064E-03     2.16488E-03
             122     56.7355E-09     92.5713E-03    -8.28866E+06    -22.5385E+06    -8.24884E+06    -885.770E+03    -15.4468E-03     30.8463E-03    -15.3995E-03     2.12294E-03    -15.4436E-03     30.7578E-03    -15.3961E-03     2.11123E-03
             123     21.8171E-09     91.5932E-03    -8.71084E+06    -26.1014E+06    -8.60985E+06    -1.20064E+06    -15.5327E-03     31.0257E-03    -15.4930E-03     2.10423E-03    -15.5259E-03     30.9205E-03    -15.4856E-03     2.08846E-03
             124    -30.9806E-09     90.6152E-03    -9.85291E+06    -29.8729E+06    -9.99071E+06    -1.09280E+06    -15.5682E-03     31.1492E-03    -15.5810E-03     2.08453E-03    -15.5596E-03     31.0288E-03    -15.5734E-03     2.07015E-03
             125     13.8608E-09     89.6368E-03    -11.3136E+06    -33.3956E+06    -11.1824E+06    -1.07622E+06    -15.6206E-03     31.2339E-03    -15.6133E-03     2.07954E-03    -15.6124E-03     31.0997E-03    -15.6044E-03     2.06536E-03
             126     15.5237E-09     88.6587E-03    -12.5572E+06    -37.0422E+06    -12.6125E+06    -1.21186E+06    -15.6372E-03     31.2830E-03    -15.6458E-03     2.09324E-03    -15.6280E-03     31.1345E-03    -15.6369E-03     2.07729E-03
             127    -62.7989E-09     87.6803E-03    -13.8175E+06    -40.6458E+06    -13.9294E+06    -975.022E+03    -15.6344E-03     31.3233E-03    -15.6889E-03     2.08278E-03    -15.6243E-03     31.1605E-03    -15.6796E-03     2.06990E-03
             128     10.1057E-09     86.7021E-03    -14.6819E+06    -43.8994E+06    -14.7334E+06    -869.110E+03    -15.6487E-03     31.3544E-03    -15.7057E-03     2.07798E-03    -15.6370E-03     31.1777E-03    -15.6944E-03     2.06647E-03
             129    -61.0599E-09     85.7237E-03    -15.0358E+06    -46.7859E+06    -15.0324E+06    -834.418E+03    -15.6529E-03     31.3705E-03    -15.7175E-03     2.08437E-03    -15.6384E-03     31.1803E-03    -15.7030E-03     2.07330E-03
             130    -4.46780E-09     84.7455E-03    -15.5125E+06    -49.5010E+06    -15.5065E+06    -795.568E+03    -15.6722E-03     31.3827E-03    -15.7105E-03     2.07741E-03    -15.6554E-03     31.1803E-03    -15.6938E-03     2.06684E-03
             131     66.4076E-12     83.7671E-03    -16.0938E+06    -52.0679E+06    -16.1466E+06    -732.795E+03    -15.7162E-03     31.3935E-03    -15.6773E-03     2.11421E-03    -15.6977E-03     31.1801E-03    -15.6592E-03     2.10445E-03
             132     70.6177E-09     82.7888E-03    -16.3618E+06    -54.1817E+06    -16.3783E+06    -550.250E+03    -15.7369E-03     31.3977E-03    -15.6608E-03     2.17247E-03    -15.7163E-03     31.1745E-03    -15.6404E-03     2.16505E-03
             133    -8.94074E-09     81.8105E-03    -16.3530E+06    -55.8964E+06    -16.2980E+06    -484.057E+03    -15.7224E-03     31.3883E-03    -15.6658E-03     2.16460E-03    -15.6995E-03     31.1563E-03    -15.6425E-03     2.15804E-03
             134     46.0445E-09     80.8323E-03    -16.3058E+06    -57.3445E+06    -16.4227E+06    -402.129E+03    -15.6998E-03     31.3776E-03    -15.6778E-03     2.13035E-03    -15.6743E-03     31.1386E-03    -15.6531E-03     2.12485E-03
             135    -47.6719E-09     79.8540E-03    -16.5705E+06    -58.7353E+06    -16.4535E+06    -403.258E+03    -15.6745E-03     31.3708E-03    -15.6962E-03     2.10307E-03    -15.6483E-03     31.1251E-03    -15.6693E-03     2.09756E-03
             136     10.0808E-09     78.8758E-03    -16.2197E+06    -60.1884E+06    -16.2613E+06    -549.664E+03    -15.6663E-03     31.3608E-03    -15.6946E-03     2.08219E-03    -15.6365E-03     31.1072E-03    -15.6651E-03     2.07480E-03
             137    -25.1611E-09     77.8975E-03    -15.9875E+06    -61.4604E+06    -16.1106E+06    -271.592E+03    -15.6682E-03     31.3589E-03    -15.6907E-03     2.08640E-03    -15.6356E-03     31.0984E-03    -15.6590E-03     2.08260E-03
             138    -3.03959E-09     76.9193E-03    -15.9745E+06    -62.5454E+06    -15.8626E+06    -338.164E+03    -15.6641E-03     31.3594E-03    -15.6954E-03     2.10098E-03    -15.6302E-03     31.0931E-03    -15.6608E-03     2.09631E-03
             139    -25.0125E-09     75.9410E-03    -16.0296E+06    -63.6851E+06    -16.2590E+06    -189.892E+03    -15.6605E-03     31.3490E-03    -15.6885E-03     2.12909E-03    -15.6247E-03     31.0776E-03    -15.6542E-03     2.12633E-03
             140    -1.36728E-09     74.9628E-03    -16.2309E+06    -64.3682E+06    -16.0730E+06    -138.346E+03    -15.6681E-03     31.3475E-03    -15.6794E-03     2.11404E-03    -15.6326E-03     31.0727E-03    -15.6429E-03     2.11195E-03
             141     7.40610E-09     73.9847E-03    -15.4766E+06    -65.0809E+06    -15.5751E+06    -294.361E+03    -15.6834E-03     31.3500E-03    -15.6666E-03     2.07301E-03    -15.6438E-03     31.0698E-03    -15.6277E-03     2.06890E-03
             142     13.0583E-09     73.0065E-03    -15.3470E+06    -65.7135E+06    -15.2659E+06    -116.160E+03    -15.6777E-03     31.3582E-03    -15.6805E-03     2.07975E-03    -15.6370E-03     31.0742E-03    -15.6393E-03     2.07796E-03
             143    -39.6157E-09     72.0283E-03    -15.1975E+06    -66.2445E+06    -15.2136E+06    -219.311E+03    -15.6672E-03     31.3697E-03    -15.7024E-03     2.07562E-03    -15.6250E-03     31.0827E-03    -15.6604E-03     2.07249E-03
             144     1.52127E-09     71.0500E-03    -14.9255E+06    -66.8202E+06    -15.0027E+06    -102.112E+03    -15.6839E-03     31.3646E-03    -15.6807E-03     2.09089E-03    -15.6398E-03     31.0741E-03    -15.6372E-03     2.08927E-03
             145     39.2316E-09     70.0718E-03    -14.9055E+06    -67.2275E+06    -14.8299E+06    -162.152E+03    -15.7119E-03     31.3523E-03    -15.6405E-03     2.12148E-03    -15.6674E-03     31.0595E-03    -15.5955E-03     2.11907E-03
             146     45.2778E-09     69.0937E-03    -14.7947E+06    -67.7868E+06    -14.7848E+06    -168.230E+03    -15.7110E-03     31.3489E-03    -15.6379E-03     2.12478E-03    -15.6652E-03     31.0530E-03    -15.5920E-03     2.12229E-03
             147    -2.13071E-09     68.1155E-03    -14.5325E+06      -68.11E+06    -14.5339E+06    -90.7856E+03    -15.6835E-03     31.3560E-03    -15.6725E-03     2.11719E-03    -15.6363E-03     31.0577E-03    -15.6253E-03     2.11571E-03
             148    -23.5919E-09     67.1373E-03    -14.0928E+06    -68.1170E+06    -14.2126E+06     61.3323E+03    -15.6747E-03     31.3431E-03    -15.6684E-03     2.08208E-03    -15.6257E-03     31.0437E-03    -15.6203E-03     2.08257E-03
             149     56.9954E-09     66.1592E-03    -13.8913E+06    -68.0720E+06    -13.6759E+06    -47.7170E+03    -15.7077E-03     31.3378E-03    -15.6301E-03     2.08302E-03    -15.6586E-03     31.0376E-03    -15.5796E-03     2.08210E-03
             150     47.4780E-09     65.1810E-03    -13.9404E+06    -68.3214E+06    -14.1128E+06    -66.8162E+03    -15.6916E-03     31.3443E-03    -15.6526E-03     2.10446E-03    -15.6418E-03     31.0435E-03    -15.6039E-03     2.10329E-03
             151    -86.9137E-09     64.2028E-03    -14.4533E+06    -68.3959E+06    -14.2976E+06      -36.42E+03    -15.6188E-03     31.3257E-03    -15.7069E-03     2.10427E-03    -15.5711E-03     31.0256E-03    -15.6582E-03     2.10349E-03
             152    -30.0557E-09     63.2246E-03    -14.0490E+06    -68.6139E+06    -14.2294E+06    -108.384E+03    -15.5849E-03     31.3142E-03    -15.7293E-03     2.15979E-03    -15.5350E-03     31.0123E-03    -15.6806E-03     2.15807E-03
             153    -113.161E-09     62.2464E-03    -13.9581E+06    -68.7866E+06    -14.0211E+06     139.355E+03    -15.6143E-03     31.3059E-03    -15.6915E-03     2.14151E-03    -15.5640E-03     31.0027E-03    -15.6417E-03     2.14299E-03
             154     116.659E-09     61.2684E-03    -13.9524E+06    -68.7253E+06    -13.9137E+06     79.2270E+03    -15.6718E-03     31.3011E-03    -15.6293E-03     2.12675E-03    -15.6217E-03     30.9981E-03    -15.5790E-03     2.12747E-03
             155    -46.4195E-09     60.2902E-03    -13.7969E+06    -68.6548E+06    -13.7921E+06     7.80736E+03    -15.6520E-03     31.2854E-03    -15.6335E-03     2.05851E-03    -15.6013E-03     30.9823E-03    -15.5829E-03     2.05832E-03
             156     6.99123E-09     59.3123E-03    -13.8445E+06    -68.6870E+06    -13.7903E+06    -83.5456E+03    -15.6155E-03     31.2668E-03    -15.6513E-03     1.96730E-03    -15.5651E-03     30.9636E-03    -15.6006E-03     1.96595E-03
             157    -32.3012E-09     58.3341E-03    -13.9151E+06    -68.7635E+06    -13.9918E+06    -55.1520E+03    -15.6377E-03     31.2882E-03    -15.6505E-03     1.98716E-03    -15.5873E-03     30.9850E-03    -15.6005E-03     1.98617E-03
             158     32.2753E-09     57.3560E-03    -13.9767E+06    -68.7724E+06    -13.9835E+06     19.2531E+03    -15.6373E-03     31.2777E-03    -15.6404E-03     2.06476E-03    -15.5871E-03     30.9745E-03    -15.5903E-03     2.06471E-03
             159     6.77736E-09     55.4000E-03    -13.7464E+06    -68.7336E+06    -13.5879E+06    -14.0691E+03    -15.6062E-03     31.2345E-03    -15.6283E-03     2.03104E-03    -15.5555E-03     30.9306E-03    -15.5766E-03     2.03057E-03
             160    -12.9196E-09     54.4216E-03    -13.3869E+06    -68.5371E+06    -13.5660E+06     19.4561E+03    -15.5978E-03     31.2073E-03    -15.6096E-03     2.03340E-03    -15.5456E-03     30.9039E-03    -15.5586E-03     2.03336E-03
             161    -5.87540E-09     53.4438E-03    -13.4418E+06    -68.3968E+06    -13.3646E+06     4.11584E+03    -15.5712E-03     31.1728E-03    -15.6017E-03     2.06572E-03    -15.5198E-03     30.8699E-03    -15.5498E-03     2.06547E-03
             162    -30.5121E-09     52.4656E-03    -13.1216E+06    -68.6127E+06    -13.1791E+06    -57.7864E+03    -15.5499E-03     31.1384E-03    -15.5885E-03     2.03102E-03    -15.4968E-03     30.8336E-03    -15.5359E-03     2.02998E-03
             163    -4.23627E-09     51.4880E-03    -13.7018E+06    -68.6577E+06    -13.6433E+06     97.8564E+03    -15.5452E-03     31.1196E-03    -15.5744E-03     2.01442E-03    -15.4943E-03     30.8161E-03    -15.5232E-03     2.01539E-03
             164    -14.0185E-09     50.5097E-03    -14.1105E+06    -68.5631E+06    -14.0359E+06    -100.859E+03    -15.5459E-03     31.1100E-03    -15.5641E-03     2.01970E-03    -15.4966E-03     30.8082E-03    -15.5144E-03     2.01812E-03
             165    -1.19688E-09     49.5320E-03    -13.5481E+06    -68.7018E+06    -13.7811E+06    -40.3546E+03    -15.5473E-03     31.0557E-03    -15.5083E-03     1.98832E-03    -15.4954E-03     30.7520E-03    -15.4580E-03     1.98753E-03
             166     80.9408E-09     48.5540E-03    -13.5102E+06    -68.5712E+06    -13.3753E+06     109.940E+03    -15.5465E-03     31.0105E-03    -15.4639E-03     2.05347E-03    -15.4952E-03     30.7068E-03    -15.4118E-03     2.05459E-03
             167    -14.7617E-09     47.5762E-03    -13.1373E+06    -68.1406E+06    -13.2796E+06     119.301E+03    -15.4768E-03     30.9598E-03    -15.4829E-03     2.11599E-03    -15.4244E-03     30.6575E-03    -15.4315E-03     2.11720E-03
             168    -65.9540E-09     46.5983E-03    -13.1098E+06    -67.8349E+06    -13.0174E+06     137.427E+03    -15.4159E-03     30.8903E-03    -15.4744E-03     2.08242E-03    -15.3642E-03     30.5892E-03    -15.4221E-03     2.08389E-03
             169     42.0269E-09     45.6208E-03    -13.1411E+06    -67.8616E+06    -13.1713E+06    -90.7355E+03    -15.4088E-03     30.8099E-03    -15.4011E-03     2.01241E-03    -15.3570E-03     30.5089E-03    -15.3495E-03     2.01095E-03
             170    -6.70713E-09     44.6431E-03    -13.5471E+06    -68.0233E+06    -13.5275E+06    -54.1532E+03    -15.3744E-03     30.7174E-03    -15.3430E-03     1.99907E-03    -15.3238E-03     30.4167E-03    -15.2924E-03     1.99809E-03
             171     25.3209E-09     43.6658E-03    -13.7630E+06    -68.2084E+06    -13.7851E+06    -74.4701E+03    -15.3062E-03     30.6173E-03    -15.3112E-03     1.97251E-03    -15.2560E-03     30.3164E-03    -15.2612E-03     1.97126E-03
             172    -54.9575E-09     42.6881E-03    -13.5998E+06    -68.2758E+06    -13.7443E+06     51.4153E+03    -15.2265E-03     30.4726E-03    -15.2461E-03     1.93512E-03    -15.1756E-03     30.1711E-03    -15.1961E-03     1.93550E-03
             173     46.5078E-09     41.7112E-03    -13.7008E+06    -68.1527E+06    -13.6302E+06     84.7124E+03    -15.1579E-03     30.3383E-03    -15.1804E-03     1.90532E-03    -15.1077E-03     30.0374E-03    -15.1299E-03     1.90614E-03
             174    -78.9700E-09     40.7338E-03    -13.4061E+06    -67.8934E+06    -13.4593E+06     130.467E+03    -15.1124E-03     30.1997E-03    -15.0874E-03     1.84726E-03    -15.0614E-03     29.8994E-03    -15.0368E-03     1.84869E-03
             175     153.452E-09     39.7570E-03    -13.0387E+06    -67.3494E+06    -12.9104E+06     127.480E+03    -15.0394E-03     30.0287E-03    -14.9893E-03     1.85518E-03    -14.9881E-03     29.7298E-03    -14.9373E-03     1.85656E-03
             176    -139.483E-09     38.7801E-03    -14.5257E+06    -67.0777E+06    -14.5548E+06    -24.2564E+03    -14.9185E-03     29.8382E-03    -14.9197E-03     1.83409E-03    -14.8726E-03     29.5451E-03    -14.8742E-03     1.83352E-03
             177     121.284E-09     37.8036E-03    -13.9205E+06    -66.8638E+06    -14.0974E+06     233.349E+03    -14.8191E-03     29.6365E-03    -14.8174E-03     1.84812E-03    -14.7712E-03     29.3430E-03    -14.7707E-03     1.85087E-03
             178    -103.796E-09     36.8270E-03    -13.3883E+06    -65.5773E+06    -13.3949E+06     573.781E+03    -14.6957E-03     29.4046E-03    -14.7089E-03     1.83963E-03    -14.6481E-03     29.1157E-03    -14.6613E-03     1.84678E-03
             179     61.2118E-09     35.8511E-03    -14.4445E+06    -64.0731E+06    -14.3233E+06     359.304E+03    -14.5606E-03     29.1402E-03    -14.5796E-03     1.74612E-03    -14.5191E-03     28.8617E-03    -14.5373E-03     1.75052E-03
             180    -52.3701E-09     34.8750E-03    -13.5180E+06    -63.4320E+06    -13.4823E+06     118.764E+03    -14.4353E-03     28.8512E-03    -14.4159E-03     1.72955E-03    -14.3913E-03     28.5734E-03    -14.3717E-03     1.73084E-03
             181     76.8656E-09     33.8995E-03    -13.6046E+06    -63.3411E+06    -13.4622E+06    -143.371E+03    -14.2925E-03     28.5354E-03    -14.2429E-03     1.74412E-03    -14.2491E-03     28.2582E-03    -14.1987E-03     1.74203E-03
             182    -13.2152E-09     32.9241E-03    -13.9518E+06    -63.9765E+06    -14.0393E+06    -177.404E+03    -14.1262E-03     28.1964E-03    -14.0702E-03     1.69984E-03    -14.0828E-03     27.9173E-03    -14.0274E-03     1.69732E-03
             183     46.5976E-09     31.9493E-03    -13.8216E+06    -64.0362E+06    -13.8546E+06     176.319E+03    -13.9167E-03     27.8317E-03    -13.9150E-03     1.64855E-03    -13.8728E-03     27.5518E-03    -13.8713E-03     1.65060E-03
             184    -78.5758E-09     30.9747E-03    -13.7269E+06    -63.5579E+06    -13.6969E+06     209.286E+03    -13.7195E-03     27.4333E-03    -13.7138E-03     1.63781E-03    -13.6760E-03     27.1555E-03    -13.6702E-03     1.64028E-03
             185     119.730E-09     30.0005E-03    -13.6546E+06    -63.1056E+06    -13.5455E+06     54.6631E+03    -13.5213E-03     26.9810E-03    -13.4598E-03     1.64439E-03    -13.4783E-03     26.7051E-03    -13.4162E-03     1.64487E-03
             186    -51.7877E-09     29.0269E-03    -13.2972E+06    -62.7303E+06    -13.3925E+06     143.484E+03    -13.2666E-03     26.4977E-03    -13.2310E-03     1.58581E-03    -13.2227E-03     26.2229E-03    -13.1877E-03     1.58744E-03
             187     44.7490E-09     28.0536E-03    -13.0565E+06    -62.2545E+06    -13.0294E+06     203.477E+03    -12.9978E-03     26.0004E-03    -13.0027E-03     1.50190E-03    -12.9538E-03     25.7272E-03    -12.9586E-03     1.50433E-03
             188    -47.3138E-09     27.0810E-03    -12.7024E+06    -61.9438E+06    -12.7568E+06     47.3005E+03    -12.7307E-03     25.4776E-03    -12.7469E-03     1.44940E-03    -12.6858E-03     25.2050E-03    -12.7024E-03     1.44982E-03
             189     19.4753E-09     26.1087E-03    -12.5053E+06    -61.5563E+06    -12.5157E+06     187.294E+03    -12.4613E-03     24.9199E-03    -12.4586E-03     1.39628E-03    -12.4163E-03     24.6486E-03    -12.4138E-03     1.39852E-03
             190     11.9884E-09     25.1372E-03    -12.1024E+06    -60.8222E+06    -12.1149E+06     341.908E+03    -12.1926E-03     24.3477E-03    -12.1550E-03     1.35831E-03    -12.1473E-03     24.0788E-03    -12.1098E-03     1.36256E-03
             191     22.3328E-09     24.1659E-03    -11.4854E+06    -59.6114E+06    -11.4791E+06     469.911E+03    -11.9093E-03     23.7701E-03    -11.8608E-03     1.26440E-03    -11.8635E-03     23.5055E-03    -11.8151E-03     1.27031E-03
             192     28.8005E-09     23.1957E-03    -11.0823E+06    -58.4501E+06    -11.0546E+06     349.603E+03    -11.6101E-03     23.1849E-03    -11.5747E-03     1.11456E-03    -11.5647E-03     22.9249E-03    -11.5292E-03     1.11893E-03
             193    -17.3727E-09     22.2256E-03    -10.4858E+06    -57.2421E+06    -10.5172E+06     365.619E+03    -11.3205E-03     22.6369E-03    -11.3164E-03     1.07960E-03    -11.2746E-03     22.3814E-03    -11.2708E-03     1.08417E-03
             194     12.0880E-09     21.2561E-03    -9.81086E+06    -55.7666E+06    -9.89253E+06     440.697E+03    -11.0449E-03     22.0931E-03    -11.0483E-03     1.09975E-03    -10.9986E-03     21.8431E-03    -11.0026E-03     1.10530E-03
             195    -14.5550E-09     20.2872E-03    -8.98862E+06    -54.0504E+06    -9.05372E+06     525.395E+03    -10.8069E-03     21.5555E-03    -10.7486E-03     1.02355E-03    -10.7602E-03     21.3116E-03    -10.7024E-03     1.03020E-03
             196     119.560E-09     19.3189E-03    -7.95768E+06    -52.2516E+06    -7.86349E+06     510.177E+03    -10.5748E-03     21.0973E-03    -10.5224E-03     915.442E-06    -10.5273E-03     20.8591E-03    -10.4744E-03     921.907E-06
             197    -130.800E-09     18.3509E-03    -6.03208E+06    -50.3003E+06    -6.22445E+06     733.517E+03    -10.3347E-03     20.6971E-03    -10.3624E-03     842.083E-06    -10.2827E-03     20.4636E-03    -10.3119E-03     851.449E-06
             198     89.8093E-09     17.3831E-03    -4.05574E+06    -48.6344E+06    -3.71882E+06     298.360E+03    -10.1620E-03     20.3057E-03    -10.1436E-03     761.071E-06    -10.1062E-03     20.0739E-03    -10.0858E-03     764.824E-06
             199    -12.7782E-09     16.4160E-03    -1.77602E+06    -48.3017E+06    -1.90165E+06    -147.005E+03    -9.96622E-03     19.8831E-03    -9.91688E-03     704.387E-06    -9.90212E-03     19.6471E-03    -9.85377E-03     702.395E-06
             200     21.6908E-09     15.4490E-03     257.781E+03    -47.9800E+06     173.829E+03     229.536E+03    -9.71058E-03     19.3610E-03    -9.65044E-03     675.391E-06    -9.63979E-03     19.1207E-03    -9.58038E-03     678.261E-06
             201     75.1735E-09     14.4827E-03     242.161E+03    -47.5899E+06     340.613E+03     143.189E+03    -9.39831E-03     18.6787E-03    -9.28042E-03     588.113E-06    -9.32842E-03     18.4401E-03    -9.21007E-03     589.880E-06
             202     38.9380E-09     13.5174E-03    -1.66026E+06    -47.2755E+06    -1.79183E+06     80.2402E+03    -8.96531E-03     17.8499E-03    -8.88462E-03     368.955E-06    -8.90232E-03     17.6187E-03    -8.82262E-03     369.930E-06
             203    -10.8798E-09     12.5526E-03    -3.93354E+06    -46.8134E+06    -3.93067E+06     156.154E+03    -8.43378E-03     16.8247E-03    -8.39093E-03     197.498E-06    -8.37974E-03     16.6022E-03    -8.33700E-03     199.465E-06
             204     59.2131E-09     11.5891E-03    -6.58090E+06    -46.6237E+06    -6.63967E+06    -84.7352E+03    -7.81059E-03     15.5707E-03    -7.76008E-03     83.0199E-06    -7.76613E-03     15.3569E-03    -7.71614E-03     81.8710E-06
             205    -18.0966E-09     10.6269E-03    -9.87921E+06    -46.9526E+06    -9.85310E+06    -118.466E+03    -7.17956E-03     14.2815E-03    -7.10194E-03     9.77851E-06    -7.14646E-03     14.0755E-03    -7.06880E-03     8.18447E-06
             206     115.934E-09     9.66575E-03    -12.2287E+06    -47.1552E+06    -12.0358E+06    -96.8704E+03    -6.75333E-03     13.3777E-03    -6.62441E-03     133.389E-06    -6.72850E-03     13.1774E-03    -6.59848E-03     132.071E-06
             207     18.7394E-09     8.70530E-03    -13.1573E+06    -47.6794E+06    -12.8479E+06    -200.537E+03    -6.62839E-03     13.1914E-03    -6.56305E-03     313.240E-06    -6.60626E-03     12.9910E-03    -6.53907E-03     310.582E-06
             208    -33.2897E-09     7.74453E-03    -12.3400E+06    -48.5206E+06    -12.2273E+06    -369.729E+03    -6.94128E-03     13.8917E-03    -6.95044E-03     476.396E-06    -6.91476E-03     13.6850E-03    -6.92333E-03     471.562E-06
             209     32.5470E-09     6.78276E-03    -9.70535E+06    -49.2594E+06    -9.74712E+06    -526.168E+03    -7.70708E-03     15.4236E-03    -7.71654E-03     625.630E-06    -7.66992E-03     15.2057E-03    -7.67978E-03     618.786E-06
             210    -49.2705E-09     5.81895E-03    -7.01099E+06    -50.8693E+06    -6.91544E+06    -409.806E+03    -8.71655E-03     17.4035E-03    -8.68692E-03     728.788E-06    -8.66769E-03     17.1695E-03    -8.63757E-03     723.451E-06
             211     119.809E-09     4.85320E-03    -4.46150E+06    -53.0269E+06    -4.45826E+06    -551.511E+03    -9.74458E-03     19.4786E-03    -9.73399E-03     815.932E-06    -9.68338E-03     19.2266E-03    -9.67293E-03     808.774E-06
             212    -171.551E-09     3.88561E-03    -1.68679E+06    -54.7482E+06    -1.75641E+06    -564.478E+03    -10.6992E-03     21.4820E-03    -10.7828E-03     740.366E-06    -10.6255E-03     21.2135E-03    -10.7097E-03     733.044E-06
             213     73.4827E-09     2.91602E-03    -1.55548E+06    -56.0548E+06    -2.03550E+06    -214.369E+03    -11.6189E-03     23.2600E-03    -11.6411E-03     563.516E-06    -11.5422E-03     22.9851E-03    -11.5677E-03     560.687E-06
             214    -20.8316E-09     1.94503E-03    -5.13737E+06    -56.9378E+06    -5.19518E+06    -133.030E+03    -12.3133E-03     24.6266E-03    -12.3133E-03     417.075E-06    -12.2485E-03     24.3572E-03    -12.2493E-03     415.303E-06
             215    -33.0454E-09     972.723E-06    -5.73405E+06    -57.8392E+06    -5.37210E+06    -469.072E+03    -12.7609E-03     25.4963E-03    -12.7354E-03     207.084E-06    -12.6974E-03     25.2235E-03    -12.6701E-03     201.083E-06
             216     888.465E-06     48.5723E-18    -4.86850E+06    -58.5199E+06    -5.58868E+06    -61.7470E+03    -12.9562E-03     25.8321E-03    -12.8760E-03     175.026E-06    -12.8872E-03     25.5548E-03    -12.8120E-03     174.290E-06
             217     1.77685E-03     48.5723E-18     -5.8218E+06    -59.0985E+06    -7.80108E+06    -75.5228E+03    -12.9898E-03     25.9091E-03    -12.9192E-03     343.130E-06    -12.9219E-03     25.6333E-03    -12.8641E-03     342.136E-06
             218     2.66525E-03     48.5723E-18    -6.27867E+06    -60.0759E+06    -9.42757E+06    -422.003E+03    -13.0947E-03     26.0433E-03    -12.9486E-03     549.781E-06    -13.0253E-03     25.7656E-03    -12.8995E-03     544.300E-06
             219     3.55335E-03     48.5723E-18    -6.43863E+06    -61.3170E+06    -11.9025E+06    -678.130E+03    -13.2434E-03     26.2302E-03    -12.9869E-03     762.188E-06    -13.1694E-03     25.9502E-03    -12.9481E-03     753.392E-06
             220     4.44154E-03     48.5723E-18    -6.12161E+06    -62.2167E+06    -15.1471E+06    -1.32612E+06    -13.4320E-03     26.4652E-03    -13.0332E-03     959.266E-06    -13.3505E-03     26.1850E-03    -13.0098E-03     942.086E-06
             221     5.32935E-03     48.5723E-18    -5.53787E+06    -63.8883E+06    -17.3965E+06    -1.34433E+06    -13.6709E-03     26.7698E-03    -13.0989E-03     1.18822E-03    -13.5807E-03     26.4836E-03    -13.0852E-03     1.17079E-03
             222     6.21703E-03     48.5723E-18    -4.71390E+06    -66.7218E+06    -20.4123E+06    -1.88004E+06    -13.9582E-03     27.1348E-03    -13.1766E-03     1.44655E-03    -13.8554E-03     26.8376E-03    -13.1751E-03     1.42217E-03
             223     7.10439E-03     48.5723E-18    -3.09909E+06    -68.4485E+06    -25.3275E+06    -2.60055E+06    -14.2910E-03     27.5475E-03    -13.2565E-03     1.74034E-03    -14.1705E-03     27.2465E-03    -13.2794E-03     1.70664E-03
             224     7.99141E-03     48.5723E-18    -666.483E+03    -69.6796E+06    -30.5423E+06    -3.42205E+06    -14.6747E-03     28.0221E-03    -13.3474E-03     2.10036E-03    -14.5327E-03     27.7190E-03    -13.3981E-03     2.05600E-03
             225     8.87812E-03     48.5723E-18     1.99195E+06    -69.3258E+06    -35.5859E+06    -3.40691E+06    -15.1323E-03     28.5850E-03    -13.4527E-03     2.44986E-03    -14.9703E-03     28.2871E-03    -13.5330E-03     2.40564E-03
             226     9.76443E-03     48.5723E-18     4.92044E+06    -65.6005E+06      -39.63E+06    -3.96945E+06    -15.6732E-03     29.2501E-03    -13.5769E-03     3.00434E-03    -15.4961E-03     28.9724E-03    -13.6870E-03     2.95281E-03
             227     10.6498E-03     48.5723E-18     8.52114E+06    -56.3728E+06    -42.0120E+06    -4.63566E+06    -16.2558E-03     29.9764E-03    -13.7206E-03     3.52980E-03    -16.0706E-03     29.7431E-03    -13.8612E-03     3.46953E-03
             228     11.5355E-03     48.5723E-18     12.2208E+06    -41.3562E+06    -40.9013E+06    -3.91667E+06    -16.9942E-03     30.8910E-03    -13.8969E-03     4.11800E-03    -16.8138E-03     30.7259E-03    -14.0591E-03     4.06676E-03
             229     12.4193E-03     48.5723E-18     15.5794E+06    -18.0413E+06    -32.4967E+06    -3.96494E+06    -17.9600E-03     32.0916E-03    -14.1316E-03     4.87335E-03    -17.8089E-03     32.0260E-03    -14.2905E-03     4.82138E-03
             230     13.3031E-03     48.5723E-18     17.3777E+06     17.0795E+06    -16.7366E+06    -1.28258E+06    -19.2111E-03     33.6452E-03    -14.4340E-03     5.99807E-03    -19.1248E-03     33.7297E-03    -14.5677E-03     5.98031E-03
             231     14.1842E-03     48.5723E-18     13.7726E+06     43.4294E+06     1.95343E+06     4.47643E+06    -21.8748E-03     36.7372E-03    -14.8623E-03     11.2275E-03    -21.8722E-03     36.9317E-03    -14.9355E-03     11.2829E-03
             232     15.0578E-03     48.5723E-18     10.4850E+06     54.9627E+06     25.0762E+06    -2.68381E+06    -24.6997E-03     40.1558E-03    -15.4561E-03     12.5897E-03    -24.7637E-03     40.3796E-03    -15.4256E-03     12.5511E-03
             233     15.9421E-03     48.5723E-18     11.5305E+06     71.6925E+06     54.6956E+06    -3.17873E+06    -28.8845E-03     45.0943E-03    -16.2097E-03     15.4128E-03    -29.0145E-03     45.3613E-03    -16.0569E-03     15.3477E-03
             234     16.8041E-03     48.5723E-18     4.94221E+06     89.4763E+06     69.6006E+06     9.03856E+06    -46.2295E-03     63.6096E-03    -17.3800E-03     42.3575E-03    -46.5283E-03     64.0426E-03    -17.1689E-03     42.2430E-03
             235     17.6871E-03     1.04925E-03     1.09728E+06     104.587E+06     66.0098E+06     9.23340E+06    -52.2840E-03     69.5744E-03    -17.2904E-03     76.7469E-03    -52.8163E-03     70.2937E-03    -17.1136E-03     76.5286E-03
             236     17.7074E-03     2.07697E-03     437.628E+03     118.490E+06     71.1075E+06     5.12378E+06    -51.8013E-03     67.8267E-03    -16.0254E-03     103.670E-03    -52.6499E-03     68.8974E-03    -15.8423E-03     103.364E-03
             237     17.7072E-03     3.11423E-03    -2.09460E+06     131.324E+06     84.1017E+06     5.73562E+06    -63.7642E-03     79.2322E-03    -15.4679E-03     128.622E-03    -65.1331E-03     80.8238E-03    -15.2348E-03     128.087E-03
             238     17.7109E-03     4.16218E-03    -903.607E+03     142.878E+06     90.4741E+06     4.49697E+06    -65.9847E-03     81.3244E-03    -15.3397E-03     157.579E-03    -68.1107E-03     83.6979E-03    -15.0932E-03     157.082E-03
             239     17.7125E-03     5.19283E-03    -2.80120E+06     148.646E+06     92.5036E+06     1.05718E+06    -62.1080E-03     77.4721E-03    -15.3641E-03     181.301E-03    -64.9661E-03     80.5822E-03    -15.1131E-03     181.196E-03
             240     17.7132E-03     6.21473E-03    -3.76936E+06     152.522E+06      93.608E+06     1.01767E+06    -56.6924E-03     72.1330E-03    -15.4406E-03     191.253E-03    -60.0284E-03     75.7264E-03    -15.1883E-03     191.774E-03
             241     17.7151E-03     7.22338E-03    -1.98270E+06     154.856E+06     93.3260E+06     889.477E+03    -50.7774E-03     66.2909E-03    -15.5136E-03     199.920E-03    -54.4975E-03     70.2837E-03    -15.2686E-03     201.088E-03
             242     17.7161E-03     8.23351E-03    -3.08089E+06     155.092E+06     93.3867E+06     252.378E+03    -48.9895E-03     64.5285E-03    -15.5390E-03     209.958E-03    -53.1518E-03     68.9609E-03    -15.2925E-03     211.555E-03
             243     17.7149E-03     9.24248E-03    -2.68526E+06     157.799E+06     93.6432E+06     1.15308E+06    -47.0537E-03     62.6331E-03    -15.5794E-03     216.914E-03    -51.6074E-03     67.4664E-03    -15.3361E-03     218.968E-03
             244     17.7174E-03     10.2401E-03    -1.54051E+06     160.629E+06     92.6772E+06     1.71113E+06    -43.7160E-03     59.3299E-03    -15.6139E-03     224.404E-03    -48.6284E-03     64.5389E-03    -15.3812E-03     226.975E-03
             245     17.7172E-03     11.2447E-03    -2.10177E+06     161.732E+06     92.0361E+06     652.693E+03    -42.9016E-03     58.5010E-03    -15.5994E-03     233.070E-03    -48.1992E-03     64.0991E-03    -15.3707E-03     235.950E-03
             246     17.7185E-03     12.2408E-03    -2.33308E+06     162.556E+06     92.1333E+06     136.534E+03    -42.3610E-03     57.9478E-03    -15.5868E-03     236.910E-03    -47.9474E-03     63.8358E-03    -15.3585E-03     240.094E-03
             247     17.7183E-03     13.2361E-03    -2.93739E+06     162.944E+06     91.7628E+06     399.015E+03    -41.2983E-03     56.8886E-03    -15.5903E-03     241.095E-03    -47.1774E-03     63.0701E-03    -15.3634E-03     244.630E-03
             248     17.7193E-03     14.2361E-03    -2.37790E+06     164.217E+06     92.1288E+06     966.763E+03    -40.4913E-03     56.0854E-03    -15.5941E-03     247.331E-03    -46.6827E-03     62.5844E-03    -15.3681E-03     251.160E-03
             249     17.7194E-03     15.2263E-03    -1.95322E+06     165.320E+06     93.5026E+06     375.911E+03    -39.6280E-03     55.2265E-03    -15.5986E-03     248.939E-03    -45.9721E-03     61.8793E-03    -15.3679E-03     253.005E-03
             250     17.7198E-03     16.2175E-03    -2.28227E+06     165.174E+06     93.6205E+06    -38.0503E+03    -39.2564E-03     54.8439E-03    -15.5875E-03     248.058E-03    -45.6768E-03     61.5711E-03    -15.3556E-03     252.288E-03
             251     17.7201E-03     17.2099E-03    -3.28589E+06     164.846E+06     93.6696E+06    -148.285E+03    -39.6725E-03     55.2398E-03    -15.5673E-03     248.812E-03    -46.2246E-03     62.0938E-03    -15.3332E-03     253.166E-03
             252     17.7200E-03     18.2031E-03    -2.73852E+06     165.856E+06     93.8460E+06     759.898E+03    -39.1750E-03     54.7435E-03    -15.5685E-03     250.465E-03    -45.8931E-03     61.7687E-03    -15.3358E-03     255.052E-03
             253     17.7208E-03     19.1965E-03    -2.12033E+06     167.172E+06     93.2567E+06     987.822E+03    -37.2655E-03     52.8659E-03    -15.6004E-03     256.308E-03    -44.3075E-03     60.2237E-03    -15.3734E-03     261.297E-03
             254     17.7209E-03     20.1880E-03    -2.37507E+06     167.960E+06     93.1985E+06     181.528E+03    -36.0491E-03     51.6739E-03    -15.6247E-03     261.919E-03    -43.3975E-03     59.3398E-03    -15.3989E-03     267.225E-03
             255     17.7212E-03     21.1733E-03    -2.56928E+06     168.231E+06     93.7328E+06     247.747E+03    -35.7603E-03     51.3892E-03    -15.6290E-03     262.736E-03    -43.2130E-03     59.1583E-03    -15.4005E-03     268.189E-03
             256     17.7210E-03     22.1615E-03    -2.40511E+06     168.796E+06     94.1461E+06     238.779E+03    -35.2179E-03     50.8514E-03    -15.6336E-03     261.905E-03    -42.7063E-03     58.6575E-03    -15.4041E-03     267.503E-03
             257     17.7215E-03     23.1464E-03    -2.38386E+06     169.258E+06     94.2746E+06     218.678E+03    -34.4049E-03     50.0504E-03    -15.6455E-03     261.919E-03    -41.9437E-03     57.9082E-03    -15.4161E-03     267.687E-03
             258     17.7211E-03     24.1336E-03    -2.38489E+06     169.488E+06     94.3288E+06     229.222E+03    -33.9626E-03     49.6163E-03    -15.6537E-03     263.345E-03    -41.6111E-03     57.5845E-03    -15.4244E-03     269.262E-03
             259     17.7217E-03     25.1194E-03    -2.18167E+06     170.215E+06     94.5600E+06     406.417E+03    -33.2402E-03     48.9054E-03    -15.6652E-03     264.562E-03    -40.9884E-03     56.9759E-03    -15.4360E-03     270.656E-03
             260     17.7215E-03     26.1034E-03    -2.41210E+06     170.809E+06     94.7512E+06     223.786E+03    -32.4430E-03     48.1234E-03    -15.6804E-03     265.490E-03    -40.2713E-03     56.2748E-03    -15.4509E-03     271.743E-03
             261     17.7218E-03     27.0876E-03    -2.47385E+06     171.254E+06     94.8757E+06     244.937E+03    -31.9209E-03     47.6103E-03    -15.6894E-03     265.988E-03    -39.8168E-03     55.8302E-03    -15.4597E-03     272.372E-03
             262     17.7218E-03     28.0702E-03    -2.41099E+06     171.545E+06     94.9386E+06     279.095E+03    -31.3609E-03     47.0587E-03    -15.6978E-03     266.297E-03    -39.3060E-03     55.3289E-03    -15.4683E-03     272.809E-03
             263     17.7220E-03     29.0535E-03    -2.58898E+06     171.868E+06     95.0873E+06     109.210E+03    -31.0602E-03     46.7663E-03    -15.7061E-03     267.220E-03    -39.0811E-03     55.1124E-03    -15.4761E-03     273.824E-03
             264     17.7217E-03     30.0364E-03    -2.34124E+06     172.383E+06     95.0020E+06     167.550E+03    -30.6172E-03     46.3297E-03    -15.7125E-03     267.843E-03    -38.6960E-03     54.7366E-03    -15.4841E-03     274.552E-03
             265     17.7223E-03     31.0172E-03    -2.42237E+06     172.435E+06     94.8927E+06     105.527E+03    -30.0943E-03     45.8140E-03    -15.7197E-03     268.398E-03    -38.2103E-03     54.2584E-03    -15.4918E-03     275.205E-03
             266     17.7218E-03     32.0002E-03    -2.51554E+06     172.519E+06     95.3989E+06     25.5255E+03    -29.8204E-03     45.5522E-03    -15.7318E-03     269.154E-03    -37.9942E-03     54.0529E-03    -15.5013E-03     276.038E-03
             267     17.7221E-03     32.9801E-03    -2.18127E+06     173.013E+06     95.8264E+06     228.433E+03    -29.5293E-03     45.2676E-03    -15.7383E-03     268.885E-03    -37.7234E-03     53.7902E-03    -15.5069E-03     275.847E-03
             268     17.7220E-03     33.9603E-03    -2.54523E+06     173.200E+06     95.7493E+06     193.641E+03    -29.2186E-03     44.9579E-03    -15.7393E-03     268.447E-03    -37.4105E-03     53.4779E-03    -15.5080E-03     275.463E-03
             269     17.7223E-03     34.9424E-03    -2.49250E+06     173.523E+06     95.8795E+06     161.448E+03    -28.7086E-03     44.4599E-03    -15.7512E-03     269.079E-03    -36.9386E-03     53.0189E-03    -15.5198E-03     276.161E-03
             270     17.7221E-03     35.9208E-03    -2.43826E+06     173.597E+06     96.1205E+06    -117.033E+03    -28.5143E-03     44.2727E-03    -15.7585E-03     269.685E-03    -36.7947E-03     52.8820E-03    -15.5260E-03     276.829E-03
             271     17.7222E-03     36.9021E-03    -2.88917E+06     173.531E+06     95.9606E+06    -131.297E+03    -28.4954E-03     44.2550E-03    -15.7597E-03     269.690E-03    -36.8078E-03     52.8950E-03    -15.5273E-03     276.886E-03
             272     17.7220E-03     37.8814E-03    -2.92003E+06     173.535E+06     96.0530E+06     156.637E+03    -28.1234E-03     43.8963E-03    -15.7730E-03     269.866E-03    -36.4417E-03     52.5418E-03    -15.5401E-03     277.106E-03
             273     17.7221E-03     38.8606E-03    -2.75150E+06     173.748E+06     96.6472E+06     175.296E+03    -28.3549E-03     44.1273E-03    -15.7724E-03     269.798E-03    -36.6697E-03     52.7689E-03    -15.5372E-03     277.022E-03
             274     17.7220E-03     39.8402E-03    -2.25678E+06     174.339E+06     96.4930E+06     316.118E+03    -28.0936E-03     43.8621E-03    -15.7684E-03     268.796E-03    -36.3794E-03     52.4789E-03    -15.5355E-03     276.054E-03
             275     17.7225E-03     40.8200E-03    -2.24158E+06     174.621E+06     95.9665E+06     19.0267E+03    -27.2629E-03     43.0452E-03    -15.7823E-03     270.197E-03    -35.6116E-03     51.7276E-03    -15.5524E-03     277.562E-03
             276     17.7221E-03     41.7993E-03    -2.50794E+06     174.633E+06     96.4602E+06    -33.6947E+03    -27.5246E-03     43.3098E-03    -15.7852E-03     271.895E-03    -35.9509E-03     52.0674E-03    -15.5525E-03     279.267E-03
             277     17.7222E-03     42.7782E-03    -2.05480E+06     175.084E+06     96.1155E+06     276.658E+03    -27.6284E-03     43.4038E-03    -15.7755E-03     271.299E-03    -36.0295E-03     52.1405E-03    -15.5458E-03     278.666E-03
             278     17.7226E-03     43.7561E-03    -2.30315E+06     175.349E+06     98.5453E+06     166.929E+03    -27.6551E-03     43.4629E-03    -15.8078E-03     269.937E-03    -36.0208E-03     52.1571E-03    -15.5660E-03     277.295E-03
             279     17.7200E-03     44.7359E-03    -3.16431E+06     174.908E+06     95.6939E+06     859.286E+03    -27.7193E-03     43.5275E-03    -15.8082E-03     268.014E-03    -36.0811E-03     52.2215E-03    -15.5788E-03     275.397E-03
             280     17.7233E-03     45.7101E-03     475.365E+03     177.476E+06     89.3740E+06     1.08308E+06    -24.9869E-03     40.7559E-03    -15.7690E-03     267.892E-03    -33.2207E-03     49.3621E-03    -15.5802E-03     275.341E-03
             281     17.7241E-03     46.6936E-03    -1.33153E+06     176.780E+06     93.4234E+06    -3.08562E+06    -27.8174E-03     43.5457E-03    -15.7283E-03     279.201E-03    -36.5001E-03     52.5807E-03    -15.5156E-03     286.530E-03
             282     17.7209E-03     47.6807E-03    -5.38429E+06     174.109E+06     97.8607E+06    -564.564E+03    -31.6664E-03     47.3910E-03    -15.7246E-03     279.563E-03    -40.4622E-03     56.5030E-03    -15.4799E-03     286.647E-03
             283     17.7221E-03     48.6540E-03    -3.57176E+06     176.546E+06     96.4821E+06     2.67932E+06    -26.6323E-03     42.4598E-03    -15.8275E-03     272.075E-03    -35.1087E-03     51.2712E-03    -15.5959E-03     279.578E-03
             284     17.7222E-03     49.6248E-03    -2.50221E+06     178.557E+06     97.3585E+06     380.751E+03    -25.3779E-03     41.2222E-03    -15.8443E-03     272.641E-03    -33.8949E-03     50.0821E-03    -15.6128E-03     280.354E-03
             285     17.7220E-03     50.6102E-03    -2.43003E+06     178.898E+06     98.2777E+06     196.076E+03    -27.5472E-03     43.3386E-03    -15.7913E-03     271.799E-03    -36.0052E-03     52.1380E-03    -15.5558E-03     279.209E-03
             286     17.7224E-03     51.5844E-03    -2.51071E+06     179.410E+06     98.2285E+06     477.566E+03    -27.0681E-03     42.8662E-03    -15.7981E-03     270.867E-03    -35.4928E-03     51.6341E-03    -15.5635E-03     278.338E-03
             287     17.7219E-03     52.5631E-03    -2.15768E+06     180.632E+06     98.8510E+06     675.329E+03    -26.6927E-03     42.4959E-03    -15.8032E-03     269.223E-03    -35.0474E-03     51.1975E-03    -15.5678E-03     276.703E-03
             288     17.7225E-03     53.5418E-03    -2.78293E+06     181.048E+06     98.0526E+06    -142.404E+03    -27.0230E-03     42.8107E-03    -15.7877E-03     269.728E-03    -35.4099E-03     51.5461E-03    -15.5559E-03     277.178E-03
             289     17.7221E-03     54.5197E-03    -2.42735E+06     181.298E+06     98.1609E+06     218.231E+03    -27.2156E-03     42.9963E-03    -15.7808E-03     270.108E-03    -35.6301E-03     51.7612E-03    -15.5493E-03     277.565E-03
             290     17.7225E-03     55.5021E-03    -2.55458E+06     182.108E+06     98.2612E+06     444.608E+03    -26.7988E-03     42.5941E-03    -15.7953E-03     271.940E-03    -35.2916E-03     51.4394E-03    -15.5644E-03     279.472E-03
             291     17.7222E-03     56.4763E-03    -2.51557E+06     182.932E+06     98.2439E+06     394.746E+03    -26.5197E-03     42.3167E-03    -15.7971E-03     271.118E-03    -34.9700E-03     51.1227E-03    -15.5675E-03     278.654E-03
             292     886.071E-06     57.3578E-03    -13.7485E+06    -67.7699E+06    -13.4807E+06     24.9794E+03    -15.6315E-03     31.2687E-03    -15.6373E-03     3.47751E-03    -15.5824E-03     30.9695E-03    -15.5865E-03     3.47733E-03
             293     1.77217E-03     57.3625E-03    -13.1362E+06    -66.5014E+06    -11.8252E+06    -4.81126E+03    -15.6326E-03     31.2697E-03    -15.6371E-03     6.49870E-03    -15.5848E-03     30.9735E-03    -15.5807E-03     6.49768E-03
             294     2.65826E-03     57.3699E-03    -12.1808E+06    -63.9242E+06    -9.38957E+06    -135.608E+03    -15.6386E-03     31.2794E-03    -15.6407E-03     9.75555E-03    -15.5934E-03     30.9912E-03    -15.5773E-03     9.75235E-03
             295     3.54437E-03     57.3806E-03    -11.1853E+06    -61.5948E+06    -6.59034E+06    -284.766E+03    -15.6521E-03     31.2992E-03    -15.6471E-03     13.1046E-03    -15.6095E-03     31.0173E-03    -15.5745E-03     13.0989E-03
             296     4.43046E-03     57.3943E-03    -10.0857E+06    -64.4171E+06    -3.95597E+06    -293.646E+03    -15.6903E-03     31.3515E-03    -15.6613E-03     16.5765E-03    -15.6421E-03     31.0504E-03    -15.5730E-03     16.5701E-03
             297     5.31656E-03     57.4114E-03    -8.97192E+06    -63.9636E+06    -2.39913E+06    -569.429E+03    -15.7302E-03     31.3968E-03    -15.6666E-03     20.2332E-03    -15.6797E-03     31.0943E-03    -15.5728E-03     20.2225E-03
             298     6.20267E-03     57.4320E-03    -7.86278E+06    -61.2659E+06    -743.960E+03    -5.27798E+03    -15.7804E-03     31.4503E-03    -15.6699E-03     24.0597E-03    -15.7311E-03     31.1577E-03    -15.5734E-03     24.0554E-03
             299     7.08870E-03     57.4562E-03    -6.57530E+06    -64.0104E+06     1.31688E+06     1.22949E+06    -15.8521E-03     31.5360E-03    -15.6839E-03     28.0268E-03    -15.7960E-03     31.2255E-03    -15.5750E-03     28.0372E-03
             300     7.97482E-03     57.4842E-03    -5.47719E+06    -63.3265E+06     1.28101E+06     465.026E+03    -15.9166E-03     31.5995E-03    -15.6829E-03     32.1921E-03    -15.8570E-03     31.2919E-03    -15.5767E-03     32.1911E-03
             301     8.86083E-03     57.5160E-03    -4.70162E+06    -57.8151E+06     413.664E+03    -472.006E+03    -15.9715E-03     31.6413E-03    -15.6698E-03     36.5016E-03    -15.9163E-03     31.3630E-03    -15.5771E-03     36.4864E-03
             302     9.74705E-03     57.5521E-03    -4.24966E+06    -58.6309E+06     637.079E+03    -75.2507E+03    -16.0774E-03     31.7493E-03    -15.6719E-03     40.7360E-03    -16.0215E-03     31.4683E-03    -15.5775E-03     40.7227E-03
             303     10.6330E-03     57.5917E-03    -4.41019E+06    -56.1232E+06    -3.27809E+06    -132.636E+03    -16.2178E-03     31.8698E-03    -15.6520E-03     45.0499E-03    -16.1646E-03     31.6112E-03    -15.5806E-03     45.0317E-03
             304     11.5191E-03     57.6359E-03    -4.87620E+06    -44.0022E+06    -2.01368E+06    -83.3192E+03    -16.2792E-03     31.9245E-03    -15.6453E-03     49.5505E-03    -16.2540E-03     31.7317E-03    -15.5845E-03     49.5276E-03
             305     12.4050E-03     57.6837E-03    -4.34561E+06    -37.8684E+06     212.728E+03     899.578E+03    -16.4539E-03     32.1032E-03    -15.6493E-03     56.5420E-03    -16.4503E-03     31.9491E-03    -15.5870E-03     56.5246E-03
             306     13.2910E-03     57.7412E-03    -3.51451E+06    -36.7173E+06    -8.69500E+06     1.19286E+06    -16.5658E-03     32.1712E-03    -15.6054E-03     59.0744E-03    -16.5633E-03     32.0511E-03    -15.5905E-03     59.0528E-03
             307     14.1776E-03     57.7930E-03    -2.94974E+06    -18.6546E+06    -10.3890E+06     1.15882E+06    -16.5860E-03     32.1577E-03    -15.5717E-03     63.9023E-03    -16.6377E-03     32.1628E-03    -15.5923E-03     63.8751E-03
             308     15.0629E-03     57.8593E-03    -2.92800E+06     22.0296E+06    -10.0677E+06     1.20096E+06    -17.7240E-03     33.2304E-03    -15.5064E-03     98.2691E-03    -18.0282E-03     33.6315E-03    -15.5844E-03     98.2626E-03
             309     15.9500E-03     57.9768E-03    -3.80457E+06     83.6771E+06    -10.3752E+06     344.500E+03    -21.1660E-03     36.5681E-03    -15.4021E-03     166.773E-03    -23.0231E-03     38.7388E-03    -15.5698E-03     167.339E-03
             310     16.8373E-03     58.1718E-03    -3.13345E+06     152.416E+06     46.7662E+06    -11.1376E+03    -25.4038E-03     40.9806E-03    -15.5767E-03     239.153E-03    -31.2216E-03     47.1927E-03    -15.5594E-03     243.433E-03
             311     886.061E-06     58.3360E-03    -13.7088E+06    -67.7251E+06    -13.3680E+06    -83.1641E+03    -15.6325E-03     31.2773E-03    -15.6449E-03     3.46941E-03    -15.5834E-03     30.9781E-03    -15.5936E-03     3.46784E-03
             312     1.77217E-03     58.3405E-03    -13.0643E+06    -66.3781E+06    -11.4578E+06    -140.522E+03    -15.6369E-03     31.2797E-03    -15.6428E-03     6.52796E-03    -15.5894E-03     30.9835E-03    -15.5849E-03     6.52518E-03
             313     2.65827E-03     58.3481E-03    -12.2337E+06    -63.8443E+06    -9.07992E+06    -104.773E+03    -15.6481E-03     31.2955E-03    -15.6474E-03     9.75577E-03    -15.6037E-03     31.0074E-03    -15.5825E-03     9.75295E-03
             314     3.54434E-03     58.3587E-03    -11.3507E+06    -61.4935E+06    -6.61442E+06    -27.0709E+03    -15.6613E-03     31.3148E-03    -15.6536E-03     13.1092E-03    -15.6196E-03     31.0337E-03    -15.5810E-03     13.1069E-03
             315     4.43044E-03     58.3725E-03    -10.4038E+06    -64.2711E+06    -3.98648E+06    -143.410E+03    -15.6986E-03     31.3671E-03    -15.6686E-03     16.5841E-03    -15.6522E-03     31.0672E-03    -15.5802E-03     16.5796E-03
             316     5.31651E-03     58.3895E-03    -9.60007E+06    -63.5583E+06    -2.86301E+06    -255.842E+03    -15.7332E-03     31.4051E-03    -15.6719E-03     20.2459E-03    -15.6857E-03     31.1062E-03    -15.5802E-03     20.2393E-03
             317     6.20259E-03     58.4101E-03    -8.90446E+06    -62.3689E+06    -2.58342E+06    -42.8807E+03    -15.7748E-03     31.4450E-03    -15.6702E-03     24.0876E-03    -15.7264E-03     31.1511E-03    -15.5798E-03     24.0828E-03
             318     7.08869E-03     58.4343E-03    -7.36407E+06    -64.6336E+06    -954.078E+03     177.632E+03    -15.8408E-03     31.5200E-03    -15.6792E-03     28.0732E-03    -15.7845E-03     31.2108E-03    -15.5795E-03     28.0701E-03
             319     7.97477E-03     58.4623E-03    -5.44073E+06    -61.8188E+06     896.820E+03    -65.5313E+03    -15.9105E-03     31.5923E-03    -15.6818E-03     32.2316E-03    -15.8523E-03     31.2927E-03    -15.5798E-03     32.2237E-03
             320     8.86090E-03     58.4942E-03    -4.77687E+06    -58.0844E+06     616.341E+03    -192.572E+03    -15.9816E-03     31.6559E-03    -15.6743E-03     36.4912E-03    -15.9266E-03     31.3760E-03    -15.5801E-03     36.4795E-03
             321     9.74694E-03     58.5301E-03    -4.80124E+06    -59.2164E+06     361.636E+03     250.377E+03    -16.0841E-03     31.7598E-03    -15.6757E-03     40.7648E-03    -16.0298E-03     31.4771E-03    -15.5810E-03     40.7558E-03
             322     10.6330E-03     58.5702E-03    -4.96980E+06    -55.7301E+06    -3.42701E+06     472.200E+03    -16.2053E-03     31.8600E-03    -15.6547E-03     45.0961E-03    -16.1553E-03     31.6044E-03    -15.5838E-03     45.0857E-03
             323     11.5190E-03     58.6138E-03    -5.11453E+06    -44.2423E+06    -2.20350E+06     335.287E+03    -16.2672E-03     31.9142E-03    -15.6470E-03     49.5868E-03    -16.2426E-03     31.7208E-03    -15.5865E-03     49.5694E-03
             324     12.4051E-03     58.6623E-03    -4.85645E+06    -38.6849E+06    -1.00569E+06     171.127E+03    -16.3851E-03     32.0292E-03    -15.6441E-03     56.5748E-03    -16.3810E-03     31.8734E-03    -15.5860E-03     56.5482E-03
             325     13.2916E-03     58.7188E-03    -4.08237E+06    -36.1282E+06    -9.14037E+06    -84.8821E+03    -16.4918E-03     32.0894E-03    -15.5976E-03     58.9776E-03    -16.4920E-03     31.9733E-03    -15.5850E-03     58.9399E-03
             326     14.1770E-03     58.7719E-03    -3.38599E+06    -19.9663E+06    -11.2805E+06     260.091E+03    -16.7137E-03     32.2800E-03    -15.5663E-03     63.8335E-03    -16.7646E-03     32.2807E-03    -15.5888E-03     63.7943E-03
             327     15.0634E-03     58.8375E-03    -2.88016E+06     21.0571E+06    -11.4862E+06     765.679E+03    -17.7067E-03     33.2079E-03    -15.5012E-03     97.9847E-03    -18.0060E-03     33.6050E-03    -15.5850E-03     97.9731E-03
             328     15.9498E-03     58.9538E-03    -3.57191E+06     85.3205E+06    -9.03588E+06     1.31380E+06    -21.3986E-03     36.8093E-03    -15.4106E-03     167.403E-03    -23.2641E-03     38.9911E-03    -15.5744E-03     167.972E-03
             329     16.8345E-03     59.1513E-03    -3.41185E+06     152.994E+06     47.3646E+06     959.157E+03    -25.4844E-03     41.0753E-03    -15.5909E-03     239.045E-03    -31.2982E-03     47.2828E-03    -15.5709E-03     243.355E-03
             330     886.106E-06     59.3140E-03    -13.6644E+06    -67.5885E+06    -13.2174E+06    -84.4927E+03    -15.6322E-03     31.2776E-03    -15.6454E-03     3.45524E-03    -15.5834E-03     30.9787E-03    -15.5936E-03     3.45365E-03
             331     1.77217E-03     59.3187E-03    -13.1509E+06    -66.2914E+06    -11.4208E+06    -76.0631E+03    -15.6520E-03     31.2981E-03    -15.6461E-03     6.52334E-03    -15.6051E-03     31.0024E-03    -15.5880E-03     6.52139E-03
             332     2.65822E-03     59.3262E-03    -12.2877E+06    -63.9623E+06    -9.19170E+06     16.5446E+03    -15.6553E-03     31.3087E-03    -15.6535E-03     9.75508E-03    -15.6108E-03     31.0203E-03    -15.5889E-03     9.75383E-03
             333     3.54433E-03     59.3368E-03    -11.2903E+06    -61.6330E+06    -6.80776E+06     190.526E+03    -15.6654E-03     31.3243E-03    -15.6589E-03     13.1158E-03    -15.6230E-03     31.0427E-03    -15.5872E-03     13.1162E-03
             334     4.43040E-03     59.3506E-03    -10.4738E+06    -64.2057E+06    -4.27989E+06     341.941E+03    -15.6995E-03     31.3720E-03    -15.6724E-03     16.5962E-03    -15.6532E-03     31.0729E-03    -15.5856E-03     16.5980E-03
             335     5.31649E-03     59.3677E-03    -9.84901E+06    -63.4104E+06    -3.52799E+06     265.513E+03    -15.7327E-03     31.4059E-03    -15.6732E-03     20.2642E-03    -15.6857E-03     31.1091E-03    -15.5847E-03     20.2643E-03
             336     6.20258E-03     59.3883E-03    -9.02249E+06    -62.3337E+06    -3.26789E+06    -84.6662E+03    -15.7703E-03     31.4407E-03    -15.6704E-03     24.1071E-03    -15.7216E-03     31.1481E-03    -15.5833E-03     24.1017E-03
             337     7.08869E-03     59.4125E-03    -7.90408E+06    -64.0102E+06    -1.95340E+06    -885.002E+03    -15.8346E-03     31.5111E-03    -15.6765E-03     28.1111E-03    -15.7804E-03     31.2073E-03    -15.5820E-03     28.0943E-03
             338     7.97477E-03     59.4405E-03    -6.69444E+06    -62.0661E+06    -396.612E+03    -904.085E+03    -15.9075E-03     31.5869E-03    -15.6794E-03     32.2597E-03    -15.8533E-03     31.2898E-03    -15.5817E-03     32.2410E-03
             339     8.86084E-03     59.4724E-03    -5.75394E+06    -58.7829E+06     615.151E+03     185.654E+03    -15.9963E-03     31.6756E-03    -15.6794E-03     36.5059E-03    -15.9452E-03     31.3937E-03    -15.5827E-03     36.4990E-03
             340     9.74688E-03     59.5084E-03    -5.43538E+06    -59.5664E+06     336.451E+03     655.859E+03    -16.0861E-03     31.7666E-03    -15.6804E-03     40.7765E-03    -16.0344E-03     31.4831E-03    -15.5845E-03     40.7726E-03
             341     10.6330E-03     59.5482E-03    -5.27967E+06    -55.8012E+06    -3.53430E+06     755.162E+03    -16.1732E-03     31.8299E-03    -15.6568E-03     45.1269E-03    -16.1244E-03     31.5746E-03    -15.5859E-03     45.1203E-03
             342     11.5190E-03     59.5923E-03    -5.18811E+06    -43.8596E+06    -1.81883E+06     497.237E+03    -16.2439E-03     31.8922E-03    -15.6484E-03     49.5835E-03    -16.2207E-03     31.7003E-03    -15.5863E-03     49.5682E-03
             343     12.4052E-03     59.6402E-03    -4.65701E+06    -38.2088E+06    -643.271E+03    -240.054E+03    -16.4164E-03     32.0616E-03    -15.6452E-03     56.4872E-03    -16.4126E-03     31.9075E-03    -15.5862E-03     56.4552E-03
             344     13.2909E-03     59.6973E-03    -4.73187E+06    -36.2601E+06    -9.66888E+06    -384.368E+03    -16.3963E-03     31.9907E-03    -15.5945E-03     59.0328E-03    -16.3985E-03     31.8755E-03    -15.5834E-03     58.9916E-03
             345     14.1775E-03     59.7500E-03    -6.18930E+06    -20.3850E+06    -12.9032E+06    -184.168E+03    -16.6048E-03     32.1595E-03    -15.5546E-03     64.3910E-03    -16.6663E-03     32.1640E-03    -15.5806E-03     64.3468E-03
             346     15.0633E-03     59.8160E-03    -6.06315E+06     20.6165E+06    -13.5080E+06    -681.995E+03    -18.3828E-03     33.8890E-03    -15.5063E-03     97.3689E-03    -18.6992E-03     34.2963E-03    -15.5949E-03     97.3331E-03
             347     15.9499E-03     59.9311E-03    -5.69151E+06     85.1322E+06    -8.14520E+06     634.804E+03    -20.8900E-03     36.3268E-03    -15.4368E-03     166.486E-03    -22.7468E-03     38.4893E-03    -15.5927E-03     167.062E-03
             348     16.8361E-03     60.1328E-03    -4.57986E+06     153.640E+06     47.6077E+06     1.49244E+06    -24.8143E-03     40.3880E-03    -15.5736E-03     241.498E-03    -30.7075E-03     46.6723E-03    -15.5517E-03     245.849E-03
             349     886.066E-06     60.2922E-03    -13.6884E+06    -67.5706E+06    -13.3025E+06     28.5274E+03    -15.6542E-03     31.2947E-03    -15.6405E-03     3.49514E-03    -15.6054E-03     30.9961E-03    -15.5891E-03     3.49500E-03
             350     1.77212E-03     60.2968E-03    -13.2054E+06    -66.2967E+06    -11.6423E+06     73.1288E+03    -15.6549E-03     31.3075E-03    -15.6527E-03     6.52406E-03    -15.6080E-03     31.0122E-03    -15.5956E-03     6.52404E-03
             351     2.65824E-03     60.3043E-03    -12.4207E+06    -64.0656E+06    -9.46391E+06     91.2834E+03    -15.6556E-03     31.3135E-03    -15.6580E-03     9.76778E-03    -15.6112E-03     31.0251E-03    -15.5944E-03     9.76749E-03
             352     3.54429E-03     60.3149E-03    -11.4000E+06    -61.8824E+06    -7.29199E+06     188.295E+03    -15.6667E-03     31.3279E-03    -15.6612E-03     13.1261E-03    -15.6238E-03     31.0459E-03    -15.5914E-03     13.1265E-03
             353     4.43041E-03     60.3287E-03    -10.0121E+06    -64.4496E+06    -4.65616E+06     378.423E+03    -15.6990E-03     31.3724E-03    -15.6733E-03     16.6075E-03    -15.6495E-03     31.0720E-03    -15.5886E-03     16.6097E-03
             354     5.31647E-03     60.3458E-03    -8.71022E+06    -63.3697E+06    -2.91009E+06     505.910E+03    -15.7334E-03     31.4100E-03    -15.6765E-03     20.2685E-03    -15.6817E-03     31.1108E-03    -15.5866E-03     20.2717E-03
             355     6.20259E-03     60.3664E-03    -7.90646E+06    -61.4916E+06    -1.84462E+06    -17.0354E+03    -15.7775E-03     31.4538E-03    -15.6763E-03     24.1058E-03    -15.7265E-03     31.1618E-03    -15.5849E-03     24.1013E-03
             356     7.08865E-03     60.3906E-03    -7.49309E+06    -62.9634E+06    -1.06784E+06    -822.158E+03    -15.8380E-03     31.5188E-03    -15.6808E-03     28.1160E-03    -15.7845E-03     31.2183E-03    -15.5840E-03     28.0999E-03
             357     7.97477E-03     60.4186E-03    -7.49611E+06    -62.9236E+06    -932.035E+03    -685.292E+03    -15.9132E-03     31.5948E-03    -15.6816E-03     32.2749E-03    -15.8611E-03     31.2954E-03    -15.5841E-03     32.2591E-03
             358     8.86082E-03     60.4506E-03    -7.32174E+06    -59.9738E+06    -285.374E+03     178.494E+03    -15.9920E-03     31.6735E-03    -15.6814E-03     36.5304E-03    -15.9457E-03     31.3891E-03    -15.5853E-03     36.5235E-03
             359     9.74692E-03     60.4865E-03    -6.15715E+06    -59.1522E+06     372.404E+03     316.300E+03    -16.0838E-03     31.7673E-03    -15.6835E-03     40.7825E-03    -16.0363E-03     31.4869E-03    -15.5869E-03     40.7743E-03
             360     10.6329E-03     60.5263E-03    -4.87239E+06    -56.3610E+06    -3.61469E+06     227.266E+03    -16.1708E-03     31.8295E-03    -15.6587E-03     45.1125E-03    -16.1190E-03     31.5708E-03    -15.5880E-03     45.0990E-03
             361     11.5191E-03     60.5704E-03    -3.95577E+06    -43.2999E+06    -1.38661E+06     397.121E+03    -16.2293E-03     31.8783E-03    -15.6490E-03     49.5978E-03    -16.2014E-03     31.6867E-03    -15.5874E-03     49.5812E-03
             362     12.4050E-03     60.6186E-03    -3.77524E+06    -37.3091E+06    -384.727E+03    -276.946E+03    -16.3975E-03     32.0408E-03    -15.6433E-03     56.5613E-03    -16.3909E-03     31.8894E-03    -15.5856E-03     56.5289E-03
             363     13.2914E-03     60.6754E-03    -4.38530E+06    -37.1874E+06    -10.3015E+06    -16.1926E+03    -16.5024E-03     32.0967E-03    -15.5943E-03     58.7480E-03    -16.5008E-03     31.9774E-03    -15.5855E-03     58.7111E-03
             364     14.1779E-03     60.7274E-03    -6.79732E+06    -19.1513E+06    -12.3370E+06     173.936E+03    -16.6601E-03     32.2245E-03    -15.5645E-03     63.9014E-03    -16.7272E-03     32.2353E-03    -15.5885E-03     63.8614E-03
             365     15.0636E-03     60.7958E-03    -8.75672E+06     21.0350E+06    -13.9766E+06    -76.0549E+03    -18.3350E-03     33.8484E-03    -15.5133E-03     98.7991E-03    -18.6661E-03     34.2635E-03    -15.6010E-03     98.7724E-03
             366     15.9454E-03     60.9117E-03    -7.10397E+06     83.6287E+06    -10.6507E+06     141.041E+03    -20.6592E-03     36.0894E-03    -15.4302E-03     164.898E-03    -22.4935E-03     38.2263E-03    -15.5944E-03     165.473E-03
             367     16.8395E-03     61.1000E-03    -4.18410E+06     153.321E+06     46.5493E+06     95.3775E+03    -24.7874E-03     40.3542E-03    -15.5668E-03     241.772E-03    -30.7565E-03     46.7179E-03    -15.5503E-03     246.085E-03
             368     886.068E-06     61.2703E-03    -13.7441E+06    -67.6552E+06    -13.4315E+06     81.0718E+03    -15.6641E-03     31.3048E-03    -15.6407E-03     3.52637E-03    -15.6152E-03     31.0060E-03    -15.5898E-03     3.52690E-03
             369     1.77215E-03     61.2749E-03    -13.1908E+06    -66.3828E+06    -11.7821E+06     105.871E+03    -15.6560E-03     31.3124E-03    -15.6564E-03     6.52556E-03    -15.6087E-03     31.0168E-03    -15.5999E-03     6.52596E-03
             370     2.65819E-03     61.2824E-03    -12.3506E+06    -64.1027E+06    -9.62096E+06     132.499E+03    -15.6567E-03     31.3168E-03    -15.6601E-03     9.77391E-03    -15.6117E-03     31.0283E-03    -15.5974E-03     9.77416E-03
             371     3.54431E-03     61.2931E-03    -11.2505E+06    -61.8487E+06    -7.30154E+06    -22.4848E+03    -15.6683E-03     31.3316E-03    -15.6632E-03     13.1318E-03    -15.6247E-03     31.0496E-03    -15.5938E-03     13.1295E-03
             372     4.43037E-03     61.3068E-03    -9.86836E+06    -64.5930E+06    -4.52168E+06    -153.324E+03    -15.7020E-03     31.3782E-03    -15.6762E-03     16.6126E-03    -15.6516E-03     31.0766E-03    -15.5908E-03     16.6079E-03
             373     5.31649E-03     61.3239E-03    -8.19185E+06    -63.6075E+06    -2.57434E+06         620.145    -15.7385E-03     31.4185E-03    -15.6800E-03     20.2753E-03    -15.6843E-03     31.1169E-03    -15.5888E-03     20.2720E-03
             374     6.20256E-03     61.3445E-03    -6.74137E+06    -60.7816E+06    -692.470E+03     21.1792E+03    -15.7854E-03     31.4672E-03    -15.6818E-03     24.1070E-03    -15.7313E-03     31.1754E-03    -15.5873E-03     24.1031E-03
             375     7.08867E-03     61.3688E-03    -6.33151E+06    -62.8153E+06     975.712E+03     146.751E+03    -15.8553E-03     31.5478E-03    -15.6925E-03     28.0885E-03    -15.7993E-03     31.2434E-03    -15.5873E-03     28.0850E-03
             376     7.97471E-03     61.3968E-03    -6.62136E+06    -63.4981E+06     977.927E+03     534.700E+03    -15.9250E-03     31.6201E-03    -15.6950E-03     32.2433E-03    -15.8704E-03     31.3137E-03    -15.5885E-03     32.2432E-03
             377     8.86079E-03     61.4288E-03    -6.15139E+06    -59.7466E+06     617.855E+03     2.36441E+03    -15.9934E-03     31.6816E-03    -15.6882E-03     36.5128E-03    -15.9429E-03     31.3954E-03    -15.5896E-03     36.5036E-03
             378     9.74684E-03     61.4647E-03    -5.01816E+06    -58.9929E+06     741.536E+03    -541.246E+03    -16.0824E-03     31.7694E-03    -15.6870E-03     40.7721E-03    -16.0300E-03     31.4876E-03    -15.5904E-03     40.7528E-03
             379     10.6330E-03     61.5046E-03    -4.23285E+06    -56.5694E+06    -3.12695E+06    -406.834E+03    -16.1828E-03     31.8467E-03    -15.6639E-03     45.0802E-03    -16.1282E-03     31.5854E-03    -15.5914E-03     45.0585E-03
             380     11.5189E-03     61.5485E-03    -3.82807E+06    -43.6984E+06    -1.29317E+06    -106.947E+03    -16.2290E-03     31.8823E-03    -15.6533E-03     49.5842E-03    -16.2000E-03     31.6884E-03    -15.5909E-03     49.5612E-03
             381     12.4053E-03     61.5968E-03    -4.08934E+06    -36.9861E+06     816.612E+03     676.301E+03    -16.4038E-03     32.0569E-03    -15.6530E-03     56.3662E-03    -16.4010E-03     31.9059E-03    -15.5894E-03     56.3460E-03
             382     13.2912E-03     61.6533E-03    -4.98132E+06    -37.2580E+06    -9.02435E+06     684.128E+03    -16.6951E-03     32.3070E-03    -15.6120E-03     58.9102E-03    -16.6987E-03     32.1869E-03    -15.5958E-03     58.8817E-03
             383     14.1758E-03     61.7069E-03    -4.16063E+06    -19.0538E+06    -10.5991E+06     304.142E+03    -16.8315E-03     32.4214E-03    -15.5898E-03     64.1478E-03    -16.8896E-03     32.4277E-03    -15.6092E-03     64.1085E-03
             384     15.0627E-03     61.7723E-03    -4.46548E+06     21.6323E+06    -11.6123E+06     1.40724E+06    -17.1951E-03     32.7046E-03    -15.5095E-03     98.3846E-03    -17.4920E-03     33.0960E-03    -15.5924E-03     98.3844E-03
             385     15.9545E-03     61.8913E-03    -5.88394E+06     83.1758E+06    -11.2758E+06     143.122E+03    -21.4832E-03     36.8895E-03    -15.4063E-03     165.113E-03    -23.3303E-03     39.0436E-03    -15.5747E-03     165.637E-03
             386     16.8309E-03     62.0794E-03    -4.35696E+06     152.920E+06     46.8708E+06    -1.45126E+06    -25.8927E-03     41.4960E-03    -15.6032E-03     240.978E-03    -31.8539E-03     47.8488E-03    -15.5843E-03     245.284E-03
             387     886.075E-06     62.2485E-03    -13.8030E+06    -67.6828E+06    -13.5058E+06     51.8249E+03    -15.6356E-03     31.3084E-03    -15.6728E-03     3.52979E-03    -15.5869E-03     31.0097E-03    -15.6222E-03     3.52995E-03
             388     1.77212E-03     62.2530E-03    -13.2071E+06    -66.4433E+06    -11.8540E+06    -13.9880E+03    -15.6586E-03     31.3169E-03    -15.6583E-03     6.52126E-03    -15.6112E-03     31.0211E-03    -15.6021E-03     6.52012E-03
             389     2.65822E-03     62.2606E-03    -12.1881E+06    -64.0664E+06    -9.55306E+06    -55.2341E+03    -15.6602E-03     31.3227E-03    -15.6625E-03     9.77641E-03    -15.6146E-03     31.0341E-03    -15.5997E-03     9.77423E-03
             390     3.54428E-03     62.2712E-03    -11.0861E+06    -61.6120E+06    -6.83704E+06    -151.050E+03    -15.6711E-03     31.3385E-03    -15.6675E-03     13.1325E-03    -15.6276E-03     31.0568E-03    -15.5962E-03     13.1285E-03
             391     4.43039E-03     62.2850E-03    -9.97447E+06    -64.3342E+06    -3.96448E+06    -389.467E+03    -15.7091E-03     31.3909E-03    -15.6819E-03     16.6111E-03    -15.6605E-03     31.0900E-03    -15.5940E-03     16.6034E-03
             392     5.31643E-03     62.3021E-03     -8.6873E+06    -63.5777E+06    -2.58725E+06    -691.874E+03    -15.7467E-03     31.4316E-03    -15.6849E-03     20.2774E-03    -15.6951E-03     31.1309E-03    -15.5930E-03     20.2651E-03
             393     6.20256E-03     62.3227E-03    -7.34727E+06    -61.1067E+06    -822.522E+03    -343.326E+03    -15.7959E-03     31.4837E-03    -15.6878E-03     24.1073E-03    -15.7441E-03     31.1913E-03    -15.5927E-03     24.0986E-03
             394     7.08859E-03     62.3469E-03    -6.18196E+06    -63.8515E+06     1.84148E+06     778.989E+03    -15.8718E-03     31.5763E-03    -15.7045E-03     28.0632E-03    -15.8147E-03     31.2653E-03    -15.5937E-03     28.0677E-03
             395     7.97465E-03     62.3750E-03    -4.90888E+06    -63.1556E+06     2.41908E+06     870.043E+03    -15.9353E-03     31.6414E-03    -15.7061E-03     32.2195E-03    -15.8747E-03     31.3322E-03    -15.5954E-03     32.2237E-03
             396     8.86072E-03     62.4069E-03    -3.94870E+06    -58.4576E+06     1.32835E+06    -176.292E+03    -15.9952E-03     31.6880E-03    -15.6929E-03     36.5174E-03    -15.9366E-03     31.4040E-03    -15.5957E-03     36.5058E-03
             397     9.74682E-03     62.4429E-03    -3.98056E+06    -59.3881E+06     678.865E+03    -304.992E+03    -16.0897E-03     31.7808E-03    -15.6911E-03     40.7714E-03    -16.0315E-03     31.4956E-03    -15.5958E-03     40.7552E-03
             398     10.6328E-03     62.4827E-03    -4.64407E+06    -56.4498E+06    -3.13186E+06    -110.675E+03    -16.1800E-03     31.8493E-03    -15.6693E-03     45.0522E-03    -16.1277E-03     31.5892E-03    -15.5963E-03     45.0343E-03
             399     11.5190E-03     62.5268E-03    -5.09457E+06    -44.0765E+06    -1.84191E+06    -66.1044E+03    -16.2805E-03     31.9401E-03    -15.6596E-03     49.5847E-03    -16.2566E-03     31.7470E-03    -15.5975E-03     49.5621E-03
             400     12.4048E-03     62.5749E-03    -4.40872E+06    -38.2246E+06     71.8136E+03     683.558E+03    -16.4944E-03     32.1573E-03    -15.6629E-03     56.3985E-03    -16.4903E-03     32.0016E-03    -15.6007E-03     56.3782E-03
             401     13.2908E-03     62.6320E-03    -3.48845E+06    -36.6887E+06    -8.84950E+06     894.804E+03    -16.5541E-03     32.1726E-03    -15.6185E-03     59.1652E-03    -16.5513E-03     32.0528E-03    -15.6045E-03     59.1398E-03
             402     14.1781E-03     62.6850E-03    -3.24079E+06    -19.2692E+06    -11.0521E+06     422.797E+03    -16.6149E-03     32.1974E-03    -15.5825E-03     64.4808E-03    -16.6664E-03     32.2011E-03    -15.6052E-03     64.4440E-03
             403     15.0628E-03     62.7516E-03    -3.23158E+06     20.6390E+06    -11.3545E+06     578.484E+03    -17.5676E-03     33.0803E-03    -15.5127E-03     96.9197E-03    -17.8558E-03     33.4632E-03    -15.5947E-03     96.9028E-03
             404     15.9474E-03     62.8631E-03    -3.86823E+06      84.263E+06    -9.16377E+06    -184.070E+03    -21.3299E-03     36.7468E-03    -15.4169E-03     167.146E-03    -23.2157E-03     38.9446E-03    -15.5793E-03     167.687E-03
             405     16.8378E-03     63.0705E-03    -3.64262E+06     153.985E+06     48.1977E+06    -531.675E+03    -25.5322E-03     41.1263E-03    -15.5941E-03     240.526E-03    -31.3857E-03     47.3739E-03    -15.5711E-03     244.831E-03
             406     886.050E-06     63.2266E-03    -13.8945E+06    -67.6011E+06    -13.6804E+06    -79.7931E+03    -15.6184E-03     31.3107E-03    -15.6922E-03     3.55112E-03    -15.5700E-03     31.0127E-03    -15.6425E-03     3.54957E-03
             407     1.77215E-03     63.2312E-03    -13.3075E+06    -66.3009E+06    -11.8482E+06    -180.515E+03    -15.6603E-03     31.3204E-03    -15.6601E-03     6.53359E-03    -15.6136E-03     31.0254E-03    -15.6039E-03     6.53030E-03
             408     2.65818E-03     63.2387E-03    -12.2987E+06    -63.9057E+06    -9.37501E+06    -311.413E+03    -15.6664E-03     31.3324E-03    -15.6660E-03     9.77552E-03    -15.6218E-03     31.0445E-03    -15.6024E-03     9.77003E-03
             409     3.54429E-03     63.2494E-03    -11.0613E+06    -61.5630E+06    -6.60204E+06    -264.332E+03    -15.6774E-03     31.3497E-03    -15.6723E-03     13.1349E-03    -15.6342E-03     31.0678E-03    -15.6000E-03     13.1295E-03
             410     4.43034E-03     63.2631E-03    -9.90435E+06    -64.0239E+06     -3.5227E+06    -230.870E+03    -15.7178E-03     31.4059E-03    -15.6882E-03     16.6130E-03    -15.6699E-03     31.1058E-03    -15.5986E-03     16.6074E-03
             411     5.31643E-03     63.2803E-03    -9.32701E+06    -63.2360E+06    -2.17200E+06    -349.902E+03    -15.7587E-03     31.4521E-03    -15.6933E-03     20.2746E-03    -15.7114E-03     31.1534E-03    -15.5990E-03     20.2667E-03
             412     6.20246E-03     63.3008E-03    -9.13641E+06    -61.8794E+06    -2.09228E+06    -134.401E+03    -15.8005E-03     31.4927E-03    -15.6922E-03     24.1211E-03    -15.7547E-03     31.2009E-03    -15.5997E-03     24.1151E-03
             413     7.08854E-03     63.3252E-03    -7.92218E+06    -64.4747E+06    -949.568E+03    -3.16861E+03    -15.8633E-03     31.5638E-03    -15.7005E-03     28.1127E-03    -15.8100E-03     31.2563E-03    -15.6003E-03     28.1072E-03
             414     7.97459E-03     63.3531E-03    -5.81108E+06    -62.5066E+06     324.089E+03    -288.554E+03    -15.9261E-03     31.6272E-03    -15.7012E-03     32.2762E-03    -15.8679E-03     31.3256E-03    -15.6005E-03     32.2654E-03
             415     8.86067E-03     63.3852E-03    -4.85311E+06    -58.4531E+06     370.919E+03     134.621E+03    -15.9970E-03     31.6908E-03    -15.6938E-03     36.5555E-03    -15.9416E-03     31.4095E-03    -15.6001E-03     36.5480E-03
             416     9.74675E-03     63.4210E-03    -4.97684E+06    -59.6339E+06     94.2580E+03     530.802E+03    -16.0896E-03     31.7839E-03    -15.6943E-03     40.7929E-03    -16.0351E-03     31.4997E-03    -15.6001E-03     40.7874E-03
             417     10.6328E-03     63.4611E-03    -4.91808E+06    -56.0758E+06    -3.75973E+06     284.746E+03    -16.2163E-03     31.8878E-03    -15.6715E-03     45.0740E-03    -16.1650E-03     31.6309E-03    -15.6019E-03     45.0611E-03
             418     11.5188E-03     63.5048E-03    -4.62713E+06    -44.2432E+06    -2.19057E+06     139.893E+03    -16.2961E-03     31.9605E-03    -15.6644E-03     49.6593E-03    -16.2691E-03     31.7664E-03    -15.6045E-03     49.6393E-03
             419     12.4049E-03     63.5537E-03    -4.28527E+06    -38.6947E+06    -842.140E+03    -40.8748E+03    -16.4466E-03     32.1104E-03    -15.6638E-03     56.6107E-03    -16.4399E-03     31.9535E-03    -15.6057E-03     56.5813E-03
             420     13.2910E-03     63.6097E-03    -3.93556E+06    -36.6382E+06    -9.54125E+06    -110.344E+03    -16.4817E-03     32.0976E-03    -15.6159E-03     59.2285E-03    -16.4803E-03     31.9799E-03    -15.6048E-03     59.1903E-03
             421     14.1761E-03     63.6635E-03    -3.30656E+06    -19.3102E+06    -10.9779E+06     115.854E+03    -16.4021E-03     31.9771E-03    -15.5750E-03     64.1066E-03    -16.4530E-03     31.9795E-03    -15.5971E-03     64.0666E-03
             422     15.0643E-03     63.7288E-03    -4.36707E+06     20.5769E+06    -12.0664E+06    -138.140E+03    -17.9306E-03     33.4373E-03    -15.5067E-03     97.4679E-03    -18.2335E-03     33.8327E-03    -15.5905E-03     97.4403E-03
             423     15.9497E-03     63.8455E-03    -4.82456E+06     84.4930E+06    -9.72701E+06     193.981E+03    -21.0495E-03     36.4620E-03    -15.4125E-03     167.761E-03    -22.9363E-03     38.6599E-03    -15.5767E-03     168.339E-03
             424     16.8362E-03     64.0402E-03    -3.00724E+06     154.325E+06     47.9463E+06     671.879E+03    -25.1662E-03     40.7365E-03    -15.5703E-03     240.720E-03    -31.0105E-03     46.9790E-03    -15.5500E-03     245.022E-03
             425     886.075E-06     64.2047E-03    -14.2151E+06    -67.3882E+06    -13.7737E+06    -150.648E+03    -15.6366E-03     31.3203E-03    -15.6837E-03     3.52570E-03    -15.5900E-03     31.0240E-03    -15.6342E-03     3.52324E-03
             426     1.77212E-03     64.2093E-03    -13.5487E+06    -66.0044E+06    -11.9248E+06    -279.753E+03    -15.6593E-03     31.3237E-03    -15.6644E-03     6.53300E-03    -15.6141E-03     31.0307E-03    -15.6087E-03     6.52843E-03
             427     2.65820E-03     64.2169E-03    -12.6526E+06    -63.7038E+06    -9.44214E+06    -345.479E+03    -15.6688E-03     31.3386E-03    -15.6697E-03     9.77668E-03    -15.6262E-03     31.0523E-03    -15.6062E-03     9.77075E-03
             428     3.54425E-03     64.2275E-03    -11.6017E+06    -61.5413E+06    -6.94450E+06    -379.345E+03    -15.6852E-03     31.3611E-03    -15.6760E-03     13.1444E-03    -15.6442E-03     31.0806E-03    -15.6046E-03     13.1375E-03
             429     4.43034E-03     64.2413E-03    -10.3441E+06    -64.1690E+06    -4.11214E+06    -155.771E+03    -15.7242E-03     31.4157E-03    -15.6915E-03     16.6234E-03    -15.6775E-03     31.1164E-03    -15.6041E-03     16.6187E-03
             430     5.31637E-03     64.2584E-03    -9.26385E+06    -63.4625E+06    -2.65640E+06     368.293E+03    -15.7604E-03     31.4568E-03    -15.6964E-03     20.2884E-03    -15.7117E-03     31.1577E-03    -15.6042E-03     20.2898E-03
             431     6.20245E-03     64.2791E-03     -8.4684E+06    -61.8880E+06    -2.58505E+06     369.032E+03    -15.7967E-03     31.4894E-03    -15.6928E-03     24.1445E-03    -15.7468E-03     31.1973E-03    -15.6037E-03     24.1451E-03
             432     7.08853E-03     64.3032E-03    -7.83184E+06    -63.5625E+06    -2.05297E+06    -592.835E+03    -15.8524E-03     31.5482E-03    -15.6957E-03     28.1641E-03    -15.7984E-03     31.2466E-03    -15.6025E-03     28.1510E-03
             433     7.97462E-03     64.3314E-03    -7.60524E+06    -62.8375E+06    -1.00214E+06    -698.307E+03    -15.9249E-03     31.6240E-03    -15.6991E-03     32.3118E-03    -15.8733E-03     31.3252E-03    -15.6019E-03     32.2958E-03
             434     8.86070E-03     64.3632E-03    -7.11530E+06    -59.5573E+06    -220.484E+03     244.125E+03    -16.0000E-03     31.6978E-03    -15.6978E-03     36.5696E-03    -15.9534E-03     31.4151E-03    -15.6022E-03     36.5635E-03
             435     9.74672E-03     64.3994E-03    -5.87911E+06    -59.1357E+06     43.3952E+03     298.793E+03    -16.0955E-03     31.7930E-03    -15.6976E-03     40.8074E-03    -16.0462E-03     31.5128E-03    -15.6031E-03     40.7989E-03
             436     10.6328E-03     64.4390E-03    -4.81353E+06    -55.9512E+06    -3.80758E+06    -70.4566E+03    -16.2282E-03     31.9026E-03    -15.6745E-03     45.1896E-03    -16.1765E-03     31.6463E-03    -15.6054E-03     45.1722E-03
             437     11.5187E-03     64.4835E-03    -4.36025E+06    -44.3299E+06    -1.91376E+06    -44.9764E+03    -16.2626E-03     31.9305E-03    -15.6679E-03     49.6859E-03    -16.2345E-03     31.7351E-03    -15.6068E-03     49.6636E-03
             438     12.4050E-03     64.5311E-03    -4.07311E+06    -38.3421E+06    -498.271E+03    -81.9589E+03    -16.3744E-03     32.0374E-03    -15.6630E-03     56.6172E-03    -16.3677E-03     31.8816E-03    -15.6040E-03     56.5873E-03
             439     13.2909E-03     64.5889E-03    -4.38739E+06    -36.3330E+06    -9.63046E+06    -256.426E+03    -16.4198E-03     32.0295E-03    -15.6097E-03     59.1864E-03    -16.4209E-03     31.9140E-03    -15.5988E-03     59.1465E-03
             440     14.1781E-03     64.6408E-03    -5.23750E+06    -19.6231E+06    -11.8658E+06    -370.600E+03    -16.5231E-03     32.0932E-03    -15.5701E-03     64.1726E-03    -16.5826E-03     32.0989E-03    -15.5934E-03     64.1260E-03
             441     15.0625E-03     64.7075E-03    -4.86720E+06     21.1284E+06    -12.0642E+06    -169.823E+03    -17.6933E-03     33.1938E-03    -15.5005E-03     97.4432E-03    -17.9983E-03     33.5915E-03    -15.5844E-03     97.4195E-03
             442     15.9502E-03     64.8223E-03    -4.88411E+06     84.1945E+06    -10.4721E+06     338.858E+03    -21.4328E-03     36.8436E-03    -15.4108E-03     166.262E-03    -23.2959E-03     39.0187E-03    -15.5782E-03     166.809E-03
             443     16.8359E-03     65.0202E-03    -4.15527E+06     153.373E+06     46.4571E+06     378.380E+03    -25.4350E-03     41.0233E-03    -15.5883E-03     240.516E-03    -31.3074E-03     47.2907E-03    -15.5724E-03     244.838E-03
             444     886.026E-06     65.1829E-03    -13.8274E+06    -67.1363E+06    -13.4541E+06    -85.4667E+03    -15.6763E-03     31.3373E-03    -15.6610E-03     3.52881E-03    -15.6286E-03     31.0413E-03    -15.6109E-03     3.52719E-03
             445     1.77211E-03     65.1875E-03    -13.3958E+06    -65.7455E+06    -11.6600E+06    -174.527E+03    -15.6629E-03     31.3348E-03    -15.6720E-03     6.53705E-03    -15.6177E-03     31.0425E-03    -15.6155E-03     6.53383E-03
             446     2.65817E-03     65.1950E-03    -12.5992E+06    -63.5638E+06    -9.43962E+06    -226.518E+03    -15.6711E-03     31.3461E-03    -15.6749E-03     9.78056E-03    -15.6285E-03     31.0604E-03    -15.6117E-03     9.77616E-03
             447     3.54425E-03     65.2057E-03    -11.7121E+06    -61.4554E+06    -7.20809E+06    -213.935E+03    -15.6901E-03     31.3698E-03    -15.6796E-03     13.1484E-03    -15.6495E-03     31.0903E-03    -15.6096E-03     13.1436E-03
             448     4.43029E-03     65.2195E-03    -10.6885E+06    -64.3088E+06    -5.09520E+06    -257.853E+03    -15.7221E-03     31.4138E-03    -15.6917E-03     16.6376E-03    -15.6755E-03     31.1157E-03    -15.6084E-03     16.6316E-03
             449     5.31638E-03     65.2366E-03    -9.06539E+06    -64.0104E+06    -3.86208E+06    -109.884E+03    -15.7522E-03     31.4455E-03    -15.6934E-03     20.3116E-03    -15.6999E-03     31.1451E-03    -15.6067E-03     20.3069E-03
             450     6.20247E-03     65.2572E-03    -7.23480E+06    -61.4812E+06    -1.89416E+06    -51.0956E+03    -15.7970E-03     31.4918E-03    -15.6947E-03     24.1565E-03    -15.7426E-03     31.1989E-03    -15.6046E-03     24.1516E-03
             451     7.08854E-03     65.2815E-03    -6.45830E+06    -62.9899E+06     400.136E+03     42.5025E+03    -15.8671E-03     31.5735E-03    -15.7064E-03     28.1356E-03    -15.8106E-03     31.2693E-03    -15.6037E-03     28.1308E-03
             452     7.97462E-03     65.3095E-03    -6.55080E+06    -63.4317E+06     1.10303E+06     329.711E+03    -15.9419E-03     31.6534E-03    -15.7115E-03     32.2820E-03    -15.8872E-03     31.3471E-03    -15.6045E-03     32.2791E-03
             453     8.86059E-03     65.3416E-03    -6.04717E+06    -59.4871E+06     991.959E+03    -115.384E+03    -16.0077E-03     31.7132E-03    -15.7055E-03     36.5436E-03    -15.9576E-03     31.4276E-03    -15.6056E-03     36.5329E-03
             454     9.74676E-03     65.3774E-03    -4.84942E+06    -58.8189E+06     781.370E+03    -557.168E+03    -16.1028E-03     31.8055E-03    -15.7027E-03     40.8331E-03    -16.0499E-03     31.5243E-03    -15.6064E-03     40.8136E-03
             455     10.6327E-03     65.4176E-03    -4.34578E+06    -56.1887E+06    -3.33994E+06    -265.361E+03    -16.1946E-03     31.8729E-03    -15.6783E-03     45.1935E-03    -16.1409E-03     31.6140E-03    -15.6073E-03     45.1736E-03
             456     11.5190E-03     65.4613E-03    -4.33305E+06    -44.3308E+06    -1.54906E+06    -19.4924E+03    -16.2581E-03     31.9279E-03    -15.6698E-03     49.6386E-03    -16.2304E-03     31.7320E-03    -15.6070E-03     49.6166E-03
             457     12.4047E-03     65.5099E-03    -4.18037E+06    -38.1782E+06    -600.982E+03    -88.9159E+03    -16.4066E-03     32.0703E-03    -15.6637E-03     56.4925E-03    -16.4005E-03     31.9156E-03    -15.6053E-03     56.4625E-03
             458     13.2913E-03     65.5662E-03    -3.88052E+06    -36.2506E+06    -9.39535E+06    -193.114E+03    -16.4472E-03     32.0608E-03    -15.6137E-03     58.8265E-03    -16.4460E-03     31.9445E-03    -15.6025E-03     58.7873E-03
             459     14.1766E-03     65.6195E-03    -4.47698E+06    -19.6070E+06    -11.3821E+06    -119.868E+03    -16.4684E-03     32.0430E-03    -15.5746E-03     63.8138E-03    -16.5241E-03     32.0462E-03    -15.5965E-03     63.7706E-03
             460     15.0641E-03     65.6857E-03    -5.17413E+06     20.6322E+06    -12.4929E+06    -69.2016E+03    -17.9717E-03     33.4806E-03    -15.5088E-03     97.4643E-03    -18.2775E-03     33.8775E-03    -15.5937E-03     97.4384E-03
             461     15.9490E-03     65.8004E-03    -5.58479E+06     83.7673E+06    -10.7546E+06    -3.25661E+03    -21.7154E-03     37.1495E-03    -15.4342E-03     166.867E-03    -23.5978E-03     39.3407E-03    -15.6013E-03     167.413E-03
             462     16.8339E-03     66.0000E-03    -4.17751E+06     153.629E+06     46.8248E+06     73.1198E+03    -25.1042E-03     40.7149E-03    -15.6106E-03     240.393E-03    -30.9708E-03     46.9762E-03    -15.5932E-03     244.741E-03
             463     886.071E-06     66.1611E-03    -13.6548E+06    -67.0234E+06    -13.2501E+06    -33.7218E+03    -15.6902E-03     31.3401E-03    -15.6499E-03     3.51637E-03    -15.6420E-03     31.0441E-03    -15.5992E-03     3.51543E-03
             464     1.77211E-03     66.1657E-03    -13.1278E+06    -65.6957E+06    -11.5934E+06     35.9594E+03    -15.6751E-03     31.3498E-03    -15.6747E-03     6.53957E-03    -15.6287E-03     31.0573E-03    -15.6184E-03     6.53906E-03
             465     2.65816E-03     66.1732E-03    -12.4589E+06    -63.3980E+06    -9.48787E+06    -31.9831E+03    -15.6775E-03     31.3568E-03    -15.6793E-03     9.79114E-03    -15.6343E-03     31.0718E-03    -15.6167E-03     9.78926E-03
             466     3.54421E-03     66.1839E-03    -11.4040E+06    -61.3087E+06    -7.32907E+06    -214.704E+03    -15.6869E-03     31.3693E-03    -15.6824E-03     13.1616E-03    -15.6447E-03     31.0903E-03    -15.6136E-03     13.1568E-03
             467     4.43030E-03     66.1977E-03    -10.0230E+06    -63.9567E+06    -4.59555E+06    -487.470E+03    -15.7204E-03     31.4155E-03    -15.6950E-03     16.6432E-03    -15.6717E-03     31.1174E-03    -15.6107E-03     16.6342E-03
             468     5.31638E-03     66.2147E-03    -8.68547E+06    -63.9289E+06    -2.76013E+06    -865.250E+03    -15.7609E-03     31.4614E-03    -15.7005E-03     20.3099E-03    -15.7085E-03     31.1592E-03    -15.6090E-03     20.2954E-03
             469     6.20244E-03     66.2354E-03    -7.52710E+06    -61.7199E+06    -1.01365E+06    -642.181E+03    -15.8091E-03     31.5127E-03    -15.7035E-03     24.1449E-03    -15.7571E-03     31.2177E-03    -15.6082E-03     24.1323E-03
             470     7.08851E-03     66.2597E-03    -6.31414E+06    -63.8736E+06     1.27447E+06     341.208E+03    -15.8821E-03     31.5990E-03    -15.7169E-03     28.1164E-03    -15.8249E-03     31.2889E-03    -15.6087E-03     28.1153E-03
             471     7.97450E-03     66.2878E-03    -4.88608E+06    -63.1570E+06     2.04763E+06     511.062E+03    -15.9462E-03     31.6648E-03    -15.7186E-03     32.2732E-03    -15.8850E-03     31.3561E-03    -15.6097E-03     32.2727E-03
             472     8.86066E-03     66.3197E-03    -3.73771E+06    -58.3256E+06     1.56190E+06    -378.396E+03    -16.0149E-03     31.7227E-03    -15.7078E-03     36.5664E-03    -15.9558E-03     31.4388E-03    -15.6100E-03     36.5522E-03
             473     9.74658E-03     66.3558E-03    -3.63822E+06    -59.3151E+06     827.460E+03    -432.928E+03    -16.1026E-03     31.8081E-03    -15.7055E-03     40.8368E-03    -16.0430E-03     31.5227E-03    -15.6101E-03     40.8188E-03
             474     10.6328E-03     66.3956E-03    -3.95841E+06    -56.4259E+06    -3.38175E+06     55.2575E+03    -16.2016E-03     31.8828E-03    -15.6811E-03     45.1582E-03    -16.1456E-03     31.6222E-03    -15.6105E-03     45.1424E-03
             475     11.5186E-03     66.4398E-03    -4.05282E+06    -44.3007E+06    -1.58727E+06     65.8338E+03    -16.2600E-03     31.9325E-03    -15.6724E-03     49.6086E-03    -16.2310E-03     31.7363E-03    -15.6102E-03     49.5876E-03
             476     12.4050E-03     66.4879E-03    -3.76702E+06    -38.0790E+06    -466.274E+03    -12.0862E+03    -16.4319E-03     32.0994E-03    -15.6675E-03     56.4890E-03    -16.4241E-03     31.9444E-03    -15.6092E-03     56.4599E-03
             477     13.2906E-03     66.5448E-03    -4.11613E+06    -36.4662E+06    -9.85542E+06    -119.032E+03    -16.4966E-03     32.1144E-03    -15.6179E-03     59.0289E-03    -16.4958E-03     31.9982E-03    -15.6083E-03     58.9905E-03
             478     14.1772E-03     66.5975E-03    -4.14203E+06    -19.6804E+06    -11.2620E+06    -35.6793E+03    -16.4739E-03     32.0557E-03    -15.5817E-03     63.8986E-03    -16.5282E-03     32.0580E-03    -15.6035E-03     63.8564E-03
             479     15.0629E-03     66.6630E-03    -4.06879E+06     20.3427E+06    -11.8250E+06     12.8949E+03    -17.9839E-03     33.5002E-03    -15.5162E-03     98.3543E-03    -18.2899E-03     33.8983E-03    -15.5990E-03     98.3296E-03
             480     15.9485E-03     66.7814E-03    -5.00209E+06     83.8685E+06    -9.84042E+06    -17.3301E+03    -21.3245E-03     36.7544E-03    -15.4299E-03     167.522E-03    -23.1981E-03     38.9365E-03    -15.5935E-03     168.087E-03
             481     16.8367E-03     66.9757E-03    -4.03261E+06     154.249E+06     47.9001E+06    -41.4721E+03    -25.1573E-03     40.7533E-03    -15.5960E-03     240.762E-03    -31.0413E-03     47.0317E-03    -15.5744E-03     245.096E-03
             482     886.043E-06     67.1393E-03    -14.0003E+06    -66.9874E+06    -13.6901E+06     12.0312E+03    -15.6739E-03     31.3441E-03    -15.6702E-03     3.51217E-03    -15.6269E-03     31.0495E-03    -15.6212E-03     3.51181E-03
             483     1.77210E-03     67.1439E-03    -13.4093E+06    -65.7384E+06    -12.0330E+06    -28.2568E+03    -15.6761E-03     31.3522E-03    -15.6761E-03     6.53739E-03    -15.6305E-03     31.0605E-03    -15.6215E-03     6.53606E-03
             484     2.65816E-03     67.1514E-03    -12.3765E+06    -63.2973E+06    -9.63284E+06     4.76207E+03    -15.6777E-03     31.3584E-03    -15.6807E-03     9.79859E-03    -15.6340E-03     31.0740E-03    -15.6191E-03     9.79718E-03
             485     3.54422E-03     67.1621E-03    -11.3839E+06    -60.8472E+06    -6.84663E+06    -273.174E+03    -15.6874E-03     31.3734E-03    -15.6860E-03     13.1686E-03    -15.6465E-03     31.0960E-03    -15.6155E-03     13.1630E-03
             486     4.43030E-03     67.1758E-03    -10.2779E+06    -63.4861E+06    -3.76038E+06    -659.623E+03    -15.7292E-03     31.4308E-03    -15.7017E-03     16.6430E-03    -15.6836E-03     31.1343E-03    -15.6135E-03     16.6318E-03
             487     5.31633E-03     67.1930E-03    -9.30872E+06    -63.6055E+06    -2.14498E+06    -739.686E+03    -15.7727E-03     31.4813E-03    -15.7086E-03     20.3034E-03    -15.7247E-03     31.1807E-03    -15.6136E-03     20.2904E-03
             488     6.20239E-03     67.2136E-03    -8.83633E+06    -62.3962E+06    -2.18574E+06    -379.264E+03    -15.8125E-03     31.5187E-03    -15.7063E-03     24.1581E-03    -15.7643E-03     31.2240E-03    -15.6139E-03     24.1490E-03
             489     7.08842E-03     67.2380E-03    -7.91570E+06    -64.2787E+06    -1.46852E+06    -316.087E+03    -15.8691E-03     31.5800E-03    -15.7109E-03     28.1670E-03    -15.8153E-03     31.2742E-03    -15.6136E-03     28.1575E-03
             490     7.97454E-03     67.2659E-03    -5.92534E+06    -62.3452E+06    -238.848E+03    -916.996E+03    -15.9349E-03     31.6457E-03    -15.7108E-03     32.3338E-03    -15.8767E-03     31.3458E-03    -15.6130E-03     32.3149E-03
             491     8.86051E-03     67.2980E-03    -4.59118E+06    -58.5612E+06     170.463E+03    -480.330E+03    -16.0079E-03     31.7125E-03    -15.7046E-03     36.6170E-03    -15.9507E-03     31.4306E-03    -15.6122E-03     36.6015E-03
             492     9.74672E-03     67.3339E-03    -4.39268E+06    -59.7046E+06     292.280E+03     261.772E+03    -16.1090E-03     31.8155E-03    -15.7065E-03     40.8540E-03    -16.0518E-03     31.5299E-03    -15.6121E-03     40.8450E-03
             493     10.6326E-03     67.3739E-03    -4.29514E+06    -56.3842E+06    -3.65920E+06     104.357E+03    -16.2054E-03     31.8880E-03    -15.6826E-03     45.2094E-03    -16.1508E-03     31.6285E-03    -15.6129E-03     45.1942E-03
             494     11.5188E-03     67.4180E-03    -3.95465E+06    -44.2930E+06    -1.62132E+06     19.7903E+03    -16.2314E-03     31.9047E-03    -15.6733E-03     49.6808E-03    -16.2018E-03     31.7085E-03    -15.6114E-03     49.6594E-03
             495     12.4047E-03     67.4661E-03    -3.72373E+06    -37.9826E+06    -411.494E+03    -47.1433E+03    -16.3783E-03     32.0438E-03    -15.6655E-03     56.6762E-03    -16.3705E-03     31.8892E-03    -15.6071E-03     56.6467E-03
             496     13.2912E-03     67.5231E-03    -3.46732E+06    -36.1350E+06    -9.32428E+06    -200.050E+03    -16.4467E-03     32.0601E-03    -15.6134E-03     59.0548E-03    -16.4437E-03     31.9436E-03    -15.6026E-03     59.0156E-03
             497     14.1770E-03     67.5754E-03    -3.50005E+06    -20.3740E+06    -11.1757E+06     3.41344E+03    -16.5314E-03     32.1081E-03    -15.5767E-03     63.9872E-03    -16.5822E-03     32.1065E-03    -15.5980E-03     63.9453E-03
             498     15.0633E-03     67.6420E-03    -4.33183E+06     19.4862E+06    -12.6144E+06     253.613E+03    -17.7153E-03     33.2171E-03    -15.5018E-03     98.8523E-03    -18.0199E-03     33.6121E-03    -15.5868E-03     98.8344E-03
             499     15.9506E-03     67.7586E-03    -4.82472E+06     84.7488E+06    -9.40450E+06     64.8093E+03    -21.2268E-03     36.6359E-03    -15.4091E-03     167.170E-03    -23.0926E-03     38.8128E-03    -15.5721E-03     167.728E-03
             500     16.8358E-03     67.9544E-03    -3.84673E+06     154.712E+06     48.6338E+06    -109.214E+03    -25.4843E-03     41.0716E-03    -15.5873E-03     239.975E-03    -31.3543E-03     47.3362E-03    -15.5629E-03     244.275E-03
             501     886.039E-06     68.1174E-03    -14.2829E+06    -66.9087E+06    -14.0115E+06    -83.6232E+03    -15.6770E-03     31.3507E-03    -15.6737E-03     3.53541E-03    -15.6311E-03     31.0573E-03    -15.6260E-03     3.53381E-03
             502     1.77210E-03     68.1220E-03    -13.6087E+06    -65.5096E+06    -12.1395E+06    -228.115E+03    -15.6735E-03     31.3523E-03    -15.6788E-03     6.54505E-03    -15.6290E-03     31.0622E-03    -15.6248E-03     6.54114E-03
             503     2.65815E-03     68.1296E-03    -12.5181E+06    -63.3421E+06    -9.54072E+06    -285.086E+03    -15.6777E-03     31.3610E-03    -15.6833E-03     9.79590E-03    -15.6348E-03     31.0764E-03    -15.6210E-03     9.79075E-03
             504     3.54423E-03     68.1402E-03    -11.3947E+06    -60.6764E+06    -6.61016E+06    -23.3166E+03    -15.6941E-03     31.3834E-03    -15.6893E-03     13.1680E-03    -15.6538E-03     31.1064E-03    -15.6179E-03     13.1656E-03
             505     4.43025E-03     68.1541E-03    -10.8098E+06    -63.0765E+06    -4.09767E+06    -61.8711E+03    -15.7323E-03     31.4357E-03    -15.7034E-03     16.6547E-03    -15.6895E-03     31.1425E-03    -15.6167E-03     16.6512E-03
             506     5.31631E-03     68.1712E-03    -10.4848E+06    -63.6944E+06    -3.73394E+06    -68.7747E+03    -15.7666E-03     31.4721E-03    -15.7055E-03     20.3284E-03    -15.7221E-03     31.1751E-03    -15.6166E-03     20.3241E-03
             507     6.20237E-03     68.1918E-03    -9.71143E+06    -62.4310E+06    -3.73581E+06    -180.276E+03    -15.8033E-03     31.5049E-03    -15.7016E-03     24.1910E-03    -15.7572E-03     31.2136E-03    -15.6157E-03     24.1844E-03
             508     7.08847E-03     68.2161E-03    -8.19880E+06    -62.9277E+06    -2.56409E+06    -1.35370E+06    -15.8578E-03     31.5622E-03    -15.7044E-03     28.2136E-03    -15.8058E-03     31.2651E-03    -15.6141E-03     28.1907E-03
             509     7.97449E-03     68.2442E-03    -7.31699E+06    -62.4830E+06    -1.45466E+06    -1.58586E+06    -15.9273E-03     31.6339E-03    -15.7066E-03     32.3776E-03    -15.8741E-03     31.3371E-03    -15.6126E-03     32.3501E-03
             510     8.86065E-03     68.2761E-03    -7.01275E+06    -59.8733E+06    -716.175E+03    -477.963E+03    -16.0004E-03     31.7055E-03    -15.7051E-03     36.6350E-03    -15.9521E-03     31.4219E-03    -15.6117E-03     36.6195E-03
             511     9.74658E-03     68.3122E-03    -5.89434E+06    -59.5671E+06    -191.799E+03    -180.598E+03    -16.0944E-03     31.7998E-03    -15.7054E-03     40.9138E-03    -16.0442E-03     31.5178E-03    -15.6114E-03     40.8991E-03
             512     10.6328E-03     68.3521E-03    -4.84824E+06    -56.3085E+06    -3.90395E+06    -226.315E+03    -16.1772E-03     31.8572E-03    -15.6799E-03     45.2375E-03    -16.1251E-03     31.5993E-03    -15.6108E-03     45.2181E-03
             513     11.5187E-03     68.3961E-03    -4.51403E+06    -44.3421E+06    -1.91232E+06    -184.619E+03    -16.1934E-03     31.8618E-03    -15.6684E-03     49.6843E-03    -16.1660E-03     31.6666E-03    -15.6072E-03     49.6602E-03
             514     12.4052E-03     68.4443E-03    -3.81715E+06    -37.5482E+06    -410.553E+03    -438.828E+03    -16.3394E-03     31.9979E-03    -15.6584E-03     56.6594E-03    -16.3327E-03     31.8455E-03    -15.6005E-03     56.6250E-03
             515     13.2910E-03     68.5012E-03    -3.42114E+06    -35.9529E+06    -9.12268E+06    -637.224E+03    -16.4068E-03     32.0122E-03    -15.6054E-03     59.0370E-03    -16.4040E-03     31.8961E-03    -15.5939E-03     58.9924E-03
             516     14.1772E-03     68.5539E-03    -3.79965E+06    -20.8664E+06    -11.2648E+06    -414.896E+03    -16.5831E-03     32.1527E-03    -15.5696E-03     64.0153E-03    -16.6351E-03     32.1497E-03    -15.5901E-03     63.9678E-03
             517     15.0637E-03     68.6194E-03    -4.18126E+06     19.3832E+06    -12.4381E+06     354.685E+03    -17.7799E-03     33.2803E-03    -15.5004E-03     97.8734E-03    -18.0805E-03     33.6709E-03    -15.5846E-03     97.8558E-03
             518     15.9495E-03     68.7367E-03    -4.90445E+06     84.5710E+06    -9.53277E+06     574.730E+03    -21.3826E-03     36.7960E-03    -15.4133E-03     167.287E-03    -23.2641E-03     38.9879E-03    -15.5765E-03     167.846E-03
             519     16.8353E-03     68.9343E-03    -3.84942E+06     154.772E+06     48.2916E+06     255.770E+03    -25.4515E-03     41.0430E-03    -15.5916E-03     240.268E-03    -31.3097E-03     47.2970E-03    -15.5689E-03     244.586E-03
             520     886.047E-06     69.0956E-03    -14.5582E+06    -66.6344E+06    -14.2146E+06    -244.236E+03    -15.6937E-03     31.3503E-03    -15.6565E-03     3.53727E-03    -15.6493E-03     31.0589E-03    -15.6099E-03     3.53359E-03
             521     1.77209E-03     69.1002E-03    -13.9151E+06    -65.1885E+06    -12.3017E+06    -316.705E+03    -15.6769E-03     31.3568E-03    -15.6799E-03     6.54209E-03    -15.6342E-03     31.0690E-03    -15.6267E-03     6.53704E-03
             522     2.65815E-03     69.1078E-03    -13.0241E+06    -63.1783E+06    -9.86822E+06    -407.467E+03    -15.6818E-03     31.3672E-03    -15.6854E-03     9.79897E-03    -15.6412E-03     31.0846E-03    -15.6242E-03     9.79224E-03
             523     3.54419E-03     69.1184E-03    -11.7275E+06    -61.1144E+06    -7.73314E+06    -227.156E+03    -15.6924E-03     31.3803E-03    -15.6879E-03     13.1809E-03    -15.6516E-03     31.1033E-03    -15.6209E-03     13.1759E-03
             524     4.43028E-03     69.1323E-03    -9.98796E+06    -62.9234E+06    -4.62116E+06     100.502E+03    -15.7258E-03     31.4263E-03    -15.7005E-03     16.6722E-03    -15.6783E-03     31.1334E-03    -15.6179E-03     16.6708E-03
             525     5.31633E-03     69.1494E-03    -8.47317E+06    -64.0357E+06    -2.25600E+06     298.781E+03    -15.7701E-03     31.4800E-03    -15.7100E-03     20.3274E-03    -15.7172E-03     31.1763E-03    -15.6161E-03     20.3279E-03
             526     6.20241E-03     69.1700E-03    -7.16590E+06    -61.0150E+06    -1.44886E+06    -582.202E+03    -15.8082E-03     31.5145E-03    -15.7064E-03     24.1882E-03    -15.7547E-03     31.2232E-03    -15.6147E-03     24.1764E-03
             527     7.08844E-03     69.1943E-03    -6.44947E+06    -61.6928E+06    -415.756E+03    -1.58239E+06    -15.8659E-03     31.5760E-03    -15.7101E-03     28.2013E-03    -15.8101E-03     31.2794E-03    -15.6133E-03     28.1754E-03
             528     7.97457E-03     69.2224E-03    -6.40782E+06    -63.8726E+06     343.653E+03    -761.110E+03    -15.9340E-03     31.6501E-03    -15.7160E-03     32.3480E-03    -15.8769E-03     31.3425E-03    -15.6124E-03     32.3311E-03
             529     8.86053E-03     69.2544E-03    -6.08486E+06    -59.9041E+06     466.733E+03    -409.290E+03    -15.9974E-03     31.7069E-03    -15.7095E-03     36.6251E-03    -15.9462E-03     31.4200E-03    -15.6114E-03     36.6106E-03
             530     9.74673E-03     69.2904E-03    -5.30864E+06    -59.1502E+06     396.157E+03    -991.159E+03    -16.0732E-03     31.7785E-03    -15.7053E-03     40.9082E-03    -16.0216E-03     31.4969E-03    -15.6099E-03     40.8831E-03
             531     10.6327E-03     69.3303E-03    -4.45050E+06    -56.7704E+06    -3.71595E+06    -827.073E+03    -16.1535E-03     31.8312E-03    -15.6776E-03     45.1871E-03    -16.0990E-03     31.5701E-03    -15.6074E-03     45.1600E-03
             532     11.5190E-03     69.3743E-03    -3.53295E+06    -44.0006E+06    -1.55877E+06    -658.054E+03    -16.2205E-03     31.8856E-03    -15.6651E-03     49.6227E-03    -16.1893E-03     31.6902E-03    -15.6040E-03     49.5925E-03
             533     12.4048E-03     69.4224E-03    -2.94019E+06    -37.1382E+06    -129.004E+03    -924.518E+03    -16.3786E-03     32.0359E-03    -15.6574E-03     56.5136E-03    -16.3685E-03     31.8839E-03    -15.5999E-03     56.4728E-03
             534     13.2913E-03     69.4794E-03    -3.41689E+06    -36.8239E+06    -9.43704E+06    -303.923E+03    -16.4197E-03     32.0263E-03    -15.6066E-03     58.6943E-03    -16.4151E-03     31.9063E-03    -15.5954E-03     58.6538E-03
             535     14.1776E-03     69.5316E-03    -5.47951E+06    -20.2618E+06    -11.7050E+06     86.4645E+03    -16.5982E-03     32.1699E-03    -15.5717E-03     63.9831E-03    -16.6586E-03     32.1729E-03    -15.5929E-03     63.9419E-03
             536     15.0625E-03     69.5990E-03    -6.00575E+06     19.5970E+06    -12.7072E+06    -612.186E+03    -18.0127E-03     33.5244E-03    -15.5117E-03     97.9386E-03    -18.3250E-03     33.9218E-03    -15.5949E-03     97.9066E-03
             537     15.9494E-03     69.7132E-03    -4.53898E+06     83.4895E+06    -10.5808E+06     308.126E+03    -21.3125E-03     36.7356E-03    -15.4230E-03     167.592E-03    -23.1939E-03     38.9279E-03    -15.5904E-03     168.157E-03
             538     16.8365E-03     69.9142E-03    -3.32808E+06     154.807E+06     46.8894E+06     1.06552E+06    -25.1327E-03     40.7184E-03    -15.5857E-03     240.327E-03    -30.9736E-03     46.9610E-03    -15.5709E-03     244.668E-03
             539     886.043E-06     70.0738E-03    -14.7276E+06    -66.1791E+06    -14.2980E+06    -232.802E+03    -15.6937E-03     31.3521E-03    -15.6585E-03     3.53366E-03    -15.6506E-03     31.0634E-03    -15.6126E-03     3.53013E-03
             540     1.77208E-03     70.0784E-03    -14.1815E+06    -64.9626E+06    -12.6840E+06    -319.680E+03    -15.6802E-03     31.3608E-03    -15.6805E-03     6.54325E-03    -15.6386E-03     31.0750E-03    -15.6292E-03     6.53815E-03
             541     2.65813E-03     70.0860E-03    -13.2633E+06    -62.7968E+06    -10.5632E+06    -468.442E+03    -15.6827E-03     31.3672E-03    -15.6845E-03     9.80540E-03    -15.6428E-03     31.0879E-03    -15.6270E-03     9.79788E-03
             542     3.54420E-03     70.0966E-03    -11.9315E+06    -60.9131E+06    -8.10511E+06    -875.823E+03    -15.6899E-03     31.3781E-03    -15.6882E-03     13.1847E-03    -15.6499E-03     31.1029E-03    -15.6231E-03     13.1714E-03
             543     4.43026E-03     70.1104E-03    -10.2855E+06    -63.3765E+06    -5.10067E+06    -736.761E+03    -15.7231E-03     31.4235E-03    -15.7004E-03     16.6784E-03    -15.6758E-03     31.1295E-03    -15.6191E-03     16.6662E-03
             544     5.31633E-03     70.1276E-03    -8.07032E+06    -63.7963E+06    -2.18606E+06    -684.172E+03    -15.7684E-03     31.4784E-03    -15.7100E-03     20.3330E-03    -15.7139E-03     31.1751E-03    -15.6167E-03     20.3208E-03
             545     6.20236E-03     70.1482E-03    -6.25555E+06    -59.8358E+06    -299.758E+03    -1.00869E+06    -15.8109E-03     31.5203E-03    -15.7094E-03     24.1878E-03    -15.7563E-03     31.2320E-03    -15.6151E-03     24.1705E-03
             546     7.08849E-03     70.1725E-03    -6.09298E+06    -62.1235E+06     927.130E+03    -348.679E+03    -15.8741E-03     31.5918E-03    -15.7178E-03     28.1772E-03    -15.8178E-03     31.2907E-03    -15.6142E-03     28.1672E-03
             547     7.97445E-03     70.2005E-03    -6.19845E+06    -64.3452E+06     1.04944E+06    -124.840E+03    -15.9373E-03     31.6587E-03    -15.7213E-03     32.3235E-03    -15.8795E-03     31.3474E-03    -15.6138E-03     32.3148E-03
             548     8.86064E-03     70.2326E-03    -5.23722E+06    -58.9296E+06     604.013E+03    -846.823E+03    -15.9919E-03     31.7004E-03    -15.7085E-03     36.6274E-03    -15.9380E-03     31.4170E-03    -15.6125E-03     36.6072E-03
             549     9.74660E-03     70.2686E-03    -4.17068E+06    -58.7767E+06     669.130E+03    -1.30029E+06    -16.0688E-03     31.7735E-03    -15.7047E-03     40.8657E-03    -16.0124E-03     31.4917E-03    -15.6101E-03     40.8366E-03
             550     10.6328E-03     70.3085E-03    -3.49632E+06    -56.8789E+06    -3.39694E+06    -1.54702E+06    -16.1694E-03     31.8477E-03    -15.6783E-03     45.1352E-03    -16.1104E-03     31.5842E-03    -15.6078E-03     45.0988E-03
             551     11.5188E-03     70.3524E-03    -2.98096E+06    -44.2279E+06    -1.57846E+06    -1.25098E+06    -16.2581E-03     31.9248E-03    -15.6667E-03     49.6118E-03    -16.2239E-03     31.7275E-03    -15.6061E-03     49.5738E-03
             552     12.4050E-03     70.4008E-03    -3.32935E+06     -37.502E+06     621.142E+03    -254.235E+03    -16.4223E-03     32.0895E-03    -15.6671E-03     56.4525E-03    -16.4148E-03     31.9352E-03    -15.6048E-03     56.4202E-03
             553     13.2908E-03     70.4573E-03    -4.30501E+06    -37.8677E+06    -8.98264E+06     412.817E+03    -16.5559E-03     32.1783E-03    -15.6224E-03     58.7467E-03    -16.5554E-03     32.0541E-03    -15.6061E-03     58.7149E-03
             554     14.1764E-03     70.5102E-03    -3.85015E+06    -19.9702E+06    -10.7669E+06     516.021E+03    -16.4336E-03     32.0168E-03    -15.5831E-03     63.8629E-03    -16.4870E-03     32.0168E-03    -15.6024E-03     63.8281E-03
             555     15.0642E-03     70.5764E-03    -4.50244E+06     20.8151E+06    -12.0595E+06    -15.0628E+03    -17.9050E-03     33.4153E-03    -15.5103E-03     98.6016E-03    -18.2148E-03     33.8179E-03    -15.5942E-03     98.5777E-03
             556     15.9488E-03     70.6935E-03    -6.59934E+06     82.3827E+06    -11.8608E+06    -574.755E+03    -21.5930E-03     37.0185E-03    -15.4255E-03     167.270E-03    -23.4742E-03     39.2031E-03    -15.5947E-03     167.820E-03
             557     16.8351E-03     70.8892E-03    -4.65995E+06     154.149E+06     46.2052E+06     87.2641E+03    -25.0321E-03     40.6290E-03    -15.5969E-03     240.052E-03    -30.9004E-03     46.8940E-03    -15.5826E-03     244.396E-03
             558     886.033E-06     71.0520E-03    -14.7932E+06    -65.7524E+06    -14.5360E+06    -189.626E+03    -15.6792E-03     31.3591E-03    -15.6799E-03     3.52040E-03    -15.6367E-03     31.0729E-03    -15.6358E-03     3.51744E-03
             559     1.77209E-03     71.0566E-03    -14.2574E+06    -64.6117E+06    -12.9510E+06    -392.626E+03    -15.6785E-03     31.3607E-03    -15.6823E-03     6.54521E-03    -15.6374E-03     31.0772E-03    -15.6326E-03     6.53918E-03
             560     2.65813E-03     71.0642E-03    -13.3156E+06    -62.2509E+06    -10.6890E+06    -690.178E+03    -15.6813E-03     31.3663E-03    -15.6850E-03     9.80402E-03    -15.6423E-03     31.0900E-03    -15.6289E-03     9.79364E-03
             561     3.54419E-03     71.0748E-03    -12.3848E+06    -60.1382E+06    -8.00318E+06    -1.04749E+06    -15.6921E-03     31.3823E-03    -15.6902E-03     13.1849E-03    -15.6556E-03     31.1115E-03    -15.6250E-03     13.1693E-03
             562     4.43024E-03     71.0887E-03    -11.2645E+06    -63.4970E+06    -5.57432E+06    -1.28524E+06    -15.7246E-03     31.4269E-03    -15.7024E-03     16.6796E-03    -15.6813E-03     31.1344E-03    -15.6219E-03     16.6604E-03
             563     5.31631E-03     71.1058E-03    -9.96006E+06    -62.8030E+06    -4.31254E+06    -1.78612E+06    -15.7565E-03     31.4596E-03    -15.7031E-03     20.3570E-03    -15.7098E-03     31.1671E-03    -15.6191E-03     20.3306E-03
             564     6.20241E-03     71.1265E-03    -8.63472E+06    -60.3429E+06    -2.27410E+06    -1.47375E+06    -15.8043E-03     31.5099E-03    -15.7056E-03     24.2003E-03    -15.7580E-03     31.2253E-03    -15.6170E-03     24.1770E-03
             565     7.08841E-03     71.1507E-03    -6.97328E+06    -63.6170E+06     313.710E+03    -54.9124E+03    -15.8741E-03     31.5940E-03    -15.7200E-03     28.1681E-03    -15.8191E-03     31.2876E-03    -15.6160E-03     28.1619E-03
             566     7.97455E-03     71.1788E-03    -5.42381E+06    -63.0236E+06     1.33877E+06    -153.141E+03    -15.9393E-03     31.6608E-03    -15.7215E-03     32.3167E-03    -15.8800E-03     31.3546E-03    -15.6155E-03     32.3076E-03
             567     8.86050E-03     71.2107E-03    -4.45775E+06    -57.9445E+06     491.380E+03    -1.41614E+06    -15.9880E-03     31.6947E-03    -15.7067E-03     36.6216E-03    -15.9315E-03     31.4152E-03    -15.6138E-03     36.5940E-03
             568     9.74671E-03     71.2469E-03    -3.78536E+06    -58.7531E+06    -136.954E+03    -1.59423E+06    -16.0741E-03     31.7751E-03    -15.7010E-03     40.8760E-03    -16.0146E-03     31.4941E-03    -15.6110E-03     40.8431E-03
             569     10.6327E-03     71.2866E-03    -3.92666E+06    -56.5665E+06    -3.83767E+06    -1.42136E+06    -16.2032E-03     31.8819E-03    -15.6787E-03     45.1714E-03    -16.1462E-03     31.6212E-03    -15.6101E-03     45.1365E-03
             570     11.5188E-03     71.3308E-03     -4.5981E+06    -44.9901E+06    -2.72168E+06    -1.15256E+06    -16.2440E-03     31.9117E-03    -15.6676E-03     49.6388E-03    -16.2150E-03     31.7145E-03    -15.6093E-03     49.6022E-03
             571     12.4048E-03     71.3788E-03    -4.16509E+06    -38.9652E+06    -647.071E+03    -73.6080E+03    -16.4132E-03     32.0795E-03    -15.6663E-03     56.5825E-03    -16.4059E-03     31.9210E-03    -15.6070E-03     56.5526E-03
             572     13.2910E-03     71.4359E-03    -3.34097E+06    -37.6140E+06    -9.35592E+06     309.106E+03    -16.5279E-03     32.1469E-03    -15.6190E-03     59.0787E-03    -16.5223E-03     32.0230E-03    -15.6063E-03     59.0458E-03
             573     14.1772E-03     71.4885E-03    -3.43703E+06    -20.1552E+06    -11.6563E+06     163.569E+03    -16.6291E-03     32.2123E-03    -15.5832E-03     63.6872E-03    -16.6794E-03     32.2127E-03    -15.6073E-03     63.6469E-03
             574     15.0628E-03     71.5534E-03    -3.85928E+06     21.0816E+06    -11.3648E+06     659.923E+03    -17.8980E-03     33.4208E-03    -15.5228E-03     98.4427E-03    -18.2060E-03     33.8229E-03    -15.6046E-03     98.4280E-03
             575     15.9500E-03     71.6736E-03    -4.33677E+06     82.8226E+06    -12.3036E+06     411.801E+03    -21.3268E-03     36.7482E-03    -15.4214E-03     167.341E-03    -23.1927E-03     38.9284E-03    -15.5967E-03     167.907E-03
             576     16.8349E-03     71.8675E-03    -3.79198E+06     153.795E+06     45.2258E+06    -174.578E+03    -25.2195E-03     40.8096E-03    -15.5901E-03     240.124E-03    -31.0955E-03     47.0869E-03    -15.5815E-03     244.460E-03
             577     886.032E-06     72.0302E-03    -14.9740E+06    -65.2655E+06    -14.7050E+06    -294.962E+03    -15.6712E-03     31.3630E-03    -15.6919E-03     3.51996E-03    -15.6301E-03     31.0799E-03    -15.6491E-03     3.51564E-03
             578     1.77206E-03     72.0348E-03    -14.3395E+06    -64.0523E+06    -12.9207E+06    -536.842E+03    -15.6775E-03     31.3620E-03    -15.6844E-03     6.55048E-03    -15.6377E-03     31.0813E-03    -15.6354E-03     6.54258E-03
             579     2.65813E-03     72.0423E-03    -13.5010E+06    -61.7098E+06    -10.6165E+06    -752.935E+03    -15.6817E-03     31.3687E-03    -15.6870E-03     9.80268E-03    -15.6446E-03     31.0954E-03    -15.6310E-03     9.79149E-03
             580     3.54418E-03     72.0530E-03    -12.5475E+06     -59.593E+06    -8.23767E+06    -880.792E+03    -15.6931E-03     31.3837E-03    -15.6906E-03     13.1857E-03    -15.6578E-03     31.1162E-03    -15.6272E-03     13.1723E-03
             581     4.43024E-03     72.0668E-03    -11.5255E+06    -62.7170E+06    -5.56798E+06    -1.33122E+06    -15.7265E-03     31.4305E-03    -15.7040E-03     16.6773E-03    -15.6857E-03     31.1423E-03    -15.6242E-03     16.6574E-03
             582     5.31630E-03     72.0840E-03    -10.6960E+06    -61.9490E+06    -4.57517E+06    -1.75162E+06    -15.7576E-03     31.4620E-03    -15.7044E-03     20.3560E-03    -15.7155E-03     31.1753E-03    -15.6220E-03     20.3300E-03
             583     6.20234E-03     72.1046E-03    -10.1112E+06    -61.0522E+06    -4.10347E+06    -1.60386E+06    -15.7969E-03     31.4992E-03    -15.7022E-03     24.2100E-03    -15.7543E-03     31.2158E-03    -15.6196E-03     24.1851E-03
             584     7.08844E-03     72.1290E-03    -8.76924E+06    -64.4058E+06    -2.30521E+06    -1.36021E+06    -15.8625E-03     31.5747E-03    -15.7122E-03     28.1960E-03    -15.8116E-03     31.2707E-03    -15.6176E-03     28.1730E-03
             585     7.97444E-03     72.1570E-03    -6.34658E+06    -61.8210E+06    -749.901E+03    -1.59194E+06    -15.9248E-03     31.6357E-03    -15.7110E-03     32.3674E-03    -15.8687E-03     31.3399E-03    -15.6159E-03     32.3398E-03
             586     8.86059E-03     72.1891E-03    -4.64165E+06    -57.3271E+06    -310.198E+03    -1.74416E+06    -15.9883E-03     31.6900E-03    -15.7018E-03     36.6290E-03    -15.9324E-03     31.4151E-03    -15.6135E-03     36.5972E-03
             587     9.74663E-03     72.2249E-03    -4.54085E+06    -59.3143E+06    -702.004E+03    -1.29276E+06    -16.0833E-03     31.7837E-03    -15.7004E-03     40.8959E-03    -16.0260E-03     31.5017E-03    -15.6113E-03     40.8668E-03
             588     10.6327E-03     72.2651E-03    -4.94265E+06    -56.3910E+06    -4.73561E+06    -809.379E+03    -16.1902E-03     31.8659E-03    -15.6757E-03     45.2310E-03    -16.1372E-03     31.6089E-03    -15.6104E-03     45.2041E-03
             589     11.5187E-03     72.3088E-03    -5.03235E+06    -45.2430E+06    -3.25276E+06    -827.346E+03    -16.2386E-03     31.9043E-03    -15.6657E-03     49.6309E-03    -16.2107E-03     31.7073E-03    -15.6090E-03     49.5985E-03
             590     12.4050E-03     72.3571E-03    -4.55629E+06    -39.7234E+06    -1.90960E+06    -969.003E+03    -16.4019E-03     32.0626E-03    -15.6607E-03     56.6497E-03    -16.3937E-03     31.9027E-03    -15.6061E-03     56.6082E-03
             591     13.2909E-03     72.4141E-03    -3.81268E+06    -37.3542E+06    -10.0011E+06    -857.306E+03    -16.5003E-03     32.1143E-03    -15.6140E-03     58.8854E-03    -16.4961E-03     31.9930E-03    -15.6043E-03     58.8377E-03
             592     14.1772E-03     72.4664E-03    -3.16942E+06    -20.7478E+06    -12.0347E+06    -125.039E+03    -16.8465E-03     32.4319E-03    -15.5854E-03     63.9222E-03    -16.8950E-03     32.4304E-03    -15.6109E-03     63.8773E-03
             593     15.0624E-03     72.5334E-03    -2.90172E+06     19.5880E+06    -12.2541E+06     314.113E+03    -17.7907E-03     33.3167E-03    -15.5260E-03     98.4059E-03    -18.0892E-03     33.7100E-03    -15.6115E-03     98.3885E-03
             594     15.9486E-03     72.6489E-03    -3.88330E+06     83.3135E+06    -9.95794E+06     1.10607E+06    -21.0318E-03     36.4562E-03    -15.4244E-03     168.243E-03    -22.9055E-03     38.6407E-03    -15.5893E-03     168.824E-03
             595     16.8370E-03     72.8478E-03    -3.21607E+06     155.056E+06     46.9173E+06     907.072E+03    -25.3128E-03     40.8937E-03    -15.5808E-03     240.092E-03    -31.1636E-03     47.1474E-03    -15.5664E-03     244.432E-03
             596     886.029E-06     73.0084E-03    -15.1658E+06    -64.6261E+06    -14.7285E+06    -321.918E+03    -15.6780E-03     31.3579E-03    -15.6799E-03     3.52360E-03    -15.6388E-03     31.0783E-03    -15.6379E-03     3.51893E-03
             597     1.77209E-03     73.0130E-03    -14.6030E+06    -63.4563E+06    -13.0580E+06    -592.375E+03    -15.6818E-03     31.3654E-03    -15.6835E-03     6.55318E-03    -15.6440E-03     31.0883E-03    -15.6356E-03     6.54456E-03
             598     2.65810E-03     73.0206E-03    -13.7209E+06    -61.2782E+06    -10.9297E+06    -743.786E+03    -15.6840E-03     31.3711E-03    -15.6872E-03     9.80437E-03    -15.6481E-03     31.1007E-03    -15.6331E-03     9.79329E-03
             599     3.54418E-03     73.0312E-03    -12.6626E+06    -59.1616E+06    -8.52151E+06    -907.927E+03    -15.6921E-03     31.3828E-03    -15.6907E-03     13.1854E-03    -15.6576E-03     31.1180E-03    -15.6292E-03     13.1717E-03
             600     4.43023E-03     73.0451E-03    -11.6827E+06    -61.9718E+06    -5.73605E+06    -1.05382E+06    -15.7261E-03     31.4301E-03    -15.7040E-03     16.6782E-03    -15.6869E-03     31.1461E-03    -15.6259E-03     16.6620E-03
             601     5.31627E-03     73.0622E-03    -11.0403E+06    -61.4499E+06    -4.84503E+06    -1.23431E+06    -15.7570E-03     31.4614E-03    -15.7044E-03     20.3585E-03    -15.7169E-03     31.1781E-03    -15.6236E-03     20.3392E-03
             602     6.20236E-03     73.0828E-03    -10.2999E+06    -60.7992E+06    -4.94000E+06    -1.55016E+06    -15.7895E-03     31.4884E-03    -15.6989E-03     24.2205E-03    -15.7470E-03     31.2078E-03    -15.6205E-03     24.1962E-03
             603     7.08841E-03     73.1071E-03    -9.06403E+06    -63.3926E+06    -3.93363E+06    -2.51817E+06    -15.8459E-03     31.5483E-03    -15.7024E-03     28.2391E-03    -15.7956E-03     31.2521E-03    -15.6170E-03     28.2011E-03
             604     7.97454E-03     73.1352E-03    -7.80938E+06    -61.4242E+06    -2.85284E+06    -3.10242E+06    -15.9094E-03     31.6093E-03    -15.6999E-03     32.4084E-03    -15.8582E-03     31.3206E-03    -15.6138E-03     32.3614E-03
             605     8.86059E-03     73.1671E-03    -7.01207E+06    -58.2664E+06    -1.69188E+06    -1.99337E+06    -15.9926E-03     31.6904E-03    -15.6978E-03     36.6508E-03    -15.9453E-03     31.4162E-03    -15.6116E-03     36.6158E-03
             606     9.74665E-03     73.2033E-03    -6.37206E+06    -59.5827E+06    -1.10770E+06    -1.06005E+06    -16.0870E-03     31.7878E-03    -15.7008E-03     40.8949E-03    -16.0379E-03     31.5077E-03    -15.6107E-03     40.8689E-03
             607     10.6327E-03     73.2430E-03    -5.73756E+06    -56.5714E+06    -5.41557E+06    -927.330E+03    -16.1625E-03     31.8352E-03    -15.6727E-03     45.2192E-03    -16.1122E-03     31.5794E-03    -15.6094E-03     45.1908E-03
             608     11.5189E-03     73.2873E-03    -5.21549E+06    -44.7340E+06    -3.34768E+06    -1.03848E+06    -16.2539E-03     31.9173E-03    -15.6634E-03     49.6414E-03    -16.2276E-03     31.7234E-03    -15.6077E-03     49.6062E-03
             609     12.4047E-03     73.3351E-03    -4.55527E+06    -39.4028E+06    -1.98792E+06    -1.61087E+06    -16.4101E-03     32.0697E-03    -15.6596E-03     56.6036E-03    -16.4022E-03     31.9115E-03    -15.6058E-03     56.5538E-03
             610     13.2910E-03     73.3925E-03    -4.36949E+06    -37.8413E+06    -11.1520E+06    -1.38814E+06    -16.4633E-03     32.0719E-03    -15.6085E-03     59.1278E-03    -16.4596E-03     31.9506E-03    -15.6031E-03     59.0734E-03
             611     14.1766E-03     73.4448E-03    -5.62270E+06    -21.7404E+06    -13.8546E+06    -649.245E+03    -16.6095E-03     32.1804E-03    -15.5710E-03     64.7298E-03    -16.6656E-03     32.1796E-03    -15.6006E-03     64.6794E-03
             612     15.0633E-03     73.5120E-03    -5.66330E+06     18.9178E+06    -14.1890E+06    -548.214E+03    -18.2139E-03     33.7317E-03    -15.5177E-03     97.7953E-03    -18.5259E-03     34.1318E-03    -15.6079E-03     97.7629E-03
             613     15.9510E-03     73.6256E-03    -5.51765E+06     83.9728E+06    -9.87600E+06     573.138E+03    -20.8368E-03     36.2718E-03    -15.4350E-03     166.497E-03    -22.6934E-03     38.4356E-03    -15.5982E-03     167.075E-03
             614     16.8346E-03     73.8283E-03    -4.44759E+06     155.082E+06     46.2394E+06     994.432E+03    -24.7769E-03     40.3440E-03    -15.5671E-03     241.702E-03    -30.6972E-03     46.6651E-03    -15.5544E-03     246.071E-03
             615     886.052E-06     73.9866E-03    -15.3522E+06    -64.0241E+06    -15.0583E+06    -299.538E+03    -15.6820E-03     31.3537E-03    -15.6717E-03     3.51844E-03    -15.6441E-03     31.0778E-03    -15.6319E-03     3.51406E-03
             616     1.77206E-03     73.9912E-03    -14.8833E+06    -62.8023E+06    -13.4015E+06    -551.639E+03    -15.6823E-03     31.3638E-03    -15.6815E-03     6.55221E-03    -15.6463E-03     31.0908E-03    -15.6358E-03     6.54412E-03
             617     2.65813E-03     73.9988E-03    -13.9833E+06    -60.7657E+06    -11.2034E+06    -874.282E+03    -15.6838E-03     31.3701E-03    -15.6863E-03     9.80695E-03    -15.6496E-03     31.1029E-03    -15.6339E-03     9.79419E-03
             618     3.54416E-03     74.0094E-03    -12.8841E+06    -58.7628E+06    -8.88507E+06    -1.00065E+06    -15.6920E-03     31.3816E-03    -15.6896E-03     13.1905E-03    -15.6586E-03     31.1196E-03    -15.6301E-03     13.1756E-03
             619     4.43023E-03     74.0232E-03    -11.6070E+06    -61.5929E+06    -6.30835E+06    -1.09308E+06    -15.7223E-03     31.4232E-03    -15.7010E-03     16.6867E-03    -15.6824E-03     31.1418E-03    -15.6264E-03     16.6699E-03
             620     5.31629E-03     74.0404E-03    -10.1595E+06    -61.0405E+06    -4.74332E+06    -1.18176E+06    -15.7532E-03     31.4557E-03    -15.7025E-03     20.3612E-03    -15.7095E-03     31.1730E-03    -15.6229E-03     20.3426E-03
             621     6.20236E-03     74.0610E-03    -8.89967E+06    -59.6574E+06    -3.84732E+06    -1.84867E+06    -15.7893E-03     31.4887E-03    -15.6994E-03     24.2156E-03    -15.7430E-03     31.2102E-03    -15.6192E-03     24.1875E-03
             622     7.08846E-03     74.0853E-03    -8.03185E+06    -61.6509E+06    -2.74294E+06    -2.94075E+06    -15.8452E-03     31.5480E-03    -15.7028E-03     28.2303E-03    -15.7940E-03     31.2573E-03    -15.6155E-03     28.1869E-03
             623     7.97453E-03     74.1133E-03    -7.89700E+06    -61.7963E+06    -2.08407E+06    -2.83099E+06    -15.9175E-03     31.6209E-03    -15.7035E-03     32.3808E-03    -15.8673E-03     31.3294E-03    -15.6128E-03     32.3373E-03
             624     8.86060E-03     74.1454E-03    -7.84353E+06    -59.4586E+06    -1.62389E+06    -1.93583E+06    -15.9957E-03     31.6967E-03    -15.7010E-03     36.6332E-03    -15.9509E-03     31.4177E-03    -15.6115E-03     36.5990E-03
             625     9.74668E-03     74.1813E-03    -6.76086E+06    -59.2046E+06    -1.10966E+06    -1.85016E+06    -16.0858E-03     31.7869E-03    -15.7011E-03     40.8711E-03    -16.0392E-03     31.5093E-03    -15.6110E-03     40.8348E-03
             626     10.6327E-03     74.2214E-03    -5.33904E+06    -56.8431E+06    -5.12488E+06    -1.86616E+06    -16.1795E-03     31.8545E-03    -15.6750E-03     45.1614E-03    -16.1273E-03     31.5964E-03    -15.6105E-03     45.1208E-03
             627     11.5188E-03     74.2652E-03    -4.21564E+06    -44.3893E+06    -3.12384E+06    -1.66125E+06    -16.2318E-03     31.8950E-03    -15.6632E-03     49.6903E-03    -16.2012E-03     31.7009E-03    -15.6083E-03     49.6471E-03
             628     12.4050E-03     74.3138E-03    -3.69789E+06    -38.5498E+06    -1.84986E+06    -1.94303E+06    -16.4031E-03     32.0602E-03    -15.6571E-03     56.5816E-03    -16.3924E-03     31.9049E-03    -15.6051E-03     56.5276E-03
             629     13.2910E-03     74.3700E-03    -4.07571E+06    -39.3311E+06    -12.0042E+06    -1.35443E+06    -16.4785E-03     32.0841E-03    -15.6055E-03     58.9116E-03    -16.4701E-03     31.9563E-03    -15.6026E-03     58.8574E-03
             630     14.1779E-03     74.4234E-03    -6.32626E+06     -22.071E+06    -14.0958E+06    -633.447E+03    -16.5764E-03     32.1477E-03    -15.5713E-03     63.9668E-03    -16.6346E-03     32.1460E-03    -15.6006E-03     63.9167E-03
             631     15.0638E-03     74.4895E-03    -7.86712E+06     18.6993E+06    -14.8447E+06     116.633E+03    -18.3059E-03     33.8244E-03    -15.5185E-03     98.8043E-03    -18.6284E-03     34.2283E-03    -15.6084E-03     98.7803E-03
             632     15.9442E-03     74.6084E-03    -4.70193E+06     83.1001E+06    -13.1707E+06     483.965E+03    -20.8797E-03     36.3055E-03    -15.4258E-03     165.170E-03    -22.7055E-03     38.4479E-03    -15.6053E-03     165.743E-03
             633     16.8397E-03     74.7948E-03    -2.71531E+06     155.542E+06     45.6852E+06     17.5279E+03    -24.9909E-03     40.5676E-03    -15.5767E-03     242.290E-03    -30.9998E-03     46.9868E-03    -15.5699E-03     246.634E-03
             634     886.018E-06     74.9648E-03    -15.9562E+06    -63.4241E+06    -15.5977E+06    -329.785E+03    -15.6724E-03     31.3494E-03    -15.6770E-03     3.53750E-03    -15.6376E-03     31.0781E-03    -15.6399E-03     3.53272E-03
             635     1.77209E-03     74.9694E-03    -15.2607E+06    -62.1019E+06    -13.8502E+06     -624.95E+03    -15.6780E-03     31.3569E-03    -15.6789E-03     6.55467E-03    -15.6442E-03     31.0887E-03    -15.6360E-03     6.54563E-03
             636     2.65810E-03     74.9770E-03    -14.3639E+06    -60.0584E+06    -11.5306E+06    -966.869E+03    -15.6812E-03     31.3650E-03    -15.6838E-03     9.80978E-03    -15.6494E-03     31.1024E-03    -15.6335E-03     9.79582E-03
             637     3.54418E-03     74.9876E-03    -13.0960E+06    -58.1766E+06    -9.26652E+06    -1.38465E+06    -15.6905E-03     31.3773E-03    -15.6868E-03     13.1924E-03    -15.6585E-03     31.1192E-03    -15.6298E-03     13.1725E-03
             638     4.43023E-03     75.0015E-03    -11.4292E+06    -61.0478E+06    -6.48984E+06    -1.73056E+06    -15.7208E-03     31.4194E-03    -15.6986E-03     16.6889E-03    -15.6806E-03     31.1407E-03    -15.6259E-03     16.6639E-03
             639     5.31630E-03     75.0185E-03    -9.61259E+06    -60.5580E+06    -4.51994E+06    -2.02497E+06    -15.7539E-03     31.4555E-03    -15.7015E-03     20.3604E-03    -15.7085E-03     31.1740E-03    -15.6224E-03     20.3309E-03
             640     6.20238E-03     75.0392E-03    -7.98233E+06    -58.4246E+06    -2.45591E+06    -2.37754E+06    -15.7984E-03     31.5016E-03    -15.7032E-03     24.1971E-03    -15.7514E-03     31.2260E-03    -15.6192E-03     24.1622E-03
             641     7.08844E-03     75.0634E-03    -7.42556E+06    -61.0116E+06    -585.498E+03    -2.31827E+06    -15.8653E-03     31.5789E-03    -15.7136E-03     28.1785E-03    -15.8150E-03     31.2874E-03    -15.6173E-03     28.1431E-03
             642     7.97450E-03     75.0916E-03    -7.55247E+06    -62.3287E+06    -647.491E+03    -1.83459E+06    -15.9328E-03     31.6474E-03    -15.7147E-03     32.3292E-03    -15.8822E-03     31.3507E-03    -15.6166E-03     32.2984E-03
             643     8.86056E-03     75.1235E-03    -6.86919E+06    -58.9622E+06    -1.06727E+06    -2.20857E+06    -15.9996E-03     31.7056E-03    -15.7059E-03     36.5986E-03    -15.9515E-03     31.4268E-03    -15.6158E-03     36.5609E-03
             644     9.74661E-03     75.1597E-03    -5.60512E+06    -58.6293E+06    -904.426E+03    -2.87999E+06    -16.0906E-03     31.7942E-03    -15.7036E-03     40.8423E-03    -16.0393E-03     31.5175E-03    -15.6150E-03     40.7927E-03
             645     10.6327E-03     75.1994E-03    -4.51069E+06    -56.8679E+06    -4.69538E+06    -2.99599E+06    -16.1932E-03     31.8733E-03    -15.6801E-03     45.1299E-03    -16.1375E-03     31.6133E-03    -15.6146E-03     45.0747E-03
             646     11.5187E-03     75.2436E-03    -3.79421E+06    -44.8332E+06    -2.98461E+06    -2.51270E+06    -16.2382E-03     31.9066E-03    -15.6684E-03     49.6163E-03    -16.2051E-03     31.7095E-03    -15.6128E-03     49.5621E-03
             647     12.4050E-03     75.2916E-03    -3.81672E+06    -38.6504E+06    -855.479E+03    -1.38003E+06    -16.4357E-03     32.1038E-03    -15.6681E-03     56.4359E-03    -16.4269E-03     31.9467E-03    -15.6108E-03     56.3890E-03
             648     13.2909E-03     75.3488E-03    -4.58998E+06    -39.8444E+06    -10.6475E+06    -953.930E+03    -16.6214E-03     32.2468E-03    -15.6254E-03     58.7897E-03    -16.6170E-03     32.1155E-03    -15.6142E-03     58.7401E-03
             649     14.1759E-03     75.4011E-03    -3.34431E+06    -22.5683E+06    -12.3456E+06    -764.966E+03    -16.7803E-03     32.3781E-03    -15.5977E-03     64.1656E-03    -16.8266E-03     32.3681E-03    -15.6219E-03     64.1125E-03
             650     15.0618E-03     75.4685E-03    -2.80581E+06     18.3845E+06    -12.9703E+06     457.976E+03    -17.3211E-03     32.8392E-03    -15.5181E-03     98.5710E-03    -17.6055E-03     33.2163E-03    -15.6055E-03     98.5580E-03
             651     15.9553E-03     75.5855E-03    -4.76681E+06     81.9762E+06    -12.3280E+06     40.1899E+03    -21.5810E-03     36.9994E-03    -15.4184E-03     165.471E-03    -23.4358E-03     39.1639E-03    -15.5919E-03     165.997E-03
             652     16.8302E-03     75.7769E-03    -4.16877E+06     155.710E+06     47.0561E+06    -561.975E+03    -25.9067E-03     41.5243E-03    -15.6176E-03     241.324E-03    -31.8793E-03     47.8987E-03    -15.6021E-03     245.645E-03
             653     886.057E-06     75.9430E-03    -15.8976E+06    -62.5894E+06    -15.6269E+06    -421.636E+03    -15.6665E-03     31.3480E-03    -15.6814E-03     3.54378E-03    -15.6326E-03     31.0808E-03    -15.6458E-03     3.53782E-03
             654     1.77205E-03     75.9476E-03    -15.3115E+06    -61.3896E+06    -13.8944E+06    -805.744E+03    -15.6757E-03     31.3536E-03    -15.6779E-03     6.55319E-03    -15.6432E-03     31.0891E-03    -15.6361E-03     6.54182E-03
             655     2.65813E-03     75.9552E-03    -14.2199E+06    -59.1815E+06    -11.5605E+06    -1.17927E+06    -15.6797E-03     31.3616E-03    -15.6819E-03     9.81059E-03    -15.6484E-03     31.1033E-03    -15.6333E-03     9.79390E-03
             656     3.54416E-03     75.9658E-03    -12.9919E+06    -57.0740E+06    -8.89532E+06    -1.80838E+06    -15.6909E-03     31.3778E-03    -15.6869E-03     13.1899E-03    -15.6606E-03     31.1245E-03    -15.6297E-03     13.1645E-03
             657     4.43024E-03     75.9796E-03    -11.5124E+06    -60.0706E+06    -6.04198E+06    -2.51444E+06    -15.7255E-03     31.4258E-03    -15.7004E-03     16.6842E-03    -15.6877E-03     31.1515E-03    -15.6268E-03     16.6491E-03
             658     5.31628E-03     75.9968E-03    -9.93773E+06    -59.9259E+06    -4.15374E+06    -2.84209E+06    -15.7644E-03     31.4698E-03    -15.7053E-03     20.3507E-03    -15.7221E-03     31.1914E-03    -15.6248E-03     20.3107E-03
             659     6.20235E-03     76.0174E-03    -8.81172E+06    -57.9619E+06    -2.36022E+06    -2.70739E+06    -15.8129E-03     31.5216E-03    -15.7087E-03     24.1843E-03    -15.7708E-03     31.2493E-03    -15.6237E-03     24.1450E-03
             660     7.08838E-03     76.0418E-03    -7.77458E+06    -61.6835E+06    -303.677E+03    -1.87884E+06    -15.8841E-03     31.6070E-03    -15.7229E-03     28.1451E-03    -15.8351E-03     31.3123E-03    -15.6237E-03     28.1153E-03
             661     7.97443E-03     76.0697E-03    -6.57081E+06    -61.9884E+06     62.3460E+03    -1.60746E+06    -15.9467E-03     31.6705E-03    -15.7238E-03     32.2990E-03    -15.8927E-03     31.3730E-03    -15.6241E-03     32.2711E-03
             662     8.86047E-03     76.1019E-03    -5.49368E+06    -57.0711E+06    -847.815E+03    -2.86157E+06    -16.0037E-03     31.7134E-03    -15.7096E-03     36.5922E-03    -15.9518E-03     31.4417E-03    -15.6231E-03     36.5459E-03
             663     9.74657E-03     76.1378E-03    -4.65955E+06    -58.4640E+06    -1.30576E+06    -3.47070E+06    -16.0956E-03     31.8023E-03    -15.7067E-03     40.8478E-03    -16.0393E-03     31.5257E-03    -15.6217E-03     40.7906E-03
             664     10.6326E-03     76.1778E-03    -4.72083E+06     -56.681E+06    -5.08524E+06    -3.15107E+06    -16.1992E-03     31.8838E-03    -15.6846E-03     45.1092E-03    -16.1442E-03     31.6256E-03    -15.6210E-03     45.0520E-03
             665     11.5187E-03     76.2216E-03    -5.09111E+06    -45.4668E+06    -3.89340E+06    -2.73866E+06    -16.3076E-03     31.9832E-03    -15.6756E-03     49.6138E-03    -16.2788E-03     31.7862E-03    -15.6218E-03     49.5565E-03
             666     12.4045E-03     76.2702E-03    -4.48929E+06    -40.1368E+06    -2.09243E+06    -1.62445E+06    -16.4783E-03     32.1558E-03    -15.6775E-03     56.4812E-03    -16.4688E-03     31.9939E-03    -15.6233E-03     56.4312E-03
             667     13.2906E-03     76.3268E-03    -3.43033E+06    -39.1907E+06    -10.6618E+06    -1.16759E+06    -16.5513E-03     32.1843E-03    -15.6330E-03     59.0408E-03    -16.5419E-03     32.0546E-03    -15.6245E-03     58.9887E-03
             668     14.1774E-03     76.3801E-03    -2.75407E+06    -23.0445E+06    -13.0160E+06    -1.27922E+06    -16.6751E-03     32.2726E-03    -15.5975E-03     64.5990E-03    -16.7163E-03     32.2600E-03    -15.6252E-03     64.5398E-03
             669     15.0635E-03     76.4465E-03    -2.85750E+06     17.6958E+06    -12.8341E+06    -1.03492E+06    -17.5776E-03     33.1069E-03    -15.5294E-03     97.0086E-03    -17.8583E-03     33.4775E-03    -15.6151E-03     96.9715E-03
             670     15.9457E-03     76.5593E-03    -4.72941E+06     81.9530E+06    -12.3839E+06    -76.6625E+03    -21.4197E-03     36.8456E-03    -15.4259E-03     167.624E-03    -23.3219E-03     39.0579E-03    -15.5998E-03     168.170E-03
             671     16.8376E-03     76.7656E-03    -4.21023E+06     155.422E+06     45.6314E+06     803.976E+03    -25.3865E-03     40.9824E-03    -15.5960E-03     240.803E-03    -31.2204E-03     47.2210E-03    -15.5871E-03     245.123E-03
             672     886.007E-06     76.9212E-03    -15.7431E+06    -61.5842E+06    -15.4268E+06    -535.557E+03    -15.6667E-03     31.3523E-03    -15.6856E-03     3.53180E-03    -15.6338E-03     31.0897E-03    -15.6506E-03     3.52437E-03
             673     1.77209E-03     76.9259E-03    -15.0646E+06    -60.4235E+06    -13.6939E+06    -998.819E+03    -15.6749E-03     31.3543E-03    -15.6795E-03     6.55342E-03    -15.6428E-03     31.0940E-03    -15.6385E-03     6.53955E-03
             674     2.65810E-03     76.9334E-03    -14.0302E+06    -58.1387E+06    -11.2876E+06    -1.53753E+06    -15.6809E-03     31.3641E-03    -15.6832E-03     9.80756E-03    -15.6506E-03     31.1103E-03    -15.6350E-03     9.78623E-03
             675     3.54418E-03     76.9440E-03    -12.7934E+06    -55.8592E+06    -8.44991E+06    -2.01977E+06    -15.6952E-03     31.3845E-03    -15.6893E-03     13.1857E-03    -15.6663E-03     31.1363E-03    -15.6320E-03     13.1576E-03
             676     4.43021E-03     76.9579E-03    -11.7551E+06    -58.7365E+06    -5.37221E+06    -2.62415E+06    -15.7373E-03     31.4433E-03    -15.7060E-03     16.6736E-03    -15.7037E-03     31.1750E-03    -15.6307E-03     16.6370E-03
             677     5.31626E-03     76.9750E-03    -10.8536E+06    -59.3148E+06    -4.10446E+06    -3.01719E+06    -15.7787E-03     31.4910E-03    -15.7123E-03     20.3395E-03    -15.7419E-03     31.2170E-03    -15.6310E-03     20.2972E-03
             678     6.20228E-03     76.9957E-03    -9.87026E+06    -57.9931E+06    -3.50339E+06    -2.75004E+06    -15.8206E-03     31.5328E-03    -15.7122E-03     24.1864E-03    -15.7821E-03     31.2636E-03    -15.6313E-03     24.1466E-03
             679     7.08834E-03     77.0199E-03    -8.57670E+06    -62.1304E+06    -2.01748E+06    -2.46028E+06    -15.8887E-03     31.6127E-03    -15.7239E-03     28.1620E-03    -15.8406E-03     31.3194E-03    -15.6315E-03     28.1248E-03
             680     7.97435E-03     77.0481E-03    -6.47088E+06    -60.8104E+06    -1.25654E+06    -2.96554E+06    -15.9466E-03     31.6691E-03    -15.7225E-03     32.3302E-03    -15.8920E-03     31.3793E-03    -15.6312E-03     32.2848E-03
             681     8.86043E-03     77.0800E-03    -4.67535E+06    -55.7142E+06    -1.46296E+06    -3.50237E+06    -16.0053E-03     31.7150E-03    -15.7097E-03     36.6315E-03    -15.9503E-03     31.4499E-03    -15.6294E-03     36.5770E-03
             682     9.74645E-03     77.1161E-03    -4.52605E+06    -58.7465E+06    -1.97159E+06    -3.19595E+06    -16.1001E-03     31.8094E-03    -15.7093E-03     40.8709E-03    -16.0417E-03     31.5321E-03    -15.6274E-03     40.8172E-03
             683     10.6326E-03     77.1559E-03    -4.88187E+06    -56.5468E+06    -6.07860E+06    -2.74007E+06    -16.2270E-03     31.9130E-03    -15.6861E-03     45.1615E-03    -16.1715E-03     31.6571E-03    -15.6274E-03     45.1096E-03
             684     11.5185E-03     77.2000E-03    -4.85997E+06    -45.5583E+06    -4.57129E+06    -2.70216E+06    -16.3007E-03     31.9792E-03    -15.6785E-03     49.7447E-03    -16.2696E-03     31.7823E-03    -15.6282E-03     49.6879E-03
             685     12.4046E-03     77.2484E-03    -4.30498E+06    -40.8496E+06    -3.31628E+06    -2.73807E+06    -16.4301E-03     32.1057E-03    -15.6757E-03     56.6740E-03    -16.4167E-03     31.9417E-03    -15.6268E-03     56.6098E-03
             686     13.2907E-03     77.3051E-03    -3.73906E+06    -39.3869E+06    -11.9590E+06    -2.42292E+06    -16.5250E-03     32.1525E-03    -15.6276E-03     59.2212E-03    -16.5153E-03     32.0244E-03    -15.6248E-03     59.1530E-03
             687     14.1762E-03     77.3581E-03    -3.72370E+06    -23.6899E+06    -13.9403E+06    -1.77869E+06    -16.4604E-03     32.0487E-03    -15.5883E-03     64.3531E-03    -16.5032E-03     32.0346E-03    -15.6183E-03     64.2884E-03
             688     15.0625E-03     77.4248E-03    -4.53723E+06     15.7116E+06    -14.9760E+06    -769.686E+03    -17.8994E-03     33.4183E-03    -15.5189E-03     97.8983E-03    -18.1916E-03     33.7936E-03    -15.6100E-03     97.8632E-03
             689     15.9510E-03     77.5397E-03    -5.40436E+06     81.5337E+06    -13.0034E+06     451.329E+03    -21.1928E-03     36.6129E-03    -15.4201E-03     168.479E-03    -23.0925E-03     38.8206E-03    -15.5955E-03     169.063E-03
             690     16.8356E-03     77.7382E-03    -3.81330E+06     156.425E+06     45.8730E+06     768.693E+03    -24.9516E-03     40.5260E-03    -15.5744E-03     240.170E-03    -30.7619E-03     46.7451E-03    -15.5663E-03     244.476E-03
             691     886.046E-06     77.8995E-03    -15.8278E+06    -60.3902E+06    -15.5219E+06    -603.860E+03    -15.6718E-03     31.3564E-03    -15.6846E-03     3.52594E-03    -15.6408E-03     31.1000E-03    -15.6517E-03     3.51763E-03
             692     1.77204E-03     77.9041E-03    -15.2199E+06    -59.2248E+06    -13.7143E+06    -1.19299E+06    -15.6784E-03     31.3608E-03    -15.6823E-03     6.55271E-03    -15.6489E-03     31.1067E-03    -15.6430E-03     6.53633E-03
             693     2.65812E-03     77.9116E-03    -14.2451E+06    -56.9385E+06    -11.2743E+06    -1.71715E+06    -15.6848E-03     31.3718E-03    -15.6870E-03     9.80277E-03    -15.6573E-03     31.1243E-03    -15.6401E-03     9.77912E-03
             694     3.54413E-03     77.9223E-03    -13.2082E+06    -54.9211E+06    -8.62704E+06    -2.08730E+06    -15.7021E-03     31.3957E-03    -15.6936E-03     13.1813E-03    -15.6763E-03     31.1530E-03    -15.6379E-03     13.1524E-03
             695     4.43020E-03     77.9361E-03    -12.2175E+06    -57.7633E+06    -5.77679E+06    -2.18907E+06    -15.7440E-03     31.4540E-03    -15.7100E-03     16.6731E-03    -15.7135E-03     31.1918E-03    -15.6374E-03     16.6421E-03
             696     5.31618E-03     77.9533E-03    -11.4769E+06    -58.2890E+06    -4.67728E+06    -2.62825E+06    -15.7823E-03     31.4982E-03    -15.7159E-03     20.3422E-03    -15.7492E-03     31.2310E-03    -15.6381E-03     20.3048E-03
             697     6.20225E-03     77.9739E-03    -10.5589E+06    -57.8090E+06    -5.11624E+06    -3.05705E+06    -15.8177E-03     31.5290E-03    -15.7114E-03     24.2077E-03    -15.7805E-03     31.2640E-03    -15.6378E-03     24.1640E-03
             698     7.08827E-03     77.9982E-03    -8.82986E+06    -61.0299E+06    -4.13939E+06    -3.76159E+06    -15.8756E-03     31.5925E-03    -15.7168E-03     28.2166E-03    -15.8273E-03     31.3081E-03    -15.6363E-03     28.1625E-03
             699     7.97434E-03     78.0262E-03    -7.02267E+06    -59.5351E+06    -3.16638E+06    -4.67288E+06    -15.9364E-03     31.6512E-03    -15.7148E-03     32.3942E-03    -15.8836E-03     31.3713E-03    -15.6341E-03     32.3268E-03
             700     8.86038E-03     78.0583E-03    -6.18766E+06    -56.3635E+06    -2.89381E+06    -3.90978E+06    -16.0038E-03     31.7117E-03    -15.7079E-03     36.6785E-03    -15.9534E-03     31.4476E-03    -15.6317E-03     36.6188E-03
             701     9.74650E-03     78.0943E-03    -5.73668E+06    -58.8328E+06    -2.30354E+06    -2.91960E+06    -16.1027E-03     31.8147E-03    -15.7120E-03     40.9104E-03    -16.0497E-03     31.5392E-03    -15.6299E-03     40.8604E-03
             702     10.6324E-03     78.1342E-03    -5.18634E+06    -56.2446E+06    -6.23835E+06    -3.06207E+06    -16.2154E-03     31.9027E-03    -15.6873E-03     45.2820E-03    -16.1617E-03     31.6490E-03    -15.6294E-03     45.2259E-03
             703     11.5186E-03     78.1783E-03    -4.60249E+06    -45.3041E+06    -4.32143E+06    -3.17829E+06    -16.2383E-03     31.9164E-03    -15.6780E-03     49.7744E-03    -16.2066E-03     31.7200E-03    -15.6273E-03     49.7117E-03
             704     12.4047E-03     78.2265E-03    -4.22188E+06    -40.4793E+06    -3.05254E+06    -3.24915E+06    -16.3657E-03     32.0366E-03    -15.6709E-03     56.6926E-03    -16.3529E-03     31.8740E-03    -15.6213E-03     56.6219E-03
             705     13.2909E-03     78.2834E-03    -4.12292E+06    -39.6383E+06    -12.1550E+06    -3.14791E+06    -16.4681E-03     32.0863E-03    -15.6182E-03     59.4294E-03    -16.4596E-03     31.9577E-03    -15.6155E-03     59.3520E-03
             706     14.1772E-03     78.3366E-03    -4.55099E+06    -24.2255E+06    -14.4163E+06    -2.28122E+06    -16.4645E-03     32.0420E-03    -15.5776E-03     64.2345E-03    -16.5099E-03     32.0271E-03    -15.6079E-03     64.1635E-03
             707     15.0642E-03     78.4017E-03    -5.33369E+06     14.1767E+06    -15.9571E+06    -734.746E+03    -17.8943E-03     33.4021E-03    -15.5078E-03     97.8442E-03    -18.1889E-03     33.7744E-03    -15.6004E-03     97.8113E-03
             708     15.9482E-03     78.5190E-03    -5.20853E+06     80.3176E+06    -13.8445E+06     509.732E+03    -21.4353E-03     36.8547E-03    -15.4194E-03     166.606E-03    -23.2941E-03     39.0203E-03    -15.5975E-03     167.168E-03
             709     16.8355E-03     78.7156E-03    -3.86659E+06     156.573E+06     45.4378E+06     550.000E+03    -25.0574E-03     40.6447E-03    -15.5873E-03     240.268E-03    -30.9292E-03     46.9268E-03    -15.5815E-03     244.616E-03
             710     886.012E-06     78.8777E-03    -16.0345E+06    -59.1230E+06    -15.6862E+06    -696.550E+03    -15.6738E-03     31.3617E-03    -15.6879E-03     3.52084E-03    -15.6455E-03     31.1122E-03    -15.6573E-03     3.51134E-03
             711     1.77207E-03     78.8823E-03    -15.4521E+06    -57.8472E+06    -13.7973E+06    -1.22913E+06    -15.6855E-03     31.3719E-03    -15.6864E-03     6.55304E-03    -15.6590E-03     31.1252E-03    -15.6491E-03     6.53620E-03
             712     2.65806E-03     78.8898E-03    -14.5965E+06    -55.8603E+06    -11.4808E+06    -1.70739E+06    -15.6922E-03     31.3847E-03    -15.6925E-03     9.80593E-03    -15.6677E-03     31.1434E-03    -15.6478E-03     9.78241E-03
             713     3.54413E-03     78.9005E-03    -13.6624E+06    -54.0963E+06    -9.30334E+06    -1.93591E+06    -15.7059E-03     31.4033E-03    -15.6975E-03     13.1870E-03    -15.6826E-03     31.1665E-03    -15.6458E-03     13.1600E-03
             714     4.43012E-03     78.9144E-03    -12.5663E+06    -57.2240E+06    -7.14098E+06    -2.10765E+06    -15.7380E-03     31.4474E-03    -15.7094E-03     16.6890E-03    -15.7081E-03     31.1904E-03    -15.6439E-03     16.6592E-03
             715     5.31621E-03     78.9315E-03    -11.3317E+06    -57.0129E+06    -5.86581E+06    -2.45769E+06    -15.7717E-03     31.4835E-03    -15.7118E-03     20.3671E-03    -15.7381E-03     31.2243E-03    -15.6421E-03     20.3320E-03
             716     6.20220E-03     78.9521E-03    -10.1470E+06    -56.3979E+06    -5.43591E+06    -3.57678E+06    -15.8087E-03     31.5177E-03    -15.7090E-03     24.2315E-03    -15.7711E-03     31.2596E-03    -15.6397E-03     24.1811E-03
             717     7.08831E-03     78.9764E-03    -8.93707E+06    -58.9633E+06    -4.70550E+06    -5.04067E+06    -15.8610E-03     31.5724E-03    -15.7114E-03     28.2579E-03    -15.8153E-03     31.2993E-03    -15.6365E-03     28.1874E-03
             718     7.97435E-03     79.0045E-03    -8.22729E+06    -59.2629E+06    -3.46597E+06    -5.11652E+06    -15.9321E-03     31.6463E-03    -15.7142E-03     32.4175E-03    -15.8852E-03     31.3699E-03    -15.6337E-03     32.3444E-03
             719     8.86044E-03     79.0365E-03    -7.71525E+06    -57.5600E+06    -2.71941E+06    -4.06779E+06    -16.0037E-03     31.7164E-03    -15.7127E-03     36.6751E-03    -15.9594E-03     31.4482E-03    -15.6316E-03     36.6134E-03
             720     9.74643E-03     79.0725E-03    -6.57322E+06    -58.4130E+06    -2.30204E+06    -3.73362E+06    -16.0897E-03     31.8022E-03    -15.7125E-03     40.9463E-03    -16.0416E-03     31.5300E-03    -15.6297E-03     40.8858E-03
             721     10.6326E-03     79.1124E-03    -5.52305E+06    -55.8966E+06    -6.01828E+06    -3.78160E+06    -16.1768E-03     31.8633E-03    -15.6865E-03     45.2992E-03    -16.1256E-03     31.6115E-03    -15.6275E-03     45.2339E-03
             722     11.5186E-03     79.1565E-03     -5.0043E+06    -44.8912E+06    -4.24022E+06    -3.79226E+06    -16.2296E-03     31.9046E-03    -15.6750E-03     49.7199E-03    -16.2006E-03     31.7107E-03    -15.6239E-03     49.6492E-03
             723     12.4048E-03     79.2046E-03    -4.09691E+06    -39.9789E+06    -3.02089E+06    -3.99455E+06    -16.3803E-03     32.0478E-03    -15.6674E-03     56.5857E-03    -16.3677E-03     31.8875E-03    -15.6186E-03     56.5053E-03
             724     13.2909E-03     79.2616E-03    -3.28341E+06    -39.9498E+06    -12.1761E+06    -3.86144E+06    -16.4561E-03     32.0714E-03    -15.6152E-03     59.0809E-03    -16.4427E-03     31.9398E-03    -15.6134E-03     58.9943E-03
             725     14.1772E-03     79.3143E-03    -3.47608E+06    -25.2681E+06    -14.0017E+06    -2.69641E+06    -16.6231E-03     32.2057E-03    -15.5827E-03     63.6133E-03    -16.6620E-03     32.1832E-03    -15.6110E-03     63.5363E-03
             726     15.0621E-03     79.3806E-03    -3.99952E+06     12.7991E+06    -15.2082E+06    -712.092E+03    -18.0618E-03     33.5853E-03    -15.5236E-03     98.1455E-03    -18.3512E-03     33.9501E-03    -15.6124E-03     98.1117E-03
             727     15.9493E-03     79.4977E-03    -4.77873E+06     78.6477E+06    -14.5063E+06     473.115E+03    -21.4202E-03     36.8518E-03    -15.4316E-03     167.140E-03    -23.2724E-03     39.0082E-03    -15.6112E-03     167.700E-03
             728     16.8352E-03     79.6932E-03    -4.01159E+06     156.659E+06     44.8377E+06     629.393E+03    -24.9552E-03     40.5487E-03    -15.5935E-03     240.178E-03    -30.8268E-03     46.8322E-03    -15.5907E-03     244.543E-03
             729     886.029E-06     79.8559E-03    -16.3348E+06    -57.7892E+06    -15.9104E+06    -700.617E+03    -15.6801E-03     31.3712E-03    -15.6912E-03     3.53114E-03    -15.6549E-03     31.1292E-03    -15.6632E-03     3.52158E-03
             730     1.77202E-03     79.8605E-03    -15.7636E+06    -56.5546E+06    -14.2168E+06    -1.17900E+06    -15.6895E-03     31.3799E-03    -15.6904E-03     6.55541E-03    -15.6658E-03     31.1407E-03    -15.6566E-03     6.53921E-03
             731     2.65808E-03     79.8681E-03    -14.9685E+06    -54.8407E+06    -12.0718E+06    -1.60071E+06    -15.6954E-03     31.3911E-03    -15.6957E-03     9.81307E-03    -15.6734E-03     31.1562E-03    -15.6548E-03     9.79093E-03
             732     3.54406E-03     79.8788E-03    -13.8587E+06    -53.1641E+06    -10.1259E+06    -2.06346E+06    -15.7020E-03     31.4000E-03    -15.6981E-03     13.1980E-03    -15.6798E-03     31.1693E-03    -15.6515E-03     13.1693E-03
             733     4.43016E-03     79.8926E-03    -12.2580E+06    -56.1652E+06    -7.75416E+06    -2.71084E+06    -15.7295E-03     31.4372E-03    -15.7077E-03     16.7040E-03    -15.6987E-03     31.1860E-03    -15.6473E-03     16.6664E-03
             734     5.31616E-03     79.9097E-03    -10.3487E+06    -55.9994E+06    -6.04128E+06    -3.28835E+06    -15.7618E-03     31.4708E-03    -15.7090E-03     20.3866E-03    -15.7245E-03     31.2154E-03    -15.6430E-03     20.3408E-03
             735     6.20228E-03     79.9304E-03    -8.68720E+06    -54.0957E+06    -3.76155E+06    -4.18514E+06    -15.8054E-03     31.5166E-03    -15.7113E-03     24.2300E-03    -15.7662E-03     31.2655E-03    -15.6390E-03     24.1717E-03
             736     7.08829E-03     79.9546E-03    -8.01462E+06    -57.4331E+06    -1.88620E+06    -5.00147E+06    -15.8709E-03     31.5928E-03    -15.7218E-03     28.2219E-03    -15.8270E-03     31.3220E-03    -15.6364E-03     28.1518E-03
             737     7.97438E-03     79.9827E-03    -7.85007E+06    -59.6352E+06    -1.84353E+06    -4.70269E+06    -15.9342E-03     31.6573E-03    -15.7231E-03     32.3856E-03    -15.8873E-03     31.3762E-03    -15.6344E-03     32.3179E-03
             738     8.86036E-03     80.0147E-03    -7.07591E+06    -57.3516E+06    -2.06181E+06    -4.61509E+06    -15.9982E-03     31.7134E-03    -15.7152E-03     36.6643E-03    -15.9520E-03     31.4445E-03    -15.6321E-03     36.5955E-03
             739     9.74652E-03     80.0507E-03    -5.78900E+06    -57.8433E+06    -2.23044E+06    -4.86902E+06    -16.0764E-03     31.7866E-03    -15.7102E-03     40.9476E-03    -16.0252E-03     31.5160E-03    -15.6291E-03     40.8724E-03
             740     10.6325E-03     80.0907E-03    -4.79925E+06    -56.0095E+06    -6.07581E+06    -4.53976E+06    -16.1722E-03     31.8559E-03    -15.6837E-03     45.2670E-03    -16.1171E-03     31.6026E-03    -15.6259E-03     45.1919E-03
             741     11.5187E-03     80.1346E-03    -4.06010E+06    -44.2934E+06    -4.12250E+06    -4.36330E+06    -16.2360E-03     31.9077E-03    -15.6717E-03     49.7186E-03    -16.2033E-03     31.7153E-03    -15.6222E-03     49.6406E-03
             742     12.4047E-03     80.1830E-03    -3.30948E+06    -39.1405E+06    -2.95380E+06    -4.94989E+06    -16.4410E-03     32.1070E-03    -15.6660E-03     56.6132E-03    -16.4259E-03     31.9498E-03    -15.6192E-03     56.5204E-03
             743     13.2907E-03     80.2395E-03    -3.35908E+06    -41.2207E+06    -12.6522E+06    -4.27653E+06    -16.5882E-03     32.2096E-03    -15.6214E-03     59.2042E-03    -16.5729E-03     32.0728E-03    -15.6200E-03     59.1119E-03
             744     14.1763E-03     80.2931E-03    -3.90981E+06    -27.3197E+06    -14.6977E+06    -2.38089E+06    -16.5655E-03     32.1564E-03    -15.5909E-03     64.0234E-03    -16.6029E-03     32.1255E-03    -15.6191E-03     63.9507E-03
             745     15.0636E-03     80.3584E-03    -4.44411E+06     11.0517E+06    -15.9521E+06    -1.04191E+06    -17.8180E-03     33.3386E-03    -15.5205E-03     98.7571E-03    -18.1071E-03     33.6974E-03    -15.6099E-03     98.7210E-03
             746     15.9491E-03     80.4760E-03    -4.89614E+06     77.6227E+06    -15.2650E+06     143.887E+03    -21.3699E-03     36.7872E-03    -15.4173E-03     167.485E-03    -23.2252E-03     38.9450E-03    -15.5991E-03     168.044E-03
             747     16.8352E-03     80.6720E-03    -3.71110E+06     157.240E+06     44.6282E+06     728.051E+03    -25.0640E-03     40.6454E-03    -15.5814E-03     239.829E-03    -30.9142E-03     46.9112E-03    -15.5809E-03     244.169E-03
             748     886.000E-06     80.8342E-03    -16.2086E+06    -56.3941E+06    -15.9451E+06    -678.337E+03    -15.6973E-03     31.3816E-03    -15.6842E-03     3.54540E-03    -15.6735E-03     31.1463E-03    -15.6587E-03     3.53613E-03
             749     1.77203E-03     80.8388E-03    -15.7132E+06    -55.3651E+06    -14.4326E+06    -1.21103E+06    -15.6938E-03     31.3880E-03    -15.6942E-03     6.55763E-03    -15.6713E-03     31.1550E-03    -15.6633E-03     6.54102E-03
             750     2.65802E-03     80.8464E-03    -14.7159E+06    -53.6296E+06    -12.3366E+06    -1.77803E+06    -15.6915E-03     31.3887E-03    -15.6972E-03     9.81757E-03    -15.6696E-03     31.1600E-03    -15.6598E-03     9.79315E-03
             751     3.54410E-03     80.8570E-03    -13.3954E+06    -51.7480E+06    -9.91207E+06    -2.56298E+06    -15.6979E-03     31.3970E-03    -15.6991E-03     13.2022E-03    -15.6759E-03     31.1724E-03    -15.6542E-03     13.1671E-03
             752     4.43011E-03     80.8708E-03    -11.9060E+06    -54.4518E+06    -7.10499E+06    -3.56628E+06    -15.7270E-03     31.4366E-03    -15.7096E-03     16.7075E-03    -15.6978E-03     31.1924E-03    -15.6489E-03     16.6588E-03
             753     5.31621E-03     80.8880E-03    -10.3028E+06    -54.7511E+06    -5.16175E+06    -4.39604E+06    -15.7611E-03     31.4740E-03    -15.7129E-03     20.3828E-03    -15.7266E-03     31.2235E-03    -15.6444E-03     20.3227E-03
             754     6.20222E-03     80.9086E-03    -9.01785E+06    -52.7000E+06    -3.14412E+06    -4.64119E+06    -15.8043E-03     31.5188E-03    -15.7145E-03     24.2261E-03    -15.7697E-03     31.2742E-03    -15.6407E-03     24.1619E-03
             755     7.08830E-03     80.9330E-03    -8.20158E+06    -56.7260E+06    -946.587E+03    -4.45805E+06    -15.8733E-03     31.6010E-03    -15.7278E-03     28.2008E-03    -15.8326E-03     31.3327E-03    -15.6384E-03     28.1378E-03
             756     7.97427E-03     80.9609E-03    -7.29193E+06    -59.0808E+06    -1.28853E+06    -4.75046E+06    -15.9295E-03     31.6556E-03    -15.7261E-03     32.3705E-03    -15.8814E-03     31.3756E-03    -15.6363E-03     32.3021E-03
             757     8.86045E-03     80.9930E-03    -6.01017E+06    -56.0462E+06    -2.21011E+06    -5.51911E+06    -15.9839E-03     31.6954E-03    -15.7115E-03     36.6837E-03    -15.9340E-03     31.4317E-03    -15.6326E-03     36.6032E-03
             758     9.74642E-03     81.0290E-03    -4.84161E+06    -57.4520E+06    -2.38437E+06    -5.80810E+06    -16.0751E-03     31.7820E-03    -15.7069E-03     40.9494E-03    -16.0196E-03     31.5122E-03    -15.6285E-03     40.8620E-03
             759     10.6326E-03     81.0688E-03    -3.91483E+06    -56.2084E+06    -6.15936E+06    -5.47929E+06    -16.1733E-03     31.8546E-03    -15.6813E-03     45.2886E-03    -16.1134E-03     31.5992E-03    -15.6249E-03     45.2014E-03
             760     11.5186E-03     81.1130E-03    -3.15728E+06    -43.8922E+06    -4.08970E+06    -5.15740E+06    -16.2309E-03     31.8995E-03    -15.6686E-03     49.7518E-03    -16.1943E-03     31.7077E-03    -15.6208E-03     49.6635E-03
             761     12.4049E-03     81.1610E-03    -2.99920E+06    -38.3255E+06    -2.01493E+06    -5.03706E+06    -16.4356E-03     32.1027E-03    -15.6671E-03     56.7617E-03    -16.4216E-03     31.9478E-03    -15.6172E-03     56.6676E-03
             762     13.2907E-03     81.2183E-03    -3.83503E+06    -43.1579E+06    -12.3221E+06    -3.87278E+06    -16.4501E-03     32.0699E-03    -15.6198E-03     59.3638E-03    -16.4347E-03     31.9234E-03    -15.6133E-03     59.2772E-03
             763     14.1773E-03     81.2708E-03    -4.65361E+06    -29.0572E+06    -15.4591E+06    -2.09501E+06    -16.5068E-03     32.0845E-03    -15.5777E-03     64.1863E-03    -16.5444E-03     32.0473E-03    -15.6061E-03     64.1175E-03
             764     15.0629E-03     81.3364E-03    -5.08828E+06     10.5437E+06    -16.4032E+06    -1.45367E+06    -17.8611E-03     33.3686E-03    -15.5075E-03     98.6136E-03    -18.1517E-03     33.7261E-03    -15.5974E-03     98.5723E-03
             765     15.9496E-03     81.4546E-03    -5.53950E+06      75.833E+06    -16.9717E+06    -719.089E+03    -21.1810E-03     36.5775E-03    -15.3965E-03     167.621E-03    -23.0393E-03     38.7346E-03    -15.5833E-03     168.179E-03
             766     16.8361E-03     81.6503E-03    -3.82120E+06     157.107E+06     43.8300E+06     459.423E+03    -25.1403E-03     40.6993E-03    -15.5590E-03     239.855E-03    -30.9757E-03     46.9518E-03    -15.5621E-03     244.167E-03
             767     886.023E-06     81.8125E-03    -16.1115E+06    -54.9494E+06    -15.8780E+06     -773.61E+03    -15.7091E-03     31.3889E-03    -15.6798E-03     3.55816E-03    -15.6870E-03     31.1607E-03    -15.6561E-03     3.54765E-03
             768     1.77200E-03     81.8171E-03    -15.4337E+06    -53.9212E+06    -14.3247E+06    -1.45048E+06    -15.6932E-03     31.3898E-03    -15.6966E-03     6.55376E-03    -15.6715E-03     31.1634E-03    -15.6677E-03     6.53407E-03
             769     2.65805E-03     81.8247E-03    -14.3489E+06    -52.0504E+06    -12.0402E+06    -2.27798E+06    -15.6890E-03     31.3874E-03    -15.6985E-03     9.81962E-03    -15.6680E-03     31.1656E-03    -15.6624E-03     9.78873E-03
             770     3.54406E-03     81.8353E-03    -13.0159E+06    -50.0040E+06    -9.25265E+06    -3.11569E+06    -15.6971E-03     31.3982E-03    -15.7011E-03     13.2028E-03    -15.6766E-03     31.1808E-03    -15.6560E-03     13.1606E-03
             771     4.43015E-03     81.8491E-03    -11.7841E+06    -52.6510E+06    -6.02025E+06    -3.86360E+06    -15.7304E-03     31.4448E-03    -15.7144E-03     16.7008E-03    -15.7049E-03     31.2079E-03    -15.6510E-03     16.6483E-03
             772     5.31613E-03     81.8662E-03    -10.9319E+06    -53.1639E+06    -4.51938E+06    -4.59422E+06    -15.7633E-03     31.4812E-03    -15.7179E-03     20.3748E-03    -15.7352E-03     31.2386E-03    -15.6475E-03     20.3121E-03
             773     6.20222E-03     81.8869E-03    -9.98978E+06    -52.0174E+06    -4.07680E+06    -4.93721E+06    -15.7972E-03     31.5106E-03    -15.7134E-03     24.2359E-03    -15.7672E-03     31.2723E-03    -15.6439E-03     24.1679E-03
             774     7.08825E-03     81.9111E-03    -8.36814E+06    -56.0959E+06    -2.14823E+06    -5.01686E+06    -15.8588E-03     31.5816E-03    -15.7229E-03     28.2169E-03    -15.8181E-03     31.3184E-03    -15.6401E-03     28.1467E-03
             775     7.97437E-03     81.9392E-03    -6.50791E+06    -57.5216E+06    -943.533E+03    -5.57937E+06    -15.9232E-03     31.6479E-03    -15.7247E-03     32.3682E-03    -15.8740E-03     31.3741E-03    -15.6366E-03     32.2891E-03
             776     8.86034E-03     81.9711E-03    -5.43038E+06    -54.8761E+06    -2.02398E+06    -6.15440E+06    -15.9727E-03     31.6819E-03    -15.7093E-03     36.6821E-03    -15.9218E-03     31.4229E-03    -15.6319E-03     36.5935E-03
             777     9.74658E-03     82.0072E-03    -4.93247E+06    -56.8334E+06    -2.74074E+06    -6.34573E+06    -16.0623E-03     31.7649E-03    -15.7026E-03     40.9819E-03    -16.0076E-03     31.4989E-03    -15.6267E-03     40.8877E-03
             778     10.6325E-03     82.0471E-03    -4.44561E+06    -55.9170E+06    -6.50545E+06    -6.48835E+06    -16.1634E-03     31.8410E-03    -15.6775E-03     45.2982E-03    -16.1061E-03     31.5882E-03    -15.6225E-03     45.1980E-03
             779     11.5188E-03     82.0911E-03    -3.71530E+06    -43.9502E+06    -4.82873E+06    -6.11233E+06    -16.2282E-03     31.8913E-03    -15.6632E-03     49.8035E-03    -16.1932E-03     31.7012E-03    -15.6182E-03     49.7029E-03
             780     12.4047E-03     82.1394E-03    -3.31832E+06    -39.0222E+06    -1.87923E+06    -4.78459E+06    -16.3698E-03     32.0343E-03    -15.6645E-03     56.7762E-03    -16.3565E-03     31.8762E-03    -15.6125E-03     56.6855E-03
             781     13.2911E-03     82.1963E-03    -3.59246E+06    -44.4442E+06    -11.9962E+06    -3.47526E+06    -16.4106E-03     32.0259E-03    -15.6153E-03     58.9370E-03    -16.3923E-03     31.8718E-03    -15.6056E-03     58.8556E-03
             782     14.1773E-03     82.2485E-03    -4.09811E+06    -30.1261E+06    -16.0338E+06    -2.67204E+06    -16.5761E-03     32.1457E-03    -15.5696E-03     63.9638E-03    -16.6089E-03     32.1034E-03    -15.6001E-03     63.8872E-03
             783     15.0633E-03     82.3158E-03    -4.09880E+06     9.82365E+06    -15.7688E+06    -1.72075E+06    -17.7746E-03     33.2793E-03    -15.5047E-03     98.3503E-03    -18.0590E-03     33.6297E-03    -15.5919E-03     98.3064E-03
             784     15.9495E-03     82.4311E-03    -4.53522E+06     74.4317E+06    -18.0073E+06    -524.771E+03    -21.1708E-03     36.5548E-03    -15.3840E-03     167.514E-03    -23.0242E-03     38.7086E-03    -15.5754E-03     168.072E-03
             785     16.8364E-03     82.6294E-03    -4.03891E+06     156.562E+06     42.5790E+06     219.627E+03    -25.3377E-03     40.8895E-03    -15.5517E-03     239.623E-03    -31.1657E-03     47.1354E-03    -15.5600E-03     243.920E-03
             786     885.981E-06     82.7908E-03    -16.1114E+06    -53.2039E+06    -15.8418E+06    -970.255E+03    -15.7116E-03     31.3894E-03    -15.6777E-03     3.56141E-03    -15.6921E-03     31.1698E-03    -15.6564E-03     3.54837E-03
             787     1.77203E-03     82.7954E-03    -15.3442E+06    -52.0918E+06    -14.0753E+06    -1.83605E+06    -15.6884E-03     31.3852E-03    -15.6968E-03     6.55288E-03    -15.6692E-03     31.1675E-03    -15.6694E-03     6.52821E-03
             788     2.65802E-03     82.8029E-03    -14.2623E+06    -50.1794E+06    -11.6024E+06    -2.70266E+06    -15.6907E-03     31.3898E-03    -15.6991E-03     9.81916E-03    -15.6726E-03     31.1766E-03    -15.6637E-03     9.78279E-03
             789     3.54409E-03     82.8136E-03    -13.1126E+06    -48.3048E+06    -8.87051E+06    -3.42553E+06    -15.6992E-03     31.4022E-03    -15.7030E-03     13.2021E-03    -15.6822E-03     31.1929E-03    -15.6583E-03     13.1559E-03
             790     4.43009E-03     82.8274E-03    -11.9696E+06    -51.3125E+06    -6.05549E+06    -3.80547E+06    -15.7290E-03     31.4441E-03    -15.7151E-03     16.7006E-03    -15.7063E-03     31.2143E-03    -15.6536E-03     16.6488E-03
             791     5.31616E-03     82.8445E-03    -10.9507E+06    -51.4922E+06    -4.72130E+06    -4.28248E+06    -15.7583E-03     31.4748E-03    -15.7165E-03     20.3785E-03    -15.7324E-03     31.2410E-03    -15.6496E-03     20.3198E-03
             792     6.20218E-03     82.8651E-03    -10.1197E+06    -50.7318E+06    -4.64962E+06    -5.13245E+06    -15.7874E-03     31.4972E-03    -15.7098E-03     24.2424E-03    -15.7590E-03     31.2663E-03    -15.6449E-03     24.1719E-03
             793     7.08828E-03     82.8894E-03    -8.98701E+06    -54.6351E+06    -3.66433E+06    -6.14438E+06    -15.8416E-03     31.5551E-03    -15.7135E-03     28.2481E-03    -15.8040E-03     31.3022E-03    -15.6396E-03     28.1634E-03
             794     7.97429E-03     82.9174E-03    -7.66351E+06    -56.4284E+06    -2.19158E+06    -6.55427E+06    -15.9058E-03     31.6224E-03    -15.7166E-03     32.3929E-03    -15.8621E-03     31.3575E-03    -15.6346E-03     32.3013E-03
             795     8.86047E-03     82.9494E-03    -6.68797E+06    -53.9856E+06    -2.23551E+06    -6.46123E+06    -15.9680E-03     31.6744E-03    -15.7065E-03     36.6747E-03    -15.9244E-03     31.4220E-03    -15.6297E-03     36.5821E-03
             796     9.74645E-03     82.9853E-03    -5.93067E+06    -55.8273E+06    -3.10441E+06    -6.82201E+06    -16.0423E-03     31.7405E-03    -15.6982E-03     40.9791E-03    -15.9935E-03     31.4815E-03    -15.6242E-03     40.8787E-03
             797     10.6327E-03     83.0254E-03    -5.34678E+06    -55.0596E+06    -7.06234E+06    -7.17420E+06    -16.1541E-03     31.8258E-03    -15.6717E-03     45.3085E-03    -16.1017E-03     31.5794E-03    -15.6194E-03     45.1995E-03
             798     11.5186E-03     83.0692E-03    -5.12670E+06    -44.3486E+06    -6.09589E+06    -6.88103E+06    -16.2344E-03     31.8912E-03    -15.6568E-03     49.8112E-03    -16.2041E-03     31.7030E-03    -15.6156E-03     49.7006E-03
             799     12.4050E-03     83.1177E-03    -4.31323E+06    -40.7724E+06    -3.12591E+06    -5.47076E+06    -16.3689E-03     32.0293E-03    -15.6603E-03     56.6328E-03    -16.3562E-03     31.8656E-03    -15.6106E-03     56.5334E-03
             800     13.2909E-03     83.1742E-03    -2.97564E+06    -44.4848E+06    -12.0228E+06    -4.53155E+06    -16.5493E-03     32.1663E-03    -15.6171E-03     58.9684E-03    -16.5281E-03     32.0115E-03    -15.6084E-03     58.8729E-03
             801     14.1766E-03     83.2272E-03    -2.09104E+06    -31.1594E+06    -16.1127E+06    -3.63455E+06    -16.6043E-03     32.1796E-03    -15.5754E-03     63.9012E-03    -16.6253E-03     32.1294E-03    -15.6077E-03     63.8122E-03
             802     15.0633E-03     83.2930E-03    -2.00440E+06     6.96242E+06    -15.9869E+06    -1.93434E+06    -17.5398E-03     33.0459E-03    -15.5060E-03     97.8626E-03    -17.8070E-03     33.3770E-03    -15.5932E-03     97.8168E-03
             803     15.9500E-03     83.4098E-03    -3.55842E+06     73.2923E+06    -17.7537E+06     346.587E+03    -21.4239E-03     36.8089E-03    -15.3850E-03     168.061E-03    -23.2749E-03     38.9590E-03    -15.5749E-03     168.621E-03
             804     16.8352E-03     83.6076E-03    -3.51775E+06     157.316E+06     42.2282E+06     971.811E+03    -25.4946E-03     41.0504E-03    -15.5558E-03     240.026E-03    -31.3376E-03     47.3169E-03    -15.5677E-03     244.352E-03
             805     886.016E-06     83.7691E-03    -15.8384E+06    -51.0497E+06    -15.5375E+06    -1.18892E+06    -15.6993E-03     31.3842E-03    -15.6848E-03     3.53474E-03    -15.6820E-03     31.1745E-03    -15.6655E-03     3.51888E-03
             806     1.77201E-03     83.7736E-03    -15.1247E+06    -49.9361E+06    -13.6426E+06    -2.14041E+06    -15.6880E-03     31.3836E-03    -15.6956E-03     6.55439E-03    -15.6715E-03     31.1757E-03    -15.6695E-03     6.52578E-03
             807     2.65805E-03     83.7812E-03    -14.1211E+06    -48.3199E+06    -11.2513E+06    -2.92752E+06    -15.6931E-03     31.3923E-03    -15.6992E-03     9.81626E-03    -15.6775E-03     31.1877E-03    -15.6649E-03     9.77699E-03
             808     3.54404E-03     83.7918E-03    -13.0927E+06    -46.7557E+06    -9.04092E+06    -3.45333E+06    -15.6975E-03     31.3990E-03    -15.7015E-03     13.2002E-03    -15.6824E-03     31.1977E-03    -15.6599E-03     13.1536E-03
             809     4.43011E-03     83.8057E-03    -11.9122E+06    -50.0278E+06    -6.75841E+06    -3.96949E+06    -15.7214E-03     31.4318E-03    -15.7103E-03     16.7054E-03    -15.6992E-03     31.2092E-03    -15.6543E-03     16.6515E-03
             810     5.31614E-03     83.8227E-03    -10.5611E+06    -50.0388E+06    -5.40844E+06    -4.45579E+06    -15.7466E-03     31.4559E-03    -15.7094E-03     20.3874E-03    -15.7198E-03     31.2298E-03    -15.6486E-03     20.3265E-03
             811     6.20223E-03     83.8434E-03    -9.32240E+06    -48.6503E+06    -4.33147E+06    -5.34127E+06    -15.7781E-03     31.4829E-03    -15.7047E-03     24.2460E-03    -15.7492E-03     31.2607E-03    -15.6423E-03     24.1728E-03
             812     7.08827E-03     83.8676E-03    -8.69652E+06    -52.8613E+06    -3.21205E+06    -6.28744E+06    -15.8303E-03     31.5397E-03    -15.7094E-03     28.2531E-03    -15.7944E-03     31.2946E-03    -15.6362E-03     28.1665E-03
             813     7.97443E-03     83.8957E-03    -8.47009E+06    -55.5754E+06    -2.60345E+06    -6.70032E+06    -15.8949E-03     31.6054E-03    -15.7105E-03     32.4001E-03    -15.8558E-03     31.3466E-03    -15.6307E-03     32.3065E-03
             814     8.86041E-03     83.9275E-03    -7.66934E+06    -52.9709E+06    -2.60772E+06    -7.09062E+06    -15.9614E-03     31.6620E-03    -15.7006E-03     36.6837E-03    -15.9236E-03     31.4166E-03    -15.6257E-03     36.5830E-03
             815     9.74660E-03     83.9636E-03    -6.42442E+06    -54.4093E+06    -3.34428E+06    -7.64840E+06    -16.0443E-03     31.7366E-03    -15.6924E-03     40.9746E-03    -15.9997E-03     31.4858E-03    -15.6209E-03     40.8636E-03
             816     10.6326E-03     84.0033E-03    -5.60523E+06    -54.5271E+06    -7.95832E+06    -7.83781E+06    -16.1432E-03     31.8068E-03    -15.6636E-03     45.3376E-03    -16.0915E-03     31.5648E-03    -15.6162E-03     45.2201E-03
             817     11.5189E-03     84.0477E-03    -4.95897E+06    -44.3222E+06    -7.00927E+06    -7.47723E+06    -16.2262E-03     31.8744E-03    -15.6482E-03     49.8763E-03    -16.1938E-03     31.6873E-03    -15.6118E-03     49.7581E-03
             818     12.4046E-03     84.0956E-03    -3.74161E+06    -41.8043E+06    -4.69843E+06    -7.12650E+06    -16.4177E-03     32.0683E-03    -15.6505E-03     56.7369E-03    -16.3984E-03     31.9009E-03    -15.6080E-03     56.6160E-03
             819     13.2909E-03     84.1527E-03    -2.74389E+06    -45.3433E+06    -13.7623E+06    -5.99219E+06    -16.4781E-03     32.0836E-03    -15.6055E-03     59.2920E-03    -16.4518E-03     31.9265E-03    -15.6046E-03     59.1780E-03
             820     14.1772E-03     84.2055E-03    -3.33849E+06    -32.8545E+06    -17.6662E+06    -4.12027E+06    -16.5765E-03     32.1409E-03    -15.5644E-03     64.2585E-03    -16.5987E-03     32.0858E-03    -15.6002E-03     64.1636E-03
             821     15.0628E-03     84.2710E-03    -4.13367E+06     4.61586E+06    -18.4366E+06    -2.23584E+06    -18.2476E-03     33.7605E-03    -15.5130E-03     97.6534E-03    -18.5238E-03     34.0920E-03    -15.6058E-03     97.5984E-03
             822     15.9499E-03     84.3865E-03    -5.13556E+06     73.2197E+06    -17.9532E+06    -41.7032E+03    -21.0067E-03     36.4173E-03    -15.4106E-03     166.910E-03    -22.8352E-03     38.5397E-03    -15.5991E-03     167.480E-03
             823     16.8360E-03     84.5889E-03    -4.53415E+06     157.114E+06     40.3509E+06     800.958E+03    -24.6950E-03     40.2328E-03    -15.5378E-03     241.378E-03    -30.6005E-03     46.5631E-03    -15.5573E-03     245.743E-03
             824     885.987E-06     84.7474E-03    -15.3444E+06    -48.6031E+06    -14.9955E+06    -1.28404E+06    -15.6794E-03     31.3797E-03    -15.7003E-03     3.51896E-03    -15.6639E-03     31.1808E-03    -15.6826E-03     3.50187E-03
             825     1.77202E-03     84.7520E-03    -14.7928E+06    -47.6133E+06    -13.3632E+06    -2.26406E+06    -15.6889E-03     31.3823E-03    -15.6934E-03     6.55606E-03    -15.6745E-03     31.1851E-03    -15.6697E-03     6.52585E-03
             826     2.65801E-03     84.7595E-03    -13.8841E+06    -46.4583E+06    -11.3017E+06    -3.09786E+06    -15.6887E-03     31.3850E-03    -15.6963E-03     9.81449E-03    -15.6746E-03     31.1894E-03    -15.6653E-03     9.77302E-03
             827     3.54407E-03     84.7701E-03    -12.6683E+06    -45.2044E+06    -9.27473E+06    -3.71421E+06    -15.6904E-03     31.3869E-03    -15.6965E-03     13.2009E-03    -15.6750E-03     31.1930E-03    -15.6590E-03     13.1510E-03
             828     4.43010E-03     84.7839E-03    -11.2983E+06    -48.3337E+06    -6.81754E+06    -4.40370E+06    -15.7132E-03     31.4175E-03    -15.7043E-03     16.7079E-03    -15.6903E-03     31.2027E-03    -15.6519E-03     16.6484E-03
             829     5.31618E-03     84.8010E-03    -9.85676E+06    -48.5931E+06    -5.36234E+06    -5.11601E+06    -15.7369E-03     31.4397E-03    -15.7028E-03     20.3912E-03    -15.7088E-03     31.2197E-03    -15.6449E-03     20.3217E-03
             830     6.20224E-03     84.8216E-03    -8.61627E+06    -46.6954E+06    -3.83333E+06    -5.73877E+06    -15.7673E-03     31.4660E-03    -15.6987E-03     24.2482E-03    -15.7384E-03     31.2519E-03    -15.6376E-03     24.1699E-03
             831     7.08835E-03     84.8459E-03    -7.68312E+06    -51.6690E+06    -1.74852E+06    -6.03577E+06    -15.8273E-03     31.5357E-03    -15.7084E-03     28.2294E-03    -15.7902E-03     31.2930E-03    -15.6311E-03     28.1460E-03
             832     7.97437E-03     84.8738E-03    -6.93681E+06    -54.1668E+06    -1.53294E+06    -6.45267E+06    -15.8866E-03     31.5928E-03    -15.7062E-03     32.4017E-03    -15.8435E-03     31.3372E-03    -15.6253E-03     32.3114E-03
             833     8.86053E-03     84.9059E-03    -6.43245E+06    -51.2125E+06    -2.32305E+06    -7.46842E+06    -15.9477E-03     31.6391E-03    -15.6914E-03     36.7133E-03    -15.9068E-03     31.4003E-03    -15.6194E-03     36.6077E-03
             834     9.74658E-03     84.9416E-03    -5.75530E+06    -52.8102E+06    -2.97050E+06    -8.49627E+06    -16.0431E-03     31.7274E-03    -15.6843E-03     41.0293E-03    -15.9980E-03     31.4830E-03    -15.6142E-03     40.9074E-03
             835     10.6327E-03     84.9817E-03    -4.56527E+06    -53.7467E+06    -7.60048E+06    -9.09061E+06    -16.1353E-03     31.7914E-03    -15.6560E-03     45.3927E-03    -16.0801E-03     31.5512E-03    -15.6095E-03     45.2590E-03
             836     11.5187E-03     85.0254E-03    -3.37104E+06    -44.7240E+06    -6.92470E+06    -8.61142E+06    -16.1851E-03     31.8234E-03    -15.6382E-03     49.9886E-03    -16.1442E-03     31.6317E-03    -15.6031E-03     49.8560E-03
             837     12.4052E-03     85.0742E-03    -3.15037E+06    -41.6099E+06    -4.63513E+06    -7.74470E+06    -16.4108E-03     32.0500E-03    -15.6393E-03     56.9182E-03    -16.3888E-03     31.8826E-03    -15.5975E-03     56.7894E-03
             838     13.2910E-03     85.1305E-03    -4.48185E+06    -47.5135E+06    -14.8552E+06    -6.13105E+06    -16.4644E-03     32.0597E-03    -15.5953E-03     59.0744E-03    -16.4419E-03     31.8957E-03    -15.5942E-03     58.9588E-03
             839     14.1775E-03     85.1834E-03    -5.71845E+06    -34.3752E+06    -18.6091E+06    -4.48205E+06    -16.7476E-03     32.3087E-03    -15.5611E-03     64.0088E-03    -16.7786E-03     32.2514E-03    -15.5961E-03     63.9084E-03
             840     15.0640E-03     85.2496E-03    -6.29423E+06     3.80832E+06    -19.1095E+06    -2.64519E+06    -18.6286E-03     34.1537E-03    -15.5251E-03     98.6394E-03    -18.9164E-03     34.4880E-03    -15.6170E-03     98.5776E-03
             841     15.9452E-03     85.3684E-03    -4.93062E+06     70.6285E+06    -21.7500E+06    -244.662E+03    -20.5678E-03     35.9755E-03    -15.4077E-03     165.452E-03    -22.3544E-03     38.0585E-03    -15.6117E-03     166.028E-03
             842     16.8381E-03     85.5561E-03    -2.96796E+06     156.387E+06     38.2278E+06     330.982E+03    -24.4894E-03     40.0089E-03    -15.5195E-03     242.902E-03    -30.4929E-03     46.4463E-03    -15.5508E-03     247.276E-03
             843     886.024E-06     85.7257E-03    -14.8860E+06    -46.0640E+06    -14.6075E+06    -1.29422E+06    -15.6691E-03     31.3704E-03    -15.7013E-03     3.52624E-03    -15.6555E-03     31.1830E-03    -15.6860E-03     3.50902E-03
             844     1.77200E-03     85.7302E-03    -14.4176E+06    -45.2202E+06    -13.2155E+06    -2.29270E+06    -15.6834E-03     31.3708E-03    -15.6874E-03     6.56148E-03    -15.6709E-03     31.1848E-03    -15.6670E-03     6.53091E-03
             845     2.65805E-03     85.7378E-03    -13.5352E+06    -44.2423E+06    -11.2158E+06    -3.37798E+06    -15.6799E-03     31.3693E-03    -15.6894E-03     9.81677E-03    -15.6673E-03     31.1842E-03    -15.6617E-03     9.77168E-03
             846     3.54407E-03     85.7484E-03    -12.2676E+06    -43.3426E+06    -9.04309E+06    -4.32400E+06    -15.6822E-03     31.3720E-03    -15.6899E-03     13.2026E-03    -15.6679E-03     31.1866E-03    -15.6545E-03     13.1447E-03
             847     4.43014E-03     85.7622E-03    -10.7690E+06    -46.4727E+06    -6.46500E+06    -5.05525E+06    -15.7035E-03     31.4009E-03    -15.6974E-03     16.7088E-03    -15.6811E-03     31.1941E-03    -15.6467E-03     16.6409E-03
             848     5.31619E-03     85.7792E-03    -9.47352E+06    -46.9482E+06    -4.93392E+06    -5.67014E+06    -15.7267E-03     31.4229E-03    -15.6962E-03     20.3922E-03    -15.6997E-03     31.2099E-03    -15.6390E-03     20.3157E-03
             849     6.20229E-03     85.7999E-03    -8.54659E+06    -45.3365E+06    -4.02433E+06    -6.01669E+06    -15.7532E-03     31.4423E-03    -15.6891E-03     24.2577E-03    -15.7257E-03     31.2351E-03    -15.6310E-03     24.1758E-03
             850     7.08836E-03     85.8240E-03    -7.56224E+06    -50.5417E+06    -2.15748E+06    -6.34333E+06    -15.8082E-03     31.5050E-03    -15.6968E-03     28.2512E-03    -15.7715E-03     31.2684E-03    -15.6234E-03     28.1639E-03
             851     7.97450E-03     85.8521E-03    -6.35646E+06    -52.6040E+06    -1.41362E+06    -6.86956E+06    -15.8639E-03     31.5584E-03    -15.6945E-03     32.4342E-03    -15.8204E-03     31.3096E-03    -15.6161E-03     32.3386E-03
             852     8.86059E-03     85.8839E-03    -5.30689E+06    -49.1650E+06    -1.69333E+06    -7.64067E+06    -15.9218E-03     31.6008E-03    -15.6790E-03     36.7664E-03    -15.8790E-03     31.3696E-03    -15.6085E-03     36.6587E-03
             853     9.74674E-03     85.9200E-03    -4.56872E+06    -50.4450E+06    -2.00369E+06    -9.07468E+06    -16.0165E-03     31.6878E-03    -15.6714E-03     41.1081E-03    -15.9702E-03     31.4521E-03    -15.6016E-03     40.9787E-03
             854     10.6328E-03     85.9597E-03    -4.15840E+06    -52.4987E+06    -6.33661E+06    -10.1699E+06    -16.1180E-03     31.7645E-03    -15.6465E-03     45.4374E-03    -16.0643E-03     31.5281E-03    -15.5960E-03     45.2899E-03
             855     11.5191E-03     86.0038E-03    -4.29056E+06    -45.8136E+06    -6.67483E+06    -9.30476E+06    -16.1851E-03     31.8146E-03    -15.6294E-03     50.0165E-03    -16.1476E-03     31.6185E-03    -15.5901E-03     49.8749E-03
             856     12.4051E-03     86.0519E-03    -4.62638E+06    -42.2349E+06    -4.26941E+06    -7.37210E+06    -16.3519E-03     31.9823E-03    -15.6304E-03     56.9731E-03    -16.3368E-03     31.8132E-03    -15.5838E-03     56.8494E-03
             857     13.2913E-03     86.1093E-03    -4.56249E+06    -48.4561E+06    -13.7073E+06    -6.02346E+06    -16.6161E-03     32.2088E-03    -15.5926E-03     59.1493E-03    -16.5945E-03     32.0387E-03    -15.5843E-03     59.0346E-03
             858     14.1770E-03     86.1609E-03    -4.76589E+06    -35.8408E+06    -18.2008E+06    -4.56385E+06    -17.0269E-03     32.5939E-03    -15.5670E-03     64.7731E-03    -17.0534E-03     32.5291E-03    -15.5991E-03     64.6704E-03
             859     15.0613E-03     86.2298E-03    -5.33659E+06     1.65709E+06    -18.9620E+06    -2.58445E+06    -17.7340E-03     33.2457E-03    -15.5117E-03     99.0353E-03    -18.0009E-03     33.5544E-03    -15.6012E-03     98.9810E-03
             860     15.9530E-03     86.3447E-03    -5.16763E+06     67.4836E+06    -23.3137E+06    -1.68463E+06    -21.1182E-03     36.4983E-03    -15.3801E-03     164.648E-03    -22.9031E-03     38.5720E-03    -15.5870E-03     165.158E-03
             861     16.8341E-03     86.5354E-03    -3.37373E+06     155.942E+06     38.3665E+06    -923.213E+03    -25.3620E-03     40.9006E-03    -15.5386E-03     242.266E-03    -31.3571E-03     47.3263E-03    -15.5680E-03     246.604E-03
             862     885.993E-06     86.7040E-03    -14.4510E+06    -43.3866E+06    -14.2450E+06    -1.42333E+06    -15.6597E-03     31.3501E-03    -15.6905E-03     3.52541E-03    -15.6483E-03     31.1749E-03    -15.6778E-03     3.50652E-03
             863     1.77204E-03     86.7086E-03    -13.7641E+06    -42.6906E+06    -12.6898E+06    -2.51807E+06    -15.6712E-03     31.3482E-03    -15.6770E-03     6.56370E-03    -15.6598E-03     31.1732E-03    -15.6586E-03     6.53023E-03
             864     2.65805E-03     86.7160E-03    -12.8915E+06    -41.7633E+06    -10.5019E+06    -3.58455E+06    -15.6707E-03     31.3503E-03    -15.6796E-03     9.81741E-03    -15.6595E-03     31.1756E-03    -15.6529E-03     9.76967E-03
             865     3.54411E-03     86.7267E-03    -11.9922E+06    -41.0218E+06    -8.35003E+06    -4.67262E+06    -15.6717E-03     31.3527E-03    -15.6810E-03     13.2035E-03    -15.6604E-03     31.1774E-03    -15.6459E-03     13.1412E-03
             866     4.43016E-03     86.7404E-03    -10.7935E+06    -44.3714E+06    -6.15073E+06    -5.72403E+06    -15.6895E-03     31.3769E-03    -15.6873E-03     16.7134E-03    -15.6708E-03     31.1801E-03    -15.6381E-03     16.6369E-03
             867     5.31625E-03     86.7575E-03    -9.26280E+06    -45.3967E+06    -5.00493E+06    -6.31591E+06    -15.7089E-03     31.3928E-03    -15.6839E-03     20.4033E-03    -15.6830E-03     31.1873E-03    -15.6296E-03     20.3185E-03
             868     6.20234E-03     86.7780E-03    -7.80294E+06    -44.1576E+06    -4.20894E+06    -6.53317E+06    -15.7301E-03     31.4044E-03    -15.6743E-03     24.2819E-03    -15.7003E-03     31.2023E-03    -15.6200E-03     24.1934E-03
             869     7.08848E-03     86.8023E-03    -6.64176E+06    -49.1660E+06    -1.93752E+06    -6.81886E+06    -15.7812E-03     31.4627E-03    -15.6815E-03     28.2813E-03    -15.7422E-03     31.2312E-03    -15.6103E-03     28.1879E-03
             870     7.97459E-03     86.8301E-03    -5.63003E+06    -50.9277E+06    -472.648E+03    -7.45967E+06    -15.8379E-03     31.5189E-03    -15.6809E-03     32.4638E-03    -15.7945E-03     31.2760E-03    -15.6013E-03     32.3606E-03
             871     8.86074E-03     86.8621E-03    -4.50377E+06    -47.2701E+06    -653.617E+03    -8.36503E+06    -15.8914E-03     31.5556E-03    -15.6642E-03     36.8062E-03    -15.8489E-03     31.3312E-03    -15.5923E-03     36.6892E-03
             872     9.74693E-03     86.8979E-03    -3.59509E+06    -47.8187E+06    -650.316E+03    -9.42001E+06    -15.9827E-03     31.6380E-03    -15.6553E-03     41.1579E-03    -15.9373E-03     31.4120E-03    -15.5840E-03     41.0243E-03
             873     10.6331E-03     86.9380E-03    -3.79430E+06    -51.4998E+06    -3.86591E+06    -9.84577E+06    -16.1098E-03     31.7489E-03    -15.6391E-03     45.4355E-03    -16.0594E-03     31.5134E-03    -15.5782E-03     45.2922E-03
             874     11.5192E-03     86.9816E-03    -4.45630E+06    -46.9255E+06    -5.47698E+06    -8.95648E+06    -16.2135E-03     31.8352E-03    -15.6217E-03     50.0486E-03    -16.1770E-03     31.6321E-03    -15.5746E-03     49.9115E-03
             875     12.4053E-03     87.0305E-03    -4.30445E+06      -43.17E+06    -4.55523E+06    -7.74308E+06    -16.3406E-03     31.9565E-03    -15.6159E-03     56.9503E-03    -16.3218E-03     31.7824E-03    -15.5699E-03     56.8219E-03
             876     13.2917E-03     87.0867E-03    -3.98957E+06    -49.4481E+06    -13.7199E+06    -6.56755E+06    -16.6090E-03     32.1879E-03    -15.5789E-03     59.6306E-03    -16.5832E-03     32.0122E-03    -15.5701E-03     59.5089E-03
             877     14.1772E-03     87.1409E-03    -3.89113E+06    -37.3558E+06    -18.2303E+06    -4.96294E+06    -16.8670E-03     32.4152E-03    -15.5482E-03     65.2420E-03    -16.8862E-03     32.3408E-03    -15.5795E-03     65.1349E-03
             878     15.0648E-03     87.2069E-03    -4.12998E+06     294.709E+03    -17.7938E+06    -3.61151E+06    -17.6276E-03     33.1206E-03    -15.4930E-03     97.5953E-03    -17.8800E-03     33.4109E-03    -15.5764E-03     97.5252E-03
             879     15.9481E-03     87.3208E-03    -4.28677E+06     66.3302E+06    -22.1671E+06    -2.65489E+06    -21.6324E-03     37.0035E-03    -15.3711E-03     166.137E-03    -23.4669E-03     39.1225E-03    -15.5719E-03     166.628E-03
             880     16.8349E-03     87.5201E-03    -3.37778E+06     154.800E+06     38.5936E+06    -947.169E+03    -25.4127E-03     40.9547E-03    -15.5419E-03     241.088E-03    -31.2874E-03     47.2551E-03    -15.5685E-03     245.384E-03
             881     886.035E-06     87.6823E-03    -13.5888E+06    -40.2867E+06    -13.3453E+06    -1.65421E+06    -15.6457E-03     31.3209E-03    -15.6752E-03     3.52664E-03    -15.6359E-03     31.1587E-03    -15.6638E-03     3.50478E-03
             882     1.77204E-03     87.6868E-03    -12.8830E+06    -39.9262E+06    -11.6832E+06    -2.91370E+06    -15.6573E-03     31.3209E-03    -15.6636E-03     6.56617E-03    -15.6469E-03     31.1570E-03    -15.6455E-03     6.52759E-03
             883     2.65810E-03     87.6944E-03    -11.7314E+06    -39.3145E+06    -9.36528E+06    -3.91042E+06    -15.6559E-03     31.3226E-03    -15.6667E-03     9.81875E-03    -15.6442E-03     31.1568E-03    -15.6395E-03     9.76681E-03
             884     3.54415E-03     87.7049E-03    -10.6757E+06    -38.7928E+06    -6.96667E+06    -4.61085E+06    -15.6568E-03     31.3256E-03    -15.6688E-03     13.2048E-03    -15.6442E-03     31.1576E-03    -15.6319E-03     13.1432E-03
             885     4.43023E-03     87.7187E-03    -9.94174E+06    -41.5819E+06    -5.06457E+06    -5.81406E+06    -15.6701E-03     31.3429E-03    -15.6729E-03     16.7223E-03    -15.6527E-03     31.1573E-03    -15.6235E-03     16.6447E-03
             886     5.31631E-03     87.7356E-03    -8.93491E+06    -43.5157E+06    -4.72308E+06    -7.13949E+06    -15.6818E-03     31.3481E-03    -15.6663E-03     20.4200E-03    -15.6574E-03     31.1512E-03    -15.6138E-03     20.3245E-03
             887     6.20246E-03     87.7562E-03    -7.74501E+06    -43.2505E+06    -4.27653E+06    -7.29284E+06    -15.6984E-03     31.3534E-03    -15.6550E-03     24.3075E-03    -15.6695E-03     31.1559E-03    -15.6024E-03     24.2092E-03
             888     7.08860E-03     87.7803E-03    -6.59826E+06    -47.6248E+06    -1.81681E+06    -7.39102E+06    -15.7490E-03     31.4096E-03    -15.6606E-03     28.3190E-03    -15.7123E-03     31.1856E-03    -15.5910E-03     28.2183E-03
             889     7.97475E-03     87.8084E-03    -5.25526E+06    -48.9891E+06    -3.63375E+03    -8.17550E+06    -15.8040E-03     31.4633E-03    -15.6593E-03     32.5082E-03    -15.7621E-03     31.2289E-03    -15.5807E-03     32.3958E-03
             890     8.86094E-03     87.8401E-03    -4.12721E+06    -45.3557E+06     55.0679E+03    -9.03191E+06    -15.8642E-03     31.5070E-03    -15.6428E-03     36.8602E-03    -15.8236E-03     31.2906E-03    -15.5708E-03     36.7347E-03
             891     9.74709E-03     87.8762E-03    -3.84974E+06    -46.3325E+06    -376.013E+03    -9.32193E+06    -15.9559E-03     31.5890E-03    -15.6330E-03     41.2140E-03    -15.9143E-03     31.3703E-03    -15.5622E-03     41.0816E-03
             892     10.6333E-03     87.9160E-03    -4.04111E+06    -50.8352E+06    -2.67366E+06    -9.13260E+06    -16.0865E-03     31.7090E-03    -15.6225E-03     45.5199E-03    -16.0400E-03     31.4754E-03    -15.5563E-03     45.3858E-03
             893     11.5194E-03     87.9600E-03    -3.65862E+06    -46.7152E+06    -4.21313E+06    -9.29004E+06    -16.2137E-03     31.8189E-03    -15.6052E-03     50.1764E-03    -16.1753E-03     31.6139E-03    -15.5533E-03     50.0350E-03
             894     12.4056E-03     88.0082E-03    -2.96254E+06    -44.1293E+06    -4.54864E+06    -8.45098E+06    -16.3980E-03     31.9951E-03    -15.5971E-03     57.0051E-03    -16.3712E-03     31.8144E-03    -15.5516E-03     56.8674E-03
             895     13.2915E-03     88.0652E-03    -3.18829E+06    -51.0148E+06    -13.5842E+06    -6.72732E+06    -16.5206E-03     32.0827E-03    -15.5620E-03     59.8886E-03    -16.4889E-03     31.8979E-03    -15.5514E-03     59.7651E-03
             896     14.1780E-03     88.1188E-03    -3.73746E+06    -38.3096E+06    -18.3558E+06    -5.84602E+06    -16.6414E-03     32.1625E-03    -15.5212E-03     65.1153E-03    -16.6571E-03     32.0822E-03    -15.5520E-03     64.9979E-03
             897     15.0626E-03     88.1853E-03    -3.42947E+06    -985.775E+03    -17.7191E+06    -5.20151E+06    -17.8518E-03     33.3195E-03    -15.4677E-03     97.5740E-03    -18.1049E-03     33.6083E-03    -15.5499E-03     97.4819E-03
             898     15.9510E-03     88.2994E-03    -4.78893E+06     64.5052E+06    -22.8181E+06    -2.76993E+06    -21.6167E-03     36.9639E-03    -15.3472E-03     168.159E-03    -23.4759E-03     39.1013E-03    -15.5479E-03     168.677E-03
             899     16.8371E-03     88.4989E-03    -4.46375E+06     153.562E+06     36.5386E+06    -468.504E+03    -25.1968E-03     40.7025E-03    -15.5057E-03     239.857E-03    -30.9901E-03     46.9192E-03    -15.5392E-03     244.140E-03
             900     886.030E-06     88.6605E-03    -12.3592E+06    -36.8639E+06    -12.0176E+06    -1.81848E+06    -15.6392E-03     31.2839E-03    -15.6447E-03     3.53090E-03    -15.6301E-03     31.1351E-03    -15.6334E-03     3.50692E-03
             901     1.77209E-03     88.6652E-03    -11.7234E+06    -36.7416E+06    -10.4076E+06    -3.18942E+06    -15.6377E-03     31.2831E-03    -15.6455E-03     6.56727E-03    -15.6280E-03     31.1316E-03    -15.6272E-03     6.52514E-03
             902     2.65813E-03     88.6726E-03    -10.7492E+06    -36.7974E+06    -8.41112E+06    -4.37394E+06    -15.6323E-03     31.2795E-03    -15.6472E-03     9.82402E-03    -15.6207E-03     31.1235E-03    -15.6203E-03     9.76611E-03
             903     3.54423E-03     88.6832E-03    -9.44576E+06    -37.0147E+06    -6.20405E+06    -4.91291E+06    -15.6310E-03     31.2785E-03    -15.6475E-03     13.2113E-03    -15.6159E-03     31.1165E-03    -15.6111E-03     13.1459E-03
             904     4.43032E-03     88.6968E-03    -7.94480E+06    -38.3414E+06    -3.56789E+06    -5.95412E+06    -15.6394E-03     31.2893E-03    -15.6499E-03     16.7349E-03    -15.6189E-03     31.1148E-03    -15.6006E-03     16.6555E-03
             905     5.31646E-03     88.7139E-03    -7.11285E+06    -41.3449E+06    -2.26791E+06    -7.11484E+06    -15.6557E-03     31.3042E-03    -15.6485E-03     20.4203E-03    -15.6289E-03     31.1119E-03    -15.5895E-03     20.3252E-03
             906     6.20260E-03     88.7343E-03    -6.86025E+06    -42.3491E+06    -2.88339E+06    -7.42485E+06    -15.6683E-03     31.3026E-03    -15.6343E-03     24.3213E-03    -15.6383E-03     31.1062E-03    -15.5773E-03     24.2214E-03
             907     7.08879E-03     88.7585E-03    -6.14810E+06    -45.5714E+06    -1.89110E+06    -8.03851E+06    -15.7030E-03     31.3329E-03    -15.6298E-03     28.3711E-03    -15.6669E-03     31.1186E-03    -15.5643E-03     28.2621E-03
             908     7.97499E-03     88.7863E-03    -5.04861E+06    -47.0691E+06    -312.663E+03    -8.95686E+06    -15.7606E-03     31.3865E-03    -15.6259E-03     32.5853E-03    -15.7200E-03     31.1618E-03    -15.5519E-03     32.4629E-03
             909     8.86117E-03     88.8183E-03    -4.14610E+06    -43.7449E+06    -263.955E+03    -9.43538E+06    -15.8211E-03     31.4299E-03    -15.6087E-03     36.9631E-03    -15.7824E-03     31.2219E-03    -15.5406E-03     36.8324E-03
             910     9.74742E-03     88.8541E-03    -3.80639E+06    -46.2527E+06    -1.05575E+06    -8.85544E+06    -15.9147E-03     31.5127E-03    -15.5980E-03     41.3536E-03    -15.8720E-03     31.2953E-03    -15.5307E-03     41.2275E-03
             911     10.6336E-03     88.8941E-03    -4.04456E+06    -49.5583E+06    -3.10507E+06    -8.71997E+06    -16.0403E-03     31.6260E-03    -15.5857E-03     45.7197E-03    -15.9950E-03     31.3994E-03    -15.5235E-03     45.5911E-03
             912     11.5198E-03     88.9379E-03    -4.14515E+06    -44.8263E+06    -3.98551E+06    -9.90185E+06    -16.1656E-03     31.7358E-03    -15.5703E-03     50.4289E-03    -16.1326E-03     31.5405E-03    -15.5192E-03     50.2798E-03
             913     12.4058E-03     88.9867E-03    -3.97874E+06    -46.1838E+06    -5.85046E+06    -9.04582E+06    -16.4361E-03     31.9987E-03    -15.5626E-03     57.3549E-03    -16.4098E-03     31.8113E-03    -15.5191E-03     57.2095E-03
             914     13.2921E-03     89.0430E-03    -3.97085E+06    -52.0615E+06    -14.9806E+06    -6.95254E+06    -16.5085E-03     32.0363E-03    -15.5278E-03     60.0719E-03    -16.4773E-03     31.8497E-03    -15.5215E-03     59.9456E-03
             915     14.1779E-03     89.0972E-03    -4.26414E+06    -38.1232E+06    -18.6867E+06    -6.52078E+06    -16.4328E-03     31.9176E-03    -15.4849E-03     65.4073E-03    -16.4505E-03     31.8390E-03    -15.5168E-03     65.2821E-03
             916     15.0657E-03     89.1632E-03    -4.86071E+06    -2.77182E+06    -18.9254E+06    -6.04065E+06    -18.2397E-03     33.6773E-03    -15.4377E-03     97.9176E-03    -18.5041E-03     33.9696E-03    -15.5212E-03     97.8132E-03
             917     15.9503E-03     89.2772E-03    -5.77141E+06     62.0472E+06    -22.8810E+06    -3.71202E+06    -21.3397E-03     36.6715E-03    -15.3318E-03     166.654E-03    -23.1572E-03     38.7553E-03    -15.5279E-03     167.169E-03
             918     16.8355E-03     89.4783E-03    -4.54087E+06     151.772E+06     35.9572E+06    -865.497E+03    -24.9172E-03     40.3898E-03    -15.4726E-03     240.534E-03    -30.7548E-03     46.6459E-03    -15.5063E-03     244.833E-03
             919     886.067E-06     89.6389E-03    -11.0509E+06    -33.2679E+06    -10.6664E+06    -1.84836E+06    -15.6151E-03     31.2299E-03    -15.6149E-03     3.52570E-03    -15.6066E-03     31.0952E-03    -15.6039E-03     3.50135E-03
             920     1.77212E-03     89.6433E-03    -10.4247E+06    -33.2402E+06    -9.17921E+06    -3.36546E+06    -15.6061E-03     31.2233E-03    -15.6172E-03     6.57333E-03    -15.5968E-03     31.0856E-03    -15.5998E-03     6.52895E-03
             921     2.65823E-03     89.6509E-03    -9.57970E+06    -34.0780E+06    -7.09050E+06    -4.59144E+06    -15.6010E-03     31.2204E-03    -15.6194E-03     9.83410E-03    -15.5894E-03     31.0743E-03    -15.5915E-03     9.77340E-03
             922     3.54432E-03     89.6613E-03    -8.37399E+06    -34.8151E+06    -5.29312E+06    -5.63799E+06    -15.5951E-03     31.2123E-03    -15.6172E-03     13.2267E-03    -15.5791E-03     31.0583E-03    -15.5810E-03     13.1519E-03
             923     4.43047E-03     89.6750E-03    -6.98284E+06    -35.4970E+06    -3.32996E+06    -6.62724E+06    -15.5946E-03     31.2080E-03    -15.6134E-03     16.7605E-03    -15.5738E-03     31.0460E-03    -15.5684E-03     16.6724E-03
             924     5.31663E-03     89.6920E-03    -5.79898E+06    -39.8368E+06    -1.07431E+06    -6.89864E+06    -15.6160E-03     31.2321E-03    -15.6161E-03     20.4391E-03    -15.5865E-03     31.0437E-03    -15.5553E-03     20.3468E-03
             925     6.20281E-03     89.7124E-03    -5.10763E+06    -40.8035E+06    -1.12929E+06    -7.11213E+06    -15.6264E-03     31.2289E-03    -15.6026E-03     24.3447E-03    -15.5924E-03     31.0352E-03    -15.5417E-03     24.2489E-03
             926     7.08904E-03     89.7365E-03    -4.73074E+06    -42.9029E+06    -1.39775E+06    -8.29613E+06    -15.6458E-03     31.2343E-03    -15.5885E-03     28.4383E-03    -15.6071E-03     31.0305E-03    -15.5264E-03     28.3261E-03
             927     7.97529E-03     89.7644E-03    -4.20921E+06    -45.2518E+06    -706.769E+03    -9.37474E+06    -15.6939E-03     31.2731E-03    -15.5792E-03     32.7015E-03    -15.6511E-03     31.0568E-03    -15.5110E-03     32.5739E-03
             928     8.86157E-03     89.7962E-03    -3.75321E+06    -42.5973E+06    -657.968E+03    -9.59417E+06    -15.7527E-03     31.3132E-03    -15.5605E-03     37.1073E-03    -15.7130E-03     31.1110E-03    -15.4966E-03     36.9747E-03
             929     9.74784E-03     89.8322E-03    -3.37082E+06    -46.8570E+06    -991.053E+03    -8.84648E+06    -15.8537E-03     31.4059E-03    -15.5522E-03     41.5159E-03    -15.8079E-03     31.1847E-03    -15.4843E-03     41.3900E-03
             930     10.6342E-03     89.8720E-03    -2.85658E+06    -47.6317E+06    -2.25321E+06    -8.63852E+06    -16.0086E-03     31.5471E-03    -15.5384E-03     45.9353E-03    -15.9613E-03     31.3271E-03    -15.4765E-03     45.8080E-03
             931     11.5203E-03     89.9161E-03    -3.26374E+06    -43.0986E+06    -1.52088E+06    -9.24187E+06    -16.1130E-03     31.6450E-03    -15.5319E-03     50.5147E-03    -16.0816E-03     31.4534E-03    -15.4723E-03     50.3743E-03
             932     12.4068E-03     89.9644E-03    -4.13291E+06    -47.7755E+06    -4.54347E+06    -8.77058E+06    -16.3865E-03     31.9106E-03    -15.5241E-03     57.6481E-03    -16.3605E-03     31.7135E-03    -15.4716E-03     57.5065E-03
             933     13.2924E-03     90.0218E-03    -4.35970E+06    -52.2785E+06    -15.4705E+06    -7.94863E+06    -16.6130E-03     32.0962E-03    -15.4833E-03     60.0973E-03    -16.5827E-03     31.9097E-03    -15.4785E-03     59.9580E-03
             934     14.1792E-03     90.0743E-03    -4.27660E+06    -37.6490E+06    -17.9959E+06    -7.38379E+06    -16.6859E-03     32.1451E-03    -15.4592E-03     64.6862E-03    -16.7055E-03     32.0680E-03    -15.4883E-03     64.5489E-03
             935     15.0646E-03     90.1412E-03    -4.21507E+06    -4.32759E+06    -18.0013E+06    -5.99013E+06    -18.3218E-03     33.7469E-03    -15.4252E-03     99.0401E-03    -18.5846E-03     34.0316E-03    -15.5028E-03     98.9368E-03
             936     15.9481E-03     90.2599E-03    -3.17991E+06     58.3893E+06    -22.6159E+06    -3.59471E+06    -21.1488E-03     36.4641E-03    -15.3153E-03     165.745E-03    -22.9205E-03     38.4974E-03    -15.5084E-03     166.264E-03
             937     16.8404E-03     90.4472E-03    -2.55660E+06     149.728E+06     36.8937E+06    -1.26108E+06    -25.1377E-03     40.5973E-03    -15.4596E-03     241.169E-03    -31.0422E-03     46.9173E-03    -15.4885E-03     245.457E-03
             938     886.084E-06     90.6170E-03    -9.72973E+06    -29.4917E+06    -9.52626E+06    -1.91309E+06    -15.5670E-03     31.1436E-03    -15.5766E-03     3.53505E-03    -15.5591E-03     31.0242E-03    -15.5674E-03     3.50986E-03
             939     1.77221E-03     90.6216E-03    -9.28088E+06    -29.6938E+06    -7.98809E+06    -3.42354E+06    -15.5627E-03     31.1369E-03    -15.5742E-03     6.58374E-03    -15.5545E-03     31.0135E-03    -15.5576E-03     6.53862E-03
             940     2.65832E-03     90.6290E-03    -8.40160E+06    -31.0642E+06    -5.90552E+06    -4.78482E+06    -15.5556E-03     31.1322E-03    -15.5766E-03     9.84860E-03    -15.5442E-03     30.9978E-03    -15.5489E-03     9.78543E-03
             941     3.54448E-03     90.6395E-03    -7.39313E+06    -31.8805E+06    -4.41510E+06    -6.08671E+06    -15.5447E-03     31.1168E-03    -15.5721E-03     13.2480E-03    -15.5293E-03     30.9748E-03    -15.5372E-03     13.1676E-03
             942     4.43065E-03     90.6530E-03    -6.71901E+06    -33.3126E+06    -3.62741E+06    -6.87326E+06    -15.5365E-03     31.0991E-03    -15.5626E-03     16.7966E-03    -15.5171E-03     30.9481E-03    -15.5227E-03     16.7054E-03
             943     5.31688E-03     90.6700E-03    -5.98271E+06    -38.4491E+06    -2.36993E+06    -7.25331E+06    -15.5466E-03     31.1059E-03    -15.5594E-03     20.4990E-03    -15.5181E-03     30.9266E-03    -15.5068E-03     20.4022E-03
             944     6.20313E-03     90.6903E-03    -4.77326E+06    -39.2266E+06    -1.52310E+06    -7.50004E+06    -15.5537E-03     31.0998E-03    -15.5461E-03     24.4161E-03    -15.5198E-03     30.9140E-03    -15.4899E-03     24.3153E-03
             945     7.08941E-03     90.7144E-03    -3.88383E+06    -40.0586E+06    -920.003E+03    -8.28948E+06    -15.5680E-03     31.0987E-03    -15.5307E-03     28.5376E-03    -15.5298E-03     30.9072E-03    -15.4716E-03     28.4256E-03
             946     7.97575E-03     90.7422E-03    -3.64023E+06    -43.3909E+06    -448.211E+03    -9.35173E+06    -15.6071E-03     31.1261E-03    -15.5189E-03     32.8350E-03    -15.5646E-03     30.9178E-03    -15.4530E-03     32.7078E-03
             947     8.86211E-03     90.7741E-03    -3.86176E+06    -42.2200E+06    -247.872E+03    -9.09701E+06    -15.6683E-03     31.1695E-03    -15.5013E-03     37.2613E-03    -15.6303E-03     30.9687E-03    -15.4357E-03     37.1353E-03
             948     9.74848E-03     90.8099E-03    -4.07902E+06    -46.3424E+06    -73.6023E+03    -8.85949E+06    -15.7954E-03     31.2905E-03    -15.4951E-03     41.6994E-03    -15.7552E-03     31.0715E-03    -15.4224E-03     41.5735E-03
             949     10.6347E-03     90.8499E-03    -3.74040E+06    -46.3230E+06    -2.30962E+06    -9.19643E+06    -15.9549E-03     31.4311E-03    -15.4762E-03     46.2123E-03    -15.9137E-03     31.2189E-03    -15.4151E-03     46.0780E-03
             950     11.5210E-03     90.8941E-03    -2.99020E+06    -42.5313E+06    -389.932E+03    -8.82629E+06    -16.0974E-03     31.5743E-03    -15.4768E-03     50.7129E-03    -16.0671E-03     31.3835E-03    -15.4128E-03     50.5780E-03
             951     12.4071E-03     90.9422E-03    -2.35154E+06    -47.6787E+06    -2.72817E+06    -8.66960E+06    -16.3316E-03     31.8037E-03    -15.4721E-03     57.9107E-03    -16.2993E-03     31.6017E-03    -15.4132E-03     57.7707E-03
             952     13.2937E-03     91.0000E-03    -2.05171E+06    -52.1446E+06    -15.0036E+06    -8.54758E+06    -16.7075E-03     32.1348E-03    -15.4273E-03     60.6689E-03    -16.6664E-03     31.9448E-03    -15.4238E-03     60.5219E-03
             953     14.1784E-03     91.0529E-03    -2.67948E+06    -37.9258E+06    -16.9822E+06    -7.62120E+06    -17.1461E-03     32.5722E-03    -15.4261E-03     65.5094E-03    -17.1607E-03     32.4919E-03    -15.4521E-03     65.3675E-03
             954     15.0642E-03     91.1197E-03    -3.41335E+06    -5.94661E+06    -17.4431E+06    -6.07536E+06    -17.8350E-03     33.2286E-03    -15.3936E-03     99.4021E-03    -18.0839E-03     33.4948E-03    -15.4672E-03     99.3027E-03
             955     15.9549E-03     91.2363E-03    -4.00973E+06     54.5946E+06    -23.5590E+06    -4.16042E+06    -21.6076E-03     36.8887E-03    -15.2811E-03     165.861E-03    -23.3884E-03     38.9173E-03    -15.4722E-03     166.338E-03
             956     16.8332E-03     91.4290E-03    -3.67968E+06     147.694E+06     36.5916E+06    -1.94818E+06    -25.8414E-03     41.3019E-03    -15.4605E-03     240.551E-03    -31.7302E-03     47.5959E-03    -15.4863E-03     244.814E-03
             957     886.162E-06     91.5952E-03    -8.64069E+06    -25.7453E+06    -8.29348E+06    -1.86147E+06    -15.5194E-03     31.0214E-03    -15.5020E-03     3.54602E-03    -15.5132E-03     30.9173E-03    -15.4936E-03     3.52152E-03
             958     1.77230E-03     91.5996E-03    -8.37728E+06    -26.1860E+06    -7.19159E+06    -3.28702E+06    -15.4999E-03     31.0116E-03    -15.5117E-03     6.59282E-03    -15.4935E-03     30.9034E-03    -15.4976E-03     6.54949E-03
             959     2.65849E-03     91.6071E-03    -7.87144E+06    -27.6661E+06    -5.70861E+06    -4.86147E+06    -15.4855E-03     30.9960E-03    -15.5105E-03     9.87200E-03    -15.4766E-03     30.8775E-03    -15.4875E-03     9.80790E-03
             960     3.54469E-03     91.6175E-03    -7.27445E+06    -28.9469E+06    -4.45788E+06    -6.11688E+06    -15.4693E-03     30.9732E-03    -15.5040E-03     13.2840E-03    -15.4575E-03     30.8458E-03    -15.4737E-03     13.2032E-03
             961     4.43095E-03     91.6311E-03    -6.61928E+06    -31.2991E+06    -3.59443E+06    -6.83900E+06    -15.4564E-03     30.9503E-03    -15.4939E-03     16.8445E-03    -15.4394E-03     30.8091E-03    -15.4569E-03     16.7538E-03
             962     5.31723E-03     91.6479E-03    -5.73057E+06    -36.1451E+06    -2.80953E+06    -7.76316E+06    -15.4547E-03     30.9393E-03    -15.4846E-03     20.5749E-03    -15.4277E-03     30.7718E-03    -15.4379E-03     20.4717E-03
             963     6.20357E-03     91.6682E-03    -4.61415E+06    -37.8180E+06    -2.20291E+06    -8.47180E+06    -15.4541E-03     30.9218E-03    -15.4677E-03     24.5189E-03    -15.4203E-03     30.7438E-03    -15.4172E-03     24.4058E-03
             964     7.08996E-03     91.6922E-03    -3.57301E+06    -38.0398E+06    -533.431E+03    -8.60388E+06    -15.4684E-03     30.9215E-03    -15.4531E-03     28.6603E-03    -15.4321E-03     30.7391E-03    -15.3955E-03     28.5444E-03
             965     7.97638E-03     91.7200E-03    -3.57130E+06    -42.0894E+06     1.05915E+06    -8.45750E+06    -15.5131E-03     30.9592E-03    -15.4461E-03     32.9624E-03    -15.4742E-03     30.7552E-03    -15.3746E-03     32.8470E-03
             966     8.86281E-03     91.7517E-03    -4.14696E+06    -41.9472E+06     839.393E+03    -8.16459E+06    -15.5744E-03     31.0013E-03    -15.4268E-03     37.4406E-03    -15.5397E-03     30.8005E-03    -15.3558E-03     37.3270E-03
             967     9.74923E-03     91.7877E-03    -4.00293E+06    -44.4195E+06     762.666E+03    -8.74151E+06    -15.7008E-03     31.1159E-03    -15.4151E-03     41.9970E-03    -15.6641E-03     30.9051E-03    -15.3411E-03     41.8730E-03
             968     10.6356E-03     91.8277E-03    -3.74973E+06    -45.3449E+06    -2.91091E+06    -9.42752E+06    -15.8633E-03     31.2524E-03    -15.3890E-03     46.5867E-03    -15.8226E-03     31.0457E-03    -15.3324E-03     46.4498E-03
             969     11.5220E-03     91.8719E-03    -3.32342E+06    -42.1555E+06    -1.52067E+06    -9.55155E+06    -16.0527E-03     31.4414E-03    -15.3887E-03     51.2029E-03    -16.0228E-03     31.2545E-03    -15.3303E-03     51.0590E-03
             970     12.4083E-03     91.9203E-03    -2.19227E+06    -46.5752E+06    -2.16009E+06    -9.70215E+06    -16.3927E-03     31.7889E-03    -15.3963E-03     58.2995E-03    -16.3620E-03     31.5914E-03    -15.3364E-03     58.1463E-03
             971     13.2942E-03     91.9775E-03    -1.98444E+06    -52.9875E+06    -15.2073E+06    -8.99024E+06    -16.6901E-03     32.0464E-03    -15.3563E-03     61.3126E-03    -16.6471E-03     31.8524E-03    -15.3526E-03     61.1603E-03
             972     14.1809E-03     92.0323E-03    -2.45404E+06    -39.0893E+06    -16.7396E+06    -7.67607E+06    -17.0377E-03     32.3945E-03    -15.3568E-03     66.1451E-03    -17.0496E-03     32.3075E-03    -15.3803E-03     66.0031E-03
             973     15.0664E-03     92.0978E-03    -3.23151E+06    -5.66051E+06    -15.7246E+06    -6.81602E+06    -18.3673E-03     33.7140E-03    -15.3467E-03     98.5686E-03    -18.6180E-03     33.9788E-03    -15.4124E-03     98.4538E-03
             974     15.9492E-03     92.2125E-03    -4.78422E+06     51.3782E+06    -22.8492E+06    -4.88346E+06    -21.9751E-03     37.2362E-03    -15.2611E-03     167.416E-03    -23.7990E-03     39.2917E-03    -15.4429E-03     167.893E-03
             975     16.8399E-03     92.4133E-03    -4.03906E+06     144.563E+06     36.0378E+06    -1.54977E+06    -25.5822E-03     41.0178E-03    -15.4356E-03     240.233E-03    -31.3953E-03     47.2253E-03    -15.4592E-03     244.497E-03
             976     886.204E-06     92.5731E-03    -8.30068E+06    -22.3215E+06    -8.02218E+06    -1.56899E+06    -15.4334E-03     30.8441E-03    -15.4107E-03     3.56057E-03    -15.4309E-03     30.7563E-03    -15.4064E-03     3.53986E-03
             977     1.77246E-03     92.5776E-03    -8.10624E+06    -22.6911E+06    -7.05056E+06    -3.09375E+06    -15.4087E-03     30.8304E-03    -15.4217E-03     6.61230E-03    -15.4062E-03     30.7390E-03    -15.4123E-03     6.57151E-03
             978     2.65870E-03     92.5850E-03    -7.57497E+06    -24.0642E+06    -5.34827E+06    -4.75429E+06    -15.3877E-03     30.8074E-03    -15.4198E-03     9.90529E-03    -15.3831E-03     30.7060E-03    -15.4006E-03     9.84262E-03
             979     3.54501E-03     92.5954E-03    -6.88234E+06    -26.2483E+06    -3.70907E+06    -6.00254E+06    -15.3686E-03     30.7827E-03    -15.4141E-03     13.3290E-03    -15.3598E-03     30.6671E-03    -15.3846E-03     13.2498E-03
             980     4.43134E-03     92.6088E-03    -6.23245E+06    -29.0564E+06    -2.79077E+06    -6.82877E+06    -15.3495E-03     30.7521E-03    -15.4026E-03     16.9039E-03    -15.3350E-03     30.6204E-03    -15.3654E-03     16.8135E-03
             981     5.31773E-03     92.6256E-03    -5.69145E+06    -33.1143E+06    -2.35552E+06    -8.03764E+06    -15.3372E-03     30.7252E-03    -15.3879E-03     20.6609E-03    -15.3150E-03     30.5720E-03    -15.3435E-03     20.5543E-03
             982     6.20417E-03     92.6458E-03    -5.20859E+06    -36.1392E+06    -2.20254E+06    -8.97484E+06    -15.3326E-03     30.7013E-03    -15.3687E-03     24.6307E-03    -15.3042E-03     30.5325E-03    -15.3197E-03     24.5112E-03
             983     7.09066E-03     92.6698E-03    -4.99053E+06    -37.3009E+06    -1.06653E+06    -8.65449E+06    -15.3420E-03     30.6933E-03    -15.3513E-03     28.8099E-03    -15.3131E-03     30.5173E-03    -15.2953E-03     28.6936E-03
             984     7.97717E-03     92.6975E-03    -4.66582E+06    -41.7541E+06     1.03115E+06    -7.74414E+06    -15.3849E-03     30.7292E-03    -15.3443E-03     33.1468E-03    -15.3518E-03     30.5283E-03    -15.2718E-03     33.0409E-03
             985     8.86370E-03     92.7293E-03    -4.10378E+06    -40.7569E+06     1.11814E+06    -7.68855E+06    -15.4435E-03     30.7645E-03    -15.3210E-03     37.7204E-03    -15.4106E-03     30.5691E-03    -15.2503E-03     37.6133E-03
             986     9.75026E-03     92.7652E-03    -3.68845E+06    -42.0715E+06     918.641E+03    -8.77871E+06    -15.5541E-03     30.8572E-03    -15.3031E-03     42.3819E-03    -15.5193E-03     30.6573E-03    -15.2322E-03     42.2578E-03
             987     10.6368E-03     92.8053E-03    -3.34051E+06    -44.3824E+06    -2.32821E+06    -9.46002E+06    -15.7602E-03     31.0391E-03    -15.2790E-03     47.0257E-03    -15.7194E-03     30.8357E-03    -15.2214E-03     46.8888E-03
             988     11.5232E-03     92.8496E-03    -3.28120E+06    -40.8965E+06    -971.850E+03    -9.80872E+06    -16.0146E-03     31.2954E-03    -15.2808E-03     51.6898E-03    -15.9870E-03     31.1137E-03    -15.2216E-03     51.5428E-03
             989     12.4095E-03     92.8982E-03    -3.10469E+06    -45.2357E+06    -1.06097E+06    -10.5948E+06    -16.4393E-03     31.7391E-03    -15.2997E-03     58.8528E-03    -16.4168E-03     31.5481E-03    -15.2349E-03     58.6881E-03
             990     13.2955E-03     92.9559E-03    -2.66618E+06    -54.4004E+06    -15.0531E+06    -9.93214E+06    -16.7751E-03     32.0442E-03    -15.2691E-03     61.8572E-03    -16.7340E-03     31.8441E-03    -15.2616E-03     61.6927E-03
             991     14.1809E-03     93.0098E-03    -2.97890E+06    -40.0243E+06    -16.4894E+06    -7.94902E+06    -17.0503E-03     32.3275E-03    -15.2771E-03     66.5254E-03    -17.0638E-03     32.2361E-03    -15.2972E-03     66.3802E-03
             992     15.0668E-03     93.0770E-03    -3.80076E+06    -5.30597E+06    -13.7903E+06    -7.01926E+06    -18.7090E-03     33.9964E-03    -15.2874E-03     99.3120E-03    -18.9727E-03     34.2678E-03    -15.3432E-03     99.1930E-03
             993     15.9538E-03     93.1927E-03    -4.76481E+06     47.7509E+06    -21.0822E+06    -4.79127E+06    -22.2302E-03     37.4544E-03    -15.2242E-03     168.121E-03    -24.0574E-03     39.4953E-03    -15.3919E-03     168.605E-03
             994     16.8367E-03     93.3884E-03    -3.94532E+06     141.159E+06     36.2324E+06    -1.36087E+06    -25.5464E-03     40.9459E-03    -15.3995E-03     239.507E-03    -31.3152E-03     47.0968E-03    -15.4173E-03     243.760E-03
             995     886.347E-06     93.5510E-03    -8.93237E+06    -19.2129E+06    -8.74681E+06    -1.56084E+06    -15.2962E-03     30.5964E-03    -15.3002E-03     3.59511E-03    -15.3004E-03     30.5261E-03    -15.3031E-03     3.57452E-03
             996     1.77265E-03     93.5554E-03    -8.45515E+06    -19.2330E+06    -7.08262E+06    -2.95520E+06    -15.2835E-03     30.5833E-03    -15.2998E-03     6.63501E-03    -15.2877E-03     30.5097E-03    -15.2950E-03     6.59605E-03
             997     2.65903E-03     93.5627E-03    -7.87028E+06    -20.5865E+06    -4.89194E+06    -4.51773E+06    -15.2597E-03     30.5591E-03    -15.2994E-03     9.94351E-03    -15.2623E-03     30.4748E-03    -15.2826E-03     9.88396E-03
             998     3.54542E-03     93.5730E-03    -7.20907E+06    -23.5384E+06    -3.05906E+06    -5.77331E+06    -15.2348E-03     30.5292E-03    -15.2943E-03     13.3809E-03    -15.2326E-03     30.4266E-03    -15.2650E-03     13.3047E-03
             999     4.43188E-03     93.5865E-03    -6.47197E+06    -26.6626E+06    -2.03142E+06    -6.70775E+06    -15.2091E-03     30.4904E-03    -15.2814E-03     16.9747E-03    -15.2003E-03     30.3699E-03    -15.2435E-03     16.8859E-03
            1000     5.31839E-03     93.6031E-03    -6.00733E+06    -30.1515E+06    -1.50203E+06    -7.69904E+06    -15.1911E-03     30.4550E-03    -15.2639E-03     20.7563E-03    -15.1760E-03     30.3159E-03    -15.2189E-03     20.6542E-03
            1001     6.20495E-03     93.6233E-03    -6.19920E+06    -34.4357E+06    -1.53888E+06    -8.35699E+06    -15.1839E-03     30.4280E-03    -15.2441E-03     24.7531E-03    -15.1639E-03     30.2682E-03    -15.1929E-03     24.6418E-03
            1002     7.09155E-03     93.6471E-03    -6.43628E+06    -36.9977E+06    -1.90921E+06    -8.11848E+06    -15.1757E-03     30.3944E-03    -15.2188E-03     28.9885E-03    -15.1531E-03     30.2232E-03    -15.1653E-03     28.8793E-03
            1003     7.97823E-03     93.6748E-03    -5.91606E+06    -41.0476E+06    -743.529E+03    -8.00956E+06    -15.2033E-03     30.4049E-03    -15.2016E-03     33.4222E-03    -15.1748E-03     30.2118E-03    -15.1373E-03     33.3131E-03
            1004     8.86494E-03     93.7065E-03    -4.92205E+06    -39.7471E+06     558.422E+03    -7.96473E+06    -15.2701E-03     30.4490E-03    -15.1789E-03     38.0660E-03    -15.2418E-03     30.2605E-03    -15.1114E-03     37.9556E-03
            1005     9.75168E-03     93.7425E-03    -4.30620E+06    -39.4594E+06     1.71496E+06    -8.60779E+06    -15.4016E-03     30.5646E-03    -15.1629E-03     42.7823E-03    -15.3746E-03     30.3772E-03    -15.0909E-03     42.6608E-03
            1006     10.6383E-03     93.7826E-03    -4.20106E+06    -43.5191E+06    -1.07098E+06    -9.46451E+06    -15.6521E-03     30.7966E-03    -15.1446E-03     47.5426E-03    -15.6185E-03     30.5968E-03    -15.0807E-03     47.4060E-03
            1007     11.5248E-03     93.8272E-03    -4.15728E+06    -39.5049E+06    -290.059E+03    -9.54998E+06    -15.9824E-03     31.1300E-03    -15.1475E-03     52.3488E-03    -15.9621E-03     30.9555E-03    -15.0857E-03     52.2056E-03
            1008     12.4110E-03     93.8760E-03    -4.16073E+06    -42.7436E+06    -327.791E+03    -10.8380E+06    -16.4187E-03     31.5913E-03    -15.1726E-03     59.5167E-03    -16.4062E-03     31.4132E-03    -15.1062E-03     59.3492E-03
            1009     13.2972E-03     93.9339E-03    -4.32325E+06    -55.9125E+06    -15.4805E+06    -10.7959E+06    -16.9259E-03     32.0805E-03    -15.1546E-03     62.6208E-03    -16.8905E-03     31.8762E-03    -15.1447E-03     62.4451E-03
            1010     14.1831E-03     93.9885E-03    -4.37603E+06    -41.0994E+06    -16.6273E+06    -8.69890E+06    -17.2986E-03     32.4804E-03    -15.1818E-03     67.1960E-03    -17.3180E-03     32.3866E-03    -15.1990E-03     67.0406E-03
            1011     15.0686E-03     94.0554E-03    -4.49840E+06    -5.99597E+06    -12.1807E+06    -7.06429E+06    -18.7851E-03     33.9986E-03    -15.2134E-03     99.9546E-03    -19.0565E-03     34.2680E-03    -15.2591E-03     99.8360E-03
            1012     15.9528E-03     94.1715E-03    -4.84932E+06     43.9058E+06    -19.4099E+06    -4.82104E+06    -22.6576E-03     37.8299E-03    -15.1723E-03     167.966E-03    -24.4741E-03     39.8413E-03    -15.3260E-03     168.432E-03
            1013     16.8397E-03     94.3691E-03    -3.73295E+06     138.102E+06     37.4599E+06    -1.74947E+06    -25.9377E-03     41.3083E-03    -15.3706E-03     238.967E-03    -31.6990E-03     47.4380E-03    -15.3782E-03     243.204E-03
            1014     886.430E-06     94.5285E-03    -9.77675E+06    -15.9946E+06    -9.42376E+06    -1.78466E+06    -15.1385E-03     30.2867E-03    -15.1482E-03     3.61522E-03    -15.1506E-03     30.2347E-03    -15.1579E-03     3.59176E-03
            1015     1.77294E-03     94.5329E-03    -9.23455E+06    -16.2120E+06    -7.61688E+06    -2.81440E+06    -15.1190E-03     30.2634E-03    -15.1444E-03     6.65611E-03    -15.1307E-03     30.2069E-03    -15.1456E-03     6.61902E-03
            1016     2.65942E-03     94.5402E-03    -8.63679E+06    -17.4397E+06    -5.00009E+06    -3.98793E+06    -15.0922E-03     30.2351E-03    -15.1429E-03     9.98143E-03    -15.1030E-03     30.1678E-03    -15.1301E-03     9.92880E-03
            1017     3.54598E-03     94.5504E-03    -8.02570E+06    -20.8370E+06    -2.54389E+06    -5.18528E+06    -15.0636E-03     30.2030E-03    -15.1395E-03     13.4388E-03    -15.0701E-03     30.1145E-03    -15.1104E-03     13.3703E-03
            1018     4.43256E-03     94.5637E-03    -7.53996E+06    -24.2534E+06    -1.36280E+06    -6.17339E+06    -15.0322E-03     30.1582E-03    -15.1260E-03     17.0543E-03    -15.0332E-03     30.0503E-03    -15.0867E-03     16.9726E-03
            1019     5.31923E-03     94.5804E-03    -7.42917E+06    -27.9904E+06    -1.29420E+06    -6.78485E+06    -15.0050E-03     30.1094E-03    -15.1045E-03     20.8682E-03    -15.0003E-03     29.9828E-03    -15.0596E-03     20.7781E-03
            1020     6.20594E-03     94.6004E-03    -7.63599E+06    -32.8938E+06    -1.81259E+06    -7.10053E+06    -14.9839E-03     30.0635E-03    -15.0796E-03     24.9049E-03    -14.9728E-03     29.9138E-03    -15.0299E-03     24.8100E-03
            1021     7.09273E-03     94.6242E-03    -7.68998E+06    -35.8603E+06    -2.54910E+06    -7.61253E+06    -14.9659E-03     30.0142E-03    -15.0483E-03     29.1955E-03    -14.9502E-03     29.8513E-03    -14.9979E-03     29.0932E-03
            1022     7.97961E-03     94.6517E-03    -7.37314E+06    -39.6096E+06    -1.63685E+06    -8.17398E+06    -14.9921E-03     30.0175E-03    -15.0254E-03     33.7141E-03    -14.9716E-03     29.8349E-03    -14.9654E-03     33.6033E-03
            1023     8.86650E-03     94.6835E-03    -6.59740E+06    -38.9545E+06     294.672E+03    -8.49607E+06    -15.0774E-03     30.0817E-03    -15.0043E-03     38.4314E-03    -15.0581E-03     29.8998E-03    -14.9368E-03     38.3147E-03
            1024     9.75336E-03     94.7194E-03    -5.60077E+06    -37.6380E+06     2.33124E+06    -8.60942E+06    -15.2444E-03     30.2350E-03    -14.9907E-03     43.2432E-03    -15.2272E-03     30.0576E-03    -14.9163E-03     43.1222E-03
            1025     10.6401E-03     94.7598E-03    -5.30906E+06    -42.2852E+06     790.530E+03    -8.92005E+06    -15.5453E-03     30.5277E-03    -14.9824E-03     48.1192E-03    -15.5216E-03     30.3328E-03    -14.9095E-03     47.9902E-03
            1026     11.5267E-03     94.8044E-03    -5.00287E+06    -38.0408E+06     1.05663E+06    -9.72657E+06    -15.9151E-03     30.9032E-03    -14.9880E-03     53.0546E-03    -15.9029E-03     30.7351E-03    -14.9203E-03     52.9096E-03
            1027     12.4131E-03     94.8539E-03    -4.32686E+06    -40.0783E+06     1.45146E+06    -10.6710E+06    -16.5007E-03     31.5246E-03    -15.0239E-03     60.1620E-03    -16.4956E-03     31.3577E-03    -14.9522E-03     59.9966E-03
            1028     13.2990E-03     94.9116E-03    -4.73310E+06    -56.7527E+06    -13.9905E+06    -10.7682E+06    -17.1047E-03     32.1325E-03    -15.0278E-03     63.2728E-03    -17.0727E-03     31.9228E-03    -15.0086E-03     63.0972E-03
            1029     14.1841E-03     94.9676E-03    -5.27342E+06    -42.6100E+06    -16.4547E+06    -9.62397E+06    -17.5261E-03     32.5966E-03    -15.0704E-03     67.5943E-03    -17.5481E-03     32.4963E-03    -15.0833E-03     67.4265E-03
            1030     15.0696E-03     95.0334E-03    -4.94827E+06    -7.01871E+06    -10.7854E+06    -7.84984E+06    -19.2027E-03     34.3336E-03    -15.1309E-03     100.710E-03    -19.4815E-03     34.6013E-03    -15.1675E-03     100.578E-03
            1031     15.9553E-03     95.1523E-03    -4.87435E+06     40.4582E+06    -17.9087E+06    -5.16652E+06    -22.8807E-03     37.9945E-03    -15.1138E-03     168.735E-03    -24.7026E-03     39.9946E-03    -15.2550E-03     169.203E-03
            1032     16.8387E-03     95.3471E-03    -3.71168E+06     134.973E+06     38.0943E+06    -1.95424E+06    -26.1816E-03     41.5051E-03    -15.3235E-03     238.466E-03    -31.9277E-03     47.6067E-03    -15.3233E-03     242.679E-03
            1033     886.628E-06     95.5057E-03    -11.3472E+06    -12.6684E+06    -10.7466E+06    -1.67394E+06    -14.9456E-03     29.8979E-03    -14.9523E-03     3.61538E-03    -14.9684E-03     29.8667E-03    -14.9712E-03     3.59339E-03
            1034     1.77323E-03     95.5101E-03    -10.9085E+06    -13.8037E+06    -8.98760E+06    -2.53320E+06    -14.9141E-03     29.8640E-03    -14.9499E-03     6.68802E-03    -14.9357E-03     29.8239E-03    -14.9590E-03     6.65462E-03
            1035     2.65994E-03     95.5173E-03    -10.3526E+06    -14.9928E+06    -6.05709E+06    -3.19707E+06    -14.8800E-03     29.8260E-03    -14.9459E-03     10.0238E-03    -14.9014E-03     29.7749E-03    -14.9395E-03     9.98152E-03
            1036     3.54665E-03     95.5275E-03    -9.87852E+06    -18.3783E+06    -2.90595E+06    -4.07151E+06    -14.8455E-03     29.7883E-03    -14.9428E-03     13.5006E-03    -14.8643E-03     29.7152E-03    -14.9164E-03     13.4466E-03
            1037     4.43343E-03     95.5408E-03    -9.60130E+06    -22.1452E+06    -1.33292E+06    -4.88806E+06    -14.8086E-03     29.7377E-03    -14.9291E-03     17.1452E-03    -14.8229E-03     29.6432E-03    -14.8897E-03     17.0802E-03
            1038     5.32027E-03     95.5572E-03     -9.5379E+06    -26.3767E+06    -1.55653E+06    -5.45558E+06    -14.7680E-03     29.6714E-03    -14.9035E-03     20.9937E-03    -14.7758E-03     29.5563E-03    -14.8592E-03     20.9209E-03
            1039     6.20721E-03     95.5772E-03    -9.25382E+06    -31.0467E+06    -2.21291E+06    -6.26716E+06    -14.7361E-03     29.6084E-03    -14.8723E-03     25.0744E-03    -14.7351E-03     29.4707E-03    -14.8249E-03     24.9906E-03
            1040     7.09424E-03     95.6008E-03    -9.03418E+06    -34.3587E+06    -2.13343E+06    -6.86631E+06    -14.7283E-03     29.5695E-03    -14.8412E-03     29.4099E-03    -14.7220E-03     29.4154E-03    -14.7890E-03     29.3175E-03
            1041     7.98128E-03     95.6283E-03    -9.15322E+06    -37.7284E+06    -1.22507E+06    -7.56936E+06    -14.7650E-03     29.5816E-03    -14.8165E-03     34.0107E-03    -14.7566E-03     29.4102E-03    -14.7547E-03     33.9081E-03
            1042     8.86836E-03     95.6600E-03    -9.01900E+06    -37.4803E+06    -188.938E+03    -8.52901E+06    -14.8605E-03     29.6526E-03    -14.7920E-03     38.8448E-03    -14.8546E-03     29.4821E-03    -14.7255E-03     38.7280E-03
            1043     9.75543E-03     95.6961E-03    -8.72866E+06    -37.1548E+06     1.49774E+06    -8.46732E+06    -15.0743E-03     29.8554E-03    -14.7811E-03     43.7903E-03    -15.0721E-03     29.6859E-03    -14.7070E-03     43.6716E-03
            1044     10.6423E-03     95.7365E-03    -8.15086E+06    -40.5091E+06     1.26444E+06    -8.68553E+06    -15.4380E-03     30.2211E-03    -14.7831E-03     48.7884E-03    -15.4316E-03     30.0383E-03    -14.7062E-03     48.6628E-03
            1045     11.5289E-03     95.7817E-03    -7.10885E+06    -35.4934E+06     1.61737E+06    -10.3536E+06    -15.8745E-03     30.6712E-03    -14.7967E-03     53.8206E-03    -15.8772E-03     30.5180E-03    -14.7268E-03     53.6679E-03
            1046     12.4153E-03     95.8312E-03    -5.76214E+06    -39.1332E+06     1.36323E+06    -11.1381E+06    -16.6054E-03     31.4510E-03    -14.8456E-03     61.2020E-03    -16.6090E-03     31.2913E-03    -14.7737E-03     61.0307E-03
            1047     13.3007E-03     95.8904E-03    -5.38403E+06    -56.7420E+06    -13.0904E+06    -10.5958E+06    -17.2754E-03     32.1495E-03    -14.8741E-03     64.2226E-03    -17.2484E-03     31.9400E-03    -14.8495E-03     64.0490E-03
            1048     14.1866E-03     95.9455E-03    -5.66326E+06    -42.8815E+06    -15.7784E+06    -10.0484E+06    -17.7962E-03     32.7335E-03    -14.9374E-03     68.6981E-03    -17.8219E-03     32.6327E-03    -14.9459E-03     68.5241E-03
            1049     15.0714E-03     96.0134E-03    -5.38832E+06    -8.69552E+06    -10.0923E+06    -8.96232E+06    -19.7631E-03     34.7930E-03    -15.0300E-03     101.808E-03    -20.0489E-03     35.0582E-03    -15.0600E-03     101.659E-03
            1050     15.9554E-03     96.1309E-03    -4.87170E+06     36.9242E+06    -16.5486E+06    -6.02180E+06    -23.1600E-03     38.2076E-03    -15.0476E-03     168.379E-03    -24.9723E-03     40.1816E-03    -15.1768E-03     168.836E-03
            1051     16.8420E-03     96.3279E-03    -3.47795E+06     131.589E+06     38.9713E+06    -2.17032E+06    -26.4833E-03     41.7585E-03    -15.2752E-03     238.173E-03    -32.2271E-03     47.8441E-03    -15.2661E-03     242.349E-03
            1052     886.789E-06     96.4825E-03    -13.7137E+06    -10.1778E+06    -12.5222E+06    -764.774E+03    -14.6991E-03     29.4018E-03    -14.7026E-03     3.62308E-03    -14.7348E-03     29.3890E-03    -14.7306E-03     3.61286E-03
            1053     1.77368E-03     96.4869E-03    -13.6822E+06    -11.8571E+06    -10.5676E+06    -1.61485E+06    -14.6668E-03     29.3737E-03    -14.7069E-03     6.72841E-03    -14.7027E-03     29.3496E-03    -14.7227E-03     6.70693E-03
            1054     2.66053E-03     96.4940E-03    -13.3944E+06    -13.6422E+06    -7.80878E+06    -1.92386E+06    -14.6249E-03     29.3283E-03    -14.7034E-03     10.0773E-03    -14.6609E-03     29.2909E-03    -14.7032E-03     10.0515E-03
            1055     3.54750E-03     96.5041E-03    -13.1202E+06    -16.4727E+06    -4.64732E+06    -2.34755E+06    -14.5772E-03     29.2745E-03    -14.6973E-03     13.5740E-03    -14.6124E-03     29.2181E-03    -14.6777E-03     13.5424E-03
            1056     4.43449E-03     96.5173E-03    -12.8657E+06    -20.4734E+06    -2.42651E+06    -3.11158E+06    -14.5291E-03     29.2125E-03    -14.6835E-03     17.2425E-03    -14.5606E-03     29.1327E-03    -14.6473E-03     17.2006E-03
            1057     5.32159E-03     96.5337E-03    -12.5230E+06    -24.6104E+06    -1.92759E+06    -4.01524E+06    -14.4830E-03     29.1399E-03    -14.6569E-03     21.1209E-03    -14.5077E-03     29.0384E-03    -14.6127E-03     21.0670E-03
            1058     6.20876E-03     96.5534E-03    -12.5600E+06    -28.9695E+06    -2.44628E+06    -5.05978E+06    -14.4524E-03     29.0757E-03    -14.6233E-03     25.2456E-03    -14.4705E-03     28.9535E-03    -14.5753E-03     25.1776E-03
            1059     7.09599E-03     96.5770E-03    -12.6584E+06    -33.0196E+06    -2.78850E+06    -5.87389E+06    -14.4519E-03     29.0418E-03    -14.5900E-03     29.6491E-03    -14.4646E-03     28.9005E-03    -14.5377E-03     29.5698E-03
            1060     7.98329E-03     96.6044E-03    -12.1935E+06    -35.4123E+06    -1.85541E+06    -6.86209E+06    -14.5000E-03     29.0625E-03    -14.5625E-03     34.3507E-03    -14.5090E-03     28.9079E-03    -14.5027E-03     34.2577E-03
            1061     8.87060E-03     96.6361E-03    -12.1618E+06    -36.2113E+06    -787.941E+03    -7.44136E+06    -14.6318E-03     29.1731E-03    -14.5412E-03     39.2946E-03    -14.6423E-03     29.0141E-03    -14.4750E-03     39.1924E-03
            1062     9.75783E-03     96.6722E-03    -12.2878E+06    -36.3547E+06     208.966E+03    -7.74238E+06    -14.8927E-03     29.4254E-03    -14.5327E-03     44.4198E-03    -14.9074E-03     29.2668E-03    -14.4611E-03     44.3111E-03
            1063     10.6448E-03     96.7132E-03    -11.3726E+06    -37.8144E+06     61.3531E+03    -9.24476E+06    -15.3090E-03     29.8485E-03    -14.5395E-03     49.6051E-03    -15.3206E-03     29.6853E-03    -14.4679E-03     49.4729E-03
            1064     11.5316E-03     96.7585E-03    -9.84831E+06    -32.5065E+06      962.96E+03    -11.1571E+06    -15.8486E-03     30.4152E-03    -14.5666E-03     54.8238E-03    -15.8683E-03     30.2817E-03    -14.5003E-03     54.6612E-03
            1065     12.4178E-03     96.8090E-03    -8.53857E+06    -38.2670E+06     256.439E+03    -12.2188E+06    -16.6367E-03     31.2682E-03    -14.6315E-03     62.4576E-03    -16.6539E-03     31.1184E-03    -14.5623E-03     62.2727E-03
            1066     13.3038E-03     96.8684E-03    -7.13023E+06    -57.0038E+06    -13.7543E+06    -11.6815E+06    -17.4819E-03     32.1643E-03    -14.6825E-03     65.2804E-03    -17.4626E-03     31.9573E-03    -14.6582E-03     65.0926E-03
            1067     14.1885E-03     96.9243E-03    -6.26410E+06    -41.9479E+06    -15.3212E+06    -11.1683E+06    -18.2629E-03     33.0419E-03    -14.7790E-03     69.5871E-03    -18.2955E-03     32.9478E-03    -14.7857E-03     69.3970E-03
            1068     15.0735E-03     96.9927E-03    -5.32083E+06    -11.1259E+06    -9.58749E+06    -10.0529E+06    -20.2534E-03     35.1641E-03    -14.9106E-03     103.039E-03    -20.5399E-03     35.4200E-03    -14.9347E-03     102.873E-03
            1069     15.9570E-03     97.1127E-03    -4.76136E+06     32.0839E+06    -16.1578E+06    -6.37477E+06    -23.7873E-03     38.7546E-03    -14.9673E-03     168.507E-03    -25.5939E-03     40.7050E-03    -15.0877E-03     168.944E-03
            1070     16.8408E-03     97.3042E-03    -3.95913E+06     128.661E+06     40.1449E+06    -2.54967E+06    -27.1550E-03     42.3910E-03    -15.2360E-03     238.042E-03    -32.9152E-03     48.4774E-03    -15.2161E-03     242.171E-03
            1071     887.120E-06     97.4589E-03    -17.1527E+06    -10.0309E+06    -15.5834E+06     895.171E+03    -14.3948E-03     28.7869E-03    -14.3921E-03     3.64139E-03    -14.4434E-03     28.7843E-03    -14.4306E-03     3.65264E-03
            1072     1.77416E-03     97.4631E-03    -17.4055E+06    -10.6798E+06    -12.8140E+06     456.199E+03    -14.3650E-03     28.7708E-03    -14.4058E-03     6.76354E-03    -14.4180E-03     28.7612E-03    -14.4292E-03     6.76886E-03
            1073     2.66133E-03     97.4702E-03    -17.2170E+06    -13.1754E+06    -9.50902E+06     7.76531E+03    -14.3239E-03     28.7333E-03    -14.4094E-03     10.1366E-03    -14.3772E-03     28.7063E-03    -14.4129E-03     10.1358E-03
            1074     3.54850E-03     97.4802E-03    -16.7190E+06    -15.5152E+06    -6.35337E+06    -203.877E+03    -14.2658E-03     28.6686E-03    -14.4027E-03     13.6501E-03    -14.3179E-03     28.6247E-03    -14.3878E-03     13.6463E-03
            1075     4.43580E-03     97.4933E-03    -16.4161E+06    -19.0603E+06    -3.69563E+06    -853.411E+03    -14.2051E-03     28.5933E-03    -14.3882E-03     17.3376E-03    -14.2545E-03     28.5275E-03    -14.3553E-03     17.3250E-03
            1076     5.32315E-03     97.5095E-03    -16.5902E+06    -22.9270E+06    -2.63011E+06    -1.80140E+06    -14.1557E-03     28.5181E-03    -14.3624E-03     21.2499E-03    -14.2022E-03     28.4319E-03    -14.3182E-03     21.2248E-03
            1077     6.21060E-03     97.5292E-03    -17.0427E+06    -27.1594E+06    -3.26582E+06    -2.80169E+06    -14.1287E-03     28.4559E-03    -14.3272E-03     25.4281E-03    -14.1706E-03     28.3504E-03    -14.2794E-03     25.3896E-03
            1078     7.09811E-03     97.5526E-03    -17.3366E+06    -30.7095E+06    -4.20770E+06    -4.45809E+06    -14.1358E-03     28.4258E-03    -14.2900E-03     29.9185E-03    -14.1731E-03     28.3047E-03    -14.2414E-03     29.8579E-03
            1079     7.98566E-03     97.5800E-03    -17.3295E+06    -33.2967E+06    -3.75019E+06    -6.05474E+06    -14.2064E-03     28.4688E-03    -14.2624E-03     34.7229E-03    -14.2413E-03     28.3348E-03    -14.2077E-03     34.6407E-03
            1080     8.87320E-03     97.6117E-03    -16.5430E+06    -35.4108E+06    -2.22502E+06     -6.5977E+06    -14.3833E-03     28.6314E-03    -14.2481E-03     39.8076E-03    -14.4146E-03     28.4848E-03    -14.1839E-03     39.7168E-03
            1081     9.76057E-03     97.6481E-03    -14.8669E+06    -33.9638E+06    -676.862E+03    -7.79282E+06    -14.6828E-03     28.9263E-03    -14.2435E-03     45.1379E-03    -14.7122E-03     28.7843E-03    -14.1761E-03     45.0291E-03
            1082     10.6478E-03     97.6892E-03    -13.0863E+06    -34.6589E+06    -298.798E+03    -9.88656E+06    -15.1674E-03     29.4266E-03    -14.2592E-03     50.5416E-03    -15.1914E-03     29.2820E-03    -14.1914E-03     50.4017E-03
            1083     11.5346E-03     97.7353E-03    -11.7603E+06    -29.6432E+06     1.07714E+06    -11.7395E+06    -15.8274E-03     30.1305E-03    -14.3032E-03     55.9422E-03    -15.8608E-03     30.0138E-03    -14.2377E-03     55.7725E-03
            1084     12.4210E-03     97.7861E-03    -10.2443E+06    -36.1970E+06     700.006E+03    -13.3273E+06    -16.7342E-03     31.1248E-03    -14.3905E-03     63.6027E-03    -16.7637E-03     30.9874E-03    -14.3197E-03     63.4037E-03
            1085     13.3064E-03     97.8466E-03    -8.37981E+06    -57.4751E+06    -14.6392E+06    -13.8971E+06    -17.7858E-03     32.2510E-03    -14.4652E-03     66.6042E-03    -17.7715E-03     32.0453E-03    -14.4429E-03     66.3873E-03
            1086     14.1914E-03     97.9035E-03    -6.90454E+06    -41.1148E+06    -15.0218E+06    -13.0671E+06    -18.8421E-03     33.4453E-03    -14.6032E-03     71.0075E-03    -18.8823E-03     33.3585E-03    -14.6086E-03     70.7908E-03
            1087     15.0748E-03     97.9728E-03    -6.05878E+06    -13.5142E+06    -8.79893E+06    -11.2694E+06    -20.6382E-03     35.4169E-03    -14.7787E-03     103.833E-03    -20.9273E-03     35.6621E-03    -14.7944E-03     103.649E-03
            1088     15.9599E-03     98.0924E-03    -5.53565E+06     26.0621E+06    -17.3735E+06    -7.25677E+06    -24.4239E-03     39.2876E-03    -14.8637E-03     169.194E-03    -26.2314E-03     41.2184E-03    -14.9803E-03     169.596E-03
            1089     16.8428E-03     98.2874E-03    -3.94667E+06     125.713E+06     40.4035E+06    -2.69433E+06    -28.1014E-03     43.2806E-03    -15.1792E-03     238.026E-03    -33.8469E-03     49.3412E-03    -15.1538E-03     242.087E-03
            1090     887.364E-06     98.4345E-03    -21.9633E+06    -13.1022E+06    -20.6065E+06     2.51888E+06    -14.0265E-03     28.0652E-03    -14.0387E-03     3.65494E-03    -14.0874E-03     28.0615E-03    -14.0909E-03     3.68719E-03
            1091     1.77483E-03     98.4388E-03    -22.0473E+06    -11.2906E+06    -16.9246E+06     3.15383E+06    -13.9989E-03     28.0435E-03    -14.0446E-03     6.79387E-03    -14.0683E-03     28.0436E-03    -14.0809E-03     6.83408E-03
            1092     2.66223E-03     98.4458E-03    -21.8578E+06    -13.1020E+06    -12.1942E+06     2.66652E+06    -13.9633E-03     28.0183E-03    -14.0550E-03     10.1945E-03    -14.0360E-03     28.0023E-03    -14.0652E-03     10.2282E-03
            1093     3.54974E-03     98.4557E-03    -21.2244E+06    -15.5254E+06    -8.27720E+06     2.20553E+06    -13.9075E-03     27.9614E-03    -14.0539E-03     13.7314E-03    -13.9793E-03     27.9267E-03    -14.0420E-03     13.7589E-03
            1094     4.43731E-03     98.4686E-03    -20.5353E+06    -18.2397E+06    -5.13798E+06     1.79468E+06    -13.8450E-03     27.8862E-03    -14.0412E-03     17.4435E-03    -13.9141E-03     27.8325E-03    -14.0106E-03     17.4653E-03
            1095     5.32499E-03     98.4848E-03    -20.1371E+06    -21.8459E+06    -3.31962E+06     1.06049E+06    -13.7965E-03     27.8148E-03    -14.0184E-03     21.3876E-03    -13.8612E-03     27.7401E-03    -13.9741E-03     21.3996E-03
            1096     6.21274E-03     98.5043E-03    -19.8462E+06    -25.1229E+06    -3.29519E+06    -408.564E+03    -13.7768E-03     27.7614E-03    -13.9846E-03     25.6198E-03    -13.8355E-03     27.6700E-03    -13.9359E-03     25.6124E-03
            1097     7.10054E-03     98.5277E-03    -19.6134E+06    -27.7818E+06    -3.78490E+06    -2.53544E+06    -13.8063E-03     27.7560E-03    -13.9496E-03     30.1864E-03    -13.8598E-03     27.6521E-03    -13.8998E-03     30.1510E-03
            1098     7.98837E-03     98.5550E-03    -19.5276E+06    -31.1328E+06    -3.71284E+06    -4.43226E+06    -13.9103E-03     27.8356E-03    -13.9253E-03     35.1028E-03    -13.9592E-03     27.7154E-03    -13.8704E-03     35.0419E-03
            1099     8.87611E-03     98.5868E-03    -18.6908E+06    -33.1278E+06    -2.72855E+06    -6.65051E+06    -14.1124E-03     28.0265E-03    -13.9140E-03     40.3635E-03    -14.1569E-03     27.8948E-03    -13.8525E-03     40.2725E-03
            1100     9.76383E-03     98.6233E-03    -16.4736E+06    -30.8556E+06    -886.009E+03    -8.98767E+06    -14.4567E-03     28.3731E-03    -13.9164E-03     45.8976E-03    -14.4981E-03     28.2490E-03    -13.8522E-03     45.7740E-03
            1101     10.6511E-03     98.6650E-03    -14.3662E+06    -32.1890E+06    -173.520E+03    -10.4111E+06    -15.0342E-03     28.9795E-03    -13.9453E-03     51.5421E-03    -15.0681E-03     28.8486E-03    -13.8787E-03     51.3961E-03
            1102     11.5381E-03     98.7115E-03    -13.1030E+06    -26.5484E+06     1.34651E+06    -11.8162E+06    -15.8194E-03     29.8257E-03    -14.0062E-03     57.1841E-03    -15.8643E-03     29.7259E-03    -13.9420E-03     57.0139E-03
            1103     12.4242E-03     98.7635E-03    -11.6803E+06    -32.6310E+06     1.28330E+06    -14.4871E+06    -16.8942E-03     31.0133E-03    -14.1190E-03     65.0051E-03    -16.9373E-03     30.8953E-03    -14.0483E-03     64.7911E-03
            1104     13.3099E-03     98.8246E-03    -10.1598E+06    -56.9286E+06    -15.4483E+06    -16.1673E+06    -18.0950E-03     32.3176E-03    -14.2226E-03     68.2887E-03    -18.0900E-03     32.1193E-03    -14.2026E-03     68.0421E-03
            1105     14.1940E-03     98.8832E-03    -8.97061E+06    -42.3503E+06    -16.0421E+06    -14.9213E+06    -19.2386E-03     33.6349E-03    -14.3963E-03     72.8245E-03    -19.2879E-03     33.5486E-03    -14.4021E-03     72.5826E-03
            1106     15.0780E-03     98.9535E-03    -7.31451E+06    -15.6392E+06    -8.93612E+06    -12.7480E+06    -21.4871E-03     36.1088E-03    -14.6218E-03     104.915E-03    -21.7846E-03     36.3509E-03    -14.6332E-03     104.705E-03
            1107     15.9603E-03     99.0725E-03    -6.40344E+06     21.0185E+06    -18.5503E+06    -8.94763E+06    -25.2870E-03     40.0459E-03    -14.7589E-03     169.746E-03    -27.0950E-03     41.9596E-03    -14.8729E-03     170.106E-03
            1108     16.8439E-03     99.2695E-03    -4.45470E+06     121.036E+06     39.3378E+06    -3.57417E+06    -28.6863E-03     43.8038E-03    -15.1175E-03     237.460E-03    -34.3839E-03     49.8012E-03    -15.0898E-03     241.437E-03
            1109     887.768E-06     99.4094E-03    -25.8515E+06    -19.2187E+06    -24.6069E+06     3.81627E+06    -13.6238E-03     27.2612E-03    -13.6374E-03     3.67810E-03    -13.6895E-03     27.2384E-03    -13.6951E-03     3.72714E-03
            1110     1.77549E-03     99.4136E-03    -26.0243E+06    -14.6230E+06    -21.2795E+06     5.87537E+06    -13.5820E-03     27.2163E-03    -13.6343E-03     6.82743E-03    -13.6601E-03     27.2118E-03    -13.6817E-03     6.90285E-03
            1111     2.66333E-03     99.4206E-03    -26.0599E+06    -13.7028E+06    -15.9820E+06     5.93889E+06    -13.5403E-03     27.1808E-03    -13.6405E-03     10.2450E-03    -13.6276E-03     27.1733E-03    -13.6628E-03     10.3210E-03
            1112     3.55117E-03     99.4304E-03    -25.5630E+06    -16.0069E+06    -10.5211E+06     5.09604E+06    -13.4982E-03     27.1456E-03    -13.6474E-03     13.8176E-03    -13.5877E-03     27.1180E-03    -13.6397E-03     13.8825E-03
            1113     4.43909E-03     99.4433E-03    -24.6096E+06    -18.2948E+06    -6.53566E+06     4.51070E+06    -13.4513E-03     27.0927E-03    -13.6414E-03     17.5606E-03    -13.5386E-03     27.0467E-03    -13.6119E-03     17.6177E-03
            1114     5.32709E-03     99.4592E-03    -23.5194E+06    -21.0148E+06    -4.22484E+06     3.55871E+06    -13.4150E-03     27.0384E-03    -13.6234E-03     21.5386E-03    -13.4964E-03     26.9740E-03    -13.5799E-03     21.5831E-03
            1115     6.21516E-03     99.4788E-03    -22.4024E+06    -22.6094E+06    -3.29450E+06     1.53970E+06    -13.4087E-03     27.0041E-03    -13.5954E-03     25.8218E-03    -13.4838E-03     26.9290E-03    -13.5466E-03     25.8399E-03
            1116     7.10328E-03     99.5020E-03    -21.5042E+06    -25.2567E+06    -3.51109E+06    -721.704E+03    -13.4615E-03     27.0279E-03    -13.5664E-03     30.4669E-03    -13.5283E-03     26.9389E-03    -13.5161E-03     30.4552E-03
            1117     7.99137E-03     99.5294E-03    -20.3936E+06    -27.9815E+06    -3.31807E+06    -3.29938E+06    -13.5936E-03     27.1404E-03    -13.5468E-03     35.5054E-03    -13.6518E-03     27.0365E-03    -13.4933E-03     35.4596E-03
            1118     8.87945E-03     99.5612E-03    -18.8502E+06    -28.9703E+06    -2.00870E+06    -6.61475E+06    -13.8321E-03     27.3746E-03    -13.5425E-03     40.9298E-03    -13.8842E-03     27.2627E-03    -13.4832E-03     40.8398E-03
            1119     9.76727E-03     99.5982E-03    -17.7437E+06    -27.7917E+06    -754.009E+03    -9.32083E+06    -14.2368E-03     27.7922E-03    -13.5554E-03     46.6837E-03    -14.2889E-03     27.6849E-03    -13.4932E-03     46.5564E-03
            1120     10.6549E-03     99.6401E-03    -16.4702E+06    -30.0103E+06    -397.616E+03    -10.9399E+06    -14.8910E-03     28.4900E-03    -13.5989E-03     52.6180E-03    -14.9380E-03     28.3731E-03    -13.5335E-03     52.4658E-03
            1121     11.5418E-03     99.6877E-03    -14.3096E+06    -23.3723E+06     1.46987E+06    -12.5849E+06    -15.7739E-03     29.4502E-03    -13.6764E-03     58.5990E-03    -15.8294E-03     29.3677E-03    -13.6144E-03     58.4194E-03
            1122     12.4282E-03     99.7405E-03    -12.1064E+06    -27.6365E+06     2.35294E+06    -15.3853E+06    -17.0137E-03     30.8270E-03    -13.8134E-03     66.6922E-03    -17.0678E-03     30.7333E-03    -13.7440E-03     66.4667E-03
            1123     13.3132E-03     99.8031E-03    -11.0989E+06    -55.4065E+06    -15.0675E+06    -17.4578E+06    -18.4410E-03     32.3925E-03    -13.9515E-03     70.1810E-03    -18.4444E-03     32.2035E-03    -13.9304E-03     69.9171E-03
            1124     14.1976E-03     99.8626E-03    -9.91777E+06    -43.5485E+06    -16.7967E+06    -17.2864E+06    -19.7877E-03     33.9523E-03    -14.1645E-03     74.5225E-03    -19.8411E-03     33.8646E-03    -14.1710E-03     74.2481E-03
            1125     15.0808E-03     99.9343E-03    -7.68622E+06    -17.4320E+06    -9.17254E+06    -15.3571E+06    -22.4087E-03     36.8536E-03    -14.4449E-03     106.475E-03    -22.7113E-03     37.0936E-03    -14.4543E-03     106.224E-03
            1126     15.9627E-03     100.056E-03    -5.64776E+06     15.2270E+06    -18.9899E+06    -10.3501E+06    -26.5003E-03     41.1504E-03    -14.6501E-03     170.345E-03    -28.2890E-03     43.0282E-03    -14.7589E-03     170.650E-03
            1127     16.8444E-03     100.250E-03    -3.67449E+06     114.944E+06     39.0658E+06    -4.14303E+06    -29.5143E-03     44.5824E-03    -15.0680E-03     237.181E-03    -35.1790E-03     50.5287E-03    -15.0340E-03     241.080E-03
            1128     888.113E-06     100.383E-03    -28.5572E+06    -27.9014E+06    -27.4629E+06     4.92790E+06    -13.1808E-03     26.3600E-03    -13.1793E-03     3.69895E-03    -13.2433E-03     26.3019E-03    -13.2347E-03     3.76238E-03
            1129     1.77633E-03     100.388E-03    -28.5993E+06    -21.0189E+06    -24.3203E+06     8.40693E+06    -13.1273E-03     26.3056E-03    -13.1783E-03     6.87352E-03    -13.2046E-03     26.2772E-03    -13.2279E-03     6.98168E-03
            1130     2.66452E-03     100.395E-03    -28.7299E+06    -15.8250E+06    -18.9311E+06     9.50168E+06    -13.0766E-03     26.2545E-03    -13.1779E-03     10.3008E-03    -13.1699E-03     26.2445E-03    -13.2079E-03     10.4230E-03
            1131     3.55281E-03     100.404E-03    -28.5730E+06    -16.7585E+06    -12.8678E+06     8.60730E+06    -13.0447E-03     26.2318E-03    -13.1871E-03     13.8984E-03    -13.1447E-03     26.2082E-03    -13.1857E-03     14.0088E-03
            1132     4.44110E-03     100.417E-03    -27.7575E+06    -18.6469E+06    -7.94907E+06     7.38210E+06    -13.0252E-03     26.2155E-03    -13.1903E-03     17.6805E-03    -13.1257E-03     26.1742E-03    -13.1627E-03     17.7748E-03
            1133     5.32946E-03     100.433E-03    -26.1551E+06    -19.7389E+06    -4.85620E+06     5.53681E+06    -13.0187E-03     26.2000E-03    -13.1813E-03     21.7003E-03    -13.1142E-03     26.1466E-03    -13.1390E-03     21.7706E-03
            1134     6.21785E-03     100.452E-03    -24.4189E+06    -20.2615E+06    -3.51874E+06     3.18243E+06    -13.0331E-03     26.1955E-03    -13.1624E-03     26.0319E-03    -13.1213E-03     26.1353E-03    -13.1152E-03     26.0714E-03
            1135     7.10628E-03     100.476E-03    -22.8397E+06    -22.5072E+06    -3.51770E+06     521.029E+03    -13.1048E-03     26.2470E-03    -13.1422E-03     30.7529E-03    -13.1821E-03     26.1735E-03    -13.0940E-03     30.7576E-03
            1136     7.99472E-03     100.503E-03    -21.0395E+06    -23.5627E+06    -3.09133E+06    -3.07500E+06    -13.2573E-03     26.3867E-03    -13.1294E-03     35.9183E-03    -13.3253E-03     26.3053E-03    -13.0801E-03     35.8758E-03
            1137     8.88301E-03     100.535E-03    -19.2377E+06    -24.8228E+06    -1.44923E+06    -6.53436E+06    -13.5449E-03     26.6817E-03    -13.1369E-03     41.5127E-03    -13.6055E-03     26.5901E-03    -13.0802E-03     41.4242E-03
            1138     9.77120E-03     100.572E-03    -17.5962E+06    -24.7440E+06     317.565E+03    -8.81163E+06    -14.0211E-03     27.1872E-03    -13.1661E-03     47.5040E-03    -14.0782E-03     27.0931E-03    -13.1031E-03     47.3838E-03
            1139     10.6588E-03     100.615E-03    -15.8239E+06    -26.4179E+06     987.652E+03    -11.4890E+06    -14.7288E-03     27.9536E-03    -13.2248E-03     53.7467E-03    -14.7794E-03     27.8514E-03    -13.1586E-03     53.5881E-03
            1140     11.5461E-03     100.663E-03    -13.7596E+06    -20.5079E+06     2.13624E+06    -13.7719E+06    -15.7038E-03     29.0208E-03    -13.3170E-03     60.1163E-03    -15.7614E-03     28.9506E-03    -13.2566E-03     59.9221E-03
            1141     12.4323E-03     100.717E-03    -12.5224E+06    -23.1896E+06     3.42558E+06    -15.5627E+06    -17.1037E-03     30.5815E-03    -13.4779E-03     68.5164E-03    -17.1680E-03     30.5092E-03    -13.4090E-03     68.2890E-03
            1142     13.3177E-03     100.781E-03    -11.4568E+06    -51.7232E+06    -12.7037E+06    -18.6938E+06    -18.7870E-03     32.4432E-03    -13.6562E-03     72.2802E-03    -18.8018E-03     32.2706E-03    -13.6281E-03     71.9998E-03
            1143     14.2010E-03     100.843E-03    -9.19890E+06    -42.6212E+06    -15.5038E+06    -20.5483E+06    -20.6011E-03     34.5173E-03    -13.9162E-03     76.8546E-03    -20.6572E-03     34.4344E-03    -13.9186E-03     76.5348E-03
            1144     15.0832E-03     100.916E-03    -6.24297E+06    -20.5319E+06    -8.91900E+06    -18.3878E+06    -23.3901E-03     37.6479E-03    -14.2578E-03     108.363E-03    -23.6873E-03     37.8760E-03    -14.2636E-03     108.065E-03
            1145     15.9648E-03     101.039E-03    -5.26351E+06     7.10798E+06    -20.0220E+06    -11.6607E+06    -27.4574E-03     41.9811E-03    -14.5237E-03     171.265E-03    -29.2138E-03     43.8021E-03    -14.6265E-03     171.515E-03
            1146     16.8453E-03     101.234E-03    -4.39765E+06     108.589E+06     37.9930E+06    -4.45793E+06    -30.5338E-03     45.5293E-03    -14.9955E-03     237.107E-03    -36.1534E-03     51.4086E-03    -14.9566E-03     240.896E-03
            1147     888.633E-06     101.357E-03    -32.8403E+06    -37.8998E+06    -32.0926E+06     5.14036E+06    -12.6633E-03     25.3429E-03    -12.6796E-03     3.72826E-03    -12.7260E-03     25.2476E-03    -12.7374E-03     3.79447E-03
            1148     1.77721E-03     101.361E-03    -31.4229E+06    -30.2725E+06    -27.8102E+06     9.65846E+06    -12.6324E-03     25.3050E-03    -12.6726E-03     6.92264E-03    -12.7054E-03     25.2396E-03    -12.7222E-03     7.04702E-03
            1149     2.66590E-03     101.368E-03    -30.4972E+06    -20.5733E+06    -21.4487E+06     12.7069E+06    -12.5860E-03     25.2583E-03    -12.6723E-03     10.3597E-03    -12.6776E-03     25.2308E-03    -12.7055E-03     10.5233E-03
            1150     3.55457E-03     101.377E-03    -29.7502E+06    -17.4698E+06    -14.4791E+06     12.0143E+06    -12.5668E-03     25.2504E-03    -12.6837E-03     13.9826E-03    -12.6693E-03     25.2273E-03    -12.6876E-03     14.1371E-03
            1151     4.44331E-03     101.390E-03    -27.9087E+06    -18.6650E+06    -8.47446E+06     9.66473E+06    -12.5813E-03     25.2784E-03    -12.6971E-03     17.8109E-03    -12.6817E-03     25.2380E-03    -12.6720E-03     17.9349E-03
            1152     5.33203E-03     101.406E-03    -25.7542E+06    -18.2038E+06    -4.58256E+06     7.34886E+06    -12.6093E-03     25.3089E-03    -12.6995E-03     21.8661E-03    -12.7054E-03     25.2621E-03    -12.6587E-03     21.9600E-03
            1153     6.22078E-03     101.425E-03    -23.9219E+06    -17.9962E+06    -2.87792E+06     4.63412E+06    -12.6589E-03     25.3526E-03    -12.6938E-03     26.2387E-03    -12.7487E-03     25.3020E-03    -12.6474E-03     26.2972E-03
            1154     7.10954E-03     101.448E-03    -21.8695E+06    -18.6982E+06    -2.51581E+06     1.07977E+06    -12.7523E-03     25.4377E-03    -12.6854E-03     31.0295E-03    -12.8317E-03     25.3803E-03    -12.6391E-03     31.0417E-03
            1155     7.99824E-03     101.476E-03    -19.7182E+06    -18.6338E+06    -1.78228E+06    -3.07089E+06    -12.9279E-03     25.6123E-03    -12.6843E-03     36.3094E-03    -12.9983E-03     25.5516E-03    -12.6376E-03     36.2673E-03
            1156     8.88693E-03     101.508E-03    -17.7033E+06    -21.0760E+06     2.39620E+03    -6.50103E+06    -13.2625E-03     25.9693E-03    -12.7068E-03     42.0866E-03    -13.3228E-03     25.8919E-03    -12.6505E-03     41.9990E-03
            1157     9.77518E-03     101.546E-03    -15.8220E+06    -21.8029E+06     1.85215E+06    -8.84746E+06    -13.7762E-03     26.5271E-03    -12.7508E-03     48.3263E-03    -13.8307E-03     26.4426E-03    -12.6870E-03     48.2062E-03
            1158     10.6632E-03     101.589E-03    -13.9237E+06    -21.0181E+06     3.32512E+06    -12.0039E+06    -14.5378E-03     27.3619E-03    -12.8241E-03     54.9207E-03    -14.5898E-03     27.2801E-03    -12.7568E-03     54.7561E-03
            1159     11.5504E-03     101.638E-03    -11.9293E+06    -18.0912E+06     3.85710E+06    -14.6587E+06    -15.6330E-03     28.5683E-03    -12.9352E-03     61.7202E-03    -15.6872E-03     28.5047E-03    -12.8724E-03     61.5153E-03
            1160     12.4370E-03     101.694E-03    -10.1873E+06    -20.6343E+06     5.35854E+06    -15.1737E+06    -17.1993E-03     30.3191E-03    -13.1198E-03     70.5478E-03    -17.2584E-03     30.2533E-03    -13.0483E-03     70.3259E-03
            1161     13.3217E-03     101.760E-03    -10.0215E+06    -44.4370E+06    -8.55382E+06    -18.9867E+06    -19.1293E-03     32.4661E-03    -13.3367E-03     74.6922E-03    -19.1543E-03     32.3226E-03    -13.3005E-03     74.4076E-03
            1162     14.2054E-03     101.823E-03    -9.86624E+06    -40.1983E+06    -13.7427E+06    -23.5431E+06    -21.2029E-03     34.8417E-03    -13.6388E-03     79.7725E-03    -21.2712E-03     34.7721E-03    -13.6349E-03     79.4118E-03
            1163     15.0868E-03     101.899E-03    -8.10642E+06    -25.8520E+06    -9.79713E+06    -21.3815E+06    -24.5019E-03     38.5412E-03    -14.0393E-03     111.145E-03    -24.8081E-03     38.7553E-03    -14.0390E-03     110.799E-03
            1164     15.9668E-03     102.022E-03    -6.03893E+06    -2.28512E+06    -20.6502E+06    -13.2631E+06    -28.5244E-03     42.9010E-03    -14.3766E-03     172.255E-03    -30.2398E-03     44.6467E-03    -14.4677E-03     172.446E-03
            1165     16.8482E-03     102.218E-03    -3.71762E+06     102.213E+06     38.3818E+06    -4.86780E+06    -31.6349E-03     46.5423E-03    -14.9074E-03     237.073E-03    -37.1908E-03     52.3366E-03    -14.8583E-03     240.717E-03
            1166     889.056E-06     102.328E-03    -40.7144E+06    -46.6618E+06    -40.3768E+06     3.72982E+06    -12.1144E-03     24.2454E-03    -12.1310E-03     3.75674E-03    -12.1917E-03     24.1298E-03    -12.2062E-03     3.80478E-03
            1167     1.77821E-03     102.333E-03    -36.8936E+06    -40.1584E+06    -34.6186E+06     7.68467E+06    -12.1015E-03     24.2306E-03    -12.1291E-03     6.96248E-03    -12.1775E-03     24.1335E-03    -12.1904E-03     7.06145E-03
            1168     2.66731E-03     102.340E-03    -31.8348E+06    -28.5025E+06    -25.6997E+06     12.3209E+06    -12.0741E-03     24.2089E-03    -12.1348E-03     10.4063E-03    -12.1548E-03     24.1498E-03    -12.1758E-03     10.5650E-03
            1169     3.55651E-03     102.349E-03    -28.2365E+06    -19.2355E+06    -15.7596E+06     13.9945E+06    -12.0731E-03     24.2247E-03    -12.1515E-03     14.0504E-03    -12.1636E-03     24.1923E-03    -12.1615E-03     14.2306E-03
            1170     4.44562E-03     102.362E-03    -26.4592E+06    -17.7728E+06    -8.58083E+06     11.6194E+06    -12.1191E-03     24.2937E-03    -12.1745E-03     17.9202E-03    -12.2134E-03     24.2558E-03    -12.1533E-03     18.0696E-03
            1171     5.33478E-03     102.378E-03    -24.2348E+06    -16.9086E+06    -4.13730E+06     8.54007E+06    -12.1871E-03     24.3776E-03    -12.1905E-03     22.0080E-03    -12.2780E-03     24.3344E-03    -12.1515E-03     22.1174E-03
            1172     6.22389E-03     102.397E-03    -21.5582E+06    -15.3364E+06    -1.40387E+06     5.58344E+06    -12.2770E-03     24.4777E-03    -12.2006E-03     26.4110E-03    -12.3610E-03     24.4347E-03    -12.1541E-03     26.4819E-03
            1173     7.11295E-03     102.421E-03    -19.5515E+06    -14.1850E+06    -327.189E+03     1.65258E+06    -12.4047E-03     24.6131E-03    -12.2084E-03     31.2570E-03    -12.4822E-03     24.5717E-03    -12.1611E-03     31.2768E-03
            1174     8.00203E-03     102.448E-03    -18.0113E+06    -13.6170E+06     373.012E+03    -2.74180E+06    -12.6141E-03     24.8373E-03    -12.2232E-03     36.6456E-03    -12.6862E-03     24.7960E-03    -12.1755E-03     36.6081E-03
            1175     8.89083E-03     102.481E-03    -16.6179E+06    -17.3226E+06     1.18866E+06    -6.32693E+06    -12.9632E-03     25.2217E-03    -12.2585E-03     42.5987E-03    -13.0250E-03     25.1595E-03    -12.2033E-03     42.5138E-03
            1176     9.77956E-03     102.519E-03    -14.5624E+06    -17.8406E+06     3.06650E+06    -9.53740E+06    -13.4877E-03     25.8026E-03    -12.3149E-03     49.0992E-03    -13.5430E-03     25.7340E-03    -12.2526E-03     48.9708E-03
            1177     10.6677E-03     102.563E-03    -12.2462E+06    -16.3592E+06     5.39810E+06    -12.4460E+06    -14.3007E-03     26.7038E-03    -12.4031E-03     56.0970E-03    -14.3536E-03     26.6395E-03    -12.3346E-03     55.9276E-03
            1178     11.5553E-03     102.613E-03    -11.0098E+06    -14.9917E+06     6.42067E+06    -14.6434E+06    -15.5061E-03     28.0414E-03    -12.5353E-03     63.4055E-03    -15.5634E-03     27.9877E-03    -12.4655E-03     63.2017E-03
            1179     12.4416E-03     102.670E-03    -8.84233E+06    -18.5996E+06     6.97730E+06    -16.6895E+06    -17.2394E-03     29.9764E-03    -12.7370E-03     72.8457E-03    -17.2968E-03     29.9162E-03    -12.6623E-03     72.6048E-03
            1180     13.3269E-03     102.738E-03    -6.18249E+06    -37.4978E+06    -4.12727E+06    -18.9286E+06    -19.4296E-03     32.4170E-03    -12.9874E-03     77.6365E-03    -19.4524E-03     32.2967E-03    -12.9447E-03     77.3526E-03
            1181     14.2094E-03     102.804E-03    -6.69547E+06    -34.4927E+06    -8.60038E+06    -22.9546E+06    -21.8418E-03     35.1813E-03    -13.3395E-03     82.6989E-03    -21.9125E-03     35.1308E-03    -13.3228E-03     82.3432E-03
            1182     15.0914E-03     102.882E-03    -7.28322E+06    -30.6064E+06    -8.26103E+06    -23.1757E+06    -25.4263E-03     39.2223E-03    -13.7959E-03     113.897E-03    -25.7275E-03     39.4130E-03    -13.7823E-03     113.519E-03
            1183     15.9701E-03     103.009E-03    -6.00986E+06    -13.1209E+06    -22.7891E+06    -15.3560E+06    -30.0635E-03     44.2624E-03    -14.1989E-03     173.027E-03    -31.7117E-03     45.9089E-03    -14.2851E-03     173.124E-03
            1184     16.8489E-03     103.200E-03    -4.40466E+06     94.1333E+06     37.0358E+06    -6.03394E+06    -33.2872E-03     48.1071E-03    -14.8199E-03     236.608E-03    -38.7657E-03     53.7968E-03    -14.7648E-03     240.061E-03
            1185     889.587E-06     103.299E-03    -53.6267E+06    -51.0162E+06    -53.7785E+06     680.600E+03    -11.5670E-03     23.1254E-03    -11.5584E-03     3.76110E-03    -11.6831E-03     23.0261E-03    -11.6755E-03     3.76980E-03
            1186     1.77911E-03     103.303E-03    -47.9092E+06    -46.1334E+06    -46.9523E+06     1.83785E+06    -11.5568E-03     23.1300E-03    -11.5732E-03     6.98654E-03    -11.6614E-03     23.0368E-03    -11.6716E-03     7.01010E-03
            1187     2.66875E-03     103.310E-03    -38.8801E+06    -36.9391E+06    -36.2371E+06     5.34235E+06    -11.5540E-03     23.1413E-03    -11.5872E-03     10.4267E-03    -11.6424E-03     23.0655E-03    -11.6585E-03     10.4954E-03
            1188     3.55838E-03     103.320E-03    -29.4184E+06    -25.1077E+06    -23.0159E+06     10.5486E+06    -11.5646E-03     23.1731E-03    -11.6085E-03     14.0349E-03    -11.6420E-03     23.1237E-03    -11.6445E-03     14.1706E-03
            1189     4.44804E-03     103.333E-03    -23.7381E+06    -17.8974E+06    -11.1014E+06     12.5695E+06    -11.6296E-03     23.2712E-03    -11.6416E-03     17.9058E-03    -11.7064E-03     23.2323E-03    -11.6367E-03     18.0675E-03
            1190     5.33755E-03     103.349E-03    -21.7603E+06    -14.8277E+06    -3.72001E+06     9.84235E+06    -11.7462E-03     23.4215E-03    -11.6753E-03     22.0501E-03    -11.8283E-03     23.3845E-03    -11.6409E-03     22.1764E-03
            1191     6.22703E-03     103.369E-03    -19.6554E+06    -12.2791E+06     117.673E+03     5.75881E+06    -11.8838E-03     23.5864E-03    -11.7026E-03     26.4911E-03    -11.9648E-03     23.5537E-03    -11.6557E-03     26.5645E-03
            1192     7.11649E-03     103.392E-03    -16.7050E+06    -9.86496E+06     2.42721E+06     1.90037E+06    -12.0571E-03     23.7858E-03    -11.7287E-03     31.3785E-03    -12.1305E-03     23.7578E-03    -11.6780E-03     31.4017E-03
            1193     8.00574E-03     103.420E-03    -14.9813E+06    -9.25965E+06     3.34198E+06    -1.58130E+06    -12.3011E-03     24.0615E-03    -11.7604E-03     36.8598E-03    -12.3685E-03     24.0331E-03    -11.7085E-03     36.8375E-03
            1194     8.89497E-03     103.452E-03    -13.7243E+06    -11.9787E+06     3.99873E+06    -6.01879E+06    -12.6588E-03     24.4673E-03    -11.8085E-03     42.9663E-03    -12.7177E-03     24.4234E-03    -11.7513E-03     42.8858E-03
            1195     9.78382E-03     103.491E-03    -11.6328E+06    -13.1747E+06     5.71512E+06    -10.4385E+06    -13.1911E-03     25.0686E-03    -11.8775E-03     49.7231E-03    -13.2420E-03     25.0149E-03    -11.8130E-03     49.5837E-03
            1196     10.6724E-03     103.536E-03    -9.53321E+06    -13.1003E+06     7.94029E+06    -12.8024E+06    -14.0164E-03     25.9940E-03    -11.9776E-03     57.1221E-03    -14.0635E-03     25.9378E-03    -11.9051E-03     56.9491E-03
            1197     11.5601E-03     103.587E-03    -7.75220E+06    -11.9467E+06     9.39770E+06    -14.1859E+06    -15.2858E-03     27.4072E-03    -12.1214E-03     65.0253E-03    -15.3347E-03     27.3590E-03    -12.0459E-03     64.8286E-03
            1198     12.4469E-03     103.646E-03    -6.22687E+06    -12.5323E+06     10.4995E+06    -18.2064E+06    -17.1896E-03     29.5268E-03    -12.3372E-03     75.1812E-03    -17.2471E-03     29.4873E-03    -12.2575E-03     74.9219E-03
            1199     13.3317E-03     103.716E-03    -3.65466E+06    -34.8878E+06    -706.964E+03    -21.4728E+06    -19.6623E-03     32.2800E-03    -12.6178E-03     80.7188E-03    -19.6808E-03     32.1639E-03    -12.5654E-03     80.4024E-03
            1200     14.2151E-03     103.785E-03    -2.07740E+06    -29.9932E+06    -2.46266E+06    -20.9534E+06    -22.6392E-03     35.6630E-03    -13.0238E-03     86.2372E-03    -22.7047E-03     35.6220E-03    -12.9896E-03     85.9041E-03
            1201     15.0941E-03     103.866E-03    -3.55222E+06    -29.8950E+06    -4.67918E+06    -22.1565E+06    -26.4113E-03     39.9477E-03    -13.5363E-03     116.516E-03    -26.7011E-03     40.1324E-03    -13.5112E-03     116.140E-03
            1202     15.9741E-03     103.994E-03    -4.89981E+06    -25.9610E+06    -28.2510E+06    -16.9117E+06    -31.7171E-03     45.7092E-03    -13.9921E-03     175.314E-03    -33.2934E-03     47.2581E-03    -14.0886E-03     175.316E-03
            1203     16.8501E-03     104.190E-03    -3.62727E+06     85.1895E+06     31.8987E+06    -6.20012E+06    -34.8949E-03     49.5893E-03    -14.6944E-03     236.601E-03    -40.2257E-03     55.1171E-03    -14.6532E-03     239.840E-03
            1204     889.951E-06     104.269E-03    -67.5124E+06    -48.9964E+06    -67.8082E+06    -2.76142E+06    -11.0489E-03     22.0745E-03    -11.0256E-03     3.74860E-03    -11.2171E-03     22.0259E-03    -11.1957E-03     3.71290E-03
            1205     1.78000E-03     104.273E-03    -63.4403E+06    -45.3049E+06    -62.6299E+06    -4.60256E+06    -11.0413E-03     22.0873E-03    -11.0460E-03     6.96335E-03    -11.2020E-03     22.0436E-03    -11.2014E-03     6.90382E-03
            1206     2.66998E-03     104.280E-03    -56.0038E+06    -40.5353E+06    -53.9749E+06    -4.63037E+06    -11.0545E-03     22.1190E-03    -11.0645E-03     10.3904E-03    -11.1975E-03     22.0758E-03    -11.1944E-03     10.3304E-03
            1207     3.56004E-03     104.290E-03    -43.9649E+06    -32.4420E+06    -40.8780E+06    -948.280E+03    -11.0812E-03     22.1731E-03    -11.0918E-03     13.9439E-03    -11.1948E-03     22.1339E-03    -11.1854E-03     13.9313E-03
            1208     4.45013E-03     104.303E-03    -29.4330E+06    -22.6002E+06    -24.2767E+06     4.78386E+06    -11.1431E-03     22.2741E-03    -11.1311E-03     17.7145E-03    -11.2224E-03     22.2391E-03    -11.1770E-03     17.7758E-03
            1209     5.34021E-03     104.319E-03    -18.5672E+06    -14.3381E+06    -8.60767E+06     7.80877E+06    -11.2679E-03     22.4487E-03    -11.1808E-03     21.8193E-03    -11.3277E-03     22.4166E-03    -11.1761E-03     21.9194E-03
            1210     6.23007E-03     104.339E-03    -14.3367E+06    -9.24604E+06     1.39020E+06     6.25389E+06    -11.4648E-03     22.6961E-03    -11.2312E-03     26.3270E-03    -11.5255E-03     22.6689E-03    -11.1901E-03     26.4069E-03
            1211     7.11978E-03     104.363E-03    -13.3522E+06    -5.94684E+06     5.51182E+06     2.62282E+06    -11.6997E-03     22.9755E-03    -11.2757E-03     31.2800E-03    -11.7664E-03     22.9577E-03    -11.2202E-03     31.3127E-03
            1212     8.00947E-03     104.390E-03    -11.3727E+06    -5.17627E+06     6.99304E+06    -1.32934E+06    -11.9791E-03     23.3011E-03    -11.3220E-03     36.8248E-03    -12.0396E-03     23.2825E-03    -11.2630E-03     36.8060E-03
            1213     8.89885E-03     104.424E-03    -9.08080E+06    -5.67048E+06     8.22512E+06    -5.71862E+06    -12.3461E-03     23.7263E-03    -11.3802E-03     43.0575E-03    -12.3969E-03     23.7009E-03    -11.3177E-03     42.9812E-03
            1214     9.78811E-03     104.462E-03    -8.36960E+06    -8.42074E+06     9.34263E+06    -9.86208E+06    -12.8818E-03     24.3423E-03    -11.4605E-03     50.0580E-03    -12.9281E-03     24.3019E-03    -11.3894E-03     49.9268E-03
            1215     10.6768E-03     104.508E-03    -7.62670E+06    -9.72561E+06     10.2999E+06    -12.8760E+06    -13.6878E-03     25.2532E-03    -11.5654E-03     57.8572E-03    -13.7329E-03     25.2068E-03    -11.4887E-03     57.6842E-03
            1216     11.5651E-03     104.560E-03    -5.64461E+06    -9.10646E+06     11.7814E+06    -14.9240E+06    -14.9738E-03     26.6880E-03    -11.7142E-03     66.4378E-03    -15.0185E-03     26.6462E-03    -11.6339E-03     66.2330E-03
            1217     12.4519E-03     104.621E-03    -4.98870E+06    -6.06438E+06     13.6681E+06    -16.8302E+06    -16.9900E-03     28.9261E-03    -11.9361E-03     77.4270E-03    -17.0537E-03     28.9110E-03    -11.8517E-03     77.1871E-03
            1218     13.3373E-03     104.693E-03    -7.21266E+06    -30.0240E+06     1.46427E+06    -21.4903E+06    -19.6581E-03     31.8925E-03    -12.2344E-03     84.0323E-03    -19.7032E-03     31.8012E-03    -12.1731E-03     83.7171E-03
            1219     14.2193E-03     104.766E-03    -6.87374E+06    -30.5280E+06    -3.04305E+06    -23.4341E+06    -23.2150E-03     35.8834E-03    -12.6684E-03     91.0011E-03    -23.3039E-03     35.8486E-03    -12.6294E-03     90.6343E-03
            1220     15.1000E-03     104.851E-03    -4.28432E+06    -26.4894E+06    -2.87370E+06    -21.8520E+06    -28.5100E-03     41.7790E-03    -13.2690E-03     119.473E-03    -28.8194E-03     41.9878E-03    -13.2387E-03     119.079E-03
            1221     15.9765E-03     104.979E-03    -3.10742E+06    -34.0842E+06    -24.8453E+06    -16.8051E+06    -31.9163E-03     45.7349E-03    -13.8186E-03     175.356E-03    -33.3721E-03     47.1307E-03    -13.8889E-03     175.328E-03
            1222     16.8535E-03     105.181E-03    -2.73897E+06     72.4355E+06     30.3501E+06    -6.75441E+06    -35.7311E-03     50.2532E-03    -14.5221E-03     240.522E-03    -41.0070E-03     55.6891E-03    -14.4714E-03     243.486E-03
            1223     890.387E-06     105.238E-03    -66.0190E+06    -41.9564E+06    -65.7746E+06    -4.45366E+06    -10.6556E-03     21.2953E-03    -10.6397E-03     3.66461E-03    -10.8295E-03     21.2767E-03    -10.8120E-03     3.60705E-03
            1224     1.78067E-03     105.242E-03    -64.7633E+06    -39.2158E+06    -63.2791E+06    -7.79707E+06    -10.6613E-03     21.3157E-03    -10.6543E-03     6.81503E-03    -10.8365E-03     21.3053E-03    -10.8200E-03     6.71424E-03
            1225     2.67105E-03     105.249E-03    -62.0692E+06    -37.1931E+06    -58.3535E+06    -10.5501E+06    -10.6904E-03     21.3658E-03    -10.6754E-03     10.1830E-03    -10.8622E-03     21.3545E-03    -10.8233E-03     10.0466E-03
            1226     3.56136E-03     105.259E-03    -56.7303E+06    -33.9253E+06    -51.5856E+06    -11.5955E+06    -10.7273E-03     21.4278E-03    -10.7006E-03     13.6848E-03    -10.8870E-03     21.4154E-03    -10.8270E-03     13.5347E-03
            1227     4.45167E-03     105.272E-03    -46.5551E+06    -27.4588E+06    -42.5077E+06    -9.54609E+06    -10.7592E-03     21.4814E-03    -10.7222E-03     17.3631E-03    -10.8907E-03     21.4734E-03    -10.8274E-03     17.2394E-03
            1228     5.34206E-03     105.288E-03    -31.5844E+06    -18.5711E+06    -28.4217E+06    -4.45511E+06    -10.8286E-03     21.5836E-03    -10.7550E-03     21.3176E-03    -10.9186E-03     21.5780E-03    -10.8244E-03     21.2595E-03
            1229     6.23254E-03     105.308E-03    -17.3681E+06    -10.3467E+06    -10.3340E+06     812.277E+03    -10.9981E-03     21.8135E-03    -10.8154E-03     25.7070E-03    -11.0553E-03     21.8023E-03    -10.8269E-03     25.7166E-03
            1230     7.12273E-03     105.332E-03    -9.41844E+06    -3.52489E+06     4.64530E+06     2.23643E+06    -11.2762E-03     22.1643E-03    -10.8882E-03     30.6883E-03    -11.3255E-03     22.1542E-03    -10.8462E-03     30.7160E-03
            1231     8.01257E-03     105.361E-03    -7.38283E+06    -375.239E+03     10.7037E+06    -699.154E+03    -11.6197E-03     22.5706E-03    -10.9509E-03     36.3258E-03    -11.6725E-03     22.5648E-03    -10.8862E-03     36.3153E-03
            1232     8.90237E-03     105.394E-03    -6.92670E+06    -238.912E+03     11.7931E+06    -5.02413E+06    -12.0094E-03     23.0227E-03    -11.0134E-03     42.6591E-03    -12.0623E-03     23.0160E-03    -10.9440E-03     42.5921E-03
            1233     9.79184E-03     105.433E-03    -5.83452E+06    -3.84242E+06     12.5270E+06    -8.59210E+06    -12.5251E-03     23.6204E-03    -11.0953E-03     49.8520E-03    -12.5696E-03     23.5942E-03    -11.0186E-03     49.7378E-03
            1234     10.6810E-03     105.479E-03    -5.33681E+06    -5.32463E+06     13.2352E+06    -11.8091E+06    -13.3200E-03     24.5199E-03    -11.1998E-03     58.0729E-03    -13.3635E-03     24.4871E-03    -11.1182E-03     57.9147E-03
            1235     11.5694E-03     105.533E-03    -5.83860E+06    -5.98916E+06     13.8288E+06    -14.3214E+06    -14.6081E-03     25.9566E-03    -11.3485E-03     67.3214E-03    -14.6598E-03     25.9262E-03    -11.2622E-03     67.1260E-03
            1236     12.4569E-03     105.595E-03    -6.41026E+06    -4.24519E+06     14.7731E+06    -14.4605E+06    -16.5607E-03     28.1250E-03    -11.5643E-03     79.1665E-03    -16.6329E-03     28.1166E-03    -11.4750E-03     78.9598E-03
            1237     13.3424E-03     105.670E-03    -7.64323E+06    -20.1050E+06     7.11251E+06    -17.8185E+06    -19.3866E-03     31.2545E-03    -11.8679E-03     86.9879E-03    -19.4531E-03     31.2019E-03    -11.7921E-03     86.7228E-03
            1238     14.2262E-03     105.747E-03    -9.54213E+06    -27.6807E+06    -1.84008E+06    -24.6710E+06    -23.8036E-03     36.1194E-03    -12.3158E-03     95.6407E-03    -23.9109E-03     36.1002E-03    -12.2710E-03     95.2563E-03
            1239     15.1039E-03     105.838E-03    -9.00202E+06    -28.7836E+06    -2.69159E+06    -24.1905E+06    -29.4658E-03     42.4361E-03    -12.9704E-03     125.572E-03    -29.7893E-03     42.6334E-03    -12.9290E-03     125.141E-03
            1240     15.9752E-03     105.973E-03    -7.70353E+06    -41.1335E+06    -20.8495E+06    -18.1810E+06    -33.3520E-03     46.9717E-03    -13.6197E-03     174.522E-03    -34.6893E-03     48.1962E-03    -13.6531E-03     174.388E-03
            1241     16.8633E-03     106.151E-03    -4.88848E+06     59.0382E+06     29.6360E+06    -8.89770E+06    -37.8347E-03     52.2372E-03    -14.4025E-03     241.258E-03    -43.0110E-03     57.5207E-03    -14.3329E-03     243.854E-03
            1242     890.541E-06     106.206E-03    -48.8617E+06    -33.2823E+06    -48.3318E+06    -4.45091E+06    -10.4612E-03     20.9192E-03    -10.4580E-03     3.49998E-03    -10.5871E-03     20.8938E-03    -10.5806E-03     3.44241E-03
            1243     1.78117E-03     106.211E-03    -48.7518E+06    -31.3628E+06    -46.6092E+06    -7.78378E+06    -10.4917E-03     20.9627E-03    -10.4710E-03     6.50085E-03    -10.6224E-03     20.9442E-03    -10.5879E-03     6.40015E-03
            1244     2.67167E-03     106.218E-03    -48.5539E+06    -30.2787E+06    -44.1263E+06    -10.9707E+06    -10.5407E-03     21.0364E-03    -10.4957E-03     9.72557E-03    -10.6757E-03     21.0195E-03    -10.6021E-03     9.58360E-03
            1245     3.56216E-03     106.228E-03    -48.0701E+06    -28.7774E+06    -41.8338E+06    -14.0967E+06    -10.5888E-03     21.1095E-03    -10.5207E-03     13.0867E-03    -10.7269E-03     21.0961E-03    -10.6185E-03     12.9042E-03
            1246     4.45266E-03     106.241E-03    -46.5088E+06    -25.5798E+06    -39.5963E+06    -16.6803E+06    -10.6266E-03     21.1661E-03    -10.5394E-03     16.6367E-03    -10.7649E-03     21.1632E-03    -10.6329E-03     16.4207E-03
            1247     5.34313E-03     106.257E-03    -41.9134E+06    -21.4970E+06    -35.8010E+06    -16.5501E+06    -10.6535E-03     21.2084E-03    -10.5548E-03     20.4385E-03    -10.7803E-03     21.2139E-03    -10.6419E-03     20.2241E-03
            1248     6.23360E-03     106.277E-03    -31.4478E+06    -15.0383E+06    -26.2612E+06    -12.6835E+06    -10.6955E-03     21.2759E-03    -10.5804E-03     24.6198E-03    -10.7933E-03     21.2849E-03    -10.6443E-03     24.4552E-03
            1249     7.12428E-03     106.301E-03    -17.1478E+06    -6.16680E+06    -10.6127E+06    -6.80649E+06    -10.8475E-03     21.4749E-03    -10.6274E-03     29.4151E-03    -10.9095E-03     21.4849E-03    -10.6466E-03     29.3261E-03
            1250     8.01477E-03     106.330E-03    -6.12449E+06     1.44869E+06     6.12254E+06    -2.96237E+06    -11.1725E-03     21.8724E-03    -10.6999E-03     35.0016E-03    -11.2150E-03     21.8805E-03    -10.6625E-03     34.9619E-03
            1251     8.90476E-03     106.364E-03    -2.30308E+06     3.84211E+06     15.1082E+06    -3.49530E+06    -11.6108E-03     22.3854E-03    -10.7746E-03     41.4087E-03    -11.6511E-03     22.3874E-03    -10.7013E-03     41.3617E-03
            1252     9.79455E-03     106.403E-03    -2.97955E+06     594.738E+03     15.7910E+06    -6.53281E+06    -12.1409E-03     22.9869E-03    -10.8461E-03     48.7642E-03    -12.1818E-03     22.9736E-03    -10.7636E-03     48.6771E-03
            1253     10.6841E-03     106.450E-03    -3.58575E+06    -571.319E+03     16.3819E+06    -9.95919E+06    -12.9058E-03     23.8465E-03    -10.9407E-03     57.3669E-03    -12.9510E-03     23.8294E-03    -10.8528E-03     57.2337E-03
            1254     11.5729E-03     106.505E-03    -2.82278E+06    -2.68066E+06     17.7588E+06    -12.6789E+06    -14.1861E-03     25.2681E-03    -11.0820E-03     67.3023E-03    -14.2312E-03     25.2422E-03    -10.9853E-03     67.1300E-03
            1255     12.4606E-03     106.569E-03    -1.62599E+06    -4.52874E+06     18.7941E+06    -12.9823E+06    -16.0720E-03     27.3581E-03    -11.2861E-03     79.7207E-03    -16.1218E-03     27.3316E-03    -11.1832E-03     79.5361E-03
            1256     13.3473E-03     106.646E-03    -1.64150E+06    -11.9330E+06     15.1797E+06    -14.2750E+06    -19.1320E-03     30.7166E-03    -11.5845E-03     89.2379E-03    -19.1870E-03     30.6795E-03    -11.4890E-03     89.0218E-03
            1257     14.2295E-03     106.727E-03    -4.88613E+06    -18.4540E+06     6.27399E+06    -20.1362E+06    -23.6762E-03     35.7047E-03    -12.0285E-03     100.246E-03    -23.7793E-03     35.7069E-03    -11.9633E-03     99.9236E-03
            1258     15.1082E-03     106.826E-03    -7.76265E+06    -30.9669E+06     1.60954E+06    -23.7685E+06    -28.5076E-03     41.1661E-03    -12.6585E-03     129.020E-03    -28.7915E-03     41.3078E-03    -12.5943E-03     128.603E-03
            1259     15.9927E-03     106.958E-03    -8.44582E+06    -51.2060E+06    -18.0254E+06    -20.9903E+06    -36.9514E-03     50.3338E-03    -13.3824E-03     177.929E-03    -38.1940E-03     51.4174E-03    -13.3861E-03     177.579E-03
            1260     16.8477E-03     107.151E-03    -7.01984E+06     46.9499E+06     28.2379E+06    -11.4755E+06    -41.0853E-03     55.4114E-03    -14.3261E-03     240.410E-03    -45.9118E-03     60.2980E-03    -14.2428E-03     242.600E-03
            1261     890.655E-06     107.175E-03    -31.2268E+06    -25.2355E+06    -30.4250E+06    -3.76784E+06    -10.5111E-03     21.0096E-03    -10.4984E-03     3.24455E-03    -10.5865E-03     20.9729E-03    -10.5687E-03     3.19573E-03
            1262     1.78118E-03     107.179E-03    -31.1830E+06    -23.9933E+06    -29.2924E+06    -6.71077E+06    -10.5554E-03     21.0748E-03    -10.5193E-03     6.02882E-03    -10.6341E-03     21.0425E-03    -10.5858E-03     5.94185E-03
            1263     2.67174E-03     107.186E-03    -30.9134E+06    -23.0485E+06    -27.3858E+06    -9.81388E+06    -10.6203E-03     21.1694E-03    -10.5491E-03     9.02227E-03    -10.7019E-03     21.1388E-03    -10.6078E-03     8.89505E-03
            1264     3.56222E-03     107.196E-03    -30.3104E+06    -21.6223E+06    -24.6295E+06    -13.0120E+06    -10.6985E-03     21.2847E-03    -10.5862E-03     12.1276E-03    -10.7832E-03     21.2564E-03    -10.6340E-03     11.9589E-03
            1265     4.45263E-03     107.209E-03    -30.2126E+06    -19.5577E+06    -21.9459E+06    -15.7915E+06    -10.7704E-03     21.3949E-03    -10.6245E-03     15.4084E-03    -10.8616E-03     21.3730E-03    -10.6621E-03     15.2036E-03
            1266     5.34298E-03     107.225E-03    -30.6504E+06    -18.1903E+06    -20.6301E+06    -18.2169E+06    -10.8150E-03     21.4700E-03    -10.6550E-03     18.9589E-03    -10.9124E-03     21.4539E-03    -10.6874E-03     18.7225E-03
            1267     6.23342E-03     107.245E-03    -30.2204E+06    -15.2702E+06    -20.1409E+06    -19.7797E+06    -10.8136E-03     21.4832E-03    -10.6695E-03     22.8919E-03    -10.9140E-03     21.4804E-03    -10.7043E-03     22.6352E-03
            1268     7.12382E-03     107.269E-03    -25.7646E+06    -10.4563E+06    -16.6386E+06    -18.0297E+06    -10.7919E-03     21.4702E-03    -10.6783E-03     27.3571E-03    -10.8822E-03     21.4802E-03    -10.7090E-03     27.1228E-03
            1269     8.01450E-03     107.298E-03    -15.7563E+06    -2.08081E+06    -7.56420E+06    -12.9226E+06    -10.8457E-03     21.5384E-03    -10.6927E-03     32.6139E-03    -10.9115E-03     21.5628E-03    -10.7046E-03     32.4455E-03
            1270     8.90516E-03     107.333E-03    -4.81337E+06     2.96320E+06     5.84540E+06    -7.34436E+06    -11.1314E-03     21.8684E-03    -10.7371E-03     38.8723E-03    -11.1694E-03     21.8830E-03    -10.7052E-03     38.7757E-03
            1271     9.79539E-03     107.373E-03     1.80077E+06     4.16779E+06     17.2898E+06    -5.85406E+06    -11.6897E-03     22.4964E-03    -10.8067E-03     46.3572E-03    -11.7137E-03     22.4914E-03    -10.7289E-03     46.2793E-03
            1272     10.6850E-03     107.420E-03     3.89687E+06     3.74500E+06     21.7585E+06    -8.27411E+06    -12.5104E-03     23.3967E-03    -10.8863E-03     55.2612E-03    -12.5312E-03     23.3815E-03    -10.7886E-03     55.1508E-03
            1273     11.5744E-03     107.475E-03     2.45776E+06    -629.294E+03     23.1423E+06    -9.44124E+06    -13.7026E-03     24.7105E-03    -11.0080E-03     65.6736E-03    -13.7298E-03     24.6772E-03    -10.8949E-03     65.5451E-03
            1274     12.4626E-03     107.542E-03     222.698E+03    -2.18917E+06     23.7532E+06    -11.0736E+06    -15.5774E-03     26.7657E-03    -11.1883E-03     78.7405E-03    -15.6238E-03     26.7363E-03    -11.0667E-03     78.5839E-03
            1275     13.3491E-03     107.620E-03    -450.653E+03    -10.0661E+06     20.2526E+06    -11.8218E+06    -18.5783E-03     30.0390E-03    -11.4608E-03     90.5241E-03    -18.6304E-03     29.9952E-03    -11.3442E-03     90.3444E-03
            1276     14.2331E-03     107.709E-03    -2.32522E+06    -6.73146E+06     15.5929E+06    -14.4478E+06    -22.5765E-03     34.4384E-03    -11.8619E-03     102.677E-03    -22.6822E-03     34.4668E-03    -11.7708E-03     102.437E-03
            1277     15.1150E-03     107.808E-03    -5.85673E+06    -27.2605E+06     7.02425E+06    -21.3128E+06    -28.4682E-03     40.9225E-03    -12.4543E-03     130.400E-03    -28.7251E-03     41.0416E-03    -12.3711E-03     130.009E-03
            1278     15.9844E-03     107.947E-03    -8.69610E+06    -58.8395E+06    -15.5925E+06    -20.7017E+06    -37.0428E-03     50.2110E-03    -13.1682E-03     185.457E-03    -38.1838E-03     51.1577E-03    -13.1482E-03     185.062E-03
            1279     16.8665E-03     108.156E-03    -7.13437E+06     37.5942E+06     26.3952E+06    -13.2417E+06    -42.6113E-03     56.7237E-03    -14.1124E-03     241.563E-03    -46.9658E-03     61.1104E-03    -14.0246E-03     243.222E-03
            1280     890.314E-06     108.143E-03    -15.0620E+06    -18.4533E+06    -14.9157E+06    -3.14604E+06    -10.8726E-03     21.7294E-03    -10.8567E-03     2.89825E-03    -10.8995E-03     21.6807E-03    -10.8827E-03     2.85736E-03
            1281     1.78069E-03     108.148E-03    -15.2382E+06    -17.3356E+06    -14.1405E+06    -5.87174E+06    -10.9258E-03     21.8041E-03    -10.8784E-03     5.39747E-03    -10.9564E-03     21.7601E-03    -10.9018E-03     5.32117E-03
            1282     2.67093E-03     108.155E-03    -15.2488E+06    -16.3934E+06    -12.3198E+06    -8.78139E+06    -11.0100E-03     21.9245E-03    -10.9145E-03     8.06610E-03    -11.0448E-03     21.8827E-03    -10.9302E-03     7.95197E-03
            1283     3.56112E-03     108.165E-03    -15.6520E+06    -15.2722E+06    -10.2064E+06    -11.3204E+06    -11.1080E-03     22.0680E-03    -10.9600E-03     10.8269E-03    -11.1495E-03     22.0293E-03    -10.9662E-03     10.6797E-03
            1284     4.45120E-03     108.178E-03    -16.1084E+06    -13.8939E+06    -8.27358E+06    -13.4802E+06    -11.2060E-03     22.2143E-03    -11.0083E-03     13.7398E-03    -11.2548E-03     22.1805E-03    -11.0061E-03     13.5644E-03
            1285     5.34127E-03     108.194E-03    -16.3544E+06    -12.4330E+06    -5.94719E+06    -15.6827E+06    -11.2933E-03     22.3516E-03    -11.0583E-03     16.8859E-03    -11.3490E-03     22.3223E-03    -11.0463E-03     16.6817E-03
            1286     6.23117E-03     108.214E-03    -17.0143E+06    -10.8873E+06    -3.87201E+06    -17.7669E+06    -11.3348E-03     22.4376E-03    -11.1028E-03     20.3803E-03    -11.3993E-03     22.4142E-03    -11.0817E-03     20.1489E-03
            1287     7.12121E-03     108.238E-03    -18.3192E+06     -9.4478E+06    -3.15068E+06    -19.3651E+06    -11.2781E-03     22.4068E-03    -11.1287E-03     24.4150E-03    -11.3525E-03     22.3916E-03    -11.1042E-03     24.1628E-03
            1288     8.01125E-03     108.267E-03    -18.4979E+06    -4.63500E+06    -4.72821E+06    -19.1913E+06    -11.1305E-03     22.2460E-03    -11.1155E-03     29.1620E-03    -11.2107E-03     22.2577E-03    -11.1056E-03     28.9120E-03
            1289     8.90184E-03     108.301E-03    -14.1255E+06    -1.78793E+06    -795.325E+03    -15.6465E+06    -11.0722E-03     22.1795E-03    -11.1073E-03     34.8730E-03    -11.1405E-03     22.1936E-03    -11.0882E-03     34.6688E-03
            1290     9.79245E-03     108.342E-03    -6.77073E+06     3.33790E+06     8.86369E+06    -10.7166E+06    -11.2974E-03     22.4161E-03    -11.1187E-03     41.9698E-03    -11.3507E-03     22.4315E-03    -11.0694E-03     41.8292E-03
            1291     10.6828E-03     108.389E-03    -2.17801E+06     5.80550E+06     17.4738E+06    -8.18043E+06    -11.9788E-03     23.1360E-03    -11.1572E-03     51.0216E-03    -12.0259E-03     23.1453E-03    -11.0751E-03     50.9131E-03
            1292     11.5720E-03     108.446E-03     197.802E+03    -381.203E+03     23.5800E+06    -7.58817E+06    -13.1404E-03     24.3877E-03    -11.2473E-03     61.8440E-03    -13.1777E-03     24.3560E-03    -11.1291E-03     61.7414E-03
            1293     12.4609E-03     108.513E-03     364.822E+03     453.084E+03     27.0462E+06    -6.95398E+06    -14.9280E-03     26.3132E-03    -11.3852E-03     75.7383E-03    -14.9772E-03     26.2868E-03    -11.2511E-03     75.6386E-03
            1294     13.3480E-03     108.596E-03    -1.28453E+06    -6.67351E+06     25.2763E+06    -9.72492E+06    -17.5411E-03     29.1469E-03    -11.6058E-03     89.0623E-03    -17.6000E-03     29.1044E-03    -11.4679E-03     88.9163E-03
            1295     14.2330E-03     108.686E-03    -1.06974E+06    -2.93684E+06     20.8770E+06    -10.7414E+06    -21.2959E-03     33.2237E-03    -11.9278E-03     102.495E-03    -21.3896E-03     33.2428E-03    -11.8176E-03     102.313E-03
            1296     15.1130E-03     108.792E-03    -4.97988E+06    -16.2665E+06     13.5640E+06    -14.9514E+06    -27.6197E-03     40.0648E-03    -12.4451E-03     133.064E-03    -27.8653E-03     40.1958E-03    -12.3464E-03     132.763E-03
            1297     15.9951E-03     108.938E-03    -6.21665E+06    -56.9485E+06    -11.5368E+06    -22.3435E+06    -35.4124E-03     48.4922E-03    -13.0798E-03     186.614E-03    -36.3511E-03     49.2404E-03    -13.0459E-03     186.202E-03
            1298     16.8662E-03     109.141E-03    -1.76608E+06     22.4321E+06     18.5417E+06    -15.4923E+06    -43.1715E-03     57.1165E-03    -13.9450E-03     241.062E-03    -47.0235E-03     60.9890E-03    -13.8823E-03     242.164E-03
            1299     889.771E-06     109.113E-03    -2.11094E+06    -12.6888E+06    -1.92647E+06    -2.76558E+06    -11.6289E-03     23.2318E-03    -11.6029E-03     2.50422E-03    -11.6182E-03     23.1743E-03    -11.5911E-03     2.46816E-03
            1300     1.77941E-03     109.117E-03    -2.46627E+06    -11.4847E+06    -1.53583E+06    -5.05711E+06    -11.6981E-03     23.3314E-03    -11.6333E-03     4.62491E-03    -11.6916E-03     23.2798E-03    -11.6208E-03     4.55893E-03
            1301     2.66905E-03     109.125E-03    -3.10975E+06    -10.7543E+06    -300.338E+03    -7.22441E+06    -11.7981E-03     23.4759E-03    -11.6779E-03     6.87994E-03    -11.7977E-03     23.4272E-03    -11.6593E-03     6.78562E-03
            1302     3.55855E-03     109.135E-03    -3.60540E+06    -10.0579E+06     1.16300E+06    -9.28289E+06    -11.9175E-03     23.6494E-03    -11.7319E-03     9.20620E-03    -11.9229E-03     23.6028E-03    -11.7063E-03     9.08490E-03
            1303     4.44799E-03     109.148E-03    -4.06834E+06    -9.09656E+06     3.19206E+06    -11.1693E+06    -12.0503E-03     23.8450E-03    -11.7946E-03     11.6553E-03    -12.0626E-03     23.8011E-03    -11.7596E-03     11.5092E-03
            1304     5.33721E-03     109.165E-03    -5.05333E+06    -7.72697E+06     5.28072E+06    -12.7466E+06    -12.1693E-03     24.0302E-03    -11.8609E-03     14.3045E-03    -12.1916E-03     23.9918E-03    -11.8160E-03     14.1376E-03
            1305     6.22647E-03     109.185E-03    -6.48049E+06    -6.67381E+06     6.93203E+06    -14.0297E+06    -12.2433E-03     24.1668E-03    -11.9235E-03     17.2568E-03    -12.2770E-03     24.1336E-03    -11.8698E-03     17.0729E-03
            1306     7.11556E-03     109.209E-03    -7.87386E+06    -5.29008E+06     8.67928E+06    -15.4168E+06    -12.2495E-03     24.2263E-03    -11.9768E-03     20.6496E-03    -12.2950E-03     24.1998E-03    -11.9143E-03     20.4474E-03
            1307     8.00496E-03     109.237E-03    -9.82372E+06    -3.49624E+06     10.3828E+06    -16.0246E+06    -12.1750E-03     24.1897E-03    -12.0147E-03     24.6699E-03    -12.2356E-03     24.1727E-03    -11.9435E-03     24.4596E-03
            1308     8.89414E-03     109.271E-03    -13.0093E+06    -3.10464E+06     9.42688E+06    -15.8464E+06    -11.9932E-03     24.0149E-03    -12.0218E-03     29.5572E-03    -12.0692E-03     24.0062E-03    -11.9513E-03     29.3492E-03
            1309     9.78398E-03     109.311E-03    -14.3489E+06    -351.047E+03     8.48857E+06    -13.7381E+06    -11.8169E-03     23.8168E-03    -11.9998E-03     35.6977E-03    -11.9025E-03     23.8254E-03    -11.9361E-03     35.5170E-03
            1310     10.6741E-03     109.359E-03    -11.8502E+06     4.09398E+06     14.8554E+06    -9.88276E+06    -11.9178E-03     23.9137E-03    -11.9959E-03     43.8493E-03    -12.0068E-03     23.9320E-03    -11.9104E-03     43.7186E-03
            1311     11.5645E-03     109.416E-03    -8.19501E+06     1.14410E+06     22.4606E+06    -8.98275E+06    -12.6283E-03     24.6539E-03    -12.0256E-03     54.3881E-03    -12.7066E-03     24.6421E-03    -11.9031E-03     54.2685E-03
            1312     12.4531E-03     109.485E-03    -3.46906E+06    -2.42334E+06     27.5026E+06     -7.1686E+06    -14.0180E-03     26.1086E-03    -12.0906E-03     68.6310E-03    -14.0780E-03     26.0680E-03    -11.9445E-03     68.5323E-03
            1313     13.3412E-03     109.568E-03    -1.86026E+06    -1.07984E+06     30.2184E+06    -5.54784E+06    -16.1541E-03     28.3720E-03    -12.2179E-03     83.1378E-03    -16.2206E-03     28.3405E-03    -12.0626E-03     83.0532E-03
            1314     14.2271E-03     109.662E-03    -5.37236E+06    -3.68851E+06     25.0912E+06    -7.78046E+06    -19.7273E-03     32.1694E-03    -12.4421E-03     98.1986E-03    -19.8276E-03     32.1649E-03    -12.3035E-03     98.0662E-03
            1315     15.1120E-03     109.772E-03    -5.42222E+06    -4.75912E+06     25.7664E+06    -9.97411E+06    -26.0190E-03     38.8922E-03    -12.8732E-03     129.203E-03    -26.2429E-03     39.0055E-03    -12.7296E-03     128.985E-03
            1316     15.9869E-03     109.924E-03    -8.85721E+06    -42.6808E+06     1.70024E+06    -20.2405E+06    -35.1278E-03     48.5899E-03    -13.4621E-03     179.924E-03    -35.8665E-03     49.1411E-03    -13.3789E-03     179.489E-03
            1317     16.8627E-03     110.133E-03    -12.9638E+06     1.95072E+06     2.73363E+06    -23.2643E+06    -39.8578E-03     54.0035E-03    -14.1457E-03     237.956E-03    -43.0052E-03     57.1041E-03    -14.1161E-03     238.632E-03
            1318     888.675E-06     110.084E-03     6.39581E+06    -7.84347E+06     6.88790E+06    -2.24310E+06    -12.8637E-03     25.6711E-03    -12.8074E-03     2.04270E-03    -12.8303E-03     25.6126E-03    -12.7708E-03     2.01329E-03
            1319     1.77735E-03     110.089E-03     5.93005E+06    -6.79127E+06     7.29596E+06    -3.87864E+06    -12.9541E-03     25.8176E-03    -12.8635E-03     3.70792E-03    -12.9253E-03     25.7644E-03    -12.8258E-03     3.65696E-03
            1320     2.66583E-03     110.096E-03     5.47719E+06    -6.32690E+06     8.06487E+06    -5.59242E+06    -13.0745E-03     25.9956E-03    -12.9211E-03     5.46186E-03    -13.0499E-03     25.9444E-03    -12.8796E-03     5.38832E-03
            1321     3.55428E-03     110.107E-03     4.76274E+06    -5.83628E+06     9.56724E+06    -7.17923E+06    -13.2217E-03     26.2126E-03    -12.9909E-03     7.27744E-03    -13.2036E-03     26.1628E-03    -12.9415E-03     7.18292E-03
            1322     4.44246E-03     110.120E-03     3.65585E+06    -5.31924E+06     11.0883E+06    -8.47934E+06    -13.3816E-03     26.4508E-03    -13.0692E-03     9.19461E-03    -13.3721E-03     26.4031E-03    -13.0114E-03     9.08277E-03
            1323     5.33063E-03     110.137E-03     2.55464E+06    -4.36636E+06     12.7334E+06    -9.47412E+06    -13.5415E-03     26.6944E-03    -13.1529E-03     11.2690E-03    -13.5415E-03     26.6508E-03    -13.0866E-03     11.1438E-03
            1324     6.21852E-03     110.157E-03     1.62929E+06    -3.42075E+06     15.2757E+06    -10.4594E+06    -13.7034E-03     26.9474E-03    -13.2440E-03     13.5429E-03    -13.7134E-03     26.9064E-03    -13.1650E-03     13.4044E-03
            1325     7.10649E-03     110.181E-03     126.517E+03    -2.46070E+06     18.0814E+06    -10.9920E+06    -13.8601E-03     27.1994E-03    -13.3393E-03     16.1258E-03    -13.8834E-03     27.1616E-03    -13.2455E-03     15.9798E-03
            1326     7.99402E-03     110.209E-03    -1.88984E+06    -2.08922E+06     20.0162E+06    -10.7721E+06    -13.9592E-03     27.3892E-03    -13.4300E-03     19.1784E-03    -13.9963E-03     27.3537E-03    -13.3241E-03     19.0346E-03
            1327     8.88194E-03     110.243E-03    -3.14321E+06    -1.43285E+06     21.6550E+06    -10.5345E+06    -13.9703E-03     27.4791E-03    -13.5087E-03     22.9189E-03    -14.0174E-03     27.4467E-03    -13.3938E-03     22.7777E-03
            1328     9.76957E-03     110.282E-03    -4.04332E+06    -1.09260E+06     23.0846E+06    -10.7899E+06    -13.8644E-03     27.4341E-03    -13.5697E-03     27.6869E-03    -13.9190E-03     27.4030E-03    -13.4468E-03     27.5422E-03
            1329     10.6577E-03     110.329E-03    -4.51911E+06     1.04825E+06     25.8570E+06    -9.36234E+06    -13.6150E-03     27.2243E-03    -13.6093E-03     34.0473E-03    -13.6794E-03     27.2009E-03    -13.4750E-03     33.9212E-03
            1330     11.5460E-03     110.387E-03    -4.92138E+06     2.42821E+06     29.4828E+06    -7.37056E+06    -13.5426E-03     27.1751E-03    -13.6325E-03     42.6931E-03    -13.6167E-03     27.1543E-03    -13.4815E-03     42.5929E-03
            1331     12.4354E-03     110.455E-03    -5.24678E+06    -3.72632E+06     30.1083E+06    -7.91676E+06    -13.7609E-03     27.4040E-03    -13.6430E-03     54.9048E-03    -13.8293E-03     27.3528E-03    -13.4795E-03     54.7977E-03
            1332     13.3238E-03     110.540E-03    -1.66282E+06    -3.45443E+06     33.4257E+06    -5.29409E+06    -14.7365E-03     28.4043E-03    -13.6678E-03     69.4833E-03    -14.7951E-03     28.3478E-03    -13.4932E-03     69.4079E-03
            1333     14.2115E-03     110.637E-03     2.60742E+06    -34.7443E+03     37.3644E+06    -2.92254E+06    -17.9670E-03     31.7495E-03    -13.7825E-03     86.1332E-03    -18.0302E-03     31.7137E-03    -13.5994E-03     86.0760E-03
            1334     15.0929E-03     110.751E-03    -1.16063E+06    -1.65496E+06     35.5106E+06    -3.90665E+06    -24.6624E-03     38.7541E-03    -14.0917E-03     118.617E-03    -24.8221E-03     38.8010E-03    -13.9100E-03     118.497E-03
            1335     15.9741E-03     110.910E-03    -4.19499E+06    -22.9746E+06     23.3783E+06    -11.6718E+06    -33.1260E-03     47.7371E-03    -14.6111E-03     170.035E-03    -33.6490E-03     48.0963E-03    -14.4548E-03     169.719E-03
            1336     16.8450E-03     111.121E-03     53.6065E+03    -1.25097E+06     11.9239E+06    -23.1012E+06    -27.8868E-03     42.7800E-03    -14.8932E-03     221.041E-03    -29.6851E-03     44.5419E-03    -14.8318E-03     221.375E-03
            1337     887.215E-06     111.059E-03     11.3973E+06    -4.00759E+06     12.2595E+06    -1.38218E+06    -14.6975E-03     29.2914E-03    -14.5939E-03     1.52142E-03    -14.6526E-03     29.2371E-03    -14.5433E-03     1.50309E-03
            1338     1.77418E-03     111.063E-03     11.4440E+06    -3.35565E+06     12.8122E+06    -2.84308E+06    -14.8027E-03     29.4878E-03    -14.6851E-03     2.53223E-03    -14.7594E-03     29.4357E-03    -14.6327E-03     2.49453E-03
            1339     2.66115E-03     111.071E-03     10.9882E+06    -3.00391E+06     14.0820E+06    -3.96893E+06    -14.9440E-03     29.7057E-03    -14.7617E-03     3.67587E-03    -14.9054E-03     29.6542E-03    -14.7029E-03     3.62314E-03
            1340     3.54784E-03     111.081E-03     10.2985E+06    -2.94748E+06     15.5169E+06    -4.83228E+06    -15.1126E-03     29.9601E-03    -14.8474E-03     4.87340E-03    -15.0797E-03     29.9078E-03    -14.7805E-03     4.80899E-03
            1341     4.43449E-03     111.095E-03     9.61388E+06    -2.49909E+06     17.3825E+06    -5.71173E+06    -15.3185E-03     30.2637E-03    -14.9452E-03     6.15219E-03    -15.2924E-03     30.2121E-03    -14.8686E-03     6.07582E-03
            1342     5.32079E-03     111.112E-03     8.96882E+06    -1.99636E+06     20.1867E+06    -6.53579E+06    -15.5878E-03     30.6498E-03    -15.0621E-03     7.52001E-03    -15.5699E-03     30.5978E-03    -14.9712E-03     7.43234E-03
            1343     6.20700E-03     111.132E-03     8.05526E+06    -1.25593E+06     23.5842E+06    -6.92529E+06    -15.9296E-03     31.1308E-03    -15.2012E-03     8.98428E-03    -15.9226E-03     31.0789E-03    -15.0931E-03     8.89083E-03
            1344     7.09259E-03     111.157E-03     7.13658E+06    -1.36942E+06     26.5595E+06    -6.74009E+06    -16.3192E-03     31.6793E-03    -15.3601E-03     10.6081E-03    -16.3211E-03     31.6241E-03    -15.2357E-03     10.5161E-03
            1345     7.97816E-03     111.185E-03     6.79248E+06    -812.682E+03     29.5067E+06    -6.72507E+06    -16.7276E-03     32.2633E-03    -15.5357E-03     12.4907E-03    -16.7367E-03     32.2073E-03    -15.3969E-03     12.3980E-03
            1346     8.86296E-03     111.219E-03     6.45844E+06    -663.952E+03     32.3905E+06    -6.70071E+06    -17.1100E-03     32.8356E-03    -15.7256E-03     14.7921E-03    -17.1256E-03     32.7770E-03    -15.5721E-03     14.6987E-03
            1347     9.74774E-03     111.258E-03     5.60445E+06     257.126E+03     34.9732E+06    -6.36304E+06    -17.3998E-03     33.3202E-03    -15.9204E-03     17.7965E-03    -17.4254E-03     33.2640E-03    -15.7540E-03     17.7065E-03
            1348     10.6321E-03     111.305E-03     4.64530E+06    -291.702E+03     36.7904E+06    -5.91192E+06    -17.5489E-03     33.6597E-03    -16.1108E-03     21.8100E-03    -17.5818E-03     33.5999E-03    -15.9332E-03     21.7250E-03
            1349     11.5169E-03     111.361E-03     5.00724E+06     921.476E+03     38.2498E+06    -4.32297E+06    -17.3341E-03     33.6096E-03    -16.2755E-03     27.3382E-03    -17.3697E-03     33.5536E-03    -16.0928E-03     27.2735E-03
            1350     12.4012E-03     111.429E-03     4.77081E+06    -1.02758E+06     38.4864E+06    -3.75488E+06    -16.5027E-03     32.8921E-03    -16.3894E-03     35.0406E-03    -16.5374E-03     32.8265E-03    -16.2024E-03     34.9839E-03
            1351     13.2884E-03     111.510E-03     4.77382E+06    -5.20408E+06     40.4353E+06    -6.42972E+06    -15.5352E-03     31.9802E-03    -16.4450E-03     46.1482E-03    -15.5670E-03     31.8915E-03    -16.2422E-03     46.0580E-03
            1352     14.1753E-03     111.610E-03     9.14672E+06    -3.31060E+06     44.2346E+06    -3.68759E+06    -16.3082E-03     32.7808E-03    -16.4725E-03     62.8771E-03    -16.3307E-03     32.6951E-03    -16.2598E-03     62.8190E-03
            1353     15.0615E-03     111.728E-03     17.0449E+06    -2.43666E+06     46.9580E+06     1.99897E+06    -21.8896E-03     38.5085E-03    -16.6189E-03     97.0420E-03    -21.9193E-03     38.4542E-03    -16.4053E-03     97.0259E-03
            1354     15.9378E-03     111.891E-03     25.1107E+06    -1.67721E+06     51.6135E+06    -8.45842E+06    -27.3422E-03     44.2828E-03    -16.9406E-03     145.246E-03    -27.5226E-03     44.3976E-03    -16.7165E-03     145.031E-03
            1355     16.8204E-03     112.102E-03     14.7573E+06     3.03590E+06     29.7802E+06    -14.2523E+06    -10.3192E-03     27.0059E-03    -16.6868E-03     171.394E-03    -10.8654E-03     27.5337E-03    -16.5637E-03     171.413E-03
            1356     884.899E-06     112.037E-03     16.6837E+06    -1.52676E+06     17.3417E+06    -951.134E+03    -17.2541E-03     34.5656E-03    -17.3115E-03     491.326E-06    -17.1939E-03     34.5085E-03    -17.2468E-03     478.704E-06
            1357     1.76976E-03     112.042E-03     16.6016E+06    -1.00224E+06     18.0269E+06    -1.62315E+06    -17.3719E-03     34.6848E-03    -17.3129E-03     882.632E-06    -17.3139E-03     34.6292E-03    -17.2454E-03     860.895E-06
            1358     2.65434E-03     112.050E-03     15.9466E+06    -1.15252E+06     19.4886E+06    -2.06537E+06    -17.5358E-03     34.9155E-03    -17.3797E-03     1.29824E-03    -17.4831E-03     34.8580E-03    -17.3037E-03     1.27039E-03
            1359     3.53888E-03     112.061E-03     15.4055E+06    -1.00558E+06     21.3888E+06    -2.61023E+06    -17.7563E-03     35.2311E-03    -17.4749E-03     1.74479E-03    -17.7092E-03     35.1724E-03    -17.3888E-03     1.70947E-03
            1360     4.42306E-03     112.074E-03     14.8404E+06    -802.564E+03     24.3234E+06    -3.04769E+06    -18.0839E-03     35.6877E-03    -17.6038E-03     2.21179E-03    -18.0443E-03     35.6265E-03    -17.5025E-03     2.17031E-03
            1361     5.30703E-03     112.092E-03     14.0994E+06    -387.267E+03     27.8009E+06    -3.35752E+06    -18.5411E-03     36.3129E-03    -17.7718E-03     2.68335E-03    -18.5109E-03     36.2499E-03    -17.6527E-03     2.63730E-03
            1362     6.19027E-03     112.113E-03     13.3853E+06    -566.411E+03     30.9506E+06    -3.25750E+06    -19.1362E-03     37.1175E-03    -17.9812E-03     3.16266E-03    -19.1141E-03     37.0500E-03    -17.8450E-03     3.11722E-03
            1363     7.07316E-03     112.138E-03     12.9937E+06    -360.228E+03     34.3441E+06    -3.35321E+06    -19.8752E-03     38.1124E-03    -18.2371E-03     3.64453E-03    -19.8605E-03     38.0416E-03    -18.0837E-03     3.59703E-03
            1364     7.95493E-03     112.167E-03     12.6588E+06    -328.013E+03     37.6820E+06    -3.28654E+06    -20.7349E-03     39.2765E-03    -18.5416E-03     4.17114E-03    -20.7270E-03     39.2016E-03    -18.3710E-03     4.12347E-03
            1365     8.83614E-03     112.201E-03     12.2928E+06     123.752E+03     40.8610E+06    -3.10102E+06    -21.6782E-03     40.5708E-03    -18.8926E-03     4.81972E-03    -21.6777E-03     40.4941E-03    -18.7063E-03     4.77321E-03
            1366     9.71615E-03     112.241E-03     12.2316E+06    -38.4453E+03     43.3710E+06    -2.56707E+06    -22.7275E-03     42.0165E-03    -19.2890E-03     5.68349E-03    -22.7312E-03     41.9353E-03    -19.0898E-03     5.64244E-03
            1367     10.5954E-03     112.288E-03     12.4677E+06     481.962E+03     44.8681E+06    -2.26131E+06    -23.6898E-03     43.4120E-03    -19.7222E-03     6.87151E-03    -23.6957E-03     43.3310E-03    -19.5167E-03     6.83289E-03
            1368     11.4727E-03     112.344E-03     12.2575E+06    -986.891E+03     44.4018E+06    -1.79698E+06    -24.0548E-03     44.2189E-03    -20.1641E-03     8.62282E-03    -24.0597E-03     44.1315E-03    -19.9585E-03     8.58898E-03
            1369     12.3512E-03     112.410E-03     13.5374E+06     46.5744E+03     46.6008E+06    -1.18711E+06    -23.3912E-03     43.9674E-03    -20.5761E-03     11.3389E-03    -23.3951E-03     43.8799E-03    -20.3628E-03     11.3125E-03
            1370     13.2287E-03     112.489E-03     13.0472E+06    -1.44563E+06     51.2861E+06    -2.31652E+06    -21.6224E-03     42.5379E-03    -20.9155E-03     16.1201E-03    -21.6342E-03     42.4366E-03    -20.6759E-03     16.0796E-03
            1371     14.1105E-03     112.583E-03     10.0439E+06    -6.84165E+06     45.0638E+06    -4.88604E+06    -20.7701E-03     41.9110E-03    -21.1409E-03     25.3251E-03    -20.7820E-03     41.7952E-03    -20.9202E-03     25.2513E-03
            1372     14.9938E-03     112.702E-03     15.1474E+06    -5.76873E+06     47.8518E+06    -5.26489E+06    -23.6193E-03     45.0974E-03    -21.4780E-03     47.9685E-03    -23.6241E-03     44.9851E-03    -21.2524E-03     47.8777E-03
            1373     15.8746E-03     112.872E-03     14.8167E+06     8.22736E+06     57.0675E+06    -6.11608E+06    -17.6648E-03     39.4135E-03    -21.7487E-03     75.5503E-03    -17.7433E-03     39.4049E-03    -21.4968E-03     75.4316E-03
            1374     16.7584E-03     113.062E-03     3.93288E+06     6.73975E+06     31.7489E+06    -2.58820E+06     3.44523E-03     17.7134E-03    -21.1587E-03     74.3916E-03     3.34263E-03     17.7575E-03    -21.0154E-03     74.3536E-03
            1375     16.8362E-03     56.2165E-03    -3.88045E+06     152.295E+06     46.6408E+06     422.227E+03    -25.1039E-03     40.7018E-03    -15.5978E-03     239.481E-03    -30.9328E-03     46.9223E-03    -15.5798E-03     243.804E-03
            1376     15.9494E-03     56.0189E-03    -5.49049E+06     83.6692E+06    -10.3436E+06     255.565E+03    -21.3712E-03     36.8003E-03    -15.4292E-03     166.629E-03    -23.2318E-03     38.9685E-03    -15.5942E-03     167.183E-03
            1377     15.0621E-03     55.9038E-03    -6.60403E+06     20.3068E+06    -12.7965E+06     103.897E+03    -18.1299E-03     33.6373E-03    -15.5074E-03     98.2839E-03    -18.4474E-03     34.0406E-03    -15.5913E-03     98.2612E-03
            1378     14.1781E-03     55.8361E-03    -5.90090E+06    -19.6463E+06    -11.5906E+06     507.143E+03    -16.7728E-03     32.3320E-03    -15.5592E-03     63.6232E-03    -16.8361E-03     32.3383E-03    -15.5801E-03     63.5869E-03
            1379     13.2917E-03     55.7847E-03    -3.64368E+06    -35.5763E+06    -8.99930E+06     368.873E+03    -16.4369E-03     32.0238E-03    -15.5868E-03     58.6965E-03    -16.4357E-03     31.9094E-03    -15.5750E-03     58.6649E-03
            1380     12.4050E-03     55.7273E-03    -2.78025E+06    -36.2829E+06     510.205E+03     36.4376E+03    -16.4231E-03     32.0579E-03    -15.6348E-03     56.5159E-03    -16.4143E-03     31.9090E-03    -15.5756E-03     56.4875E-03
            1381     11.5194E-03     55.6793E-03    -3.10229E+06    -43.1299E+06    -636.333E+03     371.591E+03    -16.2585E-03     31.8969E-03    -15.6383E-03     49.4723E-03    -16.2277E-03     31.7038E-03    -15.5745E-03     49.4553E-03
            1382     10.6330E-03     55.6354E-03    -3.80203E+06    -56.0300E+06    -2.73650E+06     78.4148E+03    -16.1696E-03     31.8157E-03    -15.6460E-03     45.0214E-03    -16.1143E-03     31.5558E-03    -15.5730E-03     45.0060E-03
            1383     9.74715E-03     55.5957E-03    -4.79981E+06    -58.6522E+06     1.19527E+06    -118.337E+03    -16.0804E-03     31.7493E-03    -15.6689E-03     40.7245E-03    -16.0280E-03     31.4682E-03    -15.5709E-03     40.7107E-03
            1384     8.86089E-03     55.5598E-03    -5.94081E+06    -59.4915E+06     1.37594E+06     707.208E+03    -15.9951E-03     31.6648E-03    -15.6698E-03     36.4471E-03    -15.9450E-03     31.3785E-03    -15.5680E-03     36.4471E-03
            1385     7.97497E-03     55.5278E-03    -6.16627E+06    -63.5972E+06     1.44569E+06     452.587E+03    -15.9219E-03     31.5949E-03    -15.6729E-03     32.1737E-03    -15.8656E-03     31.2866E-03    -15.5645E-03     32.1726E-03
            1386     7.08879E-03     55.4999E-03    -6.04732E+06    -61.9537E+06     433.080E+03    -886.210E+03    -15.8416E-03     31.5038E-03    -15.6623E-03     28.0374E-03    -15.7845E-03     31.2041E-03    -15.5615E-03     28.0206E-03
            1387     6.20278E-03     55.4757E-03    -6.70926E+06    -61.5794E+06    -686.673E+03    -239.736E+03    -15.7747E-03     31.4298E-03    -15.6552E-03     24.0306E-03    -15.7192E-03     31.1339E-03    -15.5596E-03     24.0233E-03
            1388     5.31663E-03     55.4552E-03    -7.88614E+06    -64.6117E+06    -1.70243E+06     791.875E+03    -15.7272E-03     31.3822E-03    -15.6549E-03     20.1907E-03    -15.6714E-03     31.0739E-03    -15.5583E-03     20.1976E-03
            1389     4.43055E-03     55.4381E-03    -9.23913E+06    -63.6706E+06    -4.03024E+06     649.944E+03    -15.6807E-03     31.3240E-03    -15.6433E-03     16.5497E-03    -15.6293E-03     31.0254E-03    -15.5577E-03     16.5555E-03
            1390     3.54441E-03     55.4244E-03    -10.8175E+06    -61.8109E+06    -7.12991E+06     490.128E+03    -15.6424E-03     31.2706E-03    -15.6282E-03     13.0741E-03    -15.5968E-03     30.9879E-03    -15.5585E-03     13.0784E-03
            1391     2.65833E-03     55.4137E-03    -12.0894E+06    -64.1118E+06    -9.33430E+06     288.185E+03    -15.6248E-03     31.2491E-03    -15.6243E-03     9.72535E-03    -15.5790E-03     30.9598E-03    -15.5605E-03     9.72762E-03
            1392     1.77219E-03     55.4063E-03    -12.9021E+06    -66.2088E+06    -11.4175E+06     182.233E+03    -15.6172E-03     31.2377E-03    -15.6205E-03     6.49521E-03    -15.5692E-03     30.9420E-03    -15.5629E-03     6.49660E-03
            1393     886.080E-06     55.4016E-03    -13.4642E+06    -67.5520E+06    -13.0718E+06     53.9022E+03    -15.6112E-03     31.2337E-03    -15.6225E-03     3.47043E-03    -15.5616E-03     30.9345E-03    -15.5704E-03     3.47062E-03
            1394     16.8344E-03     55.2345E-03    -3.84483E+06     152.402E+06     47.6079E+06     379.577E+03    -25.1278E-03     40.7261E-03    -15.5983E-03     239.354E-03    -30.9734E-03     46.9610E-03    -15.5756E-03     243.677E-03
            1395     15.9493E-03     55.0432E-03    -5.37814E+06     84.1355E+06    -9.82467E+06     650.979E+03    -21.4997E-03     36.9201E-03    -15.4204E-03     166.154E-03    -23.3549E-03     39.0834E-03    -15.5837E-03     166.714E-03
            1396     15.0643E-03     54.9232E-03    -4.50306E+06     20.5488E+06    -12.2137E+06     738.142E+03    -18.1088E-03     33.6002E-03    -15.4914E-03     97.9453E-03    -18.4160E-03     33.9998E-03    -15.5758E-03     97.9295E-03
            1397     14.1774E-03     54.8589E-03    -4.00555E+06    -19.8349E+06    -11.1149E+06     46.9012E+03    -16.5002E-03     32.0524E-03    -15.5523E-03     63.5736E-03    -16.5537E-03     32.0536E-03    -15.5733E-03     63.5325E-03
            1398     13.2909E-03     54.8061E-03    -4.23545E+06    -35.4369E+06    -9.35863E+06    -293.597E+03    -16.4874E-03     32.0733E-03    -15.5859E-03     59.0535E-03    -16.4891E-03     31.9613E-03    -15.5751E-03     59.0131E-03
            1399     12.4056E-03     54.7492E-03    -4.41352E+06    -36.7120E+06    -119.110E+03     83.0941E+03    -16.4281E-03     32.0610E-03    -15.6329E-03     56.5161E-03    -16.4260E-03     31.9132E-03    -15.5739E-03     56.4883E-03
            1400     11.5190E-03     54.7011E-03    -4.79790E+06    -43.5367E+06    -1.51553E+06     441.233E+03    -16.2126E-03     31.8489E-03    -15.6363E-03     49.4987E-03    -16.1883E-03     31.6574E-03    -15.5738E-03     49.4828E-03
            1401     10.6332E-03     54.6573E-03    -4.99515E+06    -55.4322E+06    -3.18591E+06     514.243E+03    -16.1850E-03     31.8296E-03    -15.6446E-03     45.0597E-03    -16.1358E-03     31.5751E-03    -15.5729E-03     45.0500E-03
            1402     9.74695E-03     54.6175E-03    -5.89044E+06    -59.1345E+06     688.497E+03     667.032E+03    -16.0978E-03     31.7645E-03    -15.6667E-03     40.7237E-03    -16.0495E-03     31.4833E-03    -15.5690E-03     40.7200E-03
            1403     8.86110E-03     54.5815E-03    -6.53458E+06    -59.4933E+06     389.844E+03     388.396E+03    -16.0038E-03     31.6658E-03    -15.6620E-03     36.4444E-03    -15.9552E-03     31.3817E-03    -15.5643E-03     36.4402E-03
            1404     7.97489E-03     54.5497E-03    -6.40360E+06    -61.9342E+06      -46.66E+03    -830.659E+03    -15.9189E-03     31.5777E-03    -15.6588E-03     32.1871E-03    -15.8640E-03     31.2803E-03    -15.5599E-03     32.1694E-03
            1405     7.08892E-03     54.5217E-03    -7.05789E+06    -62.6026E+06    -1.54268E+06    -673.802E+03    -15.8342E-03     31.4843E-03    -15.6501E-03     28.0328E-03    -15.7784E-03     31.1857E-03    -15.5568E-03     28.0188E-03
            1406     6.20272E-03     54.4977E-03    -8.79555E+06    -62.8959E+06    -3.26409E+06     391.630E+03    -15.7673E-03     31.4098E-03    -15.6425E-03     24.0206E-03    -15.7166E-03     31.1140E-03    -15.5549E-03     24.0215E-03
            1407     5.31667E-03     54.4771E-03    -9.90333E+06    -64.3367E+06    -3.57764E+06     481.301E+03    -15.7236E-03     31.3660E-03    -15.6424E-03     20.1796E-03    -15.6755E-03     31.0647E-03    -15.5526E-03     20.1825E-03
            1408     4.43055E-03     54.4601E-03    -10.4371E+06    -63.7053E+06    -4.39798E+06     608.309E+03    -15.6791E-03     31.3147E-03    -15.6355E-03     16.5268E-03    -15.6331E-03     31.0182E-03    -15.5500E-03     16.5321E-03
            1409     3.54447E-03     54.4463E-03    -11.1184E+06    -61.3226E+06    -6.60027E+06     636.533E+03    -15.6361E-03     31.2570E-03    -15.6209E-03     13.0550E-03    -15.5936E-03     30.9764E-03    -15.5488E-03     13.0612E-03
            1410     2.65832E-03     54.4358E-03    -11.9954E+06    -63.7568E+06    -8.94704E+06     301.269E+03    -15.6187E-03     31.2328E-03    -15.6140E-03     9.70554E-03    -15.5735E-03     30.9445E-03    -15.5489E-03     9.70798E-03
            1411     1.77224E-03     54.4282E-03    -12.8628E+06    -66.0558E+06    -11.2493E+06     90.3650E+03    -15.6078E-03     31.2151E-03    -15.6073E-03     6.47665E-03    -15.5601E-03     30.9199E-03    -15.5491E-03     6.47686E-03
            1412     886.124E-06     54.4237E-03    -13.3368E+06    -67.4196E+06    -13.0298E+06     47.1075E+03    -15.5982E-03     31.2041E-03    -15.6059E-03     3.46399E-03    -15.5482E-03     30.9053E-03    -15.5539E-03     3.46410E-03
            1413     16.8374E-03     54.2608E-03    -3.73946E+06     152.332E+06     48.0850E+06     391.680E+03    -25.2955E-03     40.8753E-03    -15.5798E-03     239.061E-03    -31.1070E-03     47.0748E-03    -15.5548E-03     243.353E-03
            1414     15.9496E-03     54.0614E-03    -4.97837E+06     84.5365E+06    -9.14086E+06     831.630E+03    -21.2694E-03     36.6731E-03    -15.4037E-03     166.759E-03    -23.1270E-03     38.8396E-03    -15.5648E-03     167.328E-03
            1415     15.0639E-03     53.9466E-03    -4.97462E+06     19.9718E+06    -12.6533E+06     556.361E+03    -17.8769E-03     33.3632E-03    -15.4863E-03     98.1591E-03    -18.1838E-03     33.7600E-03    -15.5713E-03     98.1432E-03
            1416     14.1771E-03     53.8806E-03    -4.15571E+06    -19.0404E+06    -10.8598E+06     104.022E+03    -16.5361E-03     32.0901E-03    -15.5541E-03     63.6622E-03    -16.5918E-03     32.0950E-03    -15.5747E-03     63.6218E-03
            1417     13.2918E-03     53.8277E-03    -3.70397E+06    -35.2447E+06    -9.06857E+06     132.957E+03    -16.5003E-03     32.0865E-03    -15.5861E-03     58.8520E-03    -16.5000E-03     31.9742E-03    -15.5750E-03     58.8170E-03
            1418     12.4050E-03     53.7711E-03    -4.01885E+06    -37.3807E+06    -147.765E+03     258.874E+03    -16.3832E-03     32.0174E-03    -15.6342E-03     56.4820E-03    -16.3780E-03     31.8656E-03    -15.5749E-03     56.4567E-03
            1419     11.5194E-03     53.7229E-03    -4.33159E+06    -43.5310E+06    -1.26558E+06     457.835E+03    -16.2438E-03     31.8823E-03    -15.6385E-03     49.5278E-03    -16.2175E-03     31.6898E-03    -15.5755E-03     49.5121E-03
            1420     10.6329E-03     53.6791E-03    -4.67661E+06    -55.6839E+06    -3.33383E+06     748.868E+03    -16.2097E-03     31.8531E-03    -15.6435E-03     45.0416E-03    -16.1583E-03     31.5971E-03    -15.5726E-03     45.0349E-03
            1421     9.74720E-03     53.6392E-03    -4.87021E+06    -59.1190E+06     863.893E+03     956.216E+03    -16.1169E-03     31.7809E-03    -15.6641E-03     40.6811E-03    -16.0637E-03     31.4981E-03    -15.5670E-03     40.6812E-03
            1422     8.86094E-03     53.6035E-03    -5.05806E+06    -57.7741E+06     263.136E+03    -213.207E+03    -16.0097E-03     31.6634E-03    -15.6537E-03     36.4272E-03    -15.9560E-03     31.3859E-03    -15.5613E-03     36.4153E-03
            1423     7.97503E-03     53.5715E-03    -5.75555E+06    -61.7513E+06    -349.425E+03    -900.042E+03    -15.9239E-03     31.5765E-03    -15.6525E-03     32.1498E-03    -15.8656E-03     31.2795E-03    -15.5564E-03     32.1312E-03
            1424     7.08883E-03     53.5437E-03    -7.21590E+06    -64.4387E+06    -1.32140E+06     277.007E+03    -15.8457E-03     31.4949E-03    -15.6493E-03     27.9699E-03    -15.7883E-03     31.1871E-03    -15.5520E-03     27.9681E-03
            1425     6.20283E-03     53.5195E-03    -8.15819E+06    -62.5365E+06    -2.33134E+06     702.287E+03    -15.7766E-03     31.4154E-03    -15.6388E-03     23.9731E-03    -15.7246E-03     31.1192E-03    -15.5479E-03     23.9780E-03
            1426     5.31669E-03     53.4990E-03    -9.00283E+06    -64.1635E+06    -2.35688E+06     254.208E+03    -15.7277E-03     31.3656E-03    -15.6380E-03     20.1356E-03    -15.6771E-03     31.0621E-03    -15.5437E-03     20.1355E-03
            1427     4.43064E-03     53.4819E-03    -10.2127E+06    -63.8336E+06    -3.64938E+06     186.469E+03    -15.6770E-03     31.3054E-03    -15.6284E-03     16.4907E-03    -15.6307E-03     31.0068E-03    -15.5393E-03     16.4905E-03
            1428     3.54448E-03     53.4683E-03    -11.1785E+06    -61.0164E+06    -6.30864E+06     193.401E+03    -15.6288E-03     31.2383E-03    -15.6096E-03     13.0280E-03    -15.5873E-03     30.9589E-03    -15.5364E-03     13.0285E-03
            1429     2.65840E-03     53.4576E-03    -11.9380E+06    -63.4336E+06    -8.69240E+06     116.515E+03    -15.6078E-03     31.2088E-03    -15.6009E-03     9.69160E-03    -15.5631E-03     30.9217E-03    -15.5351E-03     9.69165E-03
            1430     1.77225E-03     53.4502E-03    -12.6886E+06    -65.9891E+06    -11.0800E+06     27.7222E+03    -15.5952E-03     31.1882E-03    -15.5930E-03     6.47096E-03    -15.5470E-03     30.8928E-03    -15.5343E-03     6.47037E-03
            1431     886.120E-06     53.4456E-03    -13.2237E+06    -67.3536E+06    -12.8267E+06    -6.57975E+03    -15.5799E-03     31.1745E-03    -15.5946E-03     3.47727E-03    -15.5297E-03     30.8756E-03    -15.5419E-03     3.47668E-03
            1432     16.8353E-03     53.2803E-03    -4.09048E+06     151.918E+06     47.4834E+06     536.291E+03    -25.4229E-03     41.0057E-03    -15.5828E-03     239.664E-03    -31.2336E-03     47.2035E-03    -15.5598E-03     243.954E-03
            1433     15.9505E-03     53.0853E-03    -5.20662E+06     84.1247E+06    -9.24582E+06     758.843E+03    -21.3865E-03     36.7921E-03    -15.4056E-03     167.162E-03    -23.2560E-03     38.9686E-03    -15.5663E-03     167.728E-03
            1434     15.0625E-03     52.9677E-03    -4.76383E+06     20.9469E+06    -11.9136E+06     277.881E+03    -17.8134E-03     33.3024E-03    -15.4890E-03     97.6028E-03    -18.1194E-03     33.7003E-03    -15.5720E-03     97.5832E-03
            1435     14.1780E-03     52.9021E-03    -4.71735E+06    -19.0681E+06    -11.5241E+06     125.355E+03    -16.5298E-03     32.0833E-03    -15.5535E-03     63.7374E-03    -16.5872E-03     32.0896E-03    -15.5766E-03     63.6972E-03
            1436     13.2911E-03     52.8500E-03    -4.12572E+06    -35.6239E+06    -9.65596E+06     186.956E+03    -16.4743E-03     32.0620E-03    -15.5877E-03     59.1598E-03    -16.4749E-03     31.9495E-03    -15.5784E-03     59.1255E-03
            1437     12.4055E-03     52.7927E-03    -3.75103E+06    -37.3839E+06    -272.723E+03     397.066E+03    -16.4294E-03     32.0658E-03    -15.6364E-03     56.5352E-03    -16.4226E-03     31.9137E-03    -15.5781E-03     56.5115E-03
            1438     11.5189E-03     52.7449E-03    -4.00621E+06    -43.7282E+06    -1.38901E+06     504.450E+03    -16.2948E-03     31.9324E-03    -15.6376E-03     49.4866E-03    -16.2665E-03     31.7387E-03    -15.5754E-03     49.4714E-03
            1439     10.6333E-03     52.7007E-03    -3.86346E+06    -55.8593E+06    -3.37387E+06     610.934E+03    -16.2342E-03     31.8735E-03    -15.6393E-03     44.9986E-03    -16.1785E-03     31.6155E-03    -15.5696E-03     44.9900E-03
            1440     9.74699E-03     52.6612E-03    -3.39008E+06    -58.6406E+06     885.470E+03     278.380E+03    -16.1199E-03     31.7771E-03    -15.6572E-03     40.6486E-03    -16.0600E-03     31.4945E-03    -15.5628E-03     40.6399E-03
            1441     8.86115E-03     52.6251E-03    -3.51794E+06    -56.5518E+06     1.57177E+06    -107.850E+03    -16.0186E-03     31.6701E-03    -15.6515E-03     36.3621E-03    -15.9609E-03     31.3946E-03    -15.5565E-03     36.3515E-03
            1442     7.97494E-03     52.5935E-03    -5.15476E+06    -62.8468E+06     1.40528E+06     390.264E+03    -15.9382E-03     31.5938E-03    -15.6556E-03     32.0557E-03    -15.8778E-03     31.2880E-03    -15.5500E-03     32.0537E-03
            1443     7.08901E-03     52.5655E-03    -6.87222E+06    -65.0604E+06     225.092E+03     875.937E+03    -15.8602E-03     31.5086E-03    -15.6484E-03     27.8980E-03    -15.8025E-03     31.1949E-03    -15.5430E-03     27.9039E-03
            1444     6.20285E-03     52.5415E-03    -8.04041E+06    -61.7822E+06    -1.48592E+06     543.927E+03    -15.7757E-03     31.4060E-03    -15.6304E-03     23.9319E-03    -15.7254E-03     31.1122E-03    -15.5365E-03     23.9347E-03
            1445     5.31680E-03     52.5209E-03    -8.90496E+06    -63.8230E+06    -2.09899E+06     85.0943E+03    -15.7187E-03     31.3446E-03    -15.6260E-03     20.1084E-03    -15.6685E-03     31.0423E-03    -15.5310E-03     20.1061E-03
            1446     4.43065E-03     52.5040E-03    -9.68670E+06    -63.8552E+06    -3.08965E+06    -135.149E+03    -15.6697E-03     31.2866E-03    -15.6170E-03     16.4661E-03    -15.6216E-03     30.9864E-03    -15.5258E-03     16.4617E-03
            1447     3.54458E-03     52.4902E-03    -10.6353E+06    -60.9977E+06    -5.81516E+06    -141.626E+03    -15.6178E-03     31.2149E-03    -15.5971E-03     13.0084E-03    -15.5744E-03     30.9341E-03    -15.5223E-03     13.0046E-03
            1448     2.65839E-03     52.4797E-03    -11.6204E+06    -63.4022E+06    -8.44659E+06    -129.510E+03    -15.5922E-03     31.1801E-03    -15.5879E-03     9.68204E-03    -15.5463E-03     30.8924E-03    -15.5213E-03     9.67893E-03
            1449     1.77228E-03     52.4721E-03    -12.4049E+06    -66.0042E+06    -10.7083E+06    -79.0031E+03    -15.5851E-03     31.1655E-03    -15.5804E-03     6.45672E-03    -15.5360E-03     30.8691E-03    -15.5202E-03     6.45475E-03
            1450     886.145E-06     52.4677E-03    -12.9475E+06    -67.3917E+06    -12.5986E+06    -28.8349E+03    -15.5656E-03     31.1466E-03    -15.5810E-03     3.44926E-03    -15.5144E-03     30.8468E-03    -15.5275E-03     3.44839E-03
            1451     16.8357E-03     52.3026E-03    -3.98338E+06     151.178E+06     47.0905E+06     713.517E+03    -25.3851E-03     40.9785E-03    -15.5934E-03     239.063E-03    -31.1772E-03     47.1566E-03    -15.5714E-03     243.351E-03
            1452     15.9486E-03     52.1053E-03    -5.13949E+06     84.4586E+06    -9.83570E+06     358.977E+03    -21.6358E-03     37.0407E-03    -15.4049E-03     166.346E-03    -23.5008E-03     39.2159E-03    -15.5691E-03     166.892E-03
            1453     15.0654E-03     51.9901E-03    -4.24202E+06     21.6492E+06    -11.7376E+06     227.707E+03    -17.7349E-03     33.2191E-03    -15.4841E-03     97.4984E-03    -18.0372E-03     33.6171E-03    -15.5681E-03     97.4780E-03
            1454     14.1765E-03     51.9246E-03    -3.85817E+06    -19.0198E+06    -10.9702E+06     330.187E+03    -16.3524E-03     31.9114E-03    -15.5589E-03     64.0623E-03    -16.4063E-03     31.9158E-03    -15.5806E-03     64.0255E-03
            1455     13.2913E-03     51.8711E-03    -3.85122E+06    -35.7896E+06    -9.37555E+06     115.583E+03    -16.5578E-03     32.1543E-03    -15.5965E-03     59.0317E-03    -16.5574E-03     32.0403E-03    -15.5859E-03     58.9962E-03
            1456     12.4050E-03     51.8149E-03    -3.79743E+06    -37.5298E+06    -211.202E+03     148.831E+03    -16.5277E-03     32.1660E-03    -15.6383E-03     56.4364E-03    -16.5211E-03     32.0133E-03    -15.5794E-03     56.4092E-03
            1457     11.5194E-03     51.7663E-03    -3.69861E+06    -43.7577E+06    -1.13793E+06     304.425E+03    -16.3291E-03     31.9639E-03    -15.6347E-03     49.4283E-03    -16.2996E-03     31.7691E-03    -15.5716E-03     49.4104E-03
            1458     10.6331E-03     51.7228E-03    -3.38014E+06    -55.6558E+06    -2.99901E+06     87.6649E+03    -16.2438E-03     31.8781E-03    -15.6343E-03     44.9325E-03    -16.1864E-03     31.6198E-03    -15.5637E-03     44.9172E-03
            1459     9.74730E-03     51.6827E-03    -3.32380E+06    -58.1668E+06     1.00295E+06    -252.639E+03    -16.1279E-03     31.7776E-03    -15.6497E-03     40.5996E-03    -16.0685E-03     31.4971E-03    -15.5555E-03     40.5840E-03
            1460     8.86106E-03     51.6471E-03    -4.14624E+06    -57.3953E+06     1.79562E+06     466.747E+03    -16.0192E-03     31.6653E-03    -15.6461E-03     36.2885E-03    -15.9638E-03     31.3862E-03    -15.5478E-03     36.2853E-03
            1461     7.97516E-03     51.6152E-03    -5.35904E+06    -63.4546E+06     2.47427E+06     1.44725E+06    -15.9458E-03     31.5974E-03    -15.6517E-03     31.9817E-03    -15.8871E-03     31.2873E-03    -15.5395E-03     31.9934E-03
            1462     7.08900E-03     51.5875E-03    -6.68222E+06    -64.4086E+06     1.17393E+06     1.23248E+06    -15.8582E-03     31.4977E-03    -15.6395E-03     27.8418E-03    -15.8018E-03     31.1856E-03    -15.5306E-03     27.8523E-03
            1463     6.20299E-03     51.5633E-03    -7.66592E+06    -60.9806E+06    -730.391E+03     456.843E+03    -15.7668E-03     31.3856E-03    -15.6188E-03     23.8922E-03    -15.7169E-03     31.0941E-03    -15.5229E-03     23.8939E-03
            1464     5.31683E-03     51.5429E-03    -8.57640E+06    -63.3825E+06    -1.79082E+06    -177.388E+03    -15.7069E-03     31.3191E-03    -15.6122E-03     20.0763E-03    -15.6561E-03     31.0180E-03    -15.5168E-03     20.0706E-03
            1465     4.43076E-03     51.5258E-03    -9.71669E+06    -63.8989E+06    -3.32570E+06    -421.921E+03    -15.6513E-03     31.2532E-03    -15.6019E-03     16.4441E-03    -15.6029E-03     30.9532E-03    -15.5118E-03     16.4360E-03
            1466     3.54458E-03     51.5123E-03    -10.8307E+06    -61.1782E+06    -6.01886E+06    -340.817E+03    -15.6033E-03     31.1865E-03    -15.5832E-03     12.9912E-03    -15.5604E-03     30.9054E-03    -15.5089E-03     12.9848E-03
            1467     2.65847E-03     51.5016E-03    -11.8533E+06    -63.5184E+06    -8.71075E+06    -189.413E+03    -15.5808E-03     31.1539E-03    -15.5731E-03     9.66098E-03    -15.5355E-03     30.8663E-03    -15.5074E-03     9.65710E-03
            1468     1.77230E-03     51.4943E-03    -12.8630E+06    -66.1357E+06    -11.2316E+06    -136.888E+03    -15.5654E-03     31.1308E-03    -15.5654E-03     6.45487E-03    -15.5176E-03     30.8351E-03    -15.5070E-03     6.45216E-03
            1469     886.163E-06     51.4896E-03    -13.5095E+06    -67.5212E+06    -13.0337E+06    -44.9692E+03    -15.5522E-03     31.1197E-03    -15.5675E-03     3.44872E-03    -15.5029E-03     30.8207E-03    -15.5152E-03     3.44764E-03
            1470     16.8357E-03     51.3245E-03    -3.83376E+06     150.594E+06     46.4687E+06     765.421E+03    -25.5751E-03     41.1582E-03    -15.5831E-03     239.470E-03    -31.3812E-03     47.3505E-03    -15.5636E-03     243.748E-03
            1471     15.9512E-03     51.1262E-03    -4.06298E+06     84.3573E+06    -9.69365E+06     668.603E+03    -21.2652E-03     36.6678E-03    -15.4026E-03     166.004E-03    -23.1051E-03     38.8208E-03    -15.5675E-03     166.549E-03
            1472     15.0619E-03     51.0129E-03    -3.97364E+06     22.0695E+06    -11.0089E+06     324.644E+03    -17.6932E-03     33.1898E-03    -15.4966E-03     97.6605E-03    -17.9964E-03     33.5892E-03    -15.5779E-03     97.6434E-03
            1473     14.1780E-03     50.9458E-03    -4.69713E+06    -18.1432E+06    -10.8879E+06     147.882E+03    -16.6771E-03     32.2376E-03    -15.5605E-03     64.0114E-03    -16.7375E-03     32.2485E-03    -15.5818E-03     63.9708E-03
            1474     13.2911E-03     50.8934E-03    -3.82531E+06    -35.5631E+06    -9.34880E+06    -49.8011E+03    -16.5172E-03     32.1053E-03    -15.5881E-03     58.8988E-03    -16.5165E-03     31.9919E-03    -15.5777E-03     58.8614E-03
            1475     12.4054E-03     50.8359E-03    -3.52686E+06    -37.7701E+06    -135.252E+03     19.7429E+03    -16.5046E-03     32.1366E-03    -15.6320E-03     56.3219E-03    -16.4963E-03     31.9821E-03    -15.5727E-03     56.2932E-03
            1476     11.5192E-03     50.7885E-03    -3.71218E+06    -43.6509E+06    -1.08509E+06    -30.9486E+03    -16.3457E-03     31.9734E-03    -15.6277E-03     49.3111E-03    -16.3164E-03     31.7791E-03    -15.5644E-03     49.2889E-03
            1477     10.6334E-03     50.7442E-03    -3.82452E+06    -55.3415E+06    -2.86659E+06    -150.536E+03    -16.2549E-03     31.8808E-03    -15.6259E-03     44.8778E-03    -16.2004E-03     31.6246E-03    -15.5545E-03     44.8594E-03
            1478     9.74721E-03     50.7048E-03    -4.37168E+06    -58.2800E+06     927.917E+03    -48.4503E+03    -16.1330E-03     31.7727E-03    -15.6397E-03     40.5028E-03    -16.0786E-03     31.4932E-03    -15.5442E-03     40.4899E-03
            1479     8.86133E-03     50.6688E-03    -5.00605E+06    -58.7773E+06     1.20360E+06     612.099E+03    -16.0157E-03     31.6491E-03    -15.6334E-03     36.2245E-03    -15.9617E-03     31.3651E-03    -15.5349E-03     36.2233E-03
            1480     7.97514E-03     50.6372E-03    -5.43196E+06    -63.7786E+06     2.40699E+06     1.44117E+06    -15.9373E-03     31.5753E-03    -15.6380E-03     31.9241E-03    -15.8784E-03     31.2637E-03    -15.5256E-03     31.9357E-03
            1481     7.08919E-03     50.6092E-03    -5.92773E+06    -63.1724E+06     2.43017E+06     1.17044E+06    -15.8486E-03     31.4769E-03    -15.6283E-03     27.7789E-03    -15.7921E-03     31.1680E-03    -15.5159E-03     27.7886E-03
            1482     6.20303E-03     50.5854E-03    -6.70479E+06    -60.2030E+06     339.846E+03     291.045E+03    -15.7561E-03     31.3625E-03    -15.6064E-03     23.8416E-03    -15.7041E-03     31.0720E-03    -15.5077E-03     23.8412E-03
            1483     5.31697E-03     50.5647E-03    -7.80541E+06    -63.0739E+06    -1.32898E+06    -53.4207E+03    -15.6910E-03     31.2887E-03    -15.5977E-03     20.0354E-03    -15.6375E-03     30.9874E-03    -15.5016E-03     20.0314E-03
            1484     4.43078E-03     50.5480E-03    -9.31267E+06    -63.8737E+06    -3.33904E+06    -191.922E+03    -15.6359E-03     31.2225E-03    -15.5866E-03     16.4087E-03    -15.5855E-03     30.9220E-03    -15.4972E-03     16.4036E-03
            1485     3.54466E-03     50.5342E-03    -10.8644E+06    -61.3964E+06    -6.39986E+06    -260.274E+03    -15.5892E-03     31.1564E-03    -15.5672E-03     12.9631E-03    -15.5455E-03     30.8748E-03    -15.4945E-03     12.9578E-03
            1486     2.65849E-03     50.5238E-03    -12.1881E+06     -63.768E+06    -9.10303E+06    -111.887E+03    -15.5640E-03     31.1219E-03    -15.5580E-03     9.63468E-03    -15.5194E-03     30.8341E-03    -15.4934E-03     9.63180E-03
            1487     1.77232E-03     50.5162E-03    -13.1980E+06    -66.1758E+06    -11.6949E+06    -19.2796E+03    -15.5449E-03     31.0967E-03    -15.5519E-03     6.44175E-03    -15.4980E-03     30.8020E-03    -15.4952E-03     6.44056E-03
            1488     886.129E-06     50.5118E-03    -13.8697E+06    -67.6162E+06    -13.5357E+06    -65.6628E+03    -15.5408E-03     31.0971E-03    -15.5564E-03     3.44920E-03    -15.4924E-03     30.7989E-03    -15.5059E-03     3.44786E-03
            1489     16.8360E-03     50.3415E-03    -3.18627E+06     150.752E+06     46.5325E+06     565.822E+03    -25.1928E-03     40.7776E-03    -15.5848E-03     239.442E-03    -31.0049E-03     46.9787E-03    -15.5661E-03     243.712E-03
            1490     15.9487E-03     50.1514E-03    -5.75993E+06     84.1507E+06    -11.1631E+06     984.869E+03    -21.1199E-03     36.5351E-03    -15.4152E-03     166.367E-03    -22.9622E-03     38.6881E-03    -15.5847E-03     166.933E-03
            1491     15.0642E-03     50.0329E-03    -6.08578E+06     22.2573E+06    -12.2439E+06     444.385E+03    -18.2434E-03     33.7427E-03    -15.4992E-03     97.6214E-03    -18.5584E-03     34.1505E-03    -15.5839E-03     97.5998E-03
            1492     14.1771E-03     49.9680E-03    -4.06317E+06    -17.6496E+06    -10.5100E+06    -209.144E+03    -16.7039E-03     32.2531E-03    -15.5493E-03     63.3508E-03    -16.7607E-03     32.2634E-03    -15.5703E-03     63.3055E-03
            1493     13.2917E-03     49.9149E-03    -3.73067E+06    -36.0966E+06    -9.46678E+06    -156.834E+03    -16.5106E-03     32.0854E-03    -15.5748E-03     59.1531E-03    -16.5087E-03     31.9696E-03    -15.5644E-03     59.1144E-03
            1494     12.4053E-03     49.8581E-03    -3.84132E+06    -37.7466E+06    -239.055E+03     7.68711E+03    -16.5031E-03     32.1211E-03    -15.6180E-03     56.2549E-03    -16.4961E-03     31.9672E-03    -15.5589E-03     56.2261E-03
            1495     11.5195E-03     49.8098E-03    -4.10426E+06    -43.4774E+06    -1.10331E+06    -15.7789E+03    -16.3182E-03     31.9320E-03    -15.6139E-03     49.1651E-03    -16.2909E-03     31.7391E-03    -15.5504E-03     49.1432E-03
            1496     10.6333E-03     49.7663E-03    -4.53990E+06    -55.4428E+06    -2.95604E+06     17.6327E+03    -16.2582E-03     31.8700E-03    -15.6119E-03     44.7466E-03    -16.2070E-03     31.6145E-03    -15.5397E-03     44.7304E-03
            1497     9.74753E-03     49.7263E-03    -5.08668E+06    -58.4984E+06     844.615E+03     235.186E+03    -16.1171E-03     31.7417E-03    -15.6246E-03     40.3947E-03    -16.0658E-03     31.4623E-03    -15.5282E-03     40.3855E-03
            1498     8.86135E-03     49.6909E-03    -5.98774E+06    -59.7307E+06     651.332E+03     670.797E+03    -16.0041E-03     31.6207E-03    -15.6167E-03     36.1536E-03    -15.9527E-03     31.3342E-03    -15.5181E-03     36.1532E-03
            1499     7.97540E-03     49.6589E-03    -6.56852E+06    -63.5938E+06     1.04692E+06     736.861E+03    -15.9115E-03     31.5271E-03    -15.6156E-03     31.8854E-03    -15.8566E-03     31.2200E-03    -15.5086E-03     31.8879E-03
            1500     7.08923E-03     49.6313E-03    -6.48011E+06    -62.2339E+06     1.58303E+06     179.422E+03    -15.8233E-03     31.4304E-03    -15.6071E-03     27.7509E-03    -15.7697E-03     31.1282E-03    -15.4995E-03     27.7479E-03
            1501     6.20320E-03     49.6071E-03    -6.69173E+06    -60.1063E+06     184.769E+03     158.505E+03    -15.7374E-03     31.3270E-03    -15.5896E-03     23.7958E-03    -15.6853E-03     31.0372E-03    -15.4918E-03     23.7937E-03
            1502     5.31699E-03     49.5869E-03    -7.80983E+06    -62.8767E+06    -1.63591E+06     290.865E+03    -15.6737E-03     31.2540E-03    -15.5803E-03     19.9972E-03    -15.6200E-03     30.9541E-03    -15.4860E-03     19.9976E-03
            1503     4.43088E-03     49.5698E-03    -9.17440E+06    -63.7845E+06    -3.42360E+06     188.370E+03    -15.6244E-03     31.1944E-03    -15.5699E-03     16.3726E-03    -15.5734E-03     30.8942E-03    -15.4812E-03     16.3724E-03
            1504     3.54471E-03     49.5564E-03    -10.6010E+06    -61.3968E+06    -6.49194E+06     169.342E+03    -15.5723E-03     31.1226E-03    -15.5503E-03     12.9317E-03    -15.5271E-03     30.8407E-03    -15.4784E-03     12.9319E-03
            1505     2.65853E-03     49.5457E-03    -11.9003E+06    -63.8802E+06    -9.10444E+06     72.8073E+03    -15.5469E-03     31.0894E-03    -15.5425E-03     9.60499E-03    -15.5007E-03     30.8006E-03    -15.4781E-03     9.60451E-03
            1506     1.77235E-03     49.5384E-03    -12.8731E+06    -66.1543E+06    -11.4421E+06     103.729E+03    -15.5384E-03     31.0740E-03    -15.5356E-03     6.41874E-03    -15.4903E-03     30.7785E-03    -15.4782E-03     6.41915E-03
            1507     886.191E-06     49.5337E-03    -13.4166E+06    -67.5552E+06    -13.2223E+06     63.7383E+03    -15.5416E-03     31.0609E-03    -15.5193E-03     3.42932E-03    -15.4915E-03     30.7618E-03    -15.4680E-03     3.42965E-03
            1508     16.8366E-03     49.3690E-03    -5.01423E+06     150.088E+06     46.8391E+06     700.731E+03    -25.2649E-03     40.9178E-03    -15.6530E-03     242.183E-03    -31.1626E-03     47.1948E-03    -15.6291E-03     246.559E-03
            1509     15.9483E-03     49.1705E-03     -6.6133E+06     85.2391E+06    -9.74802E+06     602.466E+03    -22.9439E-03     38.3870E-03    -15.4431E-03     166.293E-03    -24.8294E-03     40.5799E-03    -15.6059E-03     166.802E-03
            1510     15.0633E-03     49.0540E-03    -4.45860E+06     22.8243E+06    -11.3807E+06    -169.024E+03    -18.2080E-03     33.6781E-03    -15.4701E-03     95.1461E-03    -18.5031E-03     34.0714E-03    -15.5536E-03     95.1119E-03
            1511     14.1784E-03     48.9904E-03    -3.67728E+06    -18.6911E+06    -10.7108E+06    -292.011E+03    -16.1517E-03     31.6843E-03    -15.5326E-03     63.8411E-03    -16.2036E-03     31.6878E-03    -15.5537E-03     63.7970E-03
            1512     13.2912E-03     48.9365E-03    -3.64592E+06    -36.0809E+06    -9.64396E+06     17.5674E+03    -16.7438E-03     32.3105E-03    -15.5667E-03     59.4218E-03    -16.7422E-03     32.1958E-03    -15.5573E-03     59.3844E-03
            1513     12.4059E-03     48.8796E-03    -3.74302E+06    -37.7074E+06    -185.498E+03     189.342E+03    -16.5793E-03     32.1789E-03    -15.5996E-03     55.9787E-03    -16.5719E-03     32.0249E-03    -15.5404E-03     55.9521E-03
            1514     11.5196E-03     48.8320E-03    -4.43781E+06    -43.5567E+06    -1.34991E+06     290.327E+03    -16.2865E-03     31.8778E-03    -15.5913E-03     49.1115E-03    -16.2604E-03     31.6853E-03    -15.5285E-03     49.0937E-03
            1515     10.6338E-03     48.7877E-03    -4.88414E+06    -55.4752E+06    -3.16524E+06     308.054E+03    -16.2131E-03     31.8037E-03    -15.5906E-03     44.6316E-03    -16.1632E-03     31.5487E-03    -15.5189E-03     44.6192E-03
            1516     9.74759E-03     48.7486E-03    -5.56176E+06    -58.7932E+06     703.228E+03     460.975E+03    -16.0878E-03     31.6932E-03    -15.6054E-03     40.3352E-03    -16.0382E-03     31.4131E-03    -15.5085E-03     40.3289E-03
            1517     8.86163E-03     48.7125E-03    -6.15439E+06    -60.0906E+06     698.497E+03     709.061E+03    -15.9803E-03     31.5788E-03    -15.5985E-03     36.0925E-03    -15.9294E-03     31.2907E-03    -15.4989E-03     36.0925E-03
            1518     7.97546E-03     48.6811E-03    -6.47369E+06    -62.4334E+06     270.089E+03     45.1961E+03    -15.8817E-03     31.4731E-03    -15.5914E-03     31.8566E-03    -15.8268E-03     31.1728E-03    -15.4902E-03     31.8503E-03
            1519     7.08941E-03     48.6530E-03    -6.87936E+06    -62.0423E+06    -208.489E+03    -695.502E+03    -15.7949E-03     31.3762E-03    -15.5813E-03     27.7377E-03    -15.7410E-03     31.0782E-03    -15.4824E-03     27.7234E-03
            1520     6.20323E-03     48.6293E-03    -7.49370E+06    -60.9883E+06    -794.124E+03    -144.392E+03    -15.7210E-03     31.2915E-03    -15.5705E-03     23.7474E-03    -15.6701E-03     30.9999E-03    -15.4752E-03     23.7414E-03
            1521     5.31712E-03     48.6088E-03    -8.24219E+06    -62.6998E+06    -1.95638E+06     435.194E+03    -15.6594E-03     31.2213E-03    -15.5619E-03     19.9468E-03    -15.6077E-03     30.9234E-03    -15.4688E-03     19.9491E-03
            1522     4.43095E-03     48.5921E-03    -9.44187E+06    -63.7506E+06    -3.87695E+06     471.136E+03    -15.6048E-03     31.1553E-03    -15.5505E-03     16.3327E-03    -15.5545E-03     30.8564E-03    -15.4637E-03     16.3363E-03
            1523     3.54476E-03     48.5783E-03    -10.6609E+06    -61.2035E+06    -6.70209E+06     428.292E+03    -15.5562E-03     31.0876E-03    -15.5314E-03     12.8935E-03    -15.5114E-03     30.8071E-03    -15.4607E-03     12.8971E-03
            1524     2.65859E-03     48.5680E-03    -11.7259E+06    -63.6870E+06    -9.12703E+06     326.083E+03    -15.5374E-03     31.0597E-03    -15.5223E-03     9.57660E-03    -15.4906E-03     30.7717E-03    -15.4586E-03     9.57939E-03
            1525     1.77238E-03     48.5604E-03    -12.6694E+06    -66.0698E+06    -11.2595E+06     192.570E+03    -15.5228E-03     31.0361E-03    -15.5133E-03     6.38998E-03    -15.4741E-03     30.7405E-03    -15.4554E-03     6.39153E-03
            1526     886.203E-06     48.5560E-03    -13.2767E+06    -67.3702E+06    -12.8856E+06     124.212E+03    -15.5280E-03     31.0131E-03    -15.4852E-03     3.44142E-03    -15.4780E-03     30.7143E-03    -15.4327E-03     3.44252E-03
            1527     16.8273E-03     48.3882E-03    -5.40317E+06     150.059E+06     48.4773E+06     458.969E+03    -26.3284E-03     41.9349E-03    -15.6065E-03     238.864E-03    -32.1724E-03     48.1518E-03    -15.5739E-03     243.085E-03
            1528     15.9505E-03     48.1844E-03    -3.93925E+06     86.6462E+06    -5.80752E+06    -1.63130E+06    -21.6992E-03     37.0843E-03    -15.3851E-03     161.744E-03    -23.5267E-03     39.2221E-03    -15.5341E-03     162.205E-03
            1529     15.0672E-03     48.0800E-03    -2.42074E+06     22.3891E+06    -11.0574E+06    -113.242E+03    -16.9263E-03     32.3830E-03    -15.4567E-03     95.7842E-03    -17.2005E-03     32.7602E-03    -15.5409E-03     95.7628E-03
            1530     14.1762E-03     48.0123E-03    -3.76243E+06    -18.6789E+06    -11.4580E+06     815.450E+03    -16.8025E-03     32.3379E-03    -15.5354E-03     65.5481E-03    -16.8584E-03     32.3472E-03    -15.5601E-03     65.5153E-03
            1531     13.2921E-03     47.9572E-03    -3.75794E+06    -35.7436E+06    -9.60521E+06     417.973E+03    -16.8876E-03     32.4365E-03    -15.5488E-03     58.7551E-03    -16.8867E-03     32.3231E-03    -15.5396E-03     58.7225E-03
            1532     12.4059E-03     47.9019E-03    -4.23546E+06    -38.0325E+06    -861.374E+03     533.194E+03    -16.4945E-03     32.0701E-03    -15.5756E-03     55.7860E-03    -16.4878E-03     31.9159E-03    -15.5186E-03     55.7641E-03
            1533     11.5201E-03     47.8533E-03    -4.71585E+06    -43.4338E+06    -1.60197E+06     592.238E+03    -16.2770E-03     31.8471E-03    -15.5701E-03     49.1616E-03    -16.2522E-03     31.6559E-03    -15.5083E-03     49.1477E-03
            1534     10.6338E-03     47.8101E-03    -5.24871E+06    -55.5106E+06    -3.55995E+06     620.827E+03    -16.1730E-03     31.7425E-03    -15.5694E-03     44.6803E-03    -16.1242E-03     31.4883E-03    -15.4991E-03     44.6722E-03
            1535     9.74791E-03     47.7700E-03    -5.84873E+06    -59.0094E+06     566.475E+03     763.857E+03    -16.0686E-03     31.6551E-03    -15.5865E-03     40.3385E-03    -16.0199E-03     31.3745E-03    -15.4896E-03     40.3363E-03
            1536     8.86174E-03     47.7348E-03    -6.34632E+06    -59.3551E+06     163.446E+03     185.071E+03    -15.9566E-03     31.5328E-03    -15.5763E-03     36.0735E-03    -15.9068E-03     31.2494E-03    -15.4802E-03     36.0669E-03
            1537     7.97568E-03     47.7028E-03    -6.26774E+06    -61.4906E+06    -277.159E+03    -695.140E+03    -15.8630E-03     31.4315E-03    -15.5684E-03     31.8349E-03    -15.8077E-03     31.1364E-03    -15.4716E-03     31.8191E-03
            1538     7.08949E-03     47.6753E-03    -6.65947E+06    -62.4308E+06    -849.587E+03    -659.159E+03    -15.7823E-03     31.3417E-03    -15.5594E-03     27.6868E-03    -15.7257E-03     31.0424E-03    -15.4635E-03     27.6730E-03
            1539     6.20339E-03     47.6511E-03    -7.70516E+06    -61.8735E+06    -1.87470E+06    -186.977E+03    -15.7062E-03     31.2536E-03    -15.5473E-03     23.6950E-03    -15.6536E-03     30.9593E-03    -15.4558E-03     23.6885E-03
            1540     5.31722E-03     47.6310E-03    -8.81709E+06    -62.9890E+06    -2.63042E+06     373.522E+03    -15.6436E-03     31.1832E-03    -15.5396E-03     19.8902E-03    -15.5933E-03     30.8856E-03    -15.4486E-03     19.8917E-03
            1541     4.43103E-03     47.6140E-03    -9.83471E+06    -63.5343E+06    -4.22429E+06     581.204E+03    -15.5883E-03     31.1159E-03    -15.5276E-03     16.2772E-03    -15.5398E-03     30.8191E-03    -15.4423E-03     16.2822E-03
            1542     3.54486E-03     47.6006E-03    -10.8833E+06    -61.0445E+06    -6.95001E+06     502.262E+03    -15.5411E-03     31.0480E-03    -15.5069E-03     12.8402E-03    -15.4972E-03     30.7690E-03    -15.4374E-03     12.8447E-03
            1543     2.65862E-03     47.5900E-03    -11.8276E+06    -63.3306E+06    -9.12407E+06     389.312E+03    -15.5193E-03     31.0152E-03    -15.4959E-03     9.53431E-03    -15.4736E-03     30.7291E-03    -15.4325E-03     9.53792E-03
            1544     1.77247E-03     47.5827E-03    -12.5633E+06    -65.8872E+06    -11.1567E+06     220.872E+03    -15.4950E-03     30.9808E-03    -15.4858E-03     6.34521E-03    -15.4462E-03     30.6859E-03    -15.4278E-03     6.34714E-03
            1545     886.199E-06     47.5781E-03    -13.0282E+06    -67.1120E+06    -12.7879E+06     151.858E+03    -15.4775E-03     30.9585E-03    -15.4810E-03     3.44497E-03    -15.4268E-03     30.6605E-03    -15.4287E-03     3.44643E-03
            1546     16.8488E-03     47.4042E-03    -700.721E+03     151.690E+06     49.5807E+06    -500.421E+03    -26.6368E-03     42.1209E-03    -15.4841E-03     241.378E-03    -32.5671E-03     48.4435E-03    -15.4551E-03     245.483E-03
            1547     15.9553E-03     47.2156E-03    -697.662E+03     85.1815E+06    -7.82809E+06     560.730E+03    -18.9236E-03     34.2527E-03    -15.3292E-03     163.965E-03    -20.6899E-03     36.3413E-03    -15.4908E-03     164.546E-03
            1548     15.0577E-03     47.1011E-03    -4.95235E+06     21.1181E+06    -12.4400E+06     1.51157E+06    -17.3779E-03     32.8606E-03    -15.4827E-03     98.4771E-03    -17.6740E-03     33.2501E-03    -15.5683E-03     98.4780E-03
            1549     14.1790E-03     47.0314E-03    -4.75427E+06    -16.7671E+06    -11.0191E+06     1.07624E+06    -17.6492E-03     33.1767E-03    -15.5275E-03     64.0596E-03    -17.7148E-03     33.1977E-03    -15.5514E-03     64.0266E-03
            1550     13.2924E-03     46.9802E-03    -4.65177E+06    -35.9559E+06    -9.58536E+06     689.291E+03    -16.5915E-03     32.1130E-03    -15.5215E-03     58.2509E-03    -16.5934E-03     31.9985E-03    -15.5105E-03     58.2231E-03
            1551     12.4063E-03     46.9229E-03    -4.51154E+06    -38.0144E+06    -573.869E+03     590.450E+03    -16.3394E-03     31.9013E-03    -15.5619E-03     56.0523E-03    -16.3345E-03     31.7471E-03    -15.5031E-03     56.0316E-03
            1552     11.5200E-03     46.8758E-03    -4.64848E+06    -43.5437E+06    -1.51911E+06     684.062E+03    -16.2780E-03     31.8378E-03    -15.5598E-03     49.2347E-03    -16.2526E-03     31.6458E-03    -15.4976E-03     49.2221E-03
            1553     10.6341E-03     46.8315E-03    -4.69958E+06    -55.3723E+06    -3.34388E+06     769.569E+03    -16.2094E-03     31.7659E-03    -15.5565E-03     44.7161E-03    -16.1584E-03     31.5113E-03    -15.4862E-03     44.7099E-03
            1554     9.74795E-03     46.7924E-03    -4.76043E+06    -59.0679E+06     539.524E+03     712.737E+03    -16.0737E-03     31.6430E-03    -15.5693E-03     40.3363E-03    -16.0194E-03     31.3605E-03    -15.4740E-03     40.3335E-03
            1555     8.86192E-03     46.7564E-03    -5.25911E+06    -57.8896E+06     651.533E+03     154.622E+03    -15.9615E-03     31.5192E-03    -15.5577E-03     36.0380E-03    -15.9091E-03     31.2408E-03    -15.4629E-03     36.0310E-03
            1556     7.97577E-03     46.7251E-03    -6.49398E+06    -61.0900E+06    -447.368E+03    -768.788E+03    -15.8654E-03     31.4131E-03    -15.5477E-03     31.7741E-03    -15.8115E-03     31.1205E-03    -15.4519E-03     31.7573E-03
            1557     7.08969E-03     46.6971E-03    -7.56008E+06    -63.3962E+06    -2.04546E+06    -501.983E+03    -15.7723E-03     31.3065E-03    -15.5342E-03     27.6223E-03    -15.7171E-03     31.0053E-03    -15.4416E-03     27.6106E-03
            1558     6.20352E-03     46.6735E-03    -8.55882E+06    -62.2535E+06    -3.35914E+06     213.342E+03    -15.6903E-03     31.2085E-03    -15.5182E-03     23.6347E-03    -15.6392E-03     30.9157E-03    -15.4323E-03     23.6333E-03
            1559     5.31732E-03     46.6529E-03      -9.506E+06    -63.1398E+06    -3.53945E+06     193.385E+03    -15.6315E-03     31.1422E-03    -15.5107E-03     19.8209E-03    -15.5832E-03     30.8463E-03    -15.4231E-03     19.8201E-03
            1560     4.43119E-03     46.6363E-03    -10.2749E+06    -63.6080E+06    -4.32002E+06     327.275E+03    -15.5769E-03     31.0758E-03    -15.4989E-03     16.2004E-03    -15.5303E-03     30.7794E-03    -15.4134E-03     16.2021E-03
            1561     3.54493E-03     46.6226E-03    -11.1040E+06    -60.7412E+06    -6.83785E+06     413.290E+03    -15.5181E-03     30.9931E-03    -15.4750E-03     12.7790E-03    -15.4759E-03     30.7157E-03    -15.4050E-03     12.7824E-03
            1562     2.65877E-03     46.6123E-03    -11.8657E+06    -63.0895E+06    -9.08241E+06     216.982E+03    -15.4812E-03     30.9439E-03    -15.4627E-03     9.48408E-03    -15.4360E-03     30.6590E-03    -15.3994E-03     9.48547E-03
            1563     1.77246E-03     46.6048E-03    -12.5431E+06    -65.6778E+06    -11.1688E+06     174.301E+03    -15.4606E-03     30.9143E-03    -15.4536E-03     6.31652E-03    -15.4120E-03     30.6203E-03    -15.3961E-03     6.31784E-03
            1564     886.286E-06     46.6004E-03    -12.9754E+06    -66.8797E+06    -12.6501E+06     130.982E+03    -15.4351E-03     30.8961E-03    -15.4610E-03     3.42278E-03    -15.3847E-03     30.5990E-03    -15.4084E-03     3.42397E-03
            1565     16.8304E-03     46.4223E-03    -4.46301E+06     147.173E+06     41.1858E+06    -1.41649E+06    -24.5449E-03     40.0952E-03    -15.5503E-03     242.275E-03    -30.4497E-03     46.3872E-03    -15.5513E-03     246.522E-03
            1566     15.9441E-03     46.2430E-03    -6.75543E+06     84.3813E+06    -12.8293E+06     2.37689E+06    -21.2323E-03     36.6451E-03    -15.4128E-03     165.711E-03    -23.0615E-03     38.7869E-03    -15.5895E-03     166.311E-03
            1567     15.0680E-03     46.1185E-03    -6.69103E+06     24.3732E+06    -11.7625E+06     2.07628E+06    -19.0906E-03     34.5643E-03    -15.4737E-03     98.3415E-03    -19.4175E-03     34.9881E-03    -15.5581E-03     98.3352E-03
            1568     14.1782E-03     46.0542E-03    -6.16922E+06    -17.5815E+06    -12.0151E+06     382.226E+03    -16.6802E-03     32.1734E-03    -15.4932E-03     63.5665E-03    -16.7452E-03     32.1889E-03    -15.5189E-03     63.5294E-03
            1569     13.2924E-03     46.0014E-03    -4.66701E+06    -35.4729E+06    -9.73406E+06     606.405E+03    -16.4893E-03     32.0093E-03    -15.5200E-03     58.8099E-03    -16.4916E-03     31.8974E-03    -15.5105E-03     58.7816E-03
            1570     12.4061E-03     45.9457E-03    -4.40040E+06    -38.1730E+06    -801.465E+03     404.139E+03    -16.4710E-03     32.0314E-03    -15.5604E-03     56.3476E-03    -16.4651E-03     31.8767E-03    -15.5027E-03     56.3242E-03
            1571     11.5201E-03     45.8969E-03    -4.42663E+06    -43.7046E+06    -2.27035E+06     679.182E+03    -16.3237E-03     31.8730E-03    -15.5493E-03     49.2243E-03    -16.2958E-03     31.6809E-03    -15.4909E-03     49.2116E-03
            1572     10.6341E-03     45.8539E-03    -4.41496E+06    -55.1082E+06    -3.46234E+06     604.022E+03    -16.2506E-03     31.7949E-03    -15.5443E-03     44.6154E-03    -16.1983E-03     31.5413E-03    -15.4753E-03     44.6069E-03
            1573     9.74815E-03     45.8139E-03    -4.41807E+06    -58.8744E+06     179.755E+03     328.123E+03    -16.1066E-03     31.6581E-03    -15.5515E-03     40.2570E-03    -16.0503E-03     31.3766E-03    -15.4588E-03     40.2492E-03
            1574     8.86205E-03     45.7787E-03    -4.49736E+06    -57.2175E+06     429.695E+03     173.531E+03    -15.9770E-03     31.5125E-03    -15.5355E-03     35.9647E-03    -15.9215E-03     31.2366E-03    -15.4438E-03     35.9580E-03
            1575     7.97600E-03     45.7468E-03    -5.31833E+06    -60.8782E+06     342.970E+03     267.138E+03    -15.8797E-03     31.4067E-03    -15.5270E-03     31.6652E-03    -15.8213E-03     31.1124E-03    -15.4293E-03     31.6618E-03
            1576     7.08985E-03     45.7195E-03    -7.48297E+06    -64.2186E+06    -1.59623E+06     553.077E+03    -15.7785E-03     31.2895E-03    -15.5110E-03     27.5071E-03    -15.7223E-03     30.9835E-03    -15.4151E-03     27.5090E-03
            1577     6.20368E-03     45.6953E-03    -9.02298E+06    -61.7876E+06    -3.37703E+06     276.332E+03    -15.6842E-03     31.1717E-03    -15.4874E-03     23.5376E-03    -15.6361E-03     30.8820E-03    -15.4017E-03     23.5370E-03
            1578     5.31756E-03     45.6753E-03    -9.60507E+06    -63.0854E+06    -3.50712E+06    -168.511E+03    -15.6173E-03     31.0937E-03    -15.4764E-03     19.7280E-03    -15.5696E-03     30.7981E-03    -15.3885E-03     19.7226E-03
            1579     4.43130E-03     45.6583E-03    -10.3451E+06    -63.8800E+06    -4.17508E+06    -104.987E+03    -15.5522E-03     31.0146E-03    -15.4624E-03     16.1197E-03    -15.5058E-03     30.7168E-03    -15.3756E-03     16.1158E-03
            1580     3.54516E-03     45.6449E-03    -11.0898E+06    -60.6469E+06    -6.62915E+06     42.1440E+03    -15.4787E-03     30.9153E-03    -15.4367E-03     12.7173E-03    -15.4369E-03     30.6381E-03    -15.3658E-03     12.7159E-03
            1581     2.65880E-03     45.6344E-03    -11.9009E+06    -62.9366E+06    -9.04124E+06     103.999E+03    -15.4385E-03     30.8624E-03    -15.4239E-03     9.44049E-03    -15.3938E-03     30.5782E-03    -15.3606E-03     9.44043E-03
            1582     1.77260E-03     45.6272E-03    -12.6390E+06    -65.5758E+06    -10.9843E+06    -4.14373E+03    -15.4228E-03     30.8386E-03    -15.4158E-03     6.28542E-03    -15.3751E-03     30.5450E-03    -15.3573E-03     6.28445E-03
            1583     886.240E-06     45.6226E-03    -13.0373E+06    -66.7779E+06    -12.6176E+06    -40.7788E+03    -15.4119E-03     30.8171E-03    -15.4052E-03     3.37840E-03    -15.3620E-03     30.5205E-03    -15.3525E-03     3.37738E-03
            1584     16.8364E-03     45.4590E-03    -4.93070E+06     147.418E+06     41.0034E+06     1.26975E+06    -24.4318E-03     40.0357E-03    -15.6038E-03     237.081E-03    -30.1288E-03     46.1195E-03    -15.6054E-03     241.350E-03
            1585     15.9505E-03     45.2517E-03    -9.46208E+06     84.6076E+06    -11.7569E+06     198.055E+03    -22.3220E-03     37.7559E-03    -15.4339E-03     164.157E-03    -24.1725E-03     39.9074E-03    -15.6017E-03     164.686E-03
            1586     15.0631E-03     45.1438E-03    -5.70374E+06     24.1621E+06    -13.1088E+06    -140.708E+03    -18.6569E-03     34.1133E-03    -15.4564E-03     97.2636E-03    -18.9750E-03     34.5350E-03    -15.5487E-03     97.2312E-03
            1587     14.1779E-03     45.0753E-03    -3.29847E+06    -17.8723E+06    -12.2301E+06     662.140E+03    -16.4817E-03     31.9786E-03    -15.4969E-03     64.4878E-03    -16.5311E-03     31.9883E-03    -15.5274E-03     64.4555E-03
            1588     13.2916E-03     45.0238E-03    -3.87168E+06    -35.3733E+06    -8.87527E+06     906.546E+03    -16.6411E-03     32.1758E-03    -15.5348E-03     58.5686E-03    -16.6410E-03     32.0622E-03    -15.5222E-03     58.5436E-03
            1589     12.4061E-03     44.9665E-03    -4.67551E+06    -38.0736E+06    -561.912E+03     869.520E+03    -16.6628E-03     32.2243E-03    -15.5615E-03     56.0195E-03    -16.6591E-03     32.0704E-03    -15.5023E-03     56.0016E-03
            1590     11.5203E-03     44.9194E-03    -5.23568E+06    -43.3550E+06    -2.80930E+06     250.258E+03    -16.3960E-03     31.9322E-03    -15.5361E-03     49.0745E-03    -16.3720E-03     31.7438E-03    -15.4797E-03     49.0561E-03
            1591     10.6343E-03     44.8752E-03    -4.73510E+06    -55.1568E+06    -3.58842E+06     105.436E+03    -16.2700E-03     31.7979E-03    -15.5279E-03     44.4636E-03    -16.2191E-03     31.5447E-03    -15.4590E-03     44.4487E-03
            1592     9.74833E-03     44.8362E-03    -4.44622E+06    -58.4139E+06     148.382E+03    -9.16761E+03    -16.1314E-03     31.6618E-03    -15.5304E-03     40.0954E-03    -16.0759E-03     31.3827E-03    -15.4385E-03     40.0832E-03
            1593     8.86228E-03     44.8003E-03    -4.64742E+06    -57.4136E+06    -380.306E+03    -176.578E+03    -15.9926E-03     31.4999E-03    -15.5073E-03     35.8473E-03    -15.9363E-03     31.2244E-03    -15.4192E-03     35.8361E-03
            1594     7.97617E-03     44.7691E-03    -5.33061E+06    -62.1130E+06     732.218E+03     1.10042E+06    -15.8914E-03     31.3931E-03    -15.5018E-03     31.5192E-03    -15.8318E-03     31.0920E-03    -15.4003E-03     31.5266E-03
            1595     7.09009E-03     44.7413E-03    -6.28639E+06    -63.4333E+06     1.17714E+06     1.55214E+06    -15.7933E-03     31.2808E-03    -15.4875E-03     27.3490E-03    -15.7363E-03     30.9729E-03    -15.3805E-03     27.3637E-03
            1596     6.20400E-03     44.7177E-03    -7.34654E+06    -60.6948E+06    -1.09022E+06     324.793E+03    -15.6762E-03     31.1313E-03    -15.4550E-03     23.4179E-03    -15.6246E-03     30.8413E-03    -15.3618E-03     23.4180E-03
            1597     5.31772E-03     44.6973E-03    -8.57378E+06    -63.1246E+06    -2.52858E+06    -214.299E+03    -15.5880E-03     31.0250E-03    -15.4370E-03     19.6408E-03    -15.5364E-03     30.7263E-03    -15.3457E-03     19.6348E-03
            1598     4.43159E-03     44.6807E-03    -9.87417E+06    -63.9902E+06    -3.91103E+06    -237.269E+03    -15.5111E-03     30.9304E-03    -15.4193E-03     16.0458E-03    -15.4625E-03     30.6310E-03    -15.3318E-03     16.0402E-03
            1599     3.54521E-03     44.6671E-03    -11.1491E+06    -60.8262E+06    -6.59027E+06    -177.931E+03    -15.4387E-03     30.8313E-03    -15.3926E-03     12.6505E-03    -15.3970E-03     30.5532E-03    -15.3212E-03     12.6463E-03
            1600     2.65900E-03     44.6569E-03    -12.0448E+06    -62.8609E+06    -8.74342E+06    -167.885E+03    -15.3979E-03     30.7769E-03    -15.3790E-03     9.38100E-03    -15.3545E-03     30.4930E-03    -15.3141E-03     9.37744E-03
            1601     1.77261E-03     44.6494E-03    -12.7522E+06    -65.6091E+06    -10.9977E+06    -204.094E+03    -15.3733E-03     30.7418E-03    -15.3686E-03     6.25674E-03    -15.3260E-03     30.4483E-03    -15.3099E-03     6.25319E-03
            1602     886.386E-06     44.6451E-03    -13.3318E+06    -66.9548E+06    -12.8797E+06    -167.883E+03    -15.3692E-03     30.7217E-03    -15.3525E-03     3.37076E-03    -15.3201E-03     30.4250E-03    -15.3005E-03     3.36810E-03
            1603     16.8357E-03     44.4734E-03    -2.16409E+06     150.271E+06     47.9125E+06     1.97596E+06    -26.1411E-03     41.7285E-03    -15.5875E-03     239.049E-03    -31.9095E-03     47.8838E-03    -15.5626E-03     243.289E-03
            1604     15.9503E-03     44.2791E-03    -1.43230E+06     84.6433E+06    -8.15408E+06     1.15383E+06    -21.4408E-03     36.8264E-03    -15.3856E-03     166.155E-03    -23.2644E-03     38.9691E-03    -15.5470E-03     166.697E-03
            1605     15.0635E-03     44.1621E-03    -2.58266E+06     22.0903E+06    -12.3318E+06    -216.744E+03    -17.8169E-03     33.2745E-03    -15.4576E-03     96.0918E-03    -18.1081E-03     33.6708E-03    -15.5475E-03     96.0648E-03
            1606     14.1782E-03     44.0986E-03    -3.26663E+06    -17.6007E+06    -11.5415E+06     662.588E+03    -16.9845E-03     32.4903E-03    -15.5058E-03     63.3147E-03    -17.0369E-03     32.5021E-03    -15.5333E-03     63.2799E-03
            1607     13.2924E-03     44.0444E-03    -3.45591E+06    -36.3523E+06    -8.07297E+06     1.85162E+06    -16.7122E-03     32.2379E-03    -15.5257E-03     58.4126E-03    -16.7100E-03     32.1177E-03    -15.5083E-03     58.3995E-03
            1608     12.4064E-03     43.9889E-03    -4.18056E+06    -36.3479E+06     184.625E+03     1.64914E+06    -16.6275E-03     32.1730E-03    -15.5454E-03     55.6913E-03    -16.6248E-03     32.0258E-03    -15.4857E-03     55.6834E-03
            1609     11.5204E-03     43.9405E-03    -4.56546E+06    -42.6605E+06    -2.63536E+06     26.9907E+03    -16.4343E-03     31.9507E-03    -15.5164E-03     48.8675E-03    -16.4081E-03     31.7646E-03    -15.4611E-03     48.8461E-03
            1610     10.6347E-03     43.8976E-03    -4.83743E+06    -55.5378E+06    -3.85496E+06    -194.859E+03    -16.2953E-03     31.7995E-03    -15.5042E-03     44.3166E-03    -16.2439E-03     31.5450E-03    -15.4359E-03     44.2978E-03
            1611     9.74856E-03     43.8577E-03    -5.23645E+06    -57.8386E+06    -352.362E+03    -215.971E+03    -16.1423E-03     31.6434E-03    -15.5010E-03     39.9793E-03    -16.0908E-03     31.3690E-03    -15.4113E-03     39.9644E-03
            1612     8.86259E-03     43.8226E-03    -6.27598E+06    -58.4269E+06    -129.321E+03     288.446E+03    -16.0115E-03     31.4916E-03    -15.4801E-03     35.6692E-03    -15.9623E-03     31.2130E-03    -15.3869E-03     35.6639E-03
            1613     7.97651E-03     43.7909E-03    -7.27352E+06    -63.1042E+06    -21.4558E+03     957.932E+03    -15.8851E-03     31.3497E-03    -15.4646E-03     31.3966E-03    -15.8327E-03     31.0476E-03    -15.3627E-03     31.4021E-03
            1614     7.09044E-03     43.7636E-03    -7.20871E+06    -62.3086E+06     805.757E+03     690.115E+03    -15.7702E-03     31.2141E-03    -15.4439E-03     27.2575E-03    -15.7189E-03     30.9137E-03    -15.3391E-03     27.2612E-03
            1615     6.20422E-03     43.7397E-03    -7.32747E+06    -59.9378E+06    -30.8418E+03     341.041E+03    -15.6521E-03     31.0665E-03    -15.4144E-03     23.3117E-03    -15.6030E-03     30.7787E-03    -15.3170E-03     23.3120E-03
            1616     5.31807E-03     43.7197E-03    -8.34356E+06    -62.9820E+06    -2.07542E+06     61.1383E+03    -15.5484E-03     30.9399E-03    -15.3915E-03     19.5464E-03    -15.4966E-03     30.6409E-03    -15.2984E-03     19.5439E-03
            1617     4.43169E-03     43.7029E-03    -9.67231E+06    -63.9928E+06    -3.53955E+06    -77.6760E+03    -15.4698E-03     30.8420E-03    -15.3722E-03     15.9627E-03    -15.4208E-03     30.5417E-03    -15.2831E-03     15.9592E-03
            1618     3.54549E-03     43.6896E-03    -10.8104E+06    -60.7576E+06    -5.91532E+06    -307.306E+03    -15.4000E-03     30.7444E-03    -15.3444E-03     12.5736E-03    -15.3577E-03     30.4652E-03    -15.2702E-03     12.5677E-03
            1619     2.65908E-03     43.6792E-03    -11.8615E+06    -63.0381E+06    -8.71081E+06    -383.926E+03    -15.3489E-03     30.6751E-03    -15.3261E-03     9.32504E-03    -15.3044E-03     30.3899E-03    -15.2611E-03     9.31871E-03
            1620     1.77279E-03     43.6720E-03    -12.8397E+06    -65.7981E+06    -11.3462E+06    -207.091E+03    -15.3180E-03     30.6323E-03    -15.3143E-03     6.22729E-03    -15.2705E-03     30.3385E-03    -15.2570E-03     6.22371E-03
            1621     886.300E-06     43.6674E-03    -13.5196E+06    -67.2034E+06    -13.2894E+06    -70.8172E+03    -15.3062E-03     30.6156E-03    -15.3093E-03     3.34837E-03    -15.2571E-03     30.3185E-03    -15.2587E-03     3.34697E-03
            1622     16.8361E-03     43.4948E-03    -4.07587E+06     148.138E+06     46.6051E+06    -219.328E+03    -25.8334E-03     41.4136E-03    -15.5802E-03     238.212E-03    -31.5966E-03     47.5531E-03    -15.5561E-03     242.416E-03
            1623     15.9503E-03     43.2997E-03    -4.39025E+06     84.3560E+06    -9.65688E+06     541.128E+03    -21.5537E-03     36.9286E-03    -15.3749E-03     165.136E-03    -23.3797E-03     39.0665E-03    -15.5391E-03     165.669E-03
            1624     15.0647E-03     43.1852E-03    -3.42377E+06     23.2288E+06    -10.6786E+06     1.36241E+06    -18.0285E-03     33.4728E-03    -15.4443E-03     96.8553E-03    -18.3293E-03     33.8749E-03    -15.5264E-03     96.8470E-03
            1625     14.1781E-03     43.1189E-03    -4.19069E+06    -18.4017E+06    -10.7028E+06     1.22511E+06    -16.8656E-03     32.3540E-03    -15.4885E-03     63.1643E-03    -16.9223E-03     32.3616E-03    -15.5092E-03     63.1371E-03
            1626     13.2926E-03     43.0669E-03    -3.47171E+06    -36.9582E+06    -7.79843E+06     1.24505E+06    -16.7567E-03     32.2610E-03    -15.5043E-03     58.3716E-03    -16.7539E-03     32.1373E-03    -15.4846E-03     58.3506E-03
            1627     12.4066E-03     43.0100E-03    -1.38618E+06    -34.9713E+06     1.82422E+06     882.769E+03    -16.6181E-03     32.1394E-03    -15.5213E-03     55.6510E-03    -16.6056E-03     31.9926E-03    -15.4595E-03     55.6333E-03
            1628     11.5209E-03     42.9627E-03    -1.06179E+06    -42.2406E+06     548.726E+03     953.832E+03    -16.4333E-03     31.9327E-03    -15.4994E-03     48.6144E-03    -16.3948E-03     31.7389E-03    -15.4338E-03     48.6050E-03
            1629     10.6348E-03     42.9190E-03    -2.40508E+06    -55.2168E+06    -1.07583E+06     676.782E+03    -16.3181E-03     31.8020E-03    -15.4840E-03     44.1127E-03    -16.2590E-03     31.5415E-03    -15.4058E-03     44.1051E-03
            1630     9.74895E-03     42.8800E-03    -3.84224E+06    -57.8487E+06     2.19849E+06     449.067E+03    -16.1712E-03     31.6479E-03    -15.4766E-03     39.7822E-03    -16.1164E-03     31.3677E-03    -15.3762E-03     39.7759E-03
            1631     8.86289E-03     42.8444E-03    -5.11293E+06    -59.4349E+06     1.99079E+06     1.00218E+06    -16.0118E-03     31.4622E-03    -15.4504E-03     35.4829E-03    -15.9583E-03     31.1738E-03    -15.3469E-03     35.4869E-03
            1632     7.97689E-03     42.8133E-03    -5.94829E+06    -62.2599E+06     1.06890E+06     688.971E+03    -15.8726E-03     31.2959E-03    -15.4233E-03     31.2659E-03    -15.8164E-03     30.9945E-03    -15.3190E-03     31.2680E-03
            1633     7.09067E-03     42.7856E-03    -6.52484E+06    -61.6348E+06     311.286E+03    -346.708E+03    -15.7371E-03     31.1306E-03    -15.3935E-03     27.1592E-03    -15.6826E-03     30.8332E-03    -15.2931E-03     27.1495E-03
            1634     6.20458E-03     42.7621E-03    -6.69428E+06    -60.2669E+06     441.875E+03    -391.326E+03    -15.6230E-03     30.9914E-03    -15.3684E-03     23.1970E-03    -15.5709E-03     30.7003E-03    -15.2691E-03     23.1879E-03
            1635     5.31824E-03     42.7420E-03    -7.43407E+06    -63.2325E+06    -115.103E+03     429.013E+03    -15.5247E-03     30.8736E-03    -15.3489E-03     19.4142E-03    -15.4708E-03     30.5692E-03    -15.2470E-03     19.4166E-03
            1636     4.43205E-03     42.7255E-03    -8.99943E+06    -63.1839E+06    -2.73029E+06     161.891E+03    -15.4263E-03     30.7457E-03    -15.3193E-03     15.8699E-03    -15.3763E-03     30.4473E-03    -15.2283E-03     15.8695E-03
            1637     3.54561E-03     42.7120E-03    -10.4529E+06    -60.8848E+06    -6.07016E+06    -341.882E+03    -15.3453E-03     30.6328E-03    -15.2875E-03     12.4997E-03    -15.3008E-03     30.3527E-03    -15.2144E-03     12.4934E-03
            1638     2.65929E-03     42.7019E-03    -11.7276E+06    -63.2828E+06    -9.12625E+06    -103.477E+03    -15.2976E-03     30.5654E-03    -15.2678E-03     9.26233E-03    -15.2514E-03     30.2794E-03    -15.2047E-03     9.25963E-03
            1639     1.77280E-03     42.6945E-03    -12.9003E+06    -66.0074E+06    -11.6021E+06     33.7354E+03    -15.2710E-03     30.5241E-03    -15.2531E-03     6.18258E-03    -15.2231E-03     30.2297E-03    -15.1967E-03     6.18212E-03
            1640     886.502E-06     42.6902E-03    -13.5038E+06    -67.2171E+06    -13.2254E+06     64.2098E+03    -15.2435E-03     30.4888E-03    -15.2453E-03     3.30808E-03    -15.1943E-03     30.1916E-03    -15.1944E-03     3.30843E-03
            1641     16.8362E-03     42.5153E-03    -3.50961E+06     148.470E+06     46.5527E+06     191.921E+03    -25.6246E-03     41.1891E-03    -15.5645E-03     238.311E-03    -31.3892E-03     47.3333E-03    -15.5419E-03     242.531E-03
            1642     15.9503E-03     42.3218E-03    -5.61068E+06     83.2876E+06    -9.75751E+06    -10.7148E+03    -21.4126E-03     36.7851E-03    -15.3724E-03     164.934E-03    -23.2282E-03     38.9047E-03    -15.5339E-03     165.465E-03
            1643     15.0641E-03     42.2060E-03    -5.35640E+06     22.2421E+06    -11.3779E+06     718.827E+03    -18.2347E-03     33.6717E-03    -15.4370E-03     97.3009E-03    -18.5440E-03     34.0739E-03    -15.5183E-03     97.2835E-03
            1644     14.1790E-03     42.1410E-03    -3.85504E+06    -17.8926E+06    -10.1345E+06     1.49724E+06    -16.9871E-03     32.4589E-03    -15.4719E-03     63.1129E-03    -17.0433E-03     32.4673E-03    -15.4910E-03     63.0887E-03
            1645     13.2928E-03     42.0882E-03    -2.83272E+06    -35.6161E+06    -7.90250E+06     126.930E+03    -16.7826E-03     32.2591E-03    -15.4766E-03     58.2619E-03    -16.7782E-03     32.1412E-03    -15.4603E-03     58.2264E-03
            1646     12.4072E-03     42.0320E-03    -2.77048E+06    -35.6250E+06     735.559E+03    -317.346E+03    -16.6548E-03     32.1450E-03    -15.4902E-03     55.5717E-03    -16.6465E-03     31.9982E-03    -15.4308E-03     55.5387E-03
            1647     11.5211E-03     41.9842E-03    -2.95475E+06    -43.2072E+06     225.115E+03     1.29916E+06    -16.4284E-03     31.8976E-03    -15.4692E-03     48.5031E-03    -16.3974E-03     31.7020E-03    -15.4012E-03     48.4984E-03
            1648     10.6354E-03     41.9411E-03    -3.07418E+06    -53.8195E+06    -381.323E+03     1.45842E+06    -16.3343E-03     31.7840E-03    -15.4497E-03     43.9998E-03    -16.2815E-03     31.5303E-03    -15.3691E-03     44.0024E-03
            1649     9.74935E-03     41.9016E-03    -3.48300E+06    -58.2674E+06     2.77596E+06     898.706E+03    -16.1746E-03     31.6129E-03    -15.4382E-03     39.6176E-03    -16.1182E-03     31.3292E-03    -15.3348E-03     39.6171E-03
            1650     8.86340E-03     41.8667E-03    -3.93635E+06    -59.6736E+06     2.58524E+06     1.10360E+06    -16.0011E-03     31.4081E-03    -15.4070E-03     35.3434E-03    -15.9422E-03     31.1159E-03    -15.3018E-03     35.3488E-03
            1651     7.97719E-03     41.8352E-03    -4.48091E+06    -60.8563E+06     2.07080E+06     619.968E+03    -15.8556E-03     31.2314E-03    -15.3759E-03     31.1196E-03    -15.7955E-03     30.9334E-03    -15.2708E-03     31.1209E-03
            1652     7.09117E-03     41.8081E-03    -5.25417E+06    -60.7415E+06     1.08612E+06    -451.019E+03    -15.7127E-03     31.0554E-03    -15.3427E-03     27.0071E-03    -15.6543E-03     30.7595E-03    -15.2416E-03     26.9962E-03
            1653     6.20480E-03     41.7843E-03    -6.67485E+06    -61.3050E+06    -306.796E+03    -461.007E+03    -15.5837E-03     30.8957E-03    -15.3120E-03     23.0666E-03    -15.5289E-03     30.6005E-03    -15.2150E-03     23.0566E-03
            1654     5.31866E-03     41.7645E-03    -7.82742E+06    -63.7863E+06    -382.496E+03     176.725E+03    -15.4847E-03     30.7770E-03    -15.2923E-03     19.2896E-03    -15.4315E-03     30.4708E-03    -15.1904E-03     19.2888E-03
            1655     4.43222E-03     41.7479E-03    -8.68658E+06    -62.4034E+06    -2.73661E+06     396.128E+03    -15.3764E-03     30.6350E-03    -15.2586E-03     15.7620E-03    -15.3259E-03     30.3401E-03    -15.1692E-03     15.7647E-03
            1656     3.54589E-03     41.7347E-03    -10.2152E+06    -60.9741E+06    -6.58248E+06     275.015E+03    -15.2900E-03     30.5141E-03    -15.2241E-03     12.4086E-03    -15.2434E-03     30.2339E-03    -15.1538E-03     12.4103E-03
            1657     2.65938E-03     41.7244E-03    -11.7707E+06    -63.4680E+06    -9.18119E+06     318.979E+03    -15.2449E-03     30.4501E-03    -15.2052E-03     9.18192E-03    -15.1986E-03     30.1633E-03    -15.1420E-03     9.18470E-03
            1658     1.77302E-03     41.7173E-03    -12.7655E+06    -65.7667E+06    -11.3759E+06     298.910E+03    -15.2108E-03     30.3986E-03    -15.1878E-03     6.13380E-03    -15.1629E-03     30.1049E-03    -15.1308E-03     6.13678E-03
            1659     886.442E-06     41.7128E-03    -13.4374E+06    -67.1150E+06    -13.0842E+06     101.908E+03    -15.1755E-03     30.3545E-03    -15.1790E-03     3.27771E-03    -15.1264E-03     30.0575E-03    -15.1276E-03     3.27855E-03
            1660     16.8367E-03     41.5359E-03    -3.50766E+06     148.314E+06     47.0222E+06     69.2724E+03    -25.7023E-03     41.2747E-03    -15.5724E-03     238.494E-03    -31.4777E-03     47.4278E-03    -15.5473E-03     242.710E-03
            1661     15.9503E-03     41.3445E-03    -4.48279E+06     83.2628E+06    -9.45684E+06     583.988E+03    -21.7064E-03     37.0740E-03    -15.3676E-03     164.620E-03    -23.5146E-03     39.1893E-03    -15.5291E-03     165.150E-03
            1662     15.0644E-03     41.2268E-03    -4.63776E+06     21.3315E+06    -11.4370E+06     679.732E+03    -18.2474E-03     33.6697E-03    -15.4223E-03     96.8427E-03    -18.5496E-03     34.0643E-03    -15.5037E-03     96.8237E-03
            1663     14.1787E-03     41.1624E-03    -3.98114E+06    -17.3659E+06    -9.96931E+06     309.025E+03    -16.9736E-03     32.4296E-03    -15.4559E-03     63.0084E-03    -17.0308E-03     32.4399E-03    -15.4748E-03     62.9691E-03
            1664     13.2933E-03     41.1099E-03    -3.38557E+06    -34.3283E+06    -7.87525E+06     400.305E+03    -16.9269E-03     32.3803E-03    -15.4534E-03     58.2292E-03    -16.9275E-03     32.2699E-03    -15.4381E-03     58.1968E-03
            1665     12.4073E-03     41.0536E-03    -4.55835E+06    -36.5940E+06     146.604E+03     615.785E+03    -16.6651E-03     32.1265E-03    -15.4614E-03     55.3820E-03    -16.6632E-03     31.9781E-03    -15.4010E-03     55.3612E-03
            1666     11.5216E-03     41.0062E-03    -5.30022E+06    -43.7346E+06    -2.13274E+06     494.767E+03    -16.4527E-03     31.8800E-03    -15.4273E-03     48.4488E-03    -16.4291E-03     31.6885E-03    -15.3669E-03     48.4337E-03
            1667     10.6356E-03     40.9628E-03    -4.35400E+06    -53.5930E+06    -2.54481E+06     702.686E+03    -16.3445E-03     31.7457E-03    -15.4012E-03     43.8814E-03    -16.2952E-03     31.4981E-03    -15.3299E-03     43.8744E-03
            1668     9.74977E-03     40.9238E-03    -4.55656E+06    -58.4549E+06     2.02583E+06     1.39949E+06    -16.1631E-03     31.5561E-03    -15.3930E-03     39.4694E-03    -16.1106E-03     31.2741E-03    -15.2916E-03     39.4756E-03
            1669     8.86370E-03     40.8886E-03    -5.92382E+06    -59.0750E+06     1.63335E+06     1.06012E+06    -15.9956E-03     31.3521E-03    -15.3565E-03     35.1865E-03    -15.9462E-03     31.0672E-03    -15.2541E-03     35.1913E-03
            1670     7.97773E-03     40.8576E-03    -6.15325E+06    -59.3635E+06     574.349E+03    -230.980E+03    -15.8308E-03     31.1468E-03    -15.3160E-03     30.9821E-03    -15.7790E-03     30.8608E-03    -15.2182E-03     30.9725E-03
            1671     7.09142E-03     40.8302E-03    -6.34606E+06    -61.1217E+06     191.821E+03    -277.594E+03    -15.6835E-03     30.9670E-03    -15.2835E-03     26.8444E-03    -15.6286E-03     30.6721E-03    -15.1847E-03     26.8357E-03
            1672     6.20533E-03     40.8069E-03    -7.48337E+06    -61.5997E+06    -1.52980E+06     296.997E+03    -15.5410E-03     30.7881E-03    -15.2471E-03     22.9097E-03    -15.4881E-03     30.4943E-03    -15.1546E-03     22.9096E-03
            1673     5.31885E-03     40.7869E-03    -8.84163E+06    -63.7139E+06    -2.95160E+06    -105.356E+03    -15.4232E-03     30.6418E-03    -15.2186E-03     19.1679E-03    -15.3715E-03     30.3411E-03    -15.1281E-03     19.1635E-03
            1674     4.43258E-03     40.7706E-03    -9.86733E+06    -62.9985E+06    -3.88021E+06     186.364E+03    -15.3272E-03     30.5181E-03    -15.1909E-03     15.6293E-03    -15.2801E-03     30.2236E-03    -15.1046E-03     15.6293E-03
            1675     3.54606E-03     40.7573E-03    -10.7779E+06    -60.6408E+06    -6.45232E+06     773.614E+03    -15.2346E-03     30.3910E-03    -15.1564E-03     12.2924E-03    -15.1915E-03     30.1131E-03    -15.0851E-03     12.3005E-03
            1676     2.65965E-03     40.7473E-03    -11.7952E+06    -63.2684E+06    -8.89997E+06     513.789E+03    -15.1759E-03     30.3107E-03    -15.1348E-03     9.10254E-03    -15.1304E-03     30.0245E-03    -15.0704E-03     9.10784E-03
            1677     1.77305E-03     40.7400E-03    -12.6447E+06    -65.4148E+06    -11.1780E+06     343.429E+03    -15.1374E-03     30.2537E-03    -15.1162E-03     6.06791E-03    -15.0897E-03     29.9612E-03    -15.0589E-03     6.07147E-03
            1678     886.597E-06     40.7358E-03    -13.1805E+06    -66.7838E+06    -12.9481E+06     244.349E+03    -15.1151E-03     30.2116E-03    -15.0965E-03     3.21360E-03    -15.0654E-03     29.9157E-03    -15.0453E-03     3.21630E-03
            1679     16.8349E-03     40.5580E-03    -4.33642E+06     147.464E+06     46.0441E+06     183.578E+03    -25.7572E-03     41.3244E-03    -15.5672E-03     238.106E-03    -31.5000E-03     47.4417E-03    -15.5445E-03     242.310E-03
            1680     15.9504E-03     40.3634E-03    -5.84852E+06     82.9597E+06    -9.76980E+06     155.932E+03    -21.9659E-03     37.3210E-03    -15.3550E-03     164.156E-03    -23.7812E-03     39.4383E-03    -15.5157E-03     164.671E-03
            1681     15.0658E-03     40.2499E-03    -4.16647E+06     22.1412E+06    -10.9321E+06     250.432E+03    -18.2651E-03     33.6643E-03    -15.3993E-03     96.5031E-03    -18.5645E-03     34.0593E-03    -15.4800E-03     96.4784E-03
            1682     14.1788E-03     40.1836E-03    -3.82724E+06    -17.2174E+06    -10.0008E+06     430.273E+03    -16.9428E-03     32.3727E-03    -15.4299E-03     63.1614E-03    -16.9993E-03     32.3835E-03    -15.4494E-03     63.1239E-03
            1683     13.2935E-03     40.1311E-03    -4.27622E+06    -34.8216E+06    -8.17875E+06     619.189E+03    -16.9481E-03     32.3748E-03    -15.4266E-03     57.6547E-03    -16.9516E-03     32.2632E-03    -15.4108E-03     57.6251E-03
            1684     12.4080E-03     40.0756E-03    -3.73400E+06    -36.5151E+06     798.406E+03     934.620E+03    -16.7101E-03     32.1411E-03    -15.4310E-03     55.1874E-03    -16.7050E-03     31.9908E-03    -15.3686E-03     55.1707E-03
            1685     11.5219E-03     40.0278E-03    -3.55130E+06    -42.7557E+06    -1.34647E+06     225.594E+03    -16.4990E-03     31.8879E-03    -15.3889E-03     48.2929E-03    -16.4692E-03     31.6976E-03    -15.3285E-03     48.2744E-03
            1686     10.6362E-03     39.9849E-03    -4.15754E+06    -54.9249E+06    -2.72493E+06     317.469E+03    -16.3465E-03     31.7049E-03    -15.3584E-03     43.6567E-03    -16.2940E-03     31.4505E-03    -15.2863E-03     43.6448E-03
            1687     9.75019E-03     39.9457E-03    -4.45295E+06    -58.9854E+06     2.40161E+06     1.51929E+06    -16.1648E-03     31.5124E-03    -15.3476E-03     39.2620E-03    -16.1116E-03     31.2269E-03    -15.2436E-03     39.2698E-03
            1688     8.86427E-03     39.9109E-03    -4.28519E+06    -57.0816E+06     3.13612E+06     820.948E+03    -15.9917E-03     31.2975E-03    -15.3059E-03     34.9804E-03    -15.9390E-03     31.0179E-03    -15.2012E-03     34.9822E-03
            1689     7.97807E-03     39.8798E-03    -5.17836E+06    -58.7073E+06     1.38745E+06    -305.184E+03    -15.8181E-03     31.0779E-03    -15.2598E-03     30.7651E-03    -15.7636E-03     30.7926E-03    -15.1602E-03     30.7546E-03
            1690     7.09201E-03     39.8528E-03    -6.68392E+06    -62.2267E+06    -911.327E+03     48.1676E+03    -15.6518E-03     30.8694E-03    -15.2176E-03     26.6556E-03    -15.5954E-03     30.5710E-03    -15.1223E-03     26.6512E-03
            1691     6.20559E-03     39.8294E-03    -7.69373E+06    -61.5704E+06    -2.29551E+06     576.941E+03    -15.5000E-03     30.6771E-03    -15.1771E-03     22.7283E-03    -15.4470E-03     30.3849E-03    -15.0881E-03     22.7318E-03
            1692     5.31936E-03     39.8097E-03    -8.82171E+06    -62.9980E+06    -3.06991E+06     395.858E+03    -15.3754E-03     30.5219E-03    -15.1464E-03     19.0050E-03    -15.3245E-03     30.2249E-03    -15.0577E-03     19.0070E-03
            1693     4.43281E-03     39.7933E-03    -10.4204E+06    -63.7372E+06    -4.12401E+06     122.430E+03    -15.2678E-03     30.3851E-03    -15.1172E-03     15.4834E-03    -15.2220E-03     30.0880E-03    -15.0303E-03     15.4826E-03
            1694     3.54643E-03     39.7803E-03    -11.4790E+06    -60.5034E+06    -6.16729E+06     287.563E+03    -15.1663E-03     30.2471E-03    -15.0808E-03     12.1739E-03    -15.1274E-03     29.9705E-03    -15.0072E-03     12.1758E-03
            1695     2.65979E-03     39.7701E-03    -12.0501E+06    -62.8115E+06    -8.61859E+06     271.286E+03    -15.1001E-03     30.1550E-03    -15.0549E-03     9.01426E-03    -15.0569E-03     29.8710E-03    -14.9894E-03     9.01644E-03
            1696     1.77328E-03     39.7631E-03    -12.6457E+06    -65.3034E+06    -10.9929E+06     150.726E+03    -15.0570E-03     30.0908E-03    -15.0338E-03     5.99359E-03    -15.0097E-03     29.7986E-03    -14.9757E-03     5.99467E-03
            1697     886.594E-06     39.7587E-03    -12.9970E+06    -66.3909E+06    -12.5121E+06     151.252E+03    -15.0383E-03     30.0444E-03    -15.0060E-03     3.18629E-03    -14.9889E-03     29.7495E-03    -14.9535E-03     3.18779E-03
            1698     16.8378E-03     39.5806E-03    -3.75021E+06     147.207E+06     45.6355E+06     672.002E+03    -25.9995E-03     41.5392E-03    -15.5397E-03     237.646E-03    -31.7053E-03     47.6220E-03    -15.5196E-03     241.806E-03
            1699     15.9510E-03     39.3837E-03    -4.63639E+06     83.5811E+06    -9.89828E+06     252.507E+03    -21.6024E-03     36.9310E-03    -15.3286E-03     164.079E-03    -23.4088E-03     39.0463E-03    -15.4926E-03     164.602E-03
            1700     15.0644E-03     39.2718E-03    -4.79468E+06     22.3248E+06    -11.6759E+06    -432.390E+03    -18.4578E-03     33.8338E-03    -15.3760E-03     96.2420E-03    -18.7585E-03     34.2305E-03    -15.4598E-03     96.2078E-03
            1701     14.1801E-03     39.2045E-03    -4.09979E+06    -18.1207E+06    -10.8542E+06     326.876E+03    -17.1658E-03     32.5578E-03    -15.3921E-03     62.9805E-03    -17.2215E-03     32.5662E-03    -15.4141E-03     62.9407E-03
            1702     13.2941E-03     39.1532E-03    -3.11649E+06    -35.1508E+06    -7.91251E+06     1.07205E+06    -16.7913E-03     32.1785E-03    -15.3872E-03     57.3946E-03    -16.7881E-03     32.0624E-03    -15.3713E-03     57.3715E-03
            1703     12.4081E-03     39.0969E-03    -3.82709E+06    -35.8004E+06     563.944E+03     588.866E+03    -16.7322E-03     32.1231E-03    -15.3909E-03     55.0454E-03    -16.7281E-03     31.9767E-03    -15.3306E-03     55.0243E-03
            1704     11.5226E-03     39.0498E-03    -4.39602E+06    -42.2870E+06    -1.47784E+06     354.550E+03    -16.5180E-03     31.8636E-03    -15.3457E-03     48.0865E-03    -16.4927E-03     31.6769E-03    -15.2854E-03     48.0697E-03
            1705     10.6366E-03     39.0066E-03    -4.71069E+06    -55.8941E+06    -3.30687E+06     753.915E+03    -16.3557E-03     31.6650E-03    -15.3093E-03     43.4858E-03    -16.3036E-03     31.4073E-03    -15.2379E-03     43.4796E-03
            1706     9.75081E-03     38.9680E-03    -4.61399E+06    -58.8966E+06     716.562E+03     482.431E+03    -16.1716E-03     31.4570E-03    -15.2854E-03     39.1063E-03    -16.1167E-03     31.1746E-03    -15.1897E-03     39.1008E-03
            1707     8.86469E-03     38.9330E-03    -4.35072E+06    -55.7593E+06     1.73460E+06     16.6847E+03    -15.9800E-03     31.2178E-03    -15.2378E-03     34.7992E-03    -15.9275E-03     30.9469E-03    -15.1420E-03     34.7907E-03
            1708     7.97871E-03     38.9022E-03    -4.65385E+06    -59.1984E+06     1.81673E+06     354.609E+03    -15.8025E-03     30.9999E-03    -15.1974E-03     30.5229E-03    -15.7452E-03     30.7106E-03    -15.0957E-03     30.5210E-03
            1709     7.09236E-03     38.8752E-03    -6.04577E+06    -62.7515E+06    -214.777E+03     1.02738E+06    -15.6264E-03     30.7773E-03    -15.1508E-03     26.4154E-03    -15.5671E-03     30.4743E-03    -15.0522E-03     26.4237E-03
            1710     6.20618E-03     38.8521E-03    -7.68774E+06    -61.1441E+06    -1.91825E+06     829.242E+03    -15.4593E-03     30.5619E-03    -15.1027E-03     22.5172E-03    -15.4074E-03     30.2713E-03    -15.0125E-03     22.5241E-03
            1711     5.31966E-03     38.8324E-03    -8.72370E+06    -62.6552E+06    -1.79114E+06     490.256E+03    -15.3259E-03     30.3968E-03    -15.0708E-03     18.8110E-03    -15.2769E-03     30.0995E-03    -14.9763E-03     18.8143E-03
            1712     4.43331E-03     38.8163E-03    -9.67183E+06    -63.4169E+06    -2.87295E+06     244.335E+03    -15.2002E-03     30.2359E-03    -15.0357E-03     15.3092E-03    -15.1529E-03     29.9375E-03    -14.9441E-03     15.3100E-03
            1713     3.54663E-03     38.8032E-03    -10.9575E+06    -60.5298E+06    -5.72795E+06    -167.279E+03    -15.0859E-03     30.0792E-03    -14.9933E-03     12.0335E-03    -15.0449E-03     29.8010E-03    -14.9183E-03     12.0296E-03
            1714     2.66011E-03     38.7933E-03    -12.1604E+06    -62.8176E+06    -8.34997E+06    -81.0349E+03    -15.0164E-03     29.9813E-03    -14.9649E-03     8.91013E-03    -14.9741E-03     29.6971E-03    -14.8980E-03     8.90778E-03
            1715     1.77338E-03     38.7862E-03    -13.3030E+06    -65.2536E+06    -11.2873E+06     94.0077E+03    -14.9614E-03     29.9014E-03    -14.9400E-03     5.92015E-03    -14.9170E-03     29.6108E-03    -14.8825E-03     5.92052E-03
            1716     886.751E-06     38.7819E-03    -14.2007E+06    -66.1732E+06    -13.7741E+06     33.3521E+03    -14.9254E-03     29.8483E-03    -14.9229E-03     3.15051E-03    -14.8804E-03     29.5581E-03    -14.8752E-03     3.15050E-03
            1717     16.8366E-03     38.5994E-03    -3.65037E+06     147.538E+06     46.7730E+06     55.8561E+03    -26.3195E-03     41.8573E-03    -15.5377E-03     237.469E-03    -32.0321E-03     47.9450E-03    -15.5125E-03     241.593E-03
            1718     15.9512E-03     38.4079E-03    -5.10076E+06     84.4941E+06    -9.58562E+06     346.768E+03    -21.8602E-03     37.1650E-03    -15.3048E-03     163.835E-03    -23.6611E-03     39.2756E-03    -15.4679E-03     164.345E-03
            1719     15.0660E-03     38.2910E-03    -4.80776E+06     22.1301E+06    -12.1773E+06     275.143E+03    -18.4375E-03     33.7776E-03    -15.3401E-03     96.1150E-03    -18.7354E-03     34.1723E-03    -15.4261E-03     96.0892E-03
            1720     14.1803E-03     38.2268E-03    -4.50421E+06    -19.7386E+06    -11.4593E+06    -64.4885E+03    -17.1119E-03     32.4703E-03    -15.3584E-03     62.5682E-03    -17.1656E-03     32.4712E-03    -15.3806E-03     62.5237E-03
            1721     13.2945E-03     38.1746E-03    -3.93737E+06    -35.5073E+06    -8.44273E+06     598.597E+03    -16.8530E-03     32.2027E-03    -15.3497E-03     57.5750E-03    -16.8525E-03     32.0866E-03    -15.3347E-03     57.5459E-03
            1722     12.4090E-03     38.1189E-03    -3.01502E+06    -34.9697E+06     1.33872E+06     883.183E+03    -16.7564E-03     32.1067E-03    -15.3503E-03     54.9555E-03    -16.7504E-03     31.9620E-03    -15.2885E-03     54.9383E-03
            1723     11.5229E-03     38.0715E-03    -3.25362E+06    -42.6137E+06    -1.03982E+06      620.59E+03    -16.5363E-03     31.8360E-03    -15.2997E-03     47.8527E-03    -16.5053E-03     31.6452E-03    -15.2384E-03     47.8395E-03
            1724     10.6373E-03     38.0288E-03    -3.12631E+06    -55.8069E+06    -3.16561E+06     528.726E+03    -16.3910E-03     31.6455E-03    -15.2545E-03     43.2565E-03    -16.3311E-03     31.3856E-03    -15.1848E-03     43.2474E-03
            1725     9.75126E-03     37.9899E-03    -3.05337E+06    -58.1625E+06     787.801E+03     140.644E+03    -16.1873E-03     31.4097E-03    -15.2224E-03     38.8550E-03    -16.1257E-03     31.1285E-03    -15.1297E-03     38.8452E-03
            1726     8.86539E-03     37.9554E-03    -3.81015E+06    -55.7674E+06     1.17699E+06    -67.4162E+03    -15.9731E-03     31.1410E-03    -15.1678E-03     34.5431E-03    -15.9170E-03     30.8700E-03    -15.0756E-03     34.5336E-03
            1727     7.97914E-03     37.9246E-03    -5.19373E+06    -60.5704E+06     1.90105E+06     884.270E+03    -15.7877E-03     30.9153E-03    -15.1276E-03     30.2438E-03    -15.7312E-03     30.6199E-03    -15.0227E-03     30.2487E-03
            1728     7.09307E-03     37.8979E-03    -6.47762E+06    -62.6570E+06     1.42672E+06     1.66656E+06    -15.6028E-03     30.6818E-03    -15.0790E-03     26.1294E-03    -15.5481E-03     30.3775E-03    -14.9716E-03     26.1459E-03
            1729     6.20662E-03     37.8748E-03    -7.34309E+06    -59.8827E+06    -288.000E+03     969.395E+03    -15.4135E-03     30.4340E-03    -15.0204E-03     22.2703E-03    -15.3641E-03     30.1467E-03    -14.9244E-03     22.2790E-03
            1730     5.32029E-03     37.8554E-03    -8.20919E+06    -62.4422E+06    -1.11065E+06     130.449E+03    -15.2578E-03     30.2373E-03    -14.9795E-03     18.5959E-03    -15.2075E-03     29.9394E-03    -14.8826E-03     18.5946E-03
            1731     4.43363E-03     37.8393E-03    -9.19346E+06    -63.1148E+06    -2.38963E+06    -23.5681E+03    -15.1207E-03     30.0600E-03    -14.9393E-03     15.1254E-03    -15.0722E-03     29.7617E-03    -14.8464E-03     15.1228E-03
            1732     3.54712E-03     37.8264E-03    -10.3994E+06    -60.4298E+06    -5.52936E+06     1.44826E+03    -14.9956E-03     29.8882E-03    -14.8926E-03     11.8839E-03    -14.9522E-03     29.6094E-03    -14.8175E-03     11.8821E-03
            1733     2.66030E-03     37.8165E-03    -11.8878E+06    -63.0755E+06    -8.54782E+06     2.93248E+03    -14.9144E-03     29.7768E-03    -14.8624E-03     8.80066E-03    -14.8701E-03     29.4912E-03    -14.7965E-03     8.79942E-03
            1734     1.77363E-03     37.8096E-03    -13.0431E+06    -65.2888E+06    -11.2102E+06     164.713E+03    -14.8611E-03     29.7001E-03    -14.8390E-03     5.83255E-03    -14.8155E-03     29.4089E-03    -14.7814E-03     5.83384E-03
            1735     886.757E-06     37.8053E-03    -13.7012E+06    -65.9055E+06    -13.4200E+06     270.410E+03    -14.8269E-03     29.6483E-03    -14.8213E-03     3.11514E-03    -14.7804E-03     29.3582E-03    -14.7730E-03     3.11819E-03
            1736     16.8362E-03     37.6198E-03    -3.95023E+06     147.925E+06     47.9731E+06    -193.465E+03    -26.4112E-03     41.9534E-03    -15.5422E-03     236.635E-03    -32.1078E-03     48.0220E-03    -15.5111E-03     240.749E-03
            1737     15.9522E-03     37.4277E-03    -5.33109E+06     84.7225E+06    -8.41092E+06    -8.73445E+03    -22.2400E-03     37.5322E-03    -15.2922E-03     163.190E-03    -24.0231E-03     39.6216E-03    -15.4494E-03     163.680E-03
            1738     15.0665E-03     37.3136E-03    -5.07280E+06     21.4176E+06    -12.6115E+06     724.001E+03    -18.4152E-03     33.7236E-03    -15.3084E-03     96.3552E-03    -18.7123E-03     34.1153E-03    -15.3952E-03     96.3348E-03
            1739     14.1803E-03     37.2478E-03    -4.20398E+06    -19.6531E+06    -11.4105E+06     466.589E+03    -17.0079E-03     32.3376E-03    -15.3298E-03     62.4889E-03    -17.0591E-03     32.3373E-03    -15.3522E-03     62.4519E-03
            1740     13.2951E-03     37.1965E-03     -3.8713E+06    -35.6447E+06    -9.76463E+06    -351.593E+03    -17.0150E-03     32.3257E-03    -15.3107E-03     57.4503E-03    -17.0120E-03     32.2107E-03    -15.3022E-03     57.4086E-03
            1741     12.4092E-03     37.1403E-03    -3.13654E+06    -35.7304E+06      -6.872E+03     56.6886E+03    -16.8555E-03     32.1561E-03    -15.3006E-03     54.7838E-03    -16.8469E-03     32.0095E-03    -15.2443E-03     54.7558E-03
            1742     11.5238E-03     37.0935E-03    -2.69058E+06    -42.3731E+06    -913.683E+03     788.489E+03    -16.5853E-03     31.8309E-03    -15.2457E-03     47.5805E-03    -16.5518E-03     31.6402E-03    -15.1849E-03     47.5695E-03
            1743     10.6378E-03     37.0506E-03    -3.00592E+06    -55.3764E+06    -3.08726E+06     448.826E+03    -16.4221E-03     31.6144E-03    -15.1923E-03     42.9687E-03    -16.3623E-03     31.3563E-03    -15.1231E-03     42.9587E-03
            1744     9.75210E-03     37.0122E-03    -3.23446E+06    -57.6409E+06     874.464E+03          847.75    -16.1935E-03     31.3462E-03    -15.1527E-03     38.5506E-03    -16.1336E-03     31.0676E-03    -15.0600E-03     38.5390E-03
            1745     8.86594E-03     36.9776E-03    -3.76032E+06    -56.6959E+06     1.64010E+06     544.836E+03    -15.9680E-03     31.0621E-03    -15.0941E-03     34.2289E-03    -15.9109E-03     30.7856E-03    -14.9982E-03     34.2274E-03
            1746     7.97996E-03     36.9472E-03    -4.95966E+06    -61.6856E+06     2.85639E+06     1.65436E+06    -15.7714E-03     30.8198E-03    -15.0485E-03     29.9216E-03    -15.7134E-03     30.5170E-03    -14.9376E-03     29.9365E-03
            1747     7.09360E-03     36.9206E-03    -6.10455E+06    -61.7447E+06     2.79700E+06     1.48137E+06    -15.5636E-03     30.5547E-03    -14.9910E-03     25.8356E-03    -15.5104E-03     30.2524E-03    -14.8787E-03     25.8498E-03
            1748     6.20736E-03     36.8978E-03    -6.83100E+06    -58.7624E+06     765.351E+03     620.673E+03    -15.3528E-03     30.2765E-03    -14.9237E-03     22.0071E-03    -15.3039E-03     29.9925E-03    -14.8248E-03     22.0114E-03
            1749     5.32074E-03     36.8785E-03    -7.82362E+06    -62.0071E+06    -1.25524E+06     144.975E+03    -15.1747E-03     30.0478E-03    -14.8731E-03     18.3685E-03    -15.1228E-03     29.7516E-03    -14.7781E-03     18.3674E-03
            1750     4.43422E-03     36.8626E-03    -9.32144E+06    -63.2462E+06    -3.28622E+06     26.0834E+03    -15.0223E-03     29.8501E-03    -14.8279E-03     14.9412E-03    -14.9728E-03     29.5526E-03    -14.7391E-03     14.9392E-03
            1751     3.54738E-03     36.8498E-03    -10.7949E+06    -60.4832E+06    -6.24227E+06     206.111E+03    -14.8944E-03     29.6746E-03    -14.7802E-03     11.7291E-03    -14.8519E-03     29.3971E-03    -14.7080E-03     11.7300E-03
            1752     2.66069E-03     36.8400E-03    -11.9046E+06    -62.9283E+06    -8.95342E+06     193.041E+03    -14.8060E-03     29.5549E-03    -14.7489E-03     8.67950E-03    -14.7615E-03     29.2707E-03    -14.6851E-03     8.68074E-03
            1753     1.77374E-03     36.8330E-03    -12.7844E+06    -65.4456E+06    -11.2635E+06     97.5165E+03    -14.7510E-03     29.4775E-03    -14.7265E-03     5.75403E-03    -14.7037E-03     29.1852E-03    -14.6694E-03     5.75447E-03
            1754     886.952E-06     36.8289E-03    -13.2634E+06    -65.4963E+06    -12.8502E+06     340.947E+03    -14.7141E-03     29.4263E-03    -14.7122E-03     3.07835E-03    -14.6668E-03     29.1368E-03    -14.6622E-03     3.08232E-03
            1755     16.8376E-03     36.6401E-03    -3.89559E+06     147.536E+06     47.3075E+06     214.049E+03    -26.4235E-03     41.9496E-03    -15.5261E-03     236.592E-03    -32.1046E-03     48.0034E-03    -15.4978E-03     240.695E-03
            1756     15.9514E-03     36.4486E-03    -4.79187E+06     84.1603E+06    -8.37639E+06     343.083E+03    -22.1169E-03     37.3984E-03    -15.2816E-03     162.806E-03    -23.8850E-03     39.4726E-03    -15.4385E-03     163.303E-03
            1757     15.0664E-03     36.3347E-03    -4.53507E+06     21.6822E+06    -11.9945E+06     288.865E+03    -18.6552E-03     33.9492E-03    -15.2940E-03     95.8415E-03    -18.9503E-03     34.3399E-03    -15.3788E-03     95.8136E-03
            1758     14.1813E-03     36.2698E-03    -4.03815E+06    -18.5779E+06    -11.2225E+06     118.470E+03    -17.2194E-03     32.5158E-03    -15.2964E-03     62.3078E-03    -17.2715E-03     32.5201E-03    -15.3197E-03     62.2656E-03
            1759     13.2953E-03     36.2177E-03    -3.30232E+06    -35.2756E+06    -9.54767E+06    -318.748E+03    -17.0758E-03     32.3421E-03    -15.2663E-03     57.1056E-03    -17.0704E-03     32.2274E-03    -15.2581E-03     57.0643E-03
            1760     12.4102E-03     36.1621E-03    -3.70305E+06    -36.8643E+06    -465.613E+03    -156.043E+03    -16.9223E-03     32.1705E-03    -15.2482E-03     54.3918E-03    -16.9139E-03     32.0195E-03    -15.1917E-03     54.3611E-03
            1761     11.5242E-03     36.1152E-03    -4.23090E+06    -42.6405E+06    -1.25870E+06     469.619E+03    -16.6315E-03     31.8161E-03    -15.1846E-03     47.2907E-03    -16.6047E-03     31.6265E-03    -15.1229E-03     47.2756E-03
            1762     10.6388E-03     36.0728E-03    -3.98930E+06    -54.5949E+06    -2.98326E+06     475.109E+03    -16.4422E-03     31.5644E-03    -15.1222E-03     42.6629E-03    -16.3885E-03     31.3113E-03    -15.0521E-03     42.6533E-03
            1763     9.75271E-03     36.0344E-03    -4.52179E+06    -57.5880E+06     821.121E+03     204.941E+03    -16.1986E-03     31.2730E-03    -15.0745E-03     38.2288E-03    -16.1450E-03     30.9966E-03    -14.9803E-03     38.2199E-03
            1764     8.86688E-03     36.0001E-03    -5.62748E+06    -58.0553E+06     974.894E+03     900.012E+03    -15.9588E-03     30.9655E-03    -15.0067E-03     33.9024E-03    -15.9080E-03     30.6859E-03    -14.9095E-03     33.9055E-03
            1765     7.98062E-03     35.9698E-03    -5.93627E+06    -61.5776E+06     1.79171E+06     1.21773E+06    -15.7309E-03     30.6784E-03    -14.9475E-03     29.6260E-03    -15.6764E-03     30.3790E-03    -14.8407E-03     29.6353E-03
            1766     7.09448E-03     35.9435E-03    -5.54246E+06    -60.6536E+06      2.3795E+06     591.770E+03    -15.5021E-03     30.3855E-03    -14.8834E-03     25.5581E-03    -15.4470E-03     30.0884E-03    -14.7755E-03     25.5609E-03
            1767     6.20792E-03     35.9209E-03    -5.93795E+06    -58.6695E+06     836.852E+03     523.183E+03    -15.2787E-03     30.0930E-03    -14.8143E-03     21.7324E-03    -15.2256E-03     29.8082E-03    -14.7164E-03     21.7355E-03
            1768     5.32145E-03     35.9018E-03    -7.45924E+06    -61.6828E+06    -1.31192E+06     781.692E+03    -15.0879E-03     29.8468E-03    -14.7588E-03     18.1143E-03    -15.0346E-03     29.5518E-03    -14.6651E-03     18.1215E-03
            1769     4.43463E-03     35.8860E-03    -9.32412E+06    -63.1037E+06    -3.58027E+06     630.663E+03    -14.9234E-03     29.6324E-03    -14.7090E-03     14.7219E-03    -14.8737E-03     29.3360E-03    -14.6219E-03     14.7278E-03
            1770     3.54791E-03     35.8734E-03    -10.8405E+06    -60.3727E+06    -6.58852E+06     357.953E+03    -14.7851E-03     29.4428E-03    -14.6576E-03     11.5468E-03    -14.7425E-03     29.1665E-03    -14.5873E-03     11.5498E-03
            1771     2.66093E-03     35.8637E-03    -11.9906E+06    -62.6998E+06    -9.00829E+06     220.447E+03    -14.6911E-03     29.3155E-03    -14.6244E-03     8.52856E-03    -14.6473E-03     29.0326E-03    -14.5611E-03     8.53018E-03
            1772     1.77405E-03     35.8569E-03    -13.0734E+06    -65.4916E+06    -11.3583E+06     242.288E+03    -14.6266E-03     29.2264E-03    -14.5998E-03     5.66477E-03    -14.5806E-03     28.9345E-03    -14.5427E-03     5.66710E-03
            1773     886.968E-06     35.8527E-03    -14.0577E+06    -65.0674E+06    -13.5011E+06     317.588E+03    -14.5808E-03     29.1644E-03    -14.5836E-03     3.00535E-03    -14.5371E-03     28.8791E-03    -14.5364E-03     3.00904E-03
            1774     16.8368E-03     35.6610E-03    -3.96747E+06     147.059E+06     46.6714E+06     206.991E+03    -26.5724E-03     42.0903E-03    -15.5179E-03     236.266E-03    -32.2347E-03     48.1252E-03    -15.4920E-03     240.334E-03
            1775     15.9522E-03     35.4693E-03    -4.94346E+06     84.0631E+06    -9.01436E+06     437.405E+03    -22.2783E-03     37.5403E-03    -15.2620E-03     162.073E-03    -24.0413E-03     39.6103E-03    -15.4218E-03     162.562E-03
            1776     15.0669E-03     35.3557E-03    -4.76171E+06     22.0393E+06    -12.3008E+06     79.3651E+03    -18.7658E-03     34.0297E-03    -15.2639E-03     95.0993E-03    -19.0593E-03     34.4202E-03    -15.3505E-03     95.0679E-03
            1777     14.1815E-03     35.2910E-03    -4.46215E+06    -18.1711E+06    -11.4305E+06    -155.613E+03    -17.3729E-03     32.6283E-03    -15.2554E-03     61.9973E-03    -17.4269E-03     32.6352E-03    -15.2797E-03     61.9511E-03
            1778     13.2966E-03     35.2393E-03    -4.09804E+06    -35.1695E+06    -9.91163E+06    -31.5006E+03    -17.1571E-03     32.3716E-03    -15.2145E-03     57.0485E-03    -17.1551E-03     32.2590E-03    -15.2071E-03     57.0108E-03
            1779     12.4106E-03     35.1838E-03    -4.18856E+06    -37.3601E+06    -974.167E+03     251.565E+03    -16.9743E-03     32.1616E-03    -15.1873E-03     54.1794E-03    -16.9666E-03     32.0093E-03    -15.1320E-03     54.1541E-03
            1780     11.5253E-03     35.1371E-03    -4.40850E+06    -43.0026E+06    -1.54122E+06     413.423E+03    -16.6829E-03     31.7980E-03    -15.1151E-03     47.0043E-03    -16.6559E-03     31.6072E-03    -15.0541E-03     46.9887E-03
            1781     10.6394E-03     35.0948E-03    -4.97099E+06    -54.2986E+06    -3.33221E+06     503.034E+03    -16.4703E-03     31.5131E-03    -15.0428E-03     42.3434E-03    -16.4212E-03     31.2633E-03    -14.9735E-03     42.3343E-03
            1782     9.75376E-03     35.0567E-03    -5.76587E+06    -57.8499E+06     382.473E+03     858.414E+03    -16.2077E-03     31.1936E-03    -14.9859E-03     37.8859E-03    -16.1593E-03     30.9182E-03    -14.8918E-03     37.8856E-03
            1783     8.86762E-03     35.0226E-03    -6.48098E+06    -58.3034E+06    -28.1852E+03     823.439E+03    -15.9379E-03     30.8434E-03    -14.9055E-03     33.5639E-03    -15.8896E-03     30.5652E-03    -14.8117E-03     33.5662E-03
            1784     7.98160E-03     34.9926E-03    -6.39877E+06    -60.4902E+06    -113.106E+03    -115.234E+03    -15.6775E-03     30.5093E-03    -14.8318E-03     29.3249E-03    -15.6241E-03     30.2187E-03    -14.7354E-03     29.3172E-03
            1785     7.09513E-03     34.9665E-03    -6.41491E+06    -60.8440E+06    -200.772E+03    -339.878E+03    -15.4287E-03     30.1896E-03    -14.7609E-03     25.2668E-03    -15.3738E-03     29.8965E-03    -14.6644E-03     25.2577E-03
            1786     6.20875E-03     34.9441E-03    -7.19063E+06    -59.5102E+06    -840.993E+03     726.715E+03    -15.1980E-03     29.8903E-03    -14.6922E-03     21.4294E-03    -15.1475E-03     29.6054E-03    -14.5997E-03     21.4351E-03
            1787     5.32198E-03     34.9252E-03    -8.31156E+06    -61.3340E+06    -1.55202E+06     1.23448E+06    -14.9994E-03     29.6345E-03    -14.6352E-03     17.8236E-03    -14.9504E-03     29.3428E-03    -14.5419E-03     17.8367E-03
            1788     4.43531E-03     34.9097E-03    -9.38131E+06    -62.5246E+06    -3.02030E+06     872.465E+03    -14.8228E-03     29.4039E-03    -14.5810E-03     14.4664E-03    -14.7751E-03     29.1097E-03    -14.4919E-03     14.4755E-03
            1789     3.54831E-03     34.8972E-03    -10.4956E+06    -59.9595E+06    -6.08556E+06     480.507E+03    -14.6645E-03     29.1883E-03    -14.5238E-03     11.3456E-03    -14.6215E-03     28.9128E-03    -14.4520E-03     11.3501E-03
            1790     2.66138E-03     34.8877E-03    -11.5715E+06    -62.5760E+06    -8.74267E+06     285.812E+03    -14.5630E-03     29.0490E-03    -14.4860E-03     8.37760E-03    -14.5176E-03     28.7658E-03    -14.4222E-03     8.38009E-03
            1791     1.77423E-03     34.8809E-03    -12.5127E+06    -65.4324E+06    -10.5931E+06     353.243E+03    -14.4940E-03     28.9540E-03    -14.4600E-03     5.55832E-03    -14.4464E-03     28.6604E-03    -14.3999E-03     5.56210E-03
            1792     887.189E-06     34.8768E-03    -13.2151E+06    -64.5329E+06    -12.4749E+06     292.591E+03    -14.4479E-03     28.8793E-03    -14.4314E-03     2.95649E-03    -14.4023E-03     28.5940E-03    -14.3810E-03     2.95985E-03
            1793     16.8371E-03     34.6800E-03    -3.91587E+06     146.874E+06     46.6407E+06     193.704E+03    -26.7997E-03     42.3037E-03    -15.5041E-03     235.569E-03    -32.4248E-03     48.3011E-03    -15.4781E-03     239.591E-03
            1794     15.9527E-03     34.4902E-03    -5.21238E+06     83.5869E+06    -9.39169E+06     236.678E+03    -22.5108E-03     37.7417E-03    -15.2309E-03     161.313E-03    -24.2604E-03     39.7968E-03    -15.3915E-03     161.785E-03
            1795     15.0677E-03     34.3767E-03    -4.56323E+06     22.6356E+06    -11.9697E+06     251.738E+03    -18.7611E-03     33.9848E-03    -15.2237E-03     94.6074E-03    -19.0521E-03     34.3747E-03    -15.3098E-03     94.5775E-03
            1796     14.1824E-03     34.3124E-03    -4.52334E+06    -17.7545E+06    -11.4006E+06     101.206E+03    -17.3200E-03     32.5328E-03    -15.2128E-03     61.8853E-03    -17.3742E-03     32.5409E-03    -15.2375E-03     61.8428E-03
            1797     13.2965E-03     34.2607E-03    -4.37536E+06    -35.4955E+06    -10.3362E+06     82.7291E+03    -17.3016E-03     32.4662E-03    -15.1646E-03     56.8963E-03    -17.2998E-03     32.3528E-03    -15.1585E-03     56.8598E-03
            1798     12.4117E-03     34.2054E-03    -4.26377E+06    -37.5209E+06    -1.09408E+06     299.794E+03    -17.1004E-03     32.2252E-03    -15.1248E-03     53.8521E-03    -17.0925E-03     32.0721E-03    -15.0697E-03     53.8273E-03
            1799     11.5259E-03     34.1590E-03    -4.69463E+06    -43.1553E+06    -1.99808E+06     552.968E+03    -16.7472E-03     31.7857E-03    -15.0385E-03     46.6559E-03    -16.7205E-03     31.5949E-03    -14.9791E-03     46.6421E-03
            1800     10.6405E-03     34.1169E-03    -4.93900E+06    -54.5155E+06    -3.73008E+06     899.000E+03    -16.5084E-03     31.4633E-03    -14.9549E-03     41.9746E-03    -16.4581E-03     31.2127E-03    -14.8873E-03     41.9708E-03
            1801     9.75453E-03     34.0791E-03    -5.41797E+06    -58.1588E+06    -11.7917E+03     1.18125E+06    -16.2131E-03     31.1006E-03    -14.8875E-03     37.5065E-03    -16.1618E-03     30.8236E-03    -14.7953E-03     37.5106E-03
            1802     8.86869E-03     34.0453E-03    -5.75921E+06    -56.9734E+06    -738.830E+03     474.027E+03    -15.9110E-03     30.7046E-03    -14.7936E-03     33.1924E-03    -15.8598E-03     30.4329E-03    -14.7063E-03     33.1903E-03
            1803     7.98237E-03     34.0156E-03    -6.34586E+06    -59.7052E+06    -1.50719E+06    -507.171E+03    -15.6295E-03     30.3398E-03    -14.7103E-03     28.9605E-03    -15.5749E-03     30.0551E-03    -14.6220E-03     28.9479E-03
            1804     7.09611E-03     33.9897E-03    -7.59563E+06    -61.9994E+06    -1.74145E+06    -76.4070E+03    -15.3668E-03     30.0020E-03    -14.6352E-03     24.8931E-03    -15.3139E-03     29.7071E-03    -14.5430E-03     24.8875E-03
            1805     6.20943E-03     33.9676E-03    -8.69456E+06    -60.1575E+06    -1.85022E+06     586.894E+03    -15.1174E-03     29.6780E-03    -14.5606E-03     21.0741E-03    -15.0719E-03     29.3935E-03    -14.4701E-03     21.0781E-03
            1806     5.32283E-03     33.9489E-03    -9.07362E+06    -60.9910E+06    -1.58529E+06     619.521E+03    -14.8996E-03     29.3976E-03    -14.4980E-03     17.5046E-03    -14.8549E-03     29.1088E-03    -14.4043E-03     17.5098E-03
            1807     4.43586E-03     33.9336E-03    -9.65173E+06    -62.0630E+06    -2.80875E+06     533.919E+03    -14.7029E-03     29.1405E-03    -14.4376E-03     14.1926E-03    -14.6575E-03     28.8487E-03    -14.3477E-03     14.1973E-03
            1808     3.54893E-03     33.9213E-03    -10.6129E+06    -59.5684E+06    -5.84656E+06     390.731E+03    -14.5298E-03     28.9051E-03    -14.3753E-03     11.1289E-03    -14.4883E-03     28.6314E-03    -14.3028E-03     11.1323E-03
            1809     2.66171E-03     33.9118E-03    -11.6463E+06    -62.5130E+06    -8.58041E+06     359.325E+03    -14.4175E-03     28.7515E-03    -14.3340E-03     8.22208E-03    -14.3727E-03     28.4684E-03    -14.2694E-03     8.22554E-03
            1810     1.77458E-03     33.9052E-03    -12.6809E+06    -65.1863E+06    -10.8788E+06     332.529E+03    -14.3415E-03     28.6446E-03    -14.3031E-03     5.44863E-03    -14.2946E-03     28.3529E-03    -14.2446E-03     5.45215E-03
            1811     887.252E-06     33.9012E-03    -13.4038E+06    -64.0935E+06    -12.7771E+06     50.7642E+03    -14.2989E-03     28.5638E-03    -14.2649E-03     2.91959E-03    -14.2544E-03     28.2814E-03    -14.2164E-03     2.91985E-03
            1812     16.8382E-03     33.7014E-03    -3.78923E+06     146.440E+06     45.9153E+06     389.890E+03    -27.1210E-03     42.6007E-03    -15.4797E-03     235.213E-03    -32.7125E-03     48.5655E-03    -15.4570E-03     239.193E-03
            1813     15.9529E-03     33.5096E-03    -4.79561E+06     83.4906E+06    -9.72677E+06     380.761E+03    -22.4914E-03     37.6887E-03    -15.1973E-03     160.725E-03    -24.2223E-03     39.7272E-03    -15.3601E-03     161.187E-03
            1814     15.0684E-03     33.3983E-03    -4.77663E+06     22.9633E+06    -11.9395E+06     237.783E+03    -18.7659E-03     33.9554E-03    -15.1895E-03     94.2401E-03    -19.0554E-03     34.3440E-03    -15.2755E-03     94.2097E-03
            1815     14.1825E-03     33.3339E-03    -4.34506E+06    -17.1963E+06    -11.2715E+06     266.675E+03    -17.5096E-03     32.6785E-03    -15.1690E-03     61.9061E-03    -17.5640E-03     32.6892E-03    -15.1941E-03     61.8651E-03
            1816     13.2979E-03     33.2818E-03    -4.01788E+06    -35.6472E+06    -10.3345E+06     231.507E+03    -17.4406E-03     32.5474E-03    -15.1068E-03     56.4706E-03    -17.4364E-03     32.4324E-03    -15.1010E-03     56.4358E-03
            1817     12.4122E-03     33.2271E-03    -4.17451E+06    -37.7662E+06    -1.30900E+06     397.244E+03    -17.1931E-03     32.2465E-03    -15.0534E-03     53.3704E-03    -17.1837E-03     32.0920E-03    -14.9991E-03     53.3469E-03
            1818     11.5271E-03     33.1808E-03    -4.31010E+06    -43.2032E+06    -2.08695E+06     592.363E+03    -16.8205E-03     31.7748E-03    -14.9544E-03     46.2267E-03    -16.7914E-03     31.5832E-03    -14.8959E-03     46.2135E-03
            1819     10.6413E-03     33.1392E-03    -4.30719E+06    -54.9287E+06    -3.86081E+06     867.079E+03    -16.5408E-03     31.3997E-03    -14.8589E-03     41.5473E-03    -16.4864E-03     31.1462E-03    -14.7923E-03     41.5432E-03
            1820     9.75571E-03     33.1016E-03    -3.78856E+06    -57.7260E+06     226.315E+03     709.303E+03    -16.2194E-03     30.9993E-03    -14.7800E-03     37.0666E-03    -16.1607E-03     30.7217E-03    -14.6897E-03     37.0647E-03
            1821     8.86957E-03     33.0682E-03    -3.61698E+06    -56.1067E+06     286.375E+03     327.679E+03    -15.8950E-03     30.5736E-03    -14.6786E-03     32.7314E-03    -15.8358E-03     30.3015E-03    -14.5906E-03     32.7276E-03
            1822     7.98346E-03     33.0387E-03    -4.86254E+06    -59.8960E+06     284.880E+03     728.863E+03    -15.5985E-03     30.1897E-03    -14.5912E-03     28.4804E-03    -15.5387E-03     29.8992E-03    -14.4959E-03     28.4838E-03
            1823     7.09696E-03     33.0132E-03    -6.86632E+06    -62.2883E+06    -90.9330E+03     853.832E+03    -15.3103E-03     29.8163E-03    -14.5060E-03     24.4368E-03    -15.2557E-03     29.5164E-03    -14.4062E-03     24.4432E-03
            1824     6.21047E-03     32.9913E-03    -8.05368E+06    -59.7456E+06    -1.22676E+06     211.783E+03    -15.0253E-03     29.4414E-03    -14.4161E-03     20.6825E-03    -14.9781E-03     29.1571E-03    -14.3239E-03     20.6818E-03
            1825     5.32355E-03     32.9729E-03    -8.84448E+06    -61.0109E+06    -1.91447E+06    -112.013E+03    -14.7780E-03     29.1211E-03    -14.3431E-03     17.1680E-03    -14.7316E-03     28.8323E-03    -14.2514E-03     17.1639E-03
            1826     4.43665E-03     32.9578E-03    -9.75056E+06    -62.0790E+06    -2.99702E+06     91.1948E+03    -14.5666E-03     28.8454E-03    -14.2788E-03     13.9030E-03    -14.5214E-03     28.5539E-03    -14.1896E-03     13.9020E-03
            1827     3.54942E-03     32.9457E-03    -10.8178E+06    -59.4207E+06    -5.88746E+06     250.874E+03    -14.3843E-03     28.5965E-03    -14.2122E-03     10.8926E-03    -14.3439E-03     28.3238E-03    -14.1398E-03     10.8943E-03
            1828     2.66223E-03     32.9364E-03    -11.9551E+06    -62.5633E+06    -8.55567E+06     374.372E+03    -14.2568E-03     28.4245E-03    -14.1677E-03     8.04270E-03    -14.2136E-03     28.1415E-03    -14.1024E-03     8.04639E-03
            1829     1.77481E-03     32.9298E-03    -12.9757E+06    -64.6909E+06    -11.1870E+06     380.680E+03    -14.1708E-03     28.3038E-03    -14.1330E-03     5.33020E-03    -14.1257E-03     28.0154E-03    -14.0763E-03     5.33437E-03
            1830     887.464E-06     32.9259E-03    -13.6880E+06    -63.8489E+06    -13.3927E+06     53.8700E+03    -14.1311E-03     28.2232E-03    -14.0921E-03     2.85501E-03    -14.0875E-03     27.9433E-03    -14.0466E-03     2.85532E-03
            1831     16.8375E-03     32.7198E-03    -3.74221E+06     146.084E+06     45.8453E+06     263.732E+03    -27.3774E-03     42.8484E-03    -15.4710E-03     234.745E-03    -32.9545E-03     48.7978E-03    -15.4482E-03     238.688E-03
            1832     15.9542E-03     32.5307E-03    -4.77761E+06     83.4230E+06    -9.84136E+06     463.613E+03    -22.5553E-03     37.7318E-03    -15.1765E-03     159.947E-03    -24.2678E-03     39.7520E-03    -15.3397E-03     160.403E-03
            1833     15.0679E-03     32.4196E-03    -4.19759E+06     23.2445E+06    -12.0224E+06     570.925E+03    -18.9945E-03     34.1501E-03    -15.1556E-03     93.9388E-03    -19.2791E-03     34.5371E-03    -15.2433E-03     93.9112E-03
            1834     14.1838E-03     32.3545E-03    -4.37494E+06    -17.0409E+06    -11.6345E+06     425.951E+03    -17.8517E-03     32.9658E-03    -15.1141E-03     61.4563E-03    -17.9058E-03     32.9775E-03    -15.1412E-03     61.4160E-03
            1835     13.2984E-03     32.3035E-03    -4.06737E+06    -35.6203E+06    -10.4638E+06     295.417E+03    -17.5378E-03     32.5723E-03    -15.0345E-03     56.0051E-03    -17.5331E-03     32.4570E-03    -15.0293E-03     55.9712E-03
            1836     12.4136E-03     32.2484E-03    -3.71878E+06    -38.0668E+06    -1.33231E+06     401.571E+03    -17.2293E-03     32.2000E-03    -14.9707E-03     52.8991E-03    -17.2167E-03     32.0430E-03    -14.9168E-03     52.8759E-03
            1837     11.5280E-03     32.2029E-03    -3.87355E+06    -43.3468E+06    -2.50035E+06     669.917E+03    -16.8693E-03     31.7286E-03    -14.8592E-03     45.7608E-03    -16.8370E-03     31.5359E-03    -14.8033E-03     45.7488E-03
            1838     10.6426E-03     32.1613E-03    -3.85505E+06    -54.8667E+06    -4.34934E+06     592.263E+03    -16.5821E-03     31.3331E-03    -14.7510E-03     41.0767E-03    -16.5246E-03     31.0798E-03    -14.6876E-03     41.0693E-03
            1839     9.75672E-03     32.1242E-03    -3.98223E+06    -57.0446E+06    -92.4213E+03     176.935E+03    -16.2262E-03     30.8866E-03    -14.6604E-03     36.5748E-03    -16.1689E-03     30.6130E-03    -14.5724E-03     36.5662E-03
            1840     8.87085E-03     32.0910E-03    -4.72058E+06    -56.8088E+06     333.413E+03     573.762E+03    -15.8801E-03     30.4318E-03    -14.5516E-03     32.2189E-03    -15.8254E-03     30.1576E-03    -14.4607E-03     32.2184E-03
            1841     7.98454E-03     32.0620E-03    -5.53025E+06    -60.4538E+06     781.837E+03     1.52543E+06    -15.5499E-03     30.0034E-03    -14.4535E-03     27.9787E-03    -15.4932E-03     29.7102E-03    -14.3539E-03     27.9925E-03
            1842     7.09818E-03     32.0367E-03    -6.01511E+06    -61.0983E+06     708.446E+03     1.15136E+06    -15.2279E-03     29.5826E-03    -14.3546E-03     23.9822E-03    -15.1719E-03     29.2862E-03    -14.2538E-03     23.9926E-03
            1843     6.21138E-03     32.0152E-03    -6.92503E+06    -59.1399E+06    -714.061E+03     302.382E+03    -14.9160E-03     29.1714E-03    -14.2554E-03     20.2633E-03    -14.8648E-03     28.8878E-03    -14.1632E-03     20.2638E-03
            1844     5.32453E-03     31.9971E-03    -8.31251E+06    -60.9034E+06    -2.00098E+06     -17.491E+03    -14.6455E-03     28.8198E-03    -14.1744E-03     16.7960E-03    -14.5964E-03     28.5309E-03    -14.0840E-03     16.7932E-03
            1845     4.43733E-03     31.9823E-03    -9.75026E+06    -62.3477E+06    -3.30271E+06    -98.4729E+03    -14.4195E-03     28.5239E-03    -14.1045E-03     13.5836E-03    -14.3734E-03     28.2315E-03    -14.0165E-03     13.5803E-03
            1846     3.55013E-03     31.9704E-03    -10.9444E+06    -59.5356E+06    -6.11304E+06     131.977E+03    -14.2237E-03     28.2568E-03    -14.0331E-03     10.6297E-03    -14.1834E-03     27.9841E-03    -13.9615E-03     10.6298E-03
            1847     2.66265E-03     31.9612E-03    -11.9807E+06    -62.6120E+06    -8.62530E+06     308.500E+03    -14.0841E-03     28.0690E-03    -13.9850E-03     7.84026E-03    -14.0408E-03     27.7860E-03    -13.9199E-03     7.84313E-03
            1848     1.77520E-03     31.9548E-03    -12.9145E+06    -64.2970E+06    -11.0391E+06     347.154E+03    -13.9870E-03     27.9354E-03    -13.9484E-03     5.20820E-03    -13.9424E-03     27.6487E-03    -13.8916E-03     5.21196E-03
            1849     887.576E-06     31.9509E-03    -13.5858E+06    -63.4692E+06    -13.1889E+06     257.771E+03    -13.9310E-03     27.8528E-03    -13.9218E-03     2.79110E-03    -13.8877E-03     27.5744E-03    -13.8760E-03     2.79405E-03
            1850     16.8383E-03     31.7379E-03    -3.75545E+06     145.796E+06     46.1062E+06     40.4687E+03    -27.4398E-03     42.9032E-03    -15.4634E-03     233.698E-03    -32.9830E-03     48.8169E-03    -15.4388E-03     237.592E-03
            1851     15.9531E-03     31.5520E-03    -4.86822E+06     83.4810E+06     -9.6933E+06     360.311E+03    -22.8100E-03     37.9632E-03    -15.1532E-03     158.599E-03    -24.4990E-03     39.9594E-03    -15.3157E-03     159.042E-03
            1852     15.0696E-03     31.4395E-03    -4.50898E+06     23.2972E+06    -12.5538E+06     743.754E+03    -19.3875E-03     34.4923E-03    -15.1048E-03     93.3629E-03    -19.6714E-03     34.8793E-03    -15.1948E-03     93.3341E-03
            1853     14.1843E-03     31.3759E-03    -3.77988E+06    -16.9282E+06    -11.8762E+06     771.995E+03    -17.9443E-03     32.9886E-03    -15.0443E-03     60.8761E-03    -17.9940E-03     32.9992E-03    -15.0737E-03     60.8403E-03
            1854     13.2999E-03     31.3243E-03    -3.50183E+06    -35.4528E+06    -10.6174E+06     520.812E+03    -17.6151E-03     32.5693E-03    -14.9542E-03     55.5986E-03    -17.6070E-03     32.4538E-03    -14.9509E-03     55.5677E-03
            1855     12.4145E-03     31.2704E-03    -3.92128E+06    -38.4011E+06    -2.07696E+06     553.479E+03    -17.2998E-03     32.1776E-03    -14.8777E-03     52.4975E-03    -17.2862E-03     32.0198E-03    -14.8268E-03     52.4764E-03
            1856     11.5293E-03     31.2246E-03    -4.33086E+06    -43.4656E+06    -3.25972E+06     797.034E+03    -16.9235E-03     31.6773E-03    -14.7537E-03     45.2974E-03    -16.8919E-03     31.4854E-03    -14.7007E-03     45.2872E-03
            1857     10.6437E-03     31.1837E-03    -4.57103E+06    -54.3410E+06    -4.68891E+06     596.868E+03    -16.6188E-03     31.2523E-03    -14.6335E-03     40.5155E-03    -16.5649E-03     31.0029E-03    -14.5716E-03     40.5082E-03
            1858     9.75810E-03     31.1468E-03    -5.22598E+06    -56.9729E+06    -571.294E+03     560.092E+03    -16.2330E-03     30.7628E-03    -14.5298E-03     36.0268E-03    -16.1812E-03     30.4918E-03    -14.4425E-03     36.0232E-03
            1859     8.87203E-03     31.1142E-03    -6.30856E+06    -57.7851E+06    -458.436E+03     1.08893E+06    -15.8504E-03     30.2586E-03    -14.4081E-03     31.6709E-03    -15.8009E-03     29.9829E-03    -14.3175E-03     31.6772E-03
            1860     7.98586E-03     31.0854E-03    -6.90829E+06    -60.1768E+06    -781.285E+03     1.05121E+06    -15.4800E-03     29.7722E-03    -14.2922E-03     27.4801E-03    -15.4283E-03     29.4846E-03    -14.1989E-03     27.4879E-03
            1861     7.09924E-03     31.0606E-03    -7.00011E+06    -60.1044E+06    -729.366E+03     523.573E+03    -15.1252E-03     29.3076E-03    -14.1825E-03     23.5127E-03    -15.0733E-03     29.0197E-03    -14.0888E-03     23.5151E-03
            1862     6.21254E-03     31.0394E-03    -7.33073E+06    -58.9646E+06    -1.04700E+06     416.445E+03    -14.7955E-03     28.8758E-03    -14.0803E-03     19.8076E-03    -14.7460E-03     28.5940E-03    -13.9894E-03     19.8096E-03
            1863     5.32543E-03     31.0217E-03    -8.27321E+06    -60.4988E+06    -1.89222E+06     292.262E+03    -14.5057E-03     28.4980E-03    -13.9924E-03     16.3882E-03    -14.4571E-03     28.2109E-03    -13.9021E-03     16.3894E-03
            1864     4.43826E-03     31.0071E-03    -9.57387E+06    -62.3695E+06    -3.38917E+06     30.9808E+03    -14.2589E-03     28.1741E-03    -13.9151E-03     13.2440E-03    -14.2118E-03     27.8814E-03    -13.8278E-03     13.2424E-03
            1865     3.55076E-03     30.9954E-03    -10.8664E+06    -59.7884E+06    -6.31989E+06     46.6245E+03    -14.0467E-03     27.8852E-03    -13.8385E-03     10.3531E-03    -14.0054E-03     27.6114E-03    -13.7676E-03     10.3522E-03
            1866     2.66324E-03     30.9865E-03    -11.9503E+06    -62.6188E+06    -8.74222E+06     245.096E+03    -13.8977E-03     27.6840E-03    -13.7863E-03     7.63231E-03    -13.8541E-03     27.4011E-03    -13.7219E-03     7.63440E-03
            1867     1.77551E-03     30.9802E-03    -12.9258E+06    -64.0787E+06    -11.0758E+06     291.456E+03    -13.7887E-03     27.5357E-03    -13.7470E-03     5.07093E-03    -13.7444E-03     27.2501E-03    -13.6907E-03     5.07399E-03
            1868     887.790E-06     30.9763E-03    -13.5494E+06    -63.0365E+06    -13.1044E+06     237.013E+03    -13.7284E-03     27.4486E-03    -13.7202E-03     2.73204E-03    -13.6857E-03     27.1721E-03    -13.6746E-03     2.73473E-03
            1869     16.8382E-03     30.7585E-03    -3.57344E+06     145.870E+06     46.2186E+06     105.542E+03    -27.7713E-03     43.2144E-03    -15.4431E-03     232.758E-03    -33.2653E-03     49.0794E-03    -15.4183E-03     236.594E-03
            1870     15.9549E-03     30.5711E-03    -5.15947E+06     83.4129E+06    -9.81401E+06     299.440E+03    -23.1350E-03     38.2448E-03    -15.1098E-03     157.603E-03    -24.8029E-03     40.2189E-03    -15.2723E-03     158.024E-03
            1871     15.0701E-03     30.4605E-03    -4.87051E+06     23.1211E+06    -12.9664E+06      304.55E+03    -19.5160E-03     34.5577E-03    -15.0417E-03     92.7145E-03    -19.7981E-03     34.9422E-03    -15.1330E-03     92.6785E-03
            1872     14.1858E-03     30.3965E-03    -3.78045E+06    -17.3966E+06    -12.0721E+06     569.916E+03    -17.9666E-03     32.9391E-03    -14.9724E-03     60.5462E-03    -18.0141E-03     32.9464E-03    -15.0021E-03     60.5080E-03
            1873     13.3005E-03     30.3459E-03    -3.47133E+06    -35.7572E+06    -10.0740E+06     1.48224E+06    -17.7149E-03     32.5912E-03    -14.8763E-03     55.2322E-03    -17.7065E-03     32.4727E-03    -14.8697E-03     55.2137E-03
            1874     12.4158E-03     30.2918E-03    -4.30943E+06    -37.9105E+06    -1.37705E+06     1.39491E+06    -17.4453E-03     32.2297E-03    -14.7844E-03     51.9596E-03    -17.4350E-03     32.0735E-03    -14.7301E-03     51.9493E-03
            1875     11.5305E-03     30.2467E-03    -4.88634E+06    -43.2036E+06    -3.15140E+06     643.702E+03    -17.0066E-03     31.6471E-03    -14.6405E-03     44.7188E-03    -16.9780E-03     31.4570E-03    -14.5866E-03     44.7067E-03
            1876     10.6452E-03     30.2060E-03    -4.72337E+06    -54.2895E+06    -4.35290E+06     684.851E+03    -16.6402E-03     31.1463E-03    -14.5061E-03     39.9122E-03    -16.5874E-03     30.8967E-03    -14.4423E-03     39.9063E-03
            1877     9.75943E-03     30.1697E-03    -5.02541E+06    -57.2151E+06    -518.811E+03     1.05500E+06    -16.2309E-03     30.6181E-03    -14.3872E-03     35.4158E-03    -16.1777E-03     30.3454E-03    -14.2995E-03     35.4188E-03
            1878     8.87349E-03     30.1373E-03    -5.37182E+06    -57.9324E+06    -242.207E+03     1.11117E+06    -15.8136E-03     30.0658E-03    -14.2521E-03     31.0725E-03    -15.7595E-03     29.7875E-03    -14.1615E-03     31.0792E-03
            1879     7.98713E-03     30.1092E-03    -5.70178E+06    -59.3784E+06    -245.416E+03     799.346E+03    -15.4094E-03     29.5336E-03    -14.1242E-03     26.9015E-03    -15.3536E-03     29.2474E-03    -14.0310E-03     26.9062E-03
            1880     7.10060E-03     30.0847E-03    -6.55816E+06    -59.6629E+06    -650.667E+03     327.596E+03    -15.0231E-03     29.0262E-03    -14.0030E-03     22.9711E-03    -14.9698E-03     28.7396E-03    -13.9103E-03     22.9712E-03
            1881     6.21364E-03     30.0639E-03    -7.49769E+06    -59.0751E+06    -1.28652E+06     203.584E+03    -14.6647E-03     28.5561E-03    -13.8914E-03     19.3121E-03    -14.6156E-03     28.2743E-03    -13.8013E-03     19.3115E-03
            1882     5.32654E-03     30.0465E-03    -8.28927E+06    -60.2131E+06    -1.95141E+06     271.476E+03    -14.3504E-03     28.1457E-03    -13.7953E-03     15.9536E-03    -14.3023E-03     27.8601E-03    -13.7057E-03     15.9546E-03
            1883     4.43909E-03     30.0322E-03    -9.36806E+06    -62.1865E+06    -3.33838E+06     167.171E+03    -14.0837E-03     27.7953E-03    -13.7117E-03     12.8766E-03    -14.0359E-03     27.5032E-03    -13.6246E-03     12.8768E-03
            1884     3.55156E-03     30.0208E-03    -10.6304E+06    -59.9587E+06    -6.28969E+06     144.387E+03    -13.8561E-03     27.4863E-03    -13.6302E-03     10.0592E-03    -13.8134E-03     27.2112E-03    -13.5593E-03     10.0596E-03
            1885     2.66375E-03     30.0121E-03    -11.7907E+06    -62.6511E+06    -8.71500E+06     246.341E+03    -13.6962E-03     27.2700E-03    -13.5738E-03     7.41206E-03    -13.6518E-03     26.9866E-03    -13.5094E-03     7.41421E-03
            1886     1.77594E-03     30.0059E-03    -12.7505E+06    -63.8517E+06    -10.9968E+06     279.955E+03    -13.5819E-03     27.1119E-03    -13.5300E-03     4.92221E-03    -13.5372E-03     26.8271E-03    -13.4739E-03     4.92515E-03
            1887     887.956E-06     30.0022E-03    -13.4261E+06    -62.6617E+06    -12.9960E+06     156.321E+03    -13.5262E-03     27.0096E-03    -13.4833E-03     2.67992E-03    -13.4836E-03     26.7347E-03    -13.4380E-03     2.68158E-03
            1888     16.8388E-03     29.7760E-03    -3.84346E+06     145.721E+06     46.6511E+06     230.101E+03    -28.2351E-03     43.6588E-03    -15.4237E-03     231.866E-03    -33.6910E-03     49.4831E-03    -15.3962E-03     235.640E-03
            1889     15.9552E-03     29.5914E-03    -5.06978E+06     83.4102E+06    -9.24636E+06     388.841E+03    -23.3558E-03     38.4230E-03    -15.0672E-03     156.771E-03    -25.0001E-03     40.3722E-03    -15.2270E-03     157.178E-03
            1890     15.0714E-03     29.4806E-03    -4.75608E+06     23.2276E+06    -12.8604E+06     405.998E+03    -19.6114E-03     34.5941E-03    -14.9827E-03     92.1653E-03    -19.8899E-03     34.9754E-03    -15.0737E-03     92.1292E-03
            1891     14.1864E-03     29.4180E-03    -5.03529E+06    -18.2542E+06    -12.4227E+06     623.185E+03    -18.1310E-03     33.0324E-03    -14.9014E-03     60.0641E-03    -18.1821E-03     33.0368E-03    -14.9297E-03     60.0261E-03
            1892     13.3020E-03     29.3668E-03    -4.81485E+06    -36.4432E+06    -10.4434E+06     1.35490E+06    -17.8932E-03     32.6807E-03    -14.7875E-03     54.7635E-03    -17.8896E-03     32.5608E-03    -14.7799E-03     54.7432E-03
            1893     12.4171E-03     29.3135E-03    -3.66997E+06    -36.7927E+06    -658.441E+03     1.39919E+06    -17.5821E-03     32.2588E-03    -14.6767E-03     51.2948E-03    -17.5709E-03     32.1058E-03    -14.6213E-03     51.2846E-03
            1894     11.5321E-03     29.2686E-03    -3.42708E+06    -42.6679E+06    -2.42637E+06     802.238E+03    -17.0792E-03     31.5944E-03    -14.5151E-03     44.0621E-03    -17.0448E-03     31.4034E-03    -14.4604E-03     44.0523E-03
            1895     10.6466E-03     29.2286E-03    -3.90759E+06    -54.7900E+06    -4.44251E+06     891.487E+03    -16.6634E-03     31.0273E-03    -14.3640E-03     39.2969E-03    -16.6054E-03     30.7739E-03    -14.3011E-03     39.2938E-03
            1896     9.76100E-03     29.1926E-03    -4.23556E+06    -57.2413E+06    -440.530E+03     1.18814E+06    -16.2185E-03     30.4497E-03    -14.2312E-03     34.7845E-03    -16.1612E-03     30.1755E-03    -14.1443E-03     34.7895E-03
            1897     8.87494E-03     29.1608E-03    -4.82856E+06    -57.6263E+06    -162.836E+03     1.09933E+06    -15.7722E-03     29.8546E-03    -14.0824E-03     30.4278E-03    -15.7157E-03     29.5769E-03    -13.9927E-03     30.4345E-03
            1898     7.98865E-03     29.1330E-03    -5.60140E+06    -58.8327E+06    -236.604E+03     852.080E+03    -15.3286E-03     29.2702E-03    -13.9416E-03     26.2816E-03    -15.2730E-03     28.9865E-03    -13.8493E-03     26.2872E-03
            1899     7.10190E-03     29.1091E-03    -6.31070E+06    -59.2139E+06    -623.821E+03     556.560E+03    -14.9093E-03     28.7183E-03    -13.8090E-03     22.3857E-03    -14.8553E-03     28.4335E-03    -13.7171E-03     22.3888E-03
            1900     6.21497E-03     29.0887E-03    -7.24952E+06    -59.0134E+06    -1.41141E+06     296.620E+03    -14.5193E-03     28.2067E-03    -13.6874E-03     18.7799E-03    -14.4687E-03     27.9250E-03    -13.5984E-03     18.7806E-03
            1901     5.32761E-03     29.0717E-03    -8.34601E+06    -60.1175E+06    -2.25491E+06     164.377E+03    -14.1797E-03     27.7624E-03    -13.5828E-03     15.4920E-03    -14.1315E-03     27.4778E-03    -13.4948E-03     15.4918E-03
            1902     4.44012E-03     29.0578E-03    -9.36751E+06    -62.0942E+06    -3.46567E+06     147.803E+03    -13.8950E-03     27.3882E-03    -13.4931E-03     12.4793E-03    -13.8471E-03     27.0966E-03    -13.4069E-03     12.4793E-03
            1903     3.55230E-03     29.0466E-03    -10.4440E+06    -60.0452E+06    -6.14690E+06     228.824E+03    -13.6512E-03     27.0586E-03    -13.4074E-03     9.74119E-03    -13.6076E-03     26.7826E-03    -13.3359E-03     9.74276E-03
            1904     2.66441E-03     29.0381E-03    -11.5283E+06    -62.6091E+06    -8.54775E+06     319.434E+03    -13.4800E-03     26.8265E-03    -13.3466E-03     7.17395E-03    -13.4345E-03     26.5427E-03    -13.2818E-03     7.17708E-03
            1905     1.77630E-03     29.0321E-03    -12.5121E+06    -63.6228E+06    -10.8534E+06     300.795E+03    -13.3616E-03     26.6591E-03    -13.2975E-03     4.76575E-03    -13.3162E-03     26.3749E-03    -13.2414E-03     4.76898E-03
            1906     888.212E-06     29.0284E-03    -13.1195E+06    -62.2725E+06    -12.8261E+06     210.793E+03    -13.2878E-03     26.5389E-03    -13.2512E-03     2.59734E-03    -13.2444E-03     26.2653E-03    -13.2060E-03     2.59971E-03
            1907     16.8392E-03     28.7945E-03    -3.84459E+06     145.311E+06     46.5440E+06      292.07E+03    -28.5571E-03     43.9624E-03    -15.4054E-03     230.947E-03    -33.9630E-03     49.7356E-03    -15.3778E-03     234.654E-03
            1908     15.9561E-03     28.6107E-03    -5.12281E+06     83.2845E+06    -9.29823E+06     607.576E+03    -23.6024E-03     38.6307E-03    -15.0283E-03     155.545E-03    -25.2233E-03     40.5560E-03    -15.1881E-03     155.936E-03
            1909     15.0718E-03     28.5011E-03    -5.37516E+06     23.2494E+06    -13.0046E+06     1.01276E+06    -19.8276E-03     34.7521E-03    -14.9245E-03     91.2748E-03    -20.1047E-03     35.1304E-03    -15.0155E-03     91.2444E-03
            1910     14.1879E-03     28.4386E-03    -5.22362E+06    -18.0488E+06    -12.6296E+06     1.01551E+06    -18.3675E-03     33.1900E-03    -14.8225E-03     59.6473E-03    -18.4188E-03     33.1952E-03    -14.8519E-03     59.6139E-03
            1911     13.3032E-03     28.3880E-03    -4.14066E+06    -36.3229E+06    -11.5736E+06     350.779E+03    -18.1297E-03     32.8109E-03    -14.6812E-03     54.3291E-03    -18.1207E-03     32.6918E-03    -14.6804E-03     54.2955E-03
            1912     12.4186E-03     28.3349E-03    -3.28969E+06    -36.9496E+06    -1.91528E+06     486.018E+03    -17.6839E-03     32.2348E-03    -14.5509E-03     50.6595E-03    -17.6681E-03     32.0817E-03    -14.5021E-03     50.6377E-03
            1913     11.5336E-03     28.2908E-03    -3.23758E+06    -42.6244E+06    -2.64869E+06     1.27574E+06    -17.1309E-03     31.5094E-03    -14.3785E-03     43.3845E-03    -17.0950E-03     31.3183E-03    -14.3252E-03     43.3810E-03
            1914     10.6483E-03     28.2511E-03    -3.58088E+06    -54.8139E+06    -4.77593E+06     1.37751E+06    -16.6948E-03     30.9057E-03    -14.2109E-03     38.6370E-03    -16.6344E-03     30.6519E-03    -14.1501E-03     38.6405E-03
            1915     9.76258E-03     28.2158E-03    -4.04860E+06    -57.2267E+06    -768.101E+03     1.32844E+06    -16.2099E-03     30.2726E-03    -14.0627E-03     34.1038E-03    -16.1510E-03     29.9984E-03    -13.9776E-03     34.1108E-03
            1916     8.87660E-03     28.1844E-03    -4.54763E+06    -57.2689E+06    -264.253E+03     1.34013E+06    -15.7215E-03     29.6212E-03    -13.8997E-03     29.7325E-03    -15.6639E-03     29.3449E-03    -13.8114E-03     29.7425E-03
            1917     7.99016E-03     28.1573E-03    -5.19421E+06    -58.3264E+06    -156.217E+03     1.05704E+06    -15.2444E-03     28.9901E-03    -13.7458E-03     25.6082E-03    -15.1875E-03     28.7082E-03    -13.6544E-03     25.6165E-03
            1918     7.10345E-03     28.1338E-03    -6.09442E+06    -58.8221E+06    -524.293E+03     728.081E+03    -14.7833E-03     28.3849E-03    -13.6016E-03     21.7517E-03    -14.7289E-03     28.1017E-03    -13.5101E-03     21.7571E-03
            1919     6.21626E-03     28.1140E-03    -6.99749E+06    -58.6816E+06    -1.19832E+06     468.424E+03    -14.3626E-03     27.8331E-03    -13.4705E-03     18.2069E-03    -14.3116E-03     27.5524E-03    -13.3812E-03     18.2100E-03
            1920     5.32887E-03     28.0973E-03    -7.93978E+06    -59.9436E+06    -2.03505E+06     222.378E+03    -13.9979E-03     27.3552E-03    -13.3573E-03     14.9913E-03    -13.9482E-03     27.0705E-03    -13.2691E-03     14.9918E-03
            1921     4.44110E-03     28.0837E-03    -9.12164E+06    -62.1443E+06    -3.46408E+06     159.213E+03    -13.6923E-03     26.9525E-03    -13.2601E-03     12.0591E-03    -13.6431E-03     26.6603E-03    -13.1741E-03     12.0594E-03
            1922     3.55320E-03     28.0729E-03    -10.3001E+06    -60.1050E+06    -6.15561E+06     269.459E+03    -13.4341E-03     26.6027E-03    -13.1685E-03     9.40284E-03    -13.3898E-03     26.3262E-03    -13.0972E-03     9.40500E-03
            1923     2.66501E-03     28.0646E-03    -11.3641E+06    -62.5472E+06    -8.44911E+06     387.840E+03    -13.2494E-03     26.3523E-03    -13.1029E-03     6.92284E-03    -13.2034E-03     26.0684E-03    -13.0380E-03     6.92690E-03
            1924     1.77679E-03     28.0587E-03    -12.3198E+06    -63.3192E+06    -10.7277E+06     382.855E+03    -13.1190E-03     26.1692E-03    -13.0502E-03     4.59789E-03    -13.0733E-03     25.8861E-03    -12.9941E-03     4.60222E-03
            1925     888.394E-06     28.0552E-03    -12.9175E+06    -61.8661E+06    -12.5782E+06     253.560E+03    -13.0295E-03     26.0423E-03    -13.0127E-03     2.48990E-03    -12.9861E-03     25.7700E-03    -12.9672E-03     2.49284E-03
            1926     16.8392E-03     27.8126E-03    -3.80033E+06     144.927E+06     46.4324E+06     473.002E+03    -28.8727E-03     44.2592E-03    -15.3866E-03     229.737E-03    -34.2171E-03     49.9701E-03    -15.3590E-03     233.381E-03
            1927     15.9564E-03     27.6294E-03    -5.32946E+06     82.7612E+06    -9.72611E+06     857.114E+03    -23.8790E-03     38.8653E-03    -14.9863E-03     154.141E-03    -25.4728E-03     40.7623E-03    -15.1472E-03     154.515E-03
            1928     15.0734E-03     27.5217E-03    -4.86787E+06     23.3057E+06    -13.0252E+06     1.09414E+06    -20.1172E-03     34.9772E-03    -14.8600E-03     90.3440E-03    -20.3879E-03     35.3511E-03    -14.9518E-03     90.3123E-03
            1929     14.1885E-03     27.4592E-03    -3.82929E+06    -17.0676E+06    -12.0621E+06     769.151E+03    -18.6359E-03     33.3711E-03    -14.7352E-03     59.1140E-03    -18.6814E-03     33.3774E-03    -14.7653E-03     59.0766E-03
            1930     13.3047E-03     27.4089E-03    -3.33412E+06    -35.8725E+06    -11.5074E+06     237.466E+03    -18.3003E-03     32.8722E-03    -14.5719E-03     53.6469E-03    -18.2873E-03     32.7534E-03    -14.5726E-03     53.6118E-03
            1931     12.4202E-03     27.3565E-03    -3.63870E+06    -37.9581E+06    -2.38247E+06     536.054E+03    -17.7904E-03     32.2144E-03    -14.4240E-03     49.8714E-03    -17.7736E-03     32.0568E-03    -14.3756E-03     49.8505E-03
            1932     11.5353E-03     27.3129E-03    -3.93722E+06    -43.0741E+06    -3.00938E+06     1.23259E+06    -17.1920E-03     31.4262E-03    -14.2342E-03     42.6622E-03    -17.1579E-03     31.2340E-03    -14.1811E-03     42.6585E-03
            1933     10.6500E-03     27.2738E-03    -3.66024E+06    -54.5304E+06    -4.91807E+06     1.50854E+06    -16.7345E-03     30.7827E-03    -14.0482E-03     37.8769E-03    -16.6744E-03     30.5304E-03    -13.9884E-03     37.8823E-03
            1934     9.76440E-03     27.2390E-03    -3.72787E+06    -57.2264E+06    -1.10791E+06     1.59325E+06    -16.1953E-03     30.0772E-03    -13.8818E-03     33.3316E-03    -16.1342E-03     29.8028E-03    -13.7990E-03     33.3423E-03
            1935     8.87827E-03     27.2084E-03     -4.3318E+06    -56.8802E+06    -498.278E+03     1.55597E+06    -15.6633E-03     29.3670E-03    -13.7037E-03     28.9876E-03    -15.6047E-03     29.0926E-03    -13.6175E-03     29.0006E-03
            1936     7.99188E-03     27.1817E-03    -5.03176E+06    -57.7632E+06     66.4030E+03     1.26447E+06    -15.1463E-03     28.6843E-03    -13.5380E-03     24.8763E-03    -15.0896E-03     28.4045E-03    -13.4466E-03     24.8875E-03
            1937     7.10495E-03     27.1589E-03    -5.68903E+06    -58.3374E+06     63.0373E+03     855.364E+03    -14.6495E-03     28.0324E-03    -13.3829E-03     21.0732E-03    -14.5946E-03     27.7500E-03    -13.2898E-03     21.0804E-03
            1938     6.21777E-03     27.1395E-03    -6.42788E+06    -58.2879E+06    -645.207E+03     477.686E+03    -14.1966E-03     27.4373E-03    -13.2407E-03     17.5988E-03    -14.1440E-03     27.1568E-03    -13.1501E-03     17.6021E-03
            1939     5.33011E-03     27.1233E-03    -7.37146E+06    -59.8040E+06    -1.75854E+06     340.820E+03    -13.8035E-03     26.9211E-03    -13.1176E-03     14.4589E-03    -13.7516E-03     26.6358E-03    -13.0290E-03     14.4610E-03
            1940     4.44226E-03     27.1101E-03    -8.56783E+06    -62.1956E+06    -3.32275E+06     424.599E+03    -13.4759E-03     26.4889E-03    -13.0130E-03     11.6148E-03    -13.4241E-03     26.1955E-03    -12.9270E-03     11.6185E-03
            1941     3.55405E-03     27.0996E-03    -9.91876E+06    -60.0744E+06    -6.03968E+06     488.363E+03    -13.2038E-03     26.1192E-03    -12.9154E-03     9.05041E-03    -13.1577E-03     25.8422E-03    -12.8442E-03     9.05545E-03
            1942     2.66576E-03     27.0915E-03    -11.1203E+06    -62.4278E+06    -8.25282E+06     483.822E+03    -13.0072E-03     25.8519E-03    -12.8447E-03     6.65838E-03    -12.9604E-03     25.5680E-03    -12.7793E-03     6.66372E-03
            1943     1.77721E-03     27.0859E-03    -12.0749E+06    -62.9405E+06    -10.4174E+06     419.853E+03    -12.8605E-03     25.6488E-03    -12.7883E-03     4.41326E-03    -12.8145E-03     25.3667E-03    -12.7316E-03     4.41809E-03
            1944     888.659E-06     27.0824E-03    -12.5851E+06    -61.4161E+06    -12.2769E+06     213.404E+03    -12.7626E-03     25.5158E-03    -12.7532E-03     2.38967E-03    -12.7187E-03     25.2449E-03    -12.7073E-03     2.39212E-03
            1945     16.8400E-03     26.8293E-03    -4.02351E+06     144.399E+06     46.5601E+06     409.313E+03    -29.2974E-03     44.6633E-03    -15.3659E-03     228.525E-03    -34.5919E-03     50.3211E-03    -15.3366E-03     232.088E-03
            1946     15.9576E-03     26.6490E-03    -5.04091E+06     82.6204E+06    -9.50452E+06     920.666E+03    -24.1619E-03     39.1008E-03    -14.9388E-03     152.509E-03    -25.7239E-03     40.9658E-03    -15.0988E-03     152.867E-03
            1947     15.0735E-03     26.5410E-03    -4.36833E+06     23.5398E+06    -13.1546E+06     1.00506E+06    -20.4188E-03     35.2043E-03    -14.7855E-03     89.2833E-03    -20.6817E-03     35.5735E-03    -14.8791E-03     89.2478E-03
            1948     14.1908E-03     26.4800E-03    -4.00299E+06    -16.5592E+06    -12.2403E+06     637.796E+03    -18.8914E-03     33.5286E-03    -14.6373E-03     58.4447E-03    -18.9368E-03     33.5366E-03    -14.6687E-03     58.4051E-03
            1949     13.3062E-03     26.4296E-03    -3.58111E+06    -35.9052E+06    -11.8602E+06     615.473E+03    -18.4353E-03     32.8886E-03    -14.4533E-03     52.9656E-03    -18.4220E-03     32.7696E-03    -14.4554E-03     52.9355E-03
            1950     12.4219E-03     26.3781E-03    -3.41645E+06    -38.6323E+06    -2.69449E+06     894.540E+03    -17.9042E-03     32.1914E-03    -14.2872E-03     48.9995E-03    -17.8841E-03     32.0299E-03    -14.2397E-03     48.9835E-03
            1951     11.5370E-03     26.3351E-03    -3.54422E+06    -43.2272E+06    -2.99904E+06     1.19578E+06    -17.2890E-03     31.3673E-03    -14.0783E-03     41.8535E-03    -17.2524E-03     31.1733E-03    -14.0255E-03     41.8495E-03
            1952     10.6519E-03     26.2966E-03    -3.62156E+06    -54.5452E+06    -4.99002E+06     1.39244E+06    -16.7539E-03     30.6271E-03    -13.8731E-03     37.0204E-03    -16.6933E-03     30.3744E-03    -13.8137E-03     37.0246E-03
            1953     9.76620E-03     26.2626E-03    -3.65284E+06    -57.3656E+06    -1.35385E+06     1.69800E+06    -16.1672E-03     29.8564E-03    -13.6892E-03     32.5022E-03    -16.1049E-03     29.5815E-03    -13.6075E-03     32.5145E-03
            1954     8.88018E-03     26.2324E-03    -3.97029E+06    -56.4701E+06    -587.147E+03     1.82981E+06    -15.5922E-03     29.0876E-03    -13.4954E-03     28.1809E-03    -15.5321E-03     28.8147E-03    -13.4107E-03     28.1977E-03
            1955     7.99359E-03     26.2065E-03    -4.46619E+06    -56.9419E+06     587.028E+03     1.32009E+06    -15.0327E-03     28.3508E-03    -13.3181E-03     24.1010E-03    -14.9751E-03     28.0734E-03    -13.2261E-03     24.1131E-03
            1956     7.10668E-03     26.1842E-03    -5.03682E+06    -57.8739E+06     687.861E+03     778.271E+03    -14.5034E-03     27.6551E-03    -13.1517E-03     20.3570E-03    -14.4468E-03     27.3732E-03    -13.0571E-03     20.3634E-03
            1957     6.21924E-03     26.1655E-03    -5.84904E+06    -57.9750E+06    -338.729E+03     616.303E+03    -14.0166E-03     27.0142E-03    -12.9976E-03     16.9626E-03    -13.9620E-03     26.7340E-03    -12.9068E-03     16.9677E-03
            1958     5.33150E-03     26.1497E-03    -6.95270E+06    -59.7579E+06    -1.72072E+06     587.805E+03    -13.5972E-03     26.4623E-03    -12.8651E-03     13.9094E-03    -13.5433E-03     26.1765E-03    -12.7769E-03     13.9149E-03
            1959     4.44337E-03     26.1370E-03    -8.16930E+06    -62.2687E+06    -3.26820E+06     738.165E+03    -13.2508E-03     26.0040E-03    -12.7532E-03     11.1578E-03    -13.1969E-03     25.7096E-03    -12.6674E-03     11.1657E-03
            1960     3.55505E-03     26.1268E-03    -9.37042E+06    -59.8563E+06    -5.72042E+06     844.013E+03    -12.9606E-03     25.6107E-03    -12.6501E-03     8.68362E-03    -12.9126E-03     25.3334E-03    -12.5783E-03     8.69331E-03
            1961     2.66643E-03     26.1190E-03    -10.5739E+06    -62.0524E+06    -7.72263E+06     678.453E+03    -12.7504E-03     25.3255E-03    -12.5750E-03     6.38077E-03    -12.7022E-03     25.0418E-03    -12.5083E-03     6.38867E-03
            1962     1.77776E-03     26.1135E-03    -11.5905E+06    -62.5231E+06    -9.91732E+06     427.021E+03    -12.5937E-03     25.1080E-03    -12.5143E-03     4.22484E-03    -12.5467E-03     24.8266E-03    -12.4564E-03     4.22979E-03
            1963     888.879E-06     26.1102E-03    -12.2638E+06    -60.9513E+06    -11.9570E+06     251.847E+03    -12.4915E-03     24.9623E-03    -12.4708E-03     2.29065E-03    -12.4471E-03     24.6928E-03    -12.4244E-03     2.29361E-03
            1964     16.8400E-03     25.8462E-03    -3.90697E+06     143.904E+06     46.2406E+06     399.830E+03    -29.7638E-03     45.1049E-03    -15.3411E-03     227.235E-03    -34.9934E-03     50.6975E-03    -15.3129E-03     230.709E-03
            1965     15.9581E-03     25.6672E-03    -5.32471E+06     82.1028E+06    -10.1484E+06     874.071E+03    -24.5800E-03     39.4622E-03    -14.8822E-03     150.864E-03    -26.1083E-03     41.2925E-03    -15.0443E-03     151.195E-03
            1966     15.0760E-03     25.5611E-03    -4.72980E+06     23.9731E+06    -13.2964E+06     1.05098E+06    -20.7356E-03     35.4367E-03    -14.7010E-03     88.1918E-03    -20.9960E-03     35.8040E-03    -14.7954E-03     88.1540E-03
            1967     14.1913E-03     25.5000E-03    -4.05890E+06    -15.9394E+06    -12.2196E+06     767.699E+03    -19.0710E-03     33.6010E-03    -14.5300E-03     57.5727E-03    -19.1159E-03     33.6104E-03    -14.5621E-03     57.5345E-03
            1968     13.3081E-03     25.4506E-03    -3.69113E+06    -36.1098E+06    -12.3066E+06     680.540E+03    -18.5813E-03     32.9069E-03    -14.3256E-03     52.1632E-03    -18.5666E-03     32.7866E-03    -14.3294E-03     52.1341E-03
            1969     12.4236E-03     25.3997E-03    -3.52218E+06    -38.9595E+06    -3.03804E+06     991.837E+03    -18.0379E-03     32.1777E-03    -14.1398E-03     48.1168E-03    -18.0167E-03     32.0145E-03    -14.0934E-03     48.1023E-03
            1970     11.5391E-03     25.3573E-03    -3.68662E+06    -43.3757E+06    -3.28498E+06     1.35752E+06    -17.3647E-03     31.2748E-03    -13.9101E-03     40.9540E-03    -17.3277E-03     31.0802E-03    -13.8583E-03     40.9524E-03
            1971     10.6538E-03     25.3197E-03    -3.82524E+06    -54.5192E+06    -5.23099E+06     1.53848E+06    -16.7643E-03     30.4504E-03    -13.6861E-03     36.1433E-03    -16.7041E-03     30.1982E-03    -13.6277E-03     36.1497E-03
            1972     9.76828E-03     25.2862E-03    -4.09693E+06    -57.6953E+06    -1.78052E+06     1.78479E+06    -16.1295E-03     29.6146E-03    -13.4851E-03     31.6216E-03    -16.0681E-03     29.3390E-03    -13.4044E-03     31.6353E-03
            1973     8.88208E-03     25.2569E-03    -4.26869E+06    -55.8025E+06    -1.66044E+06     1.68627E+06    -15.4981E-03     28.7694E-03    -13.2713E-03     27.3420E-03    -15.4388E-03     28.5016E-03    -13.1925E-03     27.3572E-03
            1974     7.99551E-03     25.2315E-03    -4.23629E+06    -56.0325E+06    -163.253E+03     1.08179E+06    -14.9018E-03     27.9833E-03    -13.0815E-03     23.3117E-03    -14.8431E-03     27.7112E-03    -12.9950E-03     23.3208E-03
            1975     7.10836E-03     25.2100E-03    -4.70517E+06    -57.6979E+06     587.703E+03     858.575E+03    -14.3406E-03     27.2485E-03    -12.9079E-03     19.6157E-03    -14.2823E-03     26.9671E-03    -12.8145E-03     19.6233E-03
            1976     6.22086E-03     25.1918E-03    -5.66975E+06    -57.7884E+06    -316.621E+03     902.874E+03    -13.8226E-03     26.5674E-03    -12.7448E-03     16.3004E-03    -13.7674E-03     26.2878E-03    -12.6543E-03     16.3093E-03
            1977     5.33286E-03     25.1767E-03    -6.79690E+06    -59.7156E+06    -1.61777E+06     957.226E+03    -13.3809E-03     25.9852E-03    -12.6043E-03     13.3422E-03    -13.3264E-03     25.6993E-03    -12.5159E-03     13.3525E-03
            1978     4.44461E-03     25.1643E-03    -8.10730E+06    -62.2796E+06    -3.29129E+06     1.11509E+06    -13.0170E-03     25.5013E-03    -12.4843E-03     10.6886E-03    -12.9627E-03     25.2067E-03    -12.3987E-03     10.7015E-03
            1979     3.55600E-03     25.1545E-03    -9.35997E+06    -59.4526E+06    -5.85693E+06     1.11421E+06    -12.7061E-03     25.0796E-03    -12.3735E-03     8.31054E-03    -12.6583E-03     24.8045E-03    -12.3030E-03     8.32378E-03
            1980     2.66723E-03     25.1470E-03    -10.3139E+06    -61.3766E+06    -7.71127E+06     784.559E+03    -12.4782E-03     24.7725E-03    -12.2943E-03     6.10432E-03    -12.4296E-03     24.4918E-03    -12.2289E-03     6.11363E-03
            1981     1.77821E-03     25.1417E-03    -11.1676E+06    -62.1467E+06    -9.62321E+06     513.483E+03    -12.3172E-03     24.5499E-03    -12.2327E-03     4.03430E-03    -12.2690E-03     24.2693E-03    -12.1745E-03     4.04040E-03
            1982     889.166E-06     25.1385E-03    -11.8479E+06    -60.3559E+06    -11.5791E+06     426.724E+03    -12.2195E-03     24.3972E-03    -12.1777E-03     2.19574E-03    -12.1744E-03     24.1294E-03    -12.1309E-03     2.20097E-03
            1983     16.8408E-03     24.8623E-03    -3.39443E+06     143.634E+06     46.5296E+06     593.190E+03    -30.3240E-03     45.6327E-03    -15.3087E-03     225.415E-03    -35.4739E-03     51.1455E-03    -15.2794E-03     228.789E-03
            1984     15.9594E-03     24.6855E-03    -4.85084E+06     81.9198E+06    -9.97006E+06     984.017E+03    -24.8995E-03     39.7157E-03    -14.8162E-03     148.787E-03    -26.3829E-03     41.5017E-03    -14.9778E-03     149.095E-03
            1985     15.0762E-03     24.5802E-03    -4.68414E+06     23.9947E+06    -13.5004E+06     1.06627E+06    -20.9978E-03     35.6050E-03    -14.6071E-03     86.8373E-03    -21.2522E-03     35.9671E-03    -14.7026E-03     86.7971E-03
            1986     14.1941E-03     24.5205E-03    -4.05493E+06    -15.4787E+06    -12.2192E+06     813.398E+03    -19.2444E-03     33.6592E-03    -14.4148E-03     56.7172E-03    -19.2882E-03     33.6691E-03    -14.4476E-03     56.6795E-03
            1987     13.3095E-03     24.4715E-03    -3.57987E+06    -36.0855E+06    -12.4788E+06     753.867E+03    -18.7526E-03     32.9420E-03    -14.1894E-03     51.4145E-03    -18.7363E-03     32.8211E-03    -14.1943E-03     51.3865E-03
            1988     12.4258E-03     24.4211E-03    -3.43730E+06    -39.4094E+06    -3.33652E+06     1.12131E+06    -18.1589E-03     32.1411E-03    -13.9822E-03     47.1319E-03    -18.1355E-03     31.9753E-03    -13.9368E-03     47.1193E-03
            1989     11.5410E-03     24.3798E-03    -3.61136E+06    -43.5678E+06    -3.37532E+06     1.52590E+06    -17.4104E-03     31.1437E-03    -13.7333E-03     40.0146E-03    -17.3721E-03     30.9478E-03    -13.6818E-03     40.0156E-03
            1990     10.6560E-03     24.3427E-03    -3.74000E+06    -54.5083E+06    -5.30335E+06     1.77163E+06    -16.7769E-03     30.2674E-03    -13.4905E-03     35.1899E-03    -16.7158E-03     30.0150E-03    -13.4326E-03     35.1997E-03
            1991     9.77030E-03     24.3102E-03    -3.83775E+06    -57.7410E+06    -1.92304E+06     1.89274E+06    -16.0753E-03     29.3472E-03    -13.2719E-03     30.6945E-03    -16.0122E-03     29.0710E-03    -13.1922E-03     30.7098E-03
            1992     8.88416E-03     24.2816E-03    -3.91787E+06    -54.8043E+06    -2.59336E+06     1.44544E+06    -15.3932E-03     28.4314E-03    -13.0381E-03     26.4773E-03    -15.3321E-03     28.1693E-03    -12.9660E-03     26.4896E-03
            1993     7.99737E-03     24.2571E-03    -4.13596E+06    -55.5055E+06    -1.40799E+06     909.006E+03    -14.7586E-03     27.5942E-03    -12.8355E-03     22.4960E-03    -14.6983E-03     27.3262E-03    -12.7561E-03     22.5031E-03
            1994     7.11019E-03     24.2361E-03    -4.64643E+06    -57.8576E+06     354.476E+03     1.00921E+06    -14.1647E-03     26.8220E-03    -12.6573E-03     18.8411E-03    -14.1056E-03     26.5400E-03    -12.5649E-03     18.8508E-03
            1995     6.22244E-03     24.2187E-03    -5.48868E+06    -57.6116E+06    -225.274E+03     1.22040E+06    -13.6189E-03     26.1046E-03    -12.4857E-03     15.6172E-03    -13.5631E-03     25.8255E-03    -12.3953E-03     15.6304E-03
            1996     5.33433E-03     24.2040E-03    -6.64612E+06    -59.7429E+06    -1.45281E+06     1.37610E+06    -13.1576E-03     25.4953E-03    -12.3377E-03     12.7608E-03    -13.1025E-03     25.2088E-03    -12.2487E-03     12.7767E-03
            1997     4.44580E-03     24.1922E-03    -7.94314E+06    -62.0583E+06    -2.93006E+06     1.52325E+06    -12.7736E-03     24.9846E-03    -12.2110E-03     10.2070E-03    -12.7193E-03     24.6903E-03    -12.1241E-03     10.2252E-03
            1998     3.55704E-03     24.1827E-03    -9.06189E+06    -58.7540E+06    -5.73939E+06     1.27382E+06    -12.4435E-03     24.5358E-03    -12.0923E-03     7.92458E-03    -12.3955E-03     24.2637E-03    -12.0227E-03     7.93994E-03
            1999     2.66794E-03     24.1756E-03    -9.97171E+06    -60.6476E+06    -7.79357E+06     863.513E+03    -12.2000E-03     24.2087E-03    -12.0087E-03     5.82245E-03    -12.1507E-03     23.9313E-03    -11.9453E-03     5.83283E-03
            2000     1.77877E-03     24.1704E-03    -10.8337E+06    -61.7707E+06    -9.48865E+06     646.548E+03    -12.0356E-03     23.9825E-03    -11.9470E-03     3.85114E-03    -11.9864E-03     23.7032E-03    -11.8891E-03     3.85899E-03
            2001     889.390E-06     24.1674E-03    -11.3755E+06    -59.5152E+06    -11.1035E+06     531.504E+03    -11.9379E-03     23.8257E-03    -11.8877E-03     2.07603E-03    -11.8924E-03     23.5608E-03    -11.8404E-03     2.08262E-03
            2002     16.8418E-03     23.8778E-03    -3.59036E+06     142.953E+06     46.9852E+06     464.904E+03    -30.9916E-03     46.2715E-03    -15.2799E-03     224.013E-03    -36.0640E-03     51.7024E-03    -15.2471E-03     227.271E-03
            2003     15.9606E-03     23.7037E-03    -4.57148E+06     82.0846E+06    -9.24146E+06     1.07101E+06    -25.3779E-03     40.1264E-03    -14.7485E-03     147.036E-03    -26.8266E-03     41.8771E-03    -14.9071E-03     147.316E-03
            2004     15.0790E-03     23.5992E-03    -4.26288E+06     24.3739E+06    -13.5358E+06     1.20002E+06    -21.1863E-03     35.6934E-03    -14.5070E-03     85.3614E-03    -21.4316E-03     36.0494E-03    -14.6039E-03     85.3208E-03
            2005     14.1945E-03     23.5411E-03    -3.90780E+06    -15.3266E+06    -12.3795E+06     878.987E+03    -19.4217E-03     33.7164E-03    -14.2947E-03     55.9262E-03    -19.4629E-03     33.7252E-03    -14.3287E-03     55.8893E-03
            2006     13.3118E-03     23.4918E-03    -3.45427E+06    -36.2103E+06    -12.8107E+06     884.572E+03    -18.9580E-03     33.0049E-03    -14.0469E-03     50.6171E-03    -18.9394E-03     32.8827E-03    -14.0535E-03     50.5908E-03
            2007     12.4276E-03     23.4431E-03    -3.24209E+06    -39.9258E+06    -3.72235E+06     1.24005E+06    -18.2598E-03     32.0774E-03    -13.8176E-03     46.1279E-03    -18.2332E-03     31.9084E-03    -13.7736E-03     46.1173E-03
            2008     11.5433E-03     23.4020E-03    -3.25098E+06    -43.7002E+06    -3.43541E+06     1.66563E+06    -17.4677E-03     31.0172E-03    -13.5496E-03     39.0519E-03    -17.4268E-03     30.8197E-03    -13.4987E-03     39.0551E-03
            2009     10.6581E-03     23.3662E-03    -3.18185E+06    -54.5483E+06    -5.30472E+06     1.88555E+06    -16.7640E-03     30.0523E-03    -13.2883E-03     34.2109E-03    -16.6997E-03     29.7985E-03    -13.2312E-03     34.2225E-03
            2010     9.77250E-03     23.3343E-03    -3.04096E+06    -57.3524E+06    -1.81464E+06     1.77973E+06    -16.0170E-03     29.0700E-03    -13.0531E-03     29.7325E-03    -15.9503E-03     28.7943E-03    -12.9746E-03     29.7466E-03
            2011     8.88618E-03     23.3067E-03    -3.00742E+06    -53.9753E+06    -2.44783E+06     1.42153E+06    -15.2856E-03     28.0899E-03    -12.8043E-03     25.5629E-03    -15.2211E-03     27.8303E-03    -12.7339E-03     25.5751E-03
            2012     7.99939E-03     23.2828E-03    -3.34004E+06    -55.2480E+06    -1.56272E+06     1.22694E+06    -14.6054E-03     27.1946E-03    -12.5892E-03     21.6339E-03    -14.5412E-03     26.9269E-03    -12.5120E-03     21.6453E-03
            2013     7.11198E-03     23.2628E-03    -4.16707E+06    -57.9918E+06     161.271E+03     1.28268E+06    -13.9762E-03     26.3783E-03    -12.4020E-03     18.0601E-03    -13.9141E-03     26.0951E-03    -12.3111E-03     18.0733E-03
            2014     6.22411E-03     23.2458E-03      -5.158E+06    -57.5844E+06     35.4099E+03     1.51238E+06    -13.4113E-03     25.6355E-03    -12.2242E-03     14.9281E-03    -13.3542E-03     25.3556E-03    -12.1330E-03     14.9451E-03
            2015     5.33575E-03     23.2319E-03    -6.17394E+06    -59.6410E+06    -950.935E+03     1.70989E+06    -12.9295E-03     24.9986E-03    -12.0691E-03     12.1707E-03    -12.8729E-03     24.7111E-03    -11.9785E-03     12.1909E-03
            2016     4.44707E-03     23.2205E-03    -7.17926E+06    -61.6310E+06    -2.23564E+06     1.66846E+06    -12.5241E-03     24.4601E-03    -11.9360E-03     9.71900E-03    -12.4676E-03     24.1659E-03    -11.8475E-03     9.73913E-03
            2017     3.55801E-03     23.2115E-03    -8.17183E+06    -57.9902E+06    -5.09837E+06     1.49574E+06    -12.1785E-03     23.9902E-03    -11.8117E-03     7.53399E-03    -12.1280E-03     23.7197E-03    -11.7413E-03     7.55227E-03
            2018     2.66876E-03     23.2046E-03    -9.25568E+06    -59.8835E+06    -7.30067E+06     1.21105E+06    -11.9258E-03     23.6499E-03    -11.7241E-03     5.52791E-03    -11.8748E-03     23.3745E-03    -11.6603E-03     5.54282E-03
            2019     1.77922E-03     23.1998E-03    -10.2871E+06    -61.1083E+06    -8.88205E+06     835.371E+03    -11.7541E-03     23.4142E-03    -11.6601E-03     3.66523E-03    -11.7041E-03     23.1364E-03    -11.6010E-03     3.67554E-03
            2020     889.684E-06     23.1967E-03    -10.9118E+06    -58.6213E+06    -10.5538E+06     496.537E+03    -11.6464E-03     23.2471E-03    -11.6007E-03     1.93970E-03    -11.6006E-03     22.9852E-03    -11.5526E-03     1.94586E-03
            2021     16.8412E-03     22.8936E-03    -3.80472E+06     142.305E+06     47.1118E+06     535.657E+03    -31.4934E-03     46.7500E-03    -15.2566E-03     222.169E-03    -36.4739E-03     52.0856E-03    -15.2219E-03     225.324E-03
            2022     15.9616E-03     22.7193E-03    -5.19439E+06     81.3317E+06    -9.44332E+06     851.031E+03    -25.8327E-03     40.5224E-03    -14.6897E-03     144.876E-03    -27.2405E-03     42.2279E-03    -14.8473E-03     145.121E-03
            2023     15.0794E-03     22.6196E-03    -4.51970E+06     24.9561E+06    -13.6613E+06     957.238E+03    -21.5726E-03     35.9851E-03    -14.4125E-03     83.8521E-03    -21.8135E-03     36.3382E-03    -14.5104E-03     83.8052E-03
            2024     14.1974E-03     22.5605E-03    -3.86557E+06    -14.7396E+06    -12.4528E+06     993.609E+03    -19.6614E-03     33.8334E-03    -14.1720E-03     55.1046E-03    -19.7013E-03     33.8434E-03    -14.2073E-03     55.0688E-03
            2025     13.3134E-03     22.5130E-03    -3.43629E+06    -36.5390E+06    -13.3010E+06     991.533E+03    -19.0748E-03     32.9772E-03    -13.9024E-03     49.8129E-03    -19.0539E-03     32.8529E-03    -13.9109E-03     49.7882E-03
            2026     12.4298E-03     22.4643E-03    -3.01028E+06     -40.362E+06    -4.02033E+06     1.30299E+06    -18.3922E-03     32.0457E-03    -13.6535E-03     45.1587E-03    -18.3627E-03     31.8739E-03    -13.6107E-03     45.1492E-03
            2027     11.5453E-03     22.4250E-03    -2.99321E+06    -43.8660E+06    -3.64610E+06     1.72882E+06    -17.5275E-03     30.8918E-03    -13.3642E-03     38.0751E-03    -17.4844E-03     30.6928E-03    -13.3145E-03     38.0795E-03
            2028     10.6603E-03     22.3895E-03    -2.81231E+06    -54.3804E+06    -5.37125E+06     1.85383E+06    -16.7623E-03     29.8463E-03    -13.0841E-03     33.2167E-03    -16.6960E-03     29.5926E-03    -13.0280E-03     33.2282E-03
            2029     9.77463E-03     22.3589E-03    -2.74734E+06    -56.8905E+06    -1.74272E+06     1.72529E+06    -15.9591E-03     28.7913E-03    -12.8322E-03     28.7227E-03    -15.8916E-03     28.5171E-03    -12.7544E-03     28.7364E-03
            2030     8.88833E-03     22.3319E-03    -2.89488E+06      -53.41E+06    -2.43798E+06     1.44446E+06    -15.1679E-03     27.7366E-03    -12.5687E-03     24.6084E-03    -15.1036E-03     27.4795E-03    -12.4993E-03     24.6211E-03
            2031     8.00135E-03     22.3092E-03    -2.95481E+06    -55.2826E+06    -1.70401E+06     1.42047E+06    -14.4347E-03     26.7770E-03    -12.3423E-03     20.7532E-03    -14.3682E-03     26.5088E-03    -12.2664E-03     20.7673E-03
            2032     7.11380E-03     22.2897E-03    -3.36690E+06    -57.9834E+06     168.171E+03     1.75530E+06    -13.7809E-03     25.9277E-03    -12.1468E-03     17.2773E-03    -13.7147E-03     25.6433E-03    -12.0570E-03     17.2968E-03
            2033     6.22573E-03     22.2736E-03    -4.31395E+06    -57.4785E+06     632.230E+03     1.85999E+06    -13.1975E-03     25.1618E-03    -11.9643E-03     14.2386E-03    -13.1372E-03     24.8803E-03    -11.8715E-03     14.2603E-03
            2034     5.33722E-03     22.2602E-03    -5.33497E+06    -59.3858E+06    -406.672E+03     1.88003E+06    -12.6955E-03     24.4979E-03    -11.8024E-03     11.5900E-03    -12.6358E-03     24.2096E-03    -11.7106E-03     11.6125E-03
            2035     4.44828E-03     22.2494E-03    -6.46555E+06    -61.1349E+06    -2.06369E+06     1.90862E+06    -12.2715E-03     23.9339E-03    -11.6624E-03     9.24501E-03    -12.2124E-03     23.6408E-03    -11.5747E-03     9.26833E-03
            2036     3.55903E-03     22.2407E-03    -7.69228E+06    -57.3875E+06    -4.59921E+06     1.83789E+06    -11.9176E-03     23.4535E-03    -11.5359E-03     7.15922E-03    -11.8663E-03     23.1845E-03    -11.4645E-03     7.18198E-03
            2037     2.66947E-03     22.2342E-03    -8.68120E+06    -58.8622E+06    -6.48494E+06     1.55043E+06    -11.6617E-03     23.1056E-03    -11.4439E-03     5.24022E-03    -11.6105E-03     22.8334E-03    -11.3784E-03     5.25955E-03
            2038     1.77981E-03     22.2296E-03    -9.55507E+06    -60.1307E+06    -8.04807E+06     1.00431E+06    -11.4693E-03     22.8462E-03    -11.3770E-03     3.47501E-03    -11.4182E-03     22.5711E-03    -11.3162E-03     3.48753E-03
            2039     889.913E-06     22.2268E-03    -10.2447E+06    -57.6471E+06    -9.87294E+06     537.547E+03    -11.3495E-03     22.6797E-03    -11.3302E-03     1.85688E-03    -11.3027E-03     22.4207E-03    -11.2811E-03     1.86358E-03
            2040     16.8429E-03     21.9063E-03    -4.00513E+06     141.726E+06     47.1500E+06     393.070E+03    -32.0435E-03     47.2714E-03    -15.2280E-03     220.287E-03    -36.9500E-03     52.5302E-03    -15.1919E-03     223.331E-03
            2041     15.9624E-03     21.7378E-03    -4.69345E+06     81.0538E+06    -9.30610E+06     843.567E+03    -26.0508E-03     40.6806E-03    -14.6298E-03     142.160E-03    -27.4002E-03     42.3282E-03    -14.7871E-03     142.377E-03
            2042     15.0814E-03     21.6366E-03    -4.13710E+06     25.1061E+06    -13.9035E+06     1.09896E+06    -21.8254E-03     36.1519E-03    -14.3265E-03     82.3084E-03    -22.0567E-03     36.4980E-03    -14.4264E-03     82.2613E-03
            2043     14.1984E-03     21.5817E-03    -4.16397E+06    -14.3996E+06    -12.8533E+06     972.985E+03    -19.9859E-03     34.0461E-03    -14.0602E-03     54.3595E-03    -20.0255E-03     34.0571E-03    -14.0976E-03     54.3229E-03
            2044     13.3154E-03     21.5330E-03    -3.25450E+06    -36.6196E+06    -13.6341E+06     969.526E+03    -19.3105E-03     33.0743E-03    -13.7638E-03     49.1618E-03    -19.2871E-03     32.9489E-03    -13.7742E-03     49.1369E-03
            2045     12.4318E-03     21.4864E-03    -2.74728E+06    -40.8857E+06    -4.33675E+06     1.33204E+06    -18.5381E-03     32.0290E-03    -13.4910E-03     44.0160E-03    -18.5051E-03     31.8538E-03    -13.4494E-03     44.0073E-03
            2046     11.5474E-03     21.4473E-03    -2.69507E+06    -43.9194E+06    -3.64092E+06     1.71782E+06    -17.5999E-03     30.7802E-03    -13.1803E-03     36.9532E-03    -17.5546E-03     30.5800E-03    -13.1309E-03     36.9578E-03
            2047     10.6625E-03     21.4134E-03    -2.55104E+06    -54.1338E+06    -5.24145E+06     1.83898E+06    -16.7595E-03     29.6402E-03    -12.8808E-03     32.1084E-03    -16.6921E-03     29.3868E-03    -12.8248E-03     32.1200E-03
            2048     9.77680E-03     21.3834E-03    -2.53205E+06    -56.5998E+06    -1.61038E+06     1.79203E+06    -15.8859E-03     28.4984E-03    -12.6125E-03     27.6760E-03    -15.8176E-03     28.2250E-03    -12.5349E-03     27.6908E-03
            2049     8.89041E-03     21.3578E-03    -2.70372E+06    -52.8870E+06    -2.26566E+06     1.61463E+06    -15.0356E-03     27.3717E-03    -12.3361E-03     23.6222E-03    -14.9713E-03     27.1166E-03    -12.2668E-03     23.6374E-03
            2050     8.00330E-03     21.3357E-03    -3.16471E+06    -55.4584E+06    -1.75338E+06     1.60975E+06    -14.2618E-03     26.3620E-03    -12.1002E-03     19.8639E-03    -14.1960E-03     26.0931E-03    -12.0239E-03     19.8806E-03
            2051     7.11561E-03     21.3172E-03    -3.55357E+06    -57.9593E+06    -637.743E+03     1.83746E+06    -13.5719E-03     25.4651E-03    -11.8932E-03     16.5027E-03    -13.5055E-03     25.1822E-03    -11.8072E-03     16.5234E-03
            2052     6.22734E-03     21.3017E-03    -3.82279E+06    -57.2390E+06    -151.146E+03     2.00035E+06    -12.9684E-03     24.6730E-03    -11.7046E-03     13.5821E-03    -12.9048E-03     24.3931E-03    -11.6168E-03     13.6057E-03
            2053     5.33860E-03     21.2891E-03    -4.69417E+06    -59.3266E+06    -411.447E+03     2.32961E+06    -12.4589E-03     24.0018E-03    -11.5429E-03     11.0240E-03    -12.3960E-03     23.7129E-03    -11.4522E-03     11.0524E-03
            2054     4.44945E-03     21.2787E-03    -6.06824E+06    -60.4090E+06    -1.72463E+06     2.40896E+06    -12.0276E-03     23.4279E-03    -11.4003E-03     8.77960E-03    -11.9681E-03     23.1373E-03    -11.3125E-03     8.80945E-03
            2055     3.55996E-03     21.2706E-03    -7.16311E+06    -56.6329E+06    -3.83127E+06     2.03134E+06    -11.6673E-03     22.9388E-03    -11.2716E-03     6.79244E-03    -11.6155E-03     22.6717E-03    -11.1982E-03     6.81775E-03
            2056     2.67024E-03     21.2643E-03    -7.99430E+06    -57.7626E+06    -5.67954E+06     1.66399E+06    -11.3978E-03     22.5738E-03    -11.1761E-03     4.97202E-03    -11.3458E-03     22.3049E-03    -11.1091E-03     4.99286E-03
            2057     1.78025E-03     21.2600E-03    -8.85684E+06    -58.9659E+06    -7.49236E+06     1.20739E+06    -11.2002E-03     22.3069E-03    -11.1067E-03     3.28737E-03    -11.1482E-03     22.0358E-03    -11.0458E-03     3.30254E-03
            2058     890.137E-06     21.2573E-03    -9.56124E+06    -56.4467E+06    -9.30180E+06     693.286E+03    -11.0786E-03     22.1396E-03    -11.0610E-03     1.79056E-03    -11.0310E-03     21.8848E-03    -11.0118E-03     1.79928E-03
            2059     16.8423E-03     20.9200E-03    -3.50438E+06     141.307E+06     46.7872E+06     400.768E+03    -32.4924E-03     47.7016E-03    -15.2092E-03     218.957E-03    -37.3320E-03     52.8948E-03    -15.1751E-03     221.903E-03
            2060     15.9639E-03     20.7536E-03    -4.67619E+06     80.7949E+06    -9.93058E+06     1.04176E+06    -26.3957E-03     40.9783E-03    -14.5826E-03     139.952E-03    -27.6930E-03     42.5748E-03    -14.7427E-03     140.145E-03
            2061     15.0819E-03     20.6562E-03    -4.72381E+06     24.9368E+06    -14.5417E+06     1.23575E+06    -22.2039E-03     36.4549E-03    -14.2510E-03     81.0020E-03    -22.4305E-03     36.7955E-03    -14.3530E-03     80.9541E-03
            2062     14.1998E-03     20.6005E-03    -3.96190E+06    -13.8748E+06    -12.8253E+06     776.110E+03    -20.4178E-03     34.3713E-03    -13.9535E-03     52.9127E-03    -20.4551E-03     34.3824E-03    -13.9917E-03     52.8728E-03
            2063     13.3172E-03     20.5540E-03    -3.22579E+06    -36.6474E+06    -13.9321E+06     771.515E+03    -19.6133E-03     33.2362E-03    -13.6229E-03     47.8720E-03    -19.5881E-03     33.1099E-03    -13.6348E-03     47.8446E-03
            2064     12.4338E-03     20.5076E-03    -2.72372E+06    -41.4519E+06    -4.69959E+06     1.24950E+06    -18.6505E-03     31.9744E-03    -13.3239E-03     42.6500E-03    -18.6152E-03     31.7959E-03    -13.2834E-03     42.6407E-03
            2065     11.5497E-03     20.4704E-03    -2.47144E+06    -43.9329E+06    -3.71074E+06     1.67575E+06    -17.6233E-03     30.6172E-03    -12.9939E-03     35.7138E-03    -17.5763E-03     30.4162E-03    -12.9451E-03     35.7183E-03
            2066     10.6646E-03     20.4371E-03    -2.31638E+06    -54.0437E+06    -5.26329E+06     1.84609E+06    -16.7190E-03     29.3971E-03    -12.6782E-03     30.9614E-03    -16.6502E-03     29.1435E-03    -12.6228E-03     30.9735E-03
            2067     9.77896E-03     20.4086E-03    -2.25483E+06    -56.3282E+06    -1.48066E+06     1.88722E+06    -15.7853E-03     28.1824E-03    -12.3971E-03     26.5754E-03    -15.7160E-03     27.9095E-03    -12.3196E-03     26.5918E-03
            2068     8.89239E-03     20.3837E-03    -2.55324E+06    -52.6294E+06    -2.11240E+06     1.91259E+06    -14.8920E-03     27.0025E-03    -12.1105E-03     22.6189E-03    -14.8273E-03     26.7480E-03    -12.0410E-03     22.6381E-03
            2069     8.00522E-03     20.3628E-03    -2.93647E+06    -55.4017E+06    -1.52308E+06     2.02770E+06    -14.0844E-03     25.9512E-03    -11.8668E-03     18.9565E-03    -14.0177E-03     25.6819E-03    -11.7899E-03     18.9788E-03
            2070     7.11731E-03     20.3451E-03    -3.38119E+06    -57.4870E+06    -1.34442E+06     1.79527E+06    -13.3589E-03     25.0080E-03    -11.6491E-03     15.7377E-03    -13.2912E-03     24.7282E-03    -11.5676E-03     15.7581E-03
            2071     6.22885E-03     20.3304E-03    -3.76871E+06    -57.5352E+06    -1.40837E+06     1.95663E+06    -12.7403E-03     24.1962E-03    -11.4559E-03     12.9311E-03    -12.6741E-03     23.9165E-03    -11.3741E-03     12.9543E-03
            2072     5.33989E-03     20.3183E-03    -4.33640E+06    -59.4846E+06    -530.797E+03     2.76756E+06    -12.2279E-03     23.5248E-03    -11.2969E-03     10.4600E-03    -12.1628E-03     23.2347E-03    -11.2070E-03     10.4942E-03
            2073     4.45056E-03     20.3086E-03    -5.20258E+06    -59.2100E+06    -723.244E+03     2.72385E+06    -11.7931E-03     22.9476E-03    -11.1544E-03     8.31682E-03    -11.7324E-03     22.6603E-03    -11.0647E-03     8.35080E-03
            2074     3.56088E-03     20.3008E-03    -6.22741E+06    -55.7326E+06    -3.11242E+06     2.18558E+06    -11.4222E-03     22.4450E-03    -11.0228E-03     6.43514E-03    -11.3681E-03     22.1800E-03    -10.9485E-03     6.46250E-03
            2075     2.67087E-03     20.2950E-03    -7.23971E+06    -56.7160E+06    -5.32361E+06     1.89648E+06    -11.1454E-03     22.0712E-03    -10.9258E-03     4.70604E-03    -11.0917E-03     21.8059E-03    -10.8597E-03     4.72992E-03
            2076     1.78070E-03     20.2908E-03    -8.18262E+06    -57.6448E+06    -6.88296E+06     1.47019E+06    -10.9608E-03     21.8159E-03    -10.8551E-03     3.10752E-03    -10.9082E-03     21.5496E-03    -10.7941E-03     3.12611E-03
            2077     890.429E-06     20.2884E-03    -8.81028E+06    -54.9359E+06    -8.50577E+06     855.567E+03    -10.8469E-03     21.6311E-03    -10.7842E-03     1.68403E-03    -10.7989E-03     21.3816E-03    -10.7343E-03     1.69486E-03
            2078     16.8427E-03     19.9312E-03    -3.76772E+06     140.691E+06     46.6484E+06     583.179E+03    -32.6830E-03     47.8829E-03    -15.1999E-03     216.984E-03    -37.4304E-03     52.9812E-03    -15.1652E-03     219.844E-03
            2079     15.9631E-03     19.7709E-03    -5.14016E+06     80.3360E+06    -10.0261E+06     1.22418E+06    -26.9874E-03     41.5302E-03    -14.5428E-03     136.739E-03    -28.2384E-03     43.0773E-03    -14.7020E-03     136.914E-03
            2080     15.0832E-03     19.6730E-03    -5.05178E+06     25.6314E+06    -14.6009E+06     1.08268E+06    -22.8956E-03     37.0564E-03    -14.1608E-03     78.1878E-03    -23.1157E-03     37.3920E-03    -14.2637E-03     78.1325E-03
            2081     14.2020E-03     19.6205E-03    -4.44669E+06    -13.4015E+06    -13.0833E+06     527.936E+03    -20.6692E-03     34.4926E-03    -13.8234E-03     51.1595E-03    -20.7061E-03     34.5041E-03    -13.8629E-03     51.1165E-03
            2082     13.3192E-03     19.5739E-03    -3.22072E+06    -37.0524E+06    -14.3967E+06     571.667E+03    -19.7574E-03     33.2255E-03    -13.4681E-03     46.4426E-03    -19.7296E-03     33.0965E-03    -13.4817E-03     46.4130E-03
            2083     12.4362E-03     19.5296E-03    -2.60380E+06    -42.1079E+06    -5.07466E+06     1.14859E+06    -18.6572E-03     31.8087E-03    -13.1515E-03     41.2289E-03    -18.6188E-03     31.6263E-03    -13.1120E-03     41.2190E-03
            2084     11.5517E-03     19.4931E-03    -2.39857E+06    -44.1371E+06    -3.92833E+06     1.62875E+06    -17.5768E-03     30.3850E-03    -12.8083E-03     34.5355E-03    -17.5282E-03     30.1827E-03    -12.7604E-03     34.5400E-03
            2085     10.6668E-03     19.4613E-03    -2.09182E+06    -53.9585E+06    -5.19753E+06     1.81550E+06    -16.6508E-03     29.1320E-03    -12.4812E-03     29.7774E-03    -16.5807E-03     28.8781E-03    -12.4259E-03     29.7895E-03
            2086     9.78094E-03     19.4338E-03    -2.01606E+06    -56.2401E+06    -1.21656E+06     1.98064E+06    -15.6673E-03     27.8577E-03    -12.1904E-03     25.4537E-03    -15.5971E-03     27.5843E-03    -12.1120E-03     25.4716E-03
            2087     8.89439E-03     19.4102E-03    -2.02756E+06    -52.4134E+06    -1.80876E+06     2.06539E+06    -14.7371E-03     26.6322E-03    -11.8952E-03     21.5968E-03    -14.6704E-03     26.3776E-03    -11.8253E-03     21.6182E-03
            2088     8.00696E-03     19.3902E-03    -2.02072E+06    -55.3105E+06    -1.12675E+06     2.12930E+06    -13.9012E-03     25.5469E-03    -11.6457E-03     18.0391E-03    -13.8305E-03     25.2760E-03    -11.5682E-03     18.0629E-03
            2089     7.11894E-03     19.3734E-03    -2.41035E+06    -56.9021E+06    -633.069E+03     2.25810E+06    -13.1606E-03     24.5851E-03    -11.4245E-03     14.9389E-03    -13.0899E-03     24.3057E-03    -11.3416E-03     14.9654E-03
            2090     6.23028E-03     19.3595E-03    -3.52612E+06    -58.0234E+06    -1.33233E+06     2.54454E+06    -12.5260E-03     23.7536E-03    -11.2276E-03     12.2536E-03    -12.4580E-03     23.4710E-03    -11.1450E-03     12.2845E-03
            2091     5.34116E-03     19.3481E-03    -4.47870E+06    -59.2716E+06    -1.45589E+06     2.83542E+06    -11.9976E-03     23.0592E-03    -11.0616E-03     9.91156E-03    -11.9322E-03     22.7717E-03    -10.9764E-03     9.94668E-03
            2092     4.45159E-03     19.3388E-03    -4.91633E+06    -57.9489E+06    -1.35928E+06     2.56838E+06    -11.5545E-03     22.4734E-03    -10.9190E-03     7.87448E-03    -11.4932E-03     22.1929E-03    -10.8346E-03     7.90654E-03
            2093     3.56168E-03     19.3316E-03    -5.46149E+06    -55.1014E+06    -2.69353E+06     2.41089E+06    -11.1907E-03     21.9847E-03    -10.7941E-03     6.07809E-03    -11.1342E-03     21.7211E-03    -10.7197E-03     6.10841E-03
            2094     2.67150E-03     19.3260E-03    -6.32901E+06    -55.4551E+06    -4.57885E+06     2.26088E+06    -10.9227E-03     21.6198E-03    -10.6971E-03     4.43873E-03    -10.8673E-03     21.3584E-03    -10.6304E-03     4.46735E-03
            2095     1.78112E-03     19.3222E-03    -7.13188E+06    -56.1023E+06    -5.84448E+06     1.62426E+06    -10.7352E-03     21.3605E-03    -10.6253E-03     2.93632E-03    -10.6811E-03     21.0988E-03    -10.5628E-03     2.95693E-03
            2096     890.580E-06     19.3198E-03    -7.71178E+06    -53.2235E+06    -7.25846E+06      906.12E+03    -10.6134E-03     21.1696E-03    -10.5562E-03     1.57373E-03    -10.5642E-03     20.9253E-03    -10.5041E-03     1.58523E-03
            2097     16.8431E-03     18.9474E-03    -3.96376E+06     139.988E+06     47.1161E+06     773.516E+03    -33.5254E-03     48.6721E-03    -15.1467E-03     213.170E-03    -38.0893E-03     53.5824E-03    -15.1084E-03     215.844E-03
            2098     15.9649E-03     18.7833E-03    -5.44282E+06     80.4129E+06    -9.74762E+06     817.891E+03    -27.3397E-03     41.7780E-03    -14.4383E-03     132.942E-03    -28.5488E-03     43.2817E-03    -14.5958E-03     133.086E-03
            2099     15.0863E-03     18.6916E-03    -4.31693E+06     26.5364E+06    -14.4333E+06     928.004E+03    -22.9300E-03     36.9559E-03    -14.0259E-03     74.7424E-03    -23.1342E-03     37.2810E-03    -14.1303E-03     74.6847E-03
            2100     14.2036E-03     18.6395E-03    -3.55740E+06    -12.5977E+06    -12.5353E+06     457.562E+03    -20.6045E-03     34.2822E-03    -13.6777E-03     49.8630E-03    -20.6361E-03     34.2928E-03    -13.7169E-03     49.8204E-03
            2101     13.3216E-03     18.5944E-03    -3.24247E+06    -37.6763E+06    -14.9551E+06     418.551E+03    -19.7305E-03     33.0422E-03    -13.3117E-03     45.1375E-03    -19.6995E-03     32.9094E-03    -13.3271E-03     45.1068E-03
            2102     12.4380E-03     18.5516E-03    -2.53491E+06    -42.9322E+06    -5.66699E+06     1.03930E+06    -18.6234E-03     31.6079E-03    -12.9845E-03     39.9933E-03    -18.5816E-03     31.4212E-03    -12.9469E-03     39.9828E-03
            2103     11.5540E-03     18.5163E-03    -2.14435E+06    -44.2307E+06    -3.99393E+06     1.54208E+06    -17.5360E-03     30.1672E-03    -12.6312E-03     33.3785E-03    -17.4854E-03     29.9636E-03    -12.5839E-03     33.3824E-03
            2104     10.6687E-03     18.4857E-03    -1.85713E+06    -53.9369E+06    -5.17995E+06     1.75600E+06    -16.5582E-03     28.8522E-03    -12.2940E-03     28.6121E-03    -16.4867E-03     28.5976E-03    -12.2390E-03     28.6240E-03
            2105     9.78296E-03     18.4594E-03    -1.59644E+06    -56.2769E+06    -797.232E+03     1.90954E+06    -15.5548E-03     27.5509E-03    -11.9961E-03     24.3186E-03    -15.4829E-03     27.2758E-03    -11.9161E-03     24.3359E-03
            2106     8.89614E-03     18.4369E-03    -1.52289E+06    -52.1656E+06    -1.33556E+06     2.00112E+06    -14.5806E-03     26.2741E-03    -11.6934E-03     20.5482E-03    -14.5123E-03     26.0191E-03    -11.6223E-03     20.5691E-03
            2107     8.00867E-03     18.4180E-03    -1.56435E+06    -55.2895E+06    -609.814E+03     2.12776E+06    -13.7252E-03     25.1648E-03    -11.4396E-03     17.0990E-03    -13.6530E-03     24.8926E-03    -11.3603E-03     17.1230E-03
            2108     7.12043E-03     18.4021E-03    -1.95747E+06    -57.1811E+06    -5.01812E+03     2.79685E+06    -12.9696E-03     24.1853E-03    -11.2157E-03     14.1191E-03    -12.8971E-03     23.9029E-03    -11.1300E-03     14.1526E-03
            2109     6.23163E-03     18.3890E-03    -2.61202E+06    -57.8651E+06    -603.069E+03     3.38175E+06    -12.3238E-03     23.3393E-03    -11.0156E-03     11.5643E-03    -12.2524E-03     23.0551E-03    -10.9309E-03     11.6061E-03
            2110     5.34228E-03     18.3782E-03    -3.34968E+06    -58.3484E+06    -1.51412E+06     3.06899E+06    -11.7804E-03     22.6241E-03    -10.8437E-03     9.34396E-03    -11.7106E-03     22.3396E-03    -10.7618E-03     9.38219E-03
            2111     4.45252E-03     18.3695E-03    -4.03859E+06    -56.8836E+06    -1.94719E+06     2.51277E+06    -11.3338E-03     22.0336E-03    -10.6998E-03     7.41190E-03    -11.2688E-03     21.7580E-03    -10.6212E-03     7.44331E-03
            2112     3.56242E-03     18.3627E-03    -4.61527E+06    -54.7086E+06    -2.20335E+06     2.38810E+06    -10.9818E-03     21.5638E-03    -10.5820E-03     5.69696E-03    -10.9225E-03     21.3003E-03    -10.5070E-03     5.72703E-03
            2113     2.67205E-03     18.3575E-03    -5.07140E+06    -54.0967E+06    -3.15390E+06     2.35221E+06    -10.7130E-03     21.2002E-03    -10.4872E-03     4.15505E-03    -10.6554E-03     20.9417E-03    -10.4172E-03     4.18489E-03
            2114     1.78149E-03     18.3539E-03    -5.60025E+06    -54.2744E+06    -4.40986E+06     1.64745E+06    -10.5182E-03     20.9342E-03    -10.4160E-03     2.74435E-03    -10.4611E-03     20.6774E-03    -10.3512E-03     2.76528E-03
            2115     890.806E-06     18.3517E-03    -5.96371E+06    -51.5017E+06    -5.70423E+06     887.767E+03    -10.3842E-03     20.7571E-03    -10.3729E-03     1.46127E-03    -10.3310E-03     20.5166E-03    -10.3181E-03     1.47256E-03
            2116     16.8466E-03     17.9608E-03    -3.34185E+06     139.597E+06     48.2850E+06     909.013E+03    -34.7967E-03     49.8694E-03    -15.0727E-03     209.643E-03    -39.1593E-03     54.5759E-03    -15.0289E-03     212.091E-03
            2117     15.9689E-03     17.7978E-03    -3.80709E+06     81.0456E+06    -8.44717E+06     931.106E+03    -27.2754E-03     41.5924E-03    -14.3169E-03     131.265E-03    -28.4350E-03     43.0508E-03    -14.4712E-03     131.384E-03
            2118     15.0874E-03     17.7102E-03    -4.11150E+06     27.0410E+06    -14.3135E+06     695.334E+03    -22.7190E-03     36.6174E-03    -13.8984E-03     73.1350E-03    -22.9142E-03     36.9356E-03    -14.0032E-03     73.0765E-03
            2119     14.2063E-03     17.6587E-03    -3.79445E+06    -12.6160E+06    -12.6344E+06     437.840E+03    -20.6369E-03     34.1822E-03    -13.5453E-03     48.8779E-03    -20.6672E-03     34.1910E-03    -13.5847E-03     48.8357E-03
            2120     13.3232E-03     17.6155E-03    -2.64399E+06    -37.8700E+06    -14.8095E+06     470.292E+03    -19.6323E-03     32.8040E-03    -13.1718E-03     44.1405E-03    -19.5966E-03     32.6675E-03    -13.1871E-03     44.1117E-03
            2121     12.4401E-03     17.5734E-03    -2.26667E+06    -43.5314E+06    -6.03485E+06     949.396E+03    -18.6595E-03     31.4933E-03    -12.8338E-03     38.7901E-03    -18.6141E-03     31.3028E-03    -12.7975E-03     38.7790E-03
            2122     11.5557E-03     17.5398E-03    -2.07670E+06    -44.4959E+06    -4.35220E+06     1.47361E+06    -17.5109E-03     29.9780E-03    -12.4671E-03     32.1719E-03    -17.4584E-03     29.7728E-03    -12.4213E-03     32.1755E-03
            2123     10.6707E-03     17.5102E-03    -1.77703E+06    -53.7513E+06    -5.29926E+06     1.67649E+06    -16.4893E-03     28.6087E-03    -12.1194E-03     27.4445E-03    -16.4171E-03     28.3548E-03    -12.0654E-03     27.4558E-03
            2124     9.78466E-03     17.4853E-03    -1.54708E+06    -56.2692E+06    -216.119E+03     1.66670E+06    -15.4534E-03     27.2694E-03    -11.8159E-03     23.1110E-03    -15.3819E-03     26.9932E-03    -11.7332E-03     23.1255E-03
            2125     8.89788E-03     17.4640E-03    -1.28323E+06    -51.9733E+06    -409.099E+03     1.71437E+06    -14.4475E-03     25.9542E-03    -11.5066E-03     19.4253E-03    -14.3795E-03     25.6983E-03    -11.4315E-03     19.4426E-03
            2126     8.01019E-03     17.4461E-03    -1.10588E+06    -55.6016E+06     47.7167E+03     2.11082E+06    -13.5610E-03     24.8073E-03    -11.2463E-03     16.0938E-03    -13.4869E-03     24.5318E-03    -11.1638E-03     16.1177E-03
            2127     7.12186E-03     17.4312E-03    -1.23061E+06    -57.9504E+06     572.824E+03     3.01445E+06    -12.7920E-03     23.8106E-03    -11.0185E-03     13.2393E-03    -12.7156E-03     23.5223E-03    -10.9299E-03     13.2758E-03
            2128     6.23285E-03     17.4189E-03    -1.44715E+06    -57.4047E+06    -95.1586E+03     3.63256E+06    -12.1346E-03     22.9477E-03    -10.8131E-03     10.8103E-03    -12.0588E-03     22.6633E-03    -10.7283E-03     10.8554E-03
            2129     5.34337E-03     17.4088E-03    -1.80005E+06    -57.1608E+06    -521.748E+03     3.50430E+06    -11.5893E-03     22.2295E-03    -10.6401E-03     8.69755E-03    -11.5149E-03     21.9472E-03    -10.5573E-03     8.74150E-03
            2130     4.45342E-03     17.4007E-03    -2.49247E+06    -55.7004E+06    -1.23375E+06     2.96892E+06    -11.1416E-03     21.6344E-03    -10.4928E-03     6.87609E-03    -11.0716E-03     21.3614E-03    -10.4146E-03     6.91346E-03
            2131     3.56315E-03     17.3942E-03    -3.17171E+06    -53.9333E+06    -1.71352E+06      2.4149E+06    -10.7817E-03     21.1546E-03    -10.3730E-03     5.26572E-03    -10.7169E-03     20.8921E-03    -10.2987E-03     5.29619E-03
            2132     2.67261E-03     17.3895E-03    -3.55949E+06    -52.9310E+06    -1.94166E+06     2.06201E+06    -10.5013E-03     20.7832E-03    -10.2819E-03     3.83102E-03    -10.4396E-03     20.5265E-03    -10.2096E-03     3.85715E-03
            2133     1.78185E-03     17.3861E-03    -3.73851E+06    -52.3905E+06    -2.62063E+06     1.45186E+06    -10.3093E-03     20.5247E-03    -10.2154E-03     2.53325E-03    -10.2482E-03     20.2720E-03    -10.1471E-03     2.55167E-03
            2134     890.928E-06     17.3841E-03    -3.94037E+06    -50.0153E+06    -3.41508E+06     634.603E+03    -10.1988E-03     20.3640E-03    -10.1652E-03     1.33864E-03    -10.1409E-03     20.1247E-03    -10.1040E-03     1.34667E-03
            2135     16.8460E-03     16.9690E-03    -3.52020E+06     138.928E+06     48.8626E+06     200.377E+03    -35.3441E-03     50.3985E-03    -15.0544E-03     206.345E-03    -39.5659E-03     54.9595E-03    -15.0065E-03     208.645E-03
            2136     15.9683E-03     16.8156E-03    -4.24228E+06     81.0410E+06    -8.53139E+06     1.08682E+06    -27.5979E-03     41.8580E-03    -14.2600E-03     128.517E-03    -28.6954E-03     43.2530E-03    -14.4141E-03     128.610E-03
            2137     15.0888E-03     16.7261E-03    -4.11821E+06     27.3392E+06    -14.6587E+06     1.19213E+06    -22.8112E-03     36.6296E-03    -13.8184E-03     71.8455E-03    -22.9983E-03     36.9417E-03    -13.9253E-03     71.7933E-03
            2138     14.2073E-03     16.6794E-03    -3.62476E+06    -11.9933E+06    -12.3525E+06     473.003E+03    -20.8628E-03     34.3139E-03    -13.4511E-03     47.7841E-03    -20.8909E-03     34.3225E-03    -13.4902E-03     47.7427E-03
            2139     13.3249E-03     16.6357E-03    -3.21866E+06    -38.1964E+06    -15.1913E+06     389.390E+03    -19.8417E-03     32.8962E-03    -13.0546E-03     43.2597E-03    -19.8066E-03     32.7582E-03    -13.0705E-03     43.2302E-03
            2140     12.4416E-03     16.5957E-03    -2.47634E+06    -44.0338E+06    -6.22092E+06     912.177E+03    -18.7132E-03     31.4114E-03    -12.6981E-03     37.3656E-03    -18.6668E-03     31.2179E-03    -12.6618E-03     37.3548E-03
            2141     11.5575E-03     16.5631E-03    -2.01313E+06    -44.6405E+06     -3.8348E+06     1.17600E+06    -17.5231E-03     29.8424E-03    -12.3193E-03     30.8397E-03    -17.4703E-03     29.6351E-03    -12.2708E-03     30.8401E-03
            2142     10.6724E-03     16.5351E-03    -1.27007E+06    -53.7531E+06    -4.47922E+06     1.33334E+06    -16.4665E-03     28.4252E-03    -11.9587E-03     26.0811E-03    -16.3926E-03     28.1690E-03    -11.9013E-03     26.0883E-03
            2143     9.78640E-03     16.5114E-03    -662.194E+03    -55.8469E+06     1.22685E+06     1.25394E+06    -15.3783E-03     27.0238E-03    -11.6454E-03     21.7765E-03    -15.3048E-03     26.7462E-03    -11.5574E-03     21.7859E-03
            2144     8.89947E-03     16.4914E-03    -314.638E+03    -52.1477E+06     1.00791E+06     1.21777E+06    -14.3473E-03     25.6742E-03    -11.3269E-03     18.1365E-03    -14.2762E-03     25.4139E-03    -11.2458E-03     18.1477E-03
            2145     8.01174E-03     16.4746E-03    -179.145E+03    -56.4007E+06     616.907E+03     2.07175E+06    -13.4312E-03     24.4859E-03    -11.0547E-03     14.9298E-03    -13.3520E-03     24.2041E-03    -10.9696E-03     14.9534E-03
            2146     7.12322E-03     16.4607E-03    -371.628E+03    -58.5674E+06     1.21930E+06     3.08927E+06    -12.6409E-03     23.4609E-03    -10.8201E-03     12.1916E-03    -12.5601E-03     23.1674E-03    -10.7285E-03     12.2292E-03
            2147     6.23412E-03     16.4491E-03    -724.793E+03    -57.1693E+06     725.628E+03     3.75978E+06    -11.9648E-03     22.5731E-03    -10.6083E-03     9.88219E-03    -11.8869E-03     22.2876E-03    -10.5207E-03     9.92910E-03
            2148     5.34443E-03     16.4397E-03    -1.16406E+06    -56.0193E+06     263.924E+03     3.79812E+06    -11.4039E-03     21.8324E-03    -10.4285E-03     7.90074E-03    -11.3290E-03     21.5537E-03    -10.3442E-03     7.94857E-03
            2149     4.45438E-03     16.4321E-03    -1.37737E+06    -54.2269E+06    -233.733E+03     3.17377E+06    -10.9440E-03     21.2204E-03    -10.2764E-03     6.21907E-03    -10.8720E-03     20.9517E-03    -10.1970E-03     6.25917E-03
            2150     3.56392E-03     16.4262E-03    -1.45492E+06    -52.7323E+06    -652.963E+03     2.47485E+06    -10.5726E-03     20.7260E-03    -10.1534E-03     4.74488E-03    -10.5025E-03     20.4655E-03    -10.0781E-03     4.77620E-03
            2151     2.67317E-03     16.4217E-03    -1.54744E+06    -51.6401E+06    -714.580E+03     1.77023E+06    -10.2886E-03     20.3496E-03    -10.0610E-03     3.43102E-03    -10.2205E-03     20.0947E-03    -9.98745E-03     3.45343E-03
            2152     1.78221E-03     16.4186E-03    -1.66257E+06    -50.8351E+06    -784.425E+03     1.06548E+06    -10.0905E-03     20.0873E-03    -9.99677E-03     2.26890E-03    -10.0240E-03     19.8367E-03    -9.92457E-03     2.28236E-03
            2153     891.176E-06     16.4166E-03    -1.75108E+06    -48.9150E+06    -1.44523E+06     315.825E+03    -9.98794E-03     19.9311E-03    -9.94314E-03     1.21971E-03    -9.92358E-03     19.6912E-03    -9.87690E-03     1.22363E-03
            2154     16.8449E-03     15.9780E-03    -4.11579E+06     137.555E+06     48.2082E+06    -65.6717E+03    -35.5158E-03     50.5819E-03    -15.0662E-03     202.415E-03    -39.6044E-03     55.0047E-03    -15.0186E-03     204.612E-03
            2155     15.9699E-03     15.8298E-03    -4.72432E+06     79.7834E+06    -8.89904E+06     903.162E+03    -28.1996E-03     42.4369E-03    -14.2373E-03     123.382E-03    -29.2193E-03     43.7491E-03    -14.3906E-03     123.434E-03
            2156     15.0895E-03     15.7448E-03    -3.73268E+06     28.5908E+06    -14.2425E+06     1.59390E+06    -22.9854E-03     36.7455E-03    -13.7601E-03     69.4633E-03    -23.1627E-03     37.0524E-03    -13.8673E-03     69.4156E-03
            2157     14.2078E-03     15.6980E-03    -4.21272E+06    -10.5507E+06    -12.8189E+06     757.744E+03    -21.0899E-03     34.4594E-03    -13.3696E-03     46.2089E-03    -21.1196E-03     34.4740E-03    -13.4122E-03     46.1717E-03
            2158     13.3263E-03     15.6563E-03    -4.12974E+06    -38.6658E+06    -16.3398E+06     351.025E+03    -20.1739E-03     33.1203E-03    -12.9464E-03     41.6043E-03    -20.1396E-03     32.9816E-03    -12.9661E-03     41.5744E-03
            2159     12.4433E-03     15.6178E-03    -3.32657E+06    -44.2565E+06    -7.78261E+06     442.613E+03    -18.8227E-03     31.3850E-03    -12.5622E-03     35.7637E-03    -18.7769E-03     31.1928E-03    -12.5321E-03     35.7475E-03
            2160     11.5591E-03     15.5867E-03    -2.36534E+06    -44.6713E+06    -4.56239E+06     498.069E+03    -17.5902E-03     29.7580E-03    -12.1678E-03     29.3050E-03    -17.5373E-03     29.5514E-03    -12.1224E-03     29.2972E-03
            2161     10.6741E-03     15.5600E-03    -1.35498E+06    -53.8013E+06    -5.52118E+06     542.846E+03    -16.4924E-03     28.2798E-03    -11.7873E-03     24.4911E-03    -16.4169E-03     28.0245E-03    -11.7350E-03     24.4886E-03
            2162     9.78811E-03     15.5377E-03    -268.817E+03    -55.3994E+06     568.466E+03     391.913E+03    -15.3690E-03     26.8262E-03    -11.4572E-03     20.1774E-03    -15.2930E-03     26.5510E-03    -11.3737E-03     20.1761E-03
            2163     8.90119E-03     15.5190E-03     64.2945E+03    -53.1911E+06     1.71519E+06     1.08809E+06    -14.2940E-03     25.4251E-03    -11.1311E-03     16.5209E-03    -14.2202E-03     25.1578E-03    -11.0455E-03     16.5307E-03
            2164     8.01336E-03     15.5034E-03    -458.438E+03    -57.3008E+06     445.258E+03     2.38524E+06    -13.3378E-03     24.1778E-03    -10.8400E-03     13.4257E-03    -13.2584E-03     23.8921E-03    -10.7540E-03     13.4535E-03
            2165     7.12481E-03     15.4904E-03    -945.721E+03    -58.9275E+06     709.898E+03     3.17868E+06    -12.4984E-03     23.0883E-03    -10.5899E-03     10.8483E-03    -12.4191E-03     22.7944E-03    -10.4995E-03     10.8873E-03
            2166     6.23555E-03     15.4798E-03    -967.814E+03    -56.9441E+06     1.00585E+06     3.57554E+06    -11.7868E-03     22.1565E-03    -10.3697E-03     8.71987E-03    -11.7108E-03     21.8720E-03    -10.2807E-03     8.76454E-03
            2167     5.34578E-03     15.4710E-03    -552.881E+03    -54.8409E+06     1.63802E+06     3.41618E+06    -11.1932E-03     21.3774E-03    -10.1842E-03     6.91843E-03    -11.1190E-03     21.1018E-03    -10.0957E-03     6.96146E-03
            2168     4.45546E-03     15.4641E-03    -237.183E+03    -52.8066E+06     1.26788E+06     2.85298E+06    -10.7065E-03     20.7328E-03    -10.0264E-03     5.40947E-03    -10.6330E-03     20.4674E-03    -9.94312E-03     5.44552E-03
            2169     3.56481E-03     15.4586E-03    -83.9098E+03    -51.4339E+06     748.960E+03     2.19696E+06    -10.3262E-03     20.2260E-03    -9.89982E-03     4.11177E-03    -10.2531E-03     19.9679E-03    -9.82137E-03     4.13957E-03
            2170     2.67386E-03     15.4545E-03     78.2911E+03    -50.2871E+06     449.587E+03     1.58015E+06    -10.0450E-03     19.8474E-03    -9.80248E-03     2.97386E-03    -9.97233E-03     19.5953E-03    -9.72743E-03     2.99387E-03
            2171     1.78273E-03     15.4516E-03     149.221E+03    -49.5021E+06     261.233E+03     809.548E+03    -9.84087E-03     19.5737E-03    -9.73286E-03     1.95353E-03    -9.76872E-03     19.3256E-03    -9.65999E-03     1.96374E-03
            2172     891.335E-06     15.4499E-03     197.688E+03    -48.1942E+06     148.135E+03     268.410E+03    -9.73039E-03     19.4074E-03    -9.67704E-03     1.07183E-03    -9.65965E-03     19.1661E-03    -9.60671E-03     1.07515E-03
            2173     16.8455E-03     14.9860E-03    -3.92961E+06     136.555E+06     47.6475E+06     516.068E+03    -35.6990E-03     50.7686E-03    -15.0696E-03     199.590E-03    -39.6775E-03     55.0799E-03    -15.0237E-03     201.685E-03
            2174     15.9693E-03     14.8431E-03    -5.40241E+06     79.0360E+06    -10.2739E+06     878.022E+03    -28.4197E-03     42.6363E-03    -14.2166E-03     118.572E-03    -29.3652E-03     43.8733E-03    -14.3748E-03     118.597E-03
            2175     15.0907E-03     14.7631E-03    -5.37028E+06     29.5169E+06    -15.8478E+06     1.17757E+06    -23.5912E-03     37.2930E-03    -13.7017E-03     67.1775E-03    -23.7695E-03     37.6030E-03    -13.8160E-03     67.1220E-03
            2176     14.2097E-03     14.7167E-03    -4.86801E+06    -9.82110E+06    -13.7253E+06     977.981E+03    -21.4693E-03     34.7454E-03    -13.2761E-03     44.5345E-03    -21.4995E-03     34.7633E-03    -13.3234E-03     44.5001E-03
            2177     13.3276E-03     14.6766E-03    -3.59016E+06    -38.3250E+06    -16.7635E+06     367.689E+03    -20.3019E-03     33.1311E-03    -12.8292E-03     39.6223E-03    -20.2629E-03     32.9919E-03    -12.8522E-03     39.5935E-03
            2178     12.4449E-03     14.6400E-03    -2.80021E+06    -44.1056E+06    -9.39197E+06    -102.749E+03    -19.0425E-03     31.4589E-03    -12.4164E-03     33.8093E-03    -18.9908E-03     31.2679E-03    -12.3953E-03     33.7866E-03
            2179     11.5610E-03     14.6102E-03    -2.34218E+06    -45.2250E+06    -5.64762E+06     210.769E+03    -17.7460E-03     29.7455E-03    -11.9995E-03     27.4061E-03    -17.6900E-03     29.5370E-03    -11.9587E-03     27.3952E-03
            2180     10.6760E-03     14.5851E-03    -2.10229E+06    -53.0056E+06    -6.77867E+06     45.7931E+03    -16.6049E-03     28.1953E-03    -11.5904E-03     22.4961E-03    -16.5320E-03     27.9465E-03    -11.5444E-03     22.4877E-03
            2181     9.79019E-03     14.5641E-03    -1.73253E+06    -55.5572E+06    -1.22963E+06    -410.922E+03    -15.4287E-03     26.6612E-03    -11.2325E-03     18.1443E-03    -15.3568E-03     26.3896E-03    -11.1556E-03     18.1330E-03
            2182     8.90331E-03     14.5468E-03    -1.53678E+06    -55.2845E+06     1.58673E+06     965.939E+03    -14.2797E-03     25.1712E-03    -10.8915E-03     14.5237E-03    -14.2105E-03     24.8958E-03    -10.8012E-03     14.5321E-03
            2183     8.01551E-03     14.5324E-03    -1.55269E+06    -57.9413E+06     841.274E+03     2.60916E+06    -13.2445E-03     23.8215E-03    -10.5770E-03     11.5914E-03    -13.1701E-03     23.5334E-03    -10.4865E-03     11.6223E-03
            2184     7.12683E-03     14.5206E-03    -1.71526E+06    -58.9328E+06     1.32168E+06     3.09631E+06    -12.3318E-03     22.6394E-03    -10.3075E-03     9.22339E-03    -12.2572E-03     22.3456E-03    -10.2130E-03     9.26145E-03
            2185     6.23742E-03     14.5108E-03    -1.63205E+06    -56.1707E+06     1.10165E+06     2.86793E+06    -11.5489E-03     21.6188E-03    -10.0699E-03     7.34671E-03    -11.4774E-03     21.3389E-03    -9.98055E-03     7.38241E-03
            2186     5.34737E-03     14.5029E-03    -1.24759E+06    -53.9395E+06     1.53452E+06     2.42718E+06    -10.9162E-03     20.7908E-03    -9.87456E-03     5.78866E-03    -10.8466E-03     20.5208E-03    -9.78686E-03     5.81905E-03
            2187     4.45688E-03     14.4965E-03    -788.992E+03    -51.7407E+06     1.31177E+06     2.14555E+06    -10.4088E-03     20.1200E-03    -9.71120E-03     4.48299E-03    -10.3397E-03     19.8606E-03    -9.62847E-03     4.51001E-03
            2188     3.56592E-03     14.4915E-03    -441.142E+03    -50.2679E+06     619.898E+03     1.72905E+06    -10.0138E-03     19.5933E-03    -9.57953E-03     3.38481E-03    -9.94404E-03     19.3418E-03    -9.50291E-03     3.40664E-03
            2189     2.67469E-03     14.4877E-03    -198.169E+03    -49.1786E+06     116.739E+03     1.22855E+06    -9.72502E-03     19.2041E-03    -9.47907E-03     2.43740E-03    -9.65489E-03     18.9583E-03    -9.40689E-03     2.45293E-03
            2190     1.78323E-03     14.4851E-03     76.2614E+03    -48.3402E+06    -101.699E+03     681.278E+03    -9.52689E-03     18.9321E-03    -9.40519E-03     1.58832E-03    -9.45627E-03     18.6904E-03    -9.33572E-03     1.59690E-03
            2191     891.723E-06     14.4836E-03     243.685E+03    -47.7300E+06     182.552E+03     246.003E+03    -9.42389E-03     18.7515E-03    -9.32765E-03     885.067E-06    -9.35364E-03     18.5124E-03    -9.25788E-03     888.126E-06
            2192     16.8450E-03     13.9921E-03    -3.65623E+06     136.385E+06     48.5561E+06     902.681E+03    -35.7362E-03     50.8038E-03    -15.0677E-03     195.858E-03    -39.5783E-03     54.9766E-03    -15.0173E-03     197.825E-03
            2193     15.9697E-03     13.8587E-03    -6.19624E+06     78.5580E+06    -10.6422E+06     965.950E+03    -28.5251E-03     42.7184E-03    -14.1933E-03     113.712E-03    -29.4060E-03     43.8873E-03    -14.3514E-03     113.724E-03
            2194     15.0905E-03     13.7780E-03    -5.64631E+06     29.5684E+06    -16.9276E+06     1.04127E+06    -24.2924E-03     37.9298E-03    -13.6374E-03     63.7120E-03    -24.4615E-03     38.2331E-03    -13.7568E-03     63.6511E-03
            2195     14.2111E-03     13.7362E-03    -4.11979E+06    -8.74283E+06    -13.1118E+06     853.871E+03    -21.8373E-03     35.0132E-03    -13.1759E-03     42.3227E-03    -21.8629E-03     35.0313E-03    -13.2228E-03     42.2869E-03
            2196     13.3293E-03     13.6967E-03    -3.64587E+06    -37.3703E+06    -16.8910E+06     164.600E+03    -20.6141E-03     33.3089E-03    -12.6948E-03     37.7231E-03    -20.5747E-03     33.1729E-03    -12.7198E-03     37.6922E-03
            2197     12.4469E-03     13.6620E-03    -2.78200E+06    -44.2213E+06    -9.82154E+06    -197.887E+03    -19.3722E-03     31.6191E-03    -12.2469E-03     31.4069E-03    -19.3183E-03     31.4270E-03    -12.2279E-03     31.3835E-03
            2198     11.5632E-03     13.6338E-03    -2.49697E+06    -46.0261E+06    -5.20940E+06     323.692E+03    -18.0399E-03     29.8360E-03    -11.7960E-03     24.9595E-03    -17.9834E-03     29.6224E-03    -11.7517E-03     24.9505E-03
            2199     10.6787E-03     13.6101E-03    -2.21759E+06    -51.5323E+06    -5.40760E+06    -4.11814E+03    -16.7718E-03     28.1211E-03    -11.3493E-03     20.0084E-03    -16.7032E-03     27.8774E-03    -11.2984E-03     19.9997E-03
            2200     9.79288E-03     13.5907E-03    -2.11986E+06    -55.9357E+06    -586.645E+03    -611.047E+03    -15.4995E-03     26.4548E-03    -10.9553E-03     15.7008E-03    -15.4296E-03     26.1806E-03    -10.8740E-03     15.6872E-03
            2201     8.90611E-03     13.5749E-03    -2.37590E+06    -57.8514E+06     2.52289E+06     665.935E+03    -14.2518E-03     24.8390E-03    -10.5872E-03     12.2091E-03    -14.1843E-03     24.5504E-03    -10.4873E-03     12.2139E-03
            2202     8.01821E-03     13.5619E-03    -2.67319E+06    -58.5558E+06     1.93542E+06     2.34557E+06    -13.1143E-03     23.3573E-03    -10.2430E-03     9.51715E-03    -13.0461E-03     23.0661E-03    -10.1445E-03     9.54487E-03
            2203     7.12943E-03     13.5512E-03    -2.75647E+06    -58.4038E+06     2.43669E+06     2.60849E+06    -12.1123E-03     22.0612E-03    -9.94891E-03     7.38395E-03    -12.0452E-03     21.7700E-03    -9.84805E-03     7.41588E-03
            2204     6.23978E-03     13.5425E-03    -2.79761E+06    -55.2092E+06     1.36018E+06     2.17572E+06    -11.2537E-03     20.9428E-03    -9.68915E-03     5.75969E-03    -11.1897E-03     20.6690E-03    -9.59824E-03     5.78660E-03
            2205     5.34945E-03     13.5353E-03    -2.81810E+06    -53.1089E+06     60.2802E+03     1.63805E+06    -10.5650E-03     20.0392E-03    -9.47416E-03     4.44998E-03    -10.5023E-03     19.7777E-03    -9.39276E-03     4.47030E-03
            2206     4.45858E-03     13.5296E-03    -2.64222E+06    -51.1250E+06    -431.586E+03     1.24507E+06    -10.0283E-03     19.3307E-03    -9.30241E-03     3.37710E-03    -9.96681E-03     19.0796E-03    -9.22661E-03     3.39259E-03
            2207     3.56735E-03     13.5251E-03    -2.27339E+06    -49.4875E+06    -923.322E+03     1.06761E+06    -9.61293E-03     18.7792E-03    -9.16623E-03     2.52275E-03    -9.55123E-03     18.5364E-03    -9.09579E-03     2.53613E-03
            2208     2.67578E-03     13.5217E-03    -1.92769E+06    -48.3555E+06    -1.37425E+06     779.683E+03    -9.30772E-03     18.3714E-03    -9.06367E-03     1.80652E-03    -9.24527E-03     18.1344E-03    -8.99763E-03     1.81631E-03
            2209     1.78399E-03     13.5194E-03    -1.73774E+06    -47.5838E+06    -1.55619E+06     481.761E+03    -9.10706E-03     18.0978E-03    -8.99070E-03     1.17815E-03    -9.04449E-03     17.8646E-03    -8.92697E-03     1.18420E-03
            2210     892.004E-06     13.5179E-03    -1.69036E+06    -47.2783E+06    -1.70543E+06     235.922E+03    -8.99771E-03     17.9203E-03    -8.92258E-03     630.793E-06    -8.93506E-03     17.6889E-03    -8.86010E-03     633.745E-06
            2211     16.8470E-03     13.0056E-03    -3.43626E+06     135.555E+06     49.1317E+06     904.547E+03    -36.3636E-03     51.4041E-03    -15.0405E-03     190.825E-03    -39.9947E-03     55.3621E-03    -14.9864E-03     192.624E-03
            2212     15.9695E-03     12.8686E-03     -4.5866E+06      78.799E+06    -8.94104E+06     1.56927E+06    -28.7370E-03     42.8660E-03    -14.1290E-03     109.065E-03    -29.5481E-03     43.9667E-03    -14.2813E-03     109.060E-03
            2213     15.0939E-03     12.7956E-03    -4.75767E+06     29.8113E+06    -16.3678E+06     1.62775E+06    -24.3357E-03     37.8839E-03    -13.5482E-03     60.0420E-03    -24.4884E-03     38.1732E-03    -13.6664E-03     59.9893E-03
            2214     14.2122E-03     12.7541E-03    -4.28221E+06    -7.99210E+06    -13.0940E+06     1.01352E+06    -22.2998E-03     35.3579E-03    -13.0580E-03     40.2807E-03    -22.3246E-03     35.3771E-03    -13.1057E-03     40.2470E-03
            2215     13.3316E-03     12.7169E-03    -4.33155E+06    -36.2790E+06    -16.5304E+06     249.641E+03    -21.3250E-03     33.8538E-03    -12.5288E-03     35.1904E-03    -21.2894E-03     33.7220E-03    -12.5526E-03     35.1604E-03
            2216     12.4495E-03     12.6836E-03    -4.18517E+06    -44.4613E+06    -9.90824E+06     28.7492E+03    -19.8706E-03     31.8940E-03    -12.0234E-03     28.4968E-03    -19.8221E-03     31.7016E-03    -12.0024E-03     28.4768E-03
            2217     11.5666E-03     12.6571E-03    -3.65775E+06    -46.1032E+06    -5.79752E+06    -133.428E+03    -18.3560E-03     29.8736E-03    -11.5176E-03     22.0636E-03    -18.3036E-03     29.6614E-03    -11.4744E-03     22.0493E-03
            2218     10.6820E-03     12.6354E-03    -2.64004E+06    -50.6337E+06    -5.57505E+06    -536.266E+03    -16.9298E-03     27.9547E-03    -11.0249E-03     17.2178E-03    -16.8638E-03     27.7159E-03    -10.9755E-03     17.2028E-03
            2219     9.79650E-03     12.6175E-03    -2.43814E+06    -56.5295E+06    -57.5642E+03    -282.066E+03    -15.5117E-03     26.1087E-03    -10.5970E-03     12.9987E-03    -15.4431E-03     25.8310E-03    -10.5118E-03     12.9897E-03
            2220     8.90964E-03     12.6034E-03    -3.58450E+06    -60.0025E+06     3.34500E+06     982.729E+03    -14.1563E-03     24.3562E-03    -10.1999E-03     9.69996E-03    -14.0927E-03     24.0572E-03    -10.0910E-03     9.70908E-03
            2221     8.02169E-03     12.5918E-03    -4.58547E+06    -58.9674E+06     2.31099E+06     2.02129E+06    -12.9166E-03     22.7386E-03    -9.82201E-03     7.28026E-03    -12.8577E-03     22.4475E-03    -9.71831E-03     7.30399E-03
            2222     7.13267E-03     12.5825E-03    -4.98041E+06    -57.5351E+06     1.53217E+06     1.89387E+06    -11.8254E-03     21.3201E-03    -9.49476E-03     5.43080E-03    -11.7693E-03     21.0377E-03    -9.39646E-03     5.45366E-03
            2223     6.24278E-03     12.5748E-03    -4.96034E+06    -54.4817E+06     175.682E+03     1.34554E+06    -10.9065E-03     20.1185E-03    -9.21207E-03     4.10078E-03    -10.8526E-03     19.8532E-03    -9.12500E-03     4.11709E-03
            2224     5.35216E-03     12.5686E-03    -4.75692E+06    -52.3345E+06    -1.39178E+06     947.067E+03    -10.1561E-03     19.1334E-03    -8.97727E-03     3.06042E-03    -10.1020E-03     18.8807E-03    -8.90145E-03     3.07191E-03
            2225     4.46092E-03     12.5635E-03    -4.63295E+06    -50.6540E+06    -2.50500E+06     564.876E+03    -9.56236E-03     18.3525E-03    -8.79014E-03     2.24562E-03    -9.50849E-03     18.1096E-03    -8.72250E-03     2.25241E-03
            2226     3.56921E-03     12.5596E-03    -4.49999E+06    -49.1184E+06    -3.01122E+06     323.906E+03    -9.11553E-03     17.7619E-03    -8.64638E-03     1.62352E-03    -9.06247E-03     17.5272E-03    -8.58369E-03     1.62735E-03
            2227     2.67716E-03     12.5566E-03    -4.26782E+06     -47.967E+06    -3.35497E+06     252.583E+03    -8.78935E-03     17.3293E-03    -8.53990E-03     1.14315E-03    -8.73629E-03     17.1005E-03    -8.48093E-03     1.14618E-03
            2228     1.78488E-03     12.5544E-03    -4.06033E+06    -47.2742E+06    -3.72723E+06     226.268E+03    -8.57213E-03     17.0392E-03    -8.46709E-03     735.770E-06    -8.51848E-03     16.8141E-03    -8.41129E-03     738.544E-06
            2229     892.506E-06     12.5532E-03    -3.94367E+06    -46.8715E+06    -3.86047E+06     175.963E+03    -8.46179E-03     16.8769E-03    -8.41506E-03     367.652E-06    -8.40789E-03     16.6539E-03    -8.36068E-03     369.845E-06
            2230     16.8460E-03     12.0114E-03    -3.21022E+06     134.438E+06     49.0818E+06     913.691E+03    -37.3109E-03     52.3146E-03    -15.0037E-03     185.878E-03    -40.7389E-03     56.0665E-03    -14.9485E-03     187.480E-03
            2231     15.9743E-03     11.8826E-03    -4.50749E+06     78.4306E+06    -8.63335E+06     2.45577E+06    -28.9206E-03     42.9682E-03    -14.0476E-03     104.901E-03    -29.6675E-03     44.0029E-03    -14.1980E-03     104.886E-03
            2232     15.0927E-03     11.8118E-03    -4.99383E+06     30.8840E+06    -15.5357E+06     2.22798E+06    -24.7109E-03     38.1497E-03    -13.4388E-03     57.4285E-03    -24.8579E-03     38.4337E-03    -13.5540E-03     57.3839E-03
            2233     14.2147E-03     11.7721E-03    -5.20936E+06    -7.27130E+06    -12.6031E+06     957.987E+03    -23.3144E-03     36.2079E-03    -12.8935E-03     37.3894E-03    -23.3430E-03     36.2288E-03    -12.9384E-03     37.3533E-03
            2234     13.3344E-03     11.7357E-03    -4.81697E+06    -35.9562E+06    -15.6805E+06     604.007E+03    -22.0435E-03     34.3371E-03    -12.2936E-03     31.7192E-03    -22.0098E-03     34.2043E-03    -12.3129E-03     31.6937E-03
            2235     12.4537E-03     11.7051E-03    -4.46699E+06    -44.0821E+06    -8.97848E+06     289.270E+03    -20.3472E-03     32.0720E-03    -11.7248E-03     25.0721E-03    -20.3007E-03     31.8793E-03    -11.6993E-03     25.0559E-03
            2236     11.5705E-03     11.6806E-03    -4.34094E+06    -45.1713E+06    -5.73515E+06    -649.745E+03    -18.6121E-03     29.7720E-03    -11.1599E-03     18.9703E-03    -18.5637E-03     29.5646E-03    -11.1168E-03     18.9500E-03
            2237     10.6865E-03     11.6606E-03    -4.13863E+06    -50.9306E+06     -6.0248E+06    -963.485E+03    -16.9951E-03     27.6168E-03    -10.6217E-03     14.2066E-03    -16.9351E-03     27.3789E-03    -10.5720E-03     14.1865E-03
            2238     9.80085E-03     11.6448E-03    -4.65465E+06    -57.9137E+06    -152.410E+03     290.233E+03    -15.3985E-03     25.5598E-03    -10.1613E-03     10.2622E-03    -15.3385E-03     25.2783E-03    -10.0714E-03     10.2609E-03
            2239     8.91396E-03     11.6324E-03    -5.57671E+06    -60.9515E+06     4.25099E+06     1.33073E+06    -13.9370E-03     23.6755E-03    -9.73853E-03     7.28037E-03    -13.8831E-03     23.3732E-03    -9.62081E-03     7.29420E-03
            2240     8.02578E-03     11.6225E-03    -6.21661E+06    -58.9760E+06     2.62682E+06     1.50673E+06    -12.6092E-03     21.9400E-03    -9.33083E-03     5.20497E-03    -12.5588E-03     21.6506E-03    -9.22317E-03     5.22221E-03
            2241     7.13651E-03     11.6145E-03    -6.46494E+06    -56.6120E+06     427.544E+03     1.18887E+06    -11.4545E-03     20.4282E-03    -8.97371E-03     3.73555E-03    -11.4055E-03     20.1541E-03    -8.88011E-03     3.74942E-03
            2242     6.24628E-03     11.6081E-03    -6.74341E+06    -53.8451E+06    -1.30942E+06     568.204E+03    -10.4920E-03     19.1627E-03    -8.67069E-03     2.72890E-03    -10.4459E-03     18.9053E-03    -8.58938E-03     2.73523E-03
            2243     5.35523E-03     11.6027E-03    -6.90935E+06    -51.9222E+06    -3.12125E+06     192.874E+03    -9.70017E-03     18.1172E-03    -8.41702E-03     1.95446E-03    -9.65495E-03     17.8722E-03    -8.34732E-03     1.95626E-03
            2244     4.46357E-03     11.5985E-03    -6.91001E+06    -50.2877E+06    -4.37565E+06      13.528E+03    -9.06185E-03     17.2741E-03    -8.21223E-03     1.36538E-03    -9.01717E-03     17.0390E-03    -8.15117E-03     1.36506E-03
            2245     3.57138E-03     11.5951E-03    -6.91390E+06    -48.9623E+06    -5.32470E+06    -205.099E+03    -8.57286E-03     16.6248E-03    -8.05199E-03     932.276E-06    -8.52873E-03     16.3978E-03    -7.99759E-03     929.285E-06
            2246     2.67887E-03     11.5926E-03    -6.93646E+06    -48.0035E+06    -6.00938E+06    -238.192E+03    -8.21638E-03     16.1482E-03    -7.93186E-03     610.373E-06    -8.17276E-03     15.9270E-03    -7.88225E-03     607.066E-06
            2247     1.78604E-03     11.5907E-03     -6.8485E+06    -47.2728E+06    -6.41791E+06    -84.0402E+03    -7.97013E-03     15.8189E-03    -7.84873E-03     365.673E-06    -7.92653E-03     15.6017E-03    -7.80235E-03     364.443E-06
            2248     893.020E-06     11.5896E-03    -6.66977E+06    -46.7764E+06    -6.58851E+06    -47.6540E+03    -7.84243E-03     15.6306E-03    -7.78818E-03     166.150E-06    -7.79834E-03     15.4160E-03    -7.74362E-03     165.455E-06
            2249     16.8486E-03     11.0157E-03    -4.29754E+06     132.440E+06     48.6433E+06     1.33124E+06    -37.8359E-03     52.8340E-03    -14.9980E-03     181.460E-03    -41.0769E-03     56.3892E-03    -14.9406E-03     182.889E-03
            2250     15.9716E-03     10.8974E-03    -6.48124E+06     78.6683E+06    -7.64029E+06     2.57934E+06    -30.2855E-03     44.2669E-03    -13.9814E-03     99.9025E-03    -30.9917E-03     45.2518E-03    -14.1243E-03     99.8594E-03
            2251     15.0970E-03     10.8262E-03    -6.86450E+06     32.4755E+06    -14.5589E+06     2.04555E+06    -26.1758E-03     39.4491E-03    -13.2733E-03     53.2254E-03    -26.3269E-03     39.7336E-03    -13.3833E-03     53.1717E-03
            2252     14.2184E-03     10.7889E-03    -6.08372E+06    -6.92143E+06    -12.2977E+06     1.11743E+06    -24.0789E-03     36.7188E-03    -12.6399E-03     34.0021E-03    -24.1090E-03     36.7385E-03    -12.6825E-03     33.9683E-03
            2253     13.3395E-03     10.7546E-03    -5.19214E+06    -35.2717E+06    -14.6994E+06     1.16884E+06    -22.6282E-03     34.6048E-03    -11.9766E-03     28.2415E-03    -22.5966E-03     34.4723E-03    -11.9914E-03     28.2240E-03
            2254     12.4580E-03     10.7265E-03    -5.13460E+06    -43.4226E+06    -7.92811E+06     459.459E+03    -20.6742E-03     32.0240E-03    -11.3498E-03     21.5955E-03    -20.6321E-03     31.8327E-03    -11.3191E-03     21.5825E-03
            2255     11.5759E-03     10.7040E-03    -5.33569E+06    -44.0139E+06    -3.91941E+06    -385.273E+03    -18.7207E-03     29.4602E-03    -10.7395E-03     15.7431E-03    -18.6809E-03     29.2568E-03    -10.6876E-03     15.7268E-03
            2256     10.6916E-03     10.6865E-03    -6.28786E+06    -51.6399E+06    -4.60494E+06    -444.830E+03    -16.8301E-03     26.9980E-03    -10.1679E-03     11.3185E-03    -16.7816E-03     26.7572E-03    -10.1069E-03     11.3056E-03
            2257     9.80589E-03     10.6727E-03    -6.80247E+06    -59.2756E+06    -196.164E+03     228.967E+03    -15.0879E-03     24.7661E-03    -9.67828E-03     7.87457E-03    -15.0364E-03     24.4808E-03    -9.58345E-03     7.87286E-03
            2258     8.91861E-03     10.6622E-03    -6.98687E+06    -61.1544E+06     3.83608E+06     830.053E+03    -13.5264E-03     22.7631E-03    -9.23670E-03     5.34911E-03    -13.4787E-03     22.4624E-03    -9.11871E-03     5.35668E-03
            2259     8.03008E-03     10.6540E-03    -7.41365E+06     -58.775E+06     2.06204E+06     884.567E+03    -12.1562E-03     20.9747E-03    -8.81848E-03     3.66868E-03    -12.1113E-03     20.6889E-03    -8.71219E-03     3.67798E-03
            2260     7.14035E-03     10.6476E-03    -7.96755E+06    -55.8571E+06    -630.563E+03     562.975E+03    -10.9926E-03     19.4434E-03    -8.45081E-03     2.60621E-03    -10.9506E-03     19.1767E-03    -8.36142E-03     2.61203E-03
            2261     6.24969E-03     10.6422E-03    -8.39192E+06    -53.2746E+06    -2.53358E+06     81.1575E+03    -10.0312E-03     18.1693E-03    -8.13809E-03     1.87134E-03    -9.99231E-03     17.9188E-03    -8.06134E-03     1.87138E-03
            2262     5.35827E-03     10.6380E-03    -8.80478E+06    -51.6976E+06    -4.81666E+06    -290.985E+03    -9.23209E-03     17.1031E-03    -7.87105E-03     1.31548E-03    -9.19423E-03     16.8645E-03    -7.80741E-03     1.31100E-03
            2263     4.46617E-03     10.6345E-03    -9.10572E+06    -50.2036E+06    -6.32059E+06    -475.834E+03    -8.58140E-03     16.2323E-03    -7.65091E-03     903.830E-06    -8.54501E-03     16.0037E-03    -7.59651E-03     897.161E-06
            2264     3.57357E-03     10.6318E-03    -9.33704E+06    -49.0267E+06    -7.60910E+06    -485.173E+03    -8.06442E-03     15.5368E-03    -7.47236E-03     602.963E-06    -8.02901E-03     15.3162E-03    -7.42578E-03     596.320E-06
            2265     2.68050E-03     10.6296E-03    -9.56812E+06    -48.1826E+06    -8.67222E+06    -460.505E+03    -7.67239E-03     15.0051E-03    -7.33275E-03     378.003E-06    -7.63780E-03     14.7907E-03    -7.29238E-03     371.795E-06
            2266     1.78720E-03     10.6282E-03    -9.72225E+06    -47.4733E+06    -9.25026E+06    -348.931E+03    -7.39150E-03     14.6215E-03    -7.22999E-03     209.864E-06    -7.35787E-03     14.4116E-03    -7.19331E-03     205.191E-06
            2267     893.694E-06     10.6272E-03    -9.82466E+06    -47.0539E+06    -9.65511E+06    -172.256E+03    -7.22657E-03     14.3712E-03    -7.14460E-03     75.9941E-06    -7.19340E-03     14.1642E-03    -7.11041E-03     73.6764E-06
            2268     16.8449E-03     10.0273E-03    -4.85688E+06     131.426E+06     51.5238E+06     2.28017E+06    -39.2411E-03     54.2164E-03    -14.9753E-03     174.368E-03    -42.2425E-03     57.5181E-03    -14.9012E-03     175.609E-03
            2269     15.9755E-03     9.90217E-03    -6.96078E+06     78.6374E+06    -4.03515E+06     1.85479E+06    -31.9550E-03     45.8086E-03    -13.8536E-03     93.0615E-03    -32.6052E-03     46.7253E-03    -13.9778E-03     92.9673E-03
            2270     15.1013E-03     9.84309E-03    -5.57266E+06     32.9486E+06    -12.4780E+06     1.65482E+06    -27.2255E-03     40.2614E-03    -13.0358E-03     48.5457E-03    -27.3627E-03     40.5322E-03    -13.1379E-03     48.4836E-03
            2271     14.2228E-03     9.80427E-03    -5.82013E+06    -6.75056E+06    -10.6691E+06     2.43921E+06    -24.7555E-03     37.0839E-03    -12.3284E-03     31.6200E-03    -24.7838E-03     37.0986E-03    -12.3635E-03     31.6039E-03
            2272     13.3440E-03     9.77376E-03    -6.24269E+06    -34.0029E+06    -12.9454E+06     1.77260E+06    -23.1520E-03     34.7542E-03    -11.6021E-03     24.5780E-03    -23.1279E-03     34.6249E-03    -11.6085E-03     24.5690E-03
            2273     12.4641E-03     9.74753E-03    -6.68386E+06    -42.2561E+06    -6.38640E+06     805.020E+03    -20.8158E-03     31.7369E-03    -10.9211E-03     18.0685E-03    -20.7843E-03     31.5504E-03    -10.8820E-03     18.0609E-03
            2274     11.5814E-03     9.72822E-03    -7.40939E+06    -43.3151E+06    -2.40666E+06     115.438E+03    -18.4457E-03     28.7268E-03    -10.2811E-03     12.7729E-03    -18.4190E-03     28.5271E-03    -10.2196E-03     12.7639E-03
            2275     10.6970E-03     9.71295E-03    -7.69343E+06    -51.7504E+06    -2.79755E+06    -328.099E+03    -16.3687E-03     26.0694E-03    -9.70075E-03     8.95401E-03    -16.3293E-03     25.8273E-03    -9.62854E-03     8.94314E-03
            2276     9.81071E-03     9.70161E-03    -7.92421E+06    -60.0339E+06    -711.782E+03    -125.783E+03    -14.5104E-03     23.7131E-03    -9.20276E-03     6.11459E-03    -14.4626E-03     23.4263E-03    -9.10778E-03     6.10859E-03
            2277     8.92295E-03     9.69294E-03    -8.62606E+06    -61.3211E+06     1.39790E+06     239.532E+03    -12.9086E-03     21.6717E-03    -8.76313E-03     4.13606E-03    -12.8652E-03     21.3760E-03    -8.65472E-03     4.13618E-03
            2278     8.03381E-03     9.68655E-03    -9.25836E+06    -58.5380E+06     597.140E+03     255.161E+03    -11.5694E-03     19.9337E-03    -8.36423E-03     2.87556E-03    -11.5320E-03     19.6538E-03    -8.26294E-03     2.87678E-03
            2279     7.14363E-03     9.68146E-03    -9.58292E+06    -55.2984E+06    -1.49122E+06    -105.489E+03    -10.4642E-03     18.4757E-03    -8.01148E-03     2.17901E-03    -10.4299E-03     18.2154E-03    -7.92486E-03     2.17618E-03
            2280     6.25255E-03     9.67737E-03    -9.91826E+06    -53.0088E+06    -3.73936E+06    -424.550E+03    -9.55008E-03     17.2563E-03    -7.70626E-03     1.69933E-03    -9.51749E-03     17.0112E-03    -7.63371E-03     1.69279E-03
            2281     5.36070E-03     9.67409E-03    -10.3179E+06    -51.5309E+06    -6.18360E+06    -582.530E+03    -8.79014E-03     16.2335E-03    -7.44338E-03     1.32647E-03    -8.75811E-03     15.9999E-03    -7.38462E-03     1.31817E-03
            2282     4.46821E-03     9.67148E-03    -10.8125E+06    -50.3221E+06    -8.15467E+06    -674.323E+03    -8.16489E-03     15.3868E-03    -7.22190E-03     1.04754E-03    -8.13420E-03     15.1627E-03    -7.17403E-03     1.03826E-03
            2283     3.57522E-03     9.66938E-03    -11.3117E+06    -49.2671E+06    -9.52398E+06    -573.248E+03    -7.66250E-03     14.7012E-03    -7.03868E-03     795.209E-06    -7.63384E-03     14.4851E-03    -6.99846E-03     787.386E-06
            2284     2.68185E-03     9.66785E-03    -11.7243E+06    -48.4234E+06    -10.6433E+06    -485.946E+03    -7.25820E-03     14.1487E-03    -6.89045E-03     568.878E-06    -7.23118E-03     13.9390E-03    -6.85646E-03     562.306E-06
            2285     1.78809E-03     9.66668E-03    -12.0534E+06    -47.8659E+06    -11.5971E+06    -413.268E+03    -6.94935E-03     13.7290E-03    -6.77962E-03     359.959E-06    -6.92340E-03     13.5239E-03    -6.75072E-03     354.431E-06
            2286     894.096E-06     9.66610E-03    -12.2155E+06    -47.3964E+06    -12.0072E+06    -224.538E+03    -6.78708E-03     13.4665E-03    -6.67939E-03     199.273E-06    -6.76195E-03     13.2647E-03    -6.65299E-03     196.269E-06
            2287     16.8516E-03     9.02756E-03    -3.08106E+06     131.201E+06     54.6364E+06     2.44043E+06    -41.5959E-03     56.4646E-03    -14.8687E-03     167.210E-03    -44.3562E-03     59.5219E-03    -14.7813E-03     168.173E-03
            2288     15.9802E-03     8.91381E-03    -4.49804E+06     78.5272E+06     458.522E+03     2.66736E+06    -32.7004E-03     46.3458E-03    -13.6453E-03     87.2199E-03    -33.2794E-03     47.1867E-03    -13.7504E-03     87.1116E-03
            2289     15.1039E-03     8.85536E-03    -5.20614E+06     32.4164E+06    -9.92927E+06     2.31118E+06    -28.0037E-03     40.7584E-03    -12.7546E-03     44.0627E-03    -28.1309E-03     41.0111E-03    -12.8437E-03     44.0090E-03
            2290     14.2284E-03     8.82126E-03    -5.73445E+06    -5.72654E+06    -8.42657E+06     3.17964E+06    -25.6237E-03     37.5933E-03    -11.9695E-03     27.8575E-03    -25.6534E-03     37.6069E-03    -11.9950E-03     27.8508E-03
            2291     13.3504E-03     8.79124E-03    -6.95937E+06    -32.9378E+06    -10.1273E+06     2.76869E+06    -23.2266E-03     34.4154E-03    -11.1888E-03     20.8554E-03    -23.2097E-03     34.2864E-03    -11.1816E-03     20.8610E-03
            2292     12.4699E-03     8.76996E-03    -7.85895E+06    -40.7528E+06    -3.99924E+06     1.40914E+06    -20.4500E-03     30.9330E-03    -10.4830E-03     14.7688E-03    -20.4291E-03     30.7513E-03    -10.4325E-03     14.7703E-03
            2293     11.5869E-03     8.75292E-03    -8.40745E+06    -42.0750E+06    -6.57212E+03    -66.3539E+03    -17.7649E-03     27.6119E-03    -9.84707E-03     10.5165E-03    -17.7480E-03     27.4160E-03    -9.77391E-03     10.5062E-03
            2294     10.7017E-03     8.74070E-03    -8.64789E+06    -51.6997E+06    -618.572E+03    -774.393E+03    -15.5597E-03     24.8508E-03    -9.29112E-03     7.35551E-03    -15.5283E-03     24.6070E-03    -9.20671E-03     7.33943E-03
            2295     9.81477E-03     8.73150E-03    -9.20292E+06    -60.7786E+06     262.781E+03    -330.989E+03    -13.6674E-03     22.4923E-03    -8.82483E-03     5.20399E-03    -13.6264E-03     22.2021E-03    -8.72204E-03     5.19564E-03
            2296     8.92619E-03     8.72493E-03    -9.90170E+06    -61.2514E+06     861.468E+03    -33.2591E+03    -12.1141E-03     20.5334E-03    -8.41934E-03     3.82370E-03    -12.0764E-03     20.2407E-03    -8.31186E-03     3.82044E-03
            2297     8.03643E-03     8.71999E-03    -10.4320E+06     -58.053E+06    -638.409E+03    -585.923E+03    -10.8866E-03     18.9464E-03    -8.05979E-03     3.01107E-03    -10.8540E-03     18.6725E-03    -7.96368E-03     3.00147E-03
            2298     7.14566E-03     8.71631E-03    -10.6828E+06    -55.1707E+06    -2.90450E+06    -924.819E+03    -9.89422E-03     17.6414E-03    -7.74718E-03     2.62811E-03    -9.86361E-03     17.3855E-03    -7.66622E-03     2.61470E-03
            2299     6.25407E-03     8.71326E-03    -11.0287E+06    -53.0351E+06    -5.10662E+06    -897.443E+03    -9.08256E-03     16.5619E-03    -7.47933E-03     2.35529E-03    -9.05353E-03     16.3203E-03    -7.41197E-03     2.34262E-03
            2300     5.36184E-03     8.71096E-03    -11.5387E+06    -51.6384E+06    -7.29295E+06    -833.695E+03    -8.42098E-03     15.6713E-03    -7.25029E-03     2.08554E-03    -8.39331E-03     15.4405E-03    -7.19514E-03     2.07396E-03
            2301     4.46906E-03     8.70907E-03    -12.0180E+06    -50.5466E+06    -9.17619E+06    -715.542E+03    -7.87657E-03     14.9331E-03    -7.05650E-03     1.83509E-03    -7.85012E-03     14.7111E-03    -7.01166E-03     1.82525E-03
            2302     3.57582E-03     8.70766E-03    -12.4317E+06    -49.5314E+06    -10.4862E+06    -664.883E+03    -7.43556E-03     14.3320E-03    -6.89642E-03     1.55403E-03    -7.41073E-03     14.1176E-03    -6.85900E-03     1.54501E-03
            2303     2.68221E-03     8.70656E-03    -12.7236E+06    -48.7594E+06    -11.5075E+06    -555.549E+03    -7.08319E-03     13.8511E-03    -6.76790E-03     1.21061E-03    -7.05944E-03     13.6425E-03    -6.73629E-03     1.20313E-03
            2304     1.78833E-03     8.70592E-03    -12.9931E+06    -48.2652E+06    -12.4149E+06    -443.630E+03    -6.81496E-03     13.4877E-03    -6.67277E-03     829.987E-06    -6.79194E-03     13.2833E-03    -6.64602E-03     824.063E-06
            2305     894.206E-06     8.70545E-03    -13.1493E+06    -47.8810E+06    -12.8326E+06    -310.762E+03    -6.66721E-03     13.2659E-03    -6.59865E-03     476.118E-06    -6.64484E-03     13.0642E-03    -6.57432E-03     472.000E-06
            2306     16.8518E-03     8.02937E-03    -3.34194E+06     128.185E+06     54.5894E+06     1.65974E+06    -43.4698E-03     58.2407E-03    -14.7708E-03     161.373E-03    -45.9912E-03     61.0477E-03    -14.6789E-03     162.073E-03
            2307     15.9825E-03     7.92276E-03    -4.82943E+06     79.4803E+06     3.53194E+06     3.88642E+06    -34.7940E-03     48.2242E-03    -13.4302E-03     81.5170E-03    -35.3300E-03     49.0155E-03    -13.5208E-03     81.3906E-03
            2308     15.1110E-03     7.86800E-03    -6.85260E+06     33.6732E+06    -8.60583E+06     3.82140E+06    -29.2041E-03     41.6195E-03    -12.4154E-03     38.6703E-03    -29.3314E-03     41.8675E-03    -12.4973E-03     38.6344E-03
            2309     14.2347E-03     7.83636E-03    -7.79465E+06    -6.51495E+06    -9.60027E+06     3.54184E+06    -25.5394E-03     37.1008E-03    -11.5614E-03     24.3365E-03    -25.5729E-03     37.1115E-03    -11.5886E-03     24.3379E-03
            2310     13.3563E-03     7.81096E-03    -8.15850E+06    -30.9762E+06    -8.08476E+06     3.60524E+06    -22.6655E-03     33.4491E-03    -10.7836E-03     17.8755E-03    -22.6586E-03     33.3270E-03    -10.7673E-03     17.8948E-03
            2311     12.4750E-03     7.79249E-03    -8.46921E+06    -38.3912E+06    -798.367E+03     1.67317E+06    -19.4958E-03     29.6007E-03    -10.1050E-03     12.2950E-03    -19.4851E-03     29.4262E-03    -10.0410E-03     12.3020E-03
            2312     11.5912E-03     7.77943E-03    -9.12789E+06    -40.4537E+06     3.34938E+06    -414.516E+03    -16.6809E-03     26.1989E-03    -9.51796E-03     9.11147E-03    -16.6747E-03     26.0070E-03    -9.42932E-03     9.09771E-03
            2313     10.7050E-03     7.76940E-03    -10.0251E+06    -51.7327E+06     2.24193E+06    -1.07792E+06    -14.4029E-03     23.4296E-03    -9.02668E-03     6.84781E-03    -14.3824E-03     23.1834E-03    -8.92592E-03     6.82842E-03
            2314     9.81701E-03     7.76287E-03    -10.5713E+06    -61.5022E+06     1.56218E+06    -889.475E+03    -12.6197E-03     21.2472E-03    -8.62750E-03     5.40705E-03    -12.5864E-03     20.9535E-03    -8.51518E-03     5.39182E-03
            2315     8.92755E-03     7.75782E-03    -10.6421E+06    -60.8378E+06     421.877E+03    -991.030E+03    -11.2259E-03     19.5124E-03    -8.28644E-03     4.61287E-03    -11.1920E-03     19.2235E-03    -8.18068E-03     4.59744E-03
            2316     8.03701E-03     7.75445E-03    -10.6090E+06    -57.6886E+06    -2.11131E+06    -1.37540E+06    -10.1848E-03     18.1795E-03    -7.99464E-03     4.14121E-03    -10.1515E-03     17.9098E-03    -7.90616E-03     4.12151E-03
            2317     7.14565E-03     7.75175E-03    -11.0462E+06    -55.3880E+06    -4.41048E+06    -1.47845E+06    -9.37253E-03     17.1249E-03    -7.75232E-03     3.89601E-03    -9.34128E-03     16.8706E-03    -7.67804E-03     3.87547E-03
            2318     6.25365E-03     7.74976E-03    -11.5235E+06    -53.3678E+06    -6.13086E+06    -1.30831E+06    -8.71770E-03     16.2699E-03    -7.55219E-03     3.69901E-03    -8.68920E-03     16.0288E-03    -7.48875E-03     3.68105E-03
            2319     5.36112E-03     7.74809E-03    -11.9092E+06    -51.9875E+06    -7.71010E+06    -1.07838E+06    -8.21027E-03     15.5967E-03    -7.38647E-03     3.41685E-03    -8.18335E-03     15.3654E-03    -7.33237E-03     3.40213E-03
            2320     4.46820E-03     7.74693E-03    -12.2348E+06    -50.7544E+06    -8.88819E+06    -1.02541E+06    -7.80363E-03     15.0547E-03    -7.25110E-03     3.07453E-03    -7.77839E-03     14.8317E-03    -7.20421E-03     3.06070E-03
            2321     3.57492E-03     7.74594E-03    -12.3389E+06    -49.8224E+06    -10.0164E+06    -1.04393E+06    -7.47911E-03     14.6221E-03    -7.14304E-03     2.64318E-03    -7.45408E-03     14.4055E-03    -7.10298E-03     2.62929E-03
            2322     2.68141E-03     7.74531E-03    -12.3177E+06    -49.2559E+06    -11.0039E+06    -915.363E+03    -7.24269E-03     14.3045E-03    -7.06182E-03     2.08416E-03    -7.21693E-03     14.0921E-03    -7.02755E-03     2.07206E-03
            2323     1.78769E-03     7.74487E-03    -12.2496E+06    -48.7884E+06    -11.5585E+06    -647.648E+03    -7.09227E-03     14.0956E-03    -7.00333E-03     1.45753E-03    -7.06602E-03     13.8862E-03    -6.97261E-03     1.44899E-03
            2324     893.908E-06     7.74468E-03    -12.2775E+06    -48.5557E+06    -11.9948E+06    -432.523E+03    -6.98863E-03     13.9532E-03    -6.96452E-03     803.874E-06    -6.96215E-03     13.7457E-03    -6.93629E-03     798.194E-06
            2325     16.8519E-03     7.03182E-03    -4.79428E+06     125.764E+06     53.9347E+06     1.73264E+06    -46.0767E-03     60.7428E-03    -14.6661E-03     152.373E-03    -48.3282E-03     63.2680E-03    -14.5718E-03     152.820E-03
            2326     15.9872E-03     6.92383E-03    -6.94432E+06     77.0250E+06     2.34232E+06     3.89654E+06    -36.8641E-03     50.0337E-03    -13.1695E-03     72.4689E-03    -37.3400E-03     50.7523E-03    -13.2595E-03     72.3097E-03
            2327     15.1172E-03     6.88201E-03    -7.82085E+06     34.3308E+06    -8.60971E+06     6.08474E+06    -29.3587E-03     41.4240E-03    -12.0654E-03     32.9186E-03    -29.4790E-03     41.6640E-03    -12.1469E-03     32.9174E-03
            2328     14.2399E-03     6.85290E-03    -10.6434E+06    -5.13689E+06    -8.96532E+06     5.52072E+06    -24.8676E-03     36.0745E-03    -11.2069E-03     22.0913E-03    -24.9154E-03     36.0925E-03    -11.2288E-03     22.1233E-03
            2329     13.3609E-03     6.83102E-03    -11.6493E+06    -28.6482E+06    -6.68659E+06     3.11244E+06    -21.4800E-03     31.9483E-03    -10.4683E-03     15.2134E-03    -21.4944E-03     31.8393E-03    -10.4433E-03     15.2300E-03
            2330     12.4786E-03     6.81724E-03    -11.3722E+06    -35.2930E+06     1.94162E+06     904.626E+03    -17.9533E-03     27.8197E-03    -9.86642E-03     10.8491E-03    -17.9650E-03     27.6603E-03    -9.78905E-03     10.8484E-03
            2331     11.5932E-03     6.80685E-03    -11.3784E+06    -38.9193E+06     6.57558E+06    -1.13228E+06    -15.1146E-03     24.4960E-03    -9.38144E-03     8.94871E-03    -15.1264E-03     24.3103E-03    -9.27563E-03     8.92683E-03
            2332     10.7058E-03     6.80009E-03    -11.5916E+06    -51.9389E+06     4.96042E+06    -1.88726E+06    -13.0328E-03     22.0300E-03    -8.99719E-03     7.66198E-03    -13.0238E-03     21.7812E-03    -8.88027E-03     7.63279E-03
            2333     9.81651E-03     6.79502E-03    -11.6794E+06    -61.5719E+06     1.66281E+06    -2.05768E+06    -11.5108E-03     20.2023E-03    -8.69153E-03     6.83495E-03    -11.4831E-03     19.9098E-03    -8.57700E-03     6.80503E-03
            2334     8.92620E-03     6.79189E-03    -11.5124E+06    -60.6357E+06    -1.19189E+06    -2.39704E+06    -10.4086E-03     18.8514E-03    -8.44281E-03     6.40582E-03    -10.3770E-03     18.5672E-03    -8.34416E-03     6.37247E-03
            2335     8.03496E-03     6.78926E-03    -11.3867E+06    -58.0051E+06    -3.36241E+06    -2.30063E+06    -9.62716E-03     17.8744E-03    -8.24726E-03     6.06837E-03    -9.59547E-03     17.6062E-03    -8.16346E-03     6.03687E-03
            2336     7.14323E-03     6.78762E-03    -11.3313E+06    -55.7491E+06    -4.89563E+06    -1.99630E+06    -9.04716E-03     17.1419E-03    -8.09475E-03     5.74888E-03    -9.01614E-03     16.8870E-03    -8.02196E-03     5.72176E-03
            2337     6.25096E-03     6.78617E-03    -11.4506E+06    -53.8448E+06    -5.98851E+06    -1.87398E+06    -8.60578E-03     16.5829E-03    -7.97711E-03     5.45586E-03    -8.57645E-03     16.3391E-03    -7.91238E-03     5.43067E-03
            2338     5.35839E-03     6.78511E-03    -11.3330E+06    -52.3609E+06    -6.83500E+06    -1.83253E+06    -8.28704E-03     16.1743E-03    -7.88722E-03     4.97715E-03    -8.25799E-03     15.9389E-03    -7.82904E-03     4.95276E-03
            2339     4.46556E-03     6.78425E-03    -10.9653E+06    -51.0342E+06    -7.39317E+06    -1.82428E+06    -8.05188E-03     15.8724E-03    -7.82053E-03     4.38953E-03    -8.02207E-03     15.6439E-03    -7.76759E-03     4.36546E-03
            2340     3.57258E-03     6.78365E-03    -10.7121E+06    -50.3243E+06    -8.31110E+06    -1.74946E+06    -7.88671E-03     15.6593E-03    -7.77259E-03     3.69610E-03    -7.85530E-03     15.4353E-03    -7.72564E-03     3.67315E-03
            2341     2.67946E-03     6.78317E-03    -10.4985E+06    -50.0126E+06    -9.19398E+06    -1.50752E+06    -7.78939E-03     15.5309E-03    -7.74152E-03     2.87732E-03    -7.75608E-03     15.3094E-03    -7.69975E-03     2.85761E-03
            2342     1.78633E-03     6.78287E-03    -10.2037E+06    -49.7628E+06    -9.68319E+06    -1.10059E+06    -7.74104E-03     15.4644E-03    -7.72337E-03     1.98020E-03    -7.70589E-03     15.2444E-03    -7.68483E-03     1.96583E-03
            2343     893.155E-06     6.78270E-03    -9.86467E+06    -49.4374E+06    -9.78704E+06    -693.093E+03    -7.71571E-03     15.4324E-03    -7.71667E-03     1.07262E-03    -7.67910E-03     15.2138E-03    -7.67962E-03     1.06359E-03
            2344     16.8575E-03     6.02379E-03    -4.72155E+06     123.761E+06     54.1130E+06     2.56145E+06    -49.6401E-03     64.1206E-03    -14.4804E-03     141.550E-03    -51.6237E-03     66.3712E-03    -14.3824E-03     141.675E-03
            2345     15.9946E-03     5.92961E-03    -7.60864E+06     72.7538E+06     1.67905E+06     6.01399E+06    -36.6473E-03     49.5108E-03    -12.8636E-03     61.8966E-03    -37.0393E-03     50.1305E-03    -12.9496E-03     61.7656E-03
            2346     15.1200E-03     5.89533E-03    -11.2366E+06     34.1009E+06    -6.80592E+06     8.95292E+06    -28.2024E-03     39.9827E-03    -11.7803E-03     27.1888E-03    -28.3305E-03     40.2121E-03    -11.8475E-03     27.2365E-03
            2347     14.2443E-03     5.87003E-03    -14.1038E+06     294.157E+03    -4.32573E+06     7.60078E+06    -23.5090E-03     34.4915E-03    -10.9824E-03     19.3226E-03    -23.5861E-03     34.5324E-03    -10.9840E-03     19.3868E-03
            2348     13.3636E-03     5.85340E-03    -16.0402E+06    -24.7504E+06    -3.59293E+06     2.83223E+06    -19.3170E-03     29.6548E-03    -10.3378E-03     13.8270E-03    -19.3622E-03     29.5658E-03    -10.2966E-03     13.8446E-03
            2349     12.4792E-03     5.84352E-03    -15.9761E+06    -31.8155E+06     4.32101E+06    -1.53466E+06    -15.7992E-03     25.6728E-03    -9.87360E-03     11.2585E-03    -15.8422E-03     25.5337E-03    -9.78269E-03     11.2287E-03
            2350     11.5920E-03     5.83657E-03    -14.5429E+06    -38.2032E+06     9.31436E+06    -3.60784E+06    -13.3461E-03     22.8858E-03    -9.53966E-03     10.6578E-03    -13.3787E-03     22.7042E-03    -9.41661E-03     10.6052E-03
            2351     10.7028E-03     5.83154E-03    -13.8125E+06    -52.5845E+06     6.68822E+06    -3.48976E+06    -11.7491E-03     21.0365E-03    -9.28738E-03     9.85339E-03    -11.7528E-03     20.7851E-03    -9.15766E-03     9.80421E-03
            2352     9.81267E-03     5.82838E-03    -13.5922E+06    -61.1394E+06     1.56669E+06    -3.71919E+06    -10.6377E-03     19.7294E-03    -9.09167E-03     9.25627E-03    -10.6200E-03     19.4419E-03    -8.97548E-03     9.20537E-03
            2353     8.92155E-03     5.82599E-03    -12.9631E+06    -60.9626E+06    -2.15345E+06    -4.13237E+06    -9.91139E-03     18.8568E-03    -8.94544E-03     8.84884E-03    -9.88520E-03     18.5745E-03    -8.84901E-03     8.79339E-03
            2354     8.03008E-03     5.82427E-03    -11.9774E+06    -58.8271E+06    -4.11931E+06    -3.86584E+06    -9.43458E-03     18.2779E-03    -8.84328E-03     8.30627E-03    -9.40356E-03     18.0074E-03    -8.76121E-03     8.25479E-03
            2355     7.13813E-03     5.82302E-03    -11.0144E+06    -56.5607E+06    -4.71791E+06    -3.32374E+06    -9.11227E-03     17.8880E-03    -8.77575E-03     7.71434E-03    -9.07874E-03     17.6283E-03    -8.70136E-03     7.67026E-03
            2356     6.24607E-03     5.82201E-03    -10.1046E+06    -54.2102E+06    -4.41788E+06    -3.06771E+06    -8.90804E-03     17.6411E-03    -8.73310E-03     7.08679E-03    -8.87374E-03     17.3913E-03    -8.66193E-03     7.04633E-03
            2357     5.35383E-03     5.82113E-03    -9.34992E+06    -52.7345E+06    -4.78225E+06    -3.24192E+06    -8.76965E-03     17.4739E-03    -8.70424E-03     6.28339E-03    -8.73313E-03     17.2308E-03    -8.63812E-03     6.24092E-03
            2358     4.46154E-03     5.82049E-03    -8.57954E+06    -51.8554E+06    -5.42272E+06    -3.12245E+06    -8.69237E-03     17.3798E-03    -8.68744E-03     5.38075E-03    -8.65231E-03     17.1409E-03    -8.62693E-03     5.33999E-03
            2359     3.56918E-03     5.81995E-03    -7.94648E+06    -51.2960E+06    -5.96131E+06    -2.62622E+06    -8.66081E-03     17.3415E-03    -8.68069E-03     4.40197E-03    -8.61759E-03     17.1052E-03    -8.62459E-03     4.36775E-03
            2360     2.67688E-03     5.81952E-03    -7.60396E+06    -51.1001E+06    -6.54532E+06    -2.15453E+06    -8.65654E-03     17.3366E-03    -8.68008E-03     3.36162E-03    -8.61103E-03     17.1016E-03    -8.62769E-03     3.33359E-03
            2361     1.78456E-03     5.81922E-03    -7.29906E+06    -51.1135E+06    -7.09677E+06    -1.64515E+06    -8.66210E-03     17.3466E-03    -8.68452E-03     2.27683E-03    -8.61423E-03     17.1119E-03    -8.63531E-03     2.25545E-03
            2362     892.258E-06     5.81905E-03    -7.06520E+06    -50.9693E+06    -7.09278E+06    -884.180E+03    -8.69048E-03     17.3781E-03    -8.68767E-03     1.23211E-03    -8.64157E-03     17.1439E-03    -8.63898E-03     1.22063E-03
            2363     16.8628E-03     5.01353E-03    -5.27436E+06     119.165E+06     58.5496E+06     4.24995E+06    -52.2690E-03     66.6197E-03    -14.3507E-03     129.009E-03    -53.9509E-03     68.5384E-03    -14.2231E-03     128.858E-03
            2364     15.9978E-03     4.93809E-03    -9.99496E+06     69.2307E+06     12.6889E+06     9.99898E+06    -35.8061E-03     48.4979E-03    -12.6918E-03     51.7000E-03    -36.1422E-03     49.0089E-03    -12.7142E-03     51.6452E-03
            2365     15.1255E-03     4.90892E-03    -14.4575E+06     34.3339E+06     749.710E+03     12.5790E+06    -25.9583E-03     37.6117E-03    -11.6534E-03     23.6443E-03    -26.1046E-03     37.8269E-03    -11.6785E-03     23.7531E-03
            2366     14.2456E-03     4.89020E-03    -18.4526E+06     6.56837E+06    -278.974E+03     9.66231E+06    -20.3752E-03     31.3593E-03    -10.9841E-03     18.8107E-03    -20.4865E-03     31.4295E-03    -10.9682E-03     18.9100E-03
            2367     13.3618E-03     4.87822E-03    -19.5713E+06    -15.9504E+06     1.52395E+06     1.34678E+06    -16.3604E-03     26.8976E-03    -10.5372E-03     15.5770E-03    -16.4425E-03     26.8494E-03    -10.4781E-03     15.5805E-03
            2368     12.4747E-03     4.87236E-03    -17.8453E+06    -28.5695E+06     7.51809E+06    -5.49921E+06    -13.7171E-03     23.9747E-03    -10.2576E-03     14.2704E-03    -13.7786E-03     23.8497E-03    -10.1527E-03     14.1917E-03
            2369     11.5856E-03     4.86726E-03    -16.8088E+06    -39.3828E+06     10.7778E+06    -6.35907E+06    -12.0800E-03     22.1558E-03    -10.0757E-03     13.8743E-03    -12.1242E-03     21.9693E-03    -9.94037E-03     13.7874E-03
            2370     10.6958E-03     4.86381E-03    -16.6254E+06    -53.1520E+06     7.15599E+06    -5.86181E+06    -11.0201E-03     20.9623E-03    -9.94213E-03     12.8277E-03    -11.0376E-03     20.7113E-03    -9.80517E-03     12.7487E-03
            2371     9.80498E-03     4.86161E-03    -15.4391E+06    -60.8019E+06     1.36514E+06    -6.43504E+06    -10.3891E-03     20.2297E-03    -9.84068E-03     11.9719E-03    -10.3808E-03     19.9468E-03    -9.72330E-03     11.8865E-03
            2372     8.91395E-03     4.85977E-03    -13.5318E+06    -61.6056E+06    -2.57806E+06    -6.87957E+06    -10.0264E-03     19.7985E-03    -9.77216E-03     11.1477E-03    -10.0015E-03     19.5143E-03    -9.67610E-03     11.0571E-03
            2373     8.02256E-03     4.85837E-03    -11.5280E+06    -60.3008E+06    -4.75232E+06    -6.36305E+06    -9.82048E-03     19.5521E-03    -9.73159E-03     10.1223E-03    -9.78412E-03     19.2744E-03    -9.65120E-03     10.0388E-03
            2374     7.13117E-03     4.85737E-03    -9.46190E+06    -57.6435E+06    -3.94010E+06    -5.72205E+06    -9.72214E-03     19.4397E-03    -9.71758E-03     9.09391E-03    -9.68040E-03     19.1711E-03    -9.63997E-03     9.01907E-03
            2375     6.23970E-03     4.85635E-03    -7.38705E+06    -55.0029E+06    -2.89200E+06    -5.39686E+06    -9.67128E-03     19.3844E-03    -9.71310E-03     8.04571E-03    -9.62443E-03     19.1244E-03    -9.63710E-03     7.97532E-03
            2376     5.34825E-03     4.85563E-03    -5.76530E+06    -53.7761E+06    -3.06569E+06    -4.81252E+06    -9.65357E-03     19.3648E-03    -9.71122E-03     6.92327E-03    -9.60010E-03     19.1087E-03    -9.64021E-03     6.86061E-03
            2377     4.45678E-03     4.85492E-03    -5.12569E+06    -53.2271E+06    -3.35937E+06    -4.16039E+06    -9.66001E-03     19.3747E-03    -9.71471E-03     5.78152E-03    -9.60368E-03     19.1209E-03    -9.64690E-03     5.72742E-03
            2378     3.56542E-03     4.85439E-03    -4.80707E+06    -52.8257E+06    -3.54158E+06    -3.51043E+06    -9.67816E-03     19.3987E-03    -9.72054E-03     4.64323E-03    -9.62054E-03     19.1467E-03    -9.65468E-03     4.59763E-03
            2379     2.67400E-03     4.85391E-03    -4.42947E+06    -52.6886E+06    -3.90116E+06    -2.71078E+06    -9.69709E-03     19.4230E-03    -9.72587E-03     3.48960E-03    -9.63724E-03     19.1716E-03    -9.66255E-03     3.45441E-03
            2380     1.78265E-03     4.85359E-03    -4.34146E+06    -52.8343E+06    -4.24489E+06    -1.83732E+06    -9.71564E-03     19.4475E-03    -9.73190E-03     2.33551E-03    -9.65463E-03     19.1958E-03    -9.67022E-03     2.31166E-03
            2381     891.313E-06     4.85338E-03    -4.43564E+06    -52.9427E+06    -4.32499E+06    -959.313E+03    -9.73514E-03     19.4701E-03    -9.73501E-03     1.29481E-03    -9.67422E-03     19.2182E-03    -9.67343E-03     1.28236E-03
            2382     16.8619E-03     4.00258E-03    -5.06195E+06     113.045E+06     63.3846E+06     6.86968E+06    -52.6625E-03     66.9918E-03    -14.3293E-03     108.746E-03    -53.9241E-03     68.4569E-03    -14.1689E-03     108.448E-03
            2383     16.0007E-03     3.94489E-03    -12.3596E+06     64.1214E+06     24.9474E+06     12.7916E+06    -32.4180E-03     45.1781E-03    -12.7601E-03     42.3991E-03    -32.7094E-03     45.5824E-03    -12.7104E-03     42.4287E-03
            2384     15.1233E-03     3.92736E-03    -17.6746E+06     34.8068E+06     10.8100E+06     16.4638E+06    -22.0776E-03     33.9831E-03    -11.9055E-03     24.5184E-03    -22.2488E-03     34.1844E-03    -11.8763E-03     24.6941E-03
            2385     14.2399E-03     3.91375E-03    -19.6539E+06     18.6119E+06     7.39351E+06     9.64367E+06    -16.8625E-03     28.3049E-03    -11.4424E-03     22.7757E-03    -17.0065E-03     28.4240E-03    -11.4039E-03     22.8831E-03
            2386     13.3526E-03     3.90618E-03    -17.9000E+06    -4.55886E+06     6.55491E+06    -2.92007E+06    -14.2108E-03     25.4022E-03    -11.1914E-03     19.9022E-03    -14.3075E-03     25.4003E-03    -11.1261E-03     19.8546E-03
            2387     12.4638E-03     3.90170E-03    -16.2183E+06    -27.8251E+06     8.00660E+06    -8.51334E+06    -12.8358E-03     23.8909E-03    -11.0551E-03     18.0327E-03    -12.8905E-03     23.7660E-03    -10.9512E-03     17.9169E-03
            2388     11.5749E-03     3.89800E-03    -16.1946E+06    -40.8888E+06     8.95516E+06    -8.42834E+06    -11.8988E-03     22.8653E-03    -10.9665E-03     16.7268E-03    -11.9348E-03     22.6727E-03    -10.8389E-03     16.6141E-03
            2389     10.6847E-03     3.89559E-03    -15.3798E+06    -53.0970E+06     5.23717E+06    -9.07708E+06    -11.2882E-03     22.1872E-03    -10.8990E-03     15.1080E-03    -11.2966E-03     21.9372E-03    -10.7735E-03     14.9882E-03
            2390     9.79455E-03     3.89366E-03    -13.2900E+06    -60.7830E+06    -267.391E+03    -10.1960E+06    -11.0290E-03     21.8726E-03    -10.8437E-03     13.6906E-03    -11.0075E-03     21.5888E-03    -10.7376E-03     13.5571E-03
            2391     8.90414E-03     3.89211E-03    -10.9159E+06    -63.1759E+06    -4.40756E+06    -10.1002E+06    -10.8993E-03     21.7012E-03    -10.8019E-03     12.2122E-03    -10.8563E-03     21.4078E-03    -10.7165E-03     12.0804E-03
            2392     8.01373E-03     3.89084E-03    -8.47381E+06    -62.0658E+06    -6.20065E+06    -9.32584E+06    -10.8208E-03     21.5965E-03    -10.7757E-03     10.7544E-03    -10.7644E-03     21.3076E-03    -10.7044E-03     10.6330E-03
            2393     7.12329E-03     3.88972E-03    -5.86283E+06    -59.1406E+06    -4.65800E+06    -8.71406E+06    -10.7962E-03     21.5644E-03    -10.7683E-03     9.38519E-03    -10.7332E-03     21.2841E-03    -10.6973E-03     9.27191E-03
            2394     6.23289E-03     3.88884E-03    -3.76552E+06    -56.9726E+06    -3.18710E+06    -7.71178E+06    -10.7806E-03     21.5450E-03    -10.7644E-03     8.07225E-03    -10.7123E-03     21.2703E-03    -10.6923E-03     7.97210E-03
            2395     5.34245E-03     3.88798E-03    -2.43786E+06     -56.134E+06    -2.79433E+06    -6.16936E+06    -10.7749E-03     21.5345E-03    -10.7596E-03     6.79636E-03    -10.7017E-03     21.2614E-03    -10.6886E-03     6.71625E-03
            2396     4.45208E-03     3.88733E-03    -1.59349E+06    -55.0675E+06    -1.57918E+06    -4.72220E+06    -10.7727E-03     21.5323E-03    -10.7596E-03     5.57682E-03    -10.6986E-03     21.2615E-03    -10.6853E-03     5.51551E-03
            2397     3.56162E-03     3.88672E-03    -1.43459E+06    -54.6431E+06    -1.35029E+06    -3.80795E+06    -10.7651E-03     21.5218E-03    -10.7567E-03     4.41447E-03    -10.6911E-03     21.2526E-03    -10.6822E-03     4.36505E-03
            2398     2.67126E-03     3.88624E-03    -1.60404E+06    -54.7924E+06    -1.72724E+06    -2.85334E+06    -10.7582E-03     21.5111E-03    -10.7529E-03     3.29544E-03    -10.6843E-03     21.2419E-03    -10.6797E-03     3.25842E-03
            2399     1.78084E-03     3.88591E-03    -1.63545E+06    -54.8565E+06    -1.81541E+06    -1.76365E+06    -10.7591E-03     21.5084E-03    -10.7493E-03     2.20516E-03    -10.6852E-03     21.2391E-03    -10.6764E-03     2.18228E-03
            2400     890.442E-06     3.88567E-03    -1.63529E+06    -54.7970E+06    -1.82520E+06    -920.137E+03    -10.7301E-03     21.4947E-03    -10.7646E-03     1.20550E-03    -10.6561E-03     21.2259E-03    -10.6919E-03     1.19356E-03
            2401     16.8687E-03     2.99671E-03    -3.30369E+06     104.542E+06     64.4452E+06     9.59021E+06    -48.4433E-03     63.0184E-03    -14.5751E-03     89.4270E-03    -49.2765E-03     64.0289E-03    -14.3997E-03     89.1818E-03
            2402     15.9930E-03     2.95880E-03    -9.57360E+06     59.7541E+06     33.7843E+06     16.8602E+06    -26.6300E-03     39.9224E-03    -13.2924E-03     39.5608E-03    -26.8704E-03     40.2441E-03    -13.1962E-03     39.6985E-03
            2403     15.1108E-03     2.94880E-03    -13.8522E+06     40.2912E+06     23.5609E+06     15.9411E+06    -18.5417E-03     31.2730E-03    -12.7313E-03     28.9844E-03    -18.7159E-03     31.4730E-03    -12.6518E-03     29.1669E-03
            2404     14.2243E-03     2.94003E-03    -10.5075E+06     33.2421E+06     17.4555E+06     4.93350E+06    -15.8735E-03     28.2904E-03    -12.4169E-03     26.6702E-03    -16.0056E-03     28.4526E-03    -12.3626E-03     26.7215E-03
            2405     13.3369E-03     2.93348E-03    -8.92720E+06     4.05469E+06     6.64196E+06    -4.72778E+06    -14.3131E-03     26.5291E-03    -12.2159E-03     22.3729E-03    -14.3762E-03     26.5555E-03    -12.1757E-03     22.3047E-03
            2406     12.4495E-03     2.93016E-03    -10.8365E+06    -27.3933E+06     1.25659E+06    -9.14870E+06    -13.5084E-03     25.6181E-03    -12.1097E-03     19.4058E-03    -13.5263E-03     25.4965E-03    -12.0480E-03     19.2832E-03
            2407     11.5608E-03     2.92725E-03    -10.4762E+06    -41.4437E+06    -1.13586E+06    -11.0740E+06    -12.9286E-03     24.9542E-03    -12.0256E-03     17.1719E-03    -12.9202E-03     24.7646E-03    -11.9560E-03     17.0259E-03
            2408     10.6722E-03     2.92542E-03    -8.29626E+06    -52.9461E+06    -5.31983E+06    -12.0691E+06    -12.5889E-03     24.5404E-03    -11.9515E-03     15.0949E-03    -12.5465E-03     24.2959E-03    -11.8893E-03     14.9371E-03
            2409     9.78312E-03     2.92355E-03    -6.75416E+06    -61.5788E+06    -9.97184E+06    -12.5799E+06    -12.4316E-03     24.3168E-03    -11.8852E-03     13.1959E-03    -12.3620E-03     24.0334E-03    -11.8360E-03     13.0320E-03
            2410     8.89417E-03     2.92219E-03    -5.36757E+06    -65.4277E+06    -11.4456E+06    -12.1772E+06    -12.2898E-03     24.1248E-03    -11.8349E-03     11.4050E-03    -12.2055E-03     23.8222E-03    -11.7895E-03     11.2467E-03
            2411     8.00506E-03     2.92097E-03    -3.74956E+06    -64.1265E+06    -11.5533E+06    -11.2537E+06    -12.1711E-03     23.9605E-03    -11.7894E-03     9.84528E-03    -12.0803E-03     23.6622E-03    -11.7488E-03     9.69917E-03
            2412     7.11583E-03     2.91996E-03    -2.49082E+06    -61.5209E+06    -10.4786E+06    -10.0862E+06    -12.0661E-03     23.8192E-03    -11.7532E-03     8.41249E-03    -11.9743E-03     23.5305E-03    -11.7127E-03     8.28165E-03
            2413     6.22653E-03     2.91901E-03    -1.87047E+06    -60.1275E+06    -7.73978E+06    -8.31910E+06    -11.9784E-03     23.7101E-03    -11.7316E-03     7.10447E-03    -11.8895E-03     23.4234E-03    -11.6805E-03     6.99658E-03
            2414     5.33721E-03     2.91831E-03    -1.62625E+06    -59.0860E+06    -5.39922E+06    -6.44180E+06    -11.9012E-03     23.6132E-03    -11.7120E-03     5.91370E-03    -11.8159E-03     23.3280E-03    -11.6510E-03     5.83016E-03
            2415     4.44775E-03     2.91759E-03    -1.45357E+06    -57.5478E+06    -3.99799E+06    -4.87876E+06    -11.8281E-03     23.5181E-03    -11.6899E-03     4.80820E-03    -11.7462E-03     23.2382E-03    -11.6244E-03     4.74493E-03
            2416     3.55835E-03     2.91708E-03    -1.37059E+06    -56.7334E+06    -2.71832E+06    -3.42600E+06    -11.7628E-03     23.4349E-03    -11.6721E-03     3.77067E-03    -11.6835E-03     23.1571E-03    -11.6015E-03     3.72622E-03
            2417     2.66876E-03     2.91665E-03    -1.69088E+06    -56.7702E+06    -2.35934E+06    -2.37383E+06    -11.7073E-03     23.3633E-03    -11.6560E-03     2.79972E-03    -11.6301E-03     23.0853E-03    -11.5830E-03     2.76892E-03
            2418     1.77921E-03     2.91630E-03    -2.03029E+06    -56.7437E+06    -2.62761E+06    -1.58455E+06    -11.6681E-03     23.3093E-03    -11.6412E-03     1.87693E-03    -11.5922E-03     23.0323E-03    -11.5691E-03     1.85637E-03
            2419     889.604E-06     2.91615E-03    -1.84646E+06    -56.5136E+06    -2.34957E+06    -703.516E+03    -11.6372E-03     23.2755E-03    -11.6384E-03     993.322E-06    -11.5609E-03     22.9992E-03    -11.5655E-03     984.170E-06
            2420     16.8451E-03     1.99227E-03    -4.04792E+06     91.7674E+06     57.5236E+06     11.6857E+06    -40.2312E-03     55.6105E-03    -15.3793E-03     74.7126E-03    -40.7825E-03     56.3101E-03    -15.2188E-03     74.6394E-03
            2421     15.9743E-03     1.97990E-03    -6.07310E+06     59.6677E+06     43.3661E+06     17.2569E+06    -24.8377E-03     39.2785E-03    -14.4408E-03     37.9180E-03    -25.0494E-03     39.5550E-03    -14.3017E-03     38.0918E-03
            2422     15.0881E-03     1.97056E-03    -135.609E+03     53.4491E+06     36.6084E+06     9.01224E+06    -19.4651E-03     33.4097E-03    -13.9446E-03     28.6351E-03    -19.6041E-03     33.6314E-03    -13.8388E-03     28.7345E-03
            2423     14.2054E-03     1.96259E-03     2.63389E+06     41.3277E+06     16.9380E+06     714.153E+03    -17.3119E-03     30.8825E-03    -13.5707E-03     24.3103E-03    -17.3866E-03     31.0640E-03    -13.5497E-03     24.3105E-03
            2424     13.3208E-03     1.95916E-03     654.128E+03     8.82408E+06    -2.76727E+06    -2.77158E+06    -16.1391E-03     29.4468E-03    -13.3077E-03     19.7870E-03    -16.1461E-03     29.4954E-03    -13.3353E-03     19.7462E-03
            2425     12.4341E-03     1.95575E-03    -357.317E+03    -23.3623E+06    -12.4841E+06    -8.33166E+06    -15.2692E-03     28.4077E-03    -13.1386E-03     16.6679E-03    -15.2199E-03     28.3103E-03    -13.1666E-03     16.5571E-03
            2426     11.5478E-03     1.95418E-03    -197.219E+03    -41.5662E+06    -18.1248E+06    -12.0040E+06    -14.7559E-03     27.7542E-03    -12.9983E-03     14.1366E-03    -14.6709E-03     27.5733E-03    -13.0283E-03     13.9795E-03
            2427     10.6605E-03     1.95226E-03    -198.150E+03    -54.1035E+06    -22.3903E+06    -12.1553E+06    -14.3589E-03     27.2334E-03    -12.8745E-03     12.0908E-03    -14.2493E-03     26.9958E-03    -12.9077E-03     11.9324E-03
            2428     9.77340E-03     1.95097E-03    -309.277E+03    -62.9469E+06    -24.7945E+06    -11.6391E+06    -14.0109E-03     26.7799E-03    -12.7690E-03     10.3151E-03    -13.8854E-03     26.5017E-03    -12.8013E-03     10.1638E-03
            2429     8.88568E-03     1.94979E-03    -725.409E+03    -67.5568E+06    -23.1990E+06    -11.1753E+06    -13.7187E-03     26.4085E-03    -12.6897E-03     8.81140E-03    -13.5909E-03     26.1055E-03    -12.7067E-03     8.66632E-03
            2430     7.99781E-03     1.94886E-03    -1.23582E+06    -66.6488E+06    -20.7304E+06    -10.2005E+06    -13.4624E-03     26.0788E-03    -12.6164E-03     7.48610E-03    -13.3420E-03     25.7774E-03    -12.6216E-03     7.35381E-03
            2431     7.10975E-03     1.94799E-03    -1.78880E+06    -64.6220E+06    -18.1211E+06    -8.58155E+06    -13.2225E-03     25.7737E-03    -12.5512E-03     6.32392E-03    -13.1115E-03     25.4795E-03    -12.5456E-03     6.21266E-03
            2432     6.22146E-03     1.94733E-03    -2.41012E+06    -63.3879E+06    -14.6963E+06    -6.72203E+06    -13.0147E-03     25.5152E-03    -12.5005E-03     5.28863E-03    -12.9136E-03     25.2230E-03    -12.4786E-03     5.20149E-03
            2433     5.33297E-03     1.94665E-03    -2.96816E+06    -61.7337E+06    -11.3785E+06    -5.17856E+06    -12.8389E-03     25.2956E-03    -12.4567E-03     4.36402E-03    -12.7478E-03     25.0077E-03    -12.4197E-03     4.29688E-03
            2434     4.44444E-03     1.94619E-03    -3.38343E+06    -59.9621E+06    -8.77749E+06    -3.93689E+06    -12.6839E-03     25.1007E-03    -12.4168E-03     3.52133E-03    -12.6011E-03     24.8185E-03    -12.3688E-03     3.47030E-03
            2435     3.55562E-03     1.94573E-03    -3.60574E+06    -58.9877E+06    -6.80890E+06    -2.73544E+06    -12.5561E-03     24.9391E-03    -12.3830E-03     2.74798E-03    -12.4787E-03     24.6592E-03    -12.3263E-03     2.71251E-03
            2436     2.66689E-03     1.94541E-03    -3.72342E+06    -58.3611E+06    -5.31935E+06    -1.59740E+06    -12.4556E-03     24.8112E-03    -12.3555E-03     2.02586E-03    -12.3819E-03     24.5324E-03    -12.2921E-03     2.00513E-03
            2437     1.77794E-03     1.94519E-03    -4.12185E+06    -58.0991E+06    -4.53038E+06    -949.748E+03    -12.3763E-03     24.7112E-03    -12.3349E-03     1.35287E-03    -12.3061E-03     24.4333E-03    -12.2673E-03     1.34053E-03
            2438     888.992E-06     1.94498E-03    -4.76582E+06    -57.8611E+06    -4.57374E+06    -467.606E+03    -12.3286E-03     24.6500E-03    -12.3214E-03     722.406E-06    -12.2617E-03     24.3743E-03    -12.2534E-03     716.316E-06
            2439     16.8251E-03     1.00409E-03    -506.815E+03     86.8017E+06     60.3633E+06     10.7459E+06    -40.9599E-03     57.6214E-03    -16.6615E-03     54.1811E-03    -41.3328E-03     58.1275E-03    -16.4848E-03     54.1251E-03
            2440     15.9444E-03     987.923E-06     2.97963E+06     66.1276E+06     51.0406E+06     5.72936E+06    -27.3187E-03     42.9998E-03    -15.6811E-03     25.1474E-03    -27.4873E-03     43.2658E-03    -15.5261E-03     25.1888E-03
            2441     15.0744E-03     989.267E-06     9.73739E+06     58.6075E+06     33.8732E+06     848.408E+03    -23.1274E-03     38.1512E-03    -15.0238E-03     19.0181E-03    -23.2155E-03     38.3834E-03    -14.9535E-03     19.0192E-03
            2442     14.1905E-03     983.044E-06     10.5595E+06     43.2578E+06     7.35374E+06     2.03767E+06    -20.0694E-03     34.5658E-03    -14.4964E-03     16.0594E-03    -20.0911E-03     34.7571E-03    -14.5377E-03     16.0809E-03
            2443     13.3070E-03     980.498E-06     10.6695E+06     13.7410E+06    -13.4537E+06    -1.42627E+06    -18.2489E-03     32.3783E-03    -14.1294E-03     11.5935E-03    -18.1964E-03     32.4515E-03    -14.2321E-03     11.5725E-03
            2444     12.4236E-03     979.177E-06     10.9320E+06    -19.0601E+06    -26.5023E+06    -5.83105E+06    -17.1544E-03     31.0245E-03    -13.8701E-03     9.51127E-03    -17.0340E-03     30.9520E-03    -13.9908E-03     9.43430E-03
            2445     11.5381E-03     977.684E-06     8.77382E+06    -41.5505E+06    -34.1829E+06    -7.64097E+06    -16.3828E-03     30.0472E-03    -13.6644E-03     7.90870E-03    -16.2293E-03     29.8764E-03    -13.7878E-03     7.80890E-03
            2446     10.6531E-03     976.901E-06     5.96176E+06    -55.7383E+06    -36.3730E+06    -7.85275E+06    -15.7571E-03     29.2583E-03    -13.5012E-03     6.68371E-03    -15.5938E-03     29.0238E-03    -13.6109E-03     6.58151E-03
            2447     9.76659E-03     976.120E-06     3.57233E+06    -64.6312E+06    -35.6000E+06    -7.11728E+06    -15.2086E-03     28.5748E-03    -13.3662E-03     5.66912E-03    -15.0455E-03     28.2981E-03    -13.4557E-03     5.57666E-03
            2448     8.88008E-03     975.452E-06     1.37540E+06    -68.9481E+06    -32.5571E+06    -6.54391E+06    -14.7585E-03     28.0126E-03    -13.2540E-03     4.78204E-03    -14.6045E-03     27.7131E-03    -13.3188E-03     4.69713E-03
            2449     7.99310E-03     974.893E-06    -720.764E+03    -68.8168E+06    -28.1392E+06    -6.05455E+06    -14.3583E-03     27.5159E-03    -13.1576E-03     4.02969E-03    -14.2214E-03     27.2137E-03    -13.1974E-03     3.95119E-03
            2450     7.10575E-03     974.463E-06    -2.44065E+06    -67.3647E+06    -23.2836E+06    -4.91148E+06    -14.0125E-03     27.0875E-03    -13.0750E-03     3.38609E-03    -13.8933E-03     26.7880E-03    -13.0902E-03     3.32243E-03
            2451     6.21814E-03     974.039E-06    -3.75493E+06    -65.7923E+06    -19.1392E+06    -3.61969E+06    -13.7145E-03     26.7156E-03    -13.0011E-03     2.81965E-03    -13.6101E-03     26.4199E-03    -12.9960E-03     2.77272E-03
            2452     5.33033E-03     973.723E-06    -4.65698E+06    -63.3988E+06    -16.1758E+06    -2.77913E+06    -13.4557E-03     26.3880E-03    -12.9324E-03     2.31638E-03    -13.3636E-03     26.1012E-03    -12.9146E-03     2.28035E-03
            2453     4.44219E-03     973.399E-06    -5.08374E+06    -61.6116E+06    -12.8069E+06    -2.23295E+06    -13.2413E-03     26.1198E-03    -12.8784E-03     1.86029E-03    -13.1589E-03     25.8376E-03    -12.8458E-03     1.83135E-03
            2454     3.55407E-03     973.200E-06    -5.28279E+06    -60.6894E+06    -10.1917E+06    -1.48631E+06    -13.0680E-03     25.9017E-03    -12.8338E-03     1.44739E-03    -12.9916E-03     25.6207E-03    -12.7891E-03     1.42811E-03
            2455     2.66558E-03     973.008E-06    -5.34619E+06    -59.6027E+06    -8.05559E+06    -817.712E+03    -12.9325E-03     25.7306E-03    -12.7981E-03     1.06667E-03    -12.8611E-03     25.4520E-03    -12.7442E-03     1.05605E-03
            2456     1.77716E-03     972.871E-06    -5.16280E+06    -58.8532E+06    -6.19393E+06    -272.057E+03    -12.8343E-03     25.6071E-03    -12.7728E-03     706.097E-06    -12.7657E-03     25.3293E-03    -12.7110E-03     702.548E-06
            2457     888.585E-06     972.826E-06    -5.39391E+06    -58.4386E+06    -5.42333E+06    -212.386E+03    -12.7767E-03     25.5258E-03    -12.7491E-03     369.886E-06    -12.7108E-03     25.2494E-03    -12.6837E-03     367.162E-06


