********************************************************************************
Field Output Report, written Tue May 28 22:51:37 2024

Source 1
---------

   ODB: G:/Abaqus_calc_2019/1740/Vel_10/odb/zeides_2a_8_red_2000_cal_10_vel_10_fric_025.odb
   Step: Step-1
   Frame: Increment  13516542: Step Time =    1.459

Loc 1 : Nodal values from source 1

Output sorted by column "Nodal Label".

Field Output reported at nodes for region: DIE_2A_8_D0_36-1.Region_1
   Computation algorithm: EXTRAPOLATE_COMPUTE_AVERAGE
   Averaged at nodes
   Averaging regions: ODB_REGIONS

      Node Label     COORD.COOR1     COORD.COOR2
                          @Loc 1          @Loc 1
-------------------------------------------------
               1     15.4045E-03     185.504E-03


Field Output reported at nodes for region: DIE_2A_8_D0_36-1.Region_2
   Computation algorithm: EXTRAPOLATE_COMPUTE_AVERAGE
   Averaged at nodes
   Averaging regions: ODB_REGIONS

      Node Label     COORD.COOR1     COORD.COOR2
                          @Loc 1          @Loc 1
-------------------------------------------------
               1     15.4045E-03     185.504E-03


Field Output reported at nodes for part: WIRE-1
   Computation algorithm: EXTRAPOLATE_COMPUTE_AVERAGE
   Averaged at nodes
   Averaging regions: ODB_REGIONS

      Node Label     COORD.COOR1     COORD.COOR2           S.S11           S.S22           S.S33           S.S12         PE.PE11         PE.PE22         PE.PE33         PE.PE12         LE.LE11         LE.LE22         LE.LE33         LE.LE12
                          @Loc 1          @Loc 1          @Loc 1          @Loc 1          @Loc 1          @Loc 1          @Loc 1          @Loc 1          @Loc 1          @Loc 1          @Loc 1          @Loc 1          @Loc 1          @Loc 1
-------------------------------------------------------------------------------------------------------------------------------------------------------------------------------------------------------------------------------------------------
               1     28.7828E-09     85.6180E-03    -127.574E+06    -260.906E+06    -127.584E+06     62.8088E+03    -224.138E-03     448.189E-03    -224.051E-03     2.36822E-03    -224.213E-03     447.255E-03    -224.126E-03     2.47159E-03
               2     14.3921E-03     86.3485E-03    -2.60024E+06     98.9734E+06     103.113E+06     112.320E+03    -223.100E-03     447.178E-03    -224.078E-03     20.2191E-03    -223.497E-03     447.618E-03    -223.702E-03     16.5611E-03
               3     14.4061E-03     172.462E-03    -21.9537E+06     27.1114E+06     42.8009E+06    -7.02491E+06    -199.715E-03     422.916E-03    -223.201E-03     1.55079E-03    -199.921E-03     423.028E-03    -222.994E-03     1.90240E-03
               4     87.4039E-09     171.438E-03     35.7335E+06    -10.8021E+06     30.4716E+06    -3.50991E+06    -232.869E-03     464.706E-03    -231.836E-03    -6.67557E-03    -232.729E-03     464.545E-03    -231.720E-03    -6.85233E-03
               5    -226.553E-09    -83.2667E-18    -67.9086E+06    -239.480E+06    -67.9847E+06     587.639E+03    -206.990E-03     414.589E-03    -207.599E-03     340.276E-06    -206.883E-03     413.588E-03    -207.493E-03     328.703E-06
               6     14.3077E-03    -83.2667E-18    -418.118E+03     98.1938E+06     112.156E+06     1.69331E+06    -305.182E-03     531.362E-03    -226.180E-03     69.0492E-03    -305.802E-03     532.005E-03    -225.761E-03     63.6739E-03
               7     719.265E-06     85.6218E-03    -126.387E+06    -256.978E+06    -124.008E+06     103.197E+03    -224.105E-03     448.184E-03    -224.079E-03     3.93558E-03    -224.185E-03     447.262E-03    -224.143E-03     4.10393E-03
               8     1.43854E-03     85.6305E-03    -122.983E+06    -246.460E+06    -114.108E+06     174.604E+03    -224.055E-03     448.172E-03    -224.117E-03     7.20319E-03    -224.147E-03     447.284E-03    -224.152E-03     7.49816E-03
               9     2.15786E-03     85.6445E-03    -117.742E+06    -231.169E+06    -99.5599E+06     181.153E+03    -224.015E-03     448.157E-03    -224.143E-03     10.5818E-03    -224.124E-03     447.316E-03    -224.135E-03     10.9846E-03
              10     2.87721E-03     85.6638E-03    -111.082E+06    -213.090E+06    -82.1943E+06     221.563E+03    -223.970E-03     448.141E-03    -224.171E-03     13.8821E-03    -224.098E-03     447.357E-03    -224.112E-03     14.3576E-03
              11     3.59661E-03     85.6881E-03    -103.437E+06    -193.251E+06    -63.8361E+06     301.315E+03    -223.929E-03     448.126E-03    -224.196E-03     17.0648E-03    -224.075E-03     447.404E-03    -224.085E-03     17.5668E-03
              12     4.31605E-03     85.7171E-03    -95.2757E+06    -172.060E+06    -45.8655E+06     277.630E+03    -223.895E-03     448.110E-03    -224.215E-03     20.0978E-03    -224.059E-03     447.458E-03    -224.057E-03     20.5704E-03
              13     5.03555E-03     85.7504E-03    -86.9731E+06    -150.606E+06    -29.1022E+06     256.257E+03    -223.868E-03     448.095E-03    -224.227E-03     22.9621E-03    -224.048E-03     447.516E-03    -224.028E-03     23.3448E-03
              14     5.75508E-03     85.7879E-03    -78.7602E+06    -128.791E+06    -13.7920E+06     254.802E+03    -223.846E-03     448.077E-03    -224.231E-03     25.6464E-03    -224.043E-03     447.577E-03    -223.999E-03     25.8748E-03
              15     6.47465E-03     85.8290E-03    -70.7687E+06    -106.127E+06     227.833E+03     199.849E+03    -223.824E-03     448.052E-03    -224.228E-03     28.1527E-03    -224.041E-03     447.640E-03    -223.970E-03     28.1578E-03
              16     7.19426E-03     85.8734E-03    -63.0945E+06    -82.3189E+06     13.1244E+06     112.508E+03    -223.796E-03     448.014E-03    -224.218E-03     30.4544E-03    -224.036E-03     447.700E-03    -223.942E-03     30.1679E-03
              17     7.91392E-03     85.9206E-03    -55.7840E+06    -56.4745E+06     25.1653E+06     50.7425E+03    -223.754E-03     447.957E-03    -224.202E-03     32.4981E-03    -224.024E-03     447.755E-03    -223.914E-03     31.8560E-03
              18     8.63360E-03     85.9702E-03    -48.8270E+06    -26.2420E+06     36.8589E+06    -152.034E+03    -223.693E-03     447.871E-03    -224.179E-03     34.3476E-03    -224.002E-03     447.808E-03    -223.885E-03     33.2800E-03
              19     9.35333E-03     86.0218E-03    -42.1080E+06     11.7929E+06     49.1356E+06    -236.092E+03    -223.597E-03     447.743E-03    -224.146E-03     36.0025E-03    -223.964E-03     447.860E-03    -223.857E-03     34.4443E-03
              20     10.0731E-03     86.0750E-03    -35.7282E+06     46.0012E+06     59.1539E+06     377.808E+03    -223.510E-03     447.618E-03    -224.108E-03     37.2998E-03    -223.931E-03     447.904E-03    -223.827E-03     35.2070E-03
              21     10.7929E-03     86.1289E-03    -29.6571E+06     62.1254E+06     65.8131E+06     941.258E+03    -223.470E-03     447.551E-03    -224.082E-03     37.9795E-03    -223.918E-03     447.924E-03    -223.800E-03     35.3064E-03
              22     11.5128E-03     86.1822E-03    -23.4620E+06     67.7079E+06     74.4136E+06     971.732E+03    -223.426E-03     447.508E-03    -224.083E-03     37.6672E-03    -223.887E-03     447.911E-03    -223.775E-03     34.3955E-03
              23     12.2325E-03     86.2333E-03    -17.3751E+06     80.1304E+06     87.3555E+06     602.342E+03    -223.316E-03     447.414E-03    -224.098E-03     36.0883E-03    -223.802E-03     447.869E-03    -223.752E-03     32.2760E-03
              24     12.9524E-03     86.2803E-03    -11.4415E+06     92.8276E+06     99.2887E+06     16.6986E+03    -223.198E-03     447.307E-03    -224.109E-03     34.1932E-03    -223.716E-03     447.826E-03    -223.730E-03     29.6653E-03
              25     13.6723E-03     86.3234E-03    -5.50859E+06     97.1662E+06     103.453E+06    -57.1446E+03    -223.129E-03     447.224E-03    -224.095E-03     26.8199E-03    -223.593E-03     447.714E-03    -223.711E-03     22.4924E-03
              26     14.3921E-03     87.8320E-03    -2.74063E+06     99.1576E+06     103.219E+06    -33.9307E+03    -223.060E-03     447.138E-03    -224.078E-03     20.2130E-03    -223.458E-03     447.579E-03    -223.701E-03     16.5582E-03
              27     14.3921E-03     89.3154E-03    -2.48620E+06     99.4820E+06     103.724E+06     158.285E+03    -222.999E-03     447.078E-03    -224.079E-03     20.2527E-03    -223.397E-03     447.519E-03    -223.701E-03     16.6063E-03
              28     14.3922E-03     90.7987E-03    -2.74572E+06     100.628E+06     104.171E+06     414.218E+03    -223.014E-03     447.094E-03    -224.081E-03     20.1831E-03    -223.415E-03     447.541E-03    -223.702E-03     16.5398E-03
              29     14.3920E-03     92.2822E-03    -2.71994E+06     101.689E+06     103.664E+06     21.8585E+03    -222.973E-03     447.052E-03    -224.079E-03     20.2232E-03    -223.375E-03     447.505E-03    -223.704E-03     16.5747E-03
              30     14.3923E-03     93.7652E-03    -2.68331E+06     101.576E+06     103.890E+06    -47.7555E+03    -222.908E-03     446.983E-03    -224.075E-03     20.3728E-03    -223.310E-03     447.435E-03    -223.699E-03     16.7243E-03
              31     14.3923E-03     95.2486E-03    -2.49918E+06     102.308E+06     106.076E+06     467.239E+03    -223.024E-03     447.104E-03    -224.080E-03     20.1977E-03    -223.429E-03     447.556E-03    -223.695E-03     16.5556E-03
              32     14.3920E-03     96.7322E-03    -3.03575E+06     103.717E+06     106.821E+06     66.6281E+03    -222.999E-03     447.086E-03    -224.088E-03     20.1504E-03    -223.410E-03     447.545E-03    -223.699E-03     16.5017E-03
              33     14.3923E-03     98.2152E-03    -2.62810E+06     103.432E+06     106.694E+06    -158.477E+03    -222.897E-03     446.981E-03    -224.084E-03     20.4055E-03    -223.306E-03     447.438E-03    -223.697E-03     16.7583E-03
              34     14.3923E-03     99.6986E-03    -2.49526E+06     104.387E+06     107.766E+06     728.018E+03    -223.042E-03     447.130E-03    -224.087E-03     20.0883E-03    -223.453E-03     447.589E-03    -223.696E-03     16.4526E-03
              35     14.3917E-03     101.182E-03    -2.89156E+06     107.908E+06     108.299E+06     757.122E+03    -223.019E-03     447.122E-03    -224.103E-03     19.9502E-03    -223.436E-03     447.598E-03    -223.714E-03     16.3213E-03
              36     14.3919E-03     102.665E-03    -3.11886E+06     109.147E+06     106.483E+06    -189.680E+03    -222.815E-03     446.918E-03    -224.103E-03     20.3054E-03    -223.234E-03     447.405E-03    -223.724E-03     16.6638E-03
              37     14.3919E-03     104.149E-03    -2.42208E+06     108.564E+06     107.514E+06    -25.4943E+03    -222.950E-03     447.044E-03    -224.095E-03     20.5347E-03    -223.366E-03     447.526E-03    -223.711E-03     16.8892E-03
              38     14.3922E-03     105.632E-03    -2.62607E+06     110.027E+06     110.493E+06     810.955E+03    -223.051E-03     447.136E-03    -224.085E-03     20.5371E-03    -223.475E-03     447.621E-03    -223.689E-03     16.9093E-03
              39     14.3927E-03     107.116E-03    -3.24514E+06     112.216E+06     110.711E+06     281.051E+03    -222.774E-03     446.844E-03    -224.070E-03     20.3482E-03    -223.204E-03     447.340E-03    -223.675E-03     16.7190E-03
              40     14.3927E-03     108.598E-03    -2.61744E+06     113.292E+06     110.113E+06     152.735E+03    -222.661E-03     446.718E-03    -224.057E-03     20.3669E-03    -223.089E-03     447.219E-03    -223.667E-03     16.7277E-03
              41     14.3928E-03     110.081E-03    -2.85860E+06     114.720E+06     111.087E+06     601.558E+03    -222.857E-03     446.900E-03    -224.043E-03     20.5491E-03    -223.291E-03     447.409E-03    -223.650E-03     16.9054E-03
              42     14.3932E-03     111.565E-03    -2.78791E+06     116.819E+06     112.023E+06     519.179E+03    -222.863E-03     446.882E-03    -224.019E-03     20.5859E-03    -223.300E-03     447.399E-03    -223.624E-03     16.9432E-03
              43     14.3937E-03     113.048E-03    -3.05173E+06     118.618E+06     111.642E+06     375.045E+03    -222.699E-03     446.691E-03    -223.991E-03     20.4943E-03    -223.140E-03     447.218E-03    -223.601E-03     16.8468E-03
              44     14.3938E-03     114.530E-03    -2.83586E+06     119.897E+06     112.595E+06     237.810E+03    -222.752E-03     446.720E-03    -223.968E-03     20.6406E-03    -223.195E-03     447.252E-03    -223.575E-03     16.9837E-03
              45     14.3945E-03     116.013E-03     -2.7995E+06     120.900E+06     113.585E+06     406.482E+03    -222.763E-03     446.701E-03    -223.938E-03     20.6805E-03    -223.210E-03     447.238E-03    -223.541E-03     17.0183E-03
              46     14.3949E-03     117.496E-03    -3.00099E+06     122.822E+06     114.630E+06     576.278E+03    -222.666E-03     446.575E-03    -223.909E-03     20.6001E-03    -223.118E-03     447.119E-03    -223.509E-03     16.9394E-03
              47     14.3953E-03     118.979E-03    -2.88256E+06     125.268E+06     116.001E+06     651.762E+03    -222.647E-03     446.529E-03    -223.882E-03     20.6260E-03    -223.104E-03     447.084E-03    -223.480E-03     16.9625E-03
              48     14.3958E-03     120.462E-03    -3.09193E+06     127.629E+06     116.990E+06     604.846E+03    -222.590E-03     446.444E-03    -223.854E-03     20.6158E-03    -223.053E-03     447.010E-03    -223.449E-03     16.9481E-03
              49     14.3962E-03     121.944E-03    -2.96122E+06     129.921E+06     118.222E+06     559.585E+03    -222.483E-03     446.310E-03    -223.827E-03     20.6248E-03    -222.950E-03     446.885E-03    -223.420E-03     16.9581E-03
              50     14.3967E-03     123.426E-03    -3.12219E+06     132.108E+06     119.501E+06     589.515E+03    -222.370E-03     446.171E-03    -223.801E-03     20.6272E-03    -222.844E-03     446.755E-03    -223.390E-03     16.9595E-03
              51     14.3971E-03     124.909E-03    -3.05615E+06     134.254E+06     120.731E+06     532.272E+03    -222.236E-03     446.011E-03    -223.774E-03     20.6130E-03    -222.714E-03     446.604E-03    -223.361E-03     16.9444E-03
              52     14.3976E-03     126.390E-03    -3.12373E+06     136.395E+06     121.908E+06     571.207E+03    -222.021E-03     445.767E-03    -223.746E-03     20.6752E-03    -222.503E-03     446.369E-03    -223.330E-03     17.0090E-03
              53     14.3982E-03     127.872E-03    -3.21543E+06     138.380E+06     123.202E+06     562.419E+03    -221.846E-03     445.566E-03    -223.720E-03     20.5891E-03    -222.334E-03     446.177E-03    -223.300E-03     16.9253E-03
              54     14.3984E-03     129.353E-03    -3.33578E+06     139.953E+06     124.594E+06     235.975E+03    -221.834E-03     445.547E-03    -223.713E-03     20.2253E-03    -222.326E-03     446.163E-03    -223.288E-03     16.5547E-03
              55     14.3981E-03     130.835E-03    -3.10519E+06     140.669E+06     124.960E+06    -11.5513E+03    -221.712E-03     445.430E-03    -223.718E-03     20.1563E-03    -222.205E-03     446.048E-03    -223.292E-03     16.4794E-03
              56     14.3985E-03     132.315E-03    -3.16546E+06     141.012E+06     124.865E+06     240.363E+03    -221.371E-03     445.082E-03    -223.711E-03     20.5130E-03    -221.865E-03     445.703E-03    -223.286E-03     16.8591E-03
              57     14.3989E-03     133.796E-03    -3.08763E+06     142.660E+06     126.126E+06     694.165E+03    -221.049E-03     444.738E-03    -223.690E-03     20.7340E-03    -221.546E-03     445.365E-03    -223.261E-03     17.1139E-03
              58     14.3995E-03     135.276E-03    -3.41520E+06     145.443E+06     127.555E+06     733.607E+03    -220.802E-03     444.465E-03    -223.663E-03     20.7356E-03    -221.306E-03     445.104E-03    -223.231E-03     17.1281E-03
              59     14.3999E-03     136.755E-03    -3.16681E+06     148.344E+06     128.856E+06     768.675E+03    -220.595E-03     444.231E-03    -223.636E-03     20.7545E-03    -221.104E-03     444.882E-03    -223.202E-03     17.1518E-03
              60     14.4005E-03     138.235E-03    -3.52248E+06     151.163E+06     129.879E+06     713.568E+03    -220.440E-03     444.049E-03    -223.609E-03     20.7833E-03    -220.957E-03     444.713E-03    -223.174E-03     17.1828E-03
              61     14.4008E-03     139.714E-03    -3.19972E+06     153.854E+06     130.818E+06     691.457E+03    -220.340E-03     443.920E-03    -223.580E-03     20.8241E-03    -220.860E-03     444.596E-03    -223.145E-03     17.2266E-03
              62     14.4013E-03     141.193E-03    -3.73057E+06     155.766E+06     131.237E+06     333.604E+03    -220.306E-03     443.857E-03    -223.551E-03     20.8948E-03    -220.832E-03     444.542E-03    -223.115E-03     17.2934E-03
              63     14.4016E-03     142.672E-03    -3.18704E+06     156.268E+06     131.135E+06     11.6859E+03    -220.348E-03     443.867E-03    -223.518E-03     20.9618E-03    -220.873E-03     444.555E-03    -223.085E-03     17.3560E-03
              64     14.4022E-03     144.151E-03    -3.47116E+06     156.605E+06     131.415E+06     222.440E+03    -220.437E-03     443.927E-03    -223.490E-03     21.0310E-03    -220.964E-03     444.616E-03    -223.055E-03     17.4273E-03
              65     14.4024E-03     145.630E-03    -3.15382E+06     158.118E+06     133.321E+06     595.019E+03    -220.561E-03     444.028E-03    -223.467E-03     21.1227E-03    -221.092E-03     444.722E-03    -223.025E-03     17.5231E-03
              66     14.4029E-03     147.109E-03    -4.09053E+06     158.927E+06     134.066E+06    -123.021E+03    -220.759E-03     444.201E-03    -223.443E-03     21.2315E-03    -221.296E-03     444.900E-03    -222.997E-03     17.6192E-03
              67     14.4030E-03     148.589E-03    -2.92158E+06     157.770E+06     133.476E+06    -353.903E+03    -221.053E-03     444.464E-03    -223.411E-03     21.3765E-03    -221.582E-03     445.156E-03    -222.969E-03     17.7603E-03
              68     14.4035E-03     150.069E-03    -3.89933E+06     156.284E+06     132.615E+06    -309.353E+03    -221.400E-03     444.784E-03    -223.384E-03     21.5318E-03    -221.931E-03     445.472E-03    -222.942E-03     17.9200E-03
              69     14.4034E-03     151.550E-03    -3.02751E+06     154.488E+06     132.172E+06    -547.959E+03    -221.815E-03     445.170E-03    -223.355E-03     21.8170E-03    -222.339E-03     445.848E-03    -222.914E-03     18.2091E-03
              70     14.4040E-03     153.031E-03    -4.11942E+06     150.634E+06     131.653E+06    -1.24847E+06    -222.344E-03     445.665E-03    -223.321E-03     22.3135E-03    -222.868E-03     446.327E-03    -222.875E-03     18.7071E-03
              71     14.4042E-03     154.514E-03    -2.91399E+06     144.426E+06     131.644E+06    -1.61876E+06    -223.163E-03     446.439E-03    -223.276E-03     22.8322E-03    -223.672E-03     447.069E-03    -222.823E-03     19.2373E-03
              72     14.4050E-03     155.997E-03    -4.06129E+06     136.629E+06     127.625E+06    -2.07594E+06    -224.437E-03     447.642E-03    -223.205E-03     23.4947E-03    -224.935E-03     448.241E-03    -222.759E-03     19.9177E-03
              73     14.4051E-03     157.483E-03    -2.03908E+06     129.875E+06     125.335E+06    -1.02865E+06    -226.227E-03     449.347E-03    -223.120E-03     24.3727E-03    -226.702E-03     449.913E-03    -222.679E-03     20.8476E-03
              74     14.4061E-03     158.972E-03    -5.36232E+06     120.801E+06     121.200E+06    -3.08233E+06    -228.644E-03     451.675E-03    -223.031E-03     25.1470E-03    -229.116E-03     452.205E-03    -222.592E-03     21.6436E-03
              75     14.4054E-03     160.465E-03    -546.129E+03     109.015E+06     117.230E+06    -2.58760E+06    -231.447E-03     454.386E-03    -222.938E-03     26.0901E-03    -231.872E-03     454.855E-03    -222.509E-03     22.6526E-03
              76     14.4065E-03     161.962E-03    -6.10495E+06     93.7718E+06     110.218E+06    -4.66652E+06    -234.305E-03     457.155E-03    -222.850E-03     27.2201E-03    -234.725E-03     457.566E-03    -222.426E-03     23.7939E-03
              77     14.4056E-03     163.463E-03     336.202E+03     71.6880E+06     107.788E+06    -5.98721E+06    -237.102E-03     459.854E-03    -222.752E-03     28.9795E-03    -237.456E-03     460.151E-03    -222.317E-03     25.5755E-03
              78     14.4085E-03     164.968E-03    -5.57261E+06     45.0319E+06     101.153E+06    -6.23796E+06    -240.678E-03     463.304E-03    -222.626E-03     30.7294E-03    -241.009E-03     463.482E-03    -222.177E-03     27.5289E-03
              79     14.4065E-03     166.481E-03    -9.92503E+06     31.4588E+06     99.6112E+06     813.313E+03    -243.473E-03     465.999E-03    -222.526E-03     31.1325E-03    -243.796E-03     466.110E-03    -222.059E-03     28.2636E-03
              80     14.4104E-03     167.992E-03     3.63490E+06     33.1642E+06     106.533E+06    -92.2605E+03    -243.588E-03     466.028E-03    -222.441E-03     32.2249E-03    -243.846E-03     466.108E-03    -221.961E-03     29.6834E-03
              81     14.4102E-03     169.505E-03     6.09355E+06     27.7227E+06     99.3194E+06    -5.07249E+06    -241.636E-03     463.962E-03    -222.326E-03     33.4938E-03    -241.829E-03     463.987E-03    -221.878E-03     32.0999E-03
              82     14.4144E-03     171.015E-03     4.14397E+06     24.3575E+06     70.6388E+06    -1.51882E+06    -219.939E-03     442.672E-03    -222.733E-03     17.5618E-03    -220.059E-03     442.695E-03    -222.421E-03     17.5716E-03
              83     13.6464E-03     172.403E-03    -17.1922E+06    -11.6077E+06     46.2940E+06    -7.09157E+06    -199.880E-03     423.710E-03    -223.830E-03    -16.8115E-03    -200.012E-03     423.624E-03    -223.557E-03    -16.5720E-03
              84     12.8943E-03     172.326E-03    -8.39942E+06    -5.59583E+06     72.8224E+06    -3.57536E+06    -199.745E-03     424.795E-03    -225.050E-03    -49.8137E-03    -199.897E-03     424.705E-03    -224.665E-03    -49.4573E-03
              85     12.1537E-03     172.243E-03    -2.79603E+06     11.5186E+06     89.3179E+06    -4.18929E+06    -200.099E-03     426.278E-03    -226.179E-03    -71.9839E-03    -200.292E-03     426.256E-03    -225.745E-03    -71.4401E-03
              86     11.4190E-03     172.161E-03     1.62305E+06    -6.35263E+06     89.4706E+06    -6.70459E+06    -202.096E-03     429.337E-03    -227.241E-03    -83.8348E-03    -202.252E-03     429.223E-03    -226.787E-03    -83.3047E-03
              87     10.6898E-03     172.081E-03     4.90590E+06     1.20965E+06     97.6003E+06    -5.60978E+06    -205.106E-03     433.337E-03    -228.231E-03    -90.3092E-03    -205.272E-03     433.243E-03    -227.751E-03    -89.7691E-03
              88     9.96443E-03     172.004E-03     6.20136E+06     52.9976E+03     99.7998E+06    -7.25750E+06    -208.663E-03     437.762E-03    -229.099E-03    -93.1670E-03    -208.823E-03     437.653E-03    -228.609E-03    -92.6966E-03
              89     9.24296E-03     171.930E-03     7.48327E+06    -2.04604E+06     99.7797E+06    -7.68493E+06    -212.207E-03     442.045E-03    -229.838E-03    -93.1609E-03    -212.354E-03     441.916E-03    -229.347E-03    -92.7602E-03
              90     8.52463E-03     171.861E-03     8.00436E+06    -1.61235E+06     99.4339E+06    -7.46249E+06    -215.307E-03     445.776E-03    -230.469E-03    -90.8338E-03    -215.447E-03     445.642E-03    -229.981E-03    -90.4911E-03
              91     7.80830E-03     171.795E-03     8.05302E+06    -703.852E+03     98.0584E+06    -8.23036E+06    -218.154E-03     449.165E-03    -231.011E-03    -87.0289E-03    -218.287E-03     449.030E-03    -230.532E-03    -86.7693E-03
              92     7.09383E-03     171.736E-03     8.40754E+06    -973.283E+03     95.5105E+06    -9.31817E+06    -220.819E-03     452.289E-03    -231.469E-03    -82.1937E-03    -220.941E-03     452.147E-03    -231.003E-03    -82.0264E-03
              93     6.38082E-03     171.681E-03     9.55876E+06    -615.607E+03     92.2284E+06    -10.7244E+06    -223.228E-03     455.072E-03    -231.844E-03    -76.5882E-03    -223.333E-03     454.929E-03    -231.396E-03    -76.5227E-03
              94     5.66904E-03     171.631E-03     11.3714E+06    -1.78216E+06     87.3565E+06    -11.8990E+06    -225.373E-03     457.510E-03    -232.138E-03    -70.3551E-03    -225.455E-03     457.359E-03    -231.715E-03    -70.3928E-03
              95     4.95836E-03     171.587E-03     13.7309E+06    -2.16272E+06     81.2885E+06    -12.6670E+06    -227.236E-03     459.586E-03    -232.350E-03    -63.4645E-03    -227.293E-03     459.433E-03    -231.961E-03    -63.5941E-03
              96     4.24863E-03     171.549E-03     16.6868E+06    -2.67481E+06     73.4803E+06    -13.2701E+06    -228.800E-03     461.286E-03    -232.486E-03    -55.9040E-03    -228.828E-03     461.133E-03    -232.139E-03    -56.1105E-03
              97     3.53961E-03     171.516E-03     20.3494E+06    -3.74058E+06     64.7341E+06    -13.5203E+06    -230.068E-03     462.624E-03    -232.556E-03    -47.6881E-03    -230.062E-03     462.470E-03    -232.256E-03    -47.9525E-03
              98     2.83124E-03     171.489E-03     24.3726E+06    -5.53310E+06     55.6058E+06    -12.7827E+06    -231.045E-03     463.616E-03    -232.571E-03    -38.8718E-03    -231.002E-03     463.460E-03    -232.321E-03    -39.1658E-03
              99     2.12319E-03     171.467E-03     28.2320E+06    -6.73152E+06     47.1063E+06    -11.0315E+06    -231.748E-03     464.292E-03    -232.543E-03    -29.5842E-03    -231.673E-03     464.135E-03    -232.339E-03    -29.8806E-03
             100     1.41549E-03     171.452E-03     31.2923E+06    -8.18965E+06     40.1267E+06    -8.39010E+06    -232.187E-03     464.669E-03    -232.482E-03    -20.0143E-03    -232.085E-03     464.512E-03    -232.315E-03    -20.2835E-03
             101     707.858E-06     171.442E-03     34.1250E+06    -9.62640E+06     33.8353E+06    -5.17832E+06    -232.602E-03     464.742E-03    -232.140E-03    -10.9313E-03    -232.476E-03     464.584E-03    -232.006E-03    -11.1430E-03
             102     655.212E-09     169.929E-03     2.38232E+06    -24.0820E+06     2.99595E+06    -4.13180E+06    -226.276E-03     451.636E-03    -225.359E-03    -4.96222E-03    -226.241E-03     451.500E-03    -225.313E-03    -5.00698E-03
             103    -32.1470E-09     168.459E-03    -64.8162E+06    -57.3459E+06    -62.2297E+06    -6.63040E+06    -216.057E-03     431.632E-03    -215.575E-03    -1.44167E-03    -216.211E-03     431.528E-03    -215.709E-03    -1.36589E-03
             104     146.856E-09     167.009E-03    -137.005E+06    -97.3161E+06    -136.762E+06    -6.86327E+06    -211.703E-03     423.191E-03    -211.487E-03     1.59607E-03    -212.049E-03     423.101E-03    -211.831E-03     1.73993E-03
             105     54.7333E-09     165.564E-03    -192.744E+06    -133.512E+06    -192.354E+06    -5.32910E+06    -211.737E-03     423.299E-03    -211.562E-03     3.32317E-03    -212.228E-03     423.190E-03    -212.050E-03     3.54687E-03
             106    -3.49170E-09     164.113E-03    -198.566E+06    -160.157E+06    -199.192E+06    -3.54012E+06    -213.787E-03     427.498E-03    -213.711E-03     3.75741E-03    -214.258E-03     427.273E-03    -214.187E-03     3.99357E-03
             107     49.0678E-09     162.656E-03    -164.670E+06    -175.100E+06    -164.949E+06    -1.37136E+06    -216.136E-03     432.197E-03    -216.062E-03     3.53377E-03    -216.466E-03     431.799E-03    -216.394E-03     3.76363E-03
             108     1.93373E-09     161.192E-03    -133.482E+06    -181.525E+06    -133.700E+06    -741.997E+03    -217.840E-03     435.578E-03    -217.739E-03     3.20161E-03    -218.050E-03     435.058E-03    -217.950E-03     3.40046E-03
             109     84.3966E-09     159.725E-03    -125.650E+06    -187.489E+06    -125.524E+06    -1.26340E+06    -218.811E-03     437.483E-03    -218.672E-03     2.96163E-03    -218.985E-03     436.909E-03    -218.845E-03     3.12247E-03
             110     26.0958E-09     158.257E-03    -128.453E+06    -197.160E+06    -128.519E+06    -1.92690E+06    -219.335E-03     438.513E-03    -219.178E-03     2.84243E-03    -219.505E-03     437.900E-03    -219.348E-03     2.97341E-03
             111     84.1680E-09     156.787E-03    -133.374E+06    -208.679E+06    -133.383E+06    -1.87841E+06    -219.710E-03     439.265E-03    -219.556E-03     2.78668E-03    -219.880E-03     438.609E-03    -219.727E-03     2.90751E-03
             112     22.4002E-09     155.316E-03    -138.766E+06    -220.142E+06    -138.774E+06    -1.87156E+06    -220.112E-03     440.087E-03    -219.975E-03     2.76098E-03    -220.285E-03     439.388E-03    -220.148E-03     2.87779E-03
             113     64.5827E-09     153.844E-03    -143.420E+06    -230.936E+06    -143.472E+06    -1.65920E+06    -220.620E-03     441.123E-03    -220.503E-03     2.72723E-03    -220.794E-03     440.384E-03    -220.677E-03     2.84712E-03
             114     12.0251E-09     152.370E-03    -146.794E+06    -240.535E+06    -146.808E+06    -1.45453E+06    -221.239E-03     442.382E-03    -221.143E-03     2.68341E-03    -221.411E-03     441.605E-03    -221.315E-03     2.80799E-03
             115     45.0068E-09     150.895E-03    -148.697E+06    -248.877E+06    -148.755E+06    -1.24824E+06    -221.935E-03     443.795E-03    -221.859E-03     2.61940E-03    -222.102E-03     442.981E-03    -222.027E-03     2.74913E-03
             116     2.30109E-09     149.417E-03    -149.415E+06    -256.040E+06    -149.445E+06    -1.05479E+06    -222.659E-03     445.256E-03    -222.597E-03     2.54399E-03    -222.818E-03     444.409E-03    -222.757E-03     2.67827E-03
             117     34.0290E-09     147.937E-03    -149.060E+06    -262.012E+06    -149.126E+06    -863.211E+03    -223.361E-03     446.670E-03    -223.309E-03     2.46474E-03    -223.510E-03     445.793E-03    -223.459E-03     2.60251E-03
             118     95.7671E-12     146.455E-03    -148.112E+06    -266.899E+06    -148.151E+06    -692.891E+03    -224.002E-03     447.958E-03    -223.956E-03     2.38763E-03    -224.141E-03     447.053E-03    -224.095E-03     2.52754E-03
             119     28.9527E-09     144.971E-03    -146.747E+06    -270.737E+06    -146.814E+06    -529.051E+03    -224.552E-03     449.059E-03    -224.508E-03     2.31689E-03    -224.680E-03     448.131E-03    -224.636E-03     2.45777E-03
             120     1.13546E-09     143.486E-03    -145.264E+06    -273.635E+06    -145.306E+06    -383.555E+03    -224.990E-03     449.936E-03    -224.946E-03     2.25622E-03    -225.109E-03     448.989E-03    -225.065E-03     2.39697E-03
             121     27.8379E-09     142.000E-03    -143.869E+06    -275.698E+06    -143.927E+06    -265.683E+03    -225.305E-03     450.564E-03    -225.259E-03     2.20585E-03    -225.416E-03     449.603E-03    -225.370E-03     2.34533E-03
             122     5.25626E-09     140.513E-03    -142.620E+06    -277.099E+06    -142.662E+06    -168.367E+03    -225.490E-03     450.930E-03    -225.440E-03     2.16253E-03    -225.594E-03     449.958E-03    -225.545E-03     2.29949E-03
             123     29.6346E-09     139.026E-03    -141.490E+06    -277.968E+06    -141.534E+06    -102.685E+03    -225.543E-03     451.031E-03    -225.487E-03     2.12674E-03    -225.642E-03     450.051E-03    -225.587E-03     2.25971E-03
             124     12.0007E-09     137.538E-03    -140.511E+06    -278.497E+06    -140.538E+06    -56.6859E+03    -225.483E-03     450.903E-03    -225.421E-03     2.11145E-03    -225.578E-03     449.919E-03    -225.516E-03     2.24003E-03
             125     32.4982E-09     136.052E-03    -139.700E+06    -278.780E+06    -139.716E+06    -26.0909E+03    -225.350E-03     450.632E-03    -225.282E-03     2.12259E-03    -225.442E-03     449.643E-03    -225.374E-03     2.24745E-03
             126     17.3509E-09     134.565E-03    -139.186E+06    -278.932E+06    -139.200E+06    -10.9416E+03    -225.183E-03     450.294E-03    -225.111E-03     2.14869E-03    -225.273E-03     449.303E-03    -225.200E-03     2.27040E-03
             127     34.0822E-09     133.079E-03    -138.698E+06    -278.888E+06    -138.719E+06     34.5550E+03    -225.002E-03     449.928E-03    -224.925E-03     2.17611E-03    -225.090E-03     448.936E-03    -225.013E-03     2.29530E-03
             128     21.9503E-09     131.594E-03    -137.957E+06    -278.639E+06    -137.967E+06     56.0510E+03    -224.813E-03     449.545E-03    -224.732E-03     2.20267E-03    -224.898E-03     448.552E-03    -224.818E-03     2.31903E-03
             129     34.9175E-09     130.109E-03    -137.169E+06    -278.267E+06    -137.182E+06     70.7811E+03    -224.620E-03     449.156E-03    -224.536E-03     2.22986E-03    -224.703E-03     448.162E-03    -224.620E-03     2.34356E-03
             130     25.0788E-09     128.625E-03    -136.534E+06    -277.828E+06    -136.541E+06     81.4673E+03    -224.434E-03     448.782E-03    -224.348E-03     2.25862E-03    -224.515E-03     447.788E-03    -224.430E-03     2.37010E-03
             131     34.6224E-09     127.141E-03    -135.953E+06    -277.288E+06    -135.963E+06     100.479E+03    -224.264E-03     448.440E-03    -224.177E-03     2.28603E-03    -224.344E-03     447.448E-03    -224.257E-03     2.39587E-03
             132     27.1523E-09     125.658E-03    -135.417E+06    -276.682E+06    -135.422E+06     105.012E+03    -224.115E-03     448.143E-03    -224.027E-03     2.31027E-03    -224.195E-03     447.152E-03    -224.107E-03     2.41855E-03
             133     34.5356E-09     124.175E-03    -134.900E+06    -276.027E+06    -134.908E+06     114.621E+03    -223.993E-03     447.897E-03    -223.904E-03     2.33301E-03    -224.072E-03     446.908E-03    -223.983E-03     2.44010E-03
             134     28.3334E-09     122.693E-03    -134.465E+06    -275.335E+06    -134.467E+06     120.560E+03    -223.903E-03     447.717E-03    -223.814E-03     2.35577E-03    -223.981E-03     446.731E-03    -223.893E-03     2.46209E-03
             135     32.5527E-09     121.211E-03    -134.029E+06    -274.603E+06    -134.034E+06     125.825E+03    -223.849E-03     447.610E-03    -223.761E-03     2.37493E-03    -223.926E-03     446.626E-03    -223.839E-03     2.48082E-03
             136     28.6150E-09     119.728E-03    -133.583E+06    -273.916E+06    -133.582E+06     108.790E+03    -223.828E-03     447.570E-03    -223.741E-03     2.38792E-03    -223.905E-03     446.588E-03    -223.818E-03     2.49323E-03
             137     31.5248E-09     118.246E-03    -132.954E+06    -273.250E+06    -132.966E+06     118.578E+03    -223.839E-03     447.591E-03    -223.751E-03     2.39833E-03    -223.915E-03     446.610E-03    -223.827E-03     2.50364E-03
             138     30.8977E-09     116.764E-03    -132.346E+06    -272.554E+06    -132.347E+06     118.816E+03    -223.878E-03     447.666E-03    -223.788E-03     2.40697E-03    -223.952E-03     446.687E-03    -223.863E-03     2.51176E-03
             139     31.6850E-09     115.282E-03    -131.820E+06    -271.871E+06    -131.831E+06     116.462E+03    -223.938E-03     447.787E-03    -223.849E-03     2.41516E-03    -224.012E-03     446.810E-03    -223.923E-03     2.51929E-03
             140     29.7844E-09     113.799E-03    -131.251E+06    -271.154E+06    -131.259E+06     132.083E+03    -224.016E-03     447.947E-03    -223.931E-03     2.42377E-03    -224.089E-03     446.972E-03    -224.003E-03     2.52811E-03
             141     27.7851E-09     112.316E-03    -130.714E+06    -270.224E+06    -130.747E+06     183.021E+03    -224.096E-03     448.108E-03    -224.012E-03     2.41618E-03    -224.168E-03     447.136E-03    -224.085E-03     2.52096E-03
             142     30.2673E-09     110.833E-03    -130.615E+06    -269.068E+06    -130.625E+06     201.528E+03    -224.148E-03     448.212E-03    -224.064E-03     2.39551E-03    -224.222E-03     447.245E-03    -224.137E-03     2.49955E-03
             143     29.3432E-09     109.350E-03    -130.760E+06    -268.016E+06    -130.762E+06     146.667E+03    -224.172E-03     448.258E-03    -224.086E-03     2.38530E-03    -224.247E-03     447.297E-03    -224.162E-03     2.48791E-03
             144     29.9004E-09     107.867E-03    -130.593E+06    -267.254E+06    -130.598E+06     115.478E+03    -224.191E-03     448.298E-03    -224.107E-03     2.38934E-03    -224.267E-03     447.341E-03    -224.183E-03     2.49165E-03
             145     27.4433E-09     106.384E-03    -130.484E+06    -266.571E+06    -130.502E+06     118.076E+03    -224.211E-03     448.340E-03    -224.129E-03     2.38621E-03    -224.288E-03     447.386E-03    -224.206E-03     2.48865E-03
             146     29.5744E-09     104.900E-03    -130.381E+06    -265.853E+06    -130.393E+06     125.516E+03    -224.220E-03     448.359E-03    -224.138E-03     2.37615E-03    -224.298E-03     447.407E-03    -224.216E-03     2.47846E-03
             147     27.6909E-09     103.417E-03    -129.835E+06    -265.149E+06    -129.842E+06     114.825E+03    -224.218E-03     448.355E-03    -224.137E-03     2.37215E-03    -224.295E-03     447.406E-03    -224.213E-03     2.47409E-03
             148     29.0440E-09     101.934E-03    -129.535E+06    -264.528E+06    -129.542E+06     97.9562E+03    -224.212E-03     448.343E-03    -224.131E-03     2.37289E-03    -224.288E-03     447.396E-03    -224.208E-03     2.47474E-03
             149     26.5810E-09     100.450E-03    -129.672E+06    -263.980E+06    -129.682E+06     92.3186E+03    -224.206E-03     448.332E-03    -224.126E-03     2.37347E-03    -224.284E-03     447.389E-03    -224.204E-03     2.47556E-03
             150     29.8804E-09     98.9672E-03    -129.771E+06    -263.399E+06    -129.787E+06     108.757E+03    -224.203E-03     448.324E-03    -224.121E-03     2.37258E-03    -224.282E-03     447.383E-03    -224.200E-03     2.47511E-03
             151     28.0354E-09     97.4839E-03    -129.698E+06    -262.803E+06    -129.697E+06     97.0478E+03    -224.201E-03     448.318E-03    -224.117E-03     2.37401E-03    -224.280E-03     447.380E-03    -224.196E-03     2.47655E-03
             152     31.8208E-09     96.0006E-03    -129.448E+06    -262.388E+06    -129.453E+06     50.5137E+03    -224.203E-03     448.320E-03    -224.117E-03     2.37611E-03    -224.282E-03     447.383E-03    -224.196E-03     2.47837E-03
             153     29.3943E-09     94.5173E-03    -129.026E+06    -262.054E+06    -129.051E+06     73.8501E+03    -224.206E-03     448.325E-03    -224.119E-03     2.37767E-03    -224.284E-03     447.389E-03    -224.197E-03     2.48020E-03
             154     31.5218E-09     93.0339E-03    -128.524E+06    -261.643E+06    -128.524E+06     68.9303E+03    -224.200E-03     448.316E-03    -224.116E-03     2.37573E-03    -224.277E-03     447.381E-03    -224.193E-03     2.47755E-03
             155     25.0755E-09     91.5507E-03    -128.212E+06    -261.397E+06    -128.219E+06     23.8277E+03    -224.184E-03     448.287E-03    -224.103E-03     2.37128E-03    -224.260E-03     447.352E-03    -224.179E-03     2.47247E-03
             156     30.8623E-09     90.0674E-03    -128.013E+06    -261.361E+06    -128.017E+06        -160.166    -224.166E-03     448.251E-03    -224.085E-03     2.37009E-03    -224.241E-03     447.315E-03    -224.161E-03     2.47139E-03
             157     24.7060E-09     88.5843E-03    -127.939E+06    -261.367E+06    -127.955E+06     12.0571E+03    -224.151E-03     448.221E-03    -224.070E-03     2.36924E-03    -224.226E-03     447.285E-03    -224.146E-03     2.47132E-03
             158     31.7102E-09     87.1011E-03    -127.759E+06    -261.215E+06    -127.772E+06     52.0113E+03    -224.143E-03     448.201E-03    -224.059E-03     2.36667E-03    -224.217E-03     447.266E-03    -224.134E-03     2.46997E-03
             159     32.6317E-09     84.1349E-03    -127.808E+06    -260.539E+06    -127.820E+06     71.2079E+03    -224.136E-03     448.184E-03    -224.048E-03     2.37178E-03    -224.211E-03     447.252E-03    -224.124E-03     2.47489E-03
             160     27.6271E-09     82.6518E-03    -128.191E+06    -260.140E+06    -128.198E+06     72.1272E+03    -224.135E-03     448.186E-03    -224.050E-03     2.37470E-03    -224.213E-03     447.257E-03    -224.128E-03     2.47756E-03
             161     31.1223E-09     81.1687E-03    -128.683E+06    -259.754E+06    -128.695E+06     66.6721E+03    -224.137E-03     448.191E-03    -224.055E-03     2.37581E-03    -224.217E-03     447.266E-03    -224.135E-03     2.47842E-03
             162     24.7117E-09     79.6855E-03    -129.117E+06    -259.415E+06    -129.123E+06     57.3632E+03    -224.138E-03     448.196E-03    -224.058E-03     2.37270E-03    -224.220E-03     447.274E-03    -224.140E-03     2.47551E-03
             163     30.7720E-09     78.2024E-03    -129.424E+06    -259.273E+06    -129.421E+06     1.38881E+03    -224.139E-03     448.196E-03    -224.057E-03     2.36787E-03    -224.222E-03     447.275E-03    -224.141E-03     2.47029E-03
             164     27.3394E-09     76.7193E-03    -129.570E+06    -259.408E+06    -129.584E+06    -29.5520E+03    -224.137E-03     448.191E-03    -224.054E-03     2.36572E-03    -224.221E-03     447.269E-03    -224.137E-03     2.46780E-03
             165     30.8496E-09     75.2361E-03    -129.647E+06    -259.660E+06    -129.649E+06    -38.2187E+03    -224.134E-03     448.186E-03    -224.052E-03     2.36562E-03    -224.218E-03     447.263E-03    -224.136E-03     2.46752E-03
             166     25.4853E-09     73.7530E-03    -129.641E+06    -259.958E+06    -129.655E+06    -43.3407E+03    -224.131E-03     448.181E-03    -224.050E-03     2.36473E-03    -224.214E-03     447.257E-03    -224.133E-03     2.46662E-03
             167     31.4282E-09     72.2699E-03    -129.454E+06    -260.225E+06    -129.463E+06    -29.9153E+03    -224.129E-03     448.174E-03    -224.045E-03     2.36369E-03    -224.211E-03     447.248E-03    -224.127E-03     2.46571E-03
             168     28.8183E-09     70.7868E-03    -129.198E+06    -260.434E+06    -129.211E+06    -23.5068E+03    -224.127E-03     448.168E-03    -224.041E-03     2.36580E-03    -224.208E-03     447.241E-03    -224.122E-03     2.46773E-03
             169     30.5522E-09     69.3037E-03    -129.066E+06    -260.558E+06    -129.077E+06    -4.60294E+03    -224.125E-03     448.169E-03    -224.043E-03     2.36948E-03    -224.206E-03     447.240E-03    -224.124E-03     2.47146E-03
             170     24.1138E-09     67.8206E-03    -129.012E+06    -260.605E+06    -129.022E+06     5.11337E+03    -224.125E-03     448.173E-03    -224.048E-03     2.37028E-03    -224.205E-03     447.244E-03    -224.128E-03     2.47240E-03
             171     28.3400E-09     66.3375E-03    -128.920E+06    -260.585E+06    -128.931E+06     13.2826E+03    -224.125E-03     448.171E-03    -224.046E-03     2.36762E-03    -224.205E-03     447.242E-03    -224.126E-03     2.47008E-03
             172     29.0421E-09     64.8544E-03    -128.639E+06    -260.520E+06    -128.651E+06     19.5830E+03    -224.123E-03     448.161E-03    -224.038E-03     2.36575E-03    -224.202E-03     447.232E-03    -224.117E-03     2.46825E-03
             173     32.9363E-09     63.3714E-03    -128.285E+06    -260.382E+06    -128.297E+06     36.8575E+03    -224.122E-03     448.155E-03    -224.033E-03     2.36962E-03    -224.200E-03     447.226E-03    -224.111E-03     2.47198E-03
             174     30.1452E-09     61.8883E-03    -128.493E+06    -260.165E+06    -128.503E+06     47.1945E+03    -224.123E-03     448.157E-03    -224.034E-03     2.37371E-03    -224.202E-03     447.229E-03    -224.113E-03     2.47595E-03
             175     30.9285E-09     60.4052E-03    -128.994E+06    -259.962E+06    -128.994E+06     27.6032E+03    -224.129E-03     448.171E-03    -224.042E-03     2.37729E-03    -224.210E-03     447.245E-03    -224.123E-03     2.47928E-03
             176     30.6380E-09     58.9221E-03    -129.021E+06    -259.894E+06    -129.034E+06     6.99221E+03    -224.144E-03     448.199E-03    -224.055E-03     2.37725E-03    -224.225E-03     447.274E-03    -224.137E-03     2.47882E-03
             177     31.1631E-09     57.4389E-03    -128.831E+06    -259.793E+06    -128.848E+06     37.3821E+03    -224.161E-03     448.230E-03    -224.070E-03     2.37382E-03    -224.241E-03     447.305E-03    -224.151E-03     2.47570E-03
             178     33.6245E-09     55.9557E-03    -128.766E+06    -259.764E+06    -128.747E+06    -20.5896E+03    -224.183E-03     448.274E-03    -224.090E-03     2.37981E-03    -224.264E-03     447.348E-03    -224.170E-03     2.48058E-03
             179     32.4236E-09     54.4725E-03    -128.878E+06    -260.048E+06    -128.897E+06    -55.5879E+03    -224.226E-03     448.359E-03    -224.132E-03     2.39582E-03    -224.307E-03     447.432E-03    -224.213E-03     2.49577E-03
             180     32.3889E-09     52.9890E-03    -129.018E+06    -260.254E+06    -129.030E+06     1.64423E+03    -224.294E-03     448.494E-03    -224.201E-03     2.41053E-03    -224.374E-03     447.567E-03    -224.281E-03     2.51103E-03
             181     32.5355E-09     51.5053E-03     -128.85E+06    -260.101E+06    -128.877E+06     60.7282E+03    -224.376E-03     448.658E-03    -224.282E-03     2.41850E-03    -224.457E-03     447.731E-03    -224.362E-03     2.51912E-03
             182     34.5984E-09     50.0213E-03    -128.561E+06    -259.742E+06    -128.555E+06     64.4625E+03    -224.465E-03     448.833E-03    -224.368E-03     2.43052E-03    -224.545E-03     447.907E-03    -224.448E-03     2.53008E-03
             183     34.3259E-09     48.5371E-03    -128.531E+06    -259.594E+06    -128.533E+06    -4.66291E+03    -224.561E-03     449.025E-03    -224.463E-03     2.44860E-03    -224.641E-03     448.100E-03    -224.543E-03     2.54584E-03
             184     33.6758E-09     47.0526E-03    -128.843E+06    -259.539E+06    -128.869E+06     34.5020E+03    -224.670E-03     449.241E-03    -224.571E-03     2.46958E-03    -224.751E-03     448.317E-03    -224.652E-03     2.56619E-03
             185     36.6093E-09     45.5677E-03    -128.995E+06    -259.365E+06    -128.983E+06     29.3817E+03    -224.797E-03     449.494E-03    -224.697E-03     2.49592E-03    -224.879E-03     448.571E-03    -224.778E-03     2.59090E-03
             186     34.1097E-09     44.0824E-03    -128.808E+06    -259.402E+06    -128.816E+06    -29.2103E+03    -224.945E-03     449.791E-03    -224.846E-03     2.52484E-03    -225.026E-03     448.868E-03    -224.928E-03     2.61712E-03
             187     32.6430E-09     42.5967E-03    -128.447E+06    -259.618E+06    -128.449E+06    -29.8012E+03    -225.116E-03     450.136E-03    -225.020E-03     2.55571E-03    -225.195E-03     449.210E-03    -225.100E-03     2.64677E-03
             188     33.2599E-09     41.1104E-03    -128.029E+06    -259.792E+06    -128.045E+06    -14.0508E+03    -225.310E-03     450.524E-03    -225.214E-03     2.58844E-03    -225.388E-03     449.596E-03    -225.292E-03     2.67789E-03
             189     34.5073E-09     39.6234E-03    -127.718E+06    -259.817E+06    -127.725E+06     16.1651E+03    -225.523E-03     450.947E-03    -225.423E-03     2.62674E-03    -225.600E-03     450.018E-03    -225.500E-03     2.71359E-03
             190     36.4565E-09     38.1359E-03    -127.421E+06    -259.788E+06    -127.413E+06         397.035    -225.765E-03     451.427E-03    -225.662E-03     2.68218E-03    -225.841E-03     450.498E-03    -225.737E-03     2.76525E-03
             191     36.7580E-09     36.6475E-03    -127.555E+06    -259.761E+06    -127.563E+06     23.0589E+03    -226.062E-03     452.016E-03    -225.954E-03     2.75958E-03    -226.138E-03     451.087E-03    -226.031E-03     2.83975E-03
             192     39.1465E-09     35.1582E-03    -127.978E+06    -259.534E+06    -127.975E+06     61.6921E+03    -226.430E-03     452.749E-03    -226.319E-03     2.84679E-03    -226.508E-03     451.822E-03    -226.397E-03     2.92409E-03
             193     40.0357E-09     33.6676E-03    -127.836E+06    -259.162E+06    -127.846E+06     72.7212E+03    -226.862E-03     453.607E-03    -226.745E-03     2.92910E-03    -226.940E-03     452.682E-03    -226.823E-03     3.00189E-03
             194     43.4273E-09     32.1757E-03    -127.376E+06    -258.651E+06    -127.393E+06     102.437E+03    -227.330E-03     454.536E-03    -227.206E-03     3.00523E-03    -227.407E-03     453.613E-03    -227.283E-03     3.07245E-03
             195     45.4914E-09     30.6823E-03    -127.351E+06    -257.918E+06    -127.368E+06     139.506E+03    -227.814E-03     455.498E-03    -227.684E-03     3.08716E-03    -227.892E-03     454.578E-03    -227.762E-03     3.14797E-03
             196     45.6780E-09     29.1875E-03    -127.872E+06    -257.104E+06    -127.877E+06     128.852E+03    -228.307E-03     456.488E-03    -228.181E-03     3.17607E-03    -228.388E-03     455.573E-03    -228.262E-03     3.22925E-03
             197     38.1400E-09     27.6912E-03    -128.490E+06    -256.545E+06    -128.503E+06     57.6439E+03    -228.789E-03     457.475E-03    -228.686E-03     3.25536E-03    -228.873E-03     456.565E-03    -228.770E-03     3.29980E-03
             198     18.4125E-09     26.1934E-03    -128.665E+06    -256.411E+06    -128.697E+06    -6.15498E+03    -229.201E-03     458.348E-03    -229.147E-03     3.29304E-03    -229.286E-03     457.439E-03    -229.232E-03     3.33011E-03
             199    -5.01036E-09     24.6944E-03    -128.240E+06    -256.613E+06    -128.297E+06    -55.2310E+03    -229.441E-03     458.888E-03    -229.447E-03     3.25105E-03    -229.524E-03     457.977E-03    -229.531E-03     3.28353E-03
             200    -23.7793E-09     23.1950E-03    -127.258E+06    -256.950E+06    -127.352E+06    -56.2748E+03    -229.375E-03     458.808E-03    -229.433E-03     3.11647E-03    -229.454E-03     457.892E-03    -229.512E-03     3.14579E-03
             201    -36.5720E-09     21.6963E-03    -126.145E+06    -257.194E+06    -126.252E+06    -35.6387E+03    -228.865E-03     457.859E-03    -228.995E-03     2.92887E-03    -228.939E-03     456.939E-03    -229.070E-03     2.95283E-03
             202    -95.6170E-09     20.1998E-03    -125.198E+06    -257.203E+06    -125.326E+06     11.8404E+03    -227.794E-03     455.785E-03    -227.991E-03     2.60325E-03    -227.865E-03     454.862E-03    -228.063E-03     2.62503E-03
             203    -58.6999E-09     18.7074E-03    -124.343E+06    -256.830E+06    -124.489E+06     68.8766E+03    -226.066E-03     452.320E-03    -226.253E-03     2.17715E-03    -226.135E-03     451.396E-03    -226.323E-03     2.19202E-03
             204    -57.7559E-09     17.2213E-03    -123.646E+06    -256.096E+06    -123.815E+06     119.707E+03    -223.599E-03     447.352E-03    -223.753E-03     1.70785E-03    -223.666E-03     446.430E-03    -223.821E-03     1.70386E-03
             205    -48.4657E-09     15.7438E-03    -123.048E+06    -254.978E+06    -123.227E+06     188.884E+03    -220.335E-03     440.804E-03    -220.469E-03     1.12208E-03    -220.403E-03     439.886E-03    -220.537E-03     1.09086E-03
             206    -35.9045E-09     14.2772E-03    -122.572E+06    -253.506E+06    -122.741E+06     230.318E+03    -216.265E-03     432.623E-03    -216.359E-03     464.397E-06    -216.333E-03     431.711E-03    -216.427E-03     392.207E-06
             207    -10.7594E-09     12.8239E-03    -122.236E+06    -251.852E+06    -122.311E+06     232.561E+03    -211.524E-03     423.078E-03    -211.554E-03    -143.487E-06    -211.594E-03     422.172E-03    -211.623E-03    -270.582E-06
             208     23.2774E-09     11.3853E-03    -122.506E+06    -250.703E+06    -122.282E+06     59.3958E+03    -206.654E-03     413.281E-03    -206.627E-03    -364.250E-06    -206.727E-03     412.382E-03    -206.698E-03    -547.345E-06
             209     13.0771E-09     9.96036E-03    -123.459E+06    -251.296E+06    -122.927E+06    -271.372E+03    -202.697E-03     405.378E-03    -202.681E-03     77.0510E-06    -202.772E-03     404.478E-03    -202.753E-03    -134.882E-06
             210    -17.8700E-09     8.54435E-03    -123.002E+06    -254.244E+06    -122.436E+06    -641.341E+03    -200.638E-03     401.339E-03    -200.701E-03     920.890E-06    -200.707E-03     400.424E-03    -200.767E-03     716.885E-06
             211    -65.1284E-09     7.13070E-03    -116.500E+06    -257.833E+06    -116.310E+06    -471.781E+03    -200.626E-03     401.422E-03    -200.796E-03     1.59967E-03    -200.667E-03     400.471E-03    -200.834E-03     1.42816E-03
             212    -99.5332E-09     5.71426E-03    -101.770E+06    -258.125E+06    -101.866E+06     456.846E+03    -201.980E-03     404.239E-03    -202.259E-03     1.82254E-03    -201.967E-03     403.244E-03    -202.247E-03     1.69409E-03
             213    -148.141E-09     4.29255E-03    -85.8685E+06    -253.486E+06    -85.9462E+06     1.17789E+06    -203.806E-03     408.007E-03    -204.201E-03     1.65472E-03    -203.743E-03     406.988E-03    -204.138E-03     1.56508E-03
             214    -184.132E-09     2.86539E-03    -75.5676E+06    -246.913E+06    -75.5954E+06     1.10670E+06    -205.464E-03     411.430E-03    -205.966E-03     1.23674E-03    -205.375E-03     410.415E-03    -205.877E-03     1.17756E-03
             215    -219.375E-09     1.43388E-03    -69.9168E+06    -241.615E+06    -69.9410E+06     730.065E+03    -206.592E-03     413.764E-03    -207.172E-03     658.675E-06    -206.490E-03     412.758E-03    -207.070E-03     630.149E-06
             216     731.422E-06    -83.2667E-18    -67.9144E+06    -239.241E+06    -67.3241E+06     643.461E+03    -207.228E-03     414.707E-03    -207.478E-03     568.768E-06    -207.123E-03     413.707E-03    -207.370E-03     544.550E-06
             217     1.46272E-03    -83.2667E-18    -67.8676E+06    -238.413E+06    -65.5457E+06     1.03778E+06    -207.636E-03     415.056E-03    -207.420E-03     1.05496E-03    -207.534E-03     414.057E-03    -207.304E-03     1.00777E-03
             218     2.19376E-03    -83.2667E-18    -67.7040E+06    -234.831E+06    -63.2910E+06     1.27692E+06    -208.060E-03     415.630E-03    -207.570E-03     1.58290E-03    -207.966E-03     414.646E-03    -207.448E-03     1.50824E-03
             219     2.92443E-03    -83.2667E-18    -67.3658E+06    -224.159E+06    -61.6868E+06     1.00233E+06    -208.657E-03     416.421E-03    -207.765E-03     2.13269E-03    -208.580E-03     415.488E-03    -207.650E-03     2.02167E-03
             220     3.65457E-03    -83.2667E-18    -66.7844E+06    -207.634E+06    -60.6693E+06     560.317E+03    -209.443E-03     417.451E-03    -208.008E-03     2.71003E-03    -209.388E-03     416.598E-03    -207.914E-03     2.55855E-03
             221     4.38403E-03    -83.2667E-18    -65.8227E+06    -188.414E+06    -59.5049E+06    -126.021E+03    -210.442E-03     418.755E-03    -208.313E-03     3.31522E-03    -210.413E-03     417.996E-03    -208.242E-03     3.11713E-03
             222     5.11268E-03    -83.2667E-18    -64.3118E+06    -166.228E+06    -58.3121E+06    -868.834E+03    -211.676E-03     420.357E-03    -208.681E-03     3.95972E-03    -211.673E-03     419.705E-03    -208.639E-03     3.71057E-03
             223     5.84027E-03    -83.2667E-18    -62.0824E+06    -140.883E+06    -57.2960E+06    -2.01743E+06    -213.170E-03     422.288E-03    -209.117E-03     4.66294E-03    -213.195E-03     421.758E-03    -209.110E-03     4.35217E-03
             224     6.56670E-03    -83.2667E-18    -58.9964E+06    -111.894E+06    -56.2897E+06    -3.14540E+06    -214.962E-03     424.590E-03    -209.627E-03     5.41879E-03    -215.016E-03     424.200E-03    -209.661E-03     5.03926E-03
             225     7.29163E-03    -83.2667E-18    -54.7897E+06    -78.9142E+06    -55.5624E+06    -4.89635E+06    -217.103E-03     427.319E-03    -210.216E-03     6.29169E-03    -217.185E-03     427.088E-03    -210.300E-03     5.82615E-03
             226     8.01482E-03    -83.2667E-18    -49.2379E+06    -39.2491E+06    -53.8487E+06    -6.72993E+06    -219.656E-03     430.554E-03    -210.897E-03     7.24900E-03    -219.772E-03     430.511E-03    -211.038E-03     6.68248E-03
             227     8.73608E-03    -83.2667E-18    -44.3163E+06     1.44786E+06    -47.5629E+06    -3.72895E+06    -222.749E-03     434.463E-03    -211.714E-03     8.36862E-03    -222.909E-03     434.609E-03    -211.889E-03     7.75111E-03
             228     9.45447E-03    -83.2667E-18    -41.5169E+06     26.1674E+06    -33.0155E+06    -1.29170E+06    -226.521E-03     439.252E-03    -212.732E-03     9.96153E-03    -226.726E-03     439.499E-03    -212.874E-03     9.26389E-03
             229     10.1699E-03    -83.2667E-18    -37.0440E+06     39.3613E+06    -18.1565E+06    -5.96991E+06    -231.112E-03     445.033E-03    -213.922E-03     11.8624E-03    -231.339E-03     445.322E-03    -214.016E-03     10.9166E-03
             230     10.8820E-03    -83.2667E-18    -28.4903E+06     56.0906E+06    -1.58367E+06    -8.15535E+06    -236.831E-03     452.127E-03    -215.296E-03     14.1848E-03    -237.070E-03     452.469E-03    -215.344E-03     12.9728E-03
             231     11.5887E-03    -83.2667E-18    -19.3923E+06     74.1446E+06     33.4715E+06    -3.92000E+06    -244.201E-03     461.197E-03    -216.996E-03     18.5391E-03    -244.482E-03     461.576E-03    -216.908E-03     17.1038E-03
             232     12.2881E-03    -83.2667E-18    -13.2372E+06     86.7812E+06     76.8492E+06    -103.369E+03    -253.763E-03     472.816E-03    -219.053E-03     24.5126E-03    -254.112E-03     473.205E-03    -218.775E-03     22.6912E-03
             233     12.9816E-03    -83.2667E-18    -8.33007E+06     93.7215E+06     103.071E+06     855.192E+03    -267.978E-03     489.443E-03    -221.465E-03     31.9496E-03    -268.398E-03     489.872E-03    -221.073E-03     29.1163E-03
             234     13.6633E-03    -83.2667E-18    -2.98087E+06     97.2862E+06     110.798E+06     1.19100E+06    -290.994E-03     515.468E-03    -224.474E-03     52.7238E-03    -291.532E-03     516.023E-03    -224.056E-03     48.2425E-03
             235     14.3622E-03     1.64559E-03    -1.83321E+06     98.2771E+06     109.004E+06     1.33219E+06    -288.408E-03     513.626E-03    -225.218E-03     65.3079E-03    -289.024E-03     514.267E-03    -224.813E-03     59.9359E-03
             236     14.3838E-03     3.19714E-03    -3.19735E+06     97.9149E+06     103.280E+06     753.731E+03    -266.275E-03     490.160E-03    -223.885E-03     49.5420E-03    -266.829E-03     490.749E-03    -223.506E-03     44.3015E-03
             237     14.3894E-03     4.73402E-03    -2.81185E+06     97.5041E+06     101.166E+06     384.133E+03    -257.059E-03     480.558E-03    -223.499E-03     33.6508E-03    -257.543E-03     481.085E-03    -223.131E-03     28.4970E-03
             238     14.3900E-03     6.26011E-03    -2.61131E+06     96.8896E+06     101.743E+06    -57.5944E+03    -249.774E-03     473.324E-03    -223.550E-03     28.9692E-03    -250.240E-03     473.830E-03    -223.178E-03     23.9002E-03
             239     14.3906E-03     7.77690E-03    -2.64226E+06     95.7411E+06     101.475E+06    -225.634E+03    -243.131E-03     466.812E-03    -223.680E-03     27.6221E-03    -243.583E-03     467.300E-03    -223.308E-03     22.8143E-03
             240     14.3908E-03     9.28402E-03    -2.64736E+06     95.3611E+06     100.993E+06    -22.8492E+03    -237.300E-03     461.108E-03    -223.808E-03     26.5896E-03    -237.739E-03     461.583E-03    -223.437E-03     22.0459E-03
             241     14.3908E-03     10.7833E-03    -2.62159E+06     95.5808E+06     100.968E+06     77.8189E+03    -232.492E-03     456.417E-03    -223.924E-03     25.5932E-03    -232.921E-03     456.882E-03    -223.554E-03     21.2797E-03
             242     14.3909E-03     12.2763E-03    -2.76564E+06     95.3299E+06     100.880E+06    -161.242E+03    -228.402E-03     452.427E-03    -224.025E-03     24.5871E-03    -228.821E-03     452.882E-03    -223.655E-03     20.4630E-03
             243     14.3909E-03     13.7639E-03    -2.52710E+06     94.6494E+06     100.778E+06    -160.507E+03    -224.897E-03     449.009E-03    -224.112E-03     23.5987E-03    -225.306E-03     449.453E-03    -223.742E-03     19.6378E-03
             244     14.3909E-03     15.2469E-03    -2.74349E+06     94.1858E+06     100.594E+06    -44.1778E+03    -222.026E-03     446.213E-03    -224.187E-03     22.7410E-03    -222.429E-03     446.648E-03    -223.816E-03     18.9104E-03
             245     14.3908E-03     16.7263E-03    -2.65858E+06     93.6671E+06     100.452E+06    -192.760E+03    -219.822E-03     444.068E-03    -224.246E-03     22.0671E-03    -220.218E-03     444.496E-03    -223.876E-03     18.3345E-03
             246     14.3908E-03     18.2031E-03    -2.50919E+06     93.5712E+06     100.367E+06     195.926E+03    -218.301E-03     442.590E-03    -224.289E-03     21.5025E-03    -218.692E-03     443.014E-03    -223.919E-03     17.8486E-03
             247     14.3906E-03     19.6786E-03    -2.78600E+06     94.4456E+06     99.8739E+06     252.633E+03    -217.461E-03     441.780E-03    -224.319E-03     21.0120E-03    -217.851E-03     442.206E-03    -223.952E-03     17.4074E-03
             248     14.3904E-03     21.1533E-03    -2.66169E+06     94.3399E+06     97.8084E+06    -360.759E+03    -217.018E-03     441.343E-03    -224.325E-03     20.8861E-03    -217.404E-03     441.770E-03    -223.969E-03     17.3027E-03
             249     14.3908E-03     22.6274E-03    -2.50690E+06     92.8753E+06     97.7820E+06    -252.536E+03    -216.991E-03     441.305E-03    -224.314E-03     20.9674E-03    -217.373E-03     441.724E-03    -223.956E-03     17.4040E-03
             250     14.3910E-03     24.1023E-03    -2.41468E+06     92.9670E+06     101.491E+06     377.742E+03    -217.486E-03     441.785E-03    -224.299E-03     20.8602E-03    -217.872E-03     442.198E-03    -223.922E-03     17.3123E-03
             251     14.3914E-03     25.5781E-03    -2.67512E+06     94.6488E+06     103.082E+06     518.385E+03    -217.939E-03     442.206E-03    -224.267E-03     20.6546E-03    -218.330E-03     442.625E-03    -223.885E-03     17.1097E-03
             252     14.3918E-03     27.0544E-03    -2.78745E+06     95.9931E+06     102.056E+06     237.610E+03    -218.255E-03     442.487E-03    -224.232E-03     20.3572E-03    -218.646E-03     442.913E-03    -223.857E-03     16.8094E-03
             253     14.3916E-03     28.5312E-03    -2.66009E+06     96.5419E+06     101.742E+06    -51.1698E+03    -218.777E-03     442.988E-03    -224.211E-03     20.2498E-03    -219.168E-03     443.417E-03    -223.838E-03     16.6951E-03
             254     14.3918E-03     30.0087E-03    -2.61553E+06     96.1221E+06     102.107E+06    -131.970E+03    -219.397E-03     443.587E-03    -224.190E-03     20.3303E-03    -219.787E-03     444.013E-03    -223.815E-03     16.7621E-03
             255     14.3920E-03     31.4873E-03    -2.55114E+06     95.7138E+06     102.199E+06     13.7102E+03    -219.957E-03     444.124E-03    -224.167E-03     20.1524E-03    -220.347E-03     444.548E-03    -223.791E-03     16.5673E-03
             256     14.3920E-03     32.9667E-03    -2.71253E+06     95.6648E+06     102.026E+06    -69.1731E+03    -220.433E-03     444.585E-03    -224.152E-03     19.9862E-03    -220.822E-03     445.009E-03    -223.777E-03     16.3900E-03
             257     14.3919E-03     34.4466E-03    -2.57592E+06     95.2393E+06     101.920E+06    -164.686E+03    -220.861E-03     445.004E-03    -224.143E-03     20.0059E-03    -221.249E-03     445.425E-03    -223.768E-03     16.4040E-03
             258     14.3919E-03     35.9272E-03    -2.41600E+06     95.5075E+06     102.018E+06     304.805E+03    -221.246E-03     445.381E-03    -224.134E-03     19.9889E-03    -221.634E-03     445.803E-03    -223.759E-03     16.3883E-03
             259     14.3919E-03     37.4083E-03    -2.95540E+06     96.0932E+06     101.749E+06    -31.0793E+03    -221.555E-03     445.682E-03    -224.127E-03     19.9429E-03    -221.946E-03     446.108E-03    -223.753E-03     16.3342E-03
             260     14.3919E-03     38.8897E-03    -2.38150E+06     95.4872E+06     101.211E+06    -298.989E+03    -221.807E-03     445.926E-03    -224.120E-03     19.9654E-03    -222.193E-03     446.349E-03    -223.749E-03     16.3483E-03
             261     14.3919E-03     40.3715E-03    -2.47392E+06     95.6519E+06     101.239E+06     371.136E+03    -222.001E-03     446.112E-03    -224.111E-03     20.0642E-03    -222.388E-03     446.537E-03    -223.740E-03     16.4541E-03
             262     14.3921E-03     41.8535E-03    -2.91743E+06     96.4368E+06     102.254E+06     34.8044E+03    -222.193E-03     446.297E-03    -224.103E-03     20.1128E-03    -222.586E-03     446.724E-03    -223.728E-03     16.4953E-03
             263     14.3921E-03     43.3358E-03    -2.52862E+06     95.7541E+06     102.898E+06    -362.011E+03    -222.377E-03     446.470E-03    -224.093E-03     20.1257E-03    -222.767E-03     446.893E-03    -223.714E-03     16.4985E-03
             264     14.3923E-03     44.8184E-03    -2.44741E+06     95.3695E+06     102.742E+06     191.434E+03    -222.457E-03     446.539E-03    -224.081E-03     20.1092E-03    -222.846E-03     446.960E-03    -223.702E-03     16.4873E-03
             265     14.3924E-03     46.3010E-03    -2.70832E+06     96.8107E+06     103.414E+06     498.522E+03    -222.515E-03     446.589E-03    -224.074E-03     20.0860E-03    -222.909E-03     447.017E-03    -223.694E-03     16.4675E-03
             266     14.3924E-03     47.7836E-03    -2.78743E+06     98.2518E+06     104.546E+06     192.660E+03    -222.646E-03     446.716E-03    -224.070E-03     20.1292E-03    -223.044E-03     447.149E-03    -223.686E-03     16.5031E-03
             267     14.3925E-03     49.2665E-03    -2.69016E+06     98.4540E+06     104.608E+06    -73.3781E+03    -222.766E-03     446.830E-03    -224.064E-03     20.0818E-03    -223.164E-03     447.264E-03    -223.679E-03     16.4428E-03
             268     14.3925E-03     50.7496E-03    -2.72069E+06     97.8641E+06     103.861E+06    -235.793E+03    -222.818E-03     446.877E-03    -224.059E-03     20.0257E-03    -223.214E-03     447.310E-03    -223.678E-03     16.3772E-03
             269     14.3925E-03     52.2326E-03    -2.58439E+06     96.9279E+06     103.050E+06    -232.901E+03    -222.837E-03     446.894E-03    -224.058E-03     20.0453E-03    -223.230E-03     447.324E-03    -223.679E-03     16.3952E-03
             270     14.3925E-03     53.7157E-03    -2.54721E+06      96.816E+06     103.175E+06     139.902E+03    -222.900E-03     446.958E-03    -224.058E-03     20.1051E-03    -223.293E-03     447.387E-03    -223.679E-03     16.4596E-03
             271     14.3925E-03     55.1989E-03    -2.65856E+06     97.8587E+06     104.369E+06     361.368E+03    -223.000E-03     447.058E-03    -224.058E-03     20.1820E-03    -223.397E-03     447.490E-03    -223.674E-03     16.5372E-03
             272     14.3926E-03     56.6823E-03    -2.84163E+06      98.582E+06     104.996E+06     21.8603E+03    -223.021E-03     447.076E-03    -224.055E-03     20.1474E-03    -223.421E-03     447.511E-03    -223.669E-03     16.4947E-03
             273     14.3926E-03     58.1657E-03    -2.58670E+06     98.5371E+06     104.610E+06    -67.8633E+03    -222.993E-03     447.046E-03    -224.053E-03     20.0806E-03    -223.391E-03     447.481E-03    -223.669E-03     16.4252E-03
             274     14.3925E-03     59.6489E-03    -2.70927E+06     98.5130E+06     103.763E+06     27.0195E+03    -222.979E-03     447.033E-03    -224.054E-03     20.0639E-03    -223.376E-03     447.469E-03    -223.674E-03     16.4085E-03
             275     14.3924E-03     61.1322E-03    -2.61633E+06     98.7325E+06     103.597E+06     43.5578E+03    -223.000E-03     447.056E-03    -224.056E-03     20.1287E-03    -223.397E-03     447.494E-03    -223.677E-03     16.4743E-03
             276     14.3924E-03     62.6155E-03    -2.74367E+06     98.7387E+06     103.958E+06    -51.2323E+03    -223.038E-03     447.095E-03    -224.057E-03     20.2122E-03    -223.437E-03     447.533E-03    -223.676E-03     16.5561E-03
             277     14.3925E-03     64.0989E-03    -2.65888E+06     98.1378E+06     104.045E+06    -224.990E+03    -223.030E-03     447.084E-03    -224.055E-03     20.1995E-03    -223.427E-03     447.519E-03    -223.673E-03     16.5395E-03
             278     14.3925E-03     65.5823E-03    -2.51082E+06     98.0343E+06     104.056E+06     146.233E+03    -223.011E-03     447.065E-03    -224.054E-03     20.1553E-03    -223.408E-03     447.499E-03    -223.672E-03     16.4999E-03
             279     14.3925E-03     67.0656E-03    -2.83037E+06     98.6333E+06     104.040E+06     122.899E+03    -223.016E-03     447.071E-03    -224.055E-03     20.1514E-03    -223.415E-03     447.508E-03    -223.674E-03     16.4946E-03
             280     14.3925E-03     68.5489E-03    -2.60129E+06     98.7426E+06     103.949E+06    -77.4476E+03    -223.016E-03     447.071E-03    -224.055E-03     20.1707E-03    -223.414E-03     447.509E-03    -223.675E-03     16.5119E-03
             281     14.3925E-03     70.0322E-03    -2.61064E+06     98.9682E+06     104.034E+06     163.876E+03    -223.003E-03     447.058E-03    -224.055E-03     20.1930E-03    -223.401E-03     447.496E-03    -223.674E-03     16.5389E-03
             282     14.3925E-03     71.5155E-03    -2.90507E+06     98.8947E+06     104.051E+06    -201.962E+03    -222.996E-03     447.050E-03    -224.055E-03     20.1925E-03    -223.395E-03     447.489E-03    -223.674E-03     16.5326E-03
             283     14.3925E-03     72.9988E-03    -2.47063E+06     97.9255E+06     103.880E+06    -289.280E+03    -222.993E-03     447.048E-03    -224.055E-03     20.1891E-03    -223.389E-03     447.481E-03    -223.674E-03     16.5279E-03
             284     14.3925E-03     74.4821E-03    -2.60310E+06     97.8476E+06     103.793E+06     231.229E+03    -222.985E-03     447.040E-03    -224.055E-03     20.1888E-03    -223.381E-03     447.473E-03    -223.674E-03     16.5351E-03
             285     14.3925E-03     75.9654E-03    -2.86019E+06     98.2052E+06     103.937E+06    -83.9677E+03    -222.959E-03     447.013E-03    -224.054E-03     20.2245E-03    -223.357E-03     447.448E-03    -223.673E-03     16.5662E-03
             286     14.3926E-03     77.4485E-03    -2.47149E+06     97.9879E+06     104.565E+06    -10.1566E+03    -222.937E-03     446.990E-03    -224.053E-03     20.2646E-03    -223.334E-03     447.423E-03    -223.669E-03     16.6077E-03
             287     14.3926E-03     78.9318E-03    -2.76332E+06     98.6116E+06     105.316E+06     322.052E+03    -222.980E-03     447.035E-03    -224.054E-03     20.1757E-03    -223.381E-03     447.470E-03    -223.667E-03     16.5233E-03
             288     14.3925E-03     80.4151E-03    -2.75389E+06     99.4384E+06     105.130E+06     28.4899E+03    -223.018E-03     447.076E-03    -224.057E-03     20.0879E-03    -223.419E-03     447.515E-03    -223.672E-03     16.4303E-03
             289     14.3924E-03     81.8985E-03    -2.62454E+06     99.4995E+06     103.976E+06    -21.3361E+03    -222.988E-03     447.049E-03    -224.061E-03     20.0584E-03    -223.386E-03     447.490E-03    -223.682E-03     16.3999E-03
             290     14.3922E-03     83.3817E-03    -2.74815E+06     99.3318E+06     103.021E+06    -115.712E+03    -222.975E-03     447.044E-03    -224.069E-03     20.0551E-03    -223.373E-03     447.485E-03    -223.694E-03     16.3954E-03
             291     14.3920E-03     84.8650E-03    -2.55099E+06     98.9945E+06     102.920E+06    -105.292E+03    -223.046E-03     447.121E-03    -224.076E-03     20.1714E-03    -223.442E-03     447.561E-03    -223.701E-03     16.5115E-03
             292     719.258E-06     87.1049E-03    -126.561E+06    -257.287E+06    -124.190E+06     83.8739E+03    -224.110E-03     448.195E-03    -224.085E-03     3.93410E-03    -224.190E-03     447.273E-03    -224.150E-03     4.10217E-03
             293     1.43854E-03     87.1136E-03    -123.125E+06    -246.698E+06    -114.257E+06     134.309E+03    -224.058E-03     448.181E-03    -224.123E-03     7.20037E-03    -224.150E-03     447.291E-03    -224.158E-03     7.49475E-03
             294     2.15785E-03     87.1276E-03    -117.846E+06    -231.278E+06    -99.6056E+06     184.896E+03    -224.015E-03     448.162E-03    -224.147E-03     10.5760E-03    -224.125E-03     447.321E-03    -224.139E-03     10.9788E-03
             295     2.87720E-03     87.1469E-03    -111.189E+06    -213.283E+06    -82.0985E+06     214.697E+03    -223.972E-03     448.148E-03    -224.175E-03     13.8744E-03    -224.100E-03     447.362E-03    -224.115E-03     14.3494E-03
             296     3.59659E-03     87.1712E-03    -103.602E+06    -193.388E+06    -63.7828E+06     219.789E+03    -223.933E-03     448.134E-03    -224.201E-03     17.0540E-03    -224.080E-03     447.411E-03    -224.089E-03     17.5541E-03
             297     4.31604E-03     87.2002E-03    -95.5293E+06    -172.088E+06    -45.9398E+06     256.114E+03    -223.900E-03     448.119E-03    -224.219E-03     20.0809E-03    -224.065E-03     447.467E-03    -224.061E-03     20.5522E-03
             298     5.03552E-03     87.2336E-03    -87.3321E+06    -150.773E+06    -29.1955E+06     327.042E+03    -223.877E-03     448.109E-03    -224.232E-03     22.9394E-03    -224.059E-03     447.530E-03    -224.033E-03     23.3214E-03
             299     5.75505E-03     87.2711E-03    -79.2428E+06    -128.871E+06    -13.9369E+06     403.582E+03    -223.859E-03     448.095E-03    -224.237E-03     25.6188E-03    -224.058E-03     447.596E-03    -224.004E-03     25.8468E-03
             300     6.47460E-03     87.3122E-03    -71.4069E+06    -106.095E+06    -97.8792E+03     446.422E+03    -223.838E-03     448.072E-03    -224.234E-03     28.1185E-03    -224.057E-03     447.661E-03    -223.977E-03     28.1246E-03
             301     7.19420E-03     87.3566E-03    -63.8838E+06    -82.2963E+06     12.5894E+06     492.752E+03    -223.809E-03     448.033E-03    -224.224E-03     30.4136E-03    -224.052E-03     447.721E-03    -223.950E-03     30.1305E-03
             302     7.91383E-03     87.4038E-03    -56.6725E+06    -56.5030E+06     24.4471E+06     560.415E+03    -223.765E-03     447.973E-03    -224.209E-03     32.4622E-03    -224.037E-03     447.773E-03    -223.922E-03     31.8256E-03
             303     8.63351E-03     87.4534E-03    -49.8309E+06    -26.0231E+06     36.0285E+06     694.518E+03    -223.698E-03     447.883E-03    -224.184E-03     34.3318E-03    -224.012E-03     447.823E-03    -223.894E-03     33.2754E-03
             304     9.35321E-03     87.5051E-03    -43.3776E+06     11.6136E+06     47.9073E+06     810.369E+03    -223.595E-03     447.746E-03    -224.151E-03     36.0076E-03    -223.967E-03     447.866E-03    -223.865E-03     34.4654E-03
             305     10.0730E-03     87.5582E-03    -36.7395E+06     45.1270E+06     57.6818E+06     733.612E+03    -223.497E-03     447.608E-03    -224.111E-03     37.3070E-03    -223.920E-03     447.893E-03    -223.835E-03     35.2220E-03
             306     10.7929E-03     87.6122E-03    -29.7717E+06     61.8505E+06     65.1869E+06     676.636E+03    -223.453E-03     447.539E-03    -224.085E-03     37.9705E-03    -223.901E-03     447.911E-03    -223.806E-03     35.2968E-03
             307     11.5126E-03     87.6656E-03    -23.2765E+06     67.4415E+06     74.4399E+06     816.064E+03    -223.417E-03     447.505E-03    -224.088E-03     37.6611E-03    -223.878E-03     447.906E-03    -223.780E-03     34.3893E-03
             308     12.2325E-03     87.7167E-03    -17.1343E+06     80.8671E+06     87.7734E+06     875.674E+03    -223.301E-03     447.403E-03    -224.102E-03     36.1016E-03    -223.787E-03     447.861E-03    -223.756E-03     32.2962E-03
             309     12.9524E-03     87.7637E-03    -11.1404E+06     93.9339E+06     99.7476E+06     560.747E+03    -223.169E-03     447.280E-03    -224.111E-03     34.1930E-03    -223.687E-03     447.803E-03    -223.733E-03     29.6770E-03
             310     13.6722E-03     87.8069E-03    -5.50259E+06     97.2063E+06     103.535E+06     130.317E+03    -223.093E-03     447.189E-03    -224.096E-03     26.8069E-03    -223.557E-03     447.679E-03    -223.711E-03     22.4863E-03
             311     719.253E-06     88.5880E-03    -126.733E+06    -257.474E+06    -124.347E+06     33.5492E+03    -224.119E-03     448.215E-03    -224.096E-03     3.93402E-03    -224.199E-03     447.292E-03    -224.161E-03     4.10078E-03
             312     1.43852E-03     88.5967E-03    -123.298E+06    -246.867E+06    -114.398E+06     77.8302E+03    -224.066E-03     448.198E-03    -224.132E-03     7.19445E-03    -224.159E-03     447.309E-03    -224.167E-03     7.48749E-03
             313     2.15783E-03     88.6108E-03    -118.033E+06    -231.594E+06    -99.7696E+06     188.115E+03    -224.022E-03     448.178E-03    -224.156E-03     10.5646E-03    -224.132E-03     447.336E-03    -224.148E-03     10.9667E-03
             314     2.87718E-03     88.6301E-03    -111.377E+06    -213.430E+06    -82.2650E+06     290.924E+03    -223.979E-03     448.163E-03    -224.184E-03     13.8590E-03    -224.108E-03     447.377E-03    -224.124E-03     14.3339E-03
             315     3.59657E-03     88.6544E-03    -103.814E+06    -193.526E+06    -63.8787E+06     341.122E+03    -223.944E-03     448.153E-03    -224.210E-03     17.0346E-03    -224.091E-03     447.430E-03    -224.098E-03     17.5347E-03
             316     4.31599E-03     88.6834E-03    -95.8181E+06    -172.465E+06    -46.1210E+06     484.478E+03    -223.914E-03     448.143E-03    -224.229E-03     20.0564E-03    -224.079E-03     447.489E-03    -224.071E-03     20.5290E-03
             317     5.03547E-03     88.7168E-03    -87.7184E+06    -151.066E+06    -29.6010E+06     650.838E+03    -223.891E-03     448.132E-03    -224.241E-03     22.9126E-03    -224.073E-03     447.552E-03    -224.043E-03     23.2973E-03
             318     5.75498E-03     88.7543E-03    -79.7032E+06    -129.207E+06    -14.4547E+06     787.160E+03    -223.871E-03     448.117E-03    -224.246E-03     25.5953E-03    -224.071E-03     447.617E-03    -224.015E-03     25.8270E-03
             319     6.47453E-03     88.7954E-03    -71.9095E+06    -106.367E+06    -673.784E+03     943.429E+03    -223.847E-03     448.090E-03    -224.243E-03     28.1032E-03    -224.068E-03     447.680E-03    -223.988E-03     28.1153E-03
             320     7.19411E-03     88.8399E-03    -64.4129E+06    -82.5379E+06     11.9304E+06     1.05434E+06    -223.813E-03     448.046E-03    -224.233E-03     30.4085E-03    -224.058E-03     447.734E-03    -223.960E-03     30.1337E-03
             321     7.91375E-03     88.8871E-03    -57.1839E+06    -56.6873E+06     23.7600E+06     1.10744E+06    -223.765E-03     447.981E-03    -224.216E-03     32.4713E-03    -224.039E-03     447.782E-03    -223.932E-03     31.8442E-03
             322     8.63342E-03     88.9367E-03    -50.0428E+06    -26.4478E+06     35.4447E+06     1.18286E+06    -223.695E-03     447.887E-03    -224.192E-03     34.3493E-03    -224.009E-03     447.826E-03    -223.903E-03     33.3019E-03
             323     9.35318E-03     88.9884E-03    -42.8686E+06     11.1744E+06     47.7573E+06     1.39982E+06    -223.594E-03     447.752E-03    -224.158E-03     36.0173E-03    -223.962E-03     447.869E-03    -223.873E-03     34.4852E-03
             324     10.0730E-03     89.0415E-03     -36.246E+06     45.8767E+06     58.0677E+06     1.22826E+06    -223.500E-03     447.618E-03    -224.119E-03     37.3173E-03    -223.922E-03     447.906E-03    -223.842E-03     35.2414E-03
             325     10.7927E-03     89.0955E-03    -30.2844E+06     62.4739E+06     65.2545E+06     534.955E+03    -223.447E-03     447.539E-03    -224.092E-03     37.9972E-03    -223.897E-03     447.915E-03    -223.813E-03     35.3257E-03
             326     11.5126E-03     89.1489E-03    -24.0232E+06     66.9750E+06     74.0257E+06     272.759E+03    -223.396E-03     447.489E-03    -224.093E-03     37.6846E-03    -223.859E-03     447.890E-03    -223.785E-03     34.4094E-03
             327     12.2324E-03     89.2001E-03    -17.5394E+06     80.2841E+06     87.5184E+06     664.683E+03    -223.281E-03     447.388E-03    -224.106E-03     36.1049E-03    -223.768E-03     447.843E-03    -223.760E-03     32.2987E-03
             328     12.9523E-03     89.2471E-03    -11.2455E+06     94.5374E+06     100.201E+06     897.279E+03    -223.143E-03     447.259E-03    -224.116E-03     34.1994E-03    -223.664E-03     447.784E-03    -223.735E-03     29.6901E-03
             329     13.6722E-03     89.2903E-03    -5.29484E+06     98.2743E+06     104.295E+06     497.105E+03    -223.044E-03     447.143E-03    -224.099E-03     26.8355E-03    -223.510E-03     447.636E-03    -223.712E-03     22.5241E-03
             330     719.240E-06     90.0712E-03    -126.828E+06    -257.560E+06    -124.439E+06     22.4986E+03    -224.134E-03     448.244E-03    -224.111E-03     3.93037E-03    -224.214E-03     447.321E-03    -224.176E-03     4.09641E-03
             331     1.43850E-03     90.0799E-03    -123.447E+06    -247.097E+06    -114.568E+06     109.900E+03    -224.081E-03     448.228E-03    -224.147E-03     7.18273E-03    -224.174E-03     447.337E-03    -224.182E-03     7.47569E-03
             332     2.15780E-03     90.0940E-03    -118.239E+06    -232.016E+06    -100.040E+06     244.596E+03    -224.038E-03     448.208E-03    -224.171E-03     10.5495E-03    -224.147E-03     447.365E-03    -224.163E-03     10.9514E-03
             333     2.87713E-03     90.1133E-03    -111.627E+06    -213.698E+06     -82.709E+06     353.920E+03    -223.994E-03     448.191E-03    -224.197E-03     13.8440E-03    -224.122E-03     447.405E-03    -224.139E-03     14.3186E-03
             334     3.59651E-03     90.1376E-03    -104.079E+06    -193.868E+06    -64.4112E+06     474.950E+03    -223.957E-03     448.179E-03    -224.223E-03     17.0202E-03    -224.104E-03     447.456E-03    -224.113E-03     17.5210E-03
             335     4.31593E-03     90.1666E-03    -96.0176E+06    -173.113E+06    -46.5587E+06     683.528E+03    -223.926E-03     448.169E-03    -224.243E-03     20.0468E-03    -224.091E-03     447.513E-03    -224.085E-03     20.5211E-03
             336     5.03539E-03     90.2001E-03    -87.7987E+06    -151.582E+06    -29.9943E+06     909.954E+03    -223.899E-03     448.153E-03    -224.254E-03     22.9126E-03    -224.081E-03     447.572E-03    -224.057E-03     23.3005E-03
             337     5.75490E-03     90.2376E-03    -79.6879E+06    -129.779E+06    -14.8594E+06     1.11788E+06    -223.873E-03     448.130E-03    -224.257E-03     25.6064E-03    -224.072E-03     447.628E-03    -224.028E-03     25.8431E-03
             338     6.47444E-03     90.2787E-03    -71.8139E+06    -107.001E+06    -1.00534E+06     1.35517E+06    -223.843E-03     448.096E-03    -224.253E-03     28.1241E-03    -224.062E-03     447.683E-03    -223.999E-03     28.1429E-03
             339     7.19405E-03     90.3231E-03    -64.2435E+06    -82.9897E+06     11.7686E+06     1.57298E+06    -223.809E-03     448.050E-03    -224.242E-03     30.4351E-03    -224.051E-03     447.736E-03    -223.969E-03     30.1688E-03
             340     7.91368E-03     90.3704E-03    -57.0437E+06    -57.0488E+06     23.7314E+06     1.72263E+06    -223.765E-03     447.989E-03    -224.224E-03     32.4974E-03    -224.037E-03     447.788E-03    -223.940E-03     31.8798E-03
             341     8.63337E-03     90.4200E-03    -50.2280E+06    -26.4893E+06     35.4579E+06     1.66127E+06    -223.698E-03     447.897E-03    -224.199E-03     34.3703E-03    -224.012E-03     447.836E-03    -223.911E-03     33.3307E-03
             342     9.35307E-03     90.4716E-03    -43.5444E+06     10.8635E+06     47.5678E+06     1.43193E+06    -223.594E-03     447.759E-03    -224.165E-03     36.0406E-03    -223.965E-03     447.876E-03    -223.880E-03     34.5106E-03
             343     10.0729E-03     90.5249E-03    -36.6159E+06     46.0038E+06     57.9845E+06     1.52019E+06    -223.484E-03     447.609E-03    -224.125E-03     37.3439E-03    -223.908E-03     447.898E-03    -223.848E-03     35.2742E-03
             344     10.7928E-03     90.5788E-03    -30.0835E+06     63.5951E+06     65.6962E+06     1.52873E+06    -223.430E-03     447.527E-03    -224.097E-03     38.0302E-03    -223.882E-03     447.908E-03    -223.817E-03     35.3757E-03
             345     11.5125E-03     90.6322E-03    -24.5336E+06     67.9554E+06     74.4088E+06     753.996E+03    -223.393E-03     447.491E-03    -224.098E-03     37.7286E-03    -223.860E-03     447.897E-03    -223.789E-03     34.4638E-03
             346     12.2324E-03     90.6834E-03    -18.6393E+06     79.8599E+06     87.1450E+06     61.0776E+03    -223.270E-03     447.380E-03    -224.110E-03     36.1463E-03    -223.761E-03     447.836E-03    -223.763E-03     32.3341E-03
             347     12.9523E-03     90.7304E-03    -11.9931E+06     93.9621E+06     99.7528E+06     269.666E+03    -223.114E-03     447.231E-03    -224.117E-03     34.2195E-03    -223.637E-03     447.756E-03    -223.737E-03     29.7025E-03
             348     13.6723E-03     90.7736E-03    -5.70459E+06     99.1446E+06     104.505E+06     498.832E+03    -223.033E-03     447.133E-03    -224.100E-03     26.8026E-03    -223.503E-03     447.631E-03    -223.713E-03     22.4916E-03
             349     719.227E-06     91.5544E-03    -127.025E+06    -257.695E+06    -124.626E+06     59.3705E+03    -224.152E-03     448.281E-03    -224.129E-03     3.92885E-03    -224.233E-03     447.357E-03    -224.194E-03     4.09509E-03
             350     1.43847E-03     91.5631E-03    -123.622E+06    -247.444E+06    -114.768E+06     157.072E+03    -224.100E-03     448.265E-03    -224.165E-03     7.17861E-03    -224.193E-03     447.374E-03    -224.201E-03     7.47196E-03
             351     2.15775E-03     91.5772E-03    -118.386E+06    -232.397E+06    -100.324E+06     261.744E+03    -224.056E-03     448.245E-03    -224.189E-03     10.5482E-03    -224.166E-03     447.400E-03    -224.182E-03     10.9501E-03
             352     2.87707E-03     91.5965E-03    -111.764E+06    -214.033E+06    -83.0859E+06     354.770E+03    -224.009E-03     448.224E-03    -224.215E-03     13.8478E-03    -224.138E-03     447.437E-03    -224.158E-03     14.3221E-03
             353     3.59644E-03     91.6208E-03    -104.218E+06    -194.350E+06    -64.8899E+06     481.583E+03    -223.967E-03     448.205E-03    -224.238E-03     17.0293E-03    -224.113E-03     447.480E-03    -224.130E-03     17.5305E-03
             354     4.31585E-03     91.6499E-03    -96.1546E+06    -173.754E+06    -47.0850E+06     647.139E+03    -223.930E-03     448.186E-03    -224.256E-03     20.0625E-03    -224.093E-03     447.528E-03    -224.100E-03     20.5370E-03
             355     5.03533E-03     91.6833E-03    -87.8780E+06    -152.232E+06    -30.4024E+06     842.741E+03    -223.897E-03     448.162E-03    -224.266E-03     22.9339E-03    -224.077E-03     447.579E-03    -224.070E-03     23.3219E-03
             356     5.75484E-03     91.7208E-03    -79.6222E+06    -130.537E+06    -15.1214E+06     1.08731E+06    -223.867E-03     448.135E-03    -224.268E-03     25.6285E-03    -224.064E-03     447.630E-03    -224.038E-03     25.8660E-03
             357     6.47441E-03     91.7620E-03    -71.5530E+06    -107.853E+06    -1.14830E+06     1.37832E+06    -223.837E-03     448.098E-03    -224.262E-03     28.1424E-03    -224.053E-03     447.681E-03    -224.007E-03     28.1629E-03
             358     7.19400E-03     91.8064E-03    -63.7671E+06    -83.9027E+06     11.7616E+06     1.74053E+06    -223.805E-03     448.054E-03    -224.249E-03     30.4513E-03    -224.044E-03     447.735E-03    -223.976E-03     30.1884E-03
             359     7.91365E-03     91.8537E-03    -56.3416E+06    -57.9926E+06     23.8943E+06     2.20266E+06    -223.764E-03     447.995E-03    -224.231E-03     32.5153E-03    -224.033E-03     447.788E-03    -223.946E-03     31.9054E-03
             360     8.63332E-03     91.9033E-03    -49.4189E+06    -27.1015E+06     35.8044E+06     2.73645E+06    -223.696E-03     447.901E-03    -224.205E-03     34.3974E-03    -224.006E-03     447.835E-03    -223.915E-03     33.3747E-03
             361     9.35306E-03     91.9550E-03    -43.1257E+06     11.2764E+06     48.0811E+06     2.82579E+06    -223.587E-03     447.757E-03    -224.170E-03     36.0838E-03    -223.957E-03     447.875E-03    -223.884E-03     34.5753E-03
             362     10.0729E-03     92.0081E-03    -37.1838E+06     46.6611E+06     58.2512E+06     2.02695E+06    -223.481E-03     447.610E-03    -224.129E-03     37.3854E-03    -223.910E-03     447.903E-03    -223.851E-03     35.3234E-03
             363     10.7927E-03     92.0621E-03    -30.6729E+06     64.0873E+06     65.6467E+06     1.27030E+06    -223.423E-03     447.523E-03    -224.099E-03     38.0477E-03    -223.879E-03     447.907E-03    -223.820E-03     35.3899E-03
             364     11.5126E-03     92.1156E-03    -23.6122E+06     69.3216E+06     75.1041E+06     1.02638E+06    -223.372E-03     447.472E-03    -224.100E-03     37.7466E-03    -223.838E-03     447.882E-03    -223.790E-03     34.4876E-03
             365     12.2324E-03     92.1668E-03    -17.4459E+06     80.8311E+06     87.9761E+06     598.939E+03    -223.268E-03     447.380E-03    -224.112E-03     36.1821E-03    -223.756E-03     447.837E-03    -223.764E-03     32.3796E-03
             366     12.9523E-03     92.2137E-03    -11.8505E+06     93.5405E+06     99.4893E+06     146.284E+03    -223.149E-03     447.266E-03    -224.118E-03     34.2351E-03    -223.669E-03     447.789E-03    -223.739E-03     29.7167E-03
             367     13.6722E-03     92.2569E-03    -5.81602E+06     99.2227E+06     103.865E+06     24.2635E+03    -223.036E-03     447.135E-03    -224.099E-03     26.8189E-03    -223.506E-03     447.635E-03    -223.715E-03     22.5012E-03
             368     719.212E-06     93.0377E-03    -127.338E+06    -257.949E+06    -124.958E+06     95.3340E+03    -224.167E-03     448.310E-03    -224.143E-03     3.93646E-03    -224.248E-03     447.386E-03    -224.209E-03     4.10322E-03
             369     1.43845E-03     93.0464E-03    -123.950E+06    -247.743E+06    -115.158E+06     148.651E+03    -224.114E-03     448.293E-03    -224.179E-03     7.19454E-03    -224.207E-03     447.401E-03    -224.216E-03     7.48774E-03
             370     2.15771E-03     93.0605E-03    -118.748E+06    -232.707E+06    -100.780E+06     216.860E+03    -224.070E-03     448.272E-03    -224.202E-03     10.5719E-03    -224.180E-03     447.427E-03    -224.197E-03     10.9732E-03
             371     2.87702E-03     93.0798E-03    -112.165E+06    -214.349E+06    -83.5737E+06     296.407E+03    -224.020E-03     448.247E-03    -224.227E-03     13.8754E-03    -224.149E-03     447.460E-03    -224.172E-03     14.3494E-03
             372     3.59639E-03     93.1041E-03    -104.626E+06    -194.753E+06    -65.3611E+06     383.092E+03    -223.973E-03     448.223E-03    -224.250E-03     17.0583E-03    -224.120E-03     447.497E-03    -224.143E-03     17.5587E-03
             373     4.31581E-03     93.1331E-03    -96.5425E+06    -174.202E+06    -47.5624E+06     478.407E+03    -223.931E-03     448.197E-03    -224.267E-03     20.0892E-03    -224.095E-03     447.539E-03    -224.112E-03     20.5620E-03
             374     5.03527E-03     93.1666E-03    -88.2514E+06    -152.755E+06    -30.9020E+06     583.913E+03    -223.895E-03     448.169E-03    -224.274E-03     22.9541E-03    -224.075E-03     447.584E-03    -224.080E-03     23.3392E-03
             375     5.75480E-03     93.2041E-03    -79.9554E+06    -131.185E+06    -15.5849E+06     714.699E+03    -223.865E-03     448.140E-03    -224.275E-03     25.6409E-03    -224.062E-03     447.633E-03    -224.047E-03     25.8738E-03
             376     6.47435E-03     93.2452E-03    -71.7640E+06    -108.698E+06    -1.56707E+06     920.660E+03    -223.836E-03     448.104E-03    -224.268E-03     28.1507E-03    -224.051E-03     447.683E-03    -224.014E-03     28.1654E-03
             377     7.19396E-03     93.2897E-03    -63.7348E+06    -85.0000E+06     11.3734E+06     1.23094E+06    -223.803E-03     448.058E-03    -224.255E-03     30.4610E-03    -224.040E-03     447.733E-03    -223.982E-03     30.1918E-03
             378     7.91360E-03     93.3369E-03    -55.8632E+06    -59.5045E+06     23.5593E+06     1.71346E+06    -223.757E-03     447.993E-03    -224.235E-03     32.5228E-03    -224.020E-03     447.778E-03    -223.950E-03     31.9076E-03
             379     8.63332E-03     93.3866E-03    -48.0612E+06    -29.0462E+06     35.7157E+06     2.47926E+06    -223.687E-03     447.895E-03    -224.209E-03     34.3975E-03    -223.987E-03     447.818E-03    -223.918E-03     33.3728E-03
             380     9.35306E-03     93.4382E-03    -40.4083E+06     10.1919E+06     48.8098E+06     3.44640E+06    -223.583E-03     447.756E-03    -224.173E-03     36.0735E-03    -223.939E-03     447.863E-03    -223.885E-03     34.5754E-03
             381     10.0729E-03     93.4915E-03    -33.5817E+06     47.9242E+06     60.2123E+06     3.81005E+06    -223.488E-03     447.619E-03    -224.132E-03     37.3867E-03    -223.902E-03     447.910E-03    -223.852E-03     35.3536E-03
             382     10.7927E-03     93.5455E-03    -28.2023E+06     66.4747E+06     67.8286E+06     2.58207E+06    -223.435E-03     447.539E-03    -224.104E-03     38.0781E-03    -223.885E-03     447.928E-03    -223.820E-03     35.4404E-03
             383     11.5125E-03     93.5989E-03    -23.2941E+06     70.1378E+06     75.6513E+06     1.16197E+06    -223.380E-03     447.481E-03    -224.101E-03     37.7504E-03    -223.846E-03     447.894E-03    -223.791E-03     34.4916E-03
             384     12.2325E-03     93.6501E-03    -17.2945E+06     81.1577E+06     87.9540E+06     982.292E+03    -223.263E-03     447.374E-03    -224.112E-03     36.1440E-03    -223.750E-03     447.833E-03    -223.764E-03     32.3464E-03
             385     12.9523E-03     93.6972E-03    -10.8801E+06     94.6451E+06     100.098E+06     710.141E+03    -223.111E-03     447.229E-03    -224.117E-03     34.2677E-03    -223.630E-03     447.754E-03    -223.738E-03     29.7578E-03
             386     13.6721E-03     93.7403E-03    -5.27232E+06     99.6905E+06     104.271E+06     117.041E+03    -222.973E-03     447.070E-03    -224.096E-03     26.9477E-03    -223.442E-03     447.571E-03    -223.712E-03     22.6320E-03
             387     719.211E-06     94.5210E-03    -127.859E+06    -258.247E+06    -125.527E+06     95.6068E+03    -224.172E-03     448.317E-03    -224.146E-03     3.94388E-03    -224.254E-03     447.393E-03    -224.213E-03     4.11114E-03
             388     1.43844E-03     94.5297E-03    -124.504E+06    -247.957E+06    -115.743E+06     140.857E+03    -224.118E-03     448.301E-03    -224.183E-03     7.21199E-03    -224.213E-03     447.410E-03    -224.222E-03     7.50526E-03
             389     2.15771E-03     94.5438E-03    -119.319E+06    -232.967E+06    -101.320E+06     197.870E+03    -224.075E-03     448.282E-03    -224.207E-03     10.5948E-03    -224.187E-03     447.437E-03    -224.202E-03     10.9959E-03
             390     2.87701E-03     94.5631E-03    -112.743E+06    -214.618E+06    -84.0898E+06     268.446E+03    -224.026E-03     448.258E-03    -224.232E-03     13.8989E-03    -224.157E-03     447.471E-03    -224.178E-03     14.3725E-03
             391     3.59637E-03     94.5874E-03    -105.242E+06    -195.022E+06    -65.8701E+06     332.938E+03    -223.978E-03     448.234E-03    -224.255E-03     17.0800E-03    -224.128E-03     447.508E-03    -224.149E-03     17.5795E-03
             392     4.31578E-03     94.6164E-03    -97.2369E+06    -174.465E+06    -48.0946E+06     382.433E+03    -223.936E-03     448.208E-03    -224.272E-03     20.1082E-03    -224.103E-03     447.550E-03    -224.119E-03     20.5794E-03
             393     5.03524E-03     94.6499E-03    -89.0372E+06    -152.983E+06    -31.5115E+06     398.055E+03    -223.899E-03     448.178E-03    -224.280E-03     22.9712E-03    -224.082E-03     447.594E-03    -224.086E-03     23.3535E-03
             394     5.75475E-03     94.6873E-03    -80.8565E+06    -131.449E+06    -16.3075E+06     386.406E+03    -223.867E-03     448.147E-03    -224.280E-03     25.6578E-03    -224.067E-03     447.641E-03    -224.053E-03     25.8862E-03
             395     6.47431E-03     94.7285E-03    -72.7997E+06    -109.098E+06    -2.40695E+06     372.608E+03    -223.837E-03     448.109E-03    -224.272E-03     28.1693E-03    -224.055E-03     447.689E-03    -224.021E-03     28.1762E-03
             396     7.19391E-03     94.7729E-03    -64.8878E+06      -85.63E+06     10.4005E+06     402.055E+03    -223.801E-03     448.059E-03    -224.258E-03     30.4785E-03    -224.041E-03     447.735E-03    -223.988E-03     30.1971E-03
             397     7.91357E-03     94.8202E-03    -57.0781E+06    -60.4481E+06     22.4550E+06     473.550E+03    -223.753E-03     447.991E-03    -224.238E-03     32.5296E-03    -224.019E-03     447.775E-03    -223.956E-03     31.8963E-03
             398     8.63326E-03     94.8698E-03    -49.2739E+06    -30.7136E+06     34.3843E+06     682.942E+03    -223.684E-03     447.895E-03    -224.211E-03     34.3952E-03    -223.986E-03     447.813E-03    -223.923E-03     33.3442E-03
             399     9.35302E-03     94.9215E-03    -41.5564E+06     6.58476E+06     46.9375E+06     1.87168E+06    -223.580E-03     447.754E-03    -224.175E-03     36.0559E-03    -223.933E-03     447.848E-03    -223.889E-03     34.5356E-03
             400     10.0728E-03     94.9748E-03    -34.0766E+06     46.1535E+06     58.7839E+06     3.59108E+06    -223.454E-03     447.585E-03    -224.131E-03     37.3398E-03    -223.867E-03     447.870E-03    -223.854E-03     35.3044E-03
             401     10.7927E-03     95.0288E-03    -27.1986E+06     68.0827E+06     68.5747E+06     4.49576E+06    -223.399E-03     447.503E-03    -224.104E-03     38.0301E-03    -223.847E-03     447.897E-03    -223.820E-03     35.4227E-03
             402     11.5126E-03     95.0823E-03    -21.6453E+06     72.3159E+06     77.9089E+06     3.87966E+06    -223.385E-03     447.491E-03    -224.106E-03     37.7547E-03    -223.849E-03     447.909E-03    -223.790E-03     34.5352E-03
             403     12.2322E-03     95.1334E-03    -16.9338E+06     83.0353E+06     89.0387E+06     1.93634E+06    -223.235E-03     447.347E-03    -224.112E-03     36.2159E-03    -223.725E-03     447.813E-03    -223.763E-03     32.4273E-03
             404     12.9523E-03     95.1804E-03    -11.5092E+06     95.6206E+06     100.588E+06     830.765E+03    -223.040E-03     447.155E-03    -224.115E-03     34.3159E-03    -223.564E-03     447.686E-03    -223.734E-03     29.8069E-03
             405     13.6725E-03     95.2234E-03    -5.47216E+06     100.447E+06     105.973E+06     660.778E+03    -222.999E-03     447.098E-03    -224.099E-03     26.8579E-03    -223.472E-03     447.601E-03    -223.707E-03     22.5510E-03
             406     719.213E-06     96.0043E-03    -128.272E+06    -258.550E+06    -125.911E+06     92.4532E+03    -224.170E-03     448.314E-03    -224.144E-03     3.94527E-03    -224.254E-03     447.390E-03    -224.212E-03     4.11226E-03
             407     1.43844E-03     96.0130E-03    -124.920E+06    -248.235E+06    -116.123E+06     182.898E+03    -224.118E-03     448.300E-03    -224.182E-03     7.21766E-03    -224.215E-03     447.408E-03    -224.221E-03     7.51082E-03
             408     2.15771E-03     96.0271E-03    -119.777E+06    -233.260E+06    -101.728E+06     278.647E+03    -224.076E-03     448.283E-03    -224.206E-03     10.6013E-03    -224.190E-03     447.437E-03    -224.203E-03     11.0026E-03
             409     2.87701E-03     96.0464E-03    -113.274E+06    -214.917E+06    -84.5445E+06     372.706E+03    -224.029E-03     448.261E-03    -224.232E-03     13.9050E-03    -224.161E-03     447.473E-03    -224.179E-03     14.3792E-03
             410     3.59636E-03     96.0707E-03    -105.851E+06    -195.301E+06    -66.3841E+06     466.435E+03    -223.983E-03     448.239E-03    -224.256E-03     17.0868E-03    -224.134E-03     447.514E-03    -224.151E-03     17.5876E-03
             411     4.31577E-03     96.0997E-03    -97.9318E+06    -174.672E+06    -48.6496E+06     533.297E+03    -223.941E-03     448.214E-03    -224.273E-03     20.1172E-03    -224.110E-03     447.557E-03    -224.121E-03     20.5901E-03
             412     5.03522E-03     96.1331E-03    -89.8810E+06    -153.097E+06    -32.1138E+06     566.185E+03    -223.903E-03     448.184E-03    -224.281E-03     22.9838E-03    -224.090E-03     447.601E-03    -224.090E-03     23.3683E-03
             413     5.75473E-03     96.1706E-03    -81.9442E+06    -131.473E+06    -17.0090E+06     556.566E+03    -223.870E-03     448.152E-03    -224.282E-03     25.6743E-03    -224.075E-03     447.648E-03    -224.057E-03     25.9048E-03
             414     6.47428E-03     96.2117E-03    -74.2697E+06    -109.083E+06    -3.28451E+06     508.116E+03    -223.838E-03     448.112E-03    -224.274E-03     28.1868E-03    -224.063E-03     447.696E-03    -224.025E-03     28.1952E-03
             415     7.19388E-03     96.2562E-03    -66.9293E+06    -85.6370E+06     9.25830E+06     423.306E+03    -223.801E-03     448.061E-03    -224.260E-03     30.4938E-03    -224.050E-03     447.742E-03    -223.993E-03     30.2121E-03
             416     7.91351E-03     96.3034E-03    -59.9045E+06    -60.2595E+06     20.9679E+06     213.404E+03    -223.752E-03     447.992E-03    -224.240E-03     32.5474E-03    -224.030E-03     447.783E-03    -223.961E-03     31.9101E-03
             417     8.63321E-03     96.3531E-03    -53.1410E+06    -31.0570E+06     32.2946E+06     23.5837E+03    -223.682E-03     447.894E-03    -224.212E-03     34.4198E-03    -224.000E-03     447.819E-03    -223.929E-03     33.3587E-03
             418     9.35294E-03     96.4048E-03    -46.2092E+06     3.39628E+06     43.6903E+06     415.905E+03    -223.576E-03     447.752E-03    -224.176E-03     36.0811E-03    -223.944E-03     447.841E-03    -223.895E-03     34.5383E-03
             419     10.0728E-03     96.4580E-03    -39.0009E+06     41.9259E+06     54.7921E+06     1.94542E+06    -223.440E-03     447.570E-03    -224.130E-03     37.3409E-03    -223.865E-03     447.847E-03    -223.860E-03     35.2795E-03
             420     10.7927E-03     96.5120E-03    -32.1527E+06     65.0236E+06     63.5897E+06     4.00409E+06    -223.339E-03     447.434E-03    -224.094E-03     37.9919E-03    -223.800E-03     447.827E-03    -223.824E-03     35.3770E-03
             421     11.5125E-03     96.5657E-03    -25.4163E+06     74.6616E+06     73.9707E+06     4.42815E+06    -223.255E-03     447.343E-03    -224.088E-03     37.7276E-03    -223.736E-03     447.784E-03    -223.789E-03     34.5184E-03
             422     12.2326E-03     96.6168E-03    -18.5678E+06     87.3519E+06     89.7835E+06     2.92074E+06    -223.182E-03     447.288E-03    -224.106E-03     36.1981E-03    -223.687E-03     447.777E-03    -223.757E-03     32.4229E-03
             423     12.9525E-03     96.6634E-03    -12.2289E+06     96.4616E+06     103.109E+06     1.39312E+06    -223.153E-03     447.277E-03    -224.124E-03     34.2200E-03    -223.685E-03     447.810E-03    -223.731E-03     29.7155E-03
             424     13.6722E-03     96.7069E-03    -6.14310E+06     101.501E+06     107.174E+06     451.639E+03    -223.071E-03     447.178E-03    -224.107E-03     26.7569E-03    -223.550E-03     447.685E-03    -223.710E-03     22.4450E-03
             425     719.214E-06     97.4876E-03    -128.538E+06    -258.955E+06    -126.171E+06     147.344E+03    -224.169E-03     448.312E-03    -224.143E-03     3.94440E-03    -224.253E-03     447.387E-03    -224.212E-03     4.11142E-03
             426     1.43845E-03     97.4963E-03    -125.199E+06    -248.657E+06    -116.406E+06     261.943E+03    -224.118E-03     448.299E-03    -224.181E-03     7.21793E-03    -224.215E-03     447.406E-03    -224.221E-03     7.51101E-03
             427     2.15771E-03     97.5104E-03    -120.047E+06    -233.739E+06    -102.032E+06     416.074E+03    -224.076E-03     448.281E-03    -224.205E-03     10.6006E-03    -224.189E-03     447.435E-03    -224.202E-03     11.0027E-03
             428     2.87701E-03     97.5297E-03    -113.544E+06    -215.404E+06    -84.8579E+06     593.333E+03    -224.028E-03     448.259E-03    -224.231E-03     13.9046E-03    -224.161E-03     447.470E-03    -224.179E-03     14.3809E-03
             429     3.59637E-03     97.5540E-03    -106.156E+06    -195.762E+06    -66.7106E+06     757.478E+03    -223.983E-03     448.238E-03    -224.255E-03     17.0891E-03    -224.134E-03     447.511E-03    -224.151E-03     17.5931E-03
             430     4.31577E-03     97.5830E-03    -98.3115E+06    -175.092E+06    -49.0072E+06     921.154E+03    -223.942E-03     448.214E-03    -224.272E-03     20.1225E-03    -224.111E-03     447.555E-03    -224.121E-03     20.6002E-03
             431     5.03523E-03     97.6164E-03    -90.3428E+06    -153.447E+06    -32.4792E+06     1.07696E+06    -223.905E-03     448.185E-03    -224.281E-03     22.9920E-03    -224.093E-03     447.602E-03    -224.090E-03     23.3831E-03
             432     5.75472E-03     97.6539E-03    -82.4960E+06    -131.782E+06    -17.3705E+06     1.24034E+06    -223.873E-03     448.155E-03    -224.282E-03     25.6849E-03    -224.080E-03     447.651E-03    -224.058E-03     25.9243E-03
             433     6.47428E-03     97.6950E-03    -74.9632E+06    -109.410E+06    -3.67703E+06     1.45526E+06    -223.841E-03     448.116E-03    -224.275E-03     28.1987E-03    -224.069E-03     447.700E-03    -224.026E-03     28.2198E-03
             434     7.19386E-03     97.7395E-03    -67.8854E+06    -85.8773E+06     8.78932E+06     1.70010E+06    -223.803E-03     448.064E-03    -224.261E-03     30.5079E-03    -224.056E-03     447.745E-03    -223.994E-03     30.2442E-03
             435     7.91350E-03     97.7867E-03    -61.3682E+06    -60.0628E+06     20.3938E+06     1.85291E+06    -223.753E-03     447.993E-03    -224.241E-03     32.5666E-03    -224.038E-03     447.788E-03    -223.963E-03     31.9527E-03
             436     8.63318E-03     97.8363E-03    -55.3318E+06    -30.7676E+06     31.4894E+06     1.78427E+06    -223.684E-03     447.897E-03    -224.213E-03     34.4435E-03    -224.012E-03     447.828E-03    -223.931E-03     33.4069E-03
             437     9.35291E-03     97.8881E-03    -49.4467E+06     3.69352E+06     42.6014E+06     1.09413E+06    -223.583E-03     447.762E-03    -224.178E-03     36.1097E-03    -223.966E-03     447.859E-03    -223.899E-03     34.5739E-03
             438     10.0727E-03     97.9412E-03    -42.7858E+06     39.2836E+06     52.5612E+06     577.488E+03    -223.455E-03     447.588E-03    -224.133E-03     37.3839E-03    -223.892E-03     447.860E-03    -223.865E-03     35.2992E-03
             439     10.7926E-03     97.9953E-03    -34.6257E+06     61.6530E+06     60.9567E+06     1.06136E+06    -223.341E-03     447.437E-03    -224.095E-03     38.0185E-03    -223.807E-03     447.821E-03    -223.830E-03     35.3536E-03
             440     11.5126E-03     98.0485E-03    -26.2164E+06     74.6485E+06     73.2002E+06     1.73809E+06    -223.251E-03     447.342E-03    -224.091E-03     37.6265E-03    -223.735E-03     447.785E-03    -223.795E-03     34.3724E-03
             441     12.2325E-03     98.0998E-03    -18.7711E+06     88.6597E+06     90.1250E+06     2.15603E+06    -223.185E-03     447.297E-03    -224.112E-03     35.9789E-03    -223.693E-03     447.792E-03    -223.763E-03     32.1978E-03
             442     12.9523E-03     98.1473E-03    -11.8118E+06     99.1807E+06     103.637E+06     1.45325E+06    -223.097E-03     447.224E-03    -224.127E-03     34.1505E-03    -223.632E-03     447.768E-03    -223.735E-03     29.6509E-03
             443     13.6721E-03     98.1903E-03    -5.48634E+06     103.218E+06     107.527E+06     221.713E+03    -222.964E-03     447.070E-03    -224.105E-03     26.9334E-03    -223.444E-03     447.584E-03    -223.709E-03     22.6194E-03
             444     719.211E-06     98.9709E-03    -128.607E+06    -259.551E+06    -126.272E+06     192.988E+03    -224.170E-03     448.317E-03    -224.146E-03     3.94308E-03    -224.254E-03     447.389E-03    -224.215E-03     4.11042E-03
             445     1.43844E-03     98.9796E-03    -125.281E+06    -249.239E+06    -116.516E+06     357.215E+03    -224.118E-03     448.301E-03    -224.183E-03     7.21626E-03    -224.214E-03     447.405E-03    -224.222E-03     7.51015E-03
             446     2.15771E-03     98.9937E-03    -120.136E+06    -234.357E+06    -102.142E+06     512.697E+03    -224.074E-03     448.280E-03    -224.206E-03     10.5982E-03    -224.187E-03     447.431E-03    -224.203E-03     11.0010E-03
             447     2.87701E-03     99.0130E-03    -113.594E+06    -216.191E+06    -84.9734E+06     740.152E+03    -224.025E-03     448.256E-03    -224.232E-03     13.9014E-03    -224.157E-03     447.464E-03    -224.178E-03     14.3789E-03
             448     3.59637E-03     99.0373E-03    -106.138E+06    -196.509E+06    -66.7789E+06     1.01809E+06    -223.980E-03     448.234E-03    -224.255E-03     17.0851E-03    -224.130E-03     447.504E-03    -224.150E-03     17.5918E-03
             449     4.31578E-03     99.0663E-03    -98.1662E+06    -175.771E+06    -48.9666E+06     1.23231E+06    -223.941E-03     448.213E-03    -224.272E-03     20.1183E-03    -224.109E-03     447.550E-03    -224.119E-03     20.5992E-03
             450     5.03524E-03     99.0997E-03    -90.0026E+06    -154.217E+06    -32.3384E+06     1.47055E+06    -223.908E-03     448.188E-03    -224.281E-03     22.9876E-03    -224.093E-03     447.601E-03    -224.088E-03     23.3828E-03
             451     5.75474E-03     99.1372E-03    -81.9304E+06    -132.733E+06    -17.1256E+06     1.83084E+06    -223.879E-03     448.161E-03    -224.282E-03     25.6789E-03    -224.082E-03     447.652E-03    -224.057E-03     25.9251E-03
             452     6.47429E-03     99.1783E-03    -74.0906E+06    -110.480E+06    -3.26058E+06     2.27403E+06    -223.849E-03     448.126E-03    -224.276E-03     28.1885E-03    -224.071E-03     447.702E-03    -224.025E-03     28.2194E-03
             453     7.19389E-03     99.2228E-03    -66.5136E+06    -87.1275E+06     9.44959E+06     2.81773E+06    -223.815E-03     448.079E-03    -224.264E-03     30.4905E-03    -224.060E-03     447.751E-03    -223.994E-03     30.2402E-03
             454     7.91352E-03     99.2700E-03    -59.2068E+06    -61.0927E+06     21.4649E+06     3.42390E+06    -223.768E-03     448.013E-03    -224.244E-03     32.5417E-03    -224.043E-03     447.798E-03    -223.963E-03     31.9470E-03
             455     8.63321E-03     99.3197E-03    -52.2804E+06    -31.1801E+06     33.1288E+06     3.86787E+06    -223.704E-03     447.922E-03    -224.218E-03     34.4115E-03    -224.019E-03     447.845E-03    -223.932E-03     33.4005E-03
             456     9.35293E-03     99.3713E-03    -45.9037E+06     5.70934E+06     45.1168E+06     3.53300E+06    -223.606E-03     447.790E-03    -224.184E-03     36.0836E-03    -223.978E-03     447.888E-03    -223.900E-03     34.5782E-03
             457     10.0727E-03     99.4246E-03    -39.8914E+06     43.1207E+06     55.6089E+06     1.09196E+06    -223.489E-03     447.631E-03    -224.141E-03     37.3769E-03    -223.922E-03     447.914E-03    -223.868E-03     35.2921E-03
             458     10.7926E-03     99.4784E-03    -33.3485E+06     63.1939E+06     64.4173E+06    -2.05476E+06    -223.417E-03     447.531E-03    -224.115E-03     38.0179E-03    -223.883E-03     447.917E-03    -223.836E-03     35.3000E-03
             459     11.5123E-03     99.5319E-03    -25.6487E+06     70.9407E+06     75.6545E+06    -1.85161E+06    -223.339E-03     447.457E-03    -224.118E-03     37.6824E-03    -223.818E-03     447.877E-03    -223.805E-03     34.3787E-03
             460     12.2321E-03     99.5833E-03    -17.7976E+06     86.3126E+06     89.2140E+06     347.350E+03    -223.137E-03     447.258E-03    -224.120E-03     36.1610E-03    -223.636E-03     447.741E-03    -223.774E-03     32.3677E-03
             461     12.9522E-03     99.6303E-03    -11.1017E+06     101.120E+06     102.251E+06     1.13764E+06    -222.941E-03     447.061E-03    -224.120E-03     34.2701E-03    -223.473E-03     447.616E-03    -223.739E-03     29.7790E-03
             462     13.6726E-03     99.6734E-03    -5.30906E+06     104.425E+06     108.079E+06     924.661E+03    -222.965E-03     447.071E-03    -224.106E-03     26.7699E-03    -223.445E-03     447.589E-03    -223.709E-03     22.4695E-03
             463     719.209E-06     100.454E-03    -128.488E+06    -260.242E+06    -126.132E+06     186.361E+03    -224.174E-03     448.325E-03    -224.151E-03     3.94274E-03    -224.256E-03     447.393E-03    -224.218E-03     4.10972E-03
             464     1.43844E-03     100.463E-03    -125.097E+06    -249.975E+06    -116.332E+06     383.355E+03    -224.120E-03     448.307E-03    -224.187E-03     7.21345E-03    -224.215E-03     447.407E-03    -224.225E-03     7.50725E-03
             465     2.15770E-03     100.477E-03    -119.885E+06    -234.956E+06    -101.901E+06     539.974E+03    -224.074E-03     448.284E-03    -224.209E-03     10.5930E-03    -224.186E-03     447.431E-03    -224.204E-03     10.9954E-03
             466     2.87701E-03     100.496E-03    -113.284E+06    -217.145E+06    -84.6488E+06     751.509E+03    -224.027E-03     448.261E-03    -224.235E-03     13.8913E-03    -224.156E-03     447.463E-03    -224.179E-03     14.3679E-03
             467     3.59638E-03     100.521E-03    -105.713E+06    -197.404E+06    -66.4689E+06     1.01588E+06    -223.982E-03     448.239E-03    -224.258E-03     17.0696E-03    -224.129E-03     447.504E-03    -224.150E-03     17.5749E-03
             468     4.31578E-03     100.550E-03    -97.5997E+06    -176.457E+06    -48.6638E+06     1.18870E+06    -223.944E-03     448.218E-03    -224.274E-03     20.0996E-03    -224.109E-03     447.551E-03    -224.120E-03     20.5782E-03
             469     5.03524E-03     100.583E-03    -89.3004E+06    -155.284E+06    -31.9768E+06     1.43357E+06    -223.915E-03     448.198E-03    -224.284E-03     22.9643E-03    -224.096E-03     447.604E-03    -224.089E-03     23.3565E-03
             470     5.75474E-03     100.620E-03    -80.9903E+06    -133.895E+06    -16.7028E+06     1.75626E+06    -223.890E-03     448.175E-03    -224.286E-03     25.6495E-03    -224.087E-03     447.658E-03    -224.058E-03     25.8919E-03
             471     6.47429E-03     100.662E-03    -72.7414E+06    -111.819E+06    -2.75254E+06     2.08899E+06    -223.863E-03     448.144E-03    -224.281E-03     28.1540E-03    -224.077E-03     447.711E-03    -224.027E-03     28.1793E-03
             472     7.19387E-03     100.706E-03    -64.5671E+06    -88.5886E+06     10.1214E+06     2.41621E+06    -223.831E-03     448.100E-03    -224.269E-03     30.4581E-03    -224.065E-03     447.761E-03    -223.996E-03     30.1991E-03
             473     7.91349E-03     100.753E-03     -56.415E+06    -62.7264E+06     22.3696E+06     2.76655E+06    -223.784E-03     448.034E-03    -224.250E-03     32.5211E-03    -224.043E-03     447.805E-03    -223.965E-03     31.9147E-03
             474     8.63316E-03     100.803E-03    -48.2349E+06    -32.7251E+06     34.6218E+06     3.27543E+06    -223.715E-03     447.939E-03    -224.224E-03     34.4096E-03    -224.010E-03     447.846E-03    -223.933E-03     33.3900E-03
             475     9.35288E-03     100.855E-03    -40.3225E+06     5.26234E+06     47.7647E+06     4.00831E+06    -223.610E-03     447.800E-03    -224.190E-03     36.0974E-03    -223.957E-03     447.884E-03    -223.901E-03     34.6013E-03
             476     10.0727E-03     100.908E-03    -33.7995E+06     48.2659E+06     60.5711E+06     3.81347E+06    -223.487E-03     447.636E-03    -224.149E-03     37.4264E-03    -223.904E-03     447.929E-03    -223.867E-03     35.3871E-03
             477     10.7924E-03     100.962E-03    -29.6402E+06     69.5403E+06     69.4754E+06     1.45664E+06    -223.426E-03     447.549E-03    -224.124E-03     38.1883E-03    -223.890E-03     447.954E-03    -223.834E-03     35.5342E-03
             478     11.5122E-03     101.015E-03    -26.3009E+06     70.4411E+06     76.9051E+06    -1.24042E+06    -223.351E-03     447.475E-03    -224.125E-03     37.9363E-03    -223.834E-03     447.892E-03    -223.804E-03     34.6487E-03
             479     12.2324E-03     101.066E-03    -20.9024E+06     83.6263E+06     89.1603E+06    -1.66100E+06    -223.195E-03     447.325E-03    -224.130E-03     36.2460E-03    -223.706E-03     447.800E-03    -223.775E-03     32.4151E-03
             480     12.9524E-03     101.113E-03    -13.4241E+06     98.8129E+06     102.477E+06    -98.6294E+03    -223.113E-03     447.249E-03    -224.136E-03     34.0895E-03    -223.653E-03     447.794E-03    -223.747E-03     29.5754E-03
             481     13.6720E-03     101.157E-03    -6.17164E+06     104.701E+06     108.118E+06     835.327E+03    -223.067E-03     447.190E-03    -224.122E-03     26.5592E-03    -223.552E-03     447.710E-03    -223.724E-03     22.2629E-03
             482     719.207E-06     101.938E-03    -128.345E+06    -260.902E+06    -125.968E+06     176.710E+03    -224.180E-03     448.337E-03    -224.157E-03     3.93937E-03    -224.260E-03     447.401E-03    -224.222E-03     4.10587E-03
             483     1.43843E-03     101.946E-03    -124.954E+06    -250.706E+06    -116.184E+06     339.091E+03    -224.125E-03     448.318E-03    -224.192E-03     7.20500E-03    -224.218E-03     447.414E-03    -224.229E-03     7.49766E-03
             484     2.15770E-03     101.960E-03    -119.768E+06    -235.632E+06    -101.813E+06     534.614E+03    -224.079E-03     448.294E-03    -224.214E-03     10.5808E-03    -224.189E-03     447.437E-03    -224.208E-03     10.9823E-03
             485     2.87701E-03     101.980E-03    -113.188E+06    -217.900E+06    -84.5873E+06     693.394E+03    -224.032E-03     448.272E-03    -224.240E-03     13.8776E-03    -224.160E-03     447.470E-03    -224.183E-03     14.3520E-03
             486     3.59635E-03     102.004E-03    -105.619E+06    -198.086E+06    -66.4841E+06     790.351E+03    -223.989E-03     448.251E-03    -224.262E-03     17.0560E-03    -224.135E-03     447.512E-03    -224.155E-03     17.5566E-03
             487     4.31576E-03     102.033E-03    -97.5107E+06    -177.100E+06    -48.7917E+06     924.195E+03    -223.951E-03     448.229E-03    -224.279E-03     20.0852E-03    -224.114E-03     447.559E-03    -224.124E-03     20.5586E-03
             488     5.03521E-03     102.066E-03    -89.1731E+06    -156.080E+06    -32.1265E+06     1.04573E+06    -223.921E-03     448.209E-03    -224.288E-03     22.9518E-03    -224.100E-03     447.611E-03    -224.093E-03     23.3373E-03
             489     5.75470E-03     102.104E-03    -80.7857E+06    -134.662E+06    -16.8417E+06     1.12806E+06    -223.893E-03     448.183E-03    -224.290E-03     25.6468E-03    -224.088E-03     447.662E-03    -224.062E-03     25.8799E-03
             490     6.47423E-03     102.145E-03    -72.5048E+06    -112.667E+06    -2.86237E+06     1.20554E+06    -223.863E-03     448.148E-03    -224.285E-03     28.1702E-03    -224.074E-03     447.710E-03    -224.030E-03     28.1840E-03
             491     7.19382E-03     102.189E-03    -64.4480E+06    -89.3409E+06     10.0919E+06     1.25648E+06    -223.824E-03     448.096E-03    -224.272E-03     30.5007E-03    -224.056E-03     447.753E-03    -223.999E-03     30.2282E-03
             492     7.91345E-03     102.237E-03    -56.7060E+06    -63.7220E+06     22.3648E+06     1.33743E+06    -223.770E-03     448.023E-03    -224.253E-03     32.5890E-03    -224.029E-03     447.790E-03    -223.966E-03     31.9667E-03
             493     8.63315E-03     102.286E-03    -49.2423E+06    -33.9903E+06     34.4213E+06     1.46685E+06    -223.693E-03     447.919E-03    -224.226E-03     34.4894E-03    -223.990E-03     447.820E-03    -223.933E-03     33.4496E-03
             494     9.35293E-03     102.338E-03    -41.8015E+06     2.21782E+06     47.0049E+06     2.31638E+06    -223.581E-03     447.772E-03    -224.191E-03     36.1675E-03    -223.930E-03     447.844E-03    -223.898E-03     34.6535E-03
             495     10.0727E-03     102.391E-03    -34.3376E+06     46.2693E+06     59.9624E+06     4.39603E+06    -223.430E-03     447.574E-03    -224.144E-03     37.4577E-03    -223.846E-03     447.859E-03    -223.862E-03     35.4340E-03
             496     10.7928E-03     102.445E-03    -27.4010E+06     73.5101E+06     70.3272E+06     5.45312E+06    -223.357E-03     447.466E-03    -224.110E-03     38.1369E-03    -223.816E-03     447.886E-03    -223.825E-03     35.5427E-03
             497     11.5127E-03     102.499E-03    -21.4737E+06     77.2843E+06     82.0393E+06     3.02364E+06    -223.414E-03     447.539E-03    -224.124E-03     37.8213E-03    -223.891E-03     447.975E-03    -223.795E-03     34.5914E-03
             498     12.2322E-03     102.550E-03    -16.4817E+06     83.8943E+06     95.2051E+06     229.301E+03    -223.450E-03     447.603E-03    -224.153E-03     36.1808E-03    -223.947E-03     448.063E-03    -223.775E-03     32.3769E-03
             499     12.9517E-03     102.597E-03    -11.6562E+06     95.8538E+06     103.963E+06    -39.9461E+03    -223.292E-03     447.448E-03    -224.156E-03     34.2048E-03    -223.821E-03     447.975E-03    -223.759E-03     29.6921E-03
             500     13.6717E-03     102.640E-03    -6.12416E+06     105.485E+06     106.896E+06     52.7509E+03    -222.980E-03     447.108E-03    -224.128E-03     26.8552E-03    -223.464E-03     447.635E-03    -223.737E-03     22.5469E-03
             501     719.201E-06     103.421E-03    -128.663E+06    -261.547E+06    -126.302E+06     187.191E+03    -224.186E-03     448.348E-03    -224.163E-03     3.93623E-03    -224.267E-03     447.410E-03    -224.228E-03     4.10279E-03
             502     1.43842E-03     103.430E-03    -125.312E+06    -251.354E+06    -116.567E+06     336.203E+03    -224.131E-03     448.330E-03    -224.198E-03     7.19806E-03    -224.225E-03     447.424E-03    -224.235E-03     7.49076E-03
             503     2.15768E-03     103.444E-03    -120.133E+06    -236.349E+06    -102.271E+06     496.125E+03    -224.084E-03     448.304E-03    -224.220E-03     10.5754E-03    -224.194E-03     447.445E-03    -224.214E-03     10.9763E-03
             504     2.87698E-03     103.463E-03    -113.538E+06    -218.305E+06    -85.1002E+06     570.774E+03    -224.035E-03     448.279E-03    -224.244E-03     13.8796E-03    -224.163E-03     447.476E-03    -224.189E-03     14.3524E-03
             505     3.59633E-03     103.487E-03    -105.992E+06    -198.437E+06    -66.8828E+06     569.025E+03    -223.990E-03     448.257E-03    -224.267E-03     17.0672E-03    -224.137E-03     447.517E-03    -224.160E-03     17.5650E-03
             506     4.31573E-03     103.516E-03    -97.8879E+06    -177.578E+06    -49.0623E+06     598.613E+03    -223.950E-03     448.232E-03    -224.283E-03     20.1086E-03    -224.114E-03     447.561E-03    -224.129E-03     20.5783E-03
             507     5.03518E-03     103.550E-03    -89.5731E+06    -156.351E+06    -32.3598E+06     603.778E+03    -223.912E-03     448.204E-03    -224.291E-03     22.9913E-03    -224.093E-03     447.605E-03    -224.096E-03     23.3728E-03
             508     5.75468E-03     103.587E-03    -81.3424E+06    -135.048E+06    -17.0014E+06     624.367E+03    -223.878E-03     448.170E-03    -224.292E-03     25.7012E-03    -224.075E-03     447.648E-03    -224.063E-03     25.9303E-03
             509     6.47424E-03     103.628E-03    -73.3736E+06    -113.023E+06    -2.96279E+06     698.217E+03    -223.844E-03     448.129E-03    -224.285E-03     28.2305E-03    -224.059E-03     447.691E-03    -224.030E-03     28.2406E-03
             510     7.19385E-03     103.673E-03    -65.7787E+06    -89.8688E+06     9.89270E+06     876.789E+03    -223.805E-03     448.077E-03    -224.272E-03     30.5520E-03    -224.043E-03     447.733E-03    -223.997E-03     30.2765E-03
             511     7.91352E-03     103.720E-03    -58.6015E+06    -64.3949E+06     21.9538E+06     1.18024E+06    -223.756E-03     448.007E-03    -224.252E-03     32.6147E-03    -224.023E-03     447.774E-03    -223.964E-03     31.9903E-03
             512     8.63322E-03     103.770E-03    -51.9066E+06    -34.8442E+06     33.4811E+06     1.59059E+06    -223.688E-03     447.912E-03    -224.224E-03     34.4737E-03    -223.996E-03     447.815E-03    -223.931E-03     33.4323E-03
             513     9.35296E-03     103.821E-03    -45.4518E+06     311.115E+03     44.9673E+06     1.82796E+06    -223.594E-03     447.781E-03    -224.188E-03     36.1016E-03    -223.955E-03     447.852E-03    -223.897E-03     34.5732E-03
             514     10.0728E-03     103.874E-03    -37.9870E+06     43.1761E+06     56.9062E+06     1.72939E+06    -223.461E-03     447.602E-03    -224.140E-03     37.3133E-03    -223.887E-03     447.880E-03    -223.863E-03     35.2379E-03
             515     10.7926E-03     103.928E-03    -29.1021E+06     71.4882E+06      68.175E+06     2.47679E+06    -223.386E-03     447.495E-03    -224.109E-03     37.8994E-03    -223.848E-03     447.910E-03    -223.829E-03     35.2509E-03
             516     11.5124E-03     103.982E-03    -21.1595E+06     79.7037E+06     81.0175E+06     4.09267E+06    -223.367E-03     447.486E-03    -224.119E-03     37.6399E-03    -223.843E-03     447.935E-03    -223.799E-03     34.4367E-03
             517     12.2323E-03     104.034E-03    -15.5646E+06     86.7819E+06     92.5226E+06     4.15534E+06    -223.301E-03     447.433E-03    -224.132E-03     36.3215E-03    -223.793E-03     447.909E-03    -223.773E-03     32.6034E-03
             518     12.9521E-03     104.081E-03    -10.5811E+06     97.8990E+06     102.523E+06     2.19949E+06    -223.153E-03     447.287E-03    -224.134E-03     34.6360E-03    -223.678E-03     447.825E-03    -223.748E-03     30.1703E-03
             519     13.6720E-03     104.123E-03    -5.16817E+06     107.009E+06     108.085E+06     468.877E+03    -223.001E-03     447.117E-03    -224.116E-03     27.2177E-03    -223.486E-03     447.650E-03    -223.723E-03     22.9118E-03
             520     719.198E-06     104.904E-03    -129.187E+06    -262.181E+06    -126.823E+06     180.793E+03    -224.187E-03     448.352E-03    -224.164E-03     3.94211E-03    -224.269E-03     447.412E-03    -224.231E-03     4.10909E-03
             521     1.43841E-03     104.913E-03    -125.776E+06    -251.907E+06    -117.038E+06     286.570E+03    -224.132E-03     448.331E-03    -224.199E-03     7.20889E-03    -224.226E-03     447.424E-03    -224.237E-03     7.50200E-03
             522     2.15767E-03     104.927E-03    -120.536E+06    -236.846E+06    -102.626E+06     364.253E+03    -224.083E-03     448.303E-03    -224.221E-03     10.5957E-03    -224.193E-03     447.443E-03    -224.216E-03     10.9963E-03
             523     2.87697E-03     104.946E-03    -113.912E+06    -218.607E+06    -85.3106E+06     428.300E+03    -224.030E-03     448.274E-03    -224.245E-03     13.9112E-03    -224.159E-03     447.471E-03    -224.189E-03     14.3838E-03
             524     3.59633E-03     104.971E-03    -106.371E+06    -198.634E+06    -66.9675E+06     468.215E+03    -223.980E-03     448.246E-03    -224.266E-03     17.1085E-03    -224.128E-03     447.506E-03    -224.158E-03     17.6071E-03
             525     4.31574E-03     105.000E-03    -98.3466E+06    -177.783E+06    -49.0023E+06     471.832E+03    -223.937E-03     448.218E-03    -224.281E-03     20.1557E-03    -224.103E-03     447.546E-03    -224.126E-03     20.6258E-03
             526     5.03521E-03     105.033E-03    -90.1902E+06    -156.578E+06    -32.2676E+06     537.138E+03    -223.900E-03     448.189E-03    -224.289E-03     23.0329E-03    -224.083E-03     447.589E-03    -224.092E-03     23.4148E-03
             527     5.75473E-03     105.070E-03    -82.1395E+06    -135.405E+06    -17.0304E+06     676.812E+03    -223.870E-03     448.159E-03    -224.289E-03     25.7230E-03    -224.070E-03     447.636E-03    -224.059E-03     25.9526E-03
             528     6.47429E-03     105.111E-03    -74.3128E+06    -113.456E+06    -3.23630E+06     863.957E+03    -223.843E-03     448.125E-03    -224.282E-03     28.2219E-03    -224.062E-03     447.687E-03    -224.026E-03     28.2317E-03
             529     7.19390E-03     105.156E-03    -66.7183E+06    -90.6182E+06     9.27195E+06     1.12514E+06    -223.817E-03     448.085E-03    -224.268E-03     30.5110E-03    -224.057E-03     447.740E-03    -223.994E-03     30.2339E-03
             530     7.91353E-03     105.203E-03    -59.3049E+06    -65.3084E+06     20.9672E+06     1.46314E+06    -223.779E-03     448.028E-03    -224.248E-03     32.5494E-03    -224.048E-03     447.793E-03    -223.963E-03     31.9222E-03
             531     8.63319E-03     105.253E-03    -51.9356E+06    -36.1745E+06     32.4088E+06     1.93576E+06    -223.726E-03     447.948E-03    -224.222E-03     34.3971E-03    -224.030E-03     447.846E-03    -223.933E-03     33.3538E-03
             532     9.35290E-03     105.305E-03    -44.6800E+06     209.037E+03     44.4859E+06     2.13824E+06    -223.639E-03     447.828E-03    -224.189E-03     36.0495E-03    -223.996E-03     447.898E-03    -223.902E-03     34.5210E-03
             533     10.0726E-03     105.358E-03    -38.4207E+06     44.3472E+06     56.6621E+06     1.46385E+06    -223.508E-03     447.654E-03    -224.146E-03     37.3652E-03    -223.937E-03     447.939E-03    -223.871E-03     35.2894E-03
             534     10.7924E-03     105.412E-03    -33.3239E+06     68.9129E+06     65.7832E+06     1.10923E+06    -223.381E-03     447.497E-03    -224.116E-03     38.1013E-03    -223.857E-03     447.909E-03    -223.838E-03     35.4457E-03
             535     11.5123E-03     105.465E-03    -27.5043E+06     74.4956E+06     74.7699E+06     2.84434E+06    -223.213E-03     447.322E-03    -224.109E-03     37.8753E-03    -223.704E-03     447.763E-03    -223.803E-03     34.6679E-03
             536     12.2323E-03     105.517E-03    -20.0923E+06     88.7656E+06     88.1684E+06     3.89863E+06    -223.013E-03     447.119E-03    -224.106E-03     36.3587E-03    -223.524E-03     447.618E-03    -223.765E-03     32.6445E-03
             537     12.9527E-03     105.564E-03    -12.4338E+06     102.739E+06     103.088E+06     2.30591E+06    -222.952E-03     447.064E-03    -224.112E-03     34.4506E-03    -223.494E-03     447.628E-03    -223.728E-03     29.9890E-03
             538     13.6726E-03     105.607E-03    -5.69356E+06     108.288E+06     110.385E+06     983.153E+03    -223.012E-03     447.115E-03    -224.103E-03     27.0946E-03    -223.504E-03     447.651E-03    -223.700E-03     22.7998E-03
             539     719.203E-06     106.388E-03    -129.305E+06    -262.750E+06    -126.948E+06     159.815E+03    -224.177E-03     448.332E-03    -224.155E-03     3.95638E-03    -224.259E-03     447.390E-03    -224.221E-03     4.12357E-03
             540     1.43843E-03     106.396E-03    -125.934E+06    -252.345E+06    -117.109E+06     248.683E+03    -224.121E-03     448.311E-03    -224.190E-03     7.23096E-03    -224.215E-03     447.402E-03    -224.227E-03     7.52452E-03
             541     2.15769E-03     106.410E-03    -120.760E+06    -237.265E+06    -102.596E+06     364.824E+03    -224.073E-03     448.284E-03    -224.212E-03     10.6234E-03    -224.184E-03     447.422E-03    -224.205E-03     11.0252E-03
             542     2.87701E-03     106.430E-03    -114.220E+06    -219.005E+06    -85.2738E+06     494.197E+03    -224.020E-03     448.256E-03    -224.236E-03     13.9399E-03    -224.151E-03     447.451E-03    -224.179E-03     14.4144E-03
             543     3.59638E-03     106.454E-03    -106.768E+06    -198.933E+06    -67.0193E+06     606.148E+03    -223.972E-03     448.229E-03    -224.257E-03     17.1299E-03    -224.121E-03     447.488E-03    -224.149E-03     17.6305E-03
             544     4.31580E-03     106.483E-03    -98.8352E+06    -178.060E+06    -49.1803E+06     719.400E+03    -223.933E-03     448.206E-03    -224.273E-03     20.1608E-03    -224.101E-03     447.533E-03    -224.117E-03     20.6334E-03
             545     5.03526E-03     106.516E-03    -90.7560E+06    -157.050E+06    -32.6069E+06     872.363E+03    -223.905E-03     448.186E-03    -224.281E-03     23.0202E-03    -224.089E-03     447.586E-03    -224.085E-03     23.4045E-03
             546     5.75476E-03     106.554E-03    -82.7325E+06    -135.860E+06    -17.6235E+06     1.02665E+06    -223.882E-03     448.165E-03    -224.283E-03     25.7010E-03    -224.084E-03     447.642E-03    -224.054E-03     25.9325E-03
             547     6.47429E-03     106.595E-03    -74.8754E+06    -114.014E+06    -4.08431E+06     1.16371E+06    -223.860E-03     448.136E-03    -224.277E-03     28.2061E-03    -224.079E-03     447.697E-03    -224.023E-03     28.2179E-03
             548     7.19386E-03     106.639E-03    -67.2354E+06    -91.1615E+06     8.33211E+06     1.25073E+06    -223.832E-03     448.096E-03    -224.264E-03     30.5223E-03    -224.073E-03     447.751E-03    -223.993E-03     30.2471E-03
             549     7.91347E-03     106.686E-03    -59.8197E+06    -66.1115E+06     19.9942E+06     1.35282E+06    -223.790E-03     448.036E-03    -224.246E-03     32.6073E-03    -224.058E-03     447.799E-03    -223.963E-03     31.9823E-03
             550     8.63311E-03     106.736E-03    -52.6070E+06    -37.0110E+06     31.4986E+06     1.41347E+06    -223.720E-03     447.940E-03    -224.220E-03     34.5231E-03    -224.025E-03     447.836E-03    -223.933E-03     33.4820E-03
             551     9.35280E-03     106.788E-03    -45.6920E+06    -1.10092E+06     43.5875E+06     1.95872E+06    -223.600E-03     447.787E-03    -224.186E-03     36.2519E-03    -223.959E-03     447.853E-03    -223.901E-03     34.7364E-03
             552     10.0727E-03     106.841E-03    -39.3660E+06     43.0257E+06     55.8553E+06     3.67285E+06    -223.419E-03     447.557E-03    -224.139E-03     37.6197E-03    -223.849E-03     447.838E-03    -223.865E-03     35.5958E-03
             553     10.7926E-03     106.895E-03    -33.8723E+06     69.1394E+06     64.8291E+06     4.47515E+06    -223.300E-03     447.400E-03    -224.099E-03     38.3542E-03    -223.778E-03     447.814E-03    -223.826E-03     35.7601E-03
             554     11.5126E-03     106.948E-03    -28.1511E+06     74.6715E+06     75.1968E+06     2.39217E+06    -223.252E-03     447.351E-03    -224.099E-03     38.0280E-03    -223.748E-03     447.794E-03    -223.790E-03     34.8056E-03
             555     12.2326E-03     107.000E-03    -20.8098E+06     89.3264E+06     91.1502E+06     502.187E+03    -223.116E-03     447.229E-03    -224.113E-03     36.3385E-03    -223.636E-03     447.728E-03    -223.757E-03     32.5617E-03
             556     12.9524E-03     107.047E-03    -13.1484E+06     103.874E+06     105.028E+06     814.687E+03    -222.932E-03     447.049E-03    -224.117E-03     34.2782E-03    -223.482E-03     447.616E-03    -223.723E-03     29.7953E-03
             557     13.6725E-03     107.090E-03    -6.43691E+06     109.709E+06     110.523E+06     776.658E+03    -222.811E-03     446.905E-03    -224.093E-03     26.8833E-03    -223.308E-03     447.448E-03    -223.690E-03     22.5921E-03
             558     719.225E-06     107.871E-03    -129.431E+06    -263.367E+06    -127.048E+06     201.011E+03    -224.158E-03     448.291E-03    -224.133E-03     3.95923E-03    -224.239E-03     447.346E-03    -224.199E-03     4.12686E-03
             559     1.43847E-03     107.880E-03    -126.105E+06    -252.938E+06    -117.212E+06     389.937E+03    -224.105E-03     448.276E-03    -224.170E-03     7.23260E-03    -224.199E-03     447.364E-03    -224.207E-03     7.52777E-03
             560     2.15774E-03     107.894E-03    -120.970E+06    -237.866E+06    -102.764E+06     577.790E+03    -224.063E-03     448.257E-03    -224.194E-03     10.6219E-03    -224.174E-03     447.392E-03    -224.188E-03     11.0260E-03
             561     2.87706E-03     107.913E-03    -114.454E+06    -219.598E+06    -85.5488E+06     755.486E+03    -224.016E-03     448.237E-03    -224.220E-03     13.9331E-03    -224.147E-03     447.429E-03    -224.164E-03     14.4102E-03
             562     3.59642E-03     107.937E-03    -107.028E+06    -199.481E+06    -67.4061E+06      930.21E+03    -223.972E-03     448.216E-03    -224.244E-03     17.1205E-03    -224.122E-03     447.473E-03    -224.136E-03     17.6248E-03
             563     4.31583E-03     107.966E-03    -99.1181E+06    -178.630E+06    -49.7264E+06     1.10078E+06    -223.935E-03     448.196E-03    -224.261E-03     20.1598E-03    -224.102E-03     447.522E-03    -224.107E-03     20.6377E-03
             564     5.03527E-03     107.999E-03    -91.0284E+06    -157.610E+06    -33.2158E+06     1.24322E+06    -223.904E-03     448.175E-03    -224.271E-03     23.0429E-03    -224.088E-03     447.573E-03    -224.077E-03     23.4342E-03
             565     5.75477E-03     108.037E-03    -82.9884E+06    -136.367E+06    -18.1321E+06     1.35505E+06    -223.875E-03     448.148E-03    -224.273E-03     25.7611E-03    -224.076E-03     447.623E-03    -224.046E-03     26.0018E-03
             566     6.47431E-03     108.078E-03    -75.1647E+06    -114.488E+06    -4.40671E+06     1.44947E+06    -223.843E-03     448.110E-03    -224.267E-03     28.3120E-03    -224.062E-03     447.669E-03    -224.014E-03     28.3356E-03
             567     7.19391E-03     108.122E-03    -67.6761E+06    -91.5772E+06     8.17347E+06     1.55950E+06    -223.803E-03     448.057E-03    -224.254E-03     30.6750E-03    -224.045E-03     447.710E-03    -223.982E-03     30.4149E-03
             568     7.91356E-03     108.170E-03    -60.5755E+06    -66.6100E+06     19.9578E+06     1.67866E+06    -223.746E-03     447.980E-03    -224.234E-03     32.7999E-03    -224.017E-03     447.742E-03    -223.950E-03     32.1926E-03
             569     8.63327E-03     108.219E-03    -53.9472E+06    -37.6539E+06     31.2817E+06     1.96329E+06    -223.659E-03     447.865E-03    -224.206E-03     34.7298E-03    -223.970E-03     447.760E-03    -223.916E-03     33.7095E-03
             570     9.35309E-03     108.271E-03    -47.6551E+06    -3.47755E+06     42.5799E+06     2.68029E+06    -223.541E-03     447.708E-03    -224.168E-03     36.4198E-03    -223.904E-03     447.767E-03    -223.881E-03     34.9242E-03
             571     10.0729E-03     108.324E-03    -40.4819E+06     40.2693E+06     54.7295E+06     3.11200E+06    -223.387E-03     447.503E-03    -224.117E-03     37.6742E-03    -223.817E-03     447.774E-03    -223.843E-03     35.6417E-03
             572     10.7930E-03     108.378E-03    -31.4801E+06     69.7378E+06     65.7010E+06     2.81092E+06    -223.312E-03     447.390E-03    -224.078E-03     38.2964E-03    -223.780E-03     447.803E-03    -223.805E-03     35.6744E-03
             573     11.5128E-03     108.432E-03    -22.8051E+06     79.3305E+06     79.8526E+06     1.89089E+06    -223.306E-03     447.395E-03    -224.089E-03     38.0246E-03    -223.789E-03     447.847E-03    -223.771E-03     34.8000E-03
             574     12.2324E-03     108.483E-03    -16.8235E+06     90.0395E+06     94.6071E+06     1.04774E+06    -223.226E-03     447.335E-03    -224.110E-03     36.5295E-03    -223.733E-03     447.828E-03    -223.743E-03     32.7686E-03
             575     12.9525E-03     108.530E-03    -11.6072E+06     102.581E+06     105.410E+06     950.002E+03    -223.026E-03     447.137E-03    -224.110E-03     34.5585E-03    -223.568E-03     447.695E-03    -223.715E-03     30.0765E-03
             576     13.6725E-03     108.573E-03    -5.63206E+06     111.557E+06     110.580E+06     591.734E+03    -222.775E-03     446.858E-03    -224.083E-03     27.0247E-03    -223.272E-03     447.410E-03    -223.684E-03     22.7226E-03
             577     719.238E-06     109.354E-03    -129.589E+06    -264.250E+06    -127.206E+06     283.848E+03    -224.140E-03     448.253E-03    -224.114E-03     3.95374E-03    -224.220E-03     447.304E-03    -224.179E-03     4.12240E-03
             578     1.43849E-03     109.363E-03    -126.229E+06    -253.851E+06    -117.423E+06     539.508E+03    -224.090E-03     448.241E-03    -224.152E-03     7.22703E-03    -224.182E-03     447.325E-03    -224.188E-03     7.52424E-03
             579     2.15777E-03     109.377E-03    -121.063E+06    -238.676E+06    -103.039E+06     761.730E+03    -224.049E-03     448.225E-03    -224.176E-03     10.6225E-03    -224.159E-03     447.357E-03    -224.170E-03     11.0296E-03
             580     2.87709E-03     109.396E-03    -114.523E+06    -220.382E+06    -85.8122E+06     956.667E+03    -224.002E-03     448.206E-03    -224.203E-03     13.9487E-03    -224.132E-03     447.395E-03    -224.147E-03     14.4305E-03
             581     3.59646E-03     109.420E-03    -107.040E+06    -200.250E+06    -67.5989E+06     1.15176E+06    -223.954E-03     448.181E-03    -224.227E-03     17.1619E-03    -224.102E-03     447.434E-03    -224.119E-03     17.6730E-03
             582     4.31588E-03     109.449E-03    -99.0331E+06    -179.347E+06    -49.7403E+06     1.33188E+06    -223.909E-03     448.152E-03    -224.244E-03     20.2347E-03    -224.075E-03     447.474E-03    -224.089E-03     20.7217E-03
             583     5.03536E-03     109.483E-03    -90.8541E+06    -158.214E+06    -33.0144E+06     1.47585E+06    -223.868E-03     448.120E-03    -224.252E-03     23.1509E-03    -224.051E-03     447.515E-03    -224.056E-03     23.5533E-03
             584     5.75490E-03     109.520E-03    -82.7485E+06    -136.981E+06    -17.7147E+06     1.62581E+06    -223.832E-03     448.084E-03    -224.252E-03     25.8921E-03    -224.032E-03     447.555E-03    -224.022E-03     26.1457E-03
             585     6.47450E-03     109.561E-03    -74.8597E+06    -115.048E+06    -3.81607E+06     1.79190E+06    -223.797E-03     448.041E-03    -224.244E-03     28.4521E-03    -224.015E-03     447.596E-03    -223.988E-03     28.4896E-03
             586     7.19414E-03     109.606E-03    -67.2315E+06    -92.2563E+06     8.80565E+06     1.99119E+06    -223.758E-03     447.987E-03    -224.229E-03     30.8074E-03    -223.998E-03     447.635E-03    -223.954E-03     30.5610E-03
             587     7.91385E-03     109.653E-03    -59.8807E+06    -67.2989E+06     20.5891E+06      2.2597E+06    -223.708E-03     447.915E-03    -224.207E-03     32.8995E-03    -223.975E-03     447.671E-03    -223.920E-03     32.3050E-03
             588     8.63361E-03     109.703E-03    -52.6561E+06    -38.8547E+06     31.9757E+06     2.62653E+06    -223.647E-03     447.825E-03    -224.178E-03     34.7685E-03    -223.950E-03     447.711E-03    -223.886E-03     33.7578E-03
             589     9.35338E-03     109.754E-03    -45.2200E+06    -4.78322E+06     43.7120E+06     2.81130E+06    -223.573E-03     447.717E-03    -224.143E-03     36.4024E-03    -223.924E-03     447.763E-03    -223.852E-03     34.9048E-03
             590     10.0732E-03     109.807E-03    -37.8568E+06     42.0903E+06     56.9998E+06     1.70975E+06    -223.448E-03     447.546E-03    -224.098E-03     37.6827E-03    -223.871E-03     447.819E-03    -223.819E-03     35.6282E-03
             591     10.7929E-03     109.861E-03    -31.3690E+06     71.1341E+06     67.3200E+06     9.11734E+03    -223.337E-03     447.401E-03    -224.064E-03     38.3881E-03    -223.809E-03     447.819E-03    -223.785E-03     35.7313E-03
             592     11.5129E-03     109.915E-03    -25.1969E+06     78.0852E+06     78.5870E+06     574.633E+03    -223.229E-03     447.297E-03    -224.068E-03     38.1226E-03    -223.720E-03     447.748E-03    -223.752E-03     34.8935E-03
             593     12.2332E-03     109.966E-03    -18.2597E+06     89.4791E+06     92.3641E+06     2.23515E+06    -223.118E-03     447.196E-03    -224.078E-03     36.5973E-03    -223.628E-03     447.690E-03    -223.719E-03     32.8662E-03
             594     12.9529E-03     110.013E-03    -11.5930E+06     103.578E+06     105.181E+06     2.10333E+06    -223.018E-03     447.100E-03    -224.082E-03     34.6825E-03    -223.561E-03     447.664E-03    -223.689E-03     30.2131E-03
             595     13.6729E-03     110.056E-03    -5.74165E+06     113.340E+06     111.710E+06     1.05305E+06    -222.904E-03     446.969E-03    -224.065E-03     27.2049E-03    -223.406E-03     447.529E-03    -223.663E-03     22.8972E-03
             596     719.248E-06     110.837E-03    -129.430E+06    -265.350E+06    -127.078E+06     319.449E+03    -224.115E-03     448.206E-03    -224.090E-03     3.97236E-03    -224.193E-03     447.251E-03    -224.153E-03     4.14265E-03
             597     1.43852E-03     110.846E-03    -126.052E+06    -254.895E+06    -117.314E+06     558.098E+03    -224.061E-03     448.188E-03    -224.127E-03     7.26478E-03    -224.152E-03     447.266E-03    -224.161E-03     7.56460E-03
             598     2.15782E-03     110.860E-03    -120.850E+06    -239.631E+06    -102.872E+06     796.031E+03    -224.015E-03     448.164E-03    -224.149E-03     10.6823E-03    -224.123E-03     447.290E-03    -224.141E-03     11.0937E-03
             599     2.87717E-03     110.879E-03    -114.241E+06    -221.239E+06    -85.5012E+06     1.00668E+06    -223.962E-03     448.135E-03    -224.174E-03     14.0298E-03    -224.088E-03     447.319E-03    -224.115E-03     14.5175E-03
             600     3.59658E-03     110.903E-03    -106.679E+06    -201.107E+06    -67.1208E+06     1.20012E+06    -223.909E-03     448.104E-03    -224.195E-03     17.2590E-03    -224.054E-03     447.351E-03    -224.084E-03     17.7770E-03
             601     4.31605E-03     110.932E-03    -98.5886E+06    -180.103E+06    -49.1335E+06     1.38067E+06    -223.861E-03     448.070E-03    -224.209E-03     20.3394E-03    -224.024E-03     447.387E-03    -224.051E-03     20.8334E-03
             602     5.03558E-03     110.966E-03    -90.3076E+06    -158.934E+06    -32.3482E+06     1.55397E+06    -223.822E-03     448.038E-03    -224.216E-03     23.2517E-03    -224.002E-03     447.427E-03    -224.016E-03     23.6609E-03
             603     5.75516E-03     111.003E-03    -82.0645E+06    -137.686E+06    -17.0486E+06     1.71737E+06    -223.792E-03     448.007E-03    -224.215E-03     25.9789E-03    -223.988E-03     447.472E-03    -223.981E-03     26.2383E-03
             604     6.47478E-03     111.044E-03    -73.9835E+06    -115.759E+06    -3.16930E+06     1.87493E+06    -223.767E-03     447.973E-03    -224.206E-03     28.5180E-03    -223.980E-03     447.522E-03    -223.947E-03     28.5596E-03
             605     7.19445E-03     111.089E-03    -66.1473E+06    -93.0171E+06     9.50996E+06     2.03778E+06    -223.743E-03     447.935E-03    -224.192E-03     30.8468E-03    -223.977E-03     447.577E-03    -223.914E-03     30.6022E-03
             606     7.91415E-03     111.136E-03    -58.5353E+06    -68.1684E+06     21.3719E+06     2.20529E+06    -223.715E-03     447.888E-03    -224.173E-03     32.9150E-03    -223.975E-03     447.637E-03    -223.883E-03     32.3199E-03
             607     8.63386E-03     111.186E-03    -51.1240E+06    -39.6538E+06     32.9804E+06     2.27055E+06    -223.673E-03     447.822E-03    -224.149E-03     34.7869E-03    -223.969E-03     447.701E-03    -223.852E-03     33.7727E-03
             608     9.35361E-03     111.237E-03    -44.0538E+06    -4.90410E+06     45.0276E+06     2.12426E+06    -223.593E-03     447.712E-03    -224.119E-03     36.4732E-03    -223.940E-03     447.754E-03    -223.823E-03     34.9713E-03
             609     10.0734E-03     111.291E-03    -37.6295E+06     43.5658E+06     58.5860E+06     2.24518E+06    -223.419E-03     447.494E-03    -224.075E-03     37.8092E-03    -223.845E-03     447.771E-03    -223.791E-03     35.7725E-03
             610     10.7934E-03     111.345E-03    -32.2216E+06     72.4721E+06     68.0497E+06     2.55853E+06    -223.300E-03     447.339E-03    -224.039E-03     38.5128E-03    -223.779E-03     447.764E-03    -223.757E-03     35.8992E-03
             611     11.5133E-03     111.398E-03    -27.1458E+06     77.4996E+06     76.8804E+06     1.66295E+06    -223.246E-03     447.283E-03    -224.036E-03     38.2142E-03    -223.743E-03     447.736E-03    -223.725E-03     34.9989E-03
             612     12.2330E-03     111.449E-03    -21.0209E+06     88.2785E+06     89.6698E+06     681.876E+03    -223.110E-03     447.156E-03    -224.046E-03     36.5903E-03    -223.628E-03     447.653E-03    -223.695E-03     32.8331E-03
             613     12.9534E-03     111.496E-03    -13.5431E+06     103.794E+06     103.953E+06     1.09837E+06    -222.949E-03     447.003E-03    -224.054E-03     34.5356E-03    -223.500E-03     447.573E-03    -223.665E-03     30.0467E-03
             614     13.6734E-03     111.540E-03    -6.15640E+06     115.243E+06     112.081E+06     1.02356E+06    -222.866E-03     446.905E-03    -224.039E-03     27.1216E-03    -223.374E-03     447.475E-03    -223.637E-03     22.8109E-03
             615     719.287E-06     112.320E-03    -129.518E+06     -266.42E+06    -127.152E+06     284.235E+03    -224.062E-03     448.100E-03    -224.038E-03     4.00713E-03    -224.138E-03     447.140E-03    -224.100E-03     4.17844E-03
             616     1.43860E-03     112.329E-03    -126.098E+06    -255.917E+06    -117.254E+06     512.934E+03    -224.006E-03     448.079E-03    -224.074E-03     7.32470E-03    -224.095E-03     447.152E-03    -224.106E-03     7.62631E-03
             617     2.15795E-03     112.343E-03    -120.839E+06    -240.591E+06    -102.696E+06     745.328E+03    -223.958E-03     448.053E-03    -224.095E-03     10.7577E-03    -224.064E-03     447.174E-03    -224.085E-03     11.1714E-03
             618     2.87735E-03     112.362E-03    -114.169E+06    -222.094E+06    -85.2707E+06     946.762E+03    -223.906E-03     448.025E-03    -224.119E-03     14.1083E-03    -224.031E-03     447.204E-03    -224.058E-03     14.5984E-03
             619     3.59680E-03     112.386E-03    -106.533E+06    -201.915E+06    -66.8507E+06     1.12263E+06    -223.858E-03     447.999E-03    -224.141E-03     17.3319E-03    -224.002E-03     447.242E-03    -224.028E-03     17.8518E-03
             620     4.31631E-03     112.415E-03    -98.3586E+06    -180.858E+06    -48.8507E+06     1.28411E+06    -223.819E-03     447.975E-03    -224.156E-03     20.4019E-03    -223.980E-03     447.287E-03    -223.996E-03     20.8972E-03
             621     5.03586E-03     112.449E-03    -89.9884E+06    -159.643E+06    -32.0564E+06     1.42314E+06    -223.790E-03     447.955E-03    -224.165E-03     23.3031E-03    -223.968E-03     447.339E-03    -223.963E-03     23.7126E-03
             622     5.75546E-03     112.486E-03    -81.6580E+06    -138.340E+06    -16.7140E+06     1.53972E+06    -223.770E-03     447.937E-03    -224.166E-03     26.0217E-03    -223.964E-03     447.398E-03    -223.931E-03     26.2806E-03
             623     6.47509E-03     112.527E-03    -73.5396E+06    -116.470E+06    -2.73824E+06     1.67921E+06    -223.756E-03     447.918E-03    -224.162E-03     28.5556E-03    -223.967E-03     447.462E-03    -223.900E-03     28.5968E-03
             624     7.19475E-03     112.572E-03    -65.7235E+06    -93.7608E+06     10.0677E+06     1.86385E+06    -223.742E-03     447.895E-03    -224.152E-03     30.8877E-03    -223.974E-03     447.531E-03    -223.871E-03     30.6443E-03
             625     7.91444E-03     112.619E-03    -58.2685E+06    -68.8177E+06     22.0615E+06     2.01300E+06    -223.717E-03     447.854E-03    -224.138E-03     32.9775E-03    -223.976E-03     447.598E-03    -223.843E-03     32.3852E-03
             626     8.63417E-03     112.669E-03    -51.2214E+06    -40.2624E+06     33.6070E+06     2.20672E+06    -223.662E-03     447.778E-03    -224.116E-03     34.8816E-03    -223.958E-03     447.652E-03    -223.816E-03     33.8737E-03
             627     9.35394E-03     112.720E-03    -44.5956E+06    -5.40353E+06     45.4004E+06     2.58631E+06    -223.558E-03     447.645E-03    -224.086E-03     36.5723E-03    -223.907E-03     447.684E-03    -223.787E-03     35.0841E-03
             628     10.0739E-03     112.774E-03    -38.1561E+06     41.4684E+06     58.3347E+06     3.49997E+06    -223.396E-03     447.439E-03    -224.042E-03     37.8423E-03    -223.822E-03     447.707E-03    -223.755E-03     35.8247E-03
             629     10.7937E-03     112.828E-03    -31.3036E+06     72.3576E+06     67.6381E+06     3.96300E+06    -223.302E-03     447.304E-03    -224.002E-03     38.4827E-03    -223.776E-03     447.727E-03    -223.723E-03     35.8863E-03
             630     11.5136E-03     112.881E-03    -24.1445E+06     82.0431E+06     78.5488E+06     2.45284E+06    -223.268E-03     447.270E-03    -224.002E-03     38.2220E-03    -223.759E-03     447.739E-03    -223.693E-03     35.0170E-03
             631     12.2338E-03     112.932E-03    -17.5726E+06     88.9019E+06     92.0626E+06     866.500E+03    -223.201E-03     447.226E-03    -224.024E-03     36.6822E-03    -223.707E-03     447.717E-03    -223.668E-03     32.9272E-03
             632     12.9533E-03     112.980E-03    -11.8541E+06     102.331E+06     104.675E+06     722.029E+03    -223.015E-03     447.050E-03    -224.035E-03     34.6168E-03    -223.557E-03     447.609E-03    -223.643E-03     30.1168E-03
             633     13.6734E-03     113.023E-03    -6.10808E+06     116.806E+06     111.922E+06     624.618E+03    -222.780E-03     446.794E-03    -224.014E-03     27.0922E-03    -223.289E-03     447.372E-03    -223.615E-03     22.7690E-03
             634     719.353E-06     113.803E-03    -130.037E+06    -267.338E+06    -127.627E+06     234.482E+03    -223.983E-03     447.941E-03    -223.958E-03     4.01984E-03    -224.061E-03     446.978E-03    -224.020E-03     4.19061E-03
             635     1.43873E-03     113.812E-03    -126.572E+06    -256.857E+06    -117.627E+06     447.628E+03    -223.932E-03     447.928E-03    -223.996E-03     7.34548E-03    -224.022E-03     446.998E-03    -224.028E-03     7.64612E-03
             636     2.15813E-03     113.826E-03    -121.246E+06    -241.462E+06    -102.968E+06     656.510E+03    -223.892E-03     447.913E-03    -224.021E-03     10.7809E-03    -223.999E-03     447.031E-03    -224.010E-03     11.1934E-03
             637     2.87757E-03     113.845E-03    -114.509E+06    -222.861E+06    -85.4579E+06     827.807E+03    -223.850E-03     447.898E-03    -224.048E-03     14.1307E-03    -223.976E-03     447.074E-03    -223.987E-03     14.6195E-03
             638     3.59706E-03     113.869E-03    -106.815E+06    -202.583E+06    -66.9600E+06     953.537E+03    -223.812E-03     447.886E-03    -224.074E-03     17.3543E-03    -223.957E-03     447.127E-03    -223.960E-03     17.8727E-03
             639     4.31659E-03     113.898E-03    -98.5811E+06    -181.504E+06    -48.8616E+06     1.06044E+06    -223.783E-03     447.878E-03    -224.094E-03     20.4255E-03    -223.945E-03     447.187E-03    -223.933E-03     20.9192E-03
             640     5.03616E-03     113.932E-03    -90.1567E+06    -160.221E+06    -31.9268E+06     1.16602E+06    -223.764E-03     447.872E-03    -224.108E-03     23.3289E-03    -223.942E-03     447.254E-03    -223.905E-03     23.7374E-03
             641     5.75578E-03     113.969E-03    -81.8044E+06    -138.933E+06    -16.4669E+06     1.28657E+06    -223.752E-03     447.867E-03    -224.115E-03     26.0513E-03    -223.946E-03     447.325E-03    -223.877E-03     26.3100E-03
             642     6.47542E-03     114.010E-03    -73.6713E+06    -117.208E+06    -2.45534E+06     1.47415E+06    -223.743E-03     447.857E-03    -224.115E-03     28.5926E-03    -223.953E-03     447.398E-03    -223.850E-03     28.6350E-03
             643     7.19509E-03     114.055E-03    -65.8186E+06    -94.5078E+06     10.2933E+06     1.68691E+06    -223.727E-03     447.836E-03    -224.109E-03     30.9383E-03    -223.959E-03     447.468E-03    -223.825E-03     30.6973E-03
             644     7.91480E-03     114.102E-03    -58.2684E+06    -69.6319E+06     22.1750E+06     1.97428E+06    -223.694E-03     447.789E-03    -224.095E-03     33.0373E-03    -223.952E-03     447.529E-03    -223.799E-03     32.4494E-03
             645     8.63456E-03     114.152E-03    -51.0106E+06    -41.3055E+06     33.6092E+06     2.37359E+06    -223.637E-03     447.712E-03    -224.075E-03     34.9268E-03    -223.931E-03     447.581E-03    -223.773E-03     33.9246E-03
             646     9.35438E-03     114.203E-03    -43.9394E+06    -7.06369E+06     45.2857E+06     2.99490E+06    -223.556E-03     447.603E-03    -224.047E-03     36.5787E-03    -223.899E-03     447.634E-03    -223.746E-03     35.0970E-03
             647     10.0742E-03     114.257E-03    -36.7539E+06     39.3464E+06     58.3707E+06     3.53475E+06    -223.429E-03     447.435E-03    -224.006E-03     37.8521E-03    -223.844E-03     447.690E-03    -223.718E-03     35.8369E-03
             648     10.7941E-03     114.311E-03    -29.7310E+06     73.0540E+06     68.9043E+06     3.25391E+06    -223.333E-03     447.304E-03    -223.971E-03     38.5183E-03    -223.802E-03     447.727E-03    -223.690E-03     35.9149E-03
             649     11.5141E-03     114.364E-03    -23.6661E+06     84.4652E+06     79.3843E+06     2.81974E+06    -223.259E-03     447.230E-03    -223.972E-03     38.2081E-03    -223.752E-03     447.709E-03    -223.663E-03     35.0088E-03
             650     12.2338E-03     114.416E-03    -18.3259E+06     90.0604E+06     90.9664E+06     2.53621E+06    -223.156E-03     447.144E-03    -223.988E-03     36.6584E-03    -223.665E-03     447.644E-03    -223.637E-03     32.9250E-03
             651     12.9540E-03     114.463E-03    -12.3903E+06     103.352E+06     104.152E+06     1.65109E+06    -223.003E-03     447.004E-03    -224.002E-03     34.7118E-03    -223.549E-03     447.571E-03    -223.613E-03     30.2170E-03
             652     13.6739E-03     114.505E-03    -5.95851E+06     117.959E+06     112.670E+06     629.476E+03    -222.823E-03     446.811E-03    -223.989E-03     27.2529E-03    -223.335E-03     447.395E-03    -223.588E-03     22.9198E-03
             653     719.413E-06     115.286E-03    -130.600E+06    -268.118E+06    -128.170E+06     203.440E+03    -223.907E-03     447.785E-03    -223.878E-03     4.01002E-03    -223.985E-03     446.820E-03    -223.941E-03     4.18019E-03
             654     1.43884E-03     115.294E-03    -127.113E+06    -257.651E+06    -118.119E+06     374.985E+03    -223.861E-03     447.781E-03    -223.920E-03     7.33350E-03    -223.952E-03     446.848E-03    -223.952E-03     7.63285E-03
             655     2.15829E-03     115.308E-03    -121.754E+06    -242.192E+06    -103.357E+06     535.834E+03    -223.828E-03     447.776E-03    -223.948E-03     10.7670E-03    -223.936E-03     446.892E-03    -223.937E-03     11.1780E-03
             656     2.87778E-03     115.328E-03    -114.965E+06    -223.500E+06    -85.6820E+06     676.794E+03    -223.794E-03     447.774E-03    -223.980E-03     14.1174E-03    -223.921E-03     446.948E-03    -223.917E-03     14.6051E-03
             657     3.59730E-03     115.352E-03    -107.216E+06    -203.094E+06    -67.0232E+06     780.192E+03    -223.766E-03     447.776E-03    -224.010E-03     17.3449E-03    -223.912E-03     447.014E-03    -223.895E-03     17.8625E-03
             658     4.31686E-03     115.381E-03    -98.9540E+06    -181.984E+06    -48.8352E+06     855.557E+03    -223.747E-03     447.781E-03    -224.035E-03     20.4191E-03    -223.910E-03     447.089E-03    -223.872E-03     20.9122E-03
             659     5.03646E-03     115.414E-03    -90.5241E+06    -160.729E+06    -31.9173E+06     953.066E+03    -223.735E-03     447.788E-03    -224.052E-03     23.3251E-03    -223.914E-03     447.167E-03    -223.848E-03     23.7334E-03
             660     5.75609E-03     115.452E-03    -82.1637E+06    -139.509E+06    -16.5554E+06     1.09177E+06    -223.728E-03     447.791E-03    -224.063E-03     26.0527E-03    -223.922E-03     447.246E-03    -223.824E-03     26.3119E-03
             661     6.47575E-03     115.493E-03    -73.9939E+06    -117.848E+06    -2.67229E+06     1.22660E+06    -223.718E-03     447.784E-03    -224.066E-03     28.6021E-03    -223.929E-03     447.322E-03    -223.801E-03     28.6444E-03
             662     7.19544E-03     115.537E-03    -66.0696E+06    -95.1993E+06     9.97470E+06     1.38630E+06    -223.701E-03     447.762E-03    -224.061E-03     30.9520E-03    -223.932E-03     447.392E-03    -223.777E-03     30.7097E-03
             663     7.91517E-03     115.585E-03    -58.4159E+06    -70.6299E+06     21.7872E+06     1.63810E+06    -223.674E-03     447.724E-03    -224.050E-03     33.0417E-03    -223.931E-03     447.460E-03    -223.754E-03     32.4511E-03
             664     8.63494E-03     115.635E-03    -51.0319E+06    -42.6753E+06     33.2435E+06     2.07855E+06    -223.637E-03     447.669E-03    -224.033E-03     34.9135E-03    -223.928E-03     447.532E-03    -223.731E-03     33.9088E-03
             665     9.35471E-03     115.686E-03    -43.8733E+06    -8.84943E+06     45.0150E+06     2.61789E+06    -223.573E-03     447.582E-03    -224.009E-03     36.5678E-03    -223.913E-03     447.605E-03    -223.708E-03     35.0831E-03
             666     10.0746E-03     115.740E-03    -37.1092E+06     37.7521E+06     58.2375E+06     3.27774E+06    -223.438E-03     447.411E-03    -223.973E-03     37.8459E-03    -223.852E-03     447.659E-03    -223.683E-03     35.8303E-03
             667     10.7945E-03     115.794E-03    -31.0906E+06     72.5681E+06     68.3588E+06     4.14107E+06    -223.318E-03     447.256E-03    -223.939E-03     38.5090E-03    -223.791E-03     447.679E-03    -223.657E-03     35.9204E-03
             668     11.5143E-03     115.847E-03    -25.2954E+06     85.0525E+06     77.8255E+06     4.17977E+06    -223.236E-03     447.169E-03    -223.934E-03     38.2422E-03    -223.736E-03     447.656E-03    -223.631E-03     35.0613E-03
             669     12.2344E-03     115.899E-03    -18.8052E+06     91.7401E+06     90.0974E+06     3.05528E+06    -223.115E-03     447.066E-03    -223.951E-03     36.6895E-03    -223.629E-03     447.577E-03    -223.606E-03     32.9578E-03
             670     12.9543E-03     115.946E-03    -12.1567E+06     105.716E+06     104.675E+06     1.77469E+06    -222.927E-03     446.895E-03    -223.968E-03     34.6516E-03    -223.477E-03     447.473E-03    -223.580E-03     30.1483E-03
             671     13.6745E-03     115.989E-03    -5.89504E+06     119.668E+06     113.524E+06     806.147E+03    -222.783E-03     446.740E-03    -223.957E-03     27.2186E-03    -223.300E-03     447.331E-03    -223.554E-03     22.8782E-03
             672     719.454E-06     116.768E-03    -131.114E+06    -268.803E+06    -128.654E+06     187.342E+03    -223.847E-03     447.665E-03    -223.818E-03     3.99935E-03    -223.927E-03     446.698E-03    -223.881E-03     4.17007E-03
             673     1.43892E-03     116.777E-03    -127.605E+06    -258.289E+06    -118.519E+06     321.467E+03    -223.803E-03     447.664E-03    -223.861E-03     7.31627E-03    -223.895E-03     446.729E-03    -223.894E-03     7.61610E-03
             674     2.15842E-03     116.791E-03    -122.226E+06    -242.789E+06    -103.662E+06     454.849E+03    -223.773E-03     447.664E-03    -223.890E-03     10.7416E-03    -223.882E-03     446.777E-03    -223.879E-03     11.1532E-03
             675     2.87794E-03     116.810E-03    -115.429E+06    -224.022E+06    -85.9400E+06     570.889E+03    -223.744E-03     447.668E-03    -223.924E-03     14.0863E-03    -223.872E-03     446.840E-03    -223.861E-03     14.5745E-03
             676     3.59750E-03     116.834E-03    -107.679E+06    -203.533E+06    -67.2760E+06     668.148E+03    -223.722E-03     447.678E-03    -223.956E-03     17.3104E-03    -223.869E-03     446.915E-03    -223.841E-03     17.8286E-03
             677     4.31709E-03     116.863E-03    -99.4205E+06    -182.363E+06    -49.1051E+06     747.547E+03    -223.708E-03     447.692E-03    -223.983E-03     20.3833E-03    -223.873E-03     446.998E-03    -223.820E-03     20.8772E-03
             678     5.03671E-03     116.897E-03    -91.0047E+06    -161.183E+06    -32.2560E+06     830.861E+03    -223.701E-03     447.704E-03    -224.003E-03     23.2910E-03    -223.881E-03     447.083E-03    -223.799E-03     23.7001E-03
             679     5.75636E-03     116.934E-03    -82.6552E+06    -139.971E+06    -16.9659E+06     919.207E+03    -223.696E-03     447.711E-03    -224.015E-03     26.0212E-03    -223.891E-03     447.166E-03    -223.777E-03     26.2806E-03
             680     6.47605E-03     116.976E-03    -74.5201E+06    -118.268E+06    -3.08539E+06     996.827E+03    -223.689E-03     447.709E-03    -224.020E-03     28.5690E-03    -223.902E-03     447.246E-03    -223.756E-03     28.6106E-03
             681     7.19577E-03     117.020E-03    -66.7025E+06    -95.8382E+06     9.55955E+06     1.13932E+06    -223.681E-03     447.699E-03    -224.018E-03     30.9112E-03    -223.913E-03     447.327E-03    -223.735E-03     30.6671E-03
             682     7.91551E-03     117.068E-03    -59.2486E+06    -71.5467E+06     21.3175E+06     1.41498E+06    -223.667E-03     447.678E-03    -224.011E-03     32.9951E-03    -223.926E-03     447.410E-03    -223.714E-03     32.4026E-03
             683     8.63526E-03     117.117E-03    -52.1116E+06    -44.0796E+06     32.5870E+06     1.83094E+06    -223.637E-03     447.633E-03    -223.997E-03     34.8724E-03    -223.930E-03     447.491E-03    -223.694E-03     33.8658E-03
             684     9.35506E-03     117.169E-03    -45.2949E+06    -10.6706E+06     44.1199E+06     2.53305E+06    -223.565E-03     447.540E-03    -223.976E-03     36.5357E-03    -223.907E-03     447.557E-03    -223.674E-03     35.0524E-03
             685     10.0748E-03     117.223E-03    -38.8302E+06     34.3413E+06     56.7615E+06     4.05183E+06    -223.420E-03     447.361E-03    -223.941E-03     37.8187E-03    -223.836E-03     447.597E-03    -223.651E-03     35.8161E-03
             686     10.7948E-03     117.277E-03    -32.3580E+06     71.1247E+06     66.6818E+06     5.06882E+06    -223.282E-03     447.184E-03    -223.903E-03     38.4873E-03    -223.757E-03     447.604E-03    -223.626E-03     35.9113E-03
             687     11.5148E-03     117.330E-03    -25.5569E+06     87.4031E+06     77.1003E+06     4.07137E+06    -223.189E-03     447.084E-03    -223.895E-03     38.2057E-03    -223.693E-03     447.584E-03    -223.599E-03     35.0193E-03
             688     12.2347E-03     117.382E-03    -18.9106E+06     93.8798E+06     90.2620E+06     2.62221E+06    -223.092E-03     447.009E-03    -223.917E-03     36.6514E-03    -223.609E-03     447.530E-03    -223.574E-03     32.9037E-03
             689     12.9548E-03     117.429E-03    -12.4730E+06     107.317E+06     105.190E+06     1.82311E+06    -222.905E-03     446.843E-03    -223.938E-03     34.6334E-03    -223.460E-03     447.429E-03    -223.549E-03     30.1171E-03
             690     13.6748E-03     117.471E-03    -6.10149E+06     121.422E+06     114.363E+06     1.04613E+06    -222.717E-03     446.644E-03    -223.928E-03     27.1712E-03    -223.238E-03     447.243E-03    -223.523E-03     22.8267E-03
             691     719.483E-06     118.250E-03    -131.722E+06    -269.430E+06    -129.254E+06     178.645E+03    -223.809E-03     447.590E-03    -223.781E-03     3.98534E-03    -223.890E-03     446.621E-03    -223.845E-03     4.15681E-03
             692     1.43898E-03     118.259E-03    -128.205E+06    -258.848E+06    -119.055E+06     305.947E+03    -223.765E-03     447.588E-03    -223.823E-03     7.28970E-03    -223.858E-03     446.652E-03    -223.857E-03     7.59086E-03
             693     2.15850E-03     118.273E-03    -122.812E+06    -243.318E+06    -104.134E+06     432.074E+03    -223.735E-03     447.588E-03    -223.853E-03     10.7024E-03    -223.845E-03     446.700E-03    -223.843E-03     11.1157E-03
             694     2.87805E-03     118.292E-03    -115.998E+06    -224.466E+06    -86.3753E+06     536.118E+03    -223.706E-03     447.593E-03    -223.887E-03     14.0386E-03    -223.836E-03     446.764E-03    -223.825E-03     14.5284E-03
             695     3.59763E-03     118.317E-03    -108.238E+06    -203.928E+06    -67.6984E+06     614.842E+03    -223.685E-03     447.604E-03    -223.919E-03     17.2574E-03    -223.833E-03     446.840E-03    -223.805E-03     17.7770E-03
             696     4.31725E-03     118.346E-03    -99.9691E+06    -182.715E+06    -49.5088E+06     686.788E+03    -223.672E-03     447.619E-03    -223.946E-03     20.3252E-03    -223.838E-03     446.925E-03    -223.784E-03     20.8205E-03
             697     5.03690E-03     118.379E-03    -91.5338E+06    -161.529E+06    -32.5920E+06     748.235E+03    -223.668E-03     447.635E-03    -223.967E-03     23.2257E-03    -223.849E-03     447.013E-03    -223.763E-03     23.6357E-03
             698     5.75657E-03     118.417E-03    -83.1787E+06    -140.299E+06    -17.2193E+06     804.255E+03    -223.667E-03     447.648E-03    -223.981E-03     25.9447E-03    -223.865E-03     447.102E-03    -223.743E-03     26.2043E-03
             699     6.47628E-03     118.458E-03    -75.0703E+06    -118.710E+06    -3.32550E+06     925.998E+03    -223.668E-03     447.655E-03    -223.987E-03     28.4794E-03    -223.882E-03     447.191E-03    -223.723E-03     28.5214E-03
             700     7.19600E-03     118.503E-03    -67.2883E+06    -96.5019E+06     9.27168E+06     1.14230E+06    -223.666E-03     447.654E-03    -223.988E-03     30.8189E-03    -223.900E-03     447.280E-03    -223.704E-03     30.5762E-03
             701     7.91573E-03     118.550E-03    -59.8279E+06    -72.5448E+06     20.9114E+06     1.47261E+06    -223.652E-03     447.633E-03    -223.981E-03     32.9192E-03    -223.911E-03     447.362E-03    -223.685E-03     32.3291E-03
             702     8.63550E-03     118.600E-03    -52.7099E+06    -45.4683E+06     32.0089E+06     1.98002E+06    -223.613E-03     447.582E-03    -223.968E-03     34.8175E-03    -223.907E-03     447.434E-03    -223.666E-03     33.8153E-03
             703     9.35528E-03     118.652E-03    -45.8547E+06    -13.0537E+06     43.1878E+06     2.81756E+06    -223.534E-03     447.481E-03    -223.947E-03     36.4945E-03    -223.875E-03     447.488E-03    -223.646E-03     35.0181E-03
             704     10.0752E-03     118.705E-03    -38.8510E+06     30.1533E+06     55.5412E+06     4.08771E+06    -223.397E-03     447.311E-03    -223.913E-03     37.7818E-03    -223.805E-03     447.527E-03    -223.623E-03     35.7822E-03
             705     10.7952E-03     118.759E-03    -31.7833E+06     70.6093E+06     66.7130E+06     4.74587E+06    -223.260E-03     447.135E-03    -223.875E-03     38.4396E-03    -223.732E-03     447.551E-03    -223.597E-03     35.8584E-03
             706     11.5150E-03     118.813E-03    -25.3246E+06     90.3212E+06     77.4535E+06     3.96042E+06    -223.149E-03     447.013E-03    -223.864E-03     38.1584E-03    -223.657E-03     447.527E-03    -223.571E-03     34.9662E-03
             707     12.2351E-03     118.864E-03    -19.1476E+06     95.7290E+06     89.8499E+06     2.73792E+06    -223.031E-03     446.915E-03    -223.883E-03     36.6101E-03    -223.552E-03     447.447E-03    -223.545E-03     32.8575E-03
             708     12.9551E-03     118.911E-03    -12.6793E+06     108.659E+06     105.140E+06     1.81611E+06    -222.861E-03     446.766E-03    -223.906E-03     34.5902E-03    -223.419E-03     447.360E-03    -223.519E-03     30.0614E-03
             709     13.6753E-03     118.954E-03    -6.13369E+06     123.019E+06     115.116E+06     1.03109E+06    -222.698E-03     446.597E-03    -223.899E-03     27.1636E-03    -223.223E-03     447.203E-03    -223.493E-03     22.8088E-03
             710     719.489E-06     119.732E-03    -132.345E+06    -270.033E+06    -129.866E+06     173.049E+03    -223.797E-03     447.568E-03    -223.770E-03     3.96673E-03    -223.879E-03     446.598E-03    -223.836E-03     4.13863E-03
             711     1.43899E-03     119.741E-03    -128.812E+06    -259.403E+06    -119.622E+06     305.263E+03    -223.751E-03     447.563E-03    -223.812E-03     7.25424E-03    -223.846E-03     446.626E-03    -223.847E-03     7.55657E-03
             712     2.15852E-03     119.755E-03    -123.386E+06    -243.810E+06    -104.603E+06     424.750E+03    -223.718E-03     447.559E-03    -223.841E-03     10.6514E-03    -223.830E-03     446.671E-03    -223.832E-03     11.0663E-03
             713     2.87809E-03     119.775E-03    -116.525E+06    -224.863E+06    -86.7267E+06     510.191E+03    -223.686E-03     447.560E-03    -223.874E-03     13.9744E-03    -223.817E-03     446.731E-03    -223.812E-03     14.4658E-03
             714     3.59769E-03     119.799E-03    -108.711E+06    -204.274E+06    -67.9358E+06     577.360E+03    -223.662E-03     447.568E-03    -223.905E-03     17.1798E-03    -223.813E-03     446.804E-03    -223.791E-03     17.7007E-03
             715     4.31733E-03     119.828E-03    -100.394E+06    -183.049E+06    -49.6774E+06     642.517E+03    -223.650E-03     447.582E-03    -223.932E-03     20.2320E-03    -223.817E-03     446.887E-03    -223.769E-03     20.7282E-03
             716     5.03699E-03     119.862E-03    -91.9301E+06    -161.801E+06    -32.7370E+06     697.350E+03    -223.647E-03     447.599E-03    -223.952E-03     23.1166E-03    -223.830E-03     446.976E-03    -223.748E-03     23.5273E-03
             717     5.75667E-03     119.899E-03    -83.5616E+06    -140.629E+06    -17.3738E+06     769.358E+03    -223.649E-03     447.615E-03    -223.966E-03     25.8244E-03    -223.847E-03     447.068E-03    -223.728E-03     26.0849E-03
             718     6.47637E-03     119.941E-03    -75.4178E+06    -119.242E+06    -3.53772E+06     904.115E+03    -223.649E-03     447.621E-03    -223.972E-03     28.3589E-03    -223.864E-03     447.155E-03    -223.708E-03     28.4026E-03
             719     7.19610E-03     119.985E-03    -67.5498E+06    -97.1983E+06     8.97436E+06     1.10577E+06    -223.638E-03     447.610E-03    -223.972E-03     30.7116E-03    -223.872E-03     447.233E-03    -223.688E-03     30.4715E-03
             720     7.91587E-03     120.033E-03    -59.9889E+06    -73.5775E+06     20.5713E+06     1.41390E+06    -223.613E-03     447.577E-03    -223.964E-03     32.8330E-03    -223.872E-03     447.302E-03    -223.668E-03     32.2452E-03
             721     8.63567E-03     120.083E-03    -52.6911E+06    -47.0816E+06     31.6539E+06     1.94535E+06    -223.572E-03     447.521E-03    -223.950E-03     34.7389E-03    -223.862E-03     447.366E-03    -223.647E-03     33.7389E-03
             722     9.35554E-03     120.135E-03    -45.5746E+06    -15.3139E+06     42.9249E+06     2.66781E+06    -223.501E-03     447.429E-03    -223.928E-03     36.4048E-03    -223.837E-03     447.424E-03    -223.625E-03     34.9279E-03
             723     10.0754E-03     120.188E-03    -38.6864E+06     26.9218E+06     55.1996E+06     3.60691E+06    -223.372E-03     447.267E-03    -223.894E-03     37.6949E-03    -223.774E-03     447.467E-03    -223.601E-03     35.6897E-03
             724     10.7953E-03     120.242E-03    -32.0244E+06     69.7041E+06     66.5992E+06     4.35720E+06    -223.208E-03     447.061E-03    -223.853E-03     38.3794E-03    -223.679E-03     447.473E-03    -223.575E-03     35.7943E-03
             725     11.5154E-03     120.296E-03    -25.3403E+06     92.4609E+06     77.6642E+06     4.01199E+06    -223.081E-03     446.919E-03    -223.837E-03     38.1127E-03    -223.593E-03     447.443E-03    -223.546E-03     34.9190E-03
             726     12.2354E-03     120.347E-03    -18.7895E+06     97.5913E+06     89.8748E+06     2.92052E+06    -222.983E-03     446.837E-03    -223.854E-03     36.5580E-03    -223.506E-03     447.378E-03    -223.519E-03     32.8000E-03
             727     12.9555E-03     120.394E-03    -12.4743E+06     110.079E+06     105.107E+06     2.00975E+06    -222.803E-03     446.679E-03    -223.875E-03     34.5319E-03    -223.363E-03     447.280E-03    -223.491E-03     29.9951E-03
             728     13.6756E-03     120.437E-03    -6.20545E+06     124.852E+06     115.612E+06     1.12788E+06    -222.633E-03     446.502E-03    -223.869E-03     27.1284E-03    -223.162E-03     447.117E-03    -223.463E-03     22.7673E-03
             729     719.474E-06     121.214E-03    -132.788E+06    -270.647E+06    -130.286E+06     185.384E+03    -223.816E-03     447.606E-03    -223.790E-03     3.94336E-03    -223.899E-03     446.634E-03    -223.856E-03     4.11609E-03
             730     1.43897E-03     121.223E-03    -129.233E+06    -259.959E+06    -119.960E+06     311.655E+03    -223.767E-03     447.598E-03    -223.831E-03     7.20938E-03    -223.862E-03     446.659E-03    -223.866E-03     7.51303E-03
             731     2.15849E-03     121.237E-03    -123.773E+06    -244.273E+06    -104.863E+06     421.756E+03    -223.730E-03     447.589E-03    -223.859E-03     10.5846E-03    -223.843E-03     446.699E-03    -223.850E-03     11.0011E-03
             732     2.87805E-03     121.257E-03    -116.883E+06    -225.219E+06    -86.9164E+06     495.611E+03    -223.694E-03     447.584E-03    -223.890E-03     13.8856E-03    -223.826E-03     446.754E-03    -223.829E-03     14.3785E-03
             733     3.59764E-03     121.281E-03    -109.042E+06    -204.598E+06    -68.0637E+06     552.247E+03    -223.665E-03     447.585E-03    -223.920E-03     17.0699E-03    -223.816E-03     446.820E-03    -223.806E-03     17.5923E-03
             734     4.31727E-03     121.310E-03    -100.690E+06    -183.341E+06    -49.7772E+06     600.867E+03    -223.647E-03     447.592E-03    -223.945E-03     20.1060E-03    -223.815E-03     446.896E-03    -223.782E-03     20.6035E-03
             735     5.03693E-03     121.344E-03    -92.1874E+06    -162.094E+06    -32.8423E+06     660.867E+03    -223.637E-03     447.600E-03    -223.963E-03     22.9817E-03    -223.821E-03     446.976E-03    -223.758E-03     23.3943E-03
             736     5.75662E-03     121.382E-03    -83.7706E+06    -140.920E+06    -17.4996E+06     712.748E+03    -223.630E-03     447.603E-03    -223.973E-03     25.6889E-03    -223.828E-03     447.055E-03    -223.735E-03     25.9518E-03
             737     6.47635E-03     121.423E-03    -75.5632E+06    -119.681E+06    -3.65283E+06     777.759E+03    -223.618E-03     447.594E-03    -223.977E-03     28.2264E-03    -223.832E-03     447.127E-03    -223.712E-03     28.2722E-03
             738     7.19611E-03     121.468E-03    -67.6392E+06    -97.7877E+06     8.90061E+06     910.953E+03    -223.596E-03     447.569E-03    -223.973E-03     30.5793E-03    -223.830E-03     447.189E-03    -223.688E-03     30.3405E-03
             739     7.91591E-03     121.515E-03    -60.0105E+06    -74.5275E+06     20.5024E+06     1.16245E+06    -223.568E-03     447.530E-03    -223.962E-03     32.7043E-03    -223.825E-03     447.250E-03    -223.664E-03     32.1158E-03
             740     8.63575E-03     121.565E-03    -52.6460E+06    -48.5272E+06     31.5477E+06     1.55588E+06    -223.528E-03     447.473E-03    -223.945E-03     34.6084E-03    -223.816E-03     447.310E-03    -223.640E-03     33.6051E-03
             741     9.35559E-03     121.617E-03    -45.5330E+06    -17.4559E+06     42.6812E+06     2.25273E+06    -223.454E-03     447.374E-03    -223.920E-03     36.2859E-03    -223.785E-03     447.358E-03    -223.616E-03     34.8070E-03
             742     10.0755E-03     121.671E-03    -38.6800E+06     23.7055E+06     54.7908E+06     3.50764E+06    -223.314E-03     447.199E-03    -223.884E-03     37.6032E-03    -223.711E-03     447.383E-03    -223.589E-03     35.6007E-03
             743     10.7956E-03     121.725E-03    -31.9942E+06     68.7400E+06     66.7296E+06     4.27061E+06    -223.137E-03     446.976E-03    -223.839E-03     38.2877E-03    -223.607E-03     447.383E-03    -223.558E-03     35.7022E-03
             744     11.5156E-03     121.778E-03    -25.4796E+06     94.0818E+06     77.7920E+06     3.76235E+06    -223.005E-03     446.821E-03    -223.816E-03     38.0168E-03    -223.520E-03     447.354E-03    -223.527E-03     34.8176E-03
             745     12.2357E-03     121.830E-03    -19.1469E+06     98.8529E+06     89.4580E+06     3.07098E+06    -222.907E-03     446.735E-03    -223.828E-03     36.4773E-03    -223.432E-03     447.284E-03    -223.496E-03     32.7150E-03
             746     12.9558E-03     121.877E-03    -12.7822E+06     111.720E+06     105.154E+06     2.33120E+06    -222.725E-03     446.574E-03    -223.848E-03     34.4734E-03    -223.289E-03     447.184E-03    -223.466E-03     29.9292E-03
             747     13.6760E-03     121.919E-03    -6.26095E+06     127.096E+06     116.463E+06     1.17683E+06    -222.540E-03     446.382E-03    -223.842E-03     27.1099E-03    -223.074E-03     447.007E-03    -223.435E-03     22.7434E-03
             748     719.438E-06     122.697E-03    -133.215E+06    -271.303E+06    -130.712E+06     195.259E+03    -223.869E-03     447.712E-03    -223.843E-03     3.91074E-03    -223.952E-03     446.738E-03    -223.910E-03     4.08454E-03
             749     1.43889E-03     122.705E-03    -129.643E+06    -260.508E+06    -120.329E+06     324.451E+03    -223.816E-03     447.699E-03    -223.883E-03     7.14974E-03    -223.912E-03     446.759E-03    -223.919E-03     7.45523E-03
             750     2.15838E-03     122.720E-03    -124.151E+06    -244.713E+06    -105.142E+06     420.678E+03    -223.774E-03     447.684E-03    -223.910E-03     10.4993E-03    -223.887E-03     446.793E-03    -223.901E-03     10.9180E-03
             751     2.87790E-03     122.739E-03    -117.219E+06    -225.569E+06    -87.1150E+06     492.663E+03    -223.730E-03     447.669E-03    -223.939E-03     13.7778E-03    -223.863E-03     446.838E-03    -223.878E-03     14.2734E-03
             752     3.59747E-03     122.764E-03    -109.336E+06    -204.873E+06    -68.1855E+06     533.900E+03    -223.691E-03     447.657E-03    -223.966E-03     16.9446E-03    -223.843E-03     446.891E-03    -223.852E-03     17.4700E-03
             753     4.31709E-03     122.793E-03    -100.948E+06    -183.578E+06    -49.8397E+06     554.260E+03    -223.658E-03     447.645E-03    -223.987E-03     19.9693E-03    -223.827E-03     446.949E-03    -223.824E-03     20.4701E-03
             754     5.03674E-03     122.827E-03    -92.3985E+06    -162.351E+06    -32.8646E+06     575.531E+03    -223.632E-03     447.632E-03    -224.000E-03     22.8378E-03    -223.816E-03     447.008E-03    -223.795E-03     23.2533E-03
             755     5.75644E-03     122.864E-03    -83.9300E+06    -141.089E+06    -17.4760E+06     584.126E+03    -223.608E-03     447.613E-03    -224.005E-03     25.5372E-03    -223.808E-03     447.065E-03    -223.766E-03     25.8028E-03
             756     6.47619E-03     122.906E-03    -75.7006E+06    -119.966E+06    -3.59923E+06     607.071E+03    -223.584E-03     447.586E-03    -224.003E-03     28.0638E-03    -223.799E-03     447.117E-03    -223.737E-03     28.1114E-03
             757     7.19597E-03     122.950E-03    -67.7744E+06    -98.2276E+06     8.95525E+06     692.994E+03    -223.555E-03     447.548E-03    -223.993E-03     30.4104E-03    -223.788E-03     447.166E-03    -223.707E-03     30.1725E-03
             758     7.91580E-03     122.998E-03    -60.1545E+06    -75.2378E+06     20.5214E+06     846.628E+03    -223.521E-03     447.498E-03    -223.977E-03     32.5479E-03    -223.777E-03     447.214E-03    -223.678E-03     31.9585E-03
             759     8.63565E-03     123.048E-03    -52.8266E+06    -49.6762E+06     31.4600E+06     1.16107E+06    -223.470E-03     447.424E-03    -223.955E-03     34.4671E-03    -223.756E-03     447.256E-03    -223.649E-03     33.4629E-03
             760     9.35558E-03     123.100E-03    -45.7160E+06    -19.4817E+06     42.3869E+06     1.75181E+06    -223.380E-03     447.305E-03    -223.925E-03     36.1496E-03    -223.709E-03     447.279E-03    -223.618E-03     34.6687E-03
             761     10.0756E-03     123.153E-03    -38.6426E+06     19.8692E+06     54.1848E+06     2.98777E+06    -223.241E-03     447.125E-03    -223.884E-03     37.4643E-03    -223.630E-03     447.290E-03    -223.586E-03     35.4576E-03
             762     10.7956E-03     123.207E-03    -31.7756E+06     67.4530E+06     66.8459E+06     4.18890E+06    -223.053E-03     446.886E-03    -223.833E-03     38.1625E-03    -223.520E-03     447.286E-03    -223.551E-03     35.5781E-03
             763     11.5158E-03     123.261E-03    -25.4275E+06     95.2948E+06     77.9948E+06     4.22140E+06    -222.906E-03     446.708E-03    -223.802E-03     37.9251E-03    -223.422E-03     447.246E-03    -223.514E-03     34.7327E-03
             764     12.2359E-03     123.312E-03    -19.3267E+06     99.9249E+06     88.9745E+06     3.42936E+06    -222.802E-03     446.608E-03    -223.806E-03     36.4001E-03    -223.329E-03     447.163E-03    -223.478E-03     32.6383E-03
             765     12.9561E-03     123.359E-03    -12.8973E+06     113.935E+06     105.274E+06     2.29392E+06    -222.608E-03     446.431E-03    -223.823E-03     34.4080E-03    -223.176E-03     447.052E-03    -223.443E-03     29.8521E-03
             766     13.6764E-03     123.402E-03    -6.32800E+06     129.384E+06     117.402E+06     1.11855E+06    -222.422E-03     446.238E-03    -223.816E-03     27.0841E-03    -222.962E-03     446.874E-03    -223.408E-03     22.7093E-03
             767     719.370E-06     124.179E-03    -133.646E+06    -271.985E+06    -131.135E+06     191.610E+03    -223.957E-03     447.889E-03    -223.932E-03     3.87312E-03    -224.041E-03     446.913E-03    -224.000E-03     4.04832E-03
             768     1.43876E-03     124.188E-03    -130.055E+06    -261.058E+06    -120.707E+06     324.536E+03    -223.898E-03     447.869E-03    -223.971E-03     7.08278E-03    -223.995E-03     446.927E-03    -224.007E-03     7.39091E-03
             769     2.15819E-03     124.202E-03    -124.532E+06    -245.126E+06    -105.421E+06     413.501E+03    -223.847E-03     447.841E-03    -223.995E-03     10.4061E-03    -223.961E-03     446.949E-03    -223.986E-03     10.8284E-03
             770     2.87767E-03     124.222E-03    -117.554E+06    -225.905E+06    -87.2627E+06     469.328E+03    -223.790E-03     447.810E-03    -224.020E-03     13.6623E-03    -223.924E-03     446.978E-03    -223.959E-03     14.1623E-03
             771     3.59720E-03     124.246E-03    -109.614E+06    -205.101E+06    -68.2302E+06     499.237E+03    -223.734E-03     447.777E-03    -224.043E-03     16.8094E-03    -223.887E-03     447.010E-03    -223.927E-03     17.3398E-03
             772     4.31678E-03     124.275E-03    -101.173E+06    -183.745E+06    -49.8001E+06     501.565E+03    -223.683E-03     447.740E-03    -224.057E-03     19.8163E-03    -223.853E-03     447.043E-03    -223.893E-03     20.3221E-03
             773     5.03643E-03     124.309E-03    -92.5906E+06    -162.479E+06    -32.7642E+06     482.160E+03    -223.638E-03     447.701E-03    -224.063E-03     22.6683E-03    -223.823E-03     447.076E-03    -223.857E-03     23.0883E-03
             774     5.75613E-03     124.347E-03     -84.112E+06    -141.208E+06    -17.3517E+06     472.949E+03    -223.596E-03     447.656E-03    -224.061E-03     25.3523E-03    -223.796E-03     447.107E-03    -223.821E-03     25.6221E-03
             775     6.47588E-03     124.388E-03    -75.8859E+06    -120.170E+06    -3.48891E+06     502.185E+03    -223.554E-03     447.605E-03    -224.050E-03     27.8695E-03    -223.770E-03     447.134E-03    -223.784E-03     27.9217E-03
             776     7.19569E-03     124.433E-03    -67.9715E+06    -98.4750E+06     9.04456E+06     532.820E+03    -223.510E-03     447.543E-03    -224.033E-03     30.2220E-03    -223.744E-03     447.160E-03    -223.746E-03     29.9881E-03
             777     7.91555E-03     124.480E-03    -60.3857E+06    -75.7554E+06     20.5385E+06     639.503E+03    -223.462E-03     447.471E-03    -224.009E-03     32.3782E-03    -223.719E-03     447.185E-03    -223.709E-03     31.7914E-03
             778     8.63546E-03     124.530E-03    -53.1070E+06    -50.5503E+06     31.3638E+06     866.083E+03    -223.395E-03     447.374E-03    -223.979E-03     34.2967E-03    -223.681E-03     447.202E-03    -223.672E-03     33.2938E-03
             779     9.35543E-03     124.582E-03    -46.0759E+06    -21.1785E+06     42.1016E+06     1.34019E+06    -223.298E-03     447.240E-03    -223.942E-03     35.9782E-03    -223.625E-03     447.206E-03    -223.634E-03     34.4966E-03
             780     10.0754E-03     124.636E-03    -39.2072E+06     16.4937E+06     53.4610E+06     2.26202E+06    -223.151E-03     447.046E-03    -223.895E-03     37.3222E-03    -223.537E-03     447.196E-03    -223.595E-03     35.3100E-03
             781     10.7956E-03     124.690E-03    -32.3278E+06     64.4547E+06     66.1864E+06     3.68938E+06    -222.939E-03     446.776E-03    -223.836E-03     38.0347E-03    -223.403E-03     447.162E-03    -223.552E-03     35.4473E-03
             782     11.5158E-03     124.743E-03    -25.5772E+06     95.4166E+06     77.4649E+06     4.52530E+06    -222.772E-03     446.566E-03    -223.794E-03     37.8018E-03    -223.288E-03     447.105E-03    -223.507E-03     34.6143E-03
             783     12.2361E-03     124.794E-03    -19.1587E+06     102.092E+06     88.6044E+06     3.75783E+06    -222.663E-03     446.450E-03    -223.787E-03     36.3123E-03    -223.192E-03     447.016E-03    -223.464E-03     32.5511E-03
             784     12.9563E-03     124.841E-03    -12.8674E+06     116.331E+06     105.440E+06     2.38641E+06    -222.467E-03     446.267E-03    -223.800E-03     34.3435E-03    -223.039E-03     446.900E-03    -223.423E-03     29.7792E-03
             785     13.6768E-03     124.884E-03    -6.38428E+06     131.662E+06     118.173E+06     1.14885E+06    -222.285E-03     446.075E-03    -223.791E-03     27.0432E-03    -222.829E-03     446.722E-03    -223.381E-03     22.6622E-03
             786     719.282E-06     125.662E-03    -134.139E+06    -272.639E+06    -131.594E+06     176.767E+03    -224.077E-03     448.131E-03    -224.054E-03     3.83563E-03    -224.161E-03     447.153E-03    -224.122E-03     4.01278E-03
             787     1.43859E-03     125.671E-03    -130.498E+06    -261.601E+06    -121.063E+06     302.994E+03    -224.010E-03     448.100E-03    -224.090E-03     7.01524E-03    -224.107E-03     447.157E-03    -224.127E-03     7.32692E-03
             788     2.15794E-03     125.685E-03    -124.917E+06    -245.515E+06    -105.663E+06     389.727E+03    -223.946E-03     448.056E-03    -224.110E-03     10.3087E-03    -224.061E-03     447.163E-03    -224.101E-03     10.7359E-03
             789     2.87734E-03     125.704E-03    -117.881E+06    -226.189E+06    -87.3709E+06     432.832E+03    -223.873E-03     448.003E-03    -224.131E-03     13.5363E-03    -224.008E-03     447.170E-03    -224.069E-03     14.0421E-03
             790     3.59682E-03     125.729E-03    -109.878E+06    -205.290E+06    -68.2185E+06     443.887E+03    -223.798E-03     447.945E-03    -224.147E-03     16.6558E-03    -223.952E-03     447.178E-03    -224.031E-03     17.1925E-03
             791     4.31637E-03     125.758E-03    -101.372E+06    -183.858E+06    -49.6934E+06     433.450E+03    -223.727E-03     447.881E-03    -224.154E-03     19.6375E-03    -223.898E-03     447.183E-03    -223.989E-03     20.1500E-03
             792     5.03598E-03     125.792E-03    -92.7364E+06    -162.555E+06    -32.5945E+06     419.218E+03    -223.659E-03     447.811E-03    -224.152E-03     22.4696E-03    -223.846E-03     447.186E-03    -223.945E-03     22.8967E-03
             793     5.75567E-03     125.829E-03    -84.2283E+06    -141.332E+06    -17.1758E+06     423.984E+03    -223.593E-03     447.734E-03    -224.140E-03     25.1394E-03    -223.794E-03     447.184E-03    -223.899E-03     25.4169E-03
             794     6.47543E-03     125.870E-03    -75.9745E+06    -120.309E+06    -3.33662E+06     433.144E+03    -223.528E-03     447.648E-03    -224.120E-03     27.6491E-03    -223.744E-03     447.177E-03    -223.852E-03     27.7093E-03
             795     7.19527E-03     125.915E-03    -68.0473E+06    -98.6240E+06     9.17533E+06     459.707E+03    -223.462E-03     447.554E-03    -224.092E-03     30.0059E-03    -223.696E-03     447.170E-03    -223.805E-03     29.7797E-03
             796     7.91517E-03     125.963E-03    -60.4738E+06    -76.1725E+06     20.6259E+06     547.208E+03    -223.395E-03     447.454E-03    -224.059E-03     32.1691E-03    -223.652E-03     447.166E-03    -223.758E-03     31.5889E-03
             797     8.63513E-03     126.013E-03    -53.2355E+06    -51.2213E+06     31.3768E+06     748.950E+03    -223.311E-03     447.330E-03    -224.019E-03     34.0894E-03    -223.597E-03     447.154E-03    -223.711E-03     33.0935E-03
             798     9.35515E-03     126.064E-03    -46.2822E+06    -22.5852E+06     41.9412E+06     1.13899E+06    -223.196E-03     447.169E-03    -223.973E-03     35.7909E-03    -223.522E-03     447.128E-03    -223.663E-03     34.3156E-03
             799     10.0753E-03     126.118E-03    -39.4626E+06     14.0785E+06     53.1177E+06     1.85052E+06    -223.035E-03     446.951E-03    -223.916E-03     37.1589E-03    -223.418E-03     447.090E-03    -223.614E-03     35.1484E-03
             800     10.7955E-03     126.172E-03    -32.7297E+06     60.4683E+06     65.4468E+06     3.17075E+06    -222.819E-03     446.668E-03    -223.849E-03     37.8904E-03    -223.278E-03     447.036E-03    -223.562E-03     35.3010E-03
             801     11.5158E-03     126.225E-03    -26.1311E+06     94.3883E+06     76.5016E+06     4.23101E+06    -222.624E-03     446.416E-03    -223.792E-03     37.6726E-03    -223.140E-03     446.952E-03    -223.509E-03     34.4822E-03
             802     12.2362E-03     126.276E-03    -19.6649E+06     104.718E+06     87.6546E+06     3.72185E+06    -222.483E-03     446.254E-03    -223.771E-03     36.1878E-03    -223.016E-03     446.835E-03    -223.456E-03     32.4219E-03
             803     12.9567E-03     126.323E-03    -13.0368E+06     118.661E+06     105.000E+06     2.37913E+06    -222.283E-03     446.060E-03    -223.777E-03     34.2508E-03    -222.858E-03     446.706E-03    -223.405E-03     29.6771E-03
             804     13.6771E-03     126.366E-03    -6.36687E+06     134.040E+06     118.849E+06     1.15915E+06    -222.084E-03     445.848E-03    -223.764E-03     27.0419E-03    -222.633E-03     446.505E-03    -223.355E-03     22.6560E-03
             805     719.170E-06     127.145E-03    -134.668E+06    -273.225E+06    -132.098E+06     157.272E+03    -224.222E-03     448.425E-03    -224.203E-03     3.79536E-03    -224.308E-03     447.445E-03    -224.272E-03     3.97488E-03
             806     1.43838E-03     127.154E-03    -130.991E+06    -262.094E+06    -121.468E+06     264.383E+03    -224.147E-03     448.383E-03    -224.236E-03     6.94148E-03    -224.246E-03     447.438E-03    -224.273E-03     7.25724E-03
             807     2.15763E-03     127.168E-03    -125.353E+06    -245.870E+06    -105.929E+06     340.986E+03    -224.070E-03     448.322E-03    -224.252E-03     10.2004E-03    -224.186E-03     447.428E-03    -224.243E-03     10.6334E-03
             808     2.87695E-03     127.187E-03    -118.242E+06    -226.414E+06    -87.4901E+06     372.020E+03    -223.979E-03     448.246E-03    -224.267E-03     13.3949E-03    -224.116E-03     447.413E-03    -224.205E-03     13.9078E-03
             809     3.59635E-03     127.212E-03    -110.163E+06    -205.415E+06    -68.2087E+06     363.506E+03    -223.884E-03     448.160E-03    -224.276E-03     16.4842E-03    -224.039E-03     447.393E-03    -224.159E-03     17.0289E-03
             810     4.31584E-03     127.241E-03    -101.586E+06    -183.924E+06    -49.5981E+06     334.689E+03    -223.789E-03     448.064E-03    -224.275E-03     19.4407E-03    -223.961E-03     447.366E-03    -224.109E-03     19.9619E-03
             811     5.03542E-03     127.274E-03    -92.8778E+06    -162.644E+06    -32.4690E+06     320.605E+03    -223.695E-03     447.959E-03    -224.264E-03     22.2524E-03    -223.882E-03     447.333E-03    -224.056E-03     22.6890E-03
             812     5.75509E-03     127.312E-03    -84.2766E+06    -141.417E+06    -17.0199E+06     313.963E+03    -223.601E-03     447.842E-03    -224.241E-03     24.9066E-03    -223.802E-03     447.292E-03    -223.999E-03     25.1939E-03
             813     6.47485E-03     127.353E-03    -75.9381E+06    -120.401E+06    -3.15093E+06     315.570E+03    -223.508E-03     447.718E-03    -224.210E-03     27.4073E-03    -223.724E-03     447.246E-03    -223.941E-03     27.4776E-03
             814     7.19470E-03     127.397E-03    -67.9380E+06     -98.808E+06     9.36118E+06     354.623E+03    -223.417E-03     447.588E-03    -224.171E-03     29.7669E-03    -223.650E-03     447.202E-03    -223.882E-03     29.5506E-03
             815     7.91464E-03     127.445E-03    -60.3062E+06    -76.5710E+06     20.8045E+06     478.475E+03    -223.325E-03     447.450E-03    -224.126E-03     31.9381E-03    -223.579E-03     447.159E-03    -223.823E-03     31.3685E-03
             816     8.63465E-03     127.495E-03    -53.0362E+06    -51.8561E+06     31.5394E+06     688.477E+03    -223.212E-03     447.286E-03    -224.074E-03     33.8633E-03    -223.496E-03     447.106E-03    -223.764E-03     32.8794E-03
             817     9.35478E-03     127.546E-03    -46.0729E+06    -23.7872E+06     42.0431E+06     1.07242E+06    -223.076E-03     447.091E-03    -224.015E-03     35.5757E-03    -223.398E-03     447.044E-03    -223.704E-03     34.1116E-03
             818     10.0750E-03     127.600E-03    -39.4146E+06     11.9656E+06     53.0246E+06     1.78372E+06    -222.902E-03     446.849E-03    -223.948E-03     36.9663E-03    -223.280E-03     446.977E-03    -223.643E-03     34.9658E-03
             819     10.7953E-03     127.654E-03    -32.8786E+06     56.7372E+06     64.9548E+06     2.99689E+06    -222.676E-03     446.546E-03    -223.870E-03     37.7299E-03    -223.129E-03     446.895E-03    -223.580E-03     35.1470E-03
             820     11.5157E-03     127.707E-03    -26.3107E+06     93.0295E+06     76.1527E+06     3.94573E+06    -222.464E-03     446.263E-03    -223.800E-03     37.5437E-03    -222.977E-03     446.793E-03    -223.516E-03     34.3532E-03
             821     12.2362E-03     127.758E-03    -19.7817E+06     107.140E+06     87.1705E+06     3.42825E+06    -222.292E-03     446.054E-03    -223.762E-03     36.0777E-03    -222.829E-03     446.648E-03    -223.453E-03     32.3028E-03
             822     12.9567E-03     127.805E-03    -13.2856E+06     121.098E+06     103.987E+06     2.08453E+06    -222.052E-03     445.806E-03    -223.754E-03     34.1542E-03    -222.631E-03     446.466E-03    -223.391E-03     29.5640E-03
             823     13.6775E-03     127.847E-03    -6.62566E+06     136.163E+06     118.991E+06     999.615E+03    -221.869E-03     445.606E-03    -223.737E-03     26.9546E-03    -222.423E-03     446.275E-03    -223.330E-03     22.5606E-03
             824     719.050E-06     128.629E-03    -135.229E+06    -273.727E+06    -132.635E+06     133.073E+03    -224.389E-03     448.762E-03    -224.373E-03     3.74993E-03    -224.476E-03     447.782E-03    -224.443E-03     3.93224E-03
             825     1.43813E-03     128.637E-03    -131.515E+06    -262.511E+06    -121.898E+06     222.940E+03    -224.306E-03     448.709E-03    -224.403E-03     6.85905E-03    -224.406E-03     447.764E-03    -224.441E-03     7.17983E-03
             826     2.15727E-03     128.651E-03    -125.821E+06    -246.150E+06    -106.227E+06     273.993E+03    -224.215E-03     448.630E-03    -224.415E-03     10.0812E-03    -224.333E-03     447.736E-03    -224.407E-03     10.5212E-03
             827     2.87649E-03     128.671E-03    -118.642E+06    -226.561E+06    -87.6621E+06     277.400E+03    -224.106E-03     448.530E-03    -224.424E-03     13.2421E-03    -224.244E-03     447.697E-03    -224.362E-03     13.7637E-03
             828     3.59580E-03     128.695E-03    -110.491E+06    -205.457E+06    -68.2738E+06     244.633E+03    -223.987E-03     448.413E-03    -224.426E-03     16.3017E-03    -224.144E-03     447.646E-03    -224.309E-03     16.8565E-03
             829     4.31522E-03     128.724E-03    -101.840E+06    -183.904E+06    -49.5788E+06     187.346E+03    -223.865E-03     448.281E-03    -224.416E-03     19.2326E-03    -224.039E-03     447.584E-03    -224.250E-03     19.7647E-03
             830     5.03475E-03     128.757E-03    -93.0499E+06    -162.657E+06    -32.3991E+06     129.538E+03    -223.742E-03     448.137E-03    -224.394E-03     22.0224E-03    -223.930E-03     447.511E-03    -224.186E-03     22.4702E-03
             831     5.75439E-03     128.795E-03    -84.3697E+06    -141.380E+06    -16.9138E+06     70.0037E+03    -223.618E-03     447.979E-03    -224.361E-03     24.6609E-03    -223.820E-03     447.428E-03    -224.118E-03     24.9594E-03
             832     6.47415E-03     128.836E-03    -75.9283E+06    -120.448E+06    -3.01443E+06     30.8702E+03    -223.495E-03     447.812E-03    -224.317E-03     27.1550E-03    -223.711E-03     447.340E-03    -224.047E-03     27.2361E-03
             833     7.19402E-03     128.880E-03    -67.8003E+06    -98.9740E+06     9.53255E+06     53.6613E+03    -223.374E-03     447.639E-03    -224.265E-03     29.5201E-03    -223.606E-03     447.252E-03    -223.976E-03     29.3142E-03
             834     7.91399E-03     128.927E-03    -60.0067E+06    -76.9955E+06     20.9953E+06     164.001E+03    -223.248E-03     447.454E-03    -224.207E-03     31.6949E-03    -223.501E-03     447.160E-03    -223.903E-03     31.1361E-03
             835     8.63408E-03     128.977E-03    -52.5490E+06    -52.5413E+06     31.7668E+06     420.545E+03    -223.105E-03     447.245E-03    -224.141E-03     33.6207E-03    -223.385E-03     447.060E-03    -223.830E-03     32.6487E-03
             836     9.35427E-03     129.028E-03    -45.4605E+06    -25.1670E+06     42.2266E+06     927.110E+03    -222.944E-03     447.013E-03    -224.069E-03     35.3484E-03    -223.261E-03     446.957E-03    -223.756E-03     33.8976E-03
             837     10.0746E-03     129.082E-03    -38.6862E+06     9.58173E+06     53.0970E+06     1.86379E+06    -222.749E-03     446.738E-03    -223.988E-03     36.7645E-03    -223.120E-03     446.851E-03    -223.681E-03     34.7796E-03
             838     10.7950E-03     129.135E-03    -32.2735E+06     53.0723E+06     64.7802E+06     3.30012E+06    -222.511E-03     446.409E-03    -223.898E-03     37.5584E-03    -222.954E-03     446.738E-03    -223.604E-03     34.9920E-03
             839     11.5156E-03     129.189E-03    -26.1667E+06     92.0223E+06     75.8668E+06     4.17439E+06    -222.274E-03     446.085E-03    -223.811E-03     37.4148E-03    -222.785E-03     446.610E-03    -223.527E-03     34.2358E-03
             840     12.2362E-03     129.240E-03    -20.0757E+06     109.990E+06     87.6108E+06     3.36928E+06    -222.099E-03     445.859E-03    -223.760E-03     35.9686E-03    -222.642E-03     446.467E-03    -223.453E-03     32.1922E-03
             841     12.9570E-03     129.286E-03    -13.5986E+06     123.606E+06     105.970E+06     1.86137E+06    -221.927E-03     445.680E-03    -223.753E-03     33.9576E-03    -222.515E-03     446.351E-03    -223.382E-03     29.3489E-03
             842     13.6777E-03     129.328E-03    -6.76659E+06     137.942E+06     121.143E+06     717.540E+03    -221.827E-03     445.560E-03    -223.734E-03     26.6335E-03    -222.386E-03     446.234E-03    -223.318E-03     22.2230E-03
             843     718.908E-06     130.113E-03    -135.858E+06    -274.148E+06    -133.236E+06     111.633E+03    -224.573E-03     449.133E-03    -224.560E-03     3.70282E-03    -224.662E-03     448.152E-03    -224.631E-03     3.88872E-03
             844     1.43786E-03     130.121E-03    -132.111E+06    -262.838E+06    -122.411E+06     178.865E+03    -224.481E-03     449.068E-03    -224.587E-03     6.77449E-03    -224.583E-03     448.122E-03    -224.626E-03     7.10161E-03
             845     2.15687E-03     130.135E-03    -126.368E+06    -246.301E+06    -106.633E+06     191.939E+03    -224.375E-03     448.969E-03    -224.594E-03     9.95968E-03    -224.495E-03     448.075E-03    -224.587E-03     10.4085E-03
             846     2.87598E-03     130.155E-03    -119.133E+06    -226.600E+06    -87.9455E+06     158.777E+03    -224.245E-03     448.842E-03    -224.597E-03     13.0862E-03    -224.385E-03     448.010E-03    -224.536E-03     13.6186E-03
             847     3.59520E-03     130.179E-03    -110.920E+06    -205.371E+06    -68.4443E+06     88.2859E+03    -224.102E-03     448.693E-03    -224.591E-03     16.1150E-03    -224.261E-03     447.927E-03    -224.474E-03     16.6821E-03
             848     4.31454E-03     130.207E-03    -102.203E+06    -183.756E+06    -49.6571E+06    -11.5314E+03    -223.952E-03     448.524E-03    -224.571E-03     19.0188E-03    -224.128E-03     447.828E-03    -224.405E-03     19.5643E-03
             849     5.03401E-03     130.241E-03    -93.3546E+06    -162.466E+06    -32.4000E+06    -131.410E+03    -223.799E-03     448.338E-03    -224.539E-03     21.7865E-03    -223.989E-03     447.713E-03    -224.330E-03     22.2480E-03
             850     5.75362E-03     130.278E-03    -84.6229E+06    -141.203E+06    -16.8820E+06    -242.481E+03    -223.643E-03     448.136E-03    -224.493E-03     24.4096E-03    -223.846E-03     447.586E-03    -224.250E-03     24.7219E-03
             851     6.47337E-03     130.319E-03    -76.1741E+06    -120.328E+06    -2.99202E+06    -325.667E+03    -223.488E-03     447.924E-03    -224.436E-03     26.8971E-03    -223.705E-03     447.452E-03    -224.166E-03     26.9916E-03
             852     7.19325E-03     130.363E-03    -68.0777E+06    -99.0628E+06     9.50817E+06    -341.077E+03    -223.333E-03     447.703E-03    -224.371E-03     29.2605E-03    -223.566E-03     447.316E-03    -224.081E-03     29.0671E-03
             853     7.91327E-03     130.410E-03    -60.3525E+06    -77.2598E+06     20.9364E+06    -270.140E+03    -223.173E-03     447.471E-03    -224.298E-03     31.4284E-03    -223.426E-03     447.175E-03    -223.994E-03     30.8813E-03
             854     8.63341E-03     130.459E-03    -52.9947E+06    -53.3993E+06     31.5781E+06    -2.47106E+03    -223.000E-03     447.218E-03    -224.219E-03     33.3438E-03    -223.280E-03     447.029E-03    -223.906E-03     32.3829E-03
             855     9.35371E-03     130.510E-03    -45.9455E+06    -26.7210E+06     41.9314E+06     586.914E+03    -222.816E-03     446.949E-03    -224.133E-03     35.0600E-03    -223.132E-03     446.885E-03    -223.818E-03     33.6192E-03
             856     10.0741E-03     130.563E-03    -39.2064E+06     6.52617E+06     52.5463E+06     1.71933E+06    -222.609E-03     446.648E-03    -224.039E-03     36.4507E-03    -222.976E-03     446.747E-03    -223.729E-03     34.4732E-03
             857     10.7947E-03     130.617E-03    -32.7048E+06     48.6725E+06     64.0337E+06     3.58896E+06    -222.368E-03     446.306E-03    -223.938E-03     37.2063E-03    -222.805E-03     446.614E-03    -223.641E-03     34.6459E-03
             858     11.5154E-03     130.670E-03    -26.3609E+06     91.4752E+06     75.5165E+06     4.62509E+06    -222.123E-03     445.959E-03    -223.836E-03     36.9932E-03    -222.633E-03     446.481E-03    -223.553E-03     33.8080E-03
             859     12.2363E-03     130.721E-03    -20.0662E+06     113.242E+06     88.5205E+06     3.66623E+06    -221.965E-03     445.742E-03    -223.777E-03     35.4918E-03    -222.514E-03     446.365E-03    -223.469E-03     31.7006E-03
             860     12.9569E-03     130.767E-03    -13.5103E+06     126.687E+06     108.877E+06     1.83756E+06    -221.851E-03     445.624E-03    -223.773E-03     33.5409E-03    -222.446E-03     446.305E-03    -223.393E-03     28.9188E-03
             861     13.6775E-03     130.809E-03    -6.61265E+06     139.711E+06     123.303E+06     444.932E+03    -221.743E-03     445.491E-03    -223.748E-03     26.4237E-03    -222.308E-03     446.171E-03    -223.325E-03     22.0021E-03
             862     718.769E-06     131.598E-03    -136.625E+06    -274.477E+06    -133.984E+06     84.4257E+03    -224.763E-03     449.517E-03    -224.754E-03     3.65802E-03    -224.854E-03     448.537E-03    -224.827E-03     3.84820E-03
             863     1.43757E-03     131.606E-03    -132.833E+06    -263.033E+06    -123.062E+06     111.904E+03    -224.662E-03     449.439E-03    -224.777E-03     6.69328E-03    -224.766E-03     448.495E-03    -224.819E-03     7.02775E-03
             864     2.15646E-03     131.620E-03    -127.033E+06    -246.323E+06    -107.137E+06     92.5557E+03    -224.541E-03     449.321E-03    -224.780E-03     9.84105E-03    -224.664E-03     448.429E-03    -224.774E-03     10.3002E-03
             865     2.87545E-03     131.639E-03    -119.731E+06    -226.490E+06    -88.2785E+06     22.3472E+03    -224.392E-03     449.169E-03    -224.777E-03     12.9317E-03    -224.535E-03     448.338E-03    -224.716E-03     13.4769E-03
             866     3.59457E-03     131.663E-03    -111.447E+06    -205.153E+06    -68.6273E+06    -83.3559E+03    -224.225E-03     448.988E-03    -224.763E-03     15.9269E-03    -224.387E-03     448.225E-03    -224.647E-03     16.5088E-03
             867     4.31383E-03     131.691E-03    -102.670E+06    -183.443E+06    -49.7245E+06    -219.960E+03    -224.048E-03     448.783E-03    -224.734E-03     18.8001E-03    -224.226E-03     448.089E-03    -224.568E-03     19.3616E-03
             868     5.03324E-03     131.724E-03    -93.7837E+06    -162.113E+06    -32.3894E+06    -367.156E+03    -223.866E-03     448.557E-03    -224.691E-03     21.5396E-03    -224.058E-03     447.935E-03    -224.482E-03     22.0179E-03
             869     5.75281E-03     131.761E-03    -85.0570E+06    -140.912E+06    -16.8380E+06    -486.494E+03    -223.681E-03     448.315E-03    -224.634E-03     24.1377E-03    -223.887E-03     447.767E-03    -224.391E-03     24.4669E-03
             870     6.47254E-03     131.802E-03    -76.6377E+06    -120.127E+06    -2.96496E+06     -547.51E+03    -223.496E-03     448.062E-03    -224.566E-03     26.6013E-03    -223.716E-03     447.591E-03    -224.295E-03     26.7123E-03
             871     7.19242E-03     131.845E-03    -68.5960E+06    -99.0119E+06     9.48252E+06    -559.342E+03    -223.312E-03     447.800E-03    -224.487E-03     28.9389E-03    -223.548E-03     447.413E-03    -224.197E-03     28.7604E-03
             872     7.91247E-03     131.892E-03    -60.9414E+06    -77.4461E+06     20.7842E+06    -484.068E+03    -223.126E-03     447.528E-03    -224.402E-03     31.0719E-03    -223.382E-03     447.232E-03    -224.098E-03     30.5377E-03
             873     8.63267E-03     131.941E-03    -53.6451E+06    -54.1868E+06     31.2110E+06    -228.073E+03    -222.933E-03     447.243E-03    -224.310E-03     32.9472E-03    -223.215E-03     447.051E-03    -223.997E-03     31.9956E-03
             874     9.35299E-03     131.992E-03    -46.6495E+06    -28.2533E+06     41.2462E+06     286.146E+03    -222.735E-03     446.947E-03    -224.212E-03     34.6278E-03    -223.051E-03     446.877E-03    -223.897E-03     33.1908E-03
             875     10.0735E-03     132.045E-03    -39.8314E+06     3.10329E+06     51.3921E+06     1.42520E+06    -222.521E-03     446.629E-03    -224.108E-03     35.9918E-03    -222.884E-03     446.713E-03    -223.798E-03     34.0127E-03
             876     10.7940E-03     132.098E-03    -33.0855E+06     43.7797E+06     62.6091E+06     3.25051E+06    -222.274E-03     446.270E-03    -223.996E-03     36.7544E-03    -222.703E-03     446.556E-03    -223.699E-03     34.1878E-03
             877     11.5147E-03     132.151E-03    -26.3549E+06     90.7339E+06     74.8501E+06     4.38139E+06    -221.999E-03     445.880E-03    -223.882E-03     36.6055E-03    -222.506E-03     446.399E-03    -223.601E-03     33.4122E-03
             878     12.2354E-03     132.202E-03    -19.6911E+06     116.415E+06     88.9055E+06     3.59248E+06    -221.779E-03     445.589E-03    -223.810E-03     35.2818E-03    -222.331E-03     446.226E-03    -223.506E-03     31.4945E-03
             879     12.9563E-03     132.248E-03    -12.9807E+06     130.043E+06     109.730E+06     1.91884E+06    -221.559E-03     445.353E-03    -223.793E-03     33.6049E-03    -222.157E-03     446.048E-03    -223.414E-03     29.0102E-03
             880     13.6773E-03     132.291E-03    -6.36736E+06     141.687E+06     123.770E+06     689.985E+03    -221.394E-03     445.144E-03    -223.751E-03     26.7060E-03    -221.960E-03     445.832E-03    -223.328E-03     22.3152E-03
             881     718.623E-06     133.083E-03    -137.350E+06    -274.645E+06    -134.682E+06     31.1358E+03    -224.951E-03     449.896E-03    -224.945E-03     3.61421E-03    -225.044E-03     448.917E-03    -225.021E-03     3.80874E-03
             882     1.43730E-03     133.091E-03    -133.501E+06    -263.056E+06    -123.606E+06     15.3965E+03    -224.842E-03     449.808E-03    -224.966E-03     6.61258E-03    -224.949E-03     448.866E-03    -225.009E-03     6.95478E-03
             883     2.15605E-03     133.105E-03    -127.616E+06    -246.222E+06    -107.477E+06    -31.1248E+03    -224.709E-03     449.674E-03    -224.965E-03     9.72093E-03    -224.834E-03     448.784E-03    -224.960E-03     10.1912E-03
             884     2.87493E-03     133.124E-03    -120.222E+06    -226.249E+06    -88.4208E+06    -115.185E+03    -224.544E-03     449.501E-03    -224.957E-03     12.7720E-03    -224.689E-03     448.672E-03    -224.897E-03     13.3313E-03
             885     3.59394E-03     133.147E-03    -111.859E+06    -204.810E+06    -68.6084E+06    -241.279E+03    -224.357E-03     449.294E-03    -224.937E-03     15.7275E-03    -224.522E-03     448.533E-03    -224.821E-03     16.3256E-03
             886     4.31311E-03     133.176E-03    -103.019E+06    -183.036E+06    -49.6082E+06    -380.299E+03    -224.159E-03     449.059E-03    -224.901E-03     18.5604E-03    -224.339E-03     448.368E-03    -224.734E-03     19.1396E-03
             887     5.03245E-03     133.208E-03    -94.0965E+06    -161.695E+06    -32.2463E+06    -515.352E+03    -223.954E-03     448.803E-03    -224.849E-03     21.2592E-03    -224.148E-03     448.183E-03    -224.639E-03     21.7561E-03
             888     5.75196E-03     133.245E-03    -85.3324E+06    -140.571E+06    -16.7307E+06    -626.644E+03    -223.745E-03     448.528E-03    -224.783E-03     23.8185E-03    -223.953E-03     447.982E-03    -224.539E-03     24.1661E-03
             889     6.47164E-03     133.285E-03    -76.8653E+06    -119.925E+06    -2.94774E+06    -685.824E+03    -223.538E-03     448.242E-03    -224.704E-03     26.2475E-03    -223.758E-03     447.772E-03    -224.434E-03     26.3760E-03
             890     7.19149E-03     133.328E-03    -68.7462E+06    -98.8591E+06     9.42018E+06    -714.260E+03    -223.328E-03     447.944E-03    -224.616E-03     28.5573E-03    -223.564E-03     447.558E-03    -224.325E-03     28.3954E-03
             891     7.91152E-03     133.375E-03    -60.9848E+06    -77.6138E+06     20.6306E+06    -665.326E+03    -223.116E-03     447.635E-03    -224.519E-03     30.6730E-03    -223.371E-03     447.338E-03    -224.215E-03     30.1547E-03
             892     8.63169E-03     133.423E-03    -53.5513E+06    -54.7439E+06     30.9872E+06    -493.305E+03    -222.894E-03     447.310E-03    -224.416E-03     32.5585E-03    -223.173E-03     447.115E-03    -224.104E-03     31.6222E-03
             893     9.35203E-03     133.474E-03    -46.4124E+06    -29.6400E+06     40.8707E+06    -53.6787E+03    -222.662E-03     446.969E-03    -224.306E-03     34.2896E-03    -222.973E-03     446.891E-03    -223.992E-03     32.8689E-03
             894     10.0725E-03     133.526E-03    -39.5099E+06      55.717E+03     50.6953E+06     850.778E+03    -222.407E-03     446.597E-03    -224.189E-03     35.7569E-03    -222.762E-03     446.665E-03    -223.879E-03     33.7947E-03
             895     10.7932E-03     133.579E-03    -32.7459E+06     38.9895E+06     61.4629E+06     2.51874E+06    -222.103E-03     446.166E-03    -224.063E-03     36.6837E-03    -222.521E-03     446.428E-03    -223.765E-03     34.1376E-03
             896     11.5140E-03     133.632E-03    -26.1575E+06     89.4616E+06     74.1544E+06     3.79070E+06    -221.736E-03     445.664E-03    -223.927E-03     36.7361E-03    -222.238E-03     446.175E-03    -223.649E-03     33.5724E-03
             897     12.2352E-03     133.683E-03    -19.7109E+06     119.232E+06     88.7512E+06     3.31267E+06    -221.428E-03     445.259E-03    -223.831E-03     35.5720E-03    -221.982E-03     445.910E-03    -223.532E-03     31.8198E-03
             898     12.9564E-03     133.729E-03    -13.2465E+06     132.457E+06     109.767E+06     2.17597E+06    -221.171E-03     444.966E-03    -223.794E-03     33.9229E-03    -221.774E-03     445.673E-03    -223.419E-03     29.3644E-03
             899     13.6778E-03     133.771E-03    -6.53954E+06     143.674E+06     124.607E+06     1.19755E+06    -221.035E-03     444.771E-03    -223.736E-03     26.9625E-03    -221.606E-03     445.468E-03    -223.312E-03     22.6069E-03
             900     718.497E-06     134.569E-03    -137.821E+06    -274.615E+06    -135.115E+06    -21.8787E+03    -225.131E-03     450.260E-03    -225.129E-03     3.56814E-03    -225.226E-03     449.283E-03    -225.207E-03     3.76710E-03
             901     1.43703E-03     134.577E-03    -133.939E+06    -262.917E+06    -123.910E+06    -65.4590E+03    -225.018E-03     450.166E-03    -225.147E-03     6.52724E-03    -225.127E-03     449.225E-03    -225.192E-03     6.87754E-03
             902     2.15567E-03     134.591E-03    -128.010E+06    -246.010E+06    -107.637E+06    -130.758E+03    -224.876E-03     450.021E-03    -225.144E-03     9.59359E-03    -225.004E-03     449.133E-03    -225.140E-03     10.0755E-03
             903     2.87442E-03     134.609E-03    -120.567E+06    -225.910E+06    -88.4817E+06    -230.673E+03    -224.699E-03     449.832E-03    -225.133E-03     12.6019E-03    -224.847E-03     449.007E-03    -225.073E-03     13.1760E-03
             904     3.59332E-03     134.632E-03    -112.152E+06    -204.368E+06    -68.6131E+06    -368.984E+03    -224.499E-03     449.607E-03    -225.108E-03     15.5153E-03    -224.665E-03     448.849E-03    -224.992E-03     16.1307E-03
             905     4.31238E-03     134.660E-03    -103.264E+06    -182.591E+06    -49.5962E+06    -515.363E+03    -224.284E-03     449.351E-03    -225.067E-03     18.3090E-03    -224.466E-03     448.662E-03    -224.900E-03     18.9077E-03
             906     5.03163E-03     134.693E-03    -94.2769E+06    -161.234E+06    -32.2531E+06    -656.816E+03    -224.059E-03     449.068E-03    -225.009E-03     20.9765E-03    -224.255E-03     448.450E-03    -224.799E-03     21.4946E-03
             907     5.75105E-03     134.729E-03    -85.4527E+06    -140.161E+06    -16.7796E+06    -793.991E+03    -223.827E-03     448.761E-03    -224.934E-03     23.5182E-03    -224.035E-03     448.217E-03    -224.691E-03     23.8886E-03
             908     6.47067E-03     134.768E-03    -76.9265E+06    -119.642E+06    -3.03240E+06    -897.419E+03    -223.588E-03     448.435E-03    -224.847E-03     25.9482E-03    -223.809E-03     447.967E-03    -224.577E-03     26.1012E-03
             909     7.19047E-03     134.811E-03    -68.7740E+06    -98.6172E+06     9.32140E+06    -962.423E+03    -223.339E-03     448.087E-03    -224.748E-03     28.2812E-03    -223.576E-03     447.702E-03    -224.458E-03     28.1469E-03
             910     7.91048E-03     134.857E-03    -61.0103E+06    -77.6436E+06     20.5300E+06    -969.062E+03    -223.080E-03     447.719E-03    -224.639E-03     30.4456E-03    -223.334E-03     447.421E-03    -224.335E-03     29.9585E-03
             911     8.63070E-03     134.906E-03    -53.6394E+06    -55.0913E+06     30.8735E+06    -845.859E+03    -222.802E-03     447.323E-03    -224.521E-03     32.4068E-03    -223.080E-03     447.126E-03    -224.209E-03     31.5061E-03
             912     9.35112E-03     134.956E-03    -46.6266E+06    -30.8374E+06     40.6512E+06    -476.504E+03    -222.508E-03     446.903E-03    -224.395E-03     34.2333E-03    -222.817E-03     446.819E-03    -224.079E-03     32.8515E-03
             913     10.0718E-03     135.008E-03    -39.8813E+06    -2.22256E+06     50.3058E+06     267.675E+03    -222.186E-03     446.445E-03    -224.259E-03     35.8009E-03    -222.538E-03     446.501E-03    -223.946E-03     33.8771E-03
             914     10.7927E-03     135.060E-03    -33.2505E+06     34.5968E+06     60.4927E+06     1.64455E+06    -221.827E-03     445.938E-03    -224.111E-03     36.8040E-03    -222.238E-03     446.179E-03    -223.810E-03     34.2893E-03
             915     11.5139E-03     135.113E-03    -26.6353E+06     87.2380E+06     73.3608E+06     3.18639E+06    -221.415E-03     445.366E-03    -223.951E-03     36.8585E-03    -221.914E-03     445.867E-03    -223.672E-03     33.7203E-03
             916     12.2352E-03     135.163E-03    -20.2300E+06     121.143E+06     88.0960E+06     3.39837E+06    -221.111E-03     444.941E-03    -223.830E-03     35.6241E-03    -221.670E-03     445.602E-03    -223.535E-03     31.8916E-03
             917     12.9566E-03     135.209E-03    -13.6746E+06     134.234E+06     108.910E+06     2.46959E+06    -220.916E-03     444.692E-03    -223.776E-03     33.8956E-03    -221.522E-03     445.410E-03    -223.406E-03     29.3424E-03
             918     13.6780E-03     135.251E-03    -6.82320E+06     145.828E+06     125.061E+06     1.34972E+06    -220.800E-03     444.511E-03    -223.711E-03     26.9330E-03    -221.376E-03     445.218E-03    -223.287E-03     22.5817E-03
             919     718.364E-06     136.055E-03    -138.335E+06    -274.433E+06    -135.614E+06    -54.0839E+03    -225.297E-03     450.596E-03    -225.299E-03     3.52520E-03    -225.394E-03     449.621E-03    -225.378E-03     3.72923E-03
             920     1.43679E-03     136.063E-03    -134.439E+06    -262.671E+06    -124.357E+06    -112.612E+03    -225.182E-03     450.497E-03    -225.315E-03     6.44934E-03    -225.293E-03     449.559E-03    -225.361E-03     6.80898E-03
             921     2.15529E-03     136.077E-03    -128.480E+06    -245.687E+06    -108.015E+06    -202.649E+03    -225.034E-03     450.344E-03    -225.310E-03     9.48124E-03    -225.163E-03     449.458E-03    -225.308E-03     9.97672E-03
             922     2.87393E-03     136.095E-03    -120.999E+06    -225.459E+06    -88.8023E+06    -337.116E+03    -224.847E-03     450.143E-03    -225.296E-03     12.4596E-03    -224.997E-03     449.320E-03    -225.238E-03     13.0511E-03
             923     3.59271E-03     136.118E-03    -112.538E+06    -203.812E+06    -68.8878E+06    -517.995E+03    -224.632E-03     449.899E-03    -225.267E-03     15.3503E-03    -224.801E-03     449.145E-03    -225.153E-03     15.9870E-03
             924     4.31168E-03     136.146E-03    -103.586E+06    -182.041E+06    -49.8172E+06    -710.264E+03    -224.397E-03     449.618E-03    -225.220E-03     18.1326E-03    -224.582E-03     448.933E-03    -225.055E-03     18.7562E-03
             925     5.03083E-03     136.177E-03    -94.5376E+06    -160.680E+06    -32.4077E+06    -890.646E+03    -224.146E-03     449.302E-03    -225.155E-03     20.8028E-03    -224.344E-03     448.687E-03    -224.947E-03     21.3499E-03
             926     5.75020E-03     136.213E-03    -85.6537E+06    -139.645E+06    -16.8520E+06    -1.05075E+06    -223.879E-03     448.952E-03    -225.072E-03     23.3625E-03    -224.090E-03     448.411E-03    -224.830E-03     23.7661E-03
             927     6.46978E-03     136.252E-03    -77.0974E+06    -119.232E+06    -3.03727E+06    -1.17243E+06    -223.598E-03     448.572E-03    -224.974E-03     25.8233E-03    -223.820E-03     448.106E-03    -224.704E-03     26.0138E-03
             928     7.18960E-03     136.295E-03    -68.9292E+06    -98.3059E+06     9.35171E+06    -1.24206E+06    -223.299E-03     448.160E-03    -224.861E-03     28.1952E-03    -223.536E-03     447.776E-03    -224.572E-03     28.1024E-03
             929     7.90967E-03     136.340E-03    -61.1831E+06    -77.5569E+06     20.5406E+06    -1.22419E+06    -222.985E-03     447.721E-03    -224.736E-03     30.3972E-03    -223.239E-03     447.423E-03    -224.432E-03     29.9549E-03
             930     8.63000E-03     136.388E-03    -53.8360E+06    -55.3383E+06     30.7960E+06    -1.09052E+06    -222.652E-03     447.252E-03    -224.600E-03     32.3871E-03    -222.929E-03     447.052E-03    -224.287E-03     31.5322E-03
             931     9.35059E-03     136.438E-03    -46.8403E+06    -31.7958E+06     40.4030E+06    -739.180E+03    -222.308E-03     446.762E-03    -224.454E-03     34.2223E-03    -222.615E-03     446.673E-03    -224.138E-03     32.8837E-03
             932     10.0714E-03     136.489E-03    -40.1137E+06    -3.90539E+06     49.8503E+06    -143.891E+03    -221.955E-03     446.253E-03    -224.298E-03     35.7736E-03    -222.303E-03     446.301E-03    -223.985E-03     33.8848E-03
             933     10.7925E-03     136.541E-03    -33.5328E+06     31.0825E+06     59.5948E+06     932.395E+03    -221.597E-03     445.730E-03    -224.133E-03     36.7427E-03    -222.002E-03     445.953E-03    -223.831E-03     34.2488E-03
             934     11.5138E-03     136.593E-03    -26.9491E+06     84.0424E+06     72.3630E+06     2.38551E+06    -221.210E-03     445.167E-03    -223.957E-03     36.7664E-03    -221.703E-03     445.653E-03    -223.678E-03     33.6361E-03
             935     12.2353E-03     136.643E-03    -20.2352E+06     121.529E+06     87.1527E+06     3.13595E+06    -220.933E-03     444.751E-03    -223.818E-03     35.5346E-03    -221.490E-03     445.415E-03    -223.529E-03     31.8099E-03
             936     12.9568E-03     136.689E-03    -13.5447E+06     136.202E+06     107.976E+06     2.58043E+06    -220.742E-03     444.494E-03    -223.752E-03     33.8256E-03    -221.349E-03     445.223E-03    -223.390E-03     29.2734E-03
             937     13.6784E-03     136.730E-03    -6.70379E+06     148.244E+06     125.350E+06     1.38285E+06    -220.605E-03     444.289E-03    -223.685E-03     26.9106E-03    -221.185E-03     445.008E-03    -223.263E-03     22.5570E-03
             938     718.264E-06     137.542E-03    -139.130E+06    -274.120E+06    -136.403E+06    -94.1263E+03    -225.430E-03     450.865E-03    -225.436E-03     3.50736E-03    -225.530E-03     449.894E-03    -225.518E-03     3.71770E-03
             939     1.43657E-03     137.550E-03    -135.191E+06    -262.300E+06    -125.078E+06    -193.763E+03    -225.311E-03     450.759E-03    -225.449E-03     6.41923E-03    -225.425E-03     449.825E-03    -225.498E-03     6.79031E-03
             940     2.15498E-03     137.563E-03    -129.167E+06    -245.200E+06    -108.639E+06    -335.545E+03    -225.154E-03     450.595E-03    -225.441E-03     9.44288E-03    -225.287E-03     449.714E-03    -225.442E-03     9.95510E-03
             941     2.87352E-03     137.581E-03      -121.6E+06    -224.838E+06    -89.2879E+06    -527.805E+03    -224.954E-03     450.377E-03    -225.423E-03     12.4192E-03    -225.107E-03     449.559E-03    -225.367E-03     13.0327E-03
             942     3.59223E-03     137.604E-03    -113.044E+06    -203.082E+06    -69.2126E+06    -757.324E+03    -224.721E-03     450.110E-03    -225.389E-03     15.3147E-03    -224.893E-03     449.360E-03    -225.277E-03     15.9785E-03
             943     4.31113E-03     137.631E-03    -104.013E+06    -181.307E+06    -49.9975E+06    -998.245E+03    -224.463E-03     449.799E-03    -225.336E-03     18.1068E-03    -224.650E-03     449.118E-03    -225.172E-03     18.7624E-03
             944     5.03025E-03     137.662E-03    -94.8879E+06    -159.987E+06    -32.4846E+06    -1.21370E+06    -224.183E-03     449.445E-03    -225.262E-03     20.7895E-03    -224.384E-03     448.835E-03    -225.055E-03     21.3729E-03
             945     5.74960E-03     137.698E-03    -85.9369E+06    -139.015E+06    -16.8809E+06    -1.39184E+06    -223.883E-03     449.051E-03    -225.169E-03     23.3605E-03    -224.094E-03     448.513E-03    -224.927E-03     23.8040E-03
             946     6.46921E-03     137.736E-03    -77.3007E+06    -118.727E+06    -3.06483E+06    -1.51802E+06    -223.564E-03     448.622E-03    -225.058E-03     25.8261E-03    -223.787E-03     448.158E-03    -224.789E-03     26.0590E-03
             947     7.18908E-03     137.778E-03    -69.0623E+06    -97.9520E+06     9.29962E+06    -1.57356E+06    -223.227E-03     448.158E-03    -224.931E-03     28.1914E-03    -223.464E-03     447.775E-03    -224.642E-03     28.1422E-03
             948     7.90923E-03     137.823E-03    -61.2254E+06    -77.4686E+06     20.4429E+06    -1.53418E+06    -222.878E-03     447.670E-03    -224.792E-03     30.3720E-03    -223.131E-03     447.371E-03    -224.488E-03     29.9729E-03
             949     8.62965E-03     137.870E-03    -53.7878E+06    -55.5167E+06     30.6583E+06    -1.38545E+06    -222.517E-03     447.157E-03    -224.640E-03     32.3268E-03    -222.792E-03     446.955E-03    -224.329E-03     31.5132E-03
             950     9.35034E-03     137.919E-03    -46.6985E+06    -32.5488E+06     40.1962E+06    -1.09262E+06    -222.159E-03     446.640E-03    -224.481E-03     34.1179E-03    -222.462E-03     446.545E-03    -224.165E-03     32.8155E-03
             951     10.0713E-03     137.970E-03    -39.8980E+06    -5.21087E+06     49.5466E+06    -575.409E+03    -221.807E-03     446.119E-03    -224.312E-03     35.6338E-03    -222.150E-03     446.159E-03    -223.999E-03     33.7757E-03
             952     10.7925E-03     138.021E-03    -33.2950E+06     28.4822E+06     59.0990E+06     249.397E+03    -221.468E-03     445.606E-03    -224.137E-03     36.5981E-03    -221.866E-03     445.815E-03    -223.835E-03     34.1249E-03
             953     11.5139E-03     138.073E-03    -26.7707E+06     80.4304E+06     71.7357E+06     1.65455E+06    -221.103E-03     445.057E-03    -223.954E-03     36.6539E-03    -221.588E-03     445.524E-03    -223.673E-03     33.5362E-03
             954     12.2354E-03     138.122E-03    -20.4361E+06     120.640E+06     86.0255E+06     2.75209E+06    -220.810E-03     444.613E-03    -223.803E-03     35.4620E-03    -221.364E-03     445.273E-03    -223.518E-03     31.7462E-03
             955     12.9571E-03     138.168E-03    -13.8636E+06     138.112E+06     106.772E+06     2.49059E+06    -220.584E-03     444.309E-03    -223.726E-03     33.7694E-03    -221.193E-03     445.050E-03    -223.372E-03     29.2141E-03
             956     13.6787E-03     138.210E-03    -6.95530E+06     150.747E+06     125.480E+06     1.37153E+06    -220.441E-03     444.098E-03    -223.657E-03     26.8979E-03    -221.027E-03     444.830E-03    -223.238E-03     22.5395E-03
             957     718.197E-06     139.029E-03    -140.090E+06    -273.588E+06    -137.348E+06    -174.139E+03    -225.490E-03     450.990E-03    -225.500E-03     3.53278E-03    -225.594E-03     450.025E-03    -225.587E-03     3.75026E-03
             958     1.43646E-03     139.037E-03    -136.095E+06    -261.677E+06    -125.900E+06    -343.334E+03    -225.367E-03     450.877E-03    -225.510E-03     6.46565E-03    -225.485E-03     449.949E-03    -225.563E-03     6.84961E-03
             959     2.15482E-03     139.050E-03    -129.990E+06    -244.442E+06    -109.310E+06    -568.860E+03    -225.201E-03     450.701E-03    -225.500E-03     9.51035E-03    -225.338E-03     449.826E-03    -225.504E-03     10.0411E-03
             960     2.87333E-03     139.068E-03    -122.330E+06    -223.959E+06    -89.7994E+06    -832.234E+03    -224.990E-03     450.468E-03    -225.478E-03     12.5047E-03    -225.147E-03     449.656E-03    -225.425E-03     13.1420E-03
             961     3.59201E-03     139.090E-03    -113.675E+06    -202.131E+06    -69.5763E+06    -1.11677E+06    -224.744E-03     450.183E-03    -225.439E-03     15.4120E-03    -224.919E-03     449.439E-03    -225.329E-03     16.1045E-03
             962     4.31091E-03     139.117E-03    -104.530E+06    -180.353E+06    -50.2389E+06    -1.39760E+06    -224.471E-03     449.852E-03    -225.381E-03     18.2078E-03    -224.662E-03     449.177E-03    -225.219E-03     18.8961E-03
             963     5.03002E-03     139.148E-03    -95.2902E+06    -159.079E+06    -32.6540E+06    -1.66820E+06    -224.175E-03     449.476E-03    -225.301E-03     20.8838E-03    -224.378E-03     448.871E-03    -225.095E-03     21.5026E-03
             964     5.74940E-03     139.182E-03    -86.2093E+06    -138.235E+06    -17.0224E+06    -1.88896E+06    -223.858E-03     449.058E-03    -225.200E-03     23.4360E-03    -224.071E-03     448.524E-03    -224.960E-03     23.9167E-03
             965     6.46903E-03     139.220E-03    -77.4547E+06    -118.085E+06    -3.20413E+06    -2.04356E+06    -223.523E-03     448.605E-03    -225.082E-03     25.8706E-03    -223.747E-03     448.144E-03    -224.814E-03     26.1415E-03
             966     7.18895E-03     139.261E-03    -69.0795E+06    -97.5233E+06     9.15761E+06    -2.12013E+06    -223.172E-03     448.119E-03    -224.948E-03     28.1943E-03    -223.408E-03     447.738E-03    -224.660E-03     28.1830E-03
             967     7.90914E-03     139.306E-03    -61.1189E+06    -77.3262E+06     20.2950E+06    -2.08226E+06    -222.812E-03     447.614E-03    -224.801E-03     30.3247E-03    -223.064E-03     447.315E-03    -224.499E-03     29.9629E-03
             968     8.62962E-03     139.352E-03    -53.5480E+06    -55.6079E+06     30.5263E+06    -1.94805E+06    -222.447E-03     447.090E-03    -224.644E-03     32.2265E-03    -222.719E-03     446.887E-03    -224.333E-03     31.4489E-03
             969     9.35037E-03     139.400E-03    -46.3468E+06    -33.1114E+06     40.0544E+06    -1.67255E+06    -222.090E-03     446.569E-03    -224.479E-03     33.9736E-03    -222.389E-03     446.470E-03    -224.163E-03     32.7053E-03
             970     10.0714E-03     139.450E-03    -39.4483E+06    -6.23940E+06     49.3675E+06    -1.24476E+06    -221.741E-03     446.047E-03    -224.306E-03     35.4702E-03    -222.079E-03     446.080E-03    -223.993E-03     33.6426E-03
             971     10.7926E-03     139.501E-03    -32.8487E+06     26.2074E+06     58.7354E+06    -385.826E+03    -221.406E-03     445.533E-03    -224.128E-03     36.4541E-03    -221.796E-03     445.729E-03    -223.824E-03     34.0074E-03
             972     11.5140E-03     139.552E-03    -26.6163E+06     76.0721E+06     70.8926E+06     1.37898E+06    -221.036E-03     444.977E-03    -223.942E-03     36.5590E-03    -221.511E-03     445.423E-03    -223.659E-03     33.4654E-03
             973     12.2357E-03     139.602E-03    -20.4114E+06     119.482E+06     84.8447E+06     2.71910E+06    -220.717E-03     444.497E-03    -223.780E-03     35.4158E-03    -221.266E-03     445.152E-03    -223.500E-03     31.7150E-03
             974     12.9573E-03     139.647E-03    -13.9137E+06     140.291E+06     105.233E+06     2.19626E+06    -220.478E-03     444.170E-03    -223.692E-03     33.7445E-03    -221.089E-03     444.924E-03    -223.349E-03     29.1819E-03
             975     13.6792E-03     139.689E-03    -6.88940E+06     152.783E+06     125.021E+06     1.08763E+06    -220.343E-03     443.967E-03    -223.624E-03     26.9063E-03    -220.930E-03     444.710E-03    -223.210E-03     22.5387E-03
             976     718.236E-06     140.516E-03    -141.192E+06    -272.676E+06    -138.422E+06    -292.554E+03    -225.438E-03     450.890E-03    -225.452E-03     3.59049E-03    -225.548E-03     449.932E-03    -225.544E-03     3.81429E-03
             977     1.43652E-03     140.524E-03    -137.129E+06    -260.670E+06    -126.845E+06    -567.267E+03    -225.317E-03     450.777E-03    -225.460E-03     6.56616E-03    -225.441E-03     449.856E-03    -225.518E-03     6.96126E-03
             978     2.15492E-03     140.537E-03    -130.932E+06    -243.292E+06    -110.090E+06    -890.645E+03    -225.152E-03     450.603E-03    -225.451E-03     9.64784E-03    -225.294E-03     449.736E-03    -225.458E-03     10.1945E-03
             979     2.87345E-03     140.554E-03    -123.166E+06    -222.734E+06    -90.4201E+06    -1.24738E+06    -224.943E-03     450.372E-03    -225.429E-03     12.6671E-03    -225.105E-03     449.568E-03    -225.380E-03     13.3247E-03
             980     3.59217E-03     140.576E-03    -114.392E+06    -200.862E+06    -70.0783E+06    -1.61222E+06    -224.700E-03     450.092E-03    -225.392E-03     15.5852E-03    -224.880E-03     449.356E-03    -225.285E-03     16.3017E-03
             981     4.31109E-03     140.603E-03    -105.119E+06    -179.074E+06    -50.6528E+06    -1.98931E+06    -224.432E-03     449.766E-03    -225.334E-03     18.3769E-03    -224.626E-03     449.098E-03    -225.175E-03     19.0920E-03
             982     5.03024E-03     140.633E-03    -95.7343E+06    -157.863E+06    -32.9799E+06    -2.34139E+06    -224.141E-03     449.396E-03    -225.255E-03     21.0336E-03    -224.347E-03     448.798E-03    -225.052E-03     21.6813E-03
             983     5.74963E-03     140.667E-03    -86.5211E+06    -137.184E+06    -17.2862E+06    -2.63746E+06    -223.830E-03     448.986E-03    -225.156E-03     23.5522E-03    -224.046E-03     448.458E-03    -224.918E-03     24.0634E-03
             984     6.46929E-03     140.704E-03    -77.6218E+06    -117.233E+06    -3.44356E+06    -2.84452E+06    -223.501E-03     448.542E-03    -225.040E-03     25.9416E-03    -223.726E-03     448.085E-03    -224.775E-03     26.2442E-03
             985     7.18921E-03     140.745E-03    -69.1281E+06    -96.8953E+06     8.91580E+06    -2.95871E+06    -223.158E-03     448.066E-03    -224.908E-03     28.2118E-03    -223.394E-03     447.687E-03    -224.623E-03     28.2331E-03
             986     7.90942E-03     140.788E-03    -61.0367E+06    -77.0602E+06     20.0379E+06    -2.94974E+06    -222.807E-03     447.571E-03    -224.764E-03     30.2842E-03    -223.057E-03     447.273E-03    -224.464E-03     29.9556E-03
             987     8.62989E-03     140.834E-03    -53.3652E+06    -55.6021E+06     30.2670E+06    -2.79681E+06    -222.447E-03     447.057E-03    -224.610E-03     32.1337E-03    -222.717E-03     446.852E-03    -224.300E-03     31.3904E-03
             988     9.35063E-03     140.882E-03    -46.0761E+06    -33.5032E+06     39.7877E+06    -2.53528E+06    -222.092E-03     446.540E-03    -224.448E-03     33.8438E-03    -222.387E-03     446.437E-03    -224.133E-03     32.6096E-03
             989     10.0716E-03     140.931E-03    -39.1781E+06    -7.21984E+06     49.0084E+06    -2.02332E+06    -221.738E-03     446.015E-03    -224.277E-03     35.3296E-03    -222.070E-03     446.041E-03    -223.965E-03     33.5357E-03
             990     10.7928E-03     140.982E-03    -32.6992E+06     23.5051E+06     58.0268E+06    -914.527E+03    -221.390E-03     445.491E-03    -224.101E-03     36.3312E-03    -221.773E-03     445.673E-03    -223.797E-03     33.9167E-03
             991     11.5143E-03     141.032E-03    -26.3907E+06     70.9773E+06     69.6965E+06     1.14080E+06    -221.010E-03     444.925E-03    -223.916E-03     36.4701E-03    -221.473E-03     445.345E-03    -223.632E-03     33.4029E-03
             992     12.2359E-03     141.081E-03    -20.1815E+06     118.382E+06     83.5375E+06      2.5989E+06    -220.672E-03     444.419E-03    -223.747E-03     35.3594E-03    -221.216E-03     445.069E-03    -223.472E-03     31.6717E-03
             993     12.9578E-03     141.126E-03    -13.7826E+06     143.015E+06     103.623E+06     2.05669E+06    -220.431E-03     444.082E-03    -223.651E-03     33.7150E-03    -221.042E-03     444.851E-03    -223.320E-03     29.1459E-03
             994     13.6795E-03     141.168E-03    -7.08868E+06     154.550E+06     124.218E+06     841.836E+03    -220.308E-03     443.896E-03    -223.588E-03     26.9341E-03    -220.898E-03     444.650E-03    -223.181E-03     22.5562E-03
             995     718.354E-06     142.003E-03    -142.427E+06    -271.231E+06    -139.644E+06    -454.162E+03    -225.258E-03     450.529E-03    -225.271E-03     3.66049E-03    -225.374E-03     449.581E-03    -225.369E-03     3.88833E-03
             996     1.43678E-03     142.011E-03    -138.312E+06    -259.124E+06    -127.950E+06    -864.575E+03    -225.147E-03     450.429E-03    -225.282E-03     6.68839E-03    -225.277E-03     449.520E-03    -225.346E-03     7.09070E-03
             997     2.15528E-03     142.024E-03    -132.025E+06    -241.646E+06    -111.047E+06    -1.32339E+06    -224.998E-03     450.276E-03    -225.278E-03     9.81579E-03    -225.147E-03     449.420E-03    -225.291E-03     10.3730E-03
             998     2.87392E-03     142.041E-03    -124.150E+06    -221.043E+06    -91.2227E+06    -1.79423E+06    -224.809E-03     450.074E-03    -225.264E-03     12.8678E-03    -224.977E-03     449.281E-03    -225.220E-03     13.5392E-03
             999     3.59271E-03     142.062E-03    -115.255E+06    -199.103E+06    -70.7503E+06    -2.29426E+06    -224.591E-03     449.826E-03    -225.235E-03     15.8028E-03    -224.777E-03     449.101E-03    -225.133E-03     16.5360E-03
            1000     4.31171E-03     142.088E-03    -105.850E+06    -177.319E+06    -51.2269E+06    -2.79913E+06    -224.350E-03     449.537E-03    -225.187E-03     18.5939E-03    -224.550E-03     448.880E-03    -225.033E-03     19.3283E-03
            1001     5.03090E-03     142.118E-03    -96.3440E+06    -156.219E+06    -33.4822E+06    -3.26979E+06    -224.088E-03     449.208E-03    -225.120E-03     21.2314E-03    -224.299E-03     448.619E-03    -224.921E-03     21.9011E-03
            1002     5.75033E-03     142.151E-03    -86.9984E+06    -135.759E+06    -17.7396E+06    -3.65088E+06    -223.807E-03     448.840E-03    -225.033E-03     23.7145E-03    -224.026E-03     448.320E-03    -224.799E-03     24.2500E-03
            1003     6.46998E-03     142.188E-03    -77.9880E+06    -116.041E+06    -3.87709E+06    -3.93635E+06    -223.507E-03     448.437E-03    -224.930E-03     26.0552E-03    -223.734E-03     447.986E-03    -224.668E-03     26.3843E-03
            1004     7.18990E-03     142.228E-03    -69.3607E+06    -96.0057E+06     8.46591E+06    -4.10456E+06    -223.189E-03     447.999E-03    -224.810E-03     28.2694E-03    -223.426E-03     447.625E-03    -224.528E-03     28.3193E-03
            1005     7.91006E-03     142.271E-03    -61.1684E+06    -76.5689E+06     19.5383E+06    -4.11970E+06    -222.858E-03     447.537E-03    -224.679E-03     30.2841E-03    -223.107E-03     447.241E-03    -224.382E-03     29.9862E-03
            1006     8.63050E-03     142.316E-03    -53.3783E+06    -55.5055E+06     29.7239E+06    -3.97265E+06    -222.509E-03     447.045E-03    -224.536E-03     32.0801E-03    -222.777E-03     446.840E-03    -224.229E-03     31.3693E-03
            1007     9.35120E-03     142.363E-03    -46.0227E+06    -33.8741E+06     39.2106E+06    -3.59929E+06    -222.155E-03     446.539E-03    -224.385E-03     33.7473E-03    -222.447E-03     446.434E-03    -224.073E-03     32.5477E-03
            1008     10.0721E-03     142.412E-03    -39.1014E+06    -8.52688E+06     48.2780E+06    -2.88870E+06    -221.792E-03     446.015E-03    -224.223E-03     35.2046E-03    -222.119E-03     446.033E-03    -223.913E-03     33.4459E-03
            1009     10.7934E-03     142.462E-03    -32.5336E+06     20.3727E+06     56.9895E+06    -1.55417E+06    -221.433E-03     445.487E-03    -224.054E-03     36.2019E-03    -221.807E-03     445.652E-03    -223.752E-03     33.8188E-03
            1010     11.5147E-03     142.512E-03    -26.2449E+06     65.7190E+06     68.1720E+06     558.087E+03    -221.048E-03     444.922E-03    -223.875E-03     36.3696E-03    -221.499E-03     445.316E-03    -223.591E-03     33.3238E-03
            1011     12.2365E-03     142.560E-03    -20.0272E+06     116.487E+06     81.9039E+06     2.39628E+06    -220.693E-03     444.397E-03    -223.704E-03     35.2993E-03    -221.230E-03     445.039E-03    -223.434E-03     31.6237E-03
            1012     12.9581E-03     142.605E-03    -13.7528E+06     146.177E+06     102.538E+06     2.05739E+06    -220.435E-03     444.041E-03    -223.606E-03     33.6834E-03    -221.049E-03     444.828E-03    -223.286E-03     29.1091E-03
            1013     13.6800E-03     142.646E-03    -6.88586E+06     156.722E+06     123.800E+06     568.569E+03    -220.331E-03     443.882E-03    -223.551E-03     26.9571E-03    -220.924E-03     444.647E-03    -223.149E-03     22.5671E-03
            1014     718.586E-06     143.490E-03    -143.795E+06    -269.118E+06    -140.979E+06    -648.672E+03    -224.950E-03     449.909E-03    -224.959E-03     3.74190E-03    -225.074E-03     448.977E-03    -225.066E-03     3.97183E-03
            1015     1.43720E-03     143.497E-03    -139.620E+06    -256.912E+06    -129.173E+06    -1.22143E+06    -224.859E-03     449.835E-03    -224.977E-03     6.83174E-03    -224.997E-03     448.940E-03    -225.048E-03     7.23794E-03
            1016     2.15591E-03     143.510E-03    -133.262E+06    -239.366E+06    -112.122E+06    -1.84276E+06    -224.738E-03     449.721E-03    -224.983E-03     10.0156E-03    -224.894E-03     448.880E-03    -225.003E-03     10.5788E-03
            1017     2.87471E-03     143.527E-03    -125.285E+06    -218.713E+06    -92.1652E+06    -2.49274E+06    -224.587E-03     449.570E-03    -224.983E-03     13.1108E-03    -224.763E-03     448.792E-03    -224.945E-03     13.7904E-03
            1018     3.59366E-03     143.548E-03    -116.272E+06    -196.721E+06    -71.5790E+06    -3.15024E+06    -224.414E-03     449.384E-03    -224.970E-03     16.0717E-03    -224.607E-03     448.673E-03    -224.874E-03     16.8155E-03
            1019     4.31275E-03     143.573E-03    -106.761E+06    -174.970E+06    -51.9608E+06    -3.80390E+06    -224.224E-03     449.164E-03    -224.941E-03     18.8690E-03    -224.430E-03     448.521E-03    -224.792E-03     19.6167E-03
            1020     5.03202E-03     143.603E-03    -97.1505E+06    -154.043E+06    -34.1639E+06    -4.39628E+06    -224.015E-03     448.909E-03    -224.894E-03     21.4920E-03    -224.231E-03     448.332E-03    -224.701E-03     22.1778E-03
            1021     5.75146E-03     143.636E-03    -87.7209E+06    -133.848E+06    -18.4120E+06    -4.89396E+06    -223.786E-03     448.616E-03    -224.830E-03     23.9413E-03    -224.010E-03     448.106E-03    -224.600E-03     24.4960E-03
            1022     6.47113E-03     143.672E-03    -78.6041E+06    -114.397E+06    -4.56391E+06    -5.27977E+06    -223.535E-03     448.284E-03    -224.749E-03     26.2339E-03    -223.766E-03     447.843E-03    -224.492E-03     26.5851E-03
            1023     7.19099E-03     143.711E-03    -69.9017E+06    -94.7591E+06     7.72236E+06    -5.52488E+06    -223.258E-03     447.910E-03    -224.652E-03     28.3910E-03    -223.498E-03     447.543E-03    -224.375E-03     28.4657E-03
            1024     7.91111E-03     143.753E-03    -61.6146E+06    -75.8137E+06     18.7170E+06    -5.57519E+06    -222.958E-03     447.501E-03    -224.543E-03     30.3420E-03    -223.209E-03     447.209E-03    -224.250E-03     30.0716E-03
            1025     8.63145E-03     143.798E-03    -53.7794E+06    -55.2329E+06     28.8229E+06    -5.41155E+06    -222.628E-03     447.048E-03    -224.420E-03     32.0715E-03    -222.895E-03     446.845E-03    -224.118E-03     31.3905E-03
            1026     9.35206E-03     143.844E-03    -46.3556E+06    -34.4675E+06     38.1698E+06    -4.93162E+06    -222.280E-03     446.567E-03    -224.287E-03     33.6755E-03    -222.569E-03     446.459E-03    -223.979E-03     32.5076E-03
            1027     10.0729E-03     143.892E-03    -39.3422E+06    -10.1250E+06     47.0571E+06    -4.00967E+06    -221.913E-03     446.054E-03    -224.141E-03     35.0845E-03    -222.235E-03     446.064E-03    -223.834E-03     33.3582E-03
            1028     10.7940E-03     143.942E-03    -32.7352E+06     17.0501E+06     55.4716E+06    -2.55552E+06    -221.547E-03     445.533E-03    -223.986E-03     36.0667E-03    -221.912E-03     445.682E-03    -223.686E-03     33.7106E-03
            1029     11.5154E-03     143.991E-03    -26.3606E+06     60.2910E+06     66.2006E+06    -239.758E+03    -221.157E-03     444.976E-03    -223.818E-03     36.2626E-03    -221.596E-03     445.343E-03    -223.537E-03     33.2357E-03
            1030     12.2369E-03     144.039E-03    -19.9932E+06     114.094E+06     80.0743E+06     1.60522E+06    -220.784E-03     444.436E-03    -223.652E-03     35.2364E-03    -221.313E-03     445.067E-03    -223.388E-03     31.5637E-03
            1031     12.9587E-03     144.084E-03    -13.2450E+06     148.799E+06     101.513E+06     1.58665E+06    -220.507E-03     444.064E-03    -223.558E-03     33.6503E-03    -221.120E-03     444.865E-03    -223.247E-03     29.0626E-03
            1032     13.6803E-03     144.125E-03    -6.60109E+06     158.798E+06     123.635E+06     683.044E+03    -220.410E-03     443.924E-03    -223.514E-03     26.9807E-03    -221.004E-03     444.700E-03    -223.116E-03     22.5832E-03
            1033     718.885E-06     144.975E-03    -145.259E+06    -266.210E+06    -142.425E+06    -883.416E+03    -224.521E-03     449.045E-03    -224.524E-03     3.84085E-03    -224.655E-03     448.131E-03    -224.640E-03     4.07113E-03
            1034     1.43782E-03     144.982E-03    -141.024E+06    -253.932E+06    -130.474E+06    -1.63515E+06    -224.455E-03     449.006E-03    -224.551E-03     7.00649E-03    -224.603E-03     448.130E-03    -224.630E-03     7.41375E-03
            1035     2.15678E-03     144.995E-03    -134.563E+06    -236.313E+06    -113.257E+06    -2.45322E+06    -224.375E-03     448.946E-03    -224.571E-03     10.2600E-03    -224.541E-03     448.124E-03    -224.600E-03     10.8252E-03
            1036     2.87584E-03     145.011E-03    -126.489E+06    -215.596E+06    -93.1514E+06    -3.29581E+06    -224.278E-03     448.868E-03    -224.590E-03     13.4104E-03    -224.462E-03     448.108E-03    -224.559E-03     14.0931E-03
            1037     3.59497E-03     145.033E-03    -117.388E+06    -193.623E+06    -72.4696E+06    -4.14094E+06    -224.169E-03     448.769E-03    -224.600E-03     16.4071E-03    -224.370E-03     448.076E-03    -224.511E-03     17.1558E-03
            1038     4.31423E-03     145.058E-03    -107.787E+06    -171.961E+06    -52.7936E+06    -4.93833E+06    -224.050E-03     448.647E-03    -224.597E-03     19.2181E-03    -224.264E-03     448.021E-03    -224.455E-03     19.9736E-03
            1039     5.03357E-03     145.087E-03    -98.0983E+06    -151.224E+06    -34.9717E+06    -5.68252E+06    -223.918E-03     448.497E-03    -224.580E-03     21.8321E-03    -224.140E-03     447.936E-03    -224.393E-03     22.5286E-03
            1040     5.75308E-03     145.120E-03    -88.5667E+06    -131.327E+06    -19.2199E+06    -6.32603E+06    -223.763E-03     448.309E-03    -224.546E-03     24.2512E-03    -223.993E-03     447.814E-03    -224.324E-03     24.8196E-03
            1041     6.47271E-03     145.155E-03    -79.3769E+06    -112.220E+06    -5.42084E+06    -6.83472E+06    -223.580E-03     448.078E-03    -224.498E-03     26.4933E-03    -223.816E-03     447.649E-03    -224.247E-03     26.8616E-03
            1042     7.19254E-03     145.194E-03    -70.5933E+06    -93.1006E+06     6.78287E+06    -7.14607E+06    -223.361E-03     447.794E-03    -224.433E-03     28.5837E-03    -223.604E-03     447.437E-03    -224.162E-03     28.6788E-03
            1043     7.91254E-03     145.236E-03    -62.2741E+06    -74.6992E+06     17.6666E+06    -7.24152E+06    -223.105E-03     447.460E-03    -224.355E-03     30.4577E-03    -223.358E-03     447.175E-03    -224.068E-03     30.2104E-03
            1044     8.63278E-03     145.280E-03    -54.3798E+06    -54.8469E+06     27.6250E+06    -7.05410E+06    -222.805E-03     447.066E-03    -224.261E-03     32.1037E-03    -223.073E-03     446.866E-03    -223.964E-03     31.4485E-03
            1045     9.35325E-03     145.326E-03    -46.9333E+06    -35.0599E+06     36.7880E+06    -6.49763E+06    -222.473E-03     446.627E-03    -224.154E-03     33.6264E-03    -222.760E-03     446.517E-03    -223.852E-03     32.4858E-03
            1046     10.0740E-03     145.373E-03    -39.8562E+06    -11.8543E+06     45.4470E+06    -5.53193E+06    -222.107E-03     446.139E-03    -224.032E-03     34.9695E-03    -222.424E-03     446.141E-03    -223.730E-03     33.2693E-03
            1047     10.7950E-03     145.422E-03    -33.1551E+06     13.3931E+06     53.5243E+06    -3.81272E+06    -221.737E-03     445.635E-03    -223.898E-03     35.9228E-03    -222.093E-03     445.766E-03    -223.601E-03     33.5900E-03
            1048     11.5162E-03     145.471E-03    -26.8212E+06     54.7440E+06     63.7997E+06    -1.36003E+06    -221.340E-03     445.087E-03    -223.747E-03     36.1454E-03    -221.768E-03     445.429E-03    -223.468E-03     33.1327E-03
            1049     12.2377E-03     145.519E-03    -20.4914E+06     112.161E+06     78.0382E+06     412.347E+03    -220.940E-03     444.531E-03    -223.591E-03     35.1764E-03    -221.465E-03     445.155E-03    -223.334E-03     31.5005E-03
            1050     12.9591E-03     145.563E-03    -14.0358E+06     149.962E+06     99.4189E+06     651.862E+03    -220.641E-03     444.145E-03    -223.503E-03     33.6352E-03    -221.258E-03     444.955E-03    -223.203E-03     29.0264E-03
            1051     13.6810E-03     145.604E-03    -6.96387E+06     159.573E+06     123.214E+06     531.740E+03    -220.541E-03     444.018E-03    -223.477E-03     27.0268E-03    -221.137E-03     444.799E-03    -223.082E-03     22.6172E-03
            1052     719.289E-06     146.458E-03    -146.594E+06    -262.373E+06    -143.720E+06    -1.15157E+06    -223.982E-03     447.959E-03    -223.977E-03     3.95651E-03    -224.126E-03     447.068E-03    -224.102E-03     4.18523E-03
            1053     1.43857E-03     146.466E-03    -142.289E+06    -250.073E+06    -131.660E+06    -2.11845E+06    -223.947E-03     447.962E-03    -224.015E-03     7.21206E-03    -224.105E-03     447.109E-03    -224.104E-03     7.61688E-03
            1054     2.15791E-03     146.478E-03    -135.755E+06    -232.384E+06    -114.290E+06    -3.14604E+06    -223.917E-03     447.970E-03    -224.052E-03     10.5489E-03    -224.093E-03     447.170E-03    -224.090E-03     11.1114E-03
            1055     2.87725E-03     146.495E-03    -127.580E+06    -211.636E+06    -94.0244E+06    -4.19453E+06    -223.887E-03     447.981E-03    -224.094E-03     13.7668E-03    -224.080E-03     447.243E-03    -224.072E-03     14.4472E-03
            1056     3.59665E-03     146.516E-03    -118.378E+06    -189.735E+06    -73.2289E+06    -5.21507E+06    -223.859E-03     447.991E-03    -224.133E-03     16.8108E-03    -224.068E-03     447.319E-03    -224.052E-03     17.5586E-03
            1057     4.31608E-03     146.542E-03    -108.692E+06    -168.228E+06    -53.5245E+06    -6.18993E+06    -223.830E-03     447.993E-03    -224.163E-03     19.6456E-03    -224.052E-03     447.387E-03    -224.029E-03     20.4019E-03
            1058     5.03557E-03     146.571E-03    -98.9108E+06    -147.652E+06    -35.7072E+06    -7.10128E+06    -223.792E-03     447.973E-03    -224.182E-03     22.2575E-03    -224.022E-03     447.432E-03    -224.003E-03     22.9576E-03
            1059     5.75511E-03     146.603E-03    -89.3236E+06    -128.108E+06    -19.9863E+06    -7.91526E+06    -223.732E-03     447.919E-03    -224.188E-03     24.6483E-03    -223.968E-03     447.442E-03    -223.972E-03     25.2231E-03
            1060     6.47476E-03     146.639E-03    -80.0686E+06    -109.471E+06    -6.25549E+06    -8.54113E+06    -223.637E-03     447.816E-03    -224.180E-03     26.8348E-03    -223.878E-03     447.402E-03    -223.936E-03     27.2129E-03
            1061     7.19448E-03     146.677E-03    -71.2480E+06    -90.9483E+06     5.82776E+06    -8.94875E+06    -223.493E-03     447.649E-03    -224.156E-03     28.8475E-03    -223.740E-03     447.303E-03    -223.891E-03     28.9559E-03
            1062     7.91440E-03     146.718E-03    -62.8587E+06    -73.2238E+06     16.5691E+06    -9.08253E+06    -223.297E-03     447.414E-03    -224.117E-03     30.6306E-03    -223.552E-03     447.137E-03    -223.837E-03     30.4000E-03
            1063     8.63446E-03     146.762E-03    -54.9293E+06    -54.1936E+06     26.3539E+06    -8.91911E+06    -223.041E-03     447.101E-03    -224.060E-03     32.1763E-03    -223.308E-03     446.905E-03    -223.770E-03     31.5402E-03
            1064     9.35476E-03     146.807E-03    -47.3754E+06    -35.5208E+06     35.3305E+06    -8.36326E+06    -222.734E-03     446.723E-03    -223.988E-03     33.5975E-03    -223.019E-03     446.610E-03    -223.692E-03     32.4772E-03
            1065     10.0753E-03     146.854E-03    -40.2597E+06    -13.5629E+06     43.7569E+06    -7.27454E+06    -222.377E-03     446.274E-03    -223.897E-03     34.8561E-03    -222.689E-03     446.268E-03    -223.600E-03     33.1769E-03
            1066     10.7961E-03     146.902E-03    -33.4580E+06     9.73768E+06     51.4623E+06    -5.63869E+06    -222.001E-03     445.791E-03    -223.790E-03     35.7726E-03    -222.348E-03     445.905E-03    -223.498E-03     33.4542E-03
            1067     11.5172E-03     146.951E-03    -26.7962E+06     48.8078E+06     61.2440E+06    -2.97153E+06    -221.592E-03     445.253E-03    -223.661E-03     36.0262E-03    -222.005E-03     445.567E-03    -223.387E-03     33.0210E-03
            1068     12.2383E-03     146.998E-03    -20.4990E+06     109.887E+06     76.0397E+06    -616.654E+03    -221.156E-03     444.678E-03    -223.521E-03     35.1195E-03    -221.674E-03     445.292E-03    -223.271E-03     31.4425E-03
            1069     12.9599E-03     147.043E-03    -14.1065E+06     150.560E+06     97.2184E+06    -52.7083E+03    -220.841E-03     444.285E-03    -223.443E-03     33.6371E-03    -221.456E-03     445.102E-03    -223.155E-03     29.0100E-03
            1070     13.6812E-03     147.084E-03    -7.42786E+06     159.369E+06     121.962E+06    -136.535E+03    -220.745E-03     444.182E-03    -223.437E-03     27.0966E-03    -221.342E-03     444.965E-03    -223.047E-03     22.6667E-03
            1071     719.737E-06     147.940E-03    -147.531E+06    -257.516E+06    -144.634E+06    -1.43712E+06    -223.352E-03     446.688E-03    -223.336E-03     4.08422E-03    -223.506E-03     445.824E-03    -223.472E-03     4.30939E-03
            1072     1.43949E-03     147.948E-03    -143.184E+06    -245.209E+06    -132.440E+06    -2.64368E+06    -223.352E-03     446.740E-03    -223.388E-03     7.44091E-03    -223.520E-03     445.913E-03    -223.487E-03     7.83953E-03
            1073     2.15921E-03     147.961E-03    -136.558E+06    -227.514E+06    -114.928E+06    -3.90969E+06    -223.379E-03     446.824E-03    -223.445E-03     10.8717E-03    -223.564E-03     446.050E-03    -223.492E-03     11.4259E-03
            1074     2.87894E-03     147.978E-03    -128.298E+06    -206.767E+06    -94.5504E+06    -5.17060E+06    -223.424E-03     446.937E-03    -223.513E-03     14.1674E-03    -223.627E-03     446.225E-03    -223.500E-03     14.8387E-03
            1075     3.59862E-03     147.999E-03    -119.004E+06    -185.005E+06    -73.6919E+06    -6.40310E+06    -223.488E-03     447.071E-03    -223.583E-03     17.2702E-03    -223.706E-03     446.424E-03    -223.511E-03     18.0087E-03
            1076     4.31830E-03     148.024E-03    -109.221E+06    -163.688E+06    -53.9618E+06    -7.55258E+06    -223.563E-03     447.214E-03    -223.651E-03     20.1392E-03    -223.792E-03     446.631E-03    -223.525E-03     20.8876E-03
            1077     5.03792E-03     148.053E-03    -99.3818E+06    -143.291E+06    -36.1542E+06    -8.63948E+06    -223.634E-03     447.346E-03    -223.712E-03     22.7568E-03    -223.872E-03     446.827E-03    -223.541E-03     23.4510E-03
            1078     5.75756E-03     148.086E-03    -89.7352E+06    -124.167E+06    -20.4749E+06    -9.59588E+06    -223.686E-03     447.448E-03    -223.763E-03     25.1241E-03    -223.928E-03     446.991E-03    -223.555E-03     25.6959E-03
            1079     6.47716E-03     148.122E-03    -80.4622E+06    -106.088E+06    -6.84406E+06    -10.3588E+06    -223.697E-03     447.499E-03    -223.802E-03     27.2547E-03    -223.943E-03     447.102E-03    -223.565E-03     27.6333E-03
            1080     7.19685E-03     148.160E-03    -71.6058E+06      -88.21E+06     5.10702E+06    -10.8774E+06    -223.646E-03     447.472E-03    -223.825E-03     29.1835E-03    -223.897E-03     447.141E-03    -223.568E-03     29.2962E-03
            1081     7.91658E-03     148.201E-03    -63.2003E+06    -71.2658E+06     15.6624E+06    -11.1297E+06    -223.527E-03     447.360E-03    -223.833E-03     30.8660E-03    -223.783E-03     447.094E-03    -223.560E-03     30.6428E-03
            1082     8.63649E-03     148.244E-03    -55.1994E+06    -53.1858E+06     25.2534E+06    -11.0116E+06    -223.327E-03     447.148E-03    -223.821E-03     32.2985E-03    -223.594E-03     446.957E-03    -223.538E-03     31.6732E-03
            1083     9.35654E-03     148.289E-03    -47.6581E+06    -35.6531E+06     34.0026E+06    -10.4779E+06    -223.056E-03     446.847E-03    -223.791E-03     33.6051E-03    -223.338E-03     446.735E-03    -223.500E-03     32.4980E-03
            1084     10.0768E-03     148.335E-03    -40.4397E+06    -15.2456E+06     42.1259E+06    -9.40854E+06    -222.712E-03     446.450E-03    -223.738E-03     34.7655E-03    -223.018E-03     446.436E-03    -223.446E-03     33.0997E-03
            1085     10.7974E-03     148.383E-03    -33.6459E+06     6.58366E+06     49.5429E+06    -7.69486E+06    -222.330E-03     445.994E-03    -223.663E-03     35.6332E-03    -222.669E-03     446.092E-03    -223.376E-03     33.3260E-03
            1086     11.5182E-03     148.431E-03    -26.9939E+06     43.5082E+06     58.7872E+06    -5.57808E+06    -221.906E-03     445.469E-03    -223.563E-03     35.9116E-03    -222.307E-03     445.758E-03    -223.293E-03     32.8999E-03
            1087     12.2393E-03     148.478E-03    -19.9129E+06     105.249E+06     73.8841E+06    -2.76540E+06    -221.443E-03     444.888E-03    -223.445E-03     35.0586E-03    -221.946E-03     445.480E-03    -223.199E-03     31.3640E-03
            1088     12.9605E-03     148.522E-03    -13.1676E+06     150.028E+06     95.5162E+06    -720.780E+03    -221.105E-03     444.487E-03    -223.381E-03     33.6285E-03    -221.712E-03     445.302E-03    -223.102E-03     28.9835E-03
            1089     13.6820E-03     148.563E-03    -6.48085E+06     159.444E+06     120.698E+06    -351.714E+03    -221.023E-03     444.416E-03    -223.393E-03     27.1791E-03    -221.614E-03     445.200E-03    -223.011E-03     22.7364E-03
            1090     720.260E-06     149.420E-03    -147.846E+06    -251.565E+06    -144.902E+06    -1.74951E+06    -222.660E-03     445.291E-03    -222.631E-03     4.21550E-03    -222.824E-03     444.458E-03    -222.776E-03     4.43495E-03
            1091     1.44048E-03     149.428E-03    -143.420E+06    -239.283E+06    -132.587E+06    -3.20095E+06    -222.696E-03     445.394E-03    -222.698E-03     7.67882E-03    -222.873E-03     444.597E-03    -222.806E-03     8.06735E-03
            1092     2.16067E-03     149.441E-03    -136.735E+06    -221.613E+06    -114.953E+06    -4.71763E+06    -222.782E-03     445.558E-03    -222.776E-03     11.2099E-03    -222.977E-03     444.814E-03    -222.831E-03     11.7503E-03
            1093     2.88079E-03     149.458E-03    -128.393E+06    -200.940E+06    -94.4953E+06    -6.22100E+06    -222.907E-03     445.778E-03    -222.871E-03     14.5897E-03    -223.119E-03     445.094E-03    -222.866E-03     15.2445E-03
            1094     3.60083E-03     149.480E-03    -119.035E+06    -179.356E+06    -73.6004E+06    -7.65773E+06    -223.067E-03     446.041E-03    -222.975E-03     17.7596E-03    -223.293E-03     445.422E-03    -222.910E-03     18.4802E-03
            1095     4.32076E-03     149.506E-03    -109.203E+06    -158.279E+06    -53.8698E+06    -9.02290E+06    -223.252E-03     446.333E-03    -223.082E-03     20.6720E-03    -223.489E-03     445.777E-03    -222.963E-03     21.4020E-03
            1096     5.04059E-03     149.535E-03    -99.2891E+06    -138.147E+06    -36.0759E+06    -10.2723E+06    -223.441E-03     446.628E-03    -223.186E-03     23.3052E-03    -223.685E-03     446.133E-03    -223.022E-03     23.9827E-03
            1097     5.76029E-03     149.568E-03    -89.6058E+06    -119.525E+06    -20.4607E+06    -11.3641E+06    -223.615E-03     446.901E-03    -223.286E-03     25.6604E-03    -223.863E-03     446.465E-03    -223.085E-03     26.2181E-03
            1098     6.47994E-03     149.604E-03    -80.2817E+06    -101.977E+06    -6.91328E+06    -12.2605E+06    -223.745E-03     447.121E-03    -223.375E-03     27.7434E-03    -223.995E-03     446.743E-03    -223.145E-03     28.1117E-03
            1099     7.19951E-03     149.642E-03    -71.4017E+06    -84.8238E+06     4.89348E+06    -12.9299E+06    -223.804E-03     447.255E-03    -223.451E-03     29.5922E-03    -224.057E-03     446.939E-03    -223.200E-03     29.6988E-03
            1100     7.91913E-03     149.683E-03    -62.9757E+06    -68.7254E+06     15.2574E+06    -13.2712E+06    -223.776E-03     447.287E-03    -223.510E-03     31.1740E-03    -224.033E-03     447.032E-03    -223.243E-03     30.9494E-03
            1101     8.63878E-03     149.726E-03    -55.0118E+06    -51.6202E+06     24.6081E+06    -13.2931E+06    -223.647E-03     447.195E-03    -223.549E-03     32.4900E-03    -223.913E-03     447.012E-03    -223.271E-03     31.8669E-03
            1102     9.35862E-03     149.771E-03    -47.3775E+06    -35.4167E+06     33.1011E+06    -12.8406E+06    -223.424E-03     446.989E-03    -223.566E-03     33.6707E-03    -223.701E-03     446.877E-03    -223.280E-03     32.5693E-03
            1103     10.0786E-03     149.817E-03    -40.1579E+06    -16.4247E+06     40.9388E+06    -11.8526E+06    -223.103E-03     446.658E-03    -223.555E-03     34.7141E-03    -223.401E-03     446.637E-03    -223.268E-03     33.0554E-03
            1104     10.7989E-03     149.864E-03    -33.1407E+06     3.67640E+06     48.0565E+06    -10.2916E+06    -222.721E-03     446.239E-03    -223.519E-03     35.5127E-03    -223.048E-03     446.323E-03    -223.236E-03     33.2091E-03
            1105     11.5195E-03     149.911E-03    -26.5066E+06     39.4522E+06     57.0862E+06    -8.04560E+06    -222.281E-03     445.732E-03    -223.451E-03     35.8082E-03    -222.668E-03     446.000E-03    -223.185E-03     32.7939E-03
            1106     12.2402E-03     149.958E-03    -20.4286E+06     99.0519E+06     71.5099E+06    -5.21762E+06    -221.804E-03     445.166E-03    -223.362E-03     35.0241E-03    -222.296E-03     445.730E-03    -223.119E-03     31.3098E-03
            1107     12.9613E-03     150.002E-03    -13.8397E+06     146.362E+06     93.1262E+06    -2.18966E+06    -221.442E-03     444.760E-03    -223.319E-03     33.6546E-03    -222.042E-03     445.561E-03    -223.045E-03     28.9837E-03
            1108     13.6822E-03     150.043E-03    -7.08687E+06     159.111E+06     119.344E+06    -523.119E+03    -221.354E-03     444.705E-03    -223.351E-03     27.2827E-03    -221.946E-03     445.491E-03    -222.975E-03     22.8324E-03
            1109     720.774E-06     150.898E-03    -147.134E+06    -244.452E+06    -144.184E+06    -2.07521E+06    -221.946E-03     443.847E-03    -221.901E-03     4.34153E-03    -222.118E-03     443.046E-03    -222.054E-03     4.55342E-03
            1110     1.44153E-03     150.906E-03    -142.689E+06    -232.233E+06    -131.799E+06    -3.79789E+06    -222.013E-03     443.997E-03    -221.983E-03     7.90887E-03    -222.198E-03     443.233E-03    -222.099E-03     8.28369E-03
            1111     2.16219E-03     150.919E-03    -135.925E+06    -214.637E+06    -114.056E+06    -5.57889E+06    -222.157E-03     444.237E-03    -222.081E-03     11.5383E-03    -222.358E-03     443.525E-03    -222.143E-03     12.0597E-03
            1112     2.88274E-03     150.937E-03    -127.524E+06    -194.122E+06    -93.4948E+06    -7.30750E+06    -222.358E-03     444.560E-03    -222.202E-03     15.0030E-03    -222.576E-03     443.907E-03    -222.203E-03     15.6349E-03
            1113     3.60314E-03     150.959E-03    -118.100E+06    -172.766E+06    -72.5659E+06    -8.96622E+06    -222.611E-03     444.949E-03    -222.338E-03     18.2448E-03    -222.843E-03     444.359E-03    -222.279E-03     18.9396E-03
            1114     4.32338E-03     150.986E-03    -108.212E+06    -151.951E+06    -52.8672E+06    -10.5251E+06    -222.901E-03     445.384E-03    -222.483E-03     21.2104E-03    -223.143E-03     444.856E-03    -222.370E-03     21.9132E-03
            1115     5.04340E-03     151.016E-03    -98.2990E+06    -132.236E+06    -35.1683E+06    -11.9522E+06    -223.207E-03     445.837E-03    -222.630E-03     23.8745E-03    -223.455E-03     445.368E-03    -222.471E-03     24.5252E-03
            1116     5.76326E-03     151.049E-03    -88.5864E+06    -114.119E+06    -19.6512E+06    -13.1957E+06    -223.503E-03     446.278E-03    -222.775E-03     26.2378E-03    -223.754E-03     445.866E-03    -222.580E-03     26.7709E-03
            1117     6.48291E-03     151.086E-03    -79.2587E+06    -97.1457E+06    -6.21679E+06    -14.2420E+06    -223.757E-03     446.671E-03    -222.915E-03     28.2958E-03    -224.009E-03     446.315E-03    -222.690E-03     28.6435E-03
            1118     7.20247E-03     151.125E-03    -70.3851E+06    -80.7570E+06     5.45094E+06    -15.0165E+06    -223.935E-03     446.977E-03    -223.042E-03     30.0847E-03    -224.189E-03     446.679E-03    -222.796E-03     30.1766E-03
            1119     7.92190E-03     151.166E-03    -61.9853E+06    -65.5499E+06     15.6072E+06    -15.5031E+06    -224.013E-03     447.168E-03    -223.155E-03     31.5804E-03    -224.270E-03     446.926E-03    -222.892E-03     31.3467E-03
            1120     8.64140E-03     151.209E-03    -54.0228E+06    -49.4481E+06     24.7188E+06    -15.5954E+06    -223.972E-03     447.217E-03    -223.245E-03     32.7879E-03    -224.235E-03     447.041E-03    -222.971E-03     32.1624E-03
            1121     9.36092E-03     151.253E-03    -46.5293E+06    -34.4328E+06     32.9028E+06    -15.3450E+06    -223.812E-03     447.125E-03    -223.312E-03     33.8428E-03    -224.085E-03     447.015E-03    -223.030E-03     32.7436E-03
            1122     10.0807E-03     151.299E-03    -39.2778E+06    -17.0376E+06     40.3766E+06    -14.5530E+06    -223.529E-03     446.877E-03    -223.349E-03     34.7627E-03    -223.819E-03     446.851E-03    -223.065E-03     33.1095E-03
            1123     10.8006E-03     151.345E-03    -32.4430E+06     1.56704E+06     47.1128E+06    -13.1489E+06    -223.157E-03     446.512E-03    -223.355E-03     35.4834E-03    -223.474E-03     446.582E-03    -223.074E-03     33.1850E-03
            1124     11.5208E-03     151.392E-03    -25.7547E+06     34.9453E+06     55.6082E+06    -10.8670E+06    -222.711E-03     446.035E-03    -223.324E-03     35.7781E-03    -223.083E-03     446.279E-03    -223.060E-03     32.7639E-03
            1125     12.2414E-03     151.439E-03    -19.1333E+06     91.4581E+06     69.6618E+06    -6.82305E+06    -222.233E-03     445.502E-03    -223.269E-03     35.0662E-03    -222.703E-03     446.027E-03    -223.025E-03     31.3540E-03
            1126     12.9620E-03     151.482E-03    -13.2888E+06     141.107E+06     90.5503E+06    -3.07242E+06    -221.875E-03     445.122E-03    -223.247E-03     33.7974E-03    -222.461E-03     445.899E-03    -222.980E-03     29.1211E-03
            1127     13.6830E-03     151.523E-03    -6.79632E+06     157.384E+06     117.507E+06    -1.19415E+06    -221.778E-03     445.081E-03    -223.304E-03     27.5212E-03    -222.363E-03     445.861E-03    -222.935E-03     23.0647E-03
            1128     721.306E-06     152.374E-03    -145.189E+06    -236.124E+06    -142.202E+06    -2.41906E+06    -221.255E-03     442.448E-03    -221.193E-03     4.44833E-03    -221.432E-03     441.684E-03    -221.351E-03     4.65173E-03
            1129     1.44254E-03     152.382E-03    -140.674E+06    -223.976E+06    -129.736E+06    -4.43257E+06    -221.347E-03     442.638E-03    -221.291E-03     8.10567E-03    -221.537E-03     441.910E-03    -221.411E-03     8.46496E-03
            1130     2.16368E-03     152.396E-03    -133.872E+06    -206.564E+06    -111.921E+06    -6.48571E+06    -221.537E-03     442.941E-03    -221.404E-03     11.8243E-03    -221.743E-03     442.263E-03    -221.470E-03     12.3239E-03
            1131     2.88466E-03     152.414E-03    -125.403E+06    -186.343E+06    -91.3266E+06    -8.43527E+06    -221.801E-03     443.348E-03    -221.547E-03     15.3730E-03    -222.023E-03     442.728E-03    -221.551E-03     15.9783E-03
            1132     3.60545E-03     152.437E-03    -115.947E+06    -165.212E+06    -70.4181E+06    -10.2881E+06    -222.132E-03     443.841E-03    -221.709E-03     18.6933E-03    -222.367E-03     443.283E-03    -221.654E-03     19.3579E-03
            1133     4.32598E-03     152.464E-03    -106.060E+06    -144.784E+06    -50.8059E+06    -12.0311E+06    -222.512E-03     444.397E-03    -221.885E-03     21.7264E-03    -222.756E-03     443.898E-03    -221.775E-03     22.3973E-03
            1134     5.04628E-03     152.495E-03    -96.1367E+06    -125.525E+06    -33.2039E+06    -13.5987E+06    -222.917E-03     444.984E-03    -222.067E-03     24.4478E-03    -223.166E-03     444.543E-03    -221.911E-03     25.0670E-03
            1135     5.76628E-03     152.530E-03    -86.4816E+06    -107.932E+06    -17.8298E+06    -15.0026E+06    -223.322E-03     445.573E-03    -222.252E-03     26.8550E-03    -223.573E-03     445.186E-03    -222.059E-03     27.3586E-03
            1136     6.48606E-03     152.567E-03    -77.2044E+06    -91.5873E+06    -4.54564E+06    -16.1874E+06    -223.691E-03     446.125E-03    -222.434E-03     28.9321E-03    -223.943E-03     445.790E-03    -222.212E-03     29.2551E-03
            1137     7.20557E-03     152.606E-03    -68.3984E+06    -76.1074E+06     6.91681E+06    -17.0664E+06    -223.990E-03     446.597E-03    -222.608E-03     30.7086E-03    -224.241E-03     446.316E-03    -222.363E-03     30.7834E-03
            1138     7.92498E-03     152.648E-03    -60.1291E+06    -61.7621E+06     16.8271E+06    -17.5754E+06    -224.185E-03     446.954E-03    -222.768E-03     32.1612E-03    -224.438E-03     446.725E-03    -222.507E-03     31.9209E-03
            1139     8.64424E-03     152.691E-03    -52.3684E+06    -46.6172E+06     25.6447E+06    -17.8214E+06    -224.249E-03     447.157E-03    -222.908E-03     33.2990E-03    -224.508E-03     446.990E-03    -222.636E-03     32.6765E-03
            1140     9.36359E-03     152.735E-03    -44.9976E+06    -32.8090E+06     33.4933E+06    -17.6123E+06    -224.175E-03     447.200E-03    -223.024E-03     34.2552E-03    -224.442E-03     447.093E-03    -222.744E-03     33.1708E-03
            1141     10.0830E-03     152.781E-03    -38.1787E+06    -16.7667E+06     40.5092E+06    -16.9772E+06    -223.954E-03     447.062E-03    -223.109E-03     35.0661E-03    -224.237E-03     447.033E-03    -222.826E-03     33.4365E-03
            1142     10.8026E-03     152.827E-03    -31.6430E+06    -94.0334E+03     46.6755E+06    -15.6749E+06    -223.621E-03     446.781E-03    -223.160E-03     35.7022E-03    -223.927E-03     446.839E-03    -222.880E-03     33.4325E-03
            1143     11.5225E-03     152.874E-03    -25.5827E+06     30.5603E+06     54.3466E+06    -13.3197E+06    -223.196E-03     446.367E-03    -223.171E-03     35.9883E-03    -223.556E-03     446.587E-03    -222.906E-03     33.0014E-03
            1144     12.2426E-03     152.920E-03    -19.7595E+06     81.3642E+06     66.7490E+06    -9.04831E+06    -222.741E-03     445.895E-03    -223.153E-03     35.3278E-03    -223.194E-03     446.372E-03    -222.909E-03     31.6315E-03
            1145     12.9632E-03     152.963E-03    -13.2470E+06     134.362E+06     87.7936E+06    -3.93516E+06    -222.379E-03     445.539E-03    -223.160E-03     34.1457E-03    -222.949E-03     446.285E-03    -222.897E-03     29.4875E-03
            1146     13.6834E-03     153.004E-03    -6.97219E+06     155.760E+06     116.481E+06    -1.48288E+06    -222.285E-03     445.533E-03    -223.248E-03     27.9739E-03    -222.868E-03     446.307E-03    -222.882E-03     23.5306E-03
            1147     721.750E-06     153.848E-03    -141.842E+06    -226.528E+06    -138.883E+06    -2.77689E+06    -220.637E-03     441.196E-03    -220.560E-03     4.52606E-03    -220.816E-03     440.470E-03    -220.720E-03     4.72156E-03
            1148     1.44346E-03     153.857E-03    -137.358E+06    -214.491E+06    -126.425E+06    -5.07676E+06    -220.739E-03     441.406E-03    -220.668E-03     8.25401E-03    -220.930E-03     440.715E-03    -220.790E-03     8.59925E-03
            1149     2.16502E-03     153.871E-03    -130.544E+06    -197.410E+06    -108.597E+06    -7.38419E+06    -220.953E-03     441.743E-03    -220.789E-03     12.0506E-03    -221.160E-03     441.101E-03    -220.857E-03     12.5306E-03
            1150     2.88643E-03     153.890E-03    -122.094E+06    -177.562E+06    -88.0570E+06    -9.57065E+06    -221.254E-03     442.198E-03    -220.943E-03     15.6857E-03    -221.477E-03     441.612E-03    -220.949E-03     16.2667E-03
            1151     3.60759E-03     153.913E-03    -112.642E+06    -156.831E+06    -67.2492E+06    -11.5970E+06    -221.632E-03     442.752E-03    -221.121E-03     19.0958E-03    -221.867E-03     442.226E-03    -221.066E-03     19.7335E-03
            1152     4.32848E-03     153.942E-03    -102.797E+06    -136.856E+06    -47.7430E+06    -13.4409E+06    -222.068E-03     443.382E-03    -221.314E-03     22.2240E-03    -222.311E-03     442.913E-03    -221.205E-03     22.8680E-03
            1153     5.04905E-03     153.974E-03    -92.9899E+06    -118.091E+06    -30.2895E+06    -15.1357E+06    -222.539E-03     444.057E-03    -221.517E-03     25.0491E-03    -222.787E-03     443.643E-03    -221.363E-03     25.6427E-03
            1154     5.76933E-03     154.009E-03    -83.4216E+06    -101.010E+06    -15.0601E+06    -16.6522E+06    -223.023E-03     444.749E-03    -221.726E-03     27.5613E-03    -223.271E-03     444.387E-03    -221.534E-03     28.0435E-03
            1155     6.48924E-03     154.047E-03    -74.2909E+06    -85.3926E+06    -1.97826E+06    -17.9432E+06    -223.486E-03     445.423E-03    -221.937E-03     29.7350E-03    -223.735E-03     445.110E-03    -221.715E-03     30.0439E-03
            1156     7.20892E-03     154.087E-03    -65.6651E+06    -70.9076E+06     9.21944E+06    -18.8841E+06    -223.895E-03     446.038E-03    -222.143E-03     31.5825E-03    -224.143E-03     445.774E-03    -221.899E-03     31.6546E-03
            1157     7.92829E-03     154.130E-03    -57.5183E+06    -57.4923E+06     18.8412E+06    -19.4851E+06    -224.211E-03     446.552E-03    -222.340E-03     33.0754E-03    -224.459E-03     446.336E-03    -222.079E-03     32.8469E-03
            1158     8.64756E-03     154.173E-03    -49.9247E+06    -43.4219E+06     27.3564E+06    -19.6092E+06    -224.399E-03     446.920E-03    -222.521E-03     34.2180E-03    -224.651E-03     446.761E-03    -222.249E-03     33.6269E-03
            1159     9.36669E-03     154.218E-03    -42.9788E+06    -30.7245E+06     34.7969E+06    -19.3992E+06    -224.447E-03     447.128E-03    -222.681E-03     35.1289E-03    -224.706E-03     447.024E-03    -222.400E-03     34.0950E-03
            1160     10.0859E-03     154.263E-03    -36.4126E+06    -16.0525E+06     41.4045E+06    -18.6903E+06    -224.337E-03     447.148E-03    -222.811E-03     35.8552E-03    -224.610E-03     447.115E-03    -222.528E-03     34.2944E-03
            1161     10.8052E-03     154.309E-03    -30.4565E+06    -1.32681E+06     46.9683E+06    -17.3583E+06    -224.102E-03     447.012E-03    -222.910E-03     36.3989E-03    -224.397E-03     447.058E-03    -222.629E-03     34.2100E-03
            1162     11.5248E-03     154.355E-03    -24.8365E+06     25.7314E+06     53.7009E+06    -14.7297E+06    -223.761E-03     446.729E-03    -222.969E-03     36.6297E-03    -224.105E-03     446.921E-03    -222.701E-03     33.7272E-03
            1163     12.2446E-03     154.401E-03    -19.6112E+06     70.5711E+06     64.4341E+06    -9.81443E+06    -223.386E-03     446.384E-03    -222.998E-03     35.9878E-03    -223.815E-03     446.807E-03    -222.749E-03     32.3679E-03
            1164     12.9643E-03     154.445E-03    -14.4421E+06     127.544E+06     85.9255E+06    -5.49722E+06    -223.059E-03     446.106E-03    -223.047E-03     34.8318E-03    -223.621E-03     446.820E-03    -222.781E-03     30.2143E-03
            1165     13.6847E-03     154.486E-03    -7.24572E+06     152.944E+06     116.365E+06    -2.89615E+06    -223.032E-03     446.211E-03    -223.179E-03     28.5744E-03    -223.611E-03     446.970E-03    -222.809E-03     24.1451E-03
            1166     722.142E-06     155.320E-03    -137.218E+06    -215.813E+06    -134.256E+06    -3.06009E+06    -220.122E-03     440.157E-03    -220.036E-03     4.58296E-03    -220.300E-03     439.472E-03    -220.195E-03     4.77475E-03
            1167     1.44420E-03     155.329E-03    -132.846E+06    -203.961E+06    -121.959E+06    -5.54969E+06    -220.212E-03     440.359E-03    -220.146E-03     8.36400E-03    -220.403E-03     439.707E-03    -220.268E-03     8.70376E-03
            1168     2.16617E-03     155.344E-03    -126.211E+06    -187.213E+06    -104.317E+06    -8.10619E+06    -220.419E-03     440.683E-03    -220.264E-03     12.2342E-03    -220.626E-03     440.080E-03    -220.331E-03     12.7061E-03
            1169     2.88794E-03     155.363E-03    -117.907E+06    -167.827E+06    -83.9464E+06    -10.5267E+06    -220.714E-03     441.128E-03    -220.414E-03     15.9681E-03    -220.935E-03     440.579E-03    -220.420E-03     16.5390E-03
            1170     3.60950E-03     155.388E-03    -108.628E+06    -147.701E+06    -63.3478E+06    -12.7264E+06    -221.088E-03     441.675E-03    -220.588E-03     19.4981E-03    -221.321E-03     441.183E-03    -220.533E-03     20.1262E-03
            1171     4.33077E-03     155.417E-03    -98.9367E+06    -128.349E+06    -44.0712E+06    -14.6712E+06    -221.527E-03     442.304E-03    -220.778E-03     22.7734E-03    -221.767E-03     441.866E-03    -220.668E-03     23.4112E-03
            1172     5.05175E-03     155.450E-03    -89.2663E+06    -110.092E+06    -26.7933E+06    -16.3886E+06    -222.013E-03     442.992E-03    -220.979E-03     25.7767E-03    -222.257E-03     442.606E-03    -220.824E-03     26.3705E-03
            1173     5.77236E-03     155.487E-03    -79.9490E+06    -93.5365E+06    -11.7524E+06    -17.9534E+06    -222.529E-03     443.718E-03    -221.189E-03     28.4909E-03    -222.774E-03     443.382E-03    -220.996E-03     28.9822E-03
            1174     6.49266E-03     155.526E-03    -71.0502E+06    -78.6076E+06     1.13829E+06    -19.3244E+06    -223.053E-03     444.458E-03    -221.405E-03     30.8757E-03    -223.297E-03     444.168E-03    -221.182E-03     31.2055E-03
            1175     7.21256E-03     155.567E-03    -62.6239E+06    -65.2320E+06     12.0558E+06    -20.3664E+06    -223.554E-03     445.176E-03    -221.623E-03     32.9154E-03    -223.796E-03     444.930E-03    -221.377E-03     33.0244E-03
            1176     7.93222E-03     155.611E-03    -54.7680E+06    -52.7222E+06     21.3376E+06    -20.9975E+06    -223.992E-03     445.830E-03    -221.838E-03     34.5657E-03    -224.234E-03     445.628E-03    -221.575E-03     34.3960E-03
            1177     8.65154E-03     155.655E-03    -47.4194E+06    -40.2743E+06     29.3879E+06    -21.1309E+06    -224.338E-03     446.383E-03    -222.045E-03     35.8101E-03    -224.581E-03     446.230E-03    -221.771E-03     35.3021E-03
            1178     9.37076E-03     155.700E-03    -40.5958E+06    -28.7581E+06     36.4728E+06    -20.5349E+06    -224.570E-03     446.811E-03    -222.241E-03     36.7359E-03    -224.819E-03     446.707E-03    -221.958E-03     35.8168E-03
            1179     10.0898E-03     155.746E-03    -34.6063E+06    -15.2949E+06     42.6659E+06    -19.5883E+06    -224.663E-03     447.078E-03    -222.415E-03     37.3883E-03    -224.926E-03     447.040E-03    -222.130E-03     35.9684E-03
            1180     10.8089E-03     155.792E-03    -29.0093E+06    -2.36589E+06     47.8026E+06    -18.1520E+06    -224.632E-03     447.199E-03    -222.566E-03     37.7845E-03    -224.915E-03     447.231E-03    -222.282E-03     35.7527E-03
            1181     11.5281E-03     155.838E-03    -23.7920E+06     20.6717E+06     53.6076E+06    -15.5549E+06    -224.485E-03     447.170E-03    -222.684E-03     37.8579E-03    -224.812E-03     447.330E-03    -222.412E-03     35.1094E-03
            1182     12.2472E-03     155.883E-03    -18.1301E+06     60.3076E+06     63.2316E+06    -11.2736E+06    -224.291E-03     447.068E-03    -222.777E-03     37.0854E-03    -224.692E-03     447.435E-03    -222.522E-03     33.5844E-03
            1183     12.9668E-03     155.927E-03    -11.6870E+06     121.053E+06     86.7346E+06    -6.35255E+06    -224.121E-03     447.014E-03    -222.893E-03     35.8028E-03    -224.659E-03     447.689E-03    -222.618E-03     31.2775E-03
            1184     13.6857E-03     155.969E-03    -6.30287E+06     148.459E+06     115.879E+06    -3.10425E+06    -224.237E-03     447.321E-03    -223.084E-03     29.3595E-03    -224.804E-03     448.057E-03    -222.711E-03     24.9828E-03
            1185     722.413E-06     156.791E-03    -131.888E+06    -204.429E+06    -128.948E+06    -3.15827E+06    -219.703E-03     439.320E-03    -219.617E-03     4.63459E-03    -219.879E-03     438.676E-03    -219.774E-03     4.83220E-03
            1186     1.44480E-03     156.800E-03    -127.667E+06    -192.846E+06    -116.871E+06    -5.74358E+06    -219.756E-03     439.476E-03    -219.719E-03     8.47427E-03    -219.944E-03     438.865E-03    -219.839E-03     8.82535E-03
            1187     2.16709E-03     156.815E-03    -121.279E+06    -176.382E+06    -99.5164E+06    -8.34845E+06    -219.911E-03     439.729E-03    -219.818E-03     12.4350E-03    -220.115E-03     439.165E-03    -219.884E-03     12.9247E-03
            1188     2.88925E-03     156.836E-03    -113.383E+06    -157.389E+06    -79.4774E+06    -10.8905E+06    -220.139E-03     440.082E-03    -219.943E-03     16.3038E-03    -220.359E-03     439.571E-03    -219.948E-03     16.8987E-03
            1189     3.61123E-03     156.861E-03    -104.521E+06    -137.935E+06    -59.2088E+06    -13.2515E+06    -220.442E-03     440.529E-03    -220.087E-03     20.0113E-03    -220.674E-03     440.072E-03    -220.032E-03     20.6709E-03
            1190     4.33299E-03     156.891E-03    -95.2425E+06    -119.294E+06    -40.2980E+06    -15.3529E+06    -220.813E-03     441.058E-03    -220.245E-03     23.5170E-03    -221.053E-03     440.653E-03    -220.135E-03     24.1959E-03
            1191     5.05448E-03     156.925E-03    -85.9563E+06    -101.766E+06    -23.4184E+06    -17.1650E+06    -221.247E-03     441.661E-03    -220.414E-03     26.8009E-03    -221.490E-03     441.305E-03    -220.258E-03     27.4489E-03
            1192     5.77570E-03     156.963E-03    -76.9243E+06    -85.7943E+06    -8.63998E+06    -18.6824E+06    -221.740E-03     442.334E-03    -220.594E-03     29.8406E-03    -221.984E-03     442.025E-03    -220.401E-03     30.4040E-03
            1193     6.49652E-03     157.003E-03    -68.4595E+06    -71.5749E+06     4.00075E+06    -19.9539E+06    -222.287E-03     443.072E-03    -220.785E-03     32.5753E-03    -222.530E-03     442.806E-03    -220.562E-03     32.9986E-03
            1194     7.21704E-03     157.046E-03    -60.6228E+06    -58.9870E+06     14.6209E+06    -21.0238E+06    -222.867E-03     443.855E-03    -220.988E-03     34.9413E-03    -223.108E-03     443.628E-03    -220.741E-03     35.1677E-03
            1195     7.93711E-03     157.090E-03    -53.2902E+06    -47.7212E+06     23.4418E+06    -21.7400E+06    -223.452E-03     444.652E-03    -221.200E-03     36.8686E-03    -223.691E-03     444.465E-03    -220.936E-03     36.8425E-03
            1196     8.65689E-03     157.136E-03    -46.6119E+06    -37.1377E+06     30.8483E+06    -21.6956E+06    -224.021E-03     445.441E-03    -221.420E-03     38.3012E-03    -224.262E-03     445.295E-03    -221.144E-03     37.9679E-03
            1197     9.37621E-03     157.182E-03    -40.4884E+06    -26.8827E+06     37.2789E+06    -21.2077E+06    -224.547E-03     446.191E-03    -221.644E-03     39.2731E-03    -224.792E-03     446.089E-03    -221.360E-03     38.5566E-03
            1198     10.0953E-03     157.228E-03    -34.5309E+06    -15.1052E+06     43.0648E+06    -19.9902E+06    -224.985E-03     446.852E-03    -221.867E-03     39.8086E-03    -225.242E-03     446.807E-03    -221.580E-03     38.6190E-03
            1199     10.8141E-03     157.274E-03    -29.2961E+06    -3.38640E+06     47.9565E+06    -18.2546E+06    -225.318E-03     447.402E-03    -222.084E-03     39.9433E-03    -225.594E-03     447.423E-03    -221.797E-03     38.1588E-03
            1200     11.5327E-03     157.321E-03    -24.1678E+06     17.3631E+06     53.4569E+06    -16.3693E+06    -225.519E-03     447.803E-03    -222.284E-03     39.6797E-03    -225.835E-03     447.940E-03    -222.007E-03     37.1582E-03
            1201     12.2513E-03     157.367E-03    -19.0144E+06     51.8978E+06     61.6775E+06    -13.0656E+06    -225.621E-03     448.088E-03    -222.467E-03     38.6070E-03    -226.006E-03     448.411E-03    -222.206E-03     35.2799E-03
            1202     12.9693E-03     157.411E-03    -13.5716E+06     112.183E+06     82.5738E+06    -8.31595E+06    -225.660E-03     448.326E-03    -222.666E-03     37.0999E-03    -226.183E-03     448.960E-03    -222.396E-03     32.7052E-03
            1203     13.6878E-03     157.454E-03    -6.23528E+06     141.771E+06     111.990E+06    -3.37273E+06    -225.941E-03     448.889E-03    -222.947E-03     30.3971E-03    -226.490E-03     449.594E-03    -222.584E-03     26.1063E-03
            1204     722.672E-06     158.261E-03    -127.078E+06    -193.034E+06    -124.261E+06    -3.09954E+06    -219.304E-03     438.535E-03    -219.231E-03     4.73410E-03    -219.479E-03     437.933E-03    -219.388E-03     4.95083E-03
            1205     1.44531E-03     158.270E-03    -123.147E+06    -181.807E+06    -112.580E+06    -5.55241E+06    -219.289E-03     438.599E-03    -219.310E-03     8.67773E-03    -219.477E-03     438.031E-03    -219.430E-03     9.06590E-03
            1206     2.16795E-03     158.286E-03    -117.160E+06    -165.779E+06    -95.6884E+06    -7.99352E+06    -219.341E-03     438.712E-03    -219.371E-03     12.7859E-03    -219.545E-03     438.189E-03    -219.439E-03     13.3328E-03
            1207     2.89054E-03     158.307E-03    -109.745E+06    -147.073E+06    -76.0207E+06    -10.2991E+06    -219.437E-03     438.883E-03    -219.446E-03     16.8578E-03    -219.658E-03     438.413E-03    -219.454E-03     17.5324E-03
            1208     3.61306E-03     158.333E-03    -101.569E+06    -127.997E+06    -56.0617E+06    -12.5660E+06    -219.593E-03     439.126E-03    -219.533E-03     20.8315E-03    -219.828E-03     438.708E-03    -219.480E-03     21.5934E-03
            1209     4.33547E-03     158.363E-03    -93.0977E+06    -109.986E+06    -37.5468E+06    -14.7005E+06    -219.825E-03     439.452E-03    -219.627E-03     24.6712E-03    -220.069E-03     439.084E-03    -219.520E-03     25.4750E-03
            1210     5.05774E-03     158.398E-03    -84.7052E+06    -93.2543E+06    -21.1910E+06    -16.5618E+06    -220.146E-03     439.877E-03    -219.731E-03     28.3453E-03    -220.395E-03     439.556E-03    -219.579E-03     29.1436E-03
            1211     5.77975E-03     158.437E-03    -76.6976E+06    -78.2212E+06    -7.04098E+06    -18.0400E+06    -220.576E-03     440.425E-03    -219.850E-03     31.8194E-03    -220.826E-03     440.146E-03    -219.660E-03     32.5614E-03
            1212     6.50154E-03     158.478E-03    -69.0925E+06    -64.5549E+06     5.17482E+06    -19.2339E+06    -221.130E-03     441.119E-03    -219.989E-03     34.9960E-03    -221.381E-03     440.881E-03    -219.769E-03     35.6284E-03
            1213     7.22287E-03     158.522E-03    -61.9530E+06    -52.5306E+06     15.4978E+06    -20.2853E+06    -221.810E-03     441.965E-03    -220.155E-03     37.7583E-03    -222.061E-03     441.764E-03    -219.911E-03     38.2245E-03
            1214     7.94380E-03     158.568E-03    -55.4160E+06    -42.4072E+06     23.8869E+06    -21.0569E+06    -222.611E-03     442.961E-03    -220.350E-03     40.0055E-03    -222.861E-03     442.795E-03    -220.089E-03     40.2468E-03
            1215     8.66410E-03     158.615E-03    -49.1111E+06    -33.5762E+06     30.7450E+06    -21.4477E+06    -223.518E-03     444.096E-03    -220.577E-03     41.6338E-03    -223.768E-03     443.962E-03    -220.304E-03     41.5868E-03
            1216     9.38385E-03     158.662E-03    -42.9166E+06    -24.2298E+06     36.7662E+06    -21.3152E+06    -224.486E-03     445.323E-03    -220.837E-03     42.6214E-03    -224.737E-03     445.229E-03    -220.556E-03     42.2095E-03
            1217     10.1028E-03     158.710E-03    -36.9911E+06    -14.4953E+06     42.0042E+06    -20.8491E+06    -225.445E-03     446.569E-03    -221.125E-03     42.9657E-03    -225.703E-03     446.523E-03    -220.840E-03     42.0862E-03
            1218     10.8212E-03     158.758E-03    -30.6630E+06    -4.60092E+06     46.8789E+06    -19.4619E+06    -226.316E-03     447.750E-03    -221.434E-03     42.7109E-03    -226.585E-03     447.758E-03    -221.149E-03     41.2376E-03
            1219     11.5390E-03     158.805E-03    -24.7959E+06     15.5914E+06     52.8456E+06    -17.4487E+06    -227.004E-03     448.752E-03    -221.748E-03     41.9585E-03    -227.310E-03     448.872E-03    -221.471E-03     39.7345E-03
            1220     12.2562E-03     158.852E-03    -19.2717E+06     44.9622E+06     60.1293E+06    -14.4753E+06    -227.503E-03     449.562E-03    -222.059E-03     40.4045E-03    -227.868E-03     449.845E-03    -221.796E-03     37.3119E-03
            1221     12.9734E-03     158.897E-03    -13.4698E+06     102.617E+06     79.1793E+06    -9.67848E+06    -227.809E-03     450.192E-03    -222.383E-03     38.5051E-03    -228.306E-03     450.776E-03    -222.116E-03     34.2836E-03
            1222     13.6896E-03     158.941E-03    -8.04265E+06     133.234E+06     107.790E+06    -5.04166E+06    -228.272E-03     451.063E-03    -222.791E-03     31.4070E-03    -228.808E-03     451.731E-03    -222.433E-03     27.2040E-03
            1223     722.972E-06     159.730E-03    -124.568E+06    -183.220E+06    -121.672E+06    -2.27479E+06    -218.748E-03     437.455E-03    -218.707E-03     4.94936E-03    -218.928E-03     436.895E-03    -218.869E-03     5.21158E-03
            1224     1.44601E-03     159.739E-03    -121.398E+06    -172.183E+06    -110.850E+06    -4.25348E+06    -218.641E-03     437.385E-03    -218.745E-03     9.10340E-03    -218.836E-03     436.859E-03    -218.873E-03     9.57255E-03
            1225     2.16910E-03     159.755E-03    -116.412E+06    -156.435E+06    -94.8952E+06    -6.26181E+06    -218.547E-03     437.297E-03    -218.750E-03     13.4662E-03    -218.760E-03     436.817E-03    -218.829E-03     14.1322E-03
            1226     2.89229E-03     159.776E-03    -110.059E+06    -138.012E+06    -76.0540E+06    -8.22769E+06    -218.460E-03     437.215E-03    -218.756E-03     17.8438E-03    -218.693E-03     436.789E-03    -218.776E-03     18.6769E-03
            1227     3.61557E-03     159.802E-03    -102.855E+06    -119.071E+06    -56.4611E+06    -10.0726E+06    -218.422E-03     437.184E-03    -218.762E-03     22.1765E-03    -218.673E-03     436.811E-03    -218.723E-03     23.1395E-03
            1228     4.33891E-03     159.833E-03    -95.3574E+06    -101.084E+06    -37.9647E+06    -12.0052E+06    -218.482E-03     437.254E-03    -218.773E-03     26.4226E-03    -218.744E-03     436.930E-03    -218.678E-03     27.4682E-03
            1229     5.06221E-03     159.868E-03    -87.8882E+06    -85.1425E+06    -21.6674E+06    -13.8261E+06    -218.683E-03     437.479E-03    -218.796E-03     30.5266E-03    -218.952E-03     437.196E-03    -218.653E-03     31.6052E-03
            1230     5.78542E-03     159.907E-03    -80.5933E+06    -70.8618E+06    -7.69619E+06    -15.3631E+06    -219.071E-03     437.913E-03    -218.841E-03     34.4356E-03    -219.343E-03     437.669E-03    -218.660E-03     35.4937E-03
            1231     6.50831E-03     159.950E-03    -73.6491E+06    -57.5968E+06     4.19989E+06    -16.7593E+06    -219.682E-03     438.605E-03    -218.922E-03     38.0122E-03    -219.956E-03     438.399E-03    -218.711E-03     38.9926E-03
            1232     7.23084E-03     159.995E-03    -67.0115E+06    -45.7814E+06     14.3031E+06    -18.1412E+06    -220.543E-03     439.594E-03    -219.051E-03     41.0953E-03    -220.816E-03     439.425E-03    -218.816E-03     41.9360E-03
            1233     7.95265E-03     160.042E-03    -60.3455E+06    -36.1031E+06     22.6708E+06    -19.6502E+06    -221.668E-03     440.906E-03    -219.238E-03     43.5769E-03    -221.938E-03     440.768E-03    -218.985E-03     44.2052E-03
            1234     8.67369E-03     160.091E-03    -53.5963E+06    -27.6607E+06     29.5474E+06    -21.3265E+06    -223.036E-03     442.526E-03    -219.490E-03     45.3252E-03    -223.302E-03     442.418E-03    -219.224E-03     45.6612E-03
            1235     9.39361E-03     160.141E-03    -46.5070E+06    -20.0768E+06     35.2757E+06    -22.7149E+06    -224.583E-03     444.392E-03    -219.809E-03     46.2605E-03    -224.843E-03     444.314E-03    -219.536E-03     46.2173E-03
            1236     10.1125E-03     160.191E-03    -39.2689E+06    -12.8252E+06     40.3598E+06    -22.6506E+06    -226.199E-03     446.391E-03    -220.192E-03     46.3488E-03    -226.457E-03     446.347E-03    -219.915E-03     45.8329E-03
            1237     10.8301E-03     160.241E-03    -32.8010E+06    -4.03271E+06     45.0873E+06    -22.1577E+06    -227.736E-03     448.364E-03    -220.628E-03     45.6385E-03    -228.002E-03     448.369E-03    -220.349E-03     44.5082E-03
            1238     11.5467E-03     160.291E-03    -25.9486E+06     13.3878E+06     50.8196E+06    -20.7692E+06    -229.017E-03     450.111E-03    -221.094E-03     44.2493E-03    -229.311E-03     450.214E-03    -220.822E-03     42.3314E-03
            1239     12.2626E-03     160.340E-03    -19.1409E+06     38.5758E+06     57.6724E+06    -17.3921E+06    -229.980E-03     451.551E-03    -221.571E-03     42.0432E-03    -230.322E-03     451.795E-03    -221.311E-03     39.1933E-03
            1240     12.9773E-03     160.387E-03    -12.3982E+06     92.9175E+06     77.9561E+06    -12.7597E+06    -230.564E-03     452.635E-03    -222.071E-03     39.6550E-03    -231.031E-03     453.162E-03    -221.798E-03     35.5936E-03
            1241     13.6923E-03     160.433E-03    -4.56198E+06     121.762E+06     106.064E+06    -6.31250E+06    -231.093E-03     453.728E-03    -222.635E-03     32.3550E-03    -231.588E-03     454.331E-03    -222.274E-03     28.2489E-03
            1242     723.592E-06     161.197E-03    -132.395E+06    -177.030E+06    -129.606E+06    -1.11850E+06    -217.750E-03     435.502E-03    -217.752E-03     5.34996E-03    -217.967E-03     434.996E-03    -217.951E-03     5.67976E-03
            1243     1.44727E-03     161.206E-03    -129.141E+06    -165.604E+06    -118.296E+06    -2.16650E+06    -217.554E-03     435.300E-03    -217.746E-03     9.85180E-03    -217.786E-03     434.828E-03    -217.910E-03     10.4452E-03
            1244     2.17114E-03     161.221E-03    -124.050E+06    -149.557E+06    -101.856E+06    -3.50498E+06    -217.319E-03     435.018E-03    -217.699E-03     14.5939E-03    -217.569E-03     434.592E-03    -217.812E-03     15.4414E-03
            1245     2.89525E-03     161.242E-03    -117.663E+06    -130.989E+06    -82.4211E+06    -4.96634E+06    -217.073E-03     434.714E-03    -217.641E-03     19.3579E-03    -217.342E-03     434.339E-03    -217.693E-03     20.4297E-03
            1246     3.61959E-03     161.268E-03    -110.421E+06    -112.105E+06    -62.1673E+06    -6.47662E+06    -216.888E-03     434.466E-03    -217.578E-03     24.0687E-03    -217.173E-03     434.141E-03    -217.566E-03     25.3263E-03
            1247     4.34412E-03     161.299E-03    -102.793E+06    -93.7289E+06    -42.7797E+06    -7.96787E+06    -216.842E-03     434.362E-03    -217.520E-03     28.6642E-03    -217.138E-03     434.084E-03    -217.449E-03     30.0611E-03
            1248     5.06873E-03     161.334E-03    -95.0716E+06     -77.215E+06    -25.4103E+06    -9.94709E+06    -217.016E-03     434.499E-03    -217.484E-03     33.0791E-03    -217.318E-03     434.264E-03    -217.361E-03     34.5535E-03
            1249     5.79320E-03     161.374E-03    -87.2023E+06       -63.3E+06    -10.7280E+06    -12.2178E+06    -217.477E-03     434.963E-03    -217.486E-03     37.2429E-03    -217.777E-03     434.760E-03    -217.321E-03     38.7268E-03
            1250     6.51740E-03     161.417E-03    -79.1135E+06    -50.0993E+06     1.82047E+06    -14.3829E+06    -218.266E-03     435.810E-03    -217.544E-03     40.9961E-03    -218.562E-03     435.641E-03    -217.347E-03     42.4249E-03
            1251     7.24093E-03     161.464E-03    -70.8400E+06    -37.7054E+06     12.7024E+06    -16.8323E+06    -219.418E-03     437.093E-03    -217.675E-03     44.1913E-03    -219.705E-03     436.958E-03    -217.454E-03     45.4901E-03
            1252     7.96364E-03     161.514E-03    -62.5315E+06    -27.5209E+06     21.7787E+06    -19.6942E+06    -220.949E-03     438.843E-03    -217.893E-03     46.7411E-03    -221.226E-03     438.737E-03    -217.654E-03     47.8217E-03
            1253     8.68508E-03     161.565E-03    -54.3377E+06    -19.4922E+06     29.1238E+06    -22.4289E+06    -222.838E-03     441.046E-03    -218.209E-03     48.5009E-03    -223.103E-03     440.965E-03    -217.956E-03     49.2751E-03
            1254     9.40515E-03     161.619E-03    -46.9624E+06    -13.6980E+06     34.6823E+06    -24.3854E+06    -225.004E-03     443.629E-03    -218.625E-03     49.3590E-03    -225.261E-03     443.570E-03    -218.363E-03     49.7354E-03
            1255     10.1234E-03     161.672E-03    -40.1647E+06    -9.71201E+06     38.9725E+06    -25.5151E+06    -227.303E-03     446.441E-03    -219.138E-03     49.2449E-03    -227.554E-03     446.402E-03    -218.870E-03     49.1140E-03
            1256     10.8402E-03     161.726E-03    -32.7381E+06    -799.161E+03     44.0523E+06    -25.8228E+06    -229.524E-03     449.255E-03    -219.731E-03     48.1840E-03    -229.780E-03     449.264E-03    -219.462E-03     47.4074E-03
            1257     11.5552E-03     161.779E-03    -25.7582E+06     12.5607E+06     49.0186E+06    -25.4073E+06    -231.437E-03     451.813E-03    -220.377E-03     46.2951E-03    -231.713E-03     451.901E-03    -220.112E-03     44.6839E-03
            1258     12.2689E-03     161.831E-03    -19.0637E+06     30.3327E+06     54.1555E+06    -21.9271E+06    -232.849E-03     453.895E-03    -221.046E-03     43.5706E-03    -233.162E-03     454.091E-03    -220.791E-03     40.9739E-03
            1259     12.9819E-03     161.880E-03    -13.1744E+06     81.4903E+06     73.7044E+06    -15.1883E+06    -233.588E-03     455.322E-03    -221.734E-03     40.8472E-03    -234.027E-03     455.790E-03    -221.465E-03     36.9923E-03
            1260     13.6937E-03     161.928E-03    -8.52034E+06     107.334E+06     100.107E+06    -8.13510E+06    -234.035E-03     456.503E-03    -222.468E-03     33.4645E-03    -234.516E-03     457.045E-03    -222.111E-03     29.4512E-03
            1261     724.702E-06     162.660E-03    -162.527E+06    -170.980E+06    -159.969E+06    -2.25413E+06    -216.037E-03     432.101E-03    -216.064E-03     5.89287E-03    -216.368E-03     431.712E-03    -216.380E-03     6.27230E-03
            1262     1.44957E-03     162.669E-03    -156.611E+06    -159.746E+06    -146.226E+06    -3.84883E+06    -215.811E-03     431.851E-03    -216.040E-03     10.8230E-03    -216.146E-03     431.487E-03    -216.313E-03     11.5131E-03
            1263     2.17467E-03     162.683E-03    -147.697E+06    -143.178E+06    -125.981E+06    -5.53389E+06    -215.540E-03     431.521E-03    -215.982E-03     15.9692E-03    -215.880E-03     431.194E-03    -216.190E-03     16.9667E-03
            1264     2.90007E-03     162.704E-03    -136.496E+06    -124.834E+06    -101.836E+06    -7.16477E+06    -215.284E-03     431.200E-03    -215.916E-03     21.0629E-03    -215.624E-03     430.908E-03    -216.046E-03     22.3405E-03
            1265     3.62574E-03     162.729E-03    -123.998E+06    -106.397E+06    -76.7337E+06    -8.37772E+06    -215.136E-03     430.988E-03    -215.852E-03     26.0074E-03    -215.470E-03     430.727E-03    -215.902E-03     27.5324E-03
            1266     4.35159E-03     162.760E-03    -111.055E+06    -88.0084E+06    -53.0745E+06    -9.44474E+06    -215.184E-03     430.986E-03    -215.802E-03     30.7310E-03    -215.508E-03     430.757E-03    -215.779E-03     32.4566E-03
            1267     5.07744E-03     162.795E-03    -98.5914E+06    -70.7001E+06    -32.0389E+06    -10.4117E+06    -215.522E-03     431.307E-03    -215.785E-03     35.1737E-03    -215.832E-03     431.109E-03    -215.700E-03     37.0415E-03
            1268     5.80309E-03     162.836E-03    -87.4923E+06    -55.7595E+06    -14.4193E+06    -11.8910E+06    -216.222E-03     432.047E-03    -215.825E-03     39.2774E-03    -216.519E-03     431.877E-03    -215.689E-03     41.2085E-03
            1269     6.52814E-03     162.881E-03    -77.6446E+06    -41.5987E+06     128.262E+03    -14.3078E+06    -217.309E-03     433.248E-03    -215.939E-03     42.9183E-03    -217.594E-03     433.109E-03    -215.765E-03     44.8231E-03
            1270     7.25242E-03     162.930E-03    -68.5520E+06    -27.7585E+06     12.4401E+06    -17.4450E+06    -218.802E-03     434.947E-03    -216.145E-03     45.9967E-03    -219.079E-03     434.845E-03    -215.943E-03     47.7828E-03
            1271     7.97548E-03     162.982E-03    -60.0227E+06    -16.9230E+06     22.4562E+06    -20.9943E+06    -220.726E-03     437.183E-03    -216.457E-03     48.4583E-03    -220.992E-03     437.111E-03    -216.233E-03     50.0256E-03
            1272     8.69709E-03     163.038E-03    -51.9670E+06    -9.46206E+06     30.3431E+06    -24.5121E+06    -223.052E-03     439.937E-03    -216.885E-03     50.1893E-03    -223.307E-03     439.886E-03    -216.644E-03     51.4355E-03
            1273     9.41679E-03     163.095E-03    -43.5593E+06    -5.76571E+06     36.2343E+06    -27.4259E+06    -225.703E-03     443.133E-03    -217.430E-03     51.0989E-03    -225.941E-03     443.091E-03    -217.177E-03     51.9198E-03
            1274     10.1346E-03     163.154E-03    -34.9331E+06    -3.42877E+06     41.0212E+06    -29.4052E+06    -228.526E-03     446.614E-03    -218.088E-03     51.1208E-03    -228.748E-03     446.581E-03    -217.827E-03     51.4037E-03
            1275     10.8500E-03     163.213E-03    -27.4863E+06     2.75592E+06     45.5141E+06    -30.1947E+06    -231.288E-03     450.127E-03    -218.840E-03     50.2044E-03    -231.510E-03     450.130E-03    -218.576E-03     49.8180E-03
            1276     11.5636E-03     163.270E-03    -21.8886E+06     8.36810E+06     48.7903E+06    -26.8085E+06    -233.757E-03     453.419E-03    -219.663E-03     48.2912E-03    -233.993E-03     453.467E-03    -219.399E-03     47.0927E-03
            1277     12.2755E-03     163.326E-03    -18.9318E+06     23.7545E+06     52.9118E+06    -22.1491E+06    -235.608E-03     456.125E-03    -220.517E-03     45.3914E-03    -235.895E-03     456.276E-03    -220.260E-03     43.1863E-03
            1278     12.9860E-03     163.378E-03    -13.9311E+06     72.2002E+06     71.2416E+06    -18.9762E+06    -236.534E-03     457.920E-03    -221.385E-03     42.4146E-03    -236.948E-03     458.334E-03    -221.114E-03     38.8182E-03
            1279     13.6968E-03     163.427E-03    -4.63536E+06     88.8974E+06     97.1773E+06    -11.5264E+06    -236.924E-03     459.213E-03    -222.289E-03     35.0489E-03    -237.351E-03     459.657E-03    -221.925E-03     31.1356E-03
            1280     726.414E-06     164.117E-03    -196.384E+06    -156.280E+06    -194.047E+06    -5.83785E+06    -213.716E-03     427.439E-03    -213.723E-03     6.23914E-03    -214.189E-03     427.222E-03    -214.182E-03     6.63116E-03
            1281     1.45295E-03     164.126E-03    -189.813E+06    -146.439E+06    -179.971E+06    -10.3976E+06    -213.572E-03     427.299E-03    -213.727E-03     11.3937E-03    -214.043E-03     427.098E-03    -214.140E-03     12.1077E-03
            1282     2.17966E-03     164.140E-03    -179.175E+06    -129.866E+06    -158.934E+06    -14.9898E+06    -213.430E-03     427.142E-03    -213.712E-03     16.6964E-03    -213.898E-03     426.973E-03    -214.058E-03     17.7309E-03
            1283     2.90656E-03     164.160E-03    -165.116E+06    -113.539E+06    -132.349E+06    -18.9717E+06    -213.375E-03     427.090E-03    -213.715E-03     21.8342E-03    -213.828E-03     426.937E-03    -213.972E-03     23.1694E-03
            1284     3.63357E-03     164.185E-03    -148.286E+06    -97.0561E+06    -103.477E+06    -21.8589E+06    -213.489E-03     427.232E-03    -213.743E-03     26.6961E-03    -213.916E-03     427.088E-03    -213.905E-03     28.3084E-03
            1285     4.36056E-03     164.216E-03    -129.704E+06    -80.2685E+06    -75.4175E+06    -23.8027E+06    -213.857E-03     427.662E-03    -213.805E-03     31.2182E-03    -214.248E-03     427.526E-03    -213.877E-03     33.0708E-03
            1286     5.08732E-03     164.252E-03    -110.331E+06    -65.4704E+06    -49.1900E+06    -24.4172E+06    -214.552E-03     428.473E-03    -213.920E-03     35.3562E-03    -214.899E-03     428.338E-03    -213.911E-03     37.4050E-03
            1287     5.81355E-03     164.294E-03    -91.0161E+06    -49.8775E+06    -25.6306E+06    -24.2185E+06    -215.604E-03     429.706E-03    -214.101E-03     39.0956E-03    -215.904E-03     429.580E-03    -214.025E-03     41.2783E-03
            1288     6.53903E-03     164.341E-03    -73.1420E+06    -34.9397E+06    -4.67695E+06    -24.0933E+06    -217.033E-03     431.400E-03    -214.367E-03     42.3952E-03    -217.291E-03     431.288E-03    -214.233E-03     44.6283E-03
            1289     7.26335E-03     164.392E-03    -57.8347E+06    -19.9780E+06     13.2358E+06    -24.2545E+06    -218.838E-03     433.563E-03    -214.725E-03     45.2286E-03    -219.065E-03     433.475E-03    -214.546E-03     47.4174E-03
            1290     7.98633E-03     164.449E-03    -45.7231E+06    -8.98434E+06     27.0521E+06    -24.5302E+06    -221.016E-03     436.201E-03    -215.185E-03     47.5994E-03    -221.220E-03     436.132E-03    -214.970E-03     49.6409E-03
            1291     8.70754E-03     164.508E-03    -37.1246E+06    -1.05507E+06     37.2001E+06    -24.9630E+06    -223.528E-03     439.280E-03    -215.752E-03     49.4790E-03    -223.720E-03     439.228E-03    -215.510E-03     51.2627E-03
            1292     9.42686E-03     164.571E-03    -32.0080E+06     4.33632E+06     43.8188E+06    -26.8816E+06    -226.320E-03     442.744E-03    -216.424E-03     50.8284E-03    -226.512E-03     442.711E-03    -216.165E-03     52.2138E-03
            1293     10.1439E-03     164.635E-03    -28.5318E+06     5.59465E+06     47.7485E+06    -29.9109E+06    -229.317E-03     446.518E-03    -217.201E-03     51.5104E-03    -229.513E-03     446.495E-03    -216.929E-03     52.3478E-03
            1294     10.8590E-03     164.700E-03    -24.3223E+06     7.63652E+06     50.5785E+06    -31.6101E+06    -232.373E-03     450.442E-03    -218.069E-03     51.3131E-03    -232.576E-03     450.440E-03    -217.792E-03     51.4596E-03
            1295     11.5715E-03     164.763E-03    -18.1752E+06     419.568E+03     51.1957E+06    -29.8347E+06    -235.278E-03     454.295E-03    -219.017E-03     50.0218E-03    -235.469E-03     454.275E-03    -218.735E-03     49.3208E-03
            1296     12.2821E-03     164.824E-03    -9.83025E+06     15.7429E+06     57.3367E+06    -23.8483E+06    -237.640E-03     457.646E-03    -220.006E-03     47.5034E-03    -237.857E-03     457.719E-03    -219.728E-03     45.8158E-03
            1297     12.9913E-03     164.879E-03    -4.85348E+06     66.4688E+06     76.2760E+06    -17.9335E+06    -239.068E-03     460.087E-03    -221.019E-03     44.5250E-03    -239.418E-03     460.435E-03    -220.727E-03     41.4110E-03
            1298     13.6991E-03     164.931E-03    -5.03670E+06     68.6443E+06     94.8064E+06    -11.1090E+06    -240.099E-03     462.180E-03    -222.082E-03     36.9227E-03    -240.485E-03     462.517E-03    -221.700E-03     33.3131E-03
            1299     728.288E-06     165.567E-03    -190.494E+06    -129.692E+06    -187.392E+06    -8.88426E+06    -211.699E-03     423.319E-03    -211.620E-03     5.51416E-03    -212.191E-03     423.217E-03    -212.092E-03     5.88043E-03
            1300     1.45655E-03     165.576E-03    -184.347E+06    -120.270E+06    -173.821E+06    -16.5388E+06    -211.698E-03     423.407E-03    -211.709E-03     10.0768E-03    -212.189E-03     423.321E-03    -212.137E-03     10.7334E-03
            1301     2.18479E-03     165.590E-03    -175.342E+06    -105.596E+06    -154.361E+06    -23.8991E+06    -211.823E-03     423.610E-03    -211.787E-03     14.7421E-03    -212.315E-03     423.552E-03    -212.151E-03     15.6992E-03
            1302     2.91295E-03     165.610E-03    -164.058E+06    -91.5987E+06    -130.998E+06    -30.3955E+06    -212.102E-03     424.011E-03    -211.909E-03     19.2040E-03    -212.587E-03     423.968E-03    -212.193E-03     20.4512E-03
            1303     3.64087E-03     165.636E-03    -150.855E+06    -78.1722E+06    -106.085E+06    -36.1594E+06    -212.585E-03     424.664E-03    -212.079E-03     23.3814E-03    -213.053E-03     424.627E-03    -212.277E-03     24.8959E-03
            1304     4.36844E-03     165.667E-03    -136.097E+06    -65.0185E+06    -81.8699E+06    -40.5427E+06    -213.317E-03     425.616E-03    -212.299E-03     27.2488E-03    -213.759E-03     425.582E-03    -212.417E-03     29.0093E-03
            1305     5.09537E-03     165.705E-03    -120.013E+06    -53.9253E+06    -58.9900E+06    -43.7922E+06    -214.329E-03     426.910E-03    -212.581E-03     30.8342E-03    -214.734E-03     426.868E-03    -212.623E-03     32.8061E-03
            1306     5.82153E-03     165.749E-03    -102.775E+06    -42.0230E+06    -37.4076E+06    -45.4380E+06    -215.618E-03     428.546E-03    -212.927E-03     34.1477E-03    -215.980E-03     428.501E-03    -212.904E-03     36.2940E-03
            1307     6.54667E-03     165.799E-03    -84.7524E+06    -30.1834E+06    -16.2936E+06    -44.8688E+06    -217.197E-03     430.548E-03    -213.351E-03     37.1920E-03    -217.511E-03     430.501E-03    -213.266E-03     39.4727E-03
            1308     7.27064E-03     165.854E-03    -66.8437E+06    -17.4680E+06     4.44999E+06    -42.4134E+06    -219.069E-03     432.925E-03    -213.857E-03     40.0029E-03    -219.337E-03     432.882E-03    -213.712E-03     42.3568E-03
            1309     7.99313E-03     165.914E-03    -49.9684E+06    -8.68791E+06     23.1108E+06    -38.5071E+06    -221.226E-03     435.673E-03    -214.447E-03     42.5982E-03    -221.447E-03     435.620E-03    -214.247E-03     44.9430E-03
            1310     8.71409E-03     165.978E-03    -34.7604E+06    -1.12844E+06     38.8344E+06    -33.8207E+06    -223.627E-03     438.744E-03    -215.116E-03     44.9533E-03    -223.807E-03     438.683E-03    -214.870E-03     47.1846E-03
            1311     9.43325E-03     166.046E-03    -22.2774E+06     6.49676E+06     51.4767E+06    -28.8161E+06    -226.261E-03     442.122E-03    -215.861E-03     47.0161E-03    -226.411E-03     442.067E-03    -215.581E-03     49.0026E-03
            1312     10.1505E-03     166.116E-03    -14.4169E+06     12.7692E+06     60.4212E+06    -26.1381E+06    -229.123E-03     445.807E-03    -216.684E-03     48.7039E-03    -229.265E-03     445.768E-03    -216.379E-03     50.2596E-03
            1313     10.8654E-03     166.186E-03    -11.1513E+06     13.7073E+06     63.2059E+06    -26.5743E+06    -232.205E-03     449.782E-03    -217.577E-03     49.7923E-03    -232.351E-03     449.754E-03    -217.265E-03     50.6974E-03
            1314     11.5782E-03     166.256E-03    -10.5160E+06     810.046E+03     60.4499E+06    -27.4126E+06    -235.503E-03     454.056E-03    -218.554E-03     49.7473E-03    -235.648E-03     453.992E-03    -218.237E-03     49.7678E-03
            1315     12.2886E-03     166.322E-03    -9.84365E+06     9.66205E+06     61.2043E+06    -27.4513E+06    -238.640E-03     458.234E-03    -219.595E-03     47.8927E-03    -238.830E-03     458.247E-03    -219.289E-03     46.8081E-03
            1316     12.9969E-03     166.383E-03    -6.95654E+06     47.3385E+06     74.9194E+06    -18.5335E+06    -241.195E-03     461.903E-03    -220.708E-03     44.4307E-03    -241.502E-03     462.137E-03    -220.392E-03     41.8554E-03
            1317     13.7043E-03     166.437E-03    -7.40904E+06     48.7744E+06     92.7313E+06    -4.53852E+06    -242.893E-03     464.803E-03    -221.909E-03     36.7801E-03    -243.243E-03     465.030E-03    -221.506E-03     33.6119E-03
            1318     728.885E-06     167.013E-03    -134.963E+06    -94.1250E+06    -131.864E+06    -11.0776E+06    -211.699E-03     423.274E-03    -211.575E-03     2.74559E-03    -212.046E-03     423.189E-03    -211.902E-03     2.99534E-03
            1319     1.45772E-03     167.022E-03    -129.599E+06    -85.8130E+06    -118.401E+06    -19.4437E+06    -211.827E-03     423.560E-03    -211.733E-03     5.10410E-03    -212.178E-03     423.489E-03    -212.013E-03     5.57686E-03
            1320     2.18634E-03     167.036E-03    -121.989E+06    -74.7453E+06    -99.7438E+06    -27.1396E+06    -212.174E-03     424.079E-03    -211.906E-03     7.50098E-03    -212.530E-03     424.025E-03    -212.119E-03     8.20894E-03
            1321     2.91455E-03     167.057E-03    -113.021E+06    -62.9197E+06    -79.5783E+06    -33.9229E+06    -212.685E-03     424.821E-03    -212.136E-03     9.83793E-03    -213.041E-03     424.782E-03    -212.279E-03     10.7785E-03
            1322     3.64229E-03     167.084E-03    -103.645E+06    -52.2340E+06    -60.0995E+06    -39.9824E+06    -213.353E-03     425.769E-03    -212.416E-03     12.1113E-03    -213.705E-03     425.742E-03    -212.490E-03     13.2797E-03
            1323     4.36934E-03     167.118E-03    -94.5079E+06    -42.7874E+06    -42.6176E+06    -45.0901E+06    -214.163E-03     426.901E-03    -212.739E-03     14.3902E-03    -214.507E-03     426.881E-03    -212.753E-03     15.7857E-03
            1324     5.09572E-03     167.157E-03    -86.0829E+06    -34.2157E+06    -27.2575E+06    -49.3000E+06    -215.107E-03     428.207E-03    -213.101E-03     16.7645E-03    -215.442E-03     428.194E-03    -213.062E-03     18.3830E-03
            1325     5.82122E-03     167.204E-03    -78.5991E+06    -27.7912E+06    -13.6716E+06    -52.1709E+06    -216.189E-03     429.693E-03    -213.504E-03     19.3028E-03    -216.514E-03     429.680E-03    -213.418E-03     21.1401E-03
            1326     6.54578E-03     167.256E-03    -71.7464E+06    -21.0517E+06    -924.173E+03    -53.3443E+06    -217.408E-03     431.355E-03    -213.947E-03     22.0856E-03    -217.724E-03     431.344E-03    -213.817E-03     24.1346E-03
            1327     7.26928E-03     167.314E-03    -64.4956E+06    -13.8582E+06     12.1012E+06    -52.6135E+06    -218.795E-03     433.229E-03    -214.435E-03     25.1709E-03    -219.099E-03     433.221E-03    -214.261E-03     27.4088E-03
            1328     7.99165E-03     167.378E-03    -56.2356E+06    -9.50671E+06     25.0174E+06    -50.0084E+06    -220.404E-03     435.375E-03    -214.971E-03     28.5652E-03    -220.687E-03     435.352E-03    -214.751E-03     30.9447E-03
            1329     8.71264E-03     167.447E-03    -47.1162E+06    -5.77389E+06     37.1246E+06    -45.7054E+06    -222.270E-03     437.825E-03    -215.555E-03     32.2072E-03    -222.525E-03     437.785E-03    -215.293E-03     34.6588E-03
            1330     9.43222E-03     167.519E-03    -36.9820E+06    -1.19335E+06     48.7121E+06    -39.8208E+06    -224.450E-03     440.642E-03    -216.192E-03     35.9335E-03    -224.672E-03     440.588E-03    -215.894E-03     38.3521E-03
            1331     10.1501E-03     167.594E-03    -26.1530E+06     6.86591E+06     60.2638E+06    -32.1015E+06    -227.031E-03     443.926E-03    -216.895E-03     39.4417E-03    -227.225E-03     443.877E-03    -216.565E-03     41.6747E-03
            1332     10.8666E-03     167.671E-03    -18.3537E+06     11.4428E+06     68.8557E+06    -24.1727E+06    -230.165E-03     447.846E-03    -217.681E-03     42.2677E-03    -230.342E-03     447.800E-03    -217.327E-03     44.0779E-03
            1333     11.5805E-03     167.747E-03    -14.4628E+06     2.60889E+06     70.3565E+06    -19.3608E+06    -233.868E-03     452.436E-03    -218.567E-03     43.9473E-03    -234.030E-03     452.352E-03    -218.198E-03     44.9811E-03
            1334     12.2912E-03     167.821E-03    -13.5742E+06     13.7843E+06     69.8782E+06    -18.6124E+06    -237.748E-03     457.285E-03    -219.537E-03     44.0418E-03    -237.949E-03     457.284E-03    -219.188E-03     43.9316E-03
            1335     12.9987E-03     167.888E-03    -13.4259E+06     24.3307E+06     73.9335E+06    -15.8072E+06    -241.237E-03     461.866E-03    -220.629E-03     43.0113E-03    -241.507E-03     461.961E-03    -220.275E-03     41.3335E-03
            1336     13.7022E-03     167.950E-03    -4.49413E+06     24.6308E+06     91.8223E+06    -6.23575E+06    -243.204E-03     465.034E-03    -221.830E-03     37.3079E-03    -243.479E-03     465.114E-03    -221.400E-03     34.7418E-03
            1337     726.390E-06     168.463E-03    -63.3099E+06    -55.5110E+06    -58.9709E+06    -10.6820E+06    -215.975E-03     431.712E-03    -215.736E-03    -2.28198E-03    -216.129E-03     431.610E-03    -215.859E-03    -2.17607E-03
            1338     1.45261E-03     168.472E-03    -59.6299E+06    -50.3000E+06    -48.7981E+06    -18.6847E+06    -216.006E-03     431.979E-03    -215.973E-03    -3.99044E-03    -216.164E-03     431.884E-03    -216.058E-03    -3.81732E-03
            1339     2.17853E-03     168.488E-03    -54.4423E+06    -43.2103E+06    -33.6615E+06    -25.9348E+06    -216.277E-03     432.433E-03    -216.155E-03    -5.67194E-03    -216.444E-03     432.346E-03    -216.182E-03    -5.41401E-03
            1340     2.90409E-03     168.510E-03    -48.1532E+06    -35.1890E+06    -17.2456E+06    -31.6654E+06    -216.609E-03     432.996E-03    -216.387E-03    -7.19424E-03    -216.783E-03     432.919E-03    -216.352E-03    -6.82287E-03
            1341     3.62913E-03     168.538E-03    -41.9352E+06    -27.6381E+06    -1.75838E+06    -35.9350E+06    -216.950E-03     433.596E-03    -216.645E-03    -8.44431E-03    -217.130E-03     433.529E-03    -216.553E-03    -7.92680E-03
            1342     4.35378E-03     168.573E-03    -36.6346E+06    -21.3936E+06     12.0039E+06    -39.0551E+06    -217.266E-03     434.183E-03    -216.917E-03    -9.29321E-03    -217.452E-03     434.124E-03    -216.772E-03    -8.60016E-03
            1343     5.07794E-03     168.614E-03    -32.6832E+06    -16.2298E+06     23.7687E+06    -40.7841E+06    -217.530E-03     434.718E-03    -217.188E-03    -9.62446E-03    -217.725E-03     434.667E-03    -216.998E-03    -8.72197E-03
            1344     5.80175E-03     168.662E-03    -30.2315E+06    -13.0475E+06     33.2387E+06    -41.4492E+06    -217.734E-03     435.184E-03    -217.451E-03    -9.32280E-03    -217.939E-03     435.137E-03    -217.222E-03    -8.18439E-03
            1345     6.52523E-03     168.716E-03    -29.1261E+06    -9.54532E+06     41.0389E+06    -41.5584E+06    -217.891E-03     435.588E-03    -217.697E-03    -8.24407E-03    -218.111E-03     435.550E-03    -217.436E-03    -6.85358E-03
            1346     7.24845E-03     168.776E-03    -29.4017E+06    -6.40846E+06     47.0934E+06    -40.9830E+06    -218.060E-03     435.984E-03    -217.925E-03    -6.27874E-03    -218.297E-03     435.957E-03    -217.637E-03    -4.62703E-03
            1347     7.97137E-03     168.842E-03    -30.9459E+06    -5.72693E+06     51.1541E+06    -39.5354E+06    -218.351E-03     436.491E-03    -218.140E-03    -3.36793E-03    -218.603E-03     436.464E-03    -217.831E-03    -1.46343E-03
            1348     8.69396E-03     168.913E-03    -32.9668E+06    -5.40934E+06     54.5150E+06    -37.5487E+06    -218.894E-03     437.250E-03    -218.356E-03     532.241E-06    -219.158E-03     437.220E-03    -218.028E-03     2.65782E-03
            1349     9.41585E-03     168.989E-03    -34.7646E+06    -4.81586E+06     57.9063E+06    -34.8680E+06    -219.862E-03     438.455E-03    -218.593E-03     5.41963E-03    -220.135E-03     438.421E-03    -218.246E-03     7.72036E-03
            1350     10.1367E-03     169.068E-03    -34.6373E+06    -741.667E+03     62.6528E+06    -31.5402E+06    -221.452E-03     440.327E-03    -218.876E-03     11.2420E-03    -221.728E-03     440.298E-03    -218.511E-03     13.6256E-03
            1351     10.8553E-03     169.150E-03    -29.4153E+06    -71.6197E+03     69.0800E+06    -25.8667E+06    -223.795E-03     443.034E-03    -219.239E-03     17.9485E-03    -224.045E-03     442.981E-03    -218.851E-03     20.2688E-03
            1352     11.5714E-03     169.234E-03    -21.0435E+06    -2.49710E+06     74.5064E+06    -19.8249E+06    -226.909E-03     446.607E-03    -219.698E-03     25.3753E-03    -227.112E-03     446.512E-03    -219.291E-03     27.3699E-03
            1353     12.2851E-03     169.315E-03    -11.5312E+06     15.0154E+06     82.5504E+06    -16.6289E+06    -230.706E-03     450.968E-03    -220.262E-03     32.7508E-03    -230.897E-03     450.933E-03    -219.854E-03     34.0303E-03
            1354     12.9961E-03     169.392E-03    -3.21502E+06     9.91219E+06     87.4168E+06    -10.0471E+06    -235.130E-03     456.117E-03    -220.988E-03     38.6113E-03    -235.302E-03     456.060E-03    -220.560E-03     38.6063E-03
            1355     13.7068E-03     169.458E-03     2.87870E+06     7.84740E+06     92.8208E+06    -4.85617E+06    -239.568E-03     461.431E-03    -221.863E-03     37.2232E-03    -239.736E-03     461.369E-03    -221.415E-03     36.1113E-03
            1356     719.102E-06     169.933E-03     2.46622E+06    -23.0676E+06     5.53300E+06    -7.12626E+06    -226.049E-03     451.680E-03    -225.631E-03    -8.12966E-03    -226.018E-03     451.545E-03    -225.574E-03    -8.20823E-03
            1357     1.43820E-03     169.942E-03     2.81900E+06    -20.5375E+06     12.4588E+06    -12.8483E+06    -225.777E-03     451.731E-03    -225.955E-03    -14.7530E-03    -225.758E-03     451.599E-03    -225.867E-03    -14.8860E-03
            1358     2.15722E-03     169.959E-03     3.26185E+06    -17.2948E+06     22.3473E+06    -17.6805E+06    -225.625E-03     451.689E-03    -226.064E-03    -21.5884E-03    -225.624E-03     451.559E-03    -225.932E-03    -21.7414E-03
            1359     2.87607E-03     169.981E-03     3.40232E+06    -13.8911E+06     33.4291E+06    -21.0990E+06    -225.326E-03     451.500E-03    -226.174E-03    -28.1571E-03    -225.347E-03     451.373E-03    -225.991E-03    -28.2877E-03
            1360     3.59495E-03     170.009E-03     3.18463E+06    -10.2245E+06     44.5549E+06    -23.0873E+06    -224.846E-03     451.113E-03    -226.267E-03    -34.2740E-03    -224.892E-03     450.991E-03    -226.034E-03    -34.3422E-03
            1361     4.31381E-03     170.044E-03     2.56587E+06    -7.37218E+06     54.9856E+06    -23.8396E+06    -224.164E-03     450.493E-03    -226.329E-03    -39.8068E-03    -224.235E-03     450.377E-03    -226.047E-03    -39.7762E-03
            1362     5.03291E-03     170.085E-03     1.54130E+06    -5.69785E+06     63.8131E+06    -23.6367E+06    -223.256E-03     449.604E-03    -226.347E-03    -44.6613E-03    -223.353E-03     449.490E-03    -226.022E-03    -44.4991E-03
            1363     5.75233E-03     170.132E-03     308.068E+03    -4.34561E+06     70.8438E+06    -22.8813E+06    -222.116E-03     448.424E-03    -226.309E-03    -48.7767E-03    -222.237E-03     448.316E-03    -225.948E-03    -48.4576E-03
            1364     6.47230E-03     170.186E-03    -1.06903E+06    -2.62282E+06     76.3977E+06    -21.8096E+06    -220.760E-03     446.967E-03    -226.206E-03    -52.0919E-03    -220.906E-03     446.869E-03    -225.819E-03    -51.5991E-03
            1365     7.19301E-03     170.245E-03    -2.55351E+06    -1.68565E+06     80.3472E+06    -20.1597E+06    -219.236E-03     445.274E-03    -226.039E-03    -54.5528E-03    -219.403E-03     445.186E-03    -225.631E-03    -53.8723E-03
            1366     7.91461E-03     170.309E-03    -3.93192E+06    -1.96375E+06     82.8036E+06    -18.4799E+06    -217.614E-03     443.421E-03    -225.807E-03    -56.0362E-03    -217.797E-03     443.337E-03    -225.385E-03    -55.1689E-03
            1367     8.63708E-03     170.379E-03    -4.96894E+06    -2.40318E+06     84.4209E+06    -17.1368E+06    -216.007E-03     441.526E-03    -225.519E-03    -56.3427E-03    -216.201E-03     441.445E-03    -225.086E-03    -55.3025E-03
            1368     9.36055E-03     170.455E-03    -5.38564E+06    -3.21563E+06     85.4302E+06    -15.9617E+06    -214.503E-03     439.687E-03    -225.184E-03    -55.1327E-03    -214.701E-03     439.604E-03    -224.744E-03    -53.9309E-03
            1369     10.0847E-03     170.535E-03    -5.86383E+06    -227.793E+03     86.7560E+06    -15.1840E+06    -213.114E-03     437.919E-03    -224.805E-03    -51.7088E-03    -213.319E-03     437.851E-03    -224.362E-03    -50.3548E-03
            1370     10.8100E-03     170.619E-03    -7.41268E+06    -2.50989E+06     85.2006E+06    -15.4190E+06    -212.058E-03     436.444E-03    -224.386E-03    -45.4379E-03    -212.257E-03     436.363E-03    -223.945E-03    -43.9819E-03
            1371     11.5363E-03     170.705E-03    -8.08368E+06    -6.22558E+06     82.4002E+06    -14.8061E+06    -211.715E-03     435.659E-03    -223.944E-03    -36.1165E-03    -211.893E-03     435.553E-03    -223.512E-03    -34.6493E-03
            1372     12.2621E-03     170.793E-03    -8.23591E+06     12.1610E+06     88.1561E+06    -13.1976E+06    -212.450E-03     435.981E-03    -223.531E-03    -23.6961E-03    -212.647E-03     435.943E-03    -223.096E-03    -22.4005E-03
            1373     12.9858E-03     170.877E-03    -5.02392E+06    -1.68267E+06     83.5508E+06    -8.47515E+06    -214.871E-03     438.047E-03    -223.176E-03    -7.74810E-03    -215.016E-03     437.936E-03    -222.748E-03    -7.10124E-03
            1374     13.7015E-03     170.957E-03     1.44571E+06    -3.79786E+06     71.7734E+06    -2.85676E+06    -218.271E-03     441.144E-03    -222.873E-03     9.38545E-03    -218.364E-03     441.029E-03    -222.510E-03     9.46688E-03
            1375     13.6722E-03     84.8399E-03    -5.36487E+06     97.3956E+06     103.475E+06    -71.5107E+03    -223.109E-03     447.204E-03    -224.094E-03     26.8053E-03    -223.574E-03     447.695E-03    -223.710E-03     22.4792E-03
            1376     12.9524E-03     84.7969E-03    -11.2894E+06     92.2197E+06     99.4280E+06    -38.1584E+03    -223.228E-03     447.337E-03    -224.109E-03     34.2253E-03    -223.744E-03     447.853E-03    -223.730E-03     29.6951E-03
            1377     12.2327E-03     84.7500E-03    -17.4813E+06     78.9508E+06     87.4401E+06     194.139E+03    -223.349E-03     447.446E-03    -224.097E-03     36.1256E-03    -223.833E-03     447.896E-03    -223.749E-03     32.3045E-03
            1378     11.5127E-03     84.6989E-03    -23.1920E+06     67.8972E+06     75.3339E+06     322.917E+03    -223.446E-03     447.528E-03    -224.082E-03     37.6724E-03    -223.908E-03     447.931E-03    -223.771E-03     34.3901E-03
            1379     10.7930E-03     84.6455E-03    -28.4308E+06     63.6439E+06     67.7724E+06    -523.370E+03    -223.481E-03     447.563E-03    -224.082E-03     37.9762E-03    -223.929E-03     447.939E-03    -223.794E-03     35.2781E-03
            1380     10.0732E-03     84.5916E-03    -33.9584E+06     46.5962E+06     60.8157E+06    -1.15717E+06    -223.511E-03     447.618E-03    -224.107E-03     37.3356E-03    -223.927E-03     447.902E-03    -223.821E-03     35.2175E-03
            1381     9.35339E-03     84.5385E-03    -40.3043E+06     10.9291E+06     50.0263E+06    -582.530E+03    -223.591E-03     447.735E-03    -224.144E-03     36.0576E-03    -223.950E-03     447.844E-03    -223.851E-03     34.4957E-03
            1382     8.63364E-03     84.4869E-03    -47.4393E+06    -26.7721E+06     37.3406E+06    -63.9718E+03    -223.683E-03     447.858E-03    -224.175E-03     34.3983E-03    -223.986E-03     447.789E-03    -223.881E-03     33.3352E-03
            1383     7.91393E-03     84.4374E-03    -54.8891E+06    -56.6881E+06     25.3407E+06     65.5716E+03    -223.746E-03     447.944E-03    -224.198E-03     32.5433E-03    -224.011E-03     447.740E-03    -223.910E-03     31.9040E-03
            1384     7.19428E-03     84.3901E-03    -62.5258E+06    -82.6237E+06     13.1232E+06     246.365E+03    -223.789E-03     448.004E-03    -224.215E-03     30.4850E-03    -224.026E-03     447.688E-03    -223.939E-03     30.2023E-03
            1385     6.47466E-03     84.3458E-03    -70.4523E+06    -106.274E+06     148.339E+03     407.704E+03    -223.817E-03     448.042E-03    -224.225E-03     28.1698E-03    -224.032E-03     447.629E-03    -223.968E-03     28.1795E-03
            1386     5.75508E-03     84.3047E-03    -78.6281E+06    -128.774E+06    -13.9454E+06     473.662E+03    -223.840E-03     448.068E-03    -224.229E-03     25.6560E-03    -224.036E-03     447.569E-03    -223.998E-03     25.8887E-03
            1387     5.03554E-03     84.2673E-03    -86.9774E+06    -150.455E+06    -29.3259E+06     466.441E+03    -223.864E-03     448.089E-03    -224.225E-03     22.9673E-03    -224.044E-03     447.511E-03    -224.027E-03     23.3539E-03
            1388     4.31605E-03     84.2339E-03    -95.3478E+06    -172.071E+06    -46.0318E+06     458.725E+03    -223.894E-03     448.108E-03    -224.214E-03     20.1004E-03    -224.057E-03     447.456E-03    -224.057E-03     20.5760E-03
            1389     3.59661E-03     84.2049E-03    -103.501E+06    -193.048E+06    -63.9168E+06     456.818E+03    -223.930E-03     448.125E-03    -224.196E-03     17.0672E-03    -224.076E-03     447.404E-03    -224.085E-03     17.5715E-03
            1390     2.87721E-03     84.1806E-03    -111.147E+06     -212.72E+06    -82.3144E+06     381.160E+03    -223.970E-03     448.140E-03    -224.169E-03     13.8843E-03    -224.099E-03     447.357E-03    -224.111E-03     14.3621E-03
            1391     2.15786E-03     84.1614E-03    -117.884E+06    -230.989E+06    -99.7383E+06     268.293E+03    -224.014E-03     448.155E-03    -224.141E-03     10.5818E-03    -224.124E-03     447.316E-03    -224.134E-03     10.9859E-03
            1392     1.43855E-03     84.1473E-03    -123.191E+06    -246.159E+06    -114.303E+06     176.599E+03    -224.053E-03     448.168E-03    -224.115E-03     7.20259E-03    -224.146E-03     447.282E-03    -224.151E-03     7.49776E-03
            1393     719.263E-06     84.1387E-03    -126.613E+06    -256.643E+06    -124.226E+06     101.531E+03    -224.103E-03     448.179E-03    -224.076E-03     3.93740E-03    -224.184E-03     447.259E-03    -224.141E-03     4.10556E-03
            1394     13.6723E-03     83.3566E-03    -5.58495E+06     97.4854E+06     103.307E+06    -209.408E+03    -223.032E-03     447.120E-03    -224.088E-03     26.6943E-03    -223.496E-03     447.611E-03    -223.705E-03     22.3680E-03
            1395     12.9524E-03     83.3133E-03    -11.3242E+06     92.2692E+06     99.3155E+06    -328.770E+03    -223.180E-03     447.286E-03    -224.106E-03     34.1470E-03    -223.696E-03     447.801E-03    -223.727E-03     29.6149E-03
            1396     12.2325E-03     83.2665E-03    -16.8296E+06     79.2251E+06     88.7445E+06    -831.247E+03    -223.367E-03     447.468E-03    -224.101E-03     36.0967E-03    -223.851E-03     447.916E-03    -223.748E-03     32.2582E-03
            1397     11.5129E-03     83.2154E-03    -21.9193E+06     68.7891E+06     77.4260E+06    -1.78828E+06    -223.465E-03     447.552E-03    -224.087E-03     37.6946E-03    -223.926E-03     447.954E-03    -223.768E-03     34.3759E-03
            1398     10.7931E-03     83.1621E-03    -27.3512E+06     64.7692E+06     68.6894E+06    -2.21625E+06    -223.453E-03     447.534E-03    -224.081E-03     38.0380E-03    -223.899E-03     447.913E-03    -223.791E-03     35.3121E-03
            1399     10.0732E-03     83.1083E-03    -33.8489E+06     45.0817E+06     60.0475E+06    -1.70111E+06    -223.485E-03     447.590E-03    -224.105E-03     37.4022E-03    -223.897E-03     447.868E-03    -223.821E-03     35.2764E-03
            1400     9.35337E-03     83.0553E-03    -40.9167E+06     8.52042E+06     48.8214E+06    -587.942E+03    -223.589E-03     447.731E-03    -224.143E-03     36.1060E-03    -223.945E-03     447.831E-03    -223.852E-03     34.5454E-03
            1401     8.63363E-03     83.0037E-03    -47.9751E+06    -27.3401E+06     36.6119E+06     294.464E+03    -223.683E-03     447.857E-03    -224.174E-03     34.4305E-03    -223.986E-03     447.787E-03    -223.882E-03     33.3737E-03
            1402     7.91393E-03     82.9542E-03    -55.3359E+06    -56.9515E+06     24.6649E+06     605.805E+03    -223.746E-03     447.943E-03    -224.197E-03     32.5639E-03    -224.012E-03     447.739E-03    -223.911E-03     31.9333E-03
            1403     7.19427E-03     82.9070E-03    -63.0791E+06    -82.8541E+06     12.4465E+06      743.07E+03    -223.789E-03     448.003E-03    -224.214E-03     30.4929E-03    -224.027E-03     447.687E-03    -223.940E-03     30.2180E-03
            1404     6.47465E-03     82.8626E-03    -71.0304E+06    -106.282E+06    -445.187E+03     809.986E+03    -223.815E-03     448.039E-03    -224.224E-03     28.1724E-03    -224.032E-03     447.628E-03    -223.969E-03     28.1883E-03
            1405     5.75507E-03     82.8215E-03    -79.1829E+06    -128.628E+06    -14.4555E+06     813.726E+03    -223.838E-03     448.066E-03    -224.228E-03     25.6574E-03    -224.037E-03     447.569E-03    -223.999E-03     25.8952E-03
            1406     5.03554E-03     82.7841E-03    -87.5031E+06    -150.176E+06    -29.8023E+06     765.882E+03    -223.862E-03     448.087E-03    -224.224E-03     22.9669E-03    -224.045E-03     447.512E-03    -224.029E-03     23.3580E-03
            1407     4.31604E-03     82.7508E-03    -95.8666E+06    -171.804E+06    -46.5435E+06     666.588E+03    -223.892E-03     448.106E-03    -224.214E-03     20.0989E-03    -224.058E-03     447.457E-03    -224.058E-03     20.5777E-03
            1408     3.59660E-03     82.7218E-03    -104.033E+06    -192.753E+06    -64.4074E+06     565.067E+03    -223.928E-03     448.123E-03    -224.195E-03     17.0668E-03    -224.077E-03     447.405E-03    -224.087E-03     17.5728E-03
            1409     2.87720E-03     82.6975E-03    -111.652E+06    -212.326E+06    -82.7148E+06     488.235E+03    -223.969E-03     448.138E-03    -224.169E-03     13.8845E-03    -224.100E-03     447.359E-03    -224.113E-03     14.3639E-03
            1410     2.15785E-03     82.6783E-03    -118.306E+06    -230.525E+06    -100.133E+06     369.687E+03    -224.013E-03     448.154E-03    -224.141E-03     10.5794E-03    -224.125E-03     447.318E-03    -224.136E-03     10.9854E-03
            1411     1.43854E-03     82.6642E-03    -123.567E+06    -245.776E+06    -114.717E+06     213.768E+03    -224.053E-03     448.168E-03    -224.115E-03     7.19936E-03    -224.148E-03     447.284E-03    -224.153E-03     7.49545E-03
            1412     719.264E-06     82.6555E-03    -126.994E+06    -256.306E+06    -124.611E+06     108.318E+03    -224.103E-03     448.180E-03    -224.077E-03     3.93789E-03    -224.186E-03     447.263E-03    -224.145E-03     4.10611E-03
            1413     13.6725E-03     81.8733E-03    -5.59408E+06     97.8852E+06     104.285E+06    -145.981E+03    -223.024E-03     447.105E-03    -224.081E-03     26.6483E-03    -223.491E-03     447.597E-03    -223.693E-03     22.3229E-03
            1414     12.9526E-03     81.8301E-03    -11.7688E+06     92.4927E+06     99.3541E+06    -405.142E+03    -223.123E-03     447.219E-03    -224.096E-03     34.0284E-03    -223.642E-03     447.736E-03    -223.716E-03     29.4964E-03
            1415     12.2327E-03     81.7830E-03    -18.2068E+06     82.3393E+06     86.9530E+06    -1.63185E+06    -223.251E-03     447.334E-03    -224.083E-03     36.0110E-03    -223.743E-03     447.801E-03    -223.741E-03     32.1606E-03
            1416     11.5128E-03     81.7320E-03    -24.4518E+06     70.7521E+06     73.9979E+06    -3.46389E+06    -223.359E-03     447.429E-03    -224.069E-03     37.7191E-03    -223.831E-03     447.850E-03    -223.767E-03     34.3735E-03
            1417     10.7930E-03     81.6789E-03    -30.4856E+06     62.3176E+06     65.2042E+06    -3.32939E+06    -223.416E-03     447.490E-03    -224.074E-03     38.0988E-03    -223.868E-03     447.867E-03    -223.795E-03     35.3553E-03
            1418     10.0731E-03     81.6251E-03    -36.7176E+06     42.4570E+06     57.4312E+06    -1.79841E+06    -223.479E-03     447.583E-03    -224.104E-03     37.4304E-03    -223.899E-03     447.856E-03    -223.825E-03     35.3027E-03
            1419     9.35333E-03     81.5720E-03    -43.3652E+06     6.11094E+06     46.5048E+06    -685.827E+03    -223.590E-03     447.732E-03    -224.143E-03     36.1194E-03    -223.952E-03     447.827E-03    -223.856E-03     34.5572E-03
            1420     8.63358E-03     81.5205E-03    -50.3455E+06    -28.6318E+06     34.6603E+06     169.204E+03    -223.686E-03     447.860E-03    -224.174E-03     34.4435E-03    -223.997E-03     447.789E-03    -223.886E-03     33.3846E-03
            1421     7.91389E-03     81.4709E-03    -57.4883E+06    -57.2889E+06     23.1053E+06     698.270E+03    -223.749E-03     447.945E-03    -224.197E-03     32.5707E-03    -224.023E-03     447.745E-03    -223.915E-03     31.9414E-03
            1422     7.19424E-03     81.4238E-03    -64.8404E+06    -82.8485E+06     11.1577E+06     835.232E+03    -223.789E-03     448.002E-03    -224.213E-03     30.4928E-03    -224.034E-03     447.690E-03    -223.943E-03     30.2197E-03
            1423     6.47463E-03     81.3794E-03    -72.4898E+06    -106.142E+06    -1.53831E+06     839.456E+03    -223.815E-03     448.038E-03    -224.223E-03     28.1723E-03    -224.037E-03     447.631E-03    -223.972E-03     28.1888E-03
            1424     5.75506E-03     81.3384E-03    -80.4028E+06    -128.391E+06    -15.3839E+06     812.670E+03    -223.838E-03     448.065E-03    -224.227E-03     25.6583E-03    -224.042E-03     447.572E-03    -224.002E-03     25.8959E-03
            1425     5.03552E-03     81.3010E-03    -88.5047E+06    -149.835E+06    -30.5938E+06     757.065E+03    -223.862E-03     448.086E-03    -224.224E-03     22.9667E-03    -224.049E-03     447.515E-03    -224.031E-03     23.3576E-03
            1426     4.31604E-03     81.2676E-03    -96.6750E+06    -171.388E+06    -47.2215E+06     675.420E+03    -223.891E-03     448.105E-03    -224.213E-03     20.0972E-03    -224.061E-03     447.459E-03    -224.061E-03     20.5762E-03
            1427     3.59659E-03     81.2386E-03    -104.711E+06    -192.358E+06    -65.0317E+06     573.040E+03    -223.927E-03     448.121E-03    -224.195E-03     17.0641E-03    -224.078E-03     447.407E-03    -224.089E-03     17.5703E-03
            1428     2.87720E-03     81.2144E-03    -112.264E+06    -211.898E+06    -83.3304E+06     446.662E+03    -223.967E-03     448.136E-03    -224.169E-03     13.8819E-03    -224.100E-03     447.360E-03    -224.116E-03     14.3609E-03
            1429     2.15784E-03     81.1951E-03    -118.875E+06    -230.044E+06    -100.702E+06     322.289E+03    -224.011E-03     448.153E-03    -224.142E-03     10.5763E-03    -224.126E-03     447.321E-03    -224.139E-03     10.9819E-03
            1430     1.43854E-03     81.1811E-03    -124.089E+06    -245.352E+06    -115.230E+06     223.154E+03    -224.053E-03     448.170E-03    -224.117E-03     7.19645E-03    -224.150E-03     447.291E-03    -224.158E-03     7.49293E-03
            1431     719.257E-06     81.1724E-03    -127.488E+06    -255.920E+06    -125.110E+06     120.498E+03    -224.105E-03     448.185E-03    -224.081E-03     3.93750E-03    -224.189E-03     447.272E-03    -224.150E-03     4.10589E-03
            1432     13.6726E-03     80.3900E-03    -5.76332E+06     97.7217E+06     105.404E+06     204.268E+03    -223.044E-03     447.120E-03    -224.076E-03     26.7073E-03    -223.513E-03     447.610E-03    -223.682E-03     22.3881E-03
            1433     12.9528E-03     80.3468E-03    -12.1365E+06     92.9840E+06     99.9743E+06     275.144E+03    -223.086E-03     447.174E-03    -224.088E-03     34.1304E-03    -223.608E-03     447.693E-03    -223.705E-03     29.6101E-03
            1434     12.2328E-03     80.2999E-03    -18.9861E+06     86.2452E+06     85.8069E+06    -625.225E+03    -223.138E-03     447.203E-03    -224.065E-03     36.0701E-03    -223.639E-03     447.693E-03    -223.734E-03     32.2375E-03
            1435     11.5128E-03     80.2489E-03    -26.1836E+06     73.6191E+06     70.8289E+06    -2.24958E+06    -223.254E-03     447.305E-03    -224.051E-03     37.6744E-03    -223.733E-03     447.747E-03    -223.765E-03     34.3507E-03
            1436     10.7929E-03     80.1956E-03    -33.3417E+06     60.4938E+06     61.7753E+06    -3.33004E+06    -223.372E-03     447.438E-03    -224.067E-03     38.0307E-03    -223.831E-03     447.815E-03    -223.797E-03     35.2892E-03
            1437     10.0731E-03     80.1418E-03    -39.8923E+06     39.2695E+06     54.5301E+06    -2.92930E+06    -223.470E-03     447.573E-03    -224.103E-03     37.4010E-03    -223.896E-03     447.838E-03    -223.829E-03     35.2571E-03
            1438     9.35327E-03     80.0888E-03    -46.1800E+06     3.34593E+06     43.9941E+06    -1.51412E+06    -223.590E-03     447.733E-03    -224.142E-03     36.1037E-03    -223.958E-03     447.821E-03    -223.860E-03     34.5296E-03
            1439     8.63354E-03     80.0373E-03    -52.6761E+06    -30.0581E+06     32.7286E+06    -507.273E+03    -223.687E-03     447.860E-03    -224.174E-03     34.4289E-03    -224.004E-03     447.789E-03    -223.890E-03     33.3601E-03
            1440     7.91385E-03     79.9877E-03    -59.4057E+06    -57.8982E+06     21.5957E+06    -111.687E+03    -223.749E-03     447.945E-03    -224.196E-03     32.5569E-03    -224.029E-03     447.747E-03    -223.918E-03     31.9160E-03
            1441     7.19421E-03     79.9406E-03    -66.4018E+06    -83.0514E+06     9.92968E+06     143.276E+03    -223.788E-03     448.001E-03    -224.213E-03     30.4805E-03    -224.039E-03     447.693E-03    -223.947E-03     30.1976E-03
            1442     6.47461E-03     79.8962E-03    -73.7477E+06    -106.156E+06    -2.57803E+06     285.630E+03    -223.815E-03     448.038E-03    -224.223E-03     28.1654E-03    -224.042E-03     447.634E-03    -223.975E-03     28.1738E-03
            1443     5.75504E-03     79.8552E-03    -81.4401E+06    -128.305E+06    -16.2725E+06     349.629E+03    -223.839E-03     448.066E-03    -224.227E-03     25.6546E-03    -224.047E-03     447.577E-03    -224.004E-03     25.8853E-03
            1444     5.03551E-03     79.8178E-03    -89.3984E+06    -149.658E+06    -31.3603E+06     375.323E+03    -223.863E-03     448.086E-03    -224.224E-03     22.9627E-03    -224.053E-03     447.519E-03    -224.034E-03     23.3480E-03
            1445     4.31602E-03     79.7844E-03    -97.4681E+06    -171.147E+06    -47.9115E+06     372.753E+03    -223.891E-03     448.104E-03    -224.213E-03     20.0924E-03    -224.064E-03     447.462E-03    -224.063E-03     20.5671E-03
            1446     3.59658E-03     79.7555E-03    -105.397E+06    -192.055E+06    -65.6644E+06     346.082E+03    -223.926E-03     448.120E-03    -224.195E-03     17.0594E-03    -224.080E-03     447.409E-03    -224.092E-03     17.5625E-03
            1447     2.87719E-03     79.7312E-03    -112.851E+06    -211.521E+06    -83.9282E+06     287.501E+03    -223.965E-03     448.134E-03    -224.169E-03     13.8764E-03    -224.101E-03     447.362E-03    -224.118E-03     14.3535E-03
            1448     2.15784E-03     79.7120E-03    -119.406E+06    -229.711E+06    -101.256E+06     206.190E+03    -224.009E-03     448.152E-03    -224.142E-03     10.5703E-03    -224.127E-03     447.323E-03    -224.142E-03     10.9746E-03
            1449     1.43853E-03     79.6980E-03    -124.587E+06    -245.050E+06    -115.720E+06     136.729E+03    -224.053E-03     448.173E-03    -224.119E-03     7.19169E-03    -224.153E-03     447.296E-03    -224.162E-03     7.48719E-03
            1450     719.255E-06     79.6893E-03    -127.946E+06    -255.576E+06    -125.554E+06     85.3809E+03    -224.106E-03     448.190E-03    -224.084E-03     3.93414E-03    -224.193E-03     447.279E-03    -224.155E-03     4.10230E-03
            1451     13.6728E-03     78.9067E-03    -5.67037E+06     97.4360E+06     105.615E+06     307.869E+03    -222.992E-03     447.065E-03    -224.073E-03     26.8133E-03    -223.460E-03     447.553E-03    -223.678E-03     22.4971E-03
            1452     12.9527E-03     78.8636E-03    -11.4056E+06     93.3794E+06     100.434E+06     228.720E+03    -223.055E-03     447.142E-03    -224.087E-03     34.2354E-03    -223.574E-03     447.661E-03    -223.704E-03     29.7151E-03
            1453     12.2328E-03     78.8168E-03    -17.2743E+06     87.6319E+06     87.6334E+06     258.503E+03    -223.163E-03     447.232E-03    -224.069E-03     36.1265E-03    -223.660E-03     447.724E-03    -223.732E-03     32.3080E-03
            1454     11.5129E-03     78.7658E-03    -23.7712E+06     75.6369E+06     73.2558E+06     191.488E+03    -223.278E-03     447.332E-03    -224.054E-03     37.6701E-03    -223.751E-03     447.777E-03    -223.763E-03     34.3863E-03
            1455     10.7930E-03     78.7125E-03    -31.2182E+06     62.7495E+06     63.0608E+06    -852.141E+03    -223.353E-03     447.417E-03    -224.065E-03     37.9717E-03    -223.806E-03     447.800E-03    -223.795E-03     35.2699E-03
            1456     10.0731E-03     78.6586E-03    -39.1275E+06     38.5184E+06     54.1411E+06    -2.23246E+06    -223.451E-03     447.551E-03    -224.100E-03     37.3269E-03    -223.871E-03     447.812E-03    -223.829E-03     35.1948E-03
            1457     9.35327E-03     78.6056E-03    -46.3981E+06     510.142E+03     42.8592E+06    -2.29944E+06    -223.591E-03     447.732E-03    -224.141E-03     36.0503E-03    -223.954E-03     447.808E-03    -223.861E-03     34.4659E-03
            1458     8.63353E-03     78.5540E-03    -53.0119E+06    -31.3710E+06     31.9616E+06    -1.61574E+06    -223.685E-03     447.857E-03    -224.172E-03     34.3895E-03    -224.001E-03     447.781E-03    -223.890E-03     33.3055E-03
            1459     7.91385E-03     78.5045E-03    -59.7161E+06    -58.8873E+06     20.8995E+06    -1.14056E+06    -223.745E-03     447.940E-03    -224.196E-03     32.5212E-03    -224.024E-03     447.738E-03    -223.919E-03     31.8668E-03
            1460     7.19420E-03     78.4573E-03    -66.7707E+06    -83.7307E+06     9.28956E+06    -765.150E+03    -223.785E-03     447.998E-03    -224.212E-03     30.4522E-03    -224.036E-03     447.687E-03    -223.948E-03     30.1573E-03
            1461     6.47459E-03     78.4130E-03    -74.1541E+06    -106.613E+06    -3.18064E+06    -480.925E+03    -223.814E-03     448.037E-03    -224.223E-03     28.1447E-03    -224.042E-03     447.633E-03    -223.977E-03     28.1427E-03
            1462     5.75503E-03     78.3720E-03    -81.8492E+06    -128.586E+06    -16.8356E+06    -263.270E+03    -223.839E-03     448.066E-03    -224.227E-03     25.6377E-03    -224.048E-03     447.576E-03    -224.006E-03     25.8600E-03
            1463     5.03550E-03     78.3346E-03    -89.7956E+06    -149.802E+06    -31.8486E+06    -119.751E+03    -223.863E-03     448.086E-03    -224.223E-03     22.9486E-03    -224.054E-03     447.519E-03    -224.035E-03     23.3271E-03
            1464     4.31602E-03     78.3013E-03    -97.8468E+06    -171.187E+06    -48.3384E+06    -35.3829E+03    -223.891E-03     448.104E-03    -224.213E-03     20.0810E-03    -224.065E-03     447.463E-03    -224.064E-03     20.5501E-03
            1465     3.59657E-03     78.2723E-03    -105.770E+06    -192.008E+06    -66.0511E+06     4.13774E+03    -223.925E-03     448.119E-03    -224.194E-03     17.0494E-03    -224.081E-03     447.410E-03    -224.093E-03     17.5479E-03
            1466     2.87718E-03     78.2481E-03    -113.210E+06    -211.412E+06    -84.2599E+06     16.1710E+03    -223.964E-03     448.133E-03    -224.169E-03     13.8671E-03    -224.102E-03     447.363E-03    -224.119E-03     14.3407E-03
            1467     2.15783E-03     78.2288E-03    -119.725E+06    -229.587E+06    -101.557E+06     19.4086E+03    -224.009E-03     448.151E-03    -224.142E-03     10.5631E-03    -224.128E-03     447.324E-03    -224.143E-03     10.9650E-03
            1468     1.43853E-03     78.2148E-03    -124.882E+06    -244.943E+06    -116.019E+06     12.9946E+03    -224.053E-03     448.172E-03    -224.119E-03     7.18714E-03    -224.154E-03     447.297E-03    -224.163E-03     7.48101E-03
            1469     719.252E-06     78.2061E-03    -128.246E+06    -255.456E+06    -125.853E+06     1.99530E+03    -224.106E-03     448.189E-03    -224.083E-03     3.92990E-03    -224.194E-03     447.280E-03    -224.156E-03     4.09715E-03
            1470     13.6726E-03     77.4236E-03    -5.26750E+06     97.3461E+06     105.126E+06     38.1329E+03    -222.974E-03     447.047E-03    -224.073E-03     26.8603E-03    -223.440E-03     447.535E-03    -223.681E-03     22.5402E-03
            1471     12.9527E-03     77.3805E-03    -11.4038E+06     93.2119E+06     100.081E+06     203.027E+03    -223.075E-03     447.163E-03    -224.088E-03     34.2187E-03    -223.594E-03     447.682E-03    -223.707E-03     29.6979E-03
            1472     12.2328E-03     77.3336E-03    -17.9444E+06     87.4587E+06     87.4737E+06     325.303E+03    -223.192E-03     447.262E-03    -224.070E-03     36.1056E-03    -223.691E-03     447.755E-03    -223.734E-03     32.2884E-03
            1473     11.5128E-03     77.2826E-03    -23.8869E+06     75.8527E+06     73.9997E+06     393.088E+03    -223.312E-03     447.369E-03    -224.057E-03     37.6810E-03    -223.787E-03     447.814E-03    -223.762E-03     34.4011E-03
            1474     10.7930E-03     77.2293E-03    -29.5433E+06     64.4855E+06     64.9675E+06     520.498E+03    -223.384E-03     447.450E-03    -224.066E-03     37.9780E-03    -223.834E-03     447.836E-03    -223.792E-03     35.2974E-03
            1475     10.0731E-03     77.1755E-03    -36.1162E+06     40.7986E+06     56.2408E+06    -46.9843E+03    -223.462E-03     447.561E-03    -224.099E-03     37.2979E-03    -223.873E-03     447.826E-03    -223.825E-03     35.1989E-03
            1476     9.35332E-03     77.1224E-03    -43.6683E+06     483.413E+03     44.0418E+06    -1.22063E+06    -223.592E-03     447.732E-03    -224.139E-03     36.0142E-03    -223.943E-03     447.802E-03    -223.857E-03     34.4464E-03
            1477     8.63358E-03     77.0708E-03    -51.2603E+06    -32.4548E+06     32.4418E+06    -1.63993E+06    -223.683E-03     447.853E-03    -224.170E-03     34.3594E-03    -223.989E-03     447.768E-03    -223.887E-03     33.2760E-03
            1478     7.91388E-03     77.0213E-03    -58.6468E+06    -59.8732E+06     21.0995E+06    -1.40252E+06    -223.740E-03     447.933E-03    -224.194E-03     32.4909E-03    -224.013E-03     447.724E-03    -223.916E-03     31.8340E-03
            1479     7.19422E-03     76.9742E-03    -66.0956E+06    -84.6004E+06     9.32818E+06    -1.13929E+06    -223.782E-03     447.992E-03    -224.211E-03     30.4267E-03    -224.028E-03     447.676E-03    -223.945E-03     30.1275E-03
            1480     6.47461E-03     76.9298E-03    -73.7420E+06    -107.328E+06    -3.21822E+06    -881.098E+03    -223.813E-03     448.034E-03    -224.221E-03     28.1213E-03    -224.038E-03     447.626E-03    -223.975E-03     28.1145E-03
            1481     5.75504E-03     76.8888E-03    -81.6089E+06    -129.153E+06    -16.9350E+06    -665.330E+03    -223.838E-03     448.063E-03    -224.225E-03     25.6162E-03    -224.044E-03     447.570E-03    -224.004E-03     25.8337E-03
            1482     5.03551E-03     76.8514E-03    -89.6520E+06    -150.239E+06    -31.9909E+06    -472.017E+03    -223.861E-03     448.082E-03    -224.221E-03     22.9301E-03    -224.051E-03     447.514E-03    -224.034E-03     23.3045E-03
            1483     4.31602E-03     76.8181E-03    -97.7788E+06    -171.460E+06    -48.4376E+06    -329.563E+03    -223.890E-03     448.101E-03    -224.211E-03     20.0649E-03    -224.063E-03     447.459E-03    -224.063E-03     20.5305E-03
            1484     3.59658E-03     76.7892E-03    -105.755E+06    -192.148E+06    -66.0979E+06    -268.902E+03    -223.924E-03     448.117E-03    -224.193E-03     17.0359E-03    -224.080E-03     447.407E-03    -224.091E-03     17.5311E-03
            1485     2.87719E-03     76.7649E-03    -113.238E+06    -211.590E+06    -84.3172E+06    -224.863E+03    -223.963E-03     448.131E-03    -224.167E-03     13.8568E-03    -224.101E-03     447.360E-03    -224.118E-03     14.3273E-03
            1486     2.15784E-03     76.7457E-03    -119.813E+06    -229.753E+06    -101.654E+06    -147.263E+03    -224.008E-03     448.149E-03    -224.141E-03     10.5573E-03    -224.127E-03     447.321E-03    -224.142E-03     10.9569E-03
            1487     1.43853E-03     76.7317E-03    -125.010E+06    -245.041E+06    -116.150E+06    -87.7149E+03    -224.052E-03     448.169E-03    -224.117E-03     7.18472E-03    -224.153E-03     447.293E-03    -224.161E-03     7.47707E-03
            1488     719.257E-06     76.7230E-03    -128.387E+06    -255.579E+06    -126.005E+06    -48.9182E+03    -224.104E-03     448.185E-03    -224.080E-03     3.92800E-03    -224.193E-03     447.275E-03    -224.153E-03     4.09453E-03
            1489     13.6726E-03     75.9403E-03    -5.86224E+06     96.9372E+06     104.287E+06     29.4930E+03    -223.004E-03     447.078E-03    -224.074E-03     26.8235E-03    -223.471E-03     447.566E-03    -223.684E-03     22.5030E-03
            1490     12.9527E-03     75.8972E-03    -11.7317E+06     92.8806E+06     99.5560E+06     192.459E+03    -223.105E-03     447.193E-03    -224.088E-03     34.1989E-03    -223.624E-03     447.712E-03    -223.708E-03     29.6779E-03
            1491     12.2328E-03     75.8504E-03    -17.5091E+06     87.5609E+06     87.5803E+06     175.118E+03    -223.211E-03     447.282E-03    -224.070E-03     36.0925E-03    -223.709E-03     447.774E-03    -223.734E-03     32.2732E-03
            1492     11.5129E-03     75.7993E-03    -23.6084E+06     75.8324E+06     74.1499E+06     46.3294E+03    -223.327E-03     447.384E-03    -224.056E-03     37.6600E-03    -223.801E-03     447.828E-03    -223.761E-03     34.3750E-03
            1493     10.7930E-03     75.7460E-03    -29.9938E+06     64.1536E+06     65.0351E+06     62.0342E+03    -223.401E-03     447.467E-03    -224.066E-03     37.9704E-03    -223.852E-03     447.851E-03    -223.790E-03     35.2831E-03
            1494     10.0732E-03     75.6922E-03    -36.3188E+06     41.8935E+06     56.9277E+06     257.462E+03    -223.473E-03     447.571E-03    -224.098E-03     37.3046E-03    -223.888E-03     447.841E-03    -223.821E-03     35.2103E-03
            1495     9.35337E-03     75.6392E-03    -42.9035E+06     2.21311E+06     45.1537E+06     47.6723E+03    -223.593E-03     447.730E-03    -224.137E-03     36.0140E-03    -223.945E-03     447.807E-03    -223.852E-03     34.4651E-03
            1496     8.63361E-03     75.5876E-03    -50.1233E+06    -32.3259E+06     33.2057E+06    -535.196E+03    -223.682E-03     447.850E-03    -224.168E-03     34.3480E-03    -223.984E-03     447.763E-03    -223.883E-03     33.2814E-03
            1497     7.91391E-03     75.5381E-03    -57.6813E+06    -60.2449E+06     21.6331E+06    -827.747E+03    -223.738E-03     447.929E-03    -224.191E-03     32.4765E-03    -224.007E-03     447.716E-03    -223.912E-03     31.8285E-03
            1498     7.19425E-03     75.4910E-03    -65.3612E+06    -85.1713E+06     9.68501E+06    -841.897E+03    -223.780E-03     447.988E-03    -224.208E-03     30.4147E-03    -224.022E-03     447.667E-03    -223.941E-03     30.1200E-03
            1499     6.47464E-03     75.4467E-03    -73.2175E+06    -107.846E+06    -2.98897E+06    -782.101E+03    -223.810E-03     448.028E-03    -224.218E-03     28.1096E-03    -224.032E-03     447.616E-03    -223.971E-03     28.1049E-03
            1500     5.75506E-03     75.4056E-03    -81.2549E+06    -129.686E+06    -16.7935E+06    -697.310E+03    -223.835E-03     448.058E-03    -224.222E-03     25.6039E-03    -224.039E-03     447.562E-03    -224.000E-03     25.8217E-03
            1501     5.03553E-03     75.3683E-03    -89.4533E+06    -150.847E+06    -31.9495E+06    -532.113E+03    -223.859E-03     448.077E-03    -224.219E-03     22.9172E-03    -224.047E-03     447.505E-03    -224.030E-03     23.2914E-03
            1502     4.31604E-03     75.3350E-03    -97.6856E+06    -171.707E+06    -48.5022E+06    -420.415E+03    -223.886E-03     448.094E-03    -224.208E-03     20.0534E-03    -224.058E-03     447.450E-03    -224.059E-03     20.5185E-03
            1503     3.59659E-03     75.3060E-03    -105.718E+06    -192.367E+06    -66.1947E+06    -425.479E+03    -223.921E-03     448.110E-03    -224.189E-03     17.0271E-03    -224.076E-03     447.399E-03    -224.088E-03     17.5206E-03
            1504     2.87720E-03     75.2818E-03    -113.242E+06    -212.017E+06    -84.3926E+06    -341.365E+03    -223.961E-03     448.126E-03    -224.165E-03     13.8500E-03    -224.098E-03     447.352E-03    -224.115E-03     14.3191E-03
            1505     2.15784E-03     75.2626E-03    -119.844E+06    -230.074E+06    -101.715E+06    -220.173E+03    -224.005E-03     448.143E-03    -224.138E-03     10.5535E-03    -224.123E-03     447.314E-03    -224.139E-03     10.9521E-03
            1506     1.43854E-03     75.2486E-03    -125.061E+06    -245.318E+06    -116.214E+06    -139.751E+03    -224.048E-03     448.162E-03    -224.114E-03     7.18398E-03    -224.149E-03     447.286E-03    -224.158E-03     7.47550E-03
            1507     719.256E-06     75.2399E-03    -128.457E+06    -255.833E+06    -126.075E+06    -67.4804E+03    -224.101E-03     448.179E-03    -224.078E-03     3.92805E-03    -224.190E-03     447.269E-03    -224.151E-03     4.09424E-03
            1508     13.6726E-03     74.4570E-03    -5.39956E+06     97.0752E+06     104.339E+06     51.0136E+03    -223.020E-03     447.094E-03    -224.074E-03     26.7957E-03    -223.485E-03     447.582E-03    -223.685E-03     22.4756E-03
            1509     12.9527E-03     74.4139E-03    -11.2775E+06     92.9225E+06     99.5833E+06    -234.629E+03    -223.116E-03     447.204E-03    -224.088E-03     34.1802E-03    -223.633E-03     447.722E-03    -223.708E-03     29.6529E-03
            1510     12.2328E-03     74.3671E-03    -17.4848E+06     87.1794E+06     87.4925E+06    -113.211E+03    -223.228E-03     447.297E-03    -224.070E-03     36.0809E-03    -223.724E-03     447.788E-03    -223.733E-03     32.2574E-03
            1511     11.5129E-03     74.3161E-03    -23.6343E+06     75.7026E+06     74.2593E+06     236.237E+03    -223.339E-03     447.395E-03    -224.056E-03     37.6559E-03    -223.813E-03     447.838E-03    -223.760E-03     34.3741E-03
            1512     10.7931E-03     74.2628E-03    -29.9135E+06     64.1328E+06     65.1628E+06     297.271E+03    -223.404E-03     447.468E-03    -224.065E-03     37.9646E-03    -223.855E-03     447.852E-03    -223.788E-03     35.2811E-03
            1513     10.0732E-03     74.2090E-03    -36.6533E+06     41.9056E+06     56.9155E+06     109.157E+03    -223.473E-03     447.569E-03    -224.096E-03     37.2978E-03    -223.890E-03     447.840E-03    -223.819E-03     35.2016E-03
            1514     9.35338E-03     74.1559E-03    -43.5034E+06     2.73303E+06     45.2778E+06     45.0461E+03    -223.594E-03     447.730E-03    -224.135E-03     36.0101E-03    -223.950E-03     447.809E-03    -223.850E-03     34.4616E-03
            1515     8.63364E-03     74.1044E-03    -50.3386E+06    -31.6196E+06     33.5474E+06    -3.67138E+03    -223.683E-03     447.849E-03    -224.166E-03     34.3392E-03    -223.987E-03     447.765E-03    -223.879E-03     33.2811E-03
            1516     7.91394E-03     74.0549E-03    -57.5235E+06    -60.0440E+06     21.9774E+06    -222.974E+03    -223.738E-03     447.927E-03    -224.189E-03     32.4652E-03    -224.007E-03     447.714E-03    -223.908E-03     31.8266E-03
            1517     7.19428E-03     74.0078E-03    -65.0856E+06    -85.2761E+06     9.99160E+06    -365.231E+03    -223.779E-03     447.984E-03    -224.205E-03     30.4078E-03    -224.020E-03     447.662E-03    -223.937E-03     30.1203E-03
            1518     6.47466E-03     73.9635E-03    -72.9253E+06    -108.001E+06    -2.73569E+06    -435.297E+03    -223.808E-03     448.023E-03    -224.215E-03     28.1020E-03    -224.028E-03     447.609E-03    -223.967E-03     28.1027E-03
            1519     5.75509E-03     73.9225E-03    -81.0223E+06    -130.009E+06    -16.6093E+06    -447.594E+03    -223.833E-03     448.052E-03    -224.219E-03     25.5927E-03    -224.036E-03     447.554E-03    -223.996E-03     25.8146E-03
            1520     5.03555E-03     73.8851E-03    -89.2772E+06    -151.332E+06    -31.8179E+06    -383.767E+03    -223.856E-03     448.072E-03    -224.215E-03     22.9064E-03    -224.043E-03     447.497E-03    -224.026E-03     23.2830E-03
            1521     4.31606E-03     73.8518E-03    -97.5428E+06    -171.803E+06    -48.4652E+06    -362.850E+03    -223.881E-03     448.085E-03    -224.203E-03     20.0454E-03    -224.053E-03     447.440E-03    -224.055E-03     20.5118E-03
            1522     3.59661E-03     73.8229E-03    -105.631E+06    -192.579E+06    -66.2548E+06    -390.940E+03    -223.916E-03     448.101E-03    -224.185E-03     17.0202E-03    -224.070E-03     447.389E-03    -224.084E-03     17.5147E-03
            1523     2.87721E-03     73.7987E-03    -113.214E+06    -212.505E+06    -84.4632E+06    -343.403E+03    -223.957E-03     448.118E-03    -224.161E-03     13.8444E-03    -224.093E-03     447.343E-03    -224.111E-03     14.3136E-03
            1524     2.15785E-03     73.7794E-03    -119.836E+06    -230.446E+06    -101.766E+06    -239.115E+03    -224.001E-03     448.136E-03    -224.134E-03     10.5505E-03    -224.119E-03     447.305E-03    -224.135E-03     10.9489E-03
            1525     1.43854E-03     73.7654E-03    -125.058E+06    -245.673E+06    -116.232E+06    -145.990E+03    -224.045E-03     448.156E-03    -224.111E-03     7.18318E-03    -224.145E-03     447.277E-03    -224.155E-03     7.47469E-03
            1526     719.260E-06     73.7568E-03    -128.454E+06    -256.129E+06    -126.079E+06    -72.0581E+03    -224.098E-03     448.174E-03    -224.075E-03     3.92774E-03    -224.186E-03     447.262E-03    -224.148E-03     4.09390E-03
            1527     13.6726E-03     72.9737E-03    -5.32795E+06     97.1812E+06     104.453E+06    -190.023E+03    -223.028E-03     447.101E-03    -224.074E-03     26.7904E-03    -223.492E-03     447.589E-03    -223.685E-03     22.4669E-03
            1528     12.9527E-03     72.9307E-03    -11.4156E+06     92.8017E+06     99.5965E+06     62.2987E+03    -223.120E-03     447.207E-03    -224.088E-03     34.1691E-03    -223.637E-03     447.725E-03    -223.708E-03     29.6466E-03
            1529     12.2328E-03     72.8838E-03    -17.8596E+06     86.7799E+06     87.2955E+06     177.294E+03    -223.229E-03     447.298E-03    -224.069E-03     36.0711E-03    -223.726E-03     447.787E-03    -223.733E-03     32.2524E-03
            1530     11.5129E-03     72.8328E-03    -24.1649E+06     75.3748E+06     74.0044E+06     172.958E+03    -223.341E-03     447.396E-03    -224.055E-03     37.6491E-03    -223.817E-03     447.839E-03    -223.759E-03     34.3668E-03
            1531     10.7931E-03     72.7796E-03    -30.3381E+06     64.2067E+06     65.0943E+06     230.993E+03    -223.408E-03     447.471E-03    -224.063E-03     37.9598E-03    -223.861E-03     447.856E-03    -223.787E-03     35.2757E-03
            1532     10.0732E-03     72.7258E-03    -36.6889E+06     42.2118E+06     57.0504E+06      233.61E+03    -223.476E-03     447.570E-03    -224.094E-03     37.2901E-03    -223.894E-03     447.842E-03    -223.817E-03     35.1962E-03
            1533     9.35341E-03     72.6728E-03    -43.4473E+06     2.82810E+06     45.3877E+06     93.7617E+03    -223.597E-03     447.730E-03    -224.133E-03     35.9994E-03    -223.952E-03     447.809E-03    -223.847E-03     34.4520E-03
            1534     8.63366E-03     72.6212E-03    -50.4667E+06    -31.4467E+06     33.6355E+06    -12.4557E+03    -223.684E-03     447.847E-03    -224.163E-03     34.3284E-03    -223.989E-03     447.764E-03    -223.876E-03     33.2705E-03
            1535     7.91397E-03     72.5718E-03    -57.6197E+06    -59.8101E+06     22.1166E+06    -28.6823E+03    -223.739E-03     447.925E-03    -224.186E-03     32.4557E-03    -224.008E-03     447.713E-03    -223.905E-03     31.8203E-03
            1536     7.19431E-03     72.5247E-03    -65.0411E+06    -85.1953E+06     10.1666E+06    -93.7827E+03    -223.780E-03     447.982E-03    -224.202E-03     30.3998E-03    -224.021E-03     447.661E-03    -223.934E-03     30.1163E-03
            1537     6.47469E-03     72.4804E-03    -72.7882E+06    -107.983E+06    -2.52631E+06    -144.615E+03    -223.808E-03     448.020E-03    -224.212E-03     28.0929E-03    -224.028E-03     447.605E-03    -223.963E-03     28.0977E-03
            1538     5.75511E-03     72.4394E-03    -80.8127E+06    -130.125E+06    -16.4038E+06    -174.880E+03    -223.831E-03     448.046E-03    -224.215E-03     25.5828E-03    -224.033E-03     447.547E-03    -223.992E-03     25.8087E-03
            1539     5.03558E-03     72.4020E-03    -89.0264E+06    -151.492E+06    -31.6121E+06    -206.489E+03    -223.853E-03     448.065E-03    -224.212E-03     22.8976E-03    -224.039E-03     447.488E-03    -224.021E-03     23.2770E-03
            1540     4.31608E-03     72.3687E-03    -97.2881E+06    -171.886E+06    -48.2504E+06    -223.778E+03    -223.877E-03     448.077E-03    -224.200E-03     20.0380E-03    -224.047E-03     447.431E-03    -224.051E-03     20.5066E-03
            1541     3.59663E-03     72.3398E-03    -105.382E+06    -192.720E+06    -66.0781E+06    -227.525E+03    -223.911E-03     448.093E-03    -224.182E-03     17.0141E-03    -224.064E-03     447.379E-03    -224.080E-03     17.5111E-03
            1542     2.87722E-03     72.3155E-03    -112.976E+06    -212.818E+06    -84.3300E+06    -220.751E+03    -223.953E-03     448.111E-03    -224.158E-03     13.8402E-03    -224.088E-03     447.334E-03    -224.107E-03     14.3113E-03
            1543     2.15786E-03     72.2963E-03    -119.630E+06    -230.799E+06    -101.631E+06    -172.973E+03    -223.999E-03     448.130E-03    -224.131E-03     10.5478E-03    -224.115E-03     447.297E-03    -224.131E-03     10.9472E-03
            1544     1.43855E-03     72.2823E-03    -124.870E+06    -245.980E+06    -116.088E+06    -107.897E+03    -224.043E-03     448.151E-03    -224.108E-03     7.18166E-03    -224.142E-03     447.270E-03    -224.151E-03     7.47368E-03
            1545     719.261E-06     72.2736E-03    -128.268E+06    -256.404E+06    -125.910E+06    -56.0147E+03    -224.096E-03     448.167E-03    -224.071E-03     3.92689E-03    -224.183E-03     447.254E-03    -224.143E-03     4.09320E-03
            1546     13.6726E-03     71.4905E-03    -5.89476E+06     96.7064E+06     104.136E+06    -103.939E+03    -223.035E-03     447.108E-03    -224.074E-03     26.7932E-03    -223.501E-03     447.595E-03    -223.685E-03     22.4711E-03
            1547     12.9527E-03     71.4474E-03    -11.9104E+06     92.0630E+06     99.2604E+06     206.163E+03    -223.127E-03     447.214E-03    -224.087E-03     34.1658E-03    -223.645E-03     447.729E-03    -223.707E-03     29.6456E-03
            1548     12.2328E-03     71.4005E-03    -18.0122E+06     86.9760E+06     87.3810E+06     364.956E+03    -223.232E-03     447.300E-03    -224.068E-03     36.0597E-03    -223.730E-03     447.790E-03    -223.732E-03     32.2442E-03
            1549     11.5129E-03     71.3496E-03    -24.1382E+06     75.5796E+06     74.1077E+06     174.323E+03    -223.344E-03     447.397E-03    -224.053E-03     37.6338E-03    -223.820E-03     447.841E-03    -223.757E-03     34.3516E-03
            1550     10.7931E-03     71.2963E-03    -30.3478E+06     64.2407E+06     65.1213E+06    -24.5671E+03    -223.409E-03     447.471E-03    -224.062E-03     37.9447E-03    -223.863E-03     447.856E-03    -223.785E-03     35.2567E-03
            1551     10.0732E-03     71.2426E-03    -36.8196E+06     42.0880E+06     57.0048E+06    -19.8874E+03    -223.479E-03     447.571E-03    -224.092E-03     37.2782E-03    -223.897E-03     447.843E-03    -223.815E-03     35.1806E-03
            1552     9.35343E-03     71.1895E-03    -43.4769E+06     2.97530E+06     45.4621E+06     82.1899E+03    -223.597E-03     447.729E-03    -224.131E-03     35.9888E-03    -223.953E-03     447.809E-03    -223.845E-03     34.4413E-03
            1553     8.63369E-03     71.1380E-03    -50.3427E+06    -31.4052E+06     33.7492E+06     78.0389E+03    -223.685E-03     447.846E-03    -224.161E-03     34.3168E-03    -223.990E-03     447.763E-03    -223.874E-03     33.2604E-03
            1554     7.91399E-03     71.0886E-03    -57.5195E+06    -59.7861E+06     22.2371E+06     38.5118E+03    -223.742E-03     447.925E-03    -224.183E-03     32.4440E-03    -224.011E-03     447.713E-03    -223.902E-03     31.8097E-03
            1555     7.19434E-03     71.0415E-03    -64.9585E+06    -85.1254E+06     10.3087E+06     27.3967E+03    -223.781E-03     447.981E-03    -224.199E-03     30.3909E-03    -224.022E-03     447.659E-03    -223.930E-03     30.1091E-03
            1556     6.47472E-03     70.9972E-03    -72.6725E+06    -107.972E+06    -2.37554E+06     3.91911E+03    -223.806E-03     448.015E-03    -224.209E-03     28.0877E-03    -224.026E-03     447.600E-03    -223.959E-03     28.0946E-03
            1557     5.75514E-03     70.9562E-03    -80.6520E+06    -130.112E+06    -16.2281E+06    -20.4315E+03    -223.828E-03     448.040E-03    -224.212E-03     25.5788E-03    -224.029E-03     447.540E-03    -223.988E-03     25.8071E-03
            1558     5.03560E-03     70.9189E-03    -88.8401E+06    -151.497E+06    -31.4095E+06    -47.7698E+03    -223.850E-03     448.058E-03    -224.208E-03     22.8930E-03    -224.035E-03     447.481E-03    -224.017E-03     23.2749E-03
            1559     4.31610E-03     70.8856E-03    -97.1018E+06    -171.942E+06    -48.0419E+06    -70.6667E+03    -223.873E-03     448.070E-03    -224.196E-03     20.0333E-03    -224.043E-03     447.423E-03    -224.046E-03     20.5045E-03
            1560     3.59664E-03     70.8567E-03    -105.187E+06    -192.803E+06    -65.8547E+06    -81.1148E+03    -223.907E-03     448.085E-03    -224.178E-03     17.0104E-03    -224.059E-03     447.371E-03    -224.076E-03     17.5097E-03
            1561     2.87723E-03     70.8324E-03    -112.756E+06    -212.955E+06    -84.0782E+06    -79.5412E+03    -223.950E-03     448.105E-03    -224.155E-03     13.8376E-03    -224.083E-03     447.326E-03    -224.103E-03     14.3107E-03
            1562     2.15787E-03     70.8132E-03    -119.384E+06    -230.996E+06    -101.360E+06    -75.7315E+03    -223.996E-03     448.125E-03    -224.129E-03     10.5469E-03    -224.111E-03     447.290E-03    -224.128E-03     10.9475E-03
            1563     1.43855E-03     70.7992E-03    -124.614E+06    -246.184E+06    -115.806E+06    -61.2208E+03    -224.040E-03     448.146E-03    -224.105E-03     7.18287E-03    -224.138E-03     447.263E-03    -224.147E-03     7.47529E-03
            1564     719.268E-06     70.7906E-03    -128.010E+06    -256.606E+06    -125.641E+06    -35.0148E+03    -224.094E-03     448.162E-03    -224.068E-03     3.92890E-03    -224.179E-03     447.247E-03    -224.139E-03     4.09528E-03
            1565     13.6726E-03     70.0072E-03    -5.48123E+06     96.6269E+06     104.080E+06     88.3698E+03    -223.048E-03     447.121E-03    -224.073E-03     26.7914E-03    -223.512E-03     447.607E-03    -223.685E-03     22.4726E-03
            1566     12.9527E-03     69.9641E-03    -11.3981E+06     91.5174E+06     99.1556E+06     45.5061E+03    -223.147E-03     447.233E-03    -224.086E-03     34.1607E-03    -223.662E-03     447.745E-03    -223.707E-03     29.6383E-03
            1567     12.2328E-03     69.9173E-03    -17.4334E+06     86.9272E+06     87.5924E+06     154.301E+03    -223.244E-03     447.311E-03    -224.067E-03     36.0493E-03    -223.740E-03     447.800E-03    -223.730E-03     32.2306E-03
            1568     11.5129E-03     69.8663E-03    -23.4772E+06     75.9972E+06     74.5418E+06     161.059E+03    -223.347E-03     447.399E-03    -224.052E-03     37.6205E-03    -223.821E-03     447.843E-03    -223.756E-03     34.3382E-03
            1569     10.7931E-03     69.8131E-03    -29.7667E+06     64.3336E+06     65.4160E+06     94.5862E+03    -223.412E-03     447.472E-03    -224.060E-03     37.9323E-03    -223.864E-03     447.857E-03    -223.783E-03     35.2460E-03
            1570     10.0733E-03     69.7593E-03    -36.4075E+06     42.0134E+06     57.1824E+06     56.8689E+03    -223.480E-03     447.571E-03    -224.091E-03     37.2664E-03    -223.896E-03     447.841E-03    -223.813E-03     35.1696E-03
            1571     9.35345E-03     69.7063E-03    -43.2845E+06     2.81770E+06     45.5441E+06     47.0396E+03    -223.598E-03     447.728E-03    -224.129E-03     35.9784E-03    -223.953E-03     447.807E-03    -223.843E-03     34.4302E-03
            1572     8.63370E-03     69.6549E-03    -50.2583E+06    -31.4248E+06     33.8355E+06     118.524E+03    -223.686E-03     447.845E-03    -224.159E-03     34.3066E-03    -223.991E-03     447.762E-03    -223.871E-03     33.2508E-03
            1573     7.91402E-03     69.6054E-03    -57.4062E+06    -59.7623E+06     22.3457E+06     145.767E+03    -223.742E-03     447.923E-03    -224.181E-03     32.4370E-03    -224.010E-03     447.710E-03    -223.899E-03     31.8045E-03
            1574     7.19436E-03     69.5583E-03    -64.8394E+06    -85.0898E+06     10.4320E+06     121.092E+03    -223.780E-03     447.977E-03    -224.197E-03     30.3889E-03    -224.021E-03     447.655E-03    -223.927E-03     30.1089E-03
            1575     6.47474E-03     69.5141E-03    -72.5533E+06    -107.940E+06    -2.22097E+06     97.7531E+03    -223.805E-03     448.011E-03    -224.206E-03     28.0869E-03    -224.024E-03     447.596E-03    -223.956E-03     28.0956E-03
            1576     5.75515E-03     69.4731E-03    -80.5313E+06    -130.085E+06    -16.0530E+06     75.7530E+03    -223.826E-03     448.036E-03    -224.210E-03     25.5778E-03    -224.027E-03     447.536E-03    -223.985E-03     25.8077E-03
            1577     5.03561E-03     69.4358E-03    -88.7019E+06    -151.475E+06    -31.2105E+06     57.0988E+03    -223.848E-03     448.054E-03    -224.206E-03     22.8915E-03    -224.032E-03     447.476E-03    -224.014E-03     23.2752E-03
            1578     4.31611E-03     69.4025E-03    -96.9328E+06    -171.937E+06    -47.7817E+06     37.5608E+03    -223.871E-03     448.066E-03    -224.194E-03     20.0307E-03    -224.041E-03     447.419E-03    -224.043E-03     20.5036E-03
            1579     3.59665E-03     69.3736E-03    -105.002E+06    -192.809E+06    -65.5519E+06     9.91959E+03    -223.905E-03     448.081E-03    -224.176E-03     17.0078E-03    -224.056E-03     447.366E-03    -224.072E-03     17.5086E-03
            1580     2.87724E-03     69.3494E-03    -112.566E+06    -213.005E+06    -83.7771E+06    -14.2412E+03    -223.946E-03     448.099E-03    -224.153E-03     13.8381E-03    -224.079E-03     447.319E-03    -224.100E-03     14.3121E-03
            1581     2.15788E-03     69.3301E-03    -119.199E+06    -231.064E+06    -101.097E+06    -17.8262E+03    -223.992E-03     448.119E-03    -224.127E-03     10.5515E-03    -224.106E-03     447.283E-03    -224.125E-03     10.9527E-03
            1582     1.43855E-03     69.3161E-03    -124.449E+06    -246.280E+06    -115.602E+06    -23.2049E+03    -224.037E-03     448.142E-03    -224.105E-03     7.18927E-03    -224.135E-03     447.259E-03    -224.145E-03     7.48198E-03
            1583     719.266E-06     69.3075E-03    -127.870E+06    -256.743E+06    -125.486E+06    -18.4541E+03    -224.092E-03     448.161E-03    -224.069E-03     3.93399E-03    -224.177E-03     447.245E-03    -224.139E-03     4.10037E-03
            1584     13.6726E-03     68.5239E-03    -5.43516E+06     96.6700E+06     104.087E+06    -35.2212E+03    -223.057E-03     447.130E-03    -224.073E-03     26.7712E-03    -223.521E-03     447.616E-03    -223.685E-03     22.4503E-03
            1585     12.9527E-03     68.4808E-03    -11.2765E+06     91.6734E+06     99.2088E+06    -123.758E+03    -223.153E-03     447.238E-03    -224.085E-03     34.1502E-03    -223.667E-03     447.750E-03    -223.706E-03     29.6259E-03
            1586     12.2328E-03     68.4340E-03    -17.3321E+06     86.4547E+06     87.4972E+06    -133.718E+03    -223.252E-03     447.318E-03    -224.067E-03     36.0480E-03    -223.746E-03     447.804E-03    -223.729E-03     32.2250E-03
            1587     11.5130E-03     68.3830E-03    -23.4670E+06     75.7045E+06     74.4982E+06     203.588E+03    -223.350E-03     447.401E-03    -224.051E-03     37.6163E-03    -223.823E-03     447.844E-03    -223.754E-03     34.3348E-03
            1588     10.7931E-03     68.3298E-03    -29.7765E+06     64.5601E+06     65.5084E+06     313.415E+03    -223.410E-03     447.469E-03    -224.059E-03     37.9258E-03    -223.861E-03     447.854E-03    -223.782E-03     35.2433E-03
            1589     10.0733E-03     68.2761E-03    -36.3652E+06     42.0531E+06     57.2762E+06     228.659E+03    -223.480E-03     447.569E-03    -224.090E-03     37.2619E-03    -223.896E-03     447.839E-03    -223.812E-03     35.1679E-03
            1590     9.35346E-03     68.2231E-03    -43.1846E+06     2.76875E+06     45.6349E+06     242.513E+03    -223.599E-03     447.727E-03    -224.128E-03     35.9744E-03    -223.953E-03     447.806E-03    -223.841E-03     34.4295E-03
            1591     8.63373E-03     68.1717E-03    -50.1928E+06    -31.4643E+06     33.8938E+06     219.166E+03    -223.685E-03     447.843E-03    -224.158E-03     34.3047E-03    -223.989E-03     447.759E-03    -223.870E-03     33.2510E-03
            1592     7.91402E-03     68.1223E-03    -57.3858E+06    -59.7384E+06     22.4120E+06     206.537E+03    -223.740E-03     447.919E-03    -224.180E-03     32.4357E-03    -224.008E-03     447.707E-03    -223.898E-03     31.8049E-03
            1593     7.19437E-03     68.0752E-03    -64.8037E+06    -85.0416E+06     10.5224E+06      201.18E+03    -223.779E-03     447.974E-03    -224.196E-03     30.3856E-03    -224.019E-03     447.652E-03    -223.926E-03     30.1073E-03
            1594     6.47475E-03     68.0309E-03    -72.5165E+06    -107.877E+06    -2.09069E+06     176.099E+03    -223.804E-03     448.009E-03    -224.205E-03     28.0837E-03    -224.023E-03     447.594E-03    -223.954E-03     28.0938E-03
            1595     5.75517E-03     67.9900E-03    -80.4977E+06    -130.023E+06    -15.8659E+06     137.636E+03    -223.825E-03     448.034E-03    -224.209E-03     25.5759E-03    -224.026E-03     447.534E-03    -223.983E-03     25.8069E-03
            1596     5.03562E-03     67.9527E-03    -88.6727E+06    -151.422E+06    -31.0038E+06     95.4574E+03    -223.847E-03     448.052E-03    -224.205E-03     22.8892E-03    -224.032E-03     447.474E-03    -224.012E-03     23.2735E-03
            1597     4.31612E-03     67.9194E-03    -96.9029E+06    -171.900E+06    -47.5917E+06     59.9806E+03    -223.870E-03     448.063E-03    -224.193E-03     20.0288E-03    -224.039E-03     447.416E-03    -224.041E-03     20.5022E-03
            1598     3.59666E-03     67.8905E-03    -104.963E+06    -192.773E+06    -65.4020E+06     34.6884E+03    -223.902E-03     448.077E-03    -224.175E-03     17.0084E-03    -224.054E-03     447.361E-03    -224.070E-03     17.5097E-03
            1599     2.87725E-03     67.8663E-03    -112.533E+06    -213.006E+06    -83.6793E+06     14.5821E+03    -223.942E-03     448.094E-03    -224.152E-03     13.8417E-03    -224.075E-03     447.314E-03    -224.098E-03     14.3162E-03
            1600     2.15788E-03     67.8471E-03    -119.170E+06    -231.107E+06    -101.047E+06     6.31873E+03    -223.988E-03     448.114E-03    -224.127E-03     10.5579E-03    -224.102E-03     447.278E-03    -224.124E-03     10.9593E-03
            1601     1.43855E-03     67.8331E-03    -124.404E+06    -246.316E+06    -115.576E+06     15.2866E+03    -224.035E-03     448.141E-03    -224.105E-03     7.19592E-03    -224.133E-03     447.257E-03    -224.146E-03     7.48891E-03
            1602     719.265E-06     67.8244E-03    -127.813E+06    -256.788E+06    -125.446E+06     14.0654E+03    -224.092E-03     448.163E-03    -224.072E-03     3.93720E-03    -224.176E-03     447.247E-03    -224.141E-03     4.10389E-03
            1603     13.6726E-03     67.0405E-03    -5.80389E+06     96.7900E+06     104.235E+06        -167.025    -223.053E-03     447.126E-03    -224.073E-03     26.7539E-03    -223.520E-03     447.613E-03    -223.684E-03     22.4329E-03
            1604     12.9527E-03     66.9975E-03    -11.8840E+06     92.1739E+06     99.3267E+06    -257.947E+03    -223.140E-03     447.225E-03    -224.085E-03     34.1377E-03    -223.658E-03     447.740E-03    -223.705E-03     29.6118E-03
            1605     12.2328E-03     66.9507E-03    -18.0699E+06     85.8924E+06     87.0778E+06    -281.268E+03    -223.244E-03     447.310E-03    -224.066E-03     36.0422E-03    -223.741E-03     447.795E-03    -223.729E-03     32.2181E-03
            1606     11.5130E-03     66.8998E-03    -24.1109E+06     74.9192E+06     74.0309E+06    -19.9772E+03    -223.351E-03     447.401E-03    -224.051E-03     37.6174E-03    -223.825E-03     447.842E-03    -223.754E-03     34.3334E-03
            1607     10.7931E-03     66.8466E-03    -30.1692E+06     64.6400E+06     65.3749E+06     197.566E+03    -223.407E-03     447.466E-03    -224.058E-03     37.9283E-03    -223.861E-03     447.852E-03    -223.781E-03     35.2455E-03
            1608     10.0733E-03     66.7929E-03    -36.6245E+06     41.9891E+06     57.1210E+06     276.815E+03    -223.478E-03     447.567E-03    -224.089E-03     37.2623E-03    -223.895E-03     447.837E-03    -223.811E-03     35.1706E-03
            1609     9.35347E-03     66.7399E-03    -43.4063E+06     2.79633E+06     45.6076E+06     293.258E+03    -223.598E-03     447.725E-03    -224.128E-03     35.9752E-03    -223.953E-03     447.804E-03    -223.841E-03     34.4317E-03
            1610     8.63372E-03     66.6885E-03    -50.3288E+06    -31.3958E+06     33.9625E+06     285.668E+03    -223.685E-03     447.843E-03    -224.158E-03     34.3024E-03    -223.991E-03     447.760E-03    -223.869E-03     33.2501E-03
            1611     7.91403E-03     66.6391E-03    -57.4788E+06    -59.6881E+06     22.5029E+06     253.230E+03    -223.741E-03     447.920E-03    -224.179E-03     32.4288E-03    -224.010E-03     447.708E-03    -223.897E-03     31.7989E-03
            1612     7.19437E-03     66.5920E-03    -64.8979E+06    -84.9487E+06     10.6199E+06     201.995E+03    -223.778E-03     447.973E-03    -224.195E-03     30.3791E-03    -224.019E-03     447.652E-03    -223.925E-03     30.1013E-03
            1613     6.47475E-03     66.5478E-03    -72.5601E+06    -107.818E+06    -2.01193E+06     160.932E+03    -223.802E-03     448.007E-03    -224.205E-03     28.0788E-03    -224.022E-03     447.592E-03    -223.953E-03     28.0892E-03
            1614     5.75517E-03     66.5069E-03    -80.4913E+06    -129.947E+06    -15.7769E+06     139.363E+03    -223.824E-03     448.032E-03    -224.208E-03     25.5723E-03    -224.025E-03     447.532E-03    -223.982E-03     25.8035E-03
            1615     5.03563E-03     66.4696E-03    -88.6436E+06    -151.307E+06    -30.9025E+06     88.5979E+03    -223.845E-03     448.050E-03    -224.204E-03     22.8876E-03    -224.030E-03     447.472E-03    -224.011E-03     23.2719E-03
            1616     4.31613E-03     66.4363E-03    -96.8695E+06    -171.884E+06    -47.5478E+06     48.4497E+03    -223.868E-03     448.060E-03    -224.192E-03     20.0283E-03    -224.037E-03     447.413E-03    -224.040E-03     20.5016E-03
            1617     3.59666E-03     66.4074E-03    -104.939E+06    -192.756E+06    -65.3971E+06     45.3625E+03    -223.900E-03     448.074E-03    -224.174E-03     17.0076E-03    -224.052E-03     447.359E-03    -224.070E-03     17.5091E-03
            1618     2.87725E-03     66.3832E-03    -112.498E+06    -212.956E+06    -83.6516E+06     14.0358E+03    -223.941E-03     448.093E-03    -224.152E-03     13.8416E-03    -224.074E-03     447.313E-03    -224.098E-03     14.3161E-03
            1619     2.15788E-03     66.3640E-03    -119.115E+06    -231.185E+06    -100.982E+06     3.62513E+03    -223.988E-03     448.115E-03    -224.127E-03     10.5598E-03    -224.102E-03     447.278E-03    -224.124E-03     10.9610E-03
            1620     1.43855E-03     66.3500E-03    -124.346E+06    -246.343E+06    -115.502E+06     34.2689E+03    -224.036E-03     448.141E-03    -224.105E-03     7.19815E-03    -224.133E-03     447.257E-03    -224.145E-03     7.49102E-03
            1621     719.264E-06     66.3413E-03    -127.740E+06    -256.733E+06    -125.368E+06     29.6255E+03    -224.092E-03     448.162E-03    -224.071E-03     3.93648E-03    -224.176E-03     447.245E-03    -224.140E-03     4.10337E-03
            1622     13.6726E-03     65.5572E-03    -5.36190E+06     97.1590E+06     104.609E+06     94.7489E+03    -223.044E-03     447.116E-03    -224.073E-03     26.7540E-03    -223.509E-03     447.604E-03    -223.683E-03     22.4354E-03
            1623     12.9527E-03     65.5142E-03    -11.3949E+06     92.4882E+06     99.6744E+06    -2.17093E+03    -223.132E-03     447.218E-03    -224.085E-03     34.1324E-03    -223.649E-03     447.733E-03    -223.705E-03     29.6112E-03
            1624     12.2329E-03     65.4674E-03    -17.7716E+06     85.6614E+06     87.0991E+06    -61.4181E+03    -223.240E-03     447.305E-03    -224.066E-03     36.0345E-03    -223.734E-03     447.789E-03    -223.729E-03     32.2155E-03
            1625     11.5130E-03     65.4165E-03    -24.0920E+06     74.6373E+06     73.8730E+06    -109.838E+03    -223.347E-03     447.398E-03    -224.050E-03     37.6086E-03    -223.821E-03     447.837E-03    -223.754E-03     34.3249E-03
            1626     10.7931E-03     65.3633E-03    -30.3984E+06     64.1780E+06     65.1096E+06    -9.35985E+03    -223.409E-03     447.467E-03    -224.058E-03     37.9208E-03    -223.863E-03     447.852E-03    -223.782E-03     35.2359E-03
            1627     10.0733E-03     65.3097E-03    -36.8725E+06     41.9226E+06     57.0275E+06     148.479E+03    -223.477E-03     447.566E-03    -224.089E-03     37.2554E-03    -223.895E-03     447.837E-03    -223.811E-03     35.1628E-03
            1628     9.35346E-03     65.2567E-03    -43.5573E+06     2.71047E+06     45.5931E+06     204.818E+03    -223.598E-03     447.726E-03    -224.128E-03     35.9658E-03    -223.953E-03     447.804E-03    -223.841E-03     34.4213E-03
            1629     8.63373E-03     65.2053E-03    -50.4694E+06    -31.3764E+06     34.0091E+06     250.488E+03    -223.686E-03     447.844E-03    -224.158E-03     34.2923E-03    -223.992E-03     447.761E-03    -223.869E-03     33.2394E-03
            1630     7.91403E-03     65.1559E-03    -57.5982E+06    -59.4914E+06     22.6064E+06     189.857E+03    -223.741E-03     447.921E-03    -224.180E-03     32.4222E-03    -224.011E-03     447.709E-03    -223.897E-03     31.7913E-03
            1631     7.19437E-03     65.1089E-03    -64.9370E+06    -84.8040E+06     10.7466E+06     71.6234E+03    -223.778E-03     447.974E-03    -224.196E-03     30.3751E-03    -224.020E-03     447.653E-03    -223.925E-03     30.0952E-03
            1632     6.47475E-03     65.0647E-03    -72.5468E+06    -107.802E+06    -1.95051E+06     17.0864E+03    -223.802E-03     448.007E-03    -224.205E-03     28.0759E-03    -224.022E-03     447.592E-03    -223.953E-03     28.0840E-03
            1633     5.75517E-03     65.0237E-03    -80.4110E+06    -129.960E+06    -15.8136E+06     19.4009E+03    -223.823E-03     448.030E-03    -224.208E-03     25.5709E-03    -224.024E-03     447.530E-03    -223.982E-03     25.8003E-03
            1634     5.03562E-03     64.9864E-03    -88.4756E+06    -151.202E+06    -30.9302E+06     11.4515E+03    -223.844E-03     448.048E-03    -224.204E-03     22.8862E-03    -224.028E-03     447.471E-03    -224.011E-03     23.2693E-03
            1635     4.31612E-03     64.9532E-03    -96.6281E+06    -171.947E+06    -47.4401E+06     4.99946E+03    -223.869E-03     448.062E-03    -224.193E-03     20.0258E-03    -224.037E-03     447.414E-03    -224.041E-03     20.4981E-03
            1636     3.59666E-03     64.9243E-03    -104.624E+06    -192.769E+06    -65.2082E+06     26.7838E+03    -223.902E-03     448.078E-03    -224.175E-03     17.0047E-03    -224.053E-03     447.361E-03    -224.070E-03     17.5055E-03
            1637     2.87725E-03     64.9001E-03    -112.141E+06    -212.910E+06    -83.4220E+06     22.4138E+03    -223.945E-03     448.097E-03    -224.152E-03     13.8397E-03    -224.076E-03     447.317E-03    -224.098E-03     14.3139E-03
            1638     2.15788E-03     64.8809E-03    -118.770E+06    -231.294E+06    -100.671E+06     39.5598E+03    -223.993E-03     448.120E-03    -224.127E-03     10.5597E-03    -224.106E-03     447.282E-03    -224.123E-03     10.9608E-03
            1639     1.43856E-03     64.8669E-03    -124.027E+06    -246.309E+06    -115.160E+06     53.3256E+03    -224.038E-03     448.141E-03    -224.103E-03     7.19786E-03    -224.134E-03     447.256E-03    -224.142E-03     7.49059E-03
            1640     719.271E-06     64.8582E-03    -127.444E+06    -256.652E+06    -125.059E+06     28.1002E+03    -224.091E-03     448.156E-03    -224.065E-03     3.93478E-03    -224.174E-03     447.239E-03    -224.133E-03     4.10153E-03
            1641     13.6726E-03     64.0739E-03    -5.50461E+06     96.9560E+06     104.430E+06    -95.0326E+03    -223.055E-03     447.128E-03    -224.073E-03     26.7750E-03    -223.520E-03     447.615E-03    -223.683E-03     22.4546E-03
            1642     12.9527E-03     64.0309E-03    -11.4063E+06     92.3318E+06     99.5152E+06     160.484E+03    -223.134E-03     447.219E-03    -224.085E-03     34.1244E-03    -223.651E-03     447.734E-03    -223.705E-03     29.6067E-03
            1643     12.2328E-03     63.9841E-03    -17.5568E+06     85.8698E+06     87.2442E+06     191.647E+03    -223.240E-03     447.306E-03    -224.066E-03     36.0198E-03    -223.734E-03     447.790E-03    -223.729E-03     32.2052E-03
            1644     11.5130E-03     63.9332E-03    -23.7323E+06     74.6753E+06     74.0308E+06     105.155E+03    -223.348E-03     447.398E-03    -224.051E-03     37.5900E-03    -223.820E-03     447.837E-03    -223.754E-03     34.3102E-03
            1645     10.7931E-03     63.8801E-03    -30.0214E+06     63.9660E+06     65.2329E+06     72.6441E+03    -223.409E-03     447.468E-03    -224.059E-03     37.9000E-03    -223.861E-03     447.851E-03    -223.782E-03     35.2163E-03
            1646     10.0733E-03     63.8264E-03    -36.6209E+06     41.6634E+06     57.1881E+06     126.087E+03    -223.479E-03     447.569E-03    -224.090E-03     37.2388E-03    -223.895E-03     447.838E-03    -223.812E-03     35.1449E-03
            1647     9.35347E-03     63.7735E-03    -43.4794E+06     2.67888E+06     45.6763E+06     206.894E+03    -223.597E-03     447.726E-03    -224.129E-03     35.9557E-03    -223.953E-03     447.805E-03    -223.841E-03     34.4106E-03
            1648     8.63372E-03     63.7221E-03    -50.3657E+06    -31.1001E+06     34.1244E+06     39.7189E+03    -223.684E-03     447.842E-03    -224.158E-03     34.2863E-03    -223.990E-03     447.760E-03    -223.870E-03     33.2302E-03
            1649     7.91403E-03     63.6727E-03    -57.2914E+06    -59.3439E+06     22.7873E+06    -141.122E+03    -223.740E-03     447.921E-03    -224.181E-03     32.4177E-03    -224.009E-03     447.710E-03    -223.897E-03     31.7817E-03
            1650     7.19437E-03     63.6257E-03    -64.5040E+06    -84.7963E+06     10.9450E+06    -149.751E+03    -223.779E-03     447.975E-03    -224.197E-03     30.3729E-03    -224.019E-03     447.654E-03    -223.925E-03     30.0889E-03
            1651     6.47475E-03     63.5815E-03    -72.0849E+06    -107.869E+06    -1.72445E+06    -118.030E+03    -223.803E-03     448.009E-03    -224.206E-03     28.0770E-03    -224.021E-03     447.593E-03    -223.954E-03     28.0821E-03
            1652     5.75517E-03     63.5406E-03    -79.9963E+06    -130.151E+06    -15.6156E+06    -40.2961E+03    -223.824E-03     448.034E-03    -224.209E-03     25.5723E-03    -224.023E-03     447.532E-03    -223.983E-03     25.7999E-03
            1653     5.03562E-03     63.5033E-03    -88.1565E+06    -151.169E+06    -30.8053E+06     18.6788E+03    -223.844E-03     448.049E-03    -224.205E-03     22.8867E-03    -224.027E-03     447.472E-03    -224.012E-03     23.2695E-03
            1654     4.31612E-03     63.4701E-03    -96.3777E+06    -171.961E+06    -47.3665E+06    -13.5809E+03    -223.870E-03     448.064E-03    -224.194E-03     20.0284E-03    -224.037E-03     447.416E-03    -224.042E-03     20.4999E-03
            1655     3.59666E-03     63.4412E-03    -104.406E+06    -192.888E+06    -65.1197E+06    -1.42758E+03    -223.906E-03     448.083E-03    -224.177E-03     17.0100E-03    -224.056E-03     447.366E-03    -224.072E-03     17.5096E-03
            1656     2.87725E-03     63.4171E-03    -111.931E+06    -212.958E+06    -83.2824E+06     69.2802E+03    -223.951E-03     448.105E-03    -224.153E-03     13.8454E-03    -224.082E-03     447.323E-03    -224.099E-03     14.3195E-03
            1657     2.15788E-03     63.3978E-03    -118.533E+06    -231.285E+06    -100.483E+06     76.1211E+03    -223.999E-03     448.126E-03    -224.127E-03     10.5642E-03    -224.111E-03     447.287E-03    -224.122E-03     10.9650E-03
            1658     1.43856E-03     63.3838E-03    -123.733E+06    -246.245E+06    -114.915E+06     42.1988E+03    -224.040E-03     448.141E-03    -224.101E-03     7.19979E-03    -224.135E-03     447.256E-03    -224.139E-03     7.49199E-03
            1659     719.274E-06     63.3751E-03    -127.105E+06    -256.578E+06    -124.739E+06     34.8585E+03    -224.090E-03     448.151E-03    -224.061E-03     3.93680E-03    -224.172E-03     447.233E-03    -224.129E-03     4.10336E-03
            1660     13.6726E-03     62.5906E-03    -5.69269E+06     96.7201E+06     104.122E+06    -108.133E+03    -223.078E-03     447.153E-03    -224.074E-03     26.7947E-03    -223.544E-03     447.639E-03    -223.686E-03     22.4755E-03
            1661     12.9527E-03     62.5476E-03    -11.6503E+06     91.8351E+06     99.2651E+06    -69.2504E+03    -223.162E-03     447.248E-03    -224.086E-03     34.1404E-03    -223.678E-03     447.761E-03    -223.706E-03     29.6201E-03
            1662     12.2328E-03     62.5009E-03    -17.6915E+06     85.8779E+06     87.2537E+06     113.746E+03    -223.250E-03     447.317E-03    -224.067E-03     36.0148E-03    -223.745E-03     447.801E-03    -223.729E-03     32.1988E-03
            1663     11.5130E-03     62.4500E-03    -23.8031E+06     74.6921E+06     74.1142E+06     183.935E+03    -223.348E-03     447.399E-03    -224.051E-03     37.5793E-03    -223.820E-03     447.837E-03    -223.754E-03     34.3008E-03
            1664     10.7931E-03     62.3968E-03    -30.1157E+06     63.8897E+06     65.2905E+06     243.814E+03    -223.407E-03     447.467E-03    -224.059E-03     37.8916E-03    -223.859E-03     447.849E-03    -223.782E-03     35.2107E-03
            1665     10.0733E-03     62.3432E-03    -36.7130E+06     41.7104E+06     57.2500E+06     210.766E+03    -223.476E-03     447.567E-03    -224.091E-03     37.2330E-03    -223.893E-03     447.836E-03    -223.812E-03     35.1396E-03
            1666     9.35346E-03     62.2903E-03    -43.2682E+06     3.28617E+06     45.9834E+06    -210.027E+03    -223.594E-03     447.724E-03    -224.129E-03     35.9575E-03    -223.950E-03     447.805E-03    -223.842E-03     34.4056E-03
            1667     8.63372E-03     62.2389E-03    -49.7598E+06    -30.8511E+06     34.4348E+06    -551.787E+03    -223.681E-03     447.841E-03    -224.159E-03     34.2901E-03    -223.985E-03     447.759E-03    -223.870E-03     33.2248E-03
            1668     7.91402E-03     62.1896E-03    -56.6412E+06    -59.6754E+06     22.9249E+06    -445.178E+03    -223.737E-03     447.919E-03    -224.182E-03     32.4239E-03    -224.002E-03     447.705E-03    -223.899E-03     31.7827E-03
            1669     7.19436E-03     62.1426E-03    -63.9940E+06    -85.1009E+06     11.0074E+06    -211.423E+03    -223.776E-03     447.975E-03    -224.199E-03     30.3839E-03    -224.013E-03     447.651E-03    -223.927E-03     30.0984E-03
            1670     6.47474E-03     62.0984E-03    -71.7389E+06    -108.169E+06    -1.65054E+06    -3.26869E+03    -223.804E-03     448.013E-03    -224.209E-03     28.0889E-03    -224.020E-03     447.595E-03    -223.956E-03     28.0947E-03
            1671     5.75515E-03     62.0575E-03    -79.8064E+06    -130.364E+06    -15.4859E+06     146.160E+03    -223.827E-03     448.040E-03    -224.213E-03     25.5835E-03    -224.024E-03     447.536E-03    -223.986E-03     25.8127E-03
            1672     5.03561E-03     62.0202E-03    -88.0526E+06    -151.157E+06    -30.7025E+06     190.195E+03    -223.846E-03     448.055E-03    -224.209E-03     22.8987E-03    -224.028E-03     447.477E-03    -224.016E-03     23.2832E-03
            1673     4.31610E-03     61.9870E-03    -96.3546E+06    -171.812E+06    -47.3680E+06     152.554E+03    -223.872E-03     448.070E-03    -224.198E-03     20.0414E-03    -224.039E-03     447.422E-03    -224.046E-03     20.5147E-03
            1674     3.59664E-03     61.9581E-03    -104.488E+06    -192.973E+06    -65.1581E+06     99.8268E+03    -223.911E-03     448.092E-03    -224.181E-03     17.0233E-03    -224.060E-03     447.374E-03    -224.075E-03     17.5236E-03
            1675     2.87723E-03     61.9340E-03    -112.066E+06    -213.002E+06    -83.3337E+06     97.2347E+03    -223.957E-03     448.114E-03    -224.157E-03     13.8587E-03    -224.088E-03     447.333E-03    -224.102E-03     14.3322E-03
            1676     2.15788E-03     61.9147E-03    -118.670E+06    -231.140E+06    -100.596E+06     62.6738E+03    -224.004E-03     448.132E-03    -224.129E-03     10.5737E-03    -224.116E-03     447.295E-03    -224.125E-03     10.9739E-03
            1677     1.43856E-03     61.9007E-03    -123.893E+06    -246.239E+06    -115.063E+06     25.8623E+03    -224.042E-03     448.145E-03    -224.103E-03     7.20304E-03    -224.138E-03     447.260E-03    -224.142E-03     7.49505E-03
            1678     719.272E-06     61.8920E-03    -127.300E+06    -256.503E+06    -124.919E+06     38.3850E+03    -224.091E-03     448.154E-03    -224.063E-03     3.93911E-03    -224.174E-03     447.237E-03    -224.131E-03     4.10568E-03
            1679     13.6725E-03     61.1072E-03    -5.49680E+06     96.8262E+06     103.883E+06     48.4663E+03    -223.051E-03     447.126E-03    -224.075E-03     26.7330E-03    -223.515E-03     447.613E-03    -223.688E-03     22.4174E-03
            1680     12.9527E-03     61.0642E-03    -11.5543E+06     91.7489E+06     99.1622E+06    -26.5025E+03    -223.164E-03     447.253E-03    -224.088E-03     34.1313E-03    -223.680E-03     447.765E-03    -223.709E-03     29.6133E-03
            1681     12.2328E-03     61.0176E-03    -17.8064E+06     85.5640E+06     87.3360E+06    -71.1427E+03    -223.269E-03     447.339E-03    -224.070E-03     36.0369E-03    -223.764E-03     447.821E-03    -223.731E-03     32.2182E-03
            1682     11.5130E-03     60.9667E-03    -23.8680E+06     74.5231E+06     74.3328E+06     57.0583E+03    -223.361E-03     447.415E-03    -224.054E-03     37.5947E-03    -223.834E-03     447.852E-03    -223.756E-03     34.3144E-03
            1683     10.7931E-03     60.9136E-03    -29.8502E+06     64.0555E+06     65.6173E+06    -20.6123E+03    -223.412E-03     447.474E-03    -224.061E-03     37.9000E-03    -223.864E-03     447.856E-03    -223.783E-03     35.2159E-03
            1684     10.0732E-03     60.8600E-03    -35.7677E+06     42.6387E+06     57.9413E+06    -584.342E+03    -223.474E-03     447.567E-03    -224.093E-03     37.2477E-03    -223.889E-03     447.838E-03    -223.813E-03     35.1428E-03
            1685     9.35346E-03     60.8071E-03    -41.9380E+06     3.61914E+06     46.5561E+06    -923.751E+03    -223.588E-03     447.720E-03    -224.132E-03     35.9816E-03    -223.939E-03     447.800E-03    -223.843E-03     34.4188E-03
            1686     8.63371E-03     60.7557E-03    -48.8489E+06    -31.6169E+06     34.5048E+06    -525.361E+03    -223.675E-03     447.838E-03    -224.163E-03     34.3160E-03    -223.974E-03     447.751E-03    -223.873E-03     33.2506E-03
            1687     7.91399E-03     60.7064E-03    -56.3321E+06    -60.3000E+06     22.7653E+06    -36.3362E+03    -223.732E-03     447.918E-03    -224.186E-03     32.4493E-03    -223.994E-03     447.700E-03    -223.903E-03     31.8137E-03
            1688     7.19432E-03     60.6594E-03    -64.0934E+06    -85.5664E+06     10.7199E+06     237.246E+03    -223.773E-03     447.977E-03    -224.203E-03     30.4071E-03    -224.010E-03     447.651E-03    -223.933E-03     30.1275E-03
            1689     6.47470E-03     60.6153E-03    -72.0517E+06    -108.412E+06    -1.96969E+06     394.974E+03    -223.803E-03     448.017E-03    -224.214E-03     28.1088E-03    -224.019E-03     447.599E-03    -223.963E-03     28.1195E-03
            1690     5.75511E-03     60.5744E-03    -80.1471E+06    -130.290E+06    -15.7117E+06     376.211E+03    -223.827E-03     448.046E-03    -224.219E-03     25.6025E-03    -224.026E-03     447.544E-03    -223.993E-03     25.8341E-03
            1691     5.03557E-03     60.5371E-03    -88.3586E+06    -151.140E+06    -30.8163E+06     336.325E+03    -223.849E-03     448.065E-03    -224.216E-03     22.9170E-03    -224.033E-03     447.488E-03    -224.023E-03     23.3022E-03
            1692     4.31607E-03     60.5039E-03    -96.6227E+06    -171.642E+06    -47.4329E+06     344.719E+03    -223.876E-03     448.082E-03    -224.206E-03     20.0600E-03    -224.045E-03     447.436E-03    -224.054E-03     20.5348E-03
            1693     3.59661E-03     60.4750E-03    -104.736E+06    -192.744E+06    -65.2432E+06     258.840E+03    -223.917E-03     448.105E-03    -224.189E-03     17.0429E-03    -224.068E-03     447.389E-03    -224.083E-03     17.5443E-03
            1694     2.87721E-03     60.4508E-03    -112.346E+06    -212.902E+06    -83.5235E+06     138.760E+03    -223.963E-03     448.128E-03    -224.164E-03     13.8757E-03    -224.096E-03     447.348E-03    -224.110E-03     14.3491E-03
            1695     2.15786E-03     60.4316E-03    -119.011E+06    -231.009E+06    -100.887E+06     89.1663E+03    -224.009E-03     448.145E-03    -224.136E-03     10.5826E-03    -224.123E-03     447.309E-03    -224.133E-03     10.9833E-03
            1696     1.43855E-03     60.4176E-03    -124.296E+06    -246.218E+06    -115.381E+06      65.997E+03    -224.049E-03     448.160E-03    -224.111E-03     7.20509E-03    -224.146E-03     447.276E-03    -224.150E-03     7.49809E-03
            1697     719.267E-06     60.4090E-03    -127.768E+06    -256.400E+06    -125.328E+06     43.4360E+03    -224.098E-03     448.168E-03    -224.071E-03     3.94117E-03    -224.183E-03     447.253E-03    -224.140E-03     4.10805E-03
            1698     13.6726E-03     59.6239E-03    -5.58523E+06     96.7719E+06     103.981E+06     35.7483E+03    -223.012E-03     447.085E-03    -224.073E-03     26.6477E-03    -223.476E-03     447.571E-03    -223.685E-03     22.3317E-03
            1699     12.9526E-03     59.5809E-03    -11.3888E+06     92.1601E+06     99.1141E+06    -69.7211E+03    -223.107E-03     447.194E-03    -224.087E-03     34.0391E-03    -223.622E-03     447.709E-03    -223.709E-03     29.5213E-03
            1700     12.2327E-03     59.5342E-03    -17.2700E+06     85.7213E+06     87.3373E+06    -333.029E+03    -223.240E-03     447.311E-03    -224.071E-03     35.9913E-03    -223.733E-03     447.793E-03    -223.734E-03     32.1702E-03
            1701     11.5129E-03     59.4834E-03    -23.0217E+06     74.4800E+06     74.9890E+06    -628.212E+03    -223.366E-03     447.425E-03    -224.059E-03     37.5988E-03    -223.835E-03     447.860E-03    -223.759E-03     34.3083E-03
            1702     10.7931E-03     59.4304E-03    -28.5767E+06     65.0344E+06     66.6163E+06    -1.16699E+06    -223.411E-03     447.478E-03    -224.067E-03     37.9366E-03    -223.859E-03     447.862E-03    -223.786E-03     35.2354E-03
            1703     10.0732E-03     59.3768E-03    -34.7159E+06     42.5441E+06     58.0414E+06    -1.23831E+06    -223.462E-03     447.558E-03    -224.096E-03     37.3053E-03    -223.871E-03     447.827E-03    -223.817E-03     35.1913E-03
            1704     9.35340E-03     59.3239E-03    -41.9679E+06     2.00701E+06     45.8118E+06    -220.292E+03    -223.577E-03     447.714E-03    -224.137E-03     36.0337E-03    -223.925E-03     447.787E-03    -223.850E-03     34.4810E-03
            1705     8.63363E-03     59.2725E-03    -49.7105E+06    -32.5492E+06     33.6885E+06     618.333E+03    -223.668E-03     447.837E-03    -224.169E-03     34.3532E-03    -223.968E-03     447.747E-03    -223.881E-03     33.3040E-03
            1706     7.91392E-03     59.2233E-03    -57.4173E+06    -60.5933E+06     22.0741E+06     804.868E+03    -223.730E-03     447.923E-03    -224.193E-03     32.4797E-03    -223.997E-03     447.707E-03    -223.912E-03     31.8553E-03
            1707     7.19426E-03     59.1763E-03    -65.1113E+06    -85.5664E+06     10.1624E+06     774.818E+03    -223.774E-03     447.985E-03    -224.211E-03     30.4340E-03    -224.015E-03     447.662E-03    -223.942E-03     30.1607E-03
            1708     6.47463E-03     59.1321E-03    -72.8961E+06    -108.195E+06    -2.45033E+06     615.356E+03    -223.803E-03     448.026E-03    -224.223E-03     28.1345E-03    -224.024E-03     447.611E-03    -223.972E-03     28.1470E-03
            1709     5.75505E-03     59.0912E-03    -80.8630E+06    -129.912E+06    -16.1590E+06     434.071E+03    -223.828E-03     448.056E-03    -224.228E-03     25.6274E-03    -224.031E-03     447.557E-03    -224.003E-03     25.8585E-03
            1710     5.03551E-03     59.0540E-03    -89.0128E+06    -151.037E+06    -31.1992E+06     301.733E+03    -223.853E-03     448.080E-03    -224.227E-03     22.9426E-03    -224.040E-03     447.505E-03    -224.035E-03     23.3256E-03
            1711     4.31602E-03     59.0208E-03    -97.1775E+06    -171.543E+06    -47.7843E+06     259.612E+03    -223.884E-03     448.101E-03    -224.217E-03     20.0872E-03    -224.055E-03     447.456E-03    -224.066E-03     20.5588E-03
            1712     3.59657E-03     58.9919E-03    -105.138E+06    -192.411E+06    -65.5904E+06     207.702E+03    -223.925E-03     448.125E-03    -224.199E-03     17.0671E-03    -224.078E-03     447.412E-03    -224.096E-03     17.5661E-03
            1713     2.87717E-03     58.9677E-03    -112.621E+06    -212.733E+06    -83.7896E+06     128.690E+03    -223.974E-03     448.150E-03    -224.176E-03     13.8908E-03    -224.107E-03     447.371E-03    -224.123E-03     14.3629E-03
            1714     2.15783E-03     58.9485E-03    -119.212E+06    -230.955E+06    -101.078E+06     101.703E+03    -224.021E-03     448.169E-03    -224.149E-03     10.5867E-03    -224.135E-03     447.334E-03    -224.146E-03     10.9870E-03
            1715     1.43853E-03     58.9345E-03    -124.435E+06    -246.102E+06    -115.577E+06     93.2527E+03    -224.061E-03     448.185E-03    -224.123E-03     7.20302E-03    -224.159E-03     447.302E-03    -224.164E-03     7.49637E-03
            1716     719.253E-06     58.9259E-03    -127.834E+06    -256.257E+06    -125.452E+06     42.7452E+03    -224.111E-03     448.195E-03    -224.084E-03     3.93963E-03    -224.197E-03     447.281E-03    -224.154E-03     4.10647E-03
            1717     13.6727E-03     58.1407E-03    -5.42130E+06     96.8236E+06     104.826E+06    -125.403E+03    -223.017E-03     447.089E-03    -224.072E-03     26.6497E-03    -223.482E-03     447.574E-03    -223.680E-03     22.3322E-03
            1718     12.9528E-03     58.0978E-03    -11.4606E+06     92.2410E+06     99.6584E+06    -138.158E+03    -223.080E-03     447.166E-03    -224.085E-03     34.0015E-03    -223.596E-03     447.679E-03    -223.704E-03     29.4829E-03
            1719     12.2328E-03     58.0510E-03    -18.0467E+06     85.8261E+06     86.8806E+06     9.45545E+03    -223.175E-03     447.242E-03    -224.068E-03     35.9203E-03    -223.670E-03     447.726E-03    -223.732E-03     32.1061E-03
            1720     11.5129E-03     58.0001E-03    -24.7560E+06     76.5022E+06     73.4802E+06    -760.163E+03    -223.280E-03     447.333E-03    -224.053E-03     37.5545E-03    -223.759E-03     447.783E-03    -223.761E-03     34.2624E-03
            1721     10.7930E-03     57.9471E-03    -31.5231E+06     65.7993E+06     64.2893E+06    -1.78021E+06    -223.343E-03     447.407E-03    -224.065E-03     37.9576E-03    -223.803E-03     447.803E-03    -223.793E-03     35.2458E-03
            1722     10.0731E-03     57.8936E-03    -38.5564E+06     39.5057E+06     55.1527E+06    -860.216E+03    -223.432E-03     447.533E-03    -224.102E-03     37.3461E-03    -223.852E-03     447.797E-03    -223.827E-03     35.2370E-03
            1723     9.35327E-03     57.8407E-03    -45.6025E+06    -106.877E+03     43.5194E+06     575.009E+03    -223.567E-03     447.712E-03    -224.145E-03     36.0603E-03    -223.926E-03     447.783E-03    -223.861E-03     34.5180E-03
            1724     8.63352E-03     57.7894E-03    -52.4366E+06    -32.6746E+06     32.3995E+06     924.973E+03    -223.662E-03     447.841E-03    -224.178E-03     34.3775E-03    -223.974E-03     447.756E-03    -223.893E-03     33.3309E-03
            1725     7.91381E-03     57.7401E-03    -59.2862E+06    -60.1914E+06     21.3062E+06     720.241E+03    -223.727E-03     447.931E-03    -224.204E-03     32.5099E-03    -224.003E-03     447.721E-03    -223.924E-03     31.8820E-03
            1726     7.19416E-03     57.6931E-03    -66.3227E+06    -85.0888E+06     9.71168E+06     408.799E+03    -223.774E-03     447.997E-03    -224.223E-03     30.4704E-03    -224.021E-03     447.679E-03    -223.955E-03     30.1893E-03
            1727     6.47454E-03     57.6489E-03    -73.6407E+06    -107.808E+06    -2.74888E+06     198.075E+03    -223.806E-03     448.042E-03    -224.236E-03     28.1728E-03    -224.030E-03     447.630E-03    -223.987E-03     28.1769E-03
            1728     5.75496E-03     57.6081E-03    -81.2859E+06    -129.633E+06    -16.4269E+06     80.3303E+03    -223.833E-03     448.075E-03    -224.242E-03     25.6651E-03    -224.038E-03     447.579E-03    -224.018E-03     25.8889E-03
            1729     5.03543E-03     57.5708E-03    -89.1828E+06    -150.843E+06    -31.4423E+06    -10.5389E+03    -223.863E-03     448.104E-03    -224.242E-03     22.9804E-03    -224.050E-03     447.531E-03    -224.051E-03     23.3565E-03
            1730     4.31594E-03     57.5376E-03    -97.1971E+06    -171.579E+06    -47.9204E+06    -57.8716E+03    -223.899E-03     448.132E-03    -224.233E-03     20.1228E-03    -224.070E-03     447.488E-03    -224.083E-03     20.5868E-03
            1731     3.59651E-03     57.5087E-03    -105.099E+06    -192.386E+06    -65.6766E+06    -1.88112E+03    -223.944E-03     448.159E-03    -224.216E-03     17.0938E-03    -224.096E-03     447.446E-03    -224.113E-03     17.5871E-03
            1732     2.87713E-03     57.4845E-03    -112.547E+06    -212.634E+06    -83.8500E+06     22.8054E+03    -223.992E-03     448.184E-03    -224.192E-03     13.9047E-03    -224.126E-03     447.406E-03    -224.140E-03     14.3733E-03
            1733     2.15779E-03     57.4653E-03    -119.091E+06    -231.003E+06    -101.023E+06     30.1793E+03    -224.039E-03     448.204E-03    -224.165E-03     10.5894E-03    -224.153E-03     447.368E-03    -224.162E-03     10.9872E-03
            1734     1.43850E-03     57.4513E-03    -124.268E+06    -246.008E+06    -115.431E+06     58.1599E+03    -224.078E-03     448.218E-03    -224.139E-03     7.19960E-03    -224.175E-03     447.335E-03    -224.180E-03     7.49150E-03
            1735     719.245E-06     57.4427E-03    -127.646E+06    -256.106E+06    -125.276E+06     48.4925E+03    -224.128E-03     448.227E-03    -224.099E-03     3.93538E-03    -224.213E-03     447.313E-03    -224.169E-03     4.10191E-03
            1736     13.6727E-03     56.6574E-03    -5.95733E+06     96.7398E+06     105.134E+06     115.616E+03    -223.036E-03     447.110E-03    -224.074E-03     26.7127E-03    -223.504E-03     447.595E-03    -223.680E-03     22.4004E-03
            1737     12.9528E-03     56.6145E-03    -12.3994E+06     91.6382E+06     99.9200E+06     467.672E+03    -223.087E-03     447.174E-03    -224.087E-03     34.0698E-03    -223.607E-03     447.686E-03    -223.703E-03     29.5619E-03
            1738     12.2329E-03     56.5679E-03    -18.9684E+06     85.5311E+06     86.9718E+06     785.522E+03    -223.148E-03     447.217E-03    -224.069E-03     35.9865E-03    -223.648E-03     447.701E-03    -223.730E-03     32.1849E-03
            1739     11.5129E-03     56.5170E-03    -25.7140E+06     78.9884E+06     72.5436E+06     594.009E+03    -223.200E-03     447.248E-03    -224.048E-03     37.5677E-03    -223.686E-03     447.713E-03    -223.763E-03     34.2957E-03
            1740     10.7929E-03     56.4640E-03    -33.1116E+06     66.5408E+06     62.4665E+06     92.7350E+03    -223.273E-03     447.336E-03    -224.063E-03     37.9133E-03    -223.740E-03     447.741E-03    -223.800E-03     35.2275E-03
            1741     10.0730E-03     56.4104E-03    -40.5222E+06     37.3419E+06     53.6922E+06    -209.508E+03    -223.407E-03     447.518E-03    -224.110E-03     37.3065E-03    -223.832E-03     447.775E-03    -223.837E-03     35.2046E-03
            1742     9.35316E-03     56.3575E-03    -47.0943E+06    -795.323E+03     42.7561E+06    -324.857E+03    -223.555E-03     447.710E-03    -224.156E-03     36.0578E-03    -223.919E-03     447.781E-03    -223.872E-03     34.5000E-03
            1743     8.63341E-03     56.3062E-03    -53.1870E+06    -32.4489E+06     32.1661E+06    -525.541E+03    -223.651E-03     447.842E-03    -224.191E-03     34.4040E-03    -223.967E-03     447.761E-03    -223.906E-03     33.3337E-03
            1744     7.91370E-03     56.2569E-03    -59.4137E+06    -59.8828E+06     21.3708E+06    -688.311E+03    -223.720E-03     447.939E-03    -224.219E-03     32.5552E-03    -223.997E-03     447.730E-03    -223.939E-03     31.9039E-03
            1745     7.19404E-03     56.2099E-03    -66.1041E+06    -85.0512E+06     9.84384E+06    -669.836E+03    -223.772E-03     448.013E-03    -224.241E-03     30.5238E-03    -224.019E-03     447.694E-03    -223.972E-03     30.2242E-03
            1746     6.47442E-03     56.1657E-03    -73.3396E+06    -107.853E+06    -2.58639E+06    -578.283E+03    -223.810E-03     448.065E-03    -224.255E-03     28.2291E-03    -224.033E-03     447.653E-03    -224.005E-03     28.2190E-03
            1747     5.75485E-03     56.1248E-03    -80.9936E+06    -129.769E+06    -16.2947E+06    -489.398E+03    -223.843E-03     448.106E-03    -224.263E-03     25.7237E-03    -224.047E-03     447.609E-03    -224.039E-03     25.9363E-03
            1748     5.03533E-03     56.0876E-03    -88.9477E+06    -150.922E+06    -31.4222E+06    -403.785E+03    -223.879E-03     448.142E-03    -224.263E-03     23.0379E-03    -224.065E-03     447.568E-03    -224.073E-03     23.4053E-03
            1749     4.31585E-03     56.0543E-03    -97.0395E+06    -171.818E+06    -47.9536E+06    -311.835E+03    -223.921E-03     448.176E-03    -224.255E-03     20.1745E-03    -224.090E-03     447.530E-03    -224.105E-03     20.6318E-03
            1750     3.59643E-03     56.0255E-03    -104.986E+06    -192.681E+06    -65.6387E+06    -199.908E+03    -223.968E-03     448.207E-03    -224.239E-03     17.1376E-03    -224.120E-03     447.493E-03    -224.136E-03     17.6251E-03
            1751     2.87707E-03     56.0013E-03    -112.432E+06    -212.745E+06    -83.7749E+06    -84.4195E+03    -224.017E-03     448.232E-03    -224.215E-03     13.9375E-03    -224.150E-03     447.453E-03    -224.162E-03     14.4022E-03
            1752     2.15776E-03     55.9821E-03    -118.994E+06    -231.087E+06    -100.926E+06    -33.5600E+03    -224.063E-03     448.251E-03    -224.188E-03     10.6106E-03    -224.177E-03     447.414E-03    -224.185E-03     11.0059E-03
            1753     1.43848E-03     55.9681E-03    -124.203E+06    -246.030E+06    -115.295E+06    -25.6283E+03    -224.101E-03     448.263E-03    -224.162E-03     7.21335E-03    -224.198E-03     447.380E-03    -224.201E-03     7.50304E-03
            1754     719.232E-06     55.9595E-03    -127.586E+06    -256.076E+06    -125.154E+06    -19.0184E+03    -224.150E-03     448.270E-03    -224.120E-03     3.94385E-03    -224.236E-03     447.356E-03    -224.189E-03     4.10892E-03
            1755     13.6726E-03     55.1741E-03    -5.59234E+06     96.1269E+06     104.658E+06     565.357E+03    -223.026E-03     447.104E-03    -224.077E-03     26.7654E-03    -223.491E-03     447.586E-03    -223.685E-03     22.4623E-03
            1756     12.9527E-03     55.1313E-03    -11.5174E+06     91.2414E+06     99.8411E+06     731.426E+03    -223.086E-03     447.179E-03    -224.093E-03     34.1555E-03    -223.601E-03     447.688E-03    -223.709E-03     29.6533E-03
            1757     12.2327E-03     55.0847E-03    -17.2889E+06     85.8882E+06     87.8108E+06     496.901E+03    -223.154E-03     447.231E-03    -224.077E-03     36.0905E-03    -223.648E-03     447.714E-03    -223.738E-03     32.2845E-03
            1758     11.5128E-03     55.0340E-03    -22.8481E+06     77.8308E+06     74.6744E+06     1.12940E+06    -223.235E-03     447.299E-03    -224.064E-03     37.6471E-03    -223.709E-03     447.751E-03    -223.770E-03     34.3836E-03
            1759     10.7929E-03     54.9809E-03    -28.9802E+06     66.7023E+06     65.5956E+06     2.30511E+06    -223.299E-03     447.378E-03    -224.079E-03     37.9341E-03    -223.750E-03     447.773E-03    -223.806E-03     35.2818E-03
            1760     10.0729E-03     54.9273E-03    -36.1158E+06     40.2927E+06     56.7812E+06     1.36308E+06    -223.394E-03     447.517E-03    -224.123E-03     37.3123E-03    -223.806E-03     447.779E-03    -223.845E-03     35.2324E-03
            1761     9.35308E-03     54.8744E-03    -43.3732E+06     860.710E+03     45.0301E+06    -749.561E+03    -223.533E-03     447.703E-03    -224.170E-03     36.0951E-03    -223.885E-03     447.774E-03    -223.883E-03     34.5295E-03
            1762     8.63330E-03     54.8230E-03    -50.2061E+06    -32.2730E+06     33.6419E+06    -1.67367E+06    -223.633E-03     447.842E-03    -224.208E-03     34.4668E-03    -223.937E-03     447.755E-03    -223.921E-03     33.3776E-03
            1763     7.91356E-03     54.7737E-03    -57.1588E+06    -60.5809E+06     22.2588E+06    -1.55891E+06    -223.708E-03     447.948E-03    -224.239E-03     32.6318E-03    -223.975E-03     447.731E-03    -223.957E-03     31.9651E-03
            1764     7.19389E-03     54.7267E-03    -64.5140E+06    -85.7803E+06     10.4231E+06    -1.15508E+06    -223.768E-03     448.032E-03    -224.264E-03     30.6051E-03    -224.007E-03     447.707E-03    -223.994E-03     30.2955E-03
            1765     6.47426E-03     54.6825E-03    -72.2112E+06    -108.455E+06    -2.17524E+06    -820.570E+03    -223.814E-03     448.096E-03    -224.282E-03     28.3120E-03    -224.031E-03     447.678E-03    -224.031E-03     28.2956E-03
            1766     5.75469E-03     54.6416E-03    -80.2250E+06    -130.217E+06    -15.9428E+06    -585.316E+03    -223.857E-03     448.150E-03    -224.293E-03     25.8078E-03    -224.057E-03     447.649E-03    -224.067E-03     26.0158E-03
            1767     5.03517E-03     54.6043E-03    -88.4670E+06    -151.383E+06    -31.1143E+06    -390.453E+03    -223.901E-03     448.196E-03    -224.295E-03     23.1202E-03    -224.085E-03     447.619E-03    -224.103E-03     23.4845E-03
            1768     4.31572E-03     54.5710E-03    -96.7717E+06    -172.080E+06    -47.7511E+06    -261.872E+03    -223.946E-03     448.234E-03    -224.289E-03     20.2524E-03    -224.114E-03     447.587E-03    -224.137E-03     20.7076E-03
            1769     3.59631E-03     54.5421E-03    -104.881E+06    -192.973E+06    -65.5093E+06    -226.075E+03    -223.995E-03     448.269E-03    -224.274E-03     17.2103E-03    -224.146E-03     447.552E-03    -224.170E-03     17.6953E-03
            1770     2.87697E-03     54.5179E-03    -112.446E+06    -213.070E+06    -83.6663E+06    -143.892E+03    -224.046E-03     448.298E-03    -224.252E-03     14.0018E-03    -224.179E-03     447.518E-03    -224.198E-03     14.4641E-03
            1771     2.15768E-03     54.4988E-03    -119.053E+06    -231.148E+06    -100.912E+06    -71.6753E+03    -224.095E-03     448.321E-03    -224.226E-03     10.6626E-03    -224.209E-03     447.484E-03    -224.223E-03     11.0567E-03
            1772     1.43843E-03     54.4848E-03    -124.281E+06    -246.104E+06    -115.396E+06    -92.6974E+03    -224.137E-03     448.339E-03    -224.202E-03     7.25274E-03    -224.234E-03     447.456E-03    -224.242E-03     7.54111E-03
            1773     719.204E-06     54.4762E-03    -127.688E+06    -256.292E+06    -125.301E+06    -85.8474E+03    -224.191E-03     448.353E-03    -224.162E-03     3.96837E-03    -224.276E-03     447.438E-03    -224.231E-03     4.13212E-03
            1774     13.6725E-03     53.6908E-03    -5.15948E+06     95.7145E+06     103.770E+06     150.765E+03    -222.941E-03     447.021E-03    -224.080E-03     26.7152E-03    -223.401E-03     447.502E-03    -223.692E-03     22.4093E-03
            1775     12.9525E-03     53.6481E-03    -10.5380E+06     91.7358E+06     99.4710E+06    -60.6188E+03    -223.045E-03     447.145E-03    -224.100E-03     34.1605E-03    -223.555E-03     447.655E-03    -223.720E-03     29.6491E-03
            1776     12.2326E-03     53.6016E-03    -16.3251E+06     85.9672E+06     87.9276E+06    -169.476E+03    -223.161E-03     447.251E-03    -224.089E-03     36.1192E-03    -223.651E-03     447.732E-03    -223.751E-03     32.3031E-03
            1777     11.5126E-03     53.5508E-03    -22.3217E+06     74.9954E+06     75.3382E+06     478.268E+03    -223.271E-03     447.354E-03    -224.083E-03     37.7028E-03    -223.739E-03     447.790E-03    -223.783E-03     34.4301E-03
            1778     10.7927E-03     53.4978E-03    -27.8543E+06     65.2294E+06     67.2281E+06     1.49829E+06    -223.326E-03     447.427E-03    -224.100E-03     38.0463E-03    -223.772E-03     447.810E-03    -223.818E-03     35.3833E-03
            1779     10.0728E-03     53.4442E-03    -33.1843E+06     44.3197E+06     59.7592E+06     1.42027E+06    -223.383E-03     447.523E-03    -224.141E-03     37.4412E-03    -223.790E-03     447.797E-03    -223.858E-03     35.3611E-03
            1780     9.35295E-03     53.3912E-03    -39.5289E+06     4.00634E+06     47.7886E+06     120.847E+03    -223.503E-03     447.693E-03    -224.190E-03     36.2140E-03    -223.845E-03     447.770E-03    -223.900E-03     34.6591E-03
            1781     8.63313E-03     53.3398E-03    -47.1166E+06    -32.4219E+06     35.0959E+06    -520.098E+03    -223.611E-03     447.844E-03    -224.233E-03     34.5842E-03    -223.901E-03     447.750E-03    -223.942E-03     33.5093E-03
            1782     7.91337E-03     53.2905E-03    -55.2168E+06    -61.2424E+06     23.0420E+06    -383.799E+03    -223.694E-03     447.962E-03    -224.268E-03     32.7501E-03    -223.951E-03     447.739E-03    -223.984E-03     32.0976E-03
            1783     7.19367E-03     53.2434E-03    -63.3863E+06    -86.3967E+06     10.8608E+06    -295.152E+03    -223.763E-03     448.060E-03    -224.297E-03     30.7205E-03    -223.995E-03     447.729E-03    -224.025E-03     30.4203E-03
            1784     6.47404E-03     53.1992E-03    -71.5785E+06    -108.952E+06    -1.91632E+06    -207.927E+03    -223.818E-03     448.137E-03    -224.319E-03     28.4242E-03    -224.032E-03     447.715E-03    -224.066E-03     28.4135E-03
            1785     5.75447E-03     53.1583E-03    -79.8485E+06    -130.593E+06    -15.7543E+06    -121.666E+03    -223.870E-03     448.203E-03    -224.333E-03     25.9213E-03    -224.067E-03     447.699E-03    -224.107E-03     26.1324E-03
            1786     5.03496E-03     53.1209E-03    -88.2016E+06    -151.743E+06    -30.8931E+06    -47.1468E+03    -223.922E-03     448.262E-03    -224.340E-03     23.2334E-03    -224.104E-03     447.682E-03    -224.146E-03     23.5992E-03
            1787     4.31552E-03     53.0876E-03    -96.5498E+06    -172.229E+06    -47.5202E+06     5.61704E+03    -223.973E-03     448.310E-03    -224.337E-03     20.3592E-03    -224.140E-03     447.661E-03    -224.185E-03     20.8159E-03
            1788     3.59614E-03     53.0587E-03    -104.724E+06    -193.028E+06    -65.3706E+06     5.66410E+03    -224.028E-03     448.353E-03    -224.325E-03     17.3061E-03    -224.178E-03     447.636E-03    -224.221E-03     17.7928E-03
            1789     2.87681E-03     53.0345E-03    -112.394E+06    -213.270E+06    -83.6552E+06    -24.5055E+03    -224.085E-03     448.393E-03    -224.308E-03     14.0821E-03    -224.217E-03     447.611E-03    -224.254E-03     14.5449E-03
            1790     2.15754E-03     53.0153E-03    -119.091E+06    -231.215E+06    -101.052E+06    -24.4845E+03    -224.142E-03     448.427E-03    -224.285E-03     10.7242E-03    -224.255E-03     447.590E-03    -224.282E-03     11.1183E-03
            1791     1.43833E-03     53.0014E-03    -124.361E+06    -246.172E+06    -115.612E+06    -11.9867E+03    -224.194E-03     448.458E-03    -224.265E-03     7.29554E-03    -224.291E-03     447.575E-03    -224.306E-03     7.58452E-03
            1792     719.151E-06     52.9927E-03    -127.803E+06    -256.488E+06    -125.467E+06    -1.83639E+03    -224.256E-03     448.484E-03    -224.228E-03     3.99231E-03    -224.341E-03     447.569E-03    -224.298E-03     4.15683E-03
            1793     13.6725E-03     52.2078E-03    -5.42906E+06     96.0602E+06     103.477E+06    -440.966E+03    -222.863E-03     446.944E-03    -224.081E-03     26.6222E-03    -223.324E-03     447.426E-03    -223.695E-03     22.3092E-03
            1794     12.9524E-03     52.1650E-03    -11.3597E+06     91.9933E+06     98.6704E+06    -588.054E+03    -222.955E-03     447.059E-03    -224.104E-03     34.0468E-03    -223.469E-03     447.573E-03    -223.727E-03     29.5297E-03
            1795     12.2324E-03     52.1183E-03    -17.5073E+06     85.3328E+06     86.9920E+06    -374.405E+03    -223.093E-03     447.192E-03    -224.099E-03     36.0721E-03    -223.586E-03     447.674E-03    -223.762E-03     32.2553E-03
            1796     11.5125E-03     52.0676E-03    -23.3334E+06     74.2295E+06     74.9754E+06    -438.179E+03    -223.224E-03     447.324E-03    -224.100E-03     37.7463E-03    -223.696E-03     447.759E-03    -223.799E-03     34.4610E-03
            1797     10.7925E-03     52.0146E-03    -28.7341E+06     64.7059E+06     66.9068E+06    -969.766E+03    -223.282E-03     447.403E-03    -224.120E-03     38.1645E-03    -223.732E-03     447.786E-03    -223.838E-03     35.4640E-03
            1798     10.0726E-03     51.9610E-03    -34.3219E+06     43.9291E+06     59.1272E+06    -587.125E+03    -223.339E-03     447.503E-03    -224.164E-03     37.6114E-03    -223.751E-03     447.778E-03    -223.882E-03     35.4995E-03
            1799     9.35268E-03     51.9081E-03    -40.8618E+06     3.98709E+06     47.2163E+06     897.942E+03    -223.467E-03     447.686E-03    -224.219E-03     36.3846E-03    -223.815E-03     447.766E-03    -223.929E-03     34.8381E-03
            1800     8.63283E-03     51.8566E-03    -48.3895E+06    -32.2019E+06     34.6739E+06     1.58453E+06    -223.586E-03     447.853E-03    -224.266E-03     34.7380E-03    -223.883E-03     447.762E-03    -223.976E-03     33.6904E-03
            1801     7.91305E-03     51.8072E-03    -56.2522E+06    -60.7914E+06     22.7941E+06     1.29970E+06    -223.679E-03     447.986E-03    -224.306E-03     32.8982E-03    -223.942E-03     447.767E-03    -224.023E-03     32.2660E-03
            1802     7.19336E-03     51.7601E-03    -64.1545E+06    -85.9470E+06     10.7016E+06     900.961E+03    -223.757E-03     448.097E-03    -224.340E-03     30.8656E-03    -223.994E-03     447.770E-03    -224.069E-03     30.5785E-03
            1803     6.47373E-03     51.7158E-03    -72.1919E+06    -108.743E+06    -2.07986E+06     565.207E+03    -223.821E-03     448.188E-03    -224.367E-03     28.5707E-03    -224.038E-03     447.769E-03    -224.115E-03     28.5667E-03
            1804     5.75416E-03     51.6748E-03    -80.3672E+06    -130.489E+06    -16.0268E+06     360.895E+03    -223.883E-03     448.269E-03    -224.386E-03     26.0683E-03    -224.083E-03     447.767E-03    -224.161E-03     26.2821E-03
            1805     5.03466E-03     51.6375E-03    -88.6349E+06    -151.714E+06    -31.3055E+06     235.138E+03    -223.946E-03     448.344E-03    -224.397E-03     23.3703E-03    -224.130E-03     447.765E-03    -224.205E-03     23.7363E-03
            1806     4.31524E-03     51.6041E-03    -96.8900E+06    -172.277E+06    -47.9979E+06     197.722E+03    -224.010E-03     448.408E-03    -224.399E-03     20.4761E-03    -224.178E-03     447.760E-03    -224.248E-03     20.9321E-03
            1807     3.59588E-03     51.5751E-03    -104.922E+06    -192.959E+06    -65.8366E+06     201.513E+03    -224.075E-03     448.467E-03    -224.392E-03     17.3992E-03    -224.226E-03     447.751E-03    -224.289E-03     17.8854E-03
            1808     2.87659E-03     51.5509E-03    -112.440E+06    -213.210E+06     -84.031E+06     182.068E+03    -224.143E-03     448.521E-03    -224.378E-03     14.1505E-03    -224.275E-03     447.741E-03    -224.326E-03     14.6134E-03
            1809     2.15737E-03     51.5317E-03    -119.057E+06    -231.216E+06    -101.242E+06     167.997E+03    -224.209E-03     448.569E-03    -224.361E-03     10.7723E-03    -224.322E-03     447.732E-03    -224.359E-03     11.1665E-03
            1810     1.43821E-03     51.5177E-03    -124.296E+06    -246.101E+06    -115.616E+06     161.456E+03    -224.269E-03     448.613E-03    -224.344E-03     7.32602E-03    -224.366E-03     447.730E-03    -224.385E-03     7.61542E-03
            1811     719.090E-06     51.5090E-03    -127.679E+06    -256.324E+06    -125.359E+06     105.823E+03    -224.336E-03     448.646E-03    -224.309E-03     4.00684E-03    -224.421E-03     447.731E-03    -224.379E-03     4.17178E-03
            1812     13.6725E-03     50.7247E-03    -5.71005E+06     96.5295E+06     104.160E+06    -303.612E+03    -222.835E-03     446.918E-03    -224.083E-03     26.6017E-03    -223.299E-03     447.402E-03    -223.694E-03     22.2928E-03
            1813     12.9525E-03     50.6820E-03    -11.9219E+06     91.6496E+06     99.0289E+06    -303.651E+03    -222.884E-03     446.993E-03    -224.109E-03     34.0219E-03    -223.400E-03     447.505E-03    -223.729E-03     29.5113E-03
            1814     12.2323E-03     50.6353E-03    -18.3717E+06     84.8223E+06     86.4763E+06    -136.623E+03    -222.970E-03     447.076E-03    -224.106E-03     36.0497E-03    -223.465E-03     447.556E-03    -223.770E-03     32.2403E-03
            1815     11.5122E-03     50.5844E-03    -24.8507E+06     76.1795E+06     73.5543E+06    -807.006E+03    -223.078E-03     447.187E-03    -224.108E-03     37.7670E-03    -223.558E-03     447.635E-03    -223.815E-03     34.4782E-03
            1816     10.7923E-03     50.5314E-03    -31.5320E+06     65.6679E+06     64.6374E+06    -1.90668E+06    -223.156E-03     447.293E-03    -224.138E-03     38.2609E-03    -223.617E-03     447.689E-03    -223.864E-03     35.5443E-03
            1817     10.0722E-03     50.4779E-03    -38.6254E+06     39.8882E+06     55.6628E+06    -1.08689E+06    -223.265E-03     447.458E-03    -224.193E-03     37.7478E-03    -223.688E-03     447.724E-03    -223.916E-03     35.6261E-03
            1818     9.35226E-03     50.4249E-03    -45.6391E+06     1.08189E+06     44.1711E+06     743.598E+03    -223.428E-03     447.683E-03    -224.255E-03     36.5246E-03    -223.792E-03     447.760E-03    -223.970E-03     34.9721E-03
            1819     8.63242E-03     50.3734E-03    -52.1167E+06    -31.7951E+06     33.0928E+06     1.43166E+06    -223.559E-03     447.868E-03    -224.309E-03     34.8861E-03    -223.872E-03     447.787E-03    -224.022E-03     33.8305E-03
            1820     7.91265E-03     50.3239E-03    -58.6324E+06    -59.8233E+06     21.8797E+06     1.24925E+06    -223.661E-03     448.016E-03    -224.355E-03     33.0582E-03    -223.936E-03     447.807E-03    -224.074E-03     32.4190E-03
            1821     7.19295E-03     50.2768E-03    -65.6284E+06    -85.0754E+06     10.0419E+06     921.493E+03    -223.750E-03     448.145E-03    -224.394E-03     31.0314E-03    -223.995E-03     447.825E-03    -224.125E-03     30.7381E-03
            1822     6.47331E-03     50.2324E-03    -73.0549E+06    -108.109E+06    -2.65172E+06     648.510E+03    -223.831E-03     448.258E-03    -224.427E-03     28.7328E-03    -224.052E-03     447.844E-03    -224.177E-03     28.7232E-03
            1823     5.75375E-03     50.1913E-03    -80.8534E+06    -130.122E+06    -16.5621E+06     446.466E+03    -223.910E-03     448.362E-03    -224.452E-03     26.2167E-03    -224.112E-03     447.863E-03    -224.229E-03     26.4245E-03
            1824     5.03428E-03     50.1538E-03    -88.9248E+06    -151.535E+06    -31.8658E+06      364.42E+03    -223.989E-03     448.456E-03    -224.467E-03     23.4955E-03    -224.174E-03     447.880E-03    -224.278E-03     23.8561E-03
            1825     4.31489E-03     50.1204E-03    -97.0934E+06    -172.163E+06    -48.5515E+06     313.105E+03    -224.065E-03     448.538E-03    -224.473E-03     20.5760E-03    -224.234E-03     447.891E-03    -224.325E-03     21.0266E-03
            1826     3.59558E-03     50.0914E-03    -105.072E+06    -192.900E+06    -66.2977E+06     283.057E+03    -224.142E-03     448.611E-03    -224.470E-03     17.4749E-03    -224.293E-03     447.897E-03    -224.369E-03     17.9560E-03
            1827     2.87635E-03     50.0671E-03    -112.513E+06    -213.088E+06    -84.3186E+06     293.332E+03    -224.217E-03     448.677E-03    -224.460E-03     14.2057E-03    -224.349E-03     447.897E-03    -224.409E-03     14.6649E-03
            1828     2.15719E-03     50.0478E-03    -119.002E+06    -231.033E+06    -101.252E+06     265.509E+03    -224.289E-03     448.734E-03    -224.445E-03     10.8160E-03    -224.402E-03     447.898E-03    -224.444E-03     11.2069E-03
            1829     1.43808E-03     50.0338E-03    -124.097E+06    -245.815E+06    -115.389E+06     180.182E+03    -224.353E-03     448.784E-03    -224.430E-03     7.35957E-03    -224.450E-03     447.902E-03    -224.471E-03     7.64571E-03
            1830     719.030E-06     50.0251E-03    -127.402E+06    -255.980E+06    -125.044E+06     95.5970E+03    -224.424E-03     448.820E-03    -224.396E-03     4.02604E-03    -224.508E-03     447.906E-03    -224.465E-03     4.18893E-03
            1831     13.6725E-03     49.2417E-03    -5.67663E+06     96.3786E+06     104.783E+06     58.1718E+03    -222.779E-03     446.868E-03    -224.090E-03     26.6722E-03    -223.243E-03     447.351E-03    -223.697E-03     22.3749E-03
            1832     12.9523E-03     49.1991E-03    -11.9947E+06     91.0471E+06     99.8010E+06     431.543E+03    -222.823E-03     446.944E-03    -224.120E-03     34.1321E-03    -223.340E-03     447.452E-03    -223.736E-03     29.6366E-03
            1833     12.2323E-03     49.1525E-03    -18.7377E+06     84.5222E+06     86.9665E+06     720.600E+03    -222.883E-03     447.004E-03    -224.121E-03     36.1828E-03    -223.381E-03     447.483E-03    -223.782E-03     32.3883E-03
            1834     11.5121E-03     49.1017E-03    -25.6831E+06     78.6198E+06     72.6668E+06     438.648E+03    -222.935E-03     447.056E-03    -224.121E-03     37.8682E-03    -223.421E-03     447.519E-03    -223.834E-03     34.5996E-03
            1835     10.7919E-03     49.0486E-03    -33.1000E+06     66.7164E+06     62.6611E+06    -121.530E+03    -223.027E-03     447.185E-03    -224.158E-03     38.3211E-03    -223.496E-03     447.591E-03    -223.893E-03     35.6303E-03
            1836     10.0718E-03     48.9949E-03    -40.4534E+06     37.5367E+06     53.8574E+06    -429.382E+03    -223.199E-03     447.427E-03    -224.228E-03     37.8159E-03    -223.626E-03     447.687E-03    -223.955E-03     35.6995E-03
            1837     9.35184E-03     48.9418E-03    -46.8869E+06    -236.862E+03     42.9135E+06    -600.607E+03    -223.384E-03     447.682E-03    -224.298E-03     36.6374E-03    -223.750E-03     447.756E-03    -224.015E-03     35.0587E-03
            1838     8.63197E-03     48.8902E-03    -52.9107E+06    -32.3142E+06     32.0574E+06    -493.790E+03    -223.525E-03     447.883E-03    -224.358E-03     35.0369E-03    -223.841E-03     447.803E-03    -224.074E-03     33.9455E-03
            1839     7.91217E-03     48.8406E-03    -59.2358E+06    -59.7583E+06     21.0248E+06    -148.923E+03    -223.644E-03     448.055E-03    -224.411E-03     33.2238E-03    -223.921E-03     447.849E-03    -224.133E-03     32.5553E-03
            1840     7.19245E-03     48.7933E-03    -66.0447E+06    -84.9485E+06     9.30411E+06     72.2106E+03    -223.755E-03     448.212E-03    -224.457E-03     31.1930E-03    -224.001E-03     447.895E-03    -224.192E-03     30.8770E-03
            1841     6.47283E-03     48.7488E-03    -73.3637E+06    -107.891E+06    -3.28894E+06     192.821E+03    -223.856E-03     448.352E-03    -224.496E-03     28.8829E-03    -224.079E-03     447.941E-03    -224.250E-03     28.8554E-03
            1842     5.75330E-03     48.7076E-03    -81.0992E+06    -130.019E+06    -17.0590E+06     268.305E+03    -223.953E-03     448.480E-03    -224.527E-03     26.3525E-03    -224.156E-03     447.983E-03    -224.306E-03     26.5461E-03
            1843     5.03387E-03     48.6700E-03    -89.0981E+06    -151.485E+06    -32.1589E+06     323.019E+03    -224.046E-03     448.593E-03    -224.548E-03     23.6149E-03    -224.231E-03     448.018E-03    -224.359E-03     23.9640E-03
            1844     4.31453E-03     48.6365E-03    -97.1622E+06    -172.012E+06    -48.6645E+06     343.701E+03    -224.132E-03     448.689E-03    -224.557E-03     20.6797E-03    -224.301E-03     448.044E-03    -224.410E-03     21.1212E-03
            1845     3.59527E-03     48.6074E-03    -105.083E+06    -192.841E+06    -66.2574E+06     354.292E+03    -224.217E-03     448.775E-03    -224.558E-03     17.5619E-03    -224.368E-03     448.061E-03    -224.457E-03     18.0362E-03
            1846     2.87610E-03     48.5830E-03    -112.519E+06    -212.862E+06    -84.1964E+06     319.911E+03    -224.299E-03     448.849E-03    -224.550E-03     14.2790E-03    -224.431E-03     448.071E-03    -224.499E-03     14.7324E-03
            1847     2.15699E-03     48.5637E-03    -119.005E+06    -230.685E+06    -101.211E+06     195.454E+03    -224.375E-03     448.912E-03    -224.537E-03     10.8807E-03    -224.489E-03     448.078E-03    -224.536E-03     11.2656E-03
            1848     1.43795E-03     48.5496E-03    -124.097E+06    -245.535E+06    -115.439E+06     85.4603E+03    -224.444E-03     448.968E-03    -224.524E-03     7.41044E-03    -224.541E-03     448.087E-03    -224.565E-03     7.69144E-03
            1849     718.960E-06     48.5409E-03    -127.388E+06    -255.779E+06    -125.068E+06     24.2903E+03    -224.518E-03     449.009E-03    -224.491E-03     4.05535E-03    -224.603E-03     448.096E-03    -224.560E-03     4.21507E-03
            1850     13.6723E-03     47.7589E-03    -5.77189E+06     95.7373E+06     104.510E+06     364.804E+03    -222.670E-03     446.768E-03    -224.099E-03     26.7321E-03    -223.133E-03     447.248E-03    -223.707E-03     22.4465E-03
            1851     12.9522E-03     47.7162E-03    -11.7805E+06     90.1122E+06     99.3224E+06     782.675E+03    -222.729E-03     446.864E-03    -224.135E-03     34.2363E-03    -223.243E-03     447.368E-03    -223.752E-03     29.7509E-03
            1852     12.2319E-03     47.6697E-03    -17.5441E+06     85.2871E+06     87.5546E+06     667.222E+03    -222.806E-03     446.949E-03    -224.143E-03     36.3379E-03    -223.300E-03     447.430E-03    -223.804E-03     32.5434E-03
            1853     11.5117E-03     47.6189E-03    -23.0412E+06     77.9750E+06     74.6041E+06     940.517E+03    -222.904E-03     447.059E-03    -224.156E-03     38.0239E-03    -223.379E-03     447.513E-03    -223.862E-03     34.7626E-03
            1854     10.7916E-03     47.5658E-03    -29.0131E+06     67.0113E+06     65.0648E+06     1.80508E+06    -223.001E-03     447.197E-03    -224.197E-03     38.4377E-03    -223.453E-03     447.596E-03    -223.926E-03     35.7759E-03
            1855     10.0714E-03     47.5118E-03    -35.8638E+06     40.2434E+06     55.8874E+06     835.558E+03    -223.142E-03     447.409E-03    -224.267E-03     37.9312E-03    -223.553E-03     447.674E-03    -223.994E-03     35.8286E-03
            1856     9.35140E-03     47.4586E-03    -43.2530E+06     168.545E+03     43.8608E+06    -542.874E+03    -223.332E-03     447.677E-03    -224.345E-03     36.7849E-03    -223.683E-03     447.748E-03    -224.063E-03     35.1980E-03
            1857     8.63147E-03     47.4069E-03    -50.7630E+06    -32.8933E+06     32.1346E+06    -720.456E+03    -223.493E-03     447.906E-03    -224.413E-03     35.2003E-03    -223.798E-03     447.821E-03    -224.131E-03     34.0942E-03
            1858     7.91164E-03     47.3572E-03    -58.2638E+06    -60.5293E+06     20.6866E+06    -560.103E+03    -223.635E-03     448.109E-03    -224.474E-03     33.3905E-03    -223.906E-03     447.899E-03    -224.199E-03     32.7023E-03
            1859     7.19193E-03     47.3097E-03    -65.8006E+06    -85.4818E+06     8.89060E+06    -255.218E+03    -223.767E-03     448.295E-03    -224.528E-03     31.3601E-03    -224.011E-03     447.977E-03    -224.265E-03     31.0247E-03
            1860     6.47232E-03     47.2651E-03    -73.4950E+06    -108.200E+06    -3.64302E+06    -23.0905E+03    -223.886E-03     448.460E-03    -224.574E-03     29.0492E-03    -224.109E-03     448.048E-03    -224.329E-03     29.0041E-03
            1861     5.75282E-03     47.2237E-03    -81.3879E+06    -130.226E+06    -17.3149E+06     135.249E+03    -223.998E-03     448.608E-03    -224.611E-03     26.5146E-03    -224.202E-03     448.111E-03    -224.390E-03     26.6928E-03
            1862     5.03343E-03     47.1860E-03    -89.4286E+06    -151.429E+06    -32.3149E+06     174.237E+03    -224.102E-03     448.739E-03    -224.637E-03     23.7715E-03    -224.289E-03     448.164E-03    -224.449E-03     24.1065E-03
            1863     4.31413E-03     47.1523E-03    -97.5052E+06    -172.132E+06    -48.7344E+06     217.457E+03    -224.200E-03     448.852E-03    -224.652E-03     20.8253E-03    -224.371E-03     448.207E-03    -224.504E-03     21.2547E-03
            1864     3.59492E-03     47.1231E-03    -105.409E+06    -192.762E+06    -66.3609E+06     307.513E+03    -224.296E-03     448.952E-03    -224.656E-03     17.6892E-03    -224.449E-03     448.238E-03    -224.555E-03     18.1546E-03
            1865     2.87581E-03     47.0987E-03    -112.794E+06    -212.448E+06    -84.3667E+06     208.255E+03    -224.386E-03     449.037E-03    -224.651E-03     14.3895E-03    -224.520E-03     448.262E-03    -224.602E-03     14.8348E-03
            1866     2.15677E-03     47.0793E-03    -119.242E+06    -230.449E+06    -101.415E+06     87.9592E+03    -224.472E-03     449.113E-03    -224.641E-03     10.9728E-03    -224.587E-03     448.281E-03    -224.641E-03     11.3510E-03
            1867     1.43780E-03     47.0651E-03    -124.347E+06    -245.380E+06    -115.688E+06     50.6746E+03    -224.547E-03     449.178E-03    -224.630E-03     7.47694E-03    -224.646E-03     448.299E-03    -224.673E-03     7.75367E-03
            1868     718.884E-06     47.0564E-03    -127.677E+06    -255.710E+06    -125.369E+06     27.5402E+03    -224.626E-03     449.224E-03    -224.598E-03     4.09174E-03    -224.711E-03     448.312E-03    -224.669E-03     4.24940E-03
            1869     13.6721E-03     46.2761E-03    -5.56896E+06     95.3987E+06     103.722E+06     531.742E+03    -222.531E-03     446.638E-03    -224.107E-03     26.6945E-03    -222.992E-03     447.117E-03    -223.718E-03     22.4142E-03
            1870     12.9518E-03     46.2336E-03    -11.2004E+06     90.6327E+06     98.7546E+06     53.9136E+03    -222.605E-03     446.755E-03    -224.150E-03     34.2398E-03    -223.116E-03     447.262E-03    -223.772E-03     29.7460E-03
            1871     12.2316E-03     46.1870E-03    -16.8271E+06     85.8827E+06     87.2283E+06    -426.171E+03    -222.723E-03     446.890E-03    -224.167E-03     36.3755E-03    -223.214E-03     447.373E-03    -223.831E-03     32.5640E-03
            1872     11.5113E-03     46.1361E-03    -22.5569E+06     75.5890E+06     74.6049E+06     69.0823E+03    -222.861E-03     447.053E-03    -224.192E-03     38.1040E-03    -223.331E-03     447.495E-03    -223.896E-03     34.8259E-03
            1873     10.7912E-03     46.0828E-03    -28.2643E+06     65.0103E+06     65.2854E+06     1.38785E+06    -222.960E-03     447.198E-03    -224.238E-03     38.6060E-03    -223.406E-03     447.586E-03    -223.965E-03     35.9335E-03
            1874     10.0710E-03     46.0289E-03    -34.7351E+06     42.6435E+06     56.5287E+06     2.44288E+06    -223.077E-03     447.389E-03    -224.312E-03     38.1305E-03    -223.488E-03     447.663E-03    -224.040E-03     36.0437E-03
            1875     9.35088E-03     45.9755E-03    -42.4666E+06     2.32096E+06     44.4036E+06     1.87829E+06    -223.275E-03     447.674E-03    -224.398E-03     36.9699E-03    -223.627E-03     447.754E-03    -224.118E-03     35.4060E-03
            1876     8.63092E-03     45.9236E-03    -50.4336E+06    -32.1697E+06     32.3249E+06     783.998E+03    -223.459E-03     447.935E-03    -224.476E-03     35.3928E-03    -223.764E-03     447.854E-03    -224.195E-03     34.2933E-03
            1877     7.91108E-03     45.8737E-03    -58.1752E+06    -60.6203E+06     20.6828E+06     333.548E+03    -223.623E-03     448.169E-03    -224.546E-03     33.5991E-03    -223.894E-03     447.958E-03    -224.271E-03     32.9075E-03
            1878     7.19136E-03     45.8260E-03    -65.9309E+06    -85.6756E+06     8.79769E+06     149.238E+03    -223.774E-03     448.382E-03    -224.608E-03     31.5800E-03    -224.019E-03     448.064E-03    -224.344E-03     31.2343E-03
            1879     6.47176E-03     45.7812E-03    -73.7400E+06    -108.370E+06    -3.74429E+06     62.3227E+03    -223.911E-03     448.573E-03    -224.661E-03     29.2718E-03    -224.135E-03     448.161E-03    -224.416E-03     29.2127E-03
            1880     5.75229E-03     45.7396E-03    -81.6540E+06    -130.381E+06    -17.4306E+06     33.8452E+03    -224.039E-03     448.744E-03    -224.705E-03     26.7320E-03    -224.244E-03     448.248E-03    -224.485E-03     26.8950E-03
            1881     5.03292E-03     45.7018E-03    -89.6939E+06    -151.337E+06    -32.4441E+06     7.17881E+03    -224.158E-03     448.896E-03    -224.738E-03     23.9780E-03    -224.347E-03     448.323E-03    -224.551E-03     24.2983E-03
            1882     4.31366E-03     45.6679E-03    -97.7761E+06    -172.420E+06    -48.8578E+06     35.5688E+03    -224.274E-03     449.034E-03    -224.760E-03     21.0134E-03    -224.445E-03     448.388E-03    -224.612E-03     21.4292E-03
            1883     3.59451E-03     45.6386E-03    -105.649E+06    -192.697E+06    -66.5211E+06     80.8019E+03    -224.383E-03     449.152E-03    -224.770E-03     17.8538E-03    -224.537E-03     448.440E-03    -224.670E-03     18.3068E-03
            1884     2.87546E-03     45.6140E-03    -112.993E+06    -212.110E+06    -84.5848E+06     13.8049E+03    -224.486E-03     449.256E-03    -224.769E-03     14.5289E-03    -224.622E-03     448.482E-03    -224.721E-03     14.9640E-03
            1885     2.15650E-03     45.5945E-03    -119.441E+06    -230.470E+06    -101.614E+06    -35.0559E+03    -224.586E-03     449.350E-03    -224.764E-03     11.0836E-03    -224.702E-03     448.519E-03    -224.765E-03     11.4537E-03
            1886     1.43762E-03     45.5803E-03    -124.528E+06    -245.381E+06    -115.837E+06    -1.40558E+03    -224.670E-03     449.425E-03    -224.755E-03     7.55500E-03    -224.768E-03     448.547E-03    -224.798E-03     7.82655E-03
            1887     718.792E-06     45.5715E-03    -127.834E+06    -255.667E+06    -125.483E+06     24.3623E+03    -224.752E-03     449.476E-03    -224.724E-03     4.13522E-03    -224.838E-03     448.565E-03    -224.795E-03     4.29034E-03
            1888     13.6720E-03     44.7937E-03    -5.11214E+06     95.5376E+06     103.567E+06     95.1156E+03    -222.449E-03     446.565E-03    -224.116E-03     26.6822E-03    -222.908E-03     447.045E-03    -223.730E-03     22.3958E-03
            1889     12.9516E-03     44.7511E-03    -10.9626E+06     92.0266E+06     98.7661E+06    -183.519E+03    -222.488E-03     446.653E-03    -224.166E-03     34.2030E-03    -223.000E-03     447.167E-03    -223.789E-03     29.7043E-03
            1890     12.2313E-03     44.7043E-03    -17.5676E+06     85.2330E+06     85.8939E+06    -120.977E+03    -222.597E-03     446.785E-03    -224.188E-03     36.4012E-03    -223.090E-03     447.269E-03    -223.857E-03     32.5918E-03
            1891     11.5110E-03     44.6534E-03    -24.4892E+06     73.8492E+06     72.1185E+06     540.697E+03    -222.733E-03     446.952E-03    -224.220E-03     38.2131E-03    -223.207E-03     447.392E-03    -223.931E-03     34.9379E-03
            1892     10.7907E-03     44.6001E-03    -31.7120E+06     61.8295E+06     62.2923E+06     1.74020E+06    -222.856E-03     447.134E-03    -224.278E-03     38.7660E-03    -223.312E-03     447.516E-03    -224.010E-03     36.0909E-03
            1893     10.0704E-03     44.5460E-03    -38.7458E+06     41.9712E+06     54.7136E+06     2.86365E+06    -223.003E-03     447.366E-03    -224.363E-03     38.3228E-03    -223.430E-03     447.646E-03    -224.094E-03     36.2299E-03
            1894     9.35030E-03     44.4924E-03    -45.1679E+06     5.61729E+06     44.3224E+06     2.52833E+06    -223.208E-03     447.668E-03    -224.460E-03     37.1926E-03    -223.579E-03     447.769E-03    -224.181E-03     35.6229E-03
            1895     8.63030E-03     44.4403E-03    -51.7317E+06    -30.4716E+06     32.4538E+06     1.43548E+06    -223.415E-03     447.963E-03    -224.548E-03     35.6452E-03    -223.730E-03     447.892E-03    -224.267E-03     34.5383E-03
            1896     7.91044E-03     44.3901E-03    -58.7754E+06    -59.8221E+06     20.8944E+06     795.953E+03    -223.602E-03     448.231E-03    -224.628E-03     33.8708E-03    -223.879E-03     448.026E-03    -224.352E-03     33.1681E-03
            1897     7.19071E-03     44.3422E-03    -66.0795E+06    -85.0627E+06     9.08012E+06     343.422E+03    -223.776E-03     448.475E-03    -224.700E-03     31.8599E-03    -224.023E-03     448.160E-03    -224.435E-03     31.4995E-03
            1898     6.47112E-03     44.2971E-03    -73.6428E+06    -108.173E+06    -3.49218E+06     20.8253E+03    -223.935E-03     448.697E-03    -224.762E-03     29.5503E-03    -224.160E-03     448.287E-03    -224.516E-03     29.4736E-03
            1899     5.75166E-03     44.2554E-03    -81.4524E+06    -130.325E+06    -17.2004E+06    -126.261E+03    -224.085E-03     448.900E-03    -224.815E-03     26.9974E-03    -224.290E-03     448.403E-03    -224.594E-03     27.1425E-03
            1900     5.03233E-03     44.2173E-03    -89.4498E+06    -151.385E+06    -32.2281E+06    -176.073E+03    -224.224E-03     449.080E-03    -224.856E-03     24.2226E-03    -224.412E-03     448.506E-03    -224.668E-03     24.5262E-03
            1901     4.31312E-03     44.1833E-03    -97.4958E+06    -172.595E+06    -48.6506E+06    -173.758E+03    -224.357E-03     449.243E-03    -224.886E-03     21.2340E-03    -224.528E-03     448.596E-03    -224.737E-03     21.6341E-03
            1902     3.59404E-03     44.1537E-03    -105.365E+06    -192.772E+06    -66.2930E+06    -161.836E+03    -224.484E-03     449.387E-03    -224.903E-03     18.0471E-03    -224.637E-03     448.673E-03    -224.802E-03     18.4856E-03
            1903     2.87506E-03     44.1290E-03    -112.741E+06    -212.090E+06    -84.3609E+06    -134.456E+03    -224.606E-03     449.514E-03    -224.908E-03     14.6922E-03    -224.741E-03     448.740E-03    -224.859E-03     15.1157E-03
            1904     2.15619E-03     44.1094E-03    -119.214E+06    -230.617E+06    -101.406E+06    -112.019E+03    -224.720E-03     449.628E-03    -224.908E-03     11.2118E-03    -224.835E-03     448.795E-03    -224.907E-03     11.5732E-03
            1905     1.43741E-03     44.0951E-03    -124.335E+06    -245.547E+06    -115.648E+06    -67.4479E+03    -224.812E-03     449.715E-03    -224.902E-03     7.64393E-03    -224.910E-03     448.835E-03    -224.944E-03     7.90909E-03
            1906     718.687E-06     44.0863E-03    -127.654E+06    -255.709E+06    -125.315E+06    -30.5930E+03    -224.898E-03     449.771E-03    -224.873E-03     4.18394E-03    -224.984E-03     448.859E-03    -224.943E-03     4.33522E-03
            1907     13.6718E-03     43.3112E-03    -5.47023E+06     95.3129E+06     103.541E+06    -196.505E+03    -222.374E-03     446.505E-03    -224.131E-03     26.7377E-03    -222.834E-03     446.984E-03    -223.744E-03     22.4494E-03
            1908     12.9515E-03     43.2687E-03    -11.7208E+06     91.2945E+06     98.6953E+06     511.084E+03    -222.390E-03     446.577E-03    -224.187E-03     34.3194E-03    -222.905E-03     447.089E-03    -223.809E-03     29.8300E-03
            1909     12.2310E-03     43.2220E-03    -18.5588E+06     83.9838E+06     85.8899E+06     1.51663E+06    -222.457E-03     446.677E-03    -224.219E-03     36.5359E-03    -222.953E-03     447.156E-03    -223.885E-03     32.7461E-03
            1910     11.5105E-03     43.1709E-03    -25.6882E+06     72.0873E+06     71.8081E+06     2.58647E+06    -222.600E-03     446.861E-03    -224.261E-03     38.3425E-03    -223.078E-03     447.295E-03    -223.969E-03     35.0918E-03
            1911     10.7901E-03     43.1174E-03    -32.5157E+06     60.9494E+06     62.1782E+06     3.01511E+06    -222.758E-03     447.086E-03    -224.329E-03     38.9217E-03    -223.217E-03     447.466E-03    -224.059E-03     36.2561E-03
            1912     10.0698E-03     43.0630E-03    -38.8115E+06     42.9687E+06     55.2747E+06     2.16623E+06    -222.914E-03     447.338E-03    -224.424E-03     38.5450E-03    -223.345E-03     447.623E-03    -224.153E-03     36.4274E-03
            1913     9.34964E-03     43.0092E-03    -45.0662E+06     7.64710E+06     45.1328E+06     1.25299E+06    -223.130E-03     447.661E-03    -224.531E-03     37.4730E-03    -223.505E-03     447.772E-03    -224.251E-03     35.8672E-03
            1914     8.62960E-03     42.9569E-03    -51.5290E+06    -29.1060E+06     33.2599E+06     801.056E+03    -223.365E-03     447.997E-03    -224.632E-03     35.9584E-03    -223.684E-03     447.933E-03    -224.349E-03     34.8226E-03
            1915     7.90971E-03     42.9064E-03    -58.2717E+06    -58.9326E+06     21.7185E+06     397.456E+03    -223.581E-03     448.304E-03    -224.723E-03     34.2012E-03    -223.858E-03     448.102E-03    -224.445E-03     33.4721E-03
            1916     7.18996E-03     42.8582E-03    -65.3970E+06    -84.3488E+06     9.87801E+06     71.9178E+03    -223.778E-03     448.584E-03    -224.806E-03     32.1912E-03    -224.025E-03     448.270E-03    -224.539E-03     31.8066E-03
            1917     6.47037E-03     42.8129E-03    -72.9044E+06    -107.886E+06    -2.77704E+06    -144.754E+03    -223.963E-03     448.842E-03    -224.879E-03     29.8749E-03    -224.186E-03     448.431E-03    -224.631E-03     29.7761E-03
            1918     5.75094E-03     42.7708E-03    -80.7423E+06    -130.273E+06    -16.5641E+06    -252.635E+03    -224.139E-03     449.081E-03    -224.942E-03     27.3077E-03    -224.342E-03     448.582E-03    -224.719E-03     27.4321E-03
            1919     5.03165E-03     42.7325E-03    -88.7975E+06    -151.489E+06    -31.6829E+06    -289.809E+03    -224.302E-03     449.294E-03    -224.992E-03     24.5095E-03    -224.487E-03     448.719E-03    -224.802E-03     24.7943E-03
            1920     4.31250E-03     42.6982E-03    -96.9191E+06    -172.745E+06    -48.1735E+06    -291.997E+03    -224.456E-03     449.487E-03    -225.031E-03     21.4915E-03    -224.624E-03     448.838E-03    -224.881E-03     21.8746E-03
            1921     3.59349E-03     42.6685E-03    -104.871E+06    -192.989E+06    -65.8571E+06    -254.670E+03    -224.603E-03     449.659E-03    -225.056E-03     18.2727E-03    -224.754E-03     448.943E-03    -224.953E-03     18.6962E-03
            1922     2.87460E-03     42.6436E-03    -112.303E+06    -212.294E+06    -83.9445E+06    -203.331E+03    -224.744E-03     449.813E-03    -225.068E-03     14.8819E-03    -224.877E-03     449.036E-03    -225.017E-03     15.2929E-03
            1923     2.15584E-03     42.6239E-03    -118.799E+06    -230.839E+06    -100.972E+06    -146.434E+03    -224.874E-03     449.947E-03    -225.073E-03     11.3575E-03    -224.987E-03     449.112E-03    -225.071E-03     11.7099E-03
            1924     1.43717E-03     42.6095E-03    -123.931E+06    -245.768E+06    -115.217E+06    -89.9556E+03    -224.976E-03     450.047E-03    -225.071E-03     7.74474E-03    -225.072E-03     449.165E-03    -225.111E-03     8.00387E-03
            1925     718.564E-06     42.6005E-03    -127.275E+06    -255.875E+06    -124.931E+06    -47.0706E+03    -225.067E-03     450.112E-03    -225.045E-03     4.23882E-03    -225.151E-03     449.198E-03    -225.114E-03     4.38711E-03
            1926     13.6716E-03     41.8289E-03    -5.96099E+06     94.4128E+06     102.470E+06     312.696E+03    -222.205E-03     446.351E-03    -224.146E-03     26.7633E-03    -222.664E-03     446.828E-03    -223.762E-03     22.4859E-03
            1927     12.9510E-03     41.7864E-03    -11.9303E+06     90.1111E+06     98.4385E+06     666.552E+03    -222.262E-03     446.478E-03    -224.216E-03     34.4420E-03    -222.777E-03     446.985E-03    -223.837E-03     29.9542E-03
            1928     12.2305E-03     41.7397E-03    -17.6004E+06     81.0227E+06     87.6080E+06     1.75571E+06    -222.390E-03     446.657E-03    -224.266E-03     36.7210E-03    -222.881E-03     447.119E-03    -223.920E-03     32.9285E-03
            1929     11.5101E-03     41.6886E-03    -23.1887E+06     69.8758E+06     75.1373E+06     3.46311E+06    -222.537E-03     446.857E-03    -224.320E-03     38.5278E-03    -223.005E-03     447.272E-03    -224.012E-03     35.2801E-03
            1930     10.7896E-03     41.6347E-03    -29.1465E+06     63.6063E+06     65.8033E+06     3.28345E+06    -222.646E-03     447.036E-03    -224.390E-03     39.1463E-03    -223.098E-03     447.420E-03    -224.111E-03     36.4706E-03
            1931     10.0692E-03     41.5802E-03    -35.6546E+06     45.6342E+06     57.7983E+06     1.88814E+06    -222.797E-03     447.291E-03    -224.493E-03     38.8448E-03    -223.222E-03     447.583E-03    -224.219E-03     36.7058E-03
            1932     9.34891E-03     41.5261E-03    -42.5634E+06     9.01842E+06     46.9333E+06     983.740E+03    -223.044E-03     447.658E-03    -224.614E-03     37.8253E-03    -223.413E-03     447.771E-03    -224.330E-03     36.1955E-03
            1933     8.62880E-03     41.4734E-03    -49.5947E+06    -28.2626E+06     34.7039E+06     402.222E+03    -223.312E-03     448.041E-03    -224.728E-03     36.3452E-03    -223.626E-03     447.977E-03    -224.442E-03     35.1805E-03
            1934     7.90887E-03     41.4226E-03    -56.7279E+06    -58.4095E+06     22.9234E+06     131.323E+03    -223.559E-03     448.391E-03    -224.833E-03     34.6010E-03    -223.832E-03     448.189E-03    -224.551E-03     33.8436E-03
            1935     7.18911E-03     41.3741E-03    -64.1296E+06    -84.0005E+06     10.9162E+06    -6.29203E+03    -223.785E-03     448.712E-03    -224.928E-03     32.5865E-03    -224.028E-03     448.398E-03    -224.658E-03     32.1770E-03
            1936     6.46953E-03     41.3284E-03    -71.8473E+06    -107.742E+06    -1.89776E+06    -95.4454E+03    -223.998E-03     449.011E-03    -225.013E-03     30.2604E-03    -224.217E-03     448.599E-03    -224.762E-03     30.1393E-03
            1937     5.75011E-03     41.2860E-03    -79.8350E+06    -130.269E+06    -15.8022E+06    -146.613E+03    -224.202E-03     449.289E-03    -225.088E-03     27.6717E-03    -224.402E-03     448.789E-03    -224.862E-03     27.7756E-03
            1938     5.03087E-03     41.2473E-03    -88.0164E+06    -151.566E+06    -31.0025E+06    -177.605E+03    -224.393E-03     449.542E-03    -225.149E-03     24.8411E-03    -224.576E-03     448.964E-03    -224.956E-03     25.1071E-03
            1939     4.31179E-03     41.2128E-03    -96.2462E+06    -172.891E+06    -47.5728E+06    -184.708E+03    -224.574E-03     449.771E-03    -225.197E-03     21.7868E-03    -224.739E-03     449.119E-03    -225.045E-03     22.1528E-03
            1940     3.59287E-03     41.1829E-03    -104.284E+06    -193.201E+06    -65.3133E+06    -173.362E+03    -224.743E-03     449.973E-03    -225.230E-03     18.5314E-03    -224.892E-03     449.255E-03    -225.125E-03     18.9394E-03
            1941     2.87409E-03     41.1577E-03    -111.791E+06    -212.509E+06    -83.4467E+06    -142.526E+03    -224.903E-03     450.152E-03    -225.249E-03     15.0980E-03    -225.033E-03     449.373E-03    -225.196E-03     15.4961E-03
            1942     2.15544E-03     41.1378E-03    -118.356E+06    -231.052E+06    -100.537E+06    -116.385E+03    -225.047E-03     450.307E-03    -225.259E-03     11.5202E-03    -225.159E-03     449.469E-03    -225.255E-03     11.8632E-03
            1943     1.43689E-03     41.1233E-03    -123.527E+06    -245.989E+06    -114.831E+06    -83.4679E+03    -225.160E-03     450.422E-03    -225.262E-03     7.85417E-03    -225.255E-03     449.538E-03    -225.300E-03     8.10708E-03
            1944     718.424E-06     41.1142E-03    -126.868E+06    -256.068E+06    -124.541E+06    -37.3293E+03    -225.259E-03     450.496E-03    -225.238E-03     4.29744E-03    -225.341E-03     449.581E-03    -225.305E-03     4.44255E-03
            1945     13.6713E-03     40.3469E-03    -5.06258E+06     94.0537E+06     101.789E+06     271.073E+03    -222.019E-03     446.179E-03    -224.161E-03     26.7183E-03    -222.472E-03     446.654E-03    -223.781E-03     22.4423E-03
            1946     12.9506E-03     40.3044E-03    -10.5285E+06     89.9564E+06     98.3333E+06     171.279E+03    -222.099E-03     446.342E-03    -224.243E-03     34.4455E-03    -222.607E-03     446.846E-03    -223.866E-03     29.9490E-03
            1947     12.2300E-03     40.2575E-03    -16.2073E+06     77.9568E+06     87.6050E+06     629.450E+03    -222.270E-03     446.579E-03    -224.309E-03     36.8573E-03    -222.750E-03     447.024E-03    -223.960E-03     33.0415E-03
            1948     11.5095E-03     40.2061E-03    -21.3922E+06     67.4611E+06     76.1816E+06     1.67601E+06    -222.427E-03     446.803E-03    -224.376E-03     38.8202E-03    -222.885E-03     447.204E-03    -224.062E-03     35.5331E-03
            1949     10.7890E-03     40.1522E-03    -26.6122E+06     64.8916E+06     68.0814E+06     2.69093E+06    -222.519E-03     446.979E-03    -224.459E-03     39.5229E-03    -222.966E-03     447.364E-03    -224.174E-03     36.8216E-03
            1950     10.0684E-03     40.0974E-03    -33.0213E+06     47.9038E+06     60.0825E+06     2.71154E+06    -222.679E-03     447.255E-03    -224.575E-03     39.2488E-03    -223.099E-03     447.552E-03    -224.296E-03     37.1025E-03
            1951     9.34805E-03     40.0430E-03    -40.2680E+06     11.0571E+06     48.8355E+06     1.78641E+06    -222.951E-03     447.660E-03    -224.710E-03     38.2591E-03    -223.315E-03     447.779E-03    -224.423E-03     36.6171E-03
            1952     8.62787E-03     39.9899E-03    -47.6949E+06    -27.3414E+06     36.0934E+06     1.07054E+06    -223.250E-03     448.090E-03    -224.840E-03     36.8127E-03    -223.559E-03     448.027E-03    -224.550E-03     35.6305E-03
            1953     7.90790E-03     39.9387E-03    -55.2995E+06    -57.8606E+06     24.0186E+06     705.441E+03    -223.532E-03     448.491E-03    -224.959E-03     35.0868E-03    -223.801E-03     448.289E-03    -224.675E-03     34.3098E-03
            1954     7.18812E-03     39.8897E-03    -63.0681E+06    -83.7128E+06     11.7829E+06     470.566E+03    -223.797E-03     448.865E-03    -225.069E-03     33.0693E-03    -224.037E-03     448.551E-03    -224.797E-03     32.6394E-03
            1955     6.46854E-03     39.8437E-03    -71.0152E+06    -107.577E+06    -1.18730E+06     345.827E+03    -224.047E-03     449.214E-03    -225.168E-03     30.7240E-03    -224.264E-03     448.801E-03    -224.915E-03     30.5823E-03
            1956     5.74917E-03     39.8009E-03    -79.1640E+06    -130.132E+06    -15.1871E+06     236.823E+03    -224.282E-03     449.536E-03    -225.254E-03     28.1030E-03    -224.479E-03     449.035E-03    -225.027E-03     28.1865E-03
            1957     5.02999E-03     39.7618E-03    -87.4475E+06    -151.514E+06    -30.4571E+06     146.044E+03    -224.501E-03     449.828E-03    -225.327E-03     25.2357E-03    -224.682E-03     449.249E-03    -225.133E-03     25.4820E-03
            1958     4.31099E-03     39.7270E-03    -95.7411E+06    -172.888E+06    -47.0879E+06     79.5132E+03    -224.712E-03     450.098E-03    -225.385E-03     22.1391E-03    -224.876E-03     449.444E-03    -225.231E-03     22.4870E-03
            1959     3.59217E-03     39.6967E-03    -103.825E+06    -193.282E+06    -64.9027E+06     43.4804E+03    -224.909E-03     450.335E-03    -225.427E-03     18.8337E-03    -225.056E-03     449.616E-03    -225.320E-03     19.2258E-03
            1960     2.87351E-03     39.6713E-03    -111.363E+06    -212.604E+06    -83.0924E+06     34.6908E+03    -225.088E-03     450.540E-03    -225.452E-03     15.3439E-03    -225.217E-03     449.759E-03    -225.398E-03     15.7285E-03
            1961     2.15499E-03     39.6512E-03    -117.944E+06    -231.090E+06    -100.174E+06     10.3287E+03    -225.246E-03     450.712E-03    -225.466E-03     11.7011E-03    -225.355E-03     449.873E-03    -225.461E-03     12.0335E-03
            1962     1.43659E-03     39.6365E-03    -123.140E+06    -246.123E+06    -114.428E+06    -23.1061E+03    -225.367E-03     450.839E-03    -225.472E-03     7.97210E-03    -225.460E-03     449.953E-03    -225.508E-03     8.21735E-03
            1963     718.275E-06     39.6274E-03    -126.528E+06    -256.198E+06    -124.173E+06    -7.46226E+03    -225.470E-03     450.918E-03    -225.448E-03     4.36124E-03    -225.551E-03     450.001E-03    -225.514E-03     4.50186E-03
            1964     13.6711E-03     38.8651E-03    -5.15475E+06     94.1830E+06     101.815E+06    -289.208E+03    -221.820E-03     445.994E-03    -224.174E-03     26.6587E-03    -222.274E-03     446.469E-03    -223.794E-03     22.3769E-03
            1965     12.9503E-03     38.8225E-03    -11.0316E+06     89.3366E+06     97.8823E+06    -12.5439E+03    -221.880E-03     446.148E-03    -224.268E-03     34.4982E-03    -222.389E-03     446.651E-03    -223.892E-03     29.9975E-03
            1966     12.2296E-03     38.7755E-03    -17.2826E+06     77.1915E+06     86.5217E+06     187.385E+03    -222.016E-03     446.364E-03    -224.348E-03     37.0454E-03    -222.500E-03     446.809E-03    -224.002E-03     33.2151E-03
            1967     11.5087E-03     38.7239E-03    -23.4441E+06     66.4214E+06     74.4284E+06     33.5679E+03    -222.189E-03     446.621E-03    -224.432E-03     39.1244E-03    -222.655E-03     447.024E-03    -224.122E-03     35.7990E-03
            1968     10.7880E-03     38.6698E-03    -29.0906E+06     62.4776E+06     66.3032E+06     693.135E+03    -222.355E-03     446.890E-03    -224.535E-03     39.9283E-03    -222.810E-03     447.271E-03    -224.252E-03     37.1787E-03
            1969     10.0675E-03     38.6146E-03    -34.5555E+06     47.8842E+06     59.7527E+06     1.99015E+06    -222.551E-03     447.221E-03    -224.669E-03     39.7227E-03    -222.980E-03     447.523E-03    -224.390E-03     37.5415E-03
            1970     9.34702E-03     38.5598E-03    -40.8987E+06     12.8577E+06     49.2858E+06     2.31983E+06    -222.835E-03     447.655E-03    -224.821E-03     38.7806E-03    -223.207E-03     447.785E-03    -224.534E-03     37.1175E-03
            1971     8.62677E-03     38.5063E-03    -48.0660E+06    -26.1416E+06     36.4089E+06     1.82859E+06    -223.171E-03     448.139E-03    -224.969E-03     37.3824E-03    -223.485E-03     448.084E-03    -224.679E-03     36.1813E-03
            1972     7.90673E-03     38.4546E-03    -55.4392E+06    -56.9740E+06     24.3009E+06     1.37086E+06    -223.502E-03     448.608E-03    -225.106E-03     35.6691E-03    -223.775E-03     448.411E-03    -224.822E-03     34.8713E-03
            1973     7.18694E-03     38.4052E-03    -63.0419E+06    -83.2343E+06     12.0598E+06     1.08396E+06    -223.814E-03     449.046E-03    -225.232E-03     33.6365E-03    -224.057E-03     448.735E-03    -224.960E-03     33.1841E-03
            1974     6.46740E-03     38.3586E-03    -70.9259E+06    -107.113E+06    -908.074E+03     867.990E+03    -224.104E-03     449.450E-03    -225.346E-03     31.2744E-03    -224.323E-03     449.040E-03    -225.093E-03     31.1091E-03
            1975     5.74808E-03     38.3153E-03    -79.0259E+06    -129.777E+06    -14.9471E+06     671.259E+03    -224.375E-03     449.823E-03    -225.447E-03     28.6286E-03    -224.574E-03     449.323E-03    -225.219E-03     28.6886E-03
            1976     5.02897E-03     38.2759E-03    -87.2903E+06    -151.219E+06    -30.2590E+06     517.232E+03    -224.631E-03     450.164E-03    -225.533E-03     25.7268E-03    -224.812E-03     449.586E-03    -225.338E-03     25.9506E-03
            1977     4.31007E-03     38.2406E-03    -95.5802E+06    -172.659E+06    -46.9004E+06     375.885E+03    -224.878E-03     450.480E-03    -225.602E-03     22.5802E-03    -225.042E-03     449.827E-03    -225.448E-03     22.9069E-03
            1978     3.59137E-03     38.2100E-03    -103.649E+06    -193.158E+06    -64.6795E+06     265.251E+03    -225.105E-03     450.757E-03    -225.652E-03     19.2085E-03    -225.252E-03     450.037E-03    -225.545E-03     19.5817E-03
            1979     2.87286E-03     38.1843E-03    -111.154E+06    -212.525E+06    -82.8426E+06     193.223E+03    -225.304E-03     450.987E-03    -225.683E-03     15.6476E-03    -225.432E-03     450.207E-03    -225.628E-03     16.0159E-03
            1980     2.15450E-03     38.1639E-03    -117.695E+06    -230.948E+06    -99.9489E+06     129.284E+03    -225.472E-03     451.173E-03    -225.701E-03     11.9328E-03    -225.581E-03     450.334E-03    -225.695E-03     12.2524E-03
            1981     1.43626E-03     38.1491E-03    -122.861E+06    -246.070E+06    -114.180E+06     64.3349E+03    -225.601E-03     451.311E-03    -225.709E-03     8.13041E-03    -225.693E-03     450.424E-03    -225.745E-03     8.36688E-03
            1982     718.109E-06     38.1398E-03    -126.236E+06    -256.213E+06    -123.871E+06     17.3732E+03    -225.710E-03     451.397E-03    -225.687E-03     4.44989E-03    -225.790E-03     450.479E-03    -225.752E-03     4.58525E-03
            1983     13.6710E-03     37.3836E-03    -6.02887E+06     93.9838E+06     101.973E+06     45.9012E+03    -221.548E-03     445.736E-03    -224.188E-03     26.6889E-03    -222.007E-03     446.212E-03    -223.806E-03     22.4158E-03
            1984     12.9500E-03     37.3410E-03    -12.1744E+06     88.9154E+06     97.6999E+06     70.2253E+03    -221.581E-03     445.879E-03    -224.298E-03     34.6569E-03    -222.096E-03     446.382E-03    -223.920E-03     30.1557E-03
            1985     12.2289E-03     37.2939E-03    -18.1690E+06     77.4191E+06     86.3965E+06    -39.7826E+03    -221.728E-03     446.123E-03    -224.395E-03     37.3222E-03    -222.218E-03     446.573E-03    -224.049E-03     33.4794E-03
            1986     11.5080E-03     37.2420E-03    -24.1304E+06     66.7000E+06     74.0120E+06    -181.644E+03    -221.939E-03     446.436E-03    -224.497E-03     39.4632E-03    -222.410E-03     446.844E-03    -224.189E-03     36.1192E-03
            1987     10.7871E-03     37.1875E-03    -30.4711E+06     60.8762E+06     64.8346E+06    -290.424E+03    -222.138E-03     446.757E-03    -224.619E-03     40.3292E-03    -222.598E-03     447.137E-03    -224.339E-03     37.5414E-03
            1988     10.0664E-03     37.1319E-03    -36.9599E+06     45.6024E+06     57.8420E+06     256.570E+03    -222.363E-03     447.138E-03    -224.775E-03     40.2360E-03    -222.799E-03     447.437E-03    -224.498E-03     38.0005E-03
            1989     9.34580E-03     37.0767E-03    -43.1563E+06     12.7342E+06     48.1657E+06     1.16294E+06    -222.693E-03     447.642E-03    -224.949E-03     39.4010E-03    -223.077E-03     447.778E-03    -224.664E-03     37.6903E-03
            1990     8.62544E-03     37.0226E-03    -49.4693E+06    -25.3659E+06     35.9152E+06     1.46539E+06    -223.091E-03     448.209E-03    -225.118E-03     38.0429E-03    -223.415E-03     448.163E-03    -224.830E-03     36.8028E-03
            1991     7.90538E-03     36.9703E-03    -56.3823E+06    -56.3268E+06     23.9625E+06     1.39492E+06    -223.471E-03     448.747E-03    -225.275E-03     36.3285E-03    -223.751E-03     448.557E-03    -224.992E-03     35.4956E-03
            1992     7.18559E-03     36.9203E-03    -63.7526E+06    -82.6181E+06     11.7957E+06     1.24597E+06    -223.824E-03     449.245E-03    -225.421E-03     34.2956E-03    -224.072E-03     448.939E-03    -225.150E-03     33.8102E-03
            1993     6.46605E-03     36.8731E-03    -71.4276E+06    -106.535E+06    -1.09443E+06     1.05141E+06    -224.159E-03     449.713E-03    -225.554E-03     31.9293E-03    -224.382E-03     449.307E-03    -225.301E-03     31.7324E-03
            1994     5.74677E-03     36.8293E-03    -79.3861E+06    -129.285E+06    -15.0629E+06     879.412E+03    -224.480E-03     450.152E-03    -225.673E-03     29.2580E-03    -224.681E-03     449.657E-03    -225.445E-03     29.2886E-03
            1995     5.02775E-03     36.7894E-03    -87.5364E+06    -150.770E+06    -30.2833E+06     708.115E+03    -224.783E-03     450.557E-03    -225.774E-03     26.3168E-03    -224.966E-03     449.982E-03    -225.580E-03     26.5130E-03
            1996     4.30898E-03     36.7536E-03    -95.7328E+06    -172.236E+06    -46.8397E+06     538.359E+03    -225.068E-03     450.925E-03    -225.857E-03     23.1198E-03    -225.234E-03     450.275E-03    -225.702E-03     23.4211E-03
            1997     3.59043E-03     36.7226E-03    -103.757E+06     -192.83E+06    -64.5559E+06     372.961E+03    -225.326E-03     451.244E-03    -225.918E-03     19.6840E-03    -225.474E-03     450.526E-03    -225.810E-03     20.0350E-03
            1998     2.87209E-03     36.6966E-03    -111.271E+06    -212.331E+06    -82.7408E+06     261.946E+03    -225.549E-03     451.507E-03    -225.958E-03     16.0496E-03    -225.679E-03     450.728E-03    -225.903E-03     16.4000E-03
            1999     2.15391E-03     36.6759E-03    -117.848E+06    -230.734E+06    -99.9762E+06     202.187E+03    -225.736E-03     451.719E-03    -225.984E-03     12.2530E-03    -225.846E-03     450.882E-03    -225.978E-03     12.5592E-03
            2000     1.43586E-03     36.6609E-03    -123.026E+06    -245.846E+06    -114.340E+06     122.273E+03    -225.880E-03     451.878E-03    -225.998E-03     8.35504E-03    -225.973E-03     450.993E-03    -226.034E-03     8.58268E-03
            2001     717.902E-06     36.6515E-03    -126.381E+06    -256.115E+06    -124.048E+06     46.2617E+03    -226.001E-03     451.980E-03    -225.979E-03     4.57536E-03    -226.082E-03     451.063E-03    -226.044E-03     4.70590E-03
            2002     13.6708E-03     35.9026E-03    -5.12387E+06     93.9262E+06     102.470E+06     267.912E+03    -221.229E-03     445.434E-03    -224.205E-03     26.7804E-03    -221.685E-03     445.908E-03    -223.821E-03     22.5132E-03
            2003     12.9495E-03     35.8600E-03    -10.8419E+06     89.2867E+06     98.3851E+06     110.393E+03    -221.270E-03     445.602E-03    -224.333E-03     34.8548E-03    -221.780E-03     446.106E-03    -223.954E-03     30.3522E-03
            2004     12.2283E-03     35.8126E-03    -17.0057E+06     77.5942E+06     86.8799E+06    -80.8193E+03    -221.450E-03     445.900E-03    -224.450E-03     37.6274E-03    -221.937E-03     446.350E-03    -224.103E-03     33.7717E-03
            2005     11.5071E-03     35.7604E-03    -23.2733E+06     66.6144E+06     74.1697E+06    -45.3428E+03    -221.669E-03     446.242E-03    -224.572E-03     39.8732E-03    -222.139E-03     446.650E-03    -224.264E-03     36.5099E-03
            2006     10.7861E-03     35.7055E-03    -29.6140E+06     60.8153E+06     64.8622E+06     134.379E+03    -221.870E-03     446.588E-03    -224.717E-03     40.8535E-03    -222.328E-03     446.968E-03    -224.438E-03     38.0470E-03
            2007     10.0651E-03     35.6495E-03    -36.2859E+06     44.7080E+06     57.5019E+06     31.0082E+03    -222.149E-03     447.048E-03    -224.899E-03     40.8645E-03    -222.583E-03     447.345E-03    -224.624E-03     38.5978E-03
            2008     9.34436E-03     35.5936E-03    -43.2143E+06     11.4251E+06     47.3908E+06     110.800E+03    -222.554E-03     447.651E-03    -225.097E-03     40.0993E-03    -222.938E-03     447.784E-03    -224.814E-03     38.3388E-03
            2009     8.62396E-03     35.5388E-03    -50.1534E+06    -25.8865E+06     35.1777E+06     670.715E+03    -223.002E-03     448.291E-03    -225.289E-03     38.7810E-03    -223.329E-03     448.246E-03    -225.003E-03     37.4897E-03
            2010     7.90384E-03     35.4858E-03    -57.1764E+06    -56.2104E+06     23.4112E+06     1.01930E+06    -223.422E-03     448.892E-03    -225.471E-03     37.0966E-03    -223.707E-03     448.707E-03    -225.189E-03     36.2182E-03
            2011     7.18400E-03     35.4351E-03    -64.4764E+06    -82.1238E+06     11.4100E+06     1.00510E+06    -223.823E-03     449.463E-03    -225.640E-03     35.0766E-03    -224.077E-03     449.163E-03    -225.370E-03     34.5488E-03
            2012     6.46447E-03     35.3873E-03    -72.0904E+06    -106.137E+06    -1.34409E+06     900.246E+03    -224.215E-03     450.012E-03    -225.797E-03     32.6991E-03    -224.443E-03     449.611E-03    -225.545E-03     32.4622E-03
            2013     5.74525E-03     35.3428E-03    -79.9706E+06    -128.791E+06    -15.1702E+06     772.525E+03    -224.593E-03     450.530E-03    -225.938E-03     29.9976E-03    -224.799E-03     450.039E-03    -225.711E-03     29.9913E-03
            2014     5.02633E-03     35.3022E-03    -88.0559E+06    -150.349E+06    -30.3233E+06     621.723E+03    -224.947E-03     451.006E-03    -226.059E-03     27.0157E-03    -225.134E-03     450.435E-03    -225.865E-03     27.1783E-03
            2015     4.30768E-03     35.2659E-03    -96.2144E+06    -171.754E+06    -46.9442E+06     464.893E+03    -225.274E-03     451.434E-03    -226.160E-03     23.7660E-03    -225.443E-03     450.788E-03    -226.006E-03     24.0379E-03
            2016     3.58928E-03     35.2344E-03    -104.194E+06    -192.455E+06    -64.7832E+06     301.076E+03    -225.570E-03     451.807E-03    -226.237E-03     20.2589E-03    -225.720E-03     451.092E-03    -226.131E-03     20.5850E-03
            2017     2.87111E-03     35.2080E-03    -111.665E+06    -212.205E+06    -83.0101E+06     238.453E+03    -225.831E-03     452.125E-03    -226.294E-03     16.5313E-03    -225.962E-03     451.347E-03    -226.239E-03     16.8621E-03
            2018     2.15314E-03     35.1870E-03    -118.216E+06    -230.491E+06    -100.225E+06     204.581E+03    -226.052E-03     452.385E-03    -226.332E-03     12.6285E-03    -226.164E-03     451.549E-03    -226.328E-03     12.9201E-03
            2019     1.43533E-03     35.1717E-03    -123.394E+06    -245.609E+06    -114.613E+06     141.189E+03    -226.224E-03     452.580E-03    -226.356E-03     8.61481E-03    -226.318E-03     451.697E-03    -226.394E-03     8.83259E-03
            2020     717.634E-06     35.1623E-03    -126.782E+06    -255.893E+06    -124.410E+06     92.9770E+03    -226.363E-03     452.705E-03    -226.342E-03     4.71844E-03    -226.445E-03     451.789E-03    -226.409E-03     4.84406E-03
            2021     13.6705E-03     34.4221E-03    -5.34928E+06     93.9880E+06     102.478E+06    -170.293E+03    -220.866E-03     445.091E-03    -224.224E-03     26.8613E-03    -221.323E-03     445.565E-03    -223.841E-03     22.5923E-03
            2022     12.9490E-03     34.3794E-03    -11.0655E+06     89.3999E+06     98.3434E+06    -163.106E+03    -220.935E-03     445.307E-03    -224.372E-03     35.0857E-03    -221.448E-03     445.813E-03    -223.994E-03     30.5760E-03
            2023     12.2275E-03     34.3316E-03    -17.0347E+06     77.3115E+06     86.6536E+06     53.2480E+03    -221.103E-03     445.615E-03    -224.512E-03     38.0282E-03    -221.592E-03     446.066E-03    -224.166E-03     34.1603E-03
            2024     11.5062E-03     34.2791E-03    -23.2536E+06     66.3225E+06     74.0571E+06     328.957E+03    -221.325E-03     445.986E-03    -224.661E-03     40.4289E-03    -221.797E-03     446.396E-03    -224.353E-03     37.0508E-03
            2025     10.7848E-03     34.2238E-03    -29.5932E+06     60.9840E+06     64.8855E+06     240.918E+03    -221.592E-03     446.426E-03    -224.834E-03     41.5074E-03    -222.053E-03     446.810E-03    -224.555E-03     38.6786E-03
            2026     10.0636E-03     34.1671E-03    -36.0864E+06     44.6117E+06     57.3594E+06     264.826E+03    -221.945E-03     446.986E-03    -225.042E-03     41.5785E-03    -222.380E-03     447.286E-03    -224.767E-03     39.2826E-03
            2027     9.34282E-03     34.1105E-03    -43.1244E+06     10.7172E+06     47.0707E+06     529.338E+03    -222.390E-03     447.657E-03    -225.267E-03     40.8938E-03    -222.775E-03     447.791E-03    -224.985E-03     39.0984E-03
            2028     8.62226E-03     34.0549E-03    -50.4475E+06    -26.3745E+06     34.8616E+06     548.233E+03    -222.876E-03     448.364E-03    -225.488E-03     39.6507E-03    -223.206E-03     448.321E-03    -225.202E-03     38.3150E-03
            2029     7.90203E-03     34.0011E-03    -57.6348E+06    -56.3169E+06     23.2488E+06     503.796E+03    -223.354E-03     449.052E-03    -225.698E-03     37.9984E-03    -223.643E-03     448.869E-03    -225.417E-03     37.0695E-03
            2030     7.18216E-03     33.9496E-03    -64.8641E+06    -81.9831E+06     11.4606E+06     530.198E+03    -223.822E-03     449.719E-03    -225.897E-03     35.9799E-03    -224.079E-03     449.421E-03    -225.627E-03     35.4022E-03
            2031     6.46264E-03     33.9009E-03    -72.3623E+06    -105.893E+06    -1.20237E+06     489.920E+03    -224.279E-03     450.360E-03    -226.081E-03     33.5863E-03    -224.510E-03     449.961E-03    -225.828E-03     33.3015E-03
            2032     5.74347E-03     33.8557E-03    -80.1403E+06    -128.487E+06    -15.0856E+06     400.359E+03    -224.717E-03     450.964E-03    -226.247E-03     30.8495E-03    -224.925E-03     450.475E-03    -226.020E-03     30.7981E-03
            2033     5.02463E-03     33.8144E-03    -88.1321E+06    -150.129E+06    -30.3941E+06     345.822E+03    -225.129E-03     451.521E-03    -226.392E-03     27.8081E-03    -225.317E-03     450.952E-03    -226.199E-03     27.9304E-03
            2034     4.30612E-03     33.7774E-03    -96.2120E+06    -171.409E+06    -47.1557E+06     282.568E+03    -225.511E-03     452.026E-03    -226.515E-03     24.4742E-03    -225.681E-03     451.382E-03    -226.363E-03     24.7109E-03
            2035     3.58790E-03     33.7453E-03    -104.166E+06    -192.282E+06    -65.0525E+06     231.941E+03    -225.859E-03     452.473E-03    -226.614E-03     20.8633E-03    -226.010E-03     451.760E-03    -226.509E-03     21.1596E-03
            2036     2.86995E-03     33.7184E-03    -111.637E+06    -212.174E+06    -83.3192E+06     243.303E+03    -226.169E-03     452.856E-03    -226.688E-03     17.0189E-03    -226.299E-03     452.079E-03    -226.635E-03     17.3254E-03
            2037     2.15224E-03     33.6970E-03    -118.168E+06    -230.275E+06    -100.504E+06     244.551E+03    -226.429E-03     453.169E-03    -226.740E-03     12.9957E-03    -226.540E-03     452.335E-03    -226.738E-03     13.2688E-03
            2038     1.43471E-03     33.6814E-03    -123.321E+06    -245.363E+06    -114.717E+06     206.462E+03    -226.629E-03     453.405E-03    -226.776E-03     8.86259E-03    -226.723E-03     452.523E-03    -226.815E-03     9.06788E-03
            2039     717.321E-06     33.6718E-03    -126.669E+06    -255.522E+06    -124.343E+06     126.576E+03    -226.787E-03     453.555E-03    -226.767E-03     4.85388E-03    -226.870E-03     452.641E-03    -226.835E-03     4.97243E-03
            2040     13.6702E-03     32.9421E-03    -5.64476E+06     94.0577E+06     102.395E+06    -114.381E+03    -220.421E-03     444.667E-03    -224.245E-03     26.9455E-03    -220.880E-03     445.143E-03    -223.862E-03     22.6840E-03
            2041     12.9484E-03     32.8992E-03    -11.7904E+06     89.3116E+06     98.0424E+06    -128.719E+03    -220.471E-03     444.891E-03    -224.420E-03     35.4150E-03    -220.989E-03     445.400E-03    -224.042E-03     30.9085E-03
            2042     12.2267E-03     32.8513E-03    -18.1393E+06     76.7635E+06     86.1508E+06    -47.7821E+03    -220.683E-03     445.272E-03    -224.589E-03     38.5737E-03    -221.178E-03     445.725E-03    -224.243E-03     34.6970E-03
            2043     11.5048E-03     32.7983E-03    -24.0907E+06     65.9853E+06     73.6469E+06     70.1880E+03    -220.994E-03     445.761E-03    -224.767E-03     41.0703E-03    -221.472E-03     446.174E-03    -224.460E-03     37.6683E-03
            2044     10.7833E-03     32.7422E-03    -30.1336E+06     60.8573E+06     64.6466E+06     343.581E+03    -221.316E-03     446.285E-03    -224.968E-03     42.2084E-03    -221.782E-03     446.672E-03    -224.690E-03     39.3485E-03
            2045     10.0621E-03     32.6848E-03    -36.9170E+06     44.2875E+06     57.1735E+06     553.412E+03    -221.691E-03     446.898E-03    -225.207E-03     42.4061E-03    -222.133E-03     447.200E-03    -224.932E-03     40.0765E-03
            2046     9.34096E-03     32.6274E-03    -43.7066E+06     10.9585E+06     47.3548E+06     320.729E+03    -222.183E-03     447.648E-03    -225.465E-03     41.8468E-03    -222.575E-03     447.786E-03    -225.181E-03     40.0064E-03
            2047     8.62027E-03     32.5709E-03    -50.2003E+06    -26.2709E+06     35.5511E+06     42.9750E+03    -222.741E-03     448.461E-03    -225.720E-03     40.6525E-03    -223.074E-03     448.419E-03    -225.431E-03     39.2632E-03
            2048     7.89996E-03     32.5162E-03    -57.0113E+06    -56.4486E+06     23.8813E+06     4.82325E+03    -223.292E-03     449.254E-03    -225.962E-03     39.0123E-03    -223.581E-03     449.071E-03    -225.678E-03     38.0277E-03
            2049     7.18005E-03     32.4637E-03    -64.2629E+06    -82.1312E+06     11.7866E+06     34.4653E+03    -223.833E-03     450.024E-03    -226.191E-03     36.9856E-03    -224.090E-03     449.727E-03    -225.920E-03     36.3512E-03
            2050     6.46053E-03     32.4141E-03    -71.8226E+06    -105.906E+06    -1.19242E+06     96.0408E+03    -224.363E-03     450.766E-03    -226.404E-03     34.5560E-03    -224.592E-03     450.368E-03    -226.152E-03     34.2164E-03
            2051     5.74142E-03     32.3679E-03    -79.6949E+06    -128.490E+06    -15.3481E+06     153.515E+03    -224.872E-03     451.469E-03    -226.597E-03     31.7525E-03    -225.079E-03     450.982E-03    -226.372E-03     31.6495E-03
            2052     5.02271E-03     32.3257E-03    -87.8024E+06    -150.203E+06    -30.8519E+06     224.524E+03    -225.354E-03     452.121E-03    -226.767E-03     28.6171E-03    -225.541E-03     451.553E-03    -226.577E-03     28.6917E-03
            2053     4.30436E-03     32.2880E-03    -95.9794E+06    -171.372E+06    -47.7028E+06     316.282E+03    -225.799E-03     452.711E-03    -226.912E-03     25.1718E-03    -225.967E-03     452.069E-03    -226.763E-03     25.3665E-03
            2054     3.58637E-03     32.2551E-03    -103.975E+06    -192.272E+06    -65.5479E+06     382.838E+03    -226.203E-03     453.234E-03    -227.031E-03     21.4472E-03    -226.352E-03     452.521E-03    -226.929E-03     21.7075E-03
            2055     2.86868E-03     32.2276E-03    -111.428E+06    -212.128E+06    -83.6513E+06     431.489E+03    -226.557E-03     453.678E-03    -227.122E-03     17.4873E-03    -226.686E-03     452.902E-03    -227.071E-03     17.7639E-03
            2056     2.15126E-03     32.2058E-03    -117.912E+06    -230.012E+06    -100.619E+06     439.598E+03    -226.851E-03     454.038E-03    -227.187E-03     13.3460E-03    -226.961E-03     453.205E-03    -227.186E-03     13.5964E-03
            2057     1.43405E-03     32.1898E-03    -122.982E+06    -244.875E+06    -114.610E+06     340.656E+03    -227.074E-03     454.306E-03    -227.231E-03     9.09718E-03    -227.168E-03     453.426E-03    -227.271E-03     9.28672E-03
            2058     716.984E-06     32.1800E-03    -126.242E+06    -254.972E+06    -124.012E+06     180.925E+03    -227.248E-03     454.476E-03    -227.227E-03     4.98086E-03    -227.330E-03     453.564E-03    -227.295E-03     5.09036E-03
            2059     13.6700E-03     31.4628E-03    -5.39738E+06     94.1687E+06     102.571E+06     7.46551E+03    -219.919E-03     444.192E-03    -224.274E-03     27.1842E-03    -220.377E-03     444.669E-03    -223.890E-03     22.9361E-03
            2060     12.9477E-03     31.4198E-03    -11.2486E+06     89.0748E+06     98.2045E+06     112.793E+03    -219.969E-03     444.448E-03    -224.478E-03     35.7863E-03    -220.486E-03     444.955E-03    -224.100E-03     31.2899E-03
            2061     12.2254E-03     31.3714E-03    -17.3152E+06     76.6374E+06     86.3416E+06     204.485E+03    -220.252E-03     444.930E-03    -224.678E-03     39.0787E-03    -220.746E-03     445.384E-03    -224.333E-03     35.1973E-03
            2062     11.5035E-03     31.3176E-03    -23.7431E+06     65.7286E+06     73.5296E+06     235.331E+03    -220.623E-03     445.511E-03    -224.888E-03     41.7648E-03    -221.102E-03     445.925E-03    -224.581E-03     38.3437E-03
            2063     10.7818E-03     31.2609E-03    -30.2343E+06     60.5245E+06     64.9258E+06     265.168E+03    -220.988E-03     446.113E-03    -225.125E-03     43.0828E-03    -221.458E-03     446.502E-03    -224.844E-03     40.1910E-03
            2064     10.0601E-03     31.2028E-03    -36.1581E+06     45.1466E+06     58.5762E+06    -247.870E+03    -221.423E-03     446.823E-03    -225.400E-03     43.3847E-03    -221.869E-03     447.131E-03    -225.120E-03     41.0037E-03
            2065     9.33886E-03     31.1443E-03    -42.1356E+06     11.2007E+06     48.4359E+06    -758.637E+03    -221.987E-03     447.678E-03    -225.691E-03     42.8800E-03    -222.377E-03     447.818E-03    -225.404E-03     40.9755E-03
            2066     8.61802E-03     31.0868E-03    -48.8562E+06    -26.9569E+06     35.7269E+06    -498.653E+03    -222.618E-03     448.597E-03    -225.978E-03     41.7138E-03    -222.947E-03     448.553E-03    -225.690E-03     40.2627E-03
            2067     7.89762E-03     31.0309E-03    -56.0743E+06    -56.7899E+06     23.6569E+06    -119.625E+03    -223.248E-03     449.501E-03    -226.253E-03     40.0804E-03    -223.535E-03     449.319E-03    -225.971E-03     39.0355E-03
            2068     7.17767E-03     30.9773E-03    -63.6156E+06    -82.5012E+06     11.2155E+06     90.6098E+03    -223.874E-03     450.387E-03    -226.513E-03     38.0214E-03    -224.128E-03     450.090E-03    -226.245E-03     37.3264E-03
            2069     6.45819E-03     30.9266E-03    -71.5087E+06    -106.226E+06    -2.02795E+06     302.175E+03    -224.485E-03     451.240E-03    -226.755E-03     35.5273E-03    -224.714E-03     450.844E-03    -226.508E-03     35.1285E-03
            2070     5.73919E-03     30.8793E-03    -79.6678E+06    -128.667E+06    -16.2870E+06     469.847E+03    -225.071E-03     452.047E-03    -226.976E-03     32.6400E-03    -225.278E-03     451.562E-03    -226.755E-03     32.4806E-03
            2071     5.02063E-03     30.8361E-03    -87.9764E+06    -150.350E+06    -31.7286E+06     582.003E+03    -225.622E-03     452.792E-03    -227.171E-03     29.4113E-03    -225.809E-03     452.226E-03    -226.984E-03     29.4328E-03
            2072     4.30251E-03     30.7974E-03    -96.2535E+06    -171.415E+06    -48.4764E+06     657.839E+03    -226.126E-03     453.463E-03    -227.337E-03     25.8668E-03    -226.295E-03     452.823E-03    -227.191E-03     26.0133E-03
            2073     3.58476E-03     30.7638E-03    -104.248E+06    -192.152E+06    -66.1769E+06     687.738E+03    -226.579E-03     454.052E-03    -227.473E-03     22.0396E-03    -226.729E-03     453.342E-03    -227.374E-03     22.2576E-03
            2074     2.86736E-03     30.7356E-03    -111.643E+06    -211.873E+06    -84.0038E+06      650.75E+03    -226.973E-03     454.552E-03    -227.579E-03     17.9714E-03    -227.104E-03     453.778E-03    -227.530E-03     18.2121E-03
            2075     2.15025E-03     30.7132E-03    -118.024E+06    -229.529E+06    -100.708E+06     549.473E+03    -227.297E-03     454.952E-03    -227.656E-03     13.7156E-03    -227.409E-03     454.123E-03    -227.655E-03     13.9373E-03
            2076     1.43337E-03     30.6968E-03    -123.005E+06    -244.175E+06    -114.594E+06     403.459E+03    -227.540E-03     455.248E-03    -227.707E-03     9.34805E-03    -227.635E-03     454.371E-03    -227.748E-03     9.51776E-03
            2077     716.642E-06     30.6867E-03    -126.227E+06    -254.224E+06    -123.983E+06     230.468E+03    -227.727E-03     455.433E-03    -227.706E-03     5.11720E-03    -227.810E-03     454.525E-03    -227.774E-03     5.21600E-03
            2078     13.6693E-03     29.9843E-03    -5.38804E+06     94.2297E+06     102.578E+06    -197.644E+03    -219.408E-03     443.720E-03    -224.312E-03     27.4365E-03    -219.867E-03     444.198E-03    -223.928E-03     23.2004E-03
            2079     12.9468E-03     29.9410E-03    -11.0930E+06     88.5491E+06     98.3026E+06    -180.705E+03    -219.512E-03     444.060E-03    -224.548E-03     36.2390E-03    -220.029E-03     444.566E-03    -224.169E-03     31.7454E-03
            2080     12.2244E-03     29.8920E-03    -17.0611E+06     76.1748E+06     86.3782E+06     163.879E+03    -219.790E-03     444.569E-03    -224.779E-03     39.7476E-03    -220.284E-03     445.023E-03    -224.433E-03     35.8638E-03
            2081     11.5019E-03     29.8376E-03    -22.7935E+06     66.1580E+06     74.4144E+06     192.444E+03    -220.191E-03     445.218E-03    -225.027E-03     42.5625E-03    -220.671E-03     445.636E-03    -224.717E-03     39.1239E-03
            2082     10.7797E-03     29.7799E-03    -27.9953E+06     62.3644E+06     66.6837E+06    -1.02302E+06    -220.643E-03     445.944E-03    -225.301E-03     43.9505E-03    -221.112E-03     446.341E-03    -225.017E-03     41.0019E-03
            2083     10.0580E-03     29.7207E-03    -33.6387E+06     44.9877E+06     59.0764E+06    -1.63716E+06    -221.171E-03     446.779E-03    -225.609E-03     44.3348E-03    -221.609E-03     447.087E-03    -225.330E-03     41.8785E-03
            2084     9.33655E-03     29.6612E-03    -40.6488E+06     9.10877E+06     47.5215E+06    -321.459E+03    -221.813E-03     447.745E-03    -225.933E-03     43.8997E-03    -222.195E-03     447.878E-03    -225.649E-03     41.9389E-03
            2085     8.61556E-03     29.6025E-03    -48.5237E+06    -27.5601E+06     34.4071E+06     638.395E+03    -222.518E-03     448.770E-03    -226.252E-03     42.7587E-03    -222.847E-03     448.729E-03    -225.970E-03     41.2567E-03
            2086     7.89509E-03     29.5453E-03    -56.4797E+06    -57.1052E+06     22.0862E+06     698.571E+03    -223.235E-03     449.794E-03    -226.560E-03     41.1149E-03    -223.525E-03     449.617E-03    -226.285E-03     40.0095E-03
            2087     7.17515E-03     29.4904E-03    -64.4379E+06    -82.9299E+06     9.69324E+06     869.738E+03    -223.948E-03     450.799E-03    -226.852E-03     39.0124E-03    -224.207E-03     450.507E-03    -226.589E-03     38.2542E-03
            2088     6.45575E-03     29.4383E-03    -72.5161E+06    -106.397E+06    -3.34958E+06     1.02224E+06    -224.637E-03     451.760E-03    -227.123E-03     36.4610E-03    -224.872E-03     451.369E-03    -226.880E-03     35.9988E-03
            2089     5.73687E-03     29.3898E-03    -80.7033E+06    -128.665E+06    -17.4112E+06     1.05425E+06    -225.292E-03     452.662E-03    -227.370E-03     33.5096E-03    -225.505E-03     452.182E-03    -227.153E-03     33.2880E-03
            2090     5.01850E-03     29.3454E-03    -88.9150E+06    -150.142E+06    -32.6737E+06     995.867E+03    -225.904E-03     453.492E-03    -227.588E-03     30.2084E-03    -226.097E-03     452.931E-03    -227.405E-03     30.1703E-03
            2091     4.30058E-03     29.3057E-03    -97.0430E+06    -171.259E+06    -49.1594E+06     925.703E+03    -226.465E-03     454.241E-03    -227.776E-03     26.5788E-03    -226.639E-03     453.604E-03    -227.633E-03     26.6699E-03
            2092     3.58310E-03     29.2712E-03    -104.921E+06    -191.768E+06    -66.6504E+06     866.895E+03    -226.966E-03     454.895E-03    -227.930E-03     22.6554E-03    -227.120E-03     454.190E-03    -227.833E-03     22.8245E-03
            2093     2.86599E-03     29.2422E-03    -112.231E+06    -211.231E+06    -84.4269E+06     680.332E+03    -227.398E-03     455.448E-03    -228.050E-03     18.4815E-03    -227.533E-03     454.679E-03    -228.003E-03     18.6800E-03
            2094     2.14920E-03     29.2192E-03    -118.575E+06    -228.947E+06    -101.152E+06     476.637E+03    -227.753E-03     455.891E-03    -228.137E-03     14.1092E-03    -227.869E-03     455.065E-03    -228.139E-03     14.2969E-03
            2095     1.43266E-03     29.2024E-03    -123.551E+06    -243.500E+06    -115.077E+06     337.471E+03    -228.019E-03     456.215E-03    -228.196E-03     9.61666E-03    -228.117E-03     455.344E-03    -228.239E-03     9.76283E-03
            2096     716.281E-06     29.1920E-03    -126.759E+06    -253.459E+06    -124.487E+06     196.939E+03    -228.217E-03     456.417E-03    -228.200E-03     5.26404E-03    -228.303E-03     455.514E-03    -228.271E-03     5.34998E-03
            2097     13.6687E-03     28.5064E-03    -5.59147E+06     94.4728E+06     102.007E+06    -125.713E+03    -218.794E-03     443.144E-03    -224.350E-03     27.4988E-03    -219.254E-03     443.624E-03    -223.969E-03     23.2713E-03
            2098     12.9458E-03     28.4628E-03    -11.6530E+06     88.7872E+06     97.6563E+06    -392.853E+03    -218.952E-03     443.573E-03    -224.621E-03     36.6466E-03    -219.473E-03     444.084E-03    -224.244E-03     32.1542E-03
            2099     12.2227E-03     28.4133E-03    -17.3491E+06     76.2888E+06     87.2209E+06    -1.03408E+06    -219.342E-03     444.237E-03    -224.894E-03     40.3977E-03    -219.842E-03     444.693E-03    -224.544E-03     36.4885E-03
            2100     11.5002E-03     28.3579E-03    -22.2939E+06     67.0896E+06     75.8730E+06    -1.87087E+06    -219.806E-03     444.982E-03    -225.176E-03     43.2844E-03    -220.291E-03     445.406E-03    -224.862E-03     39.7805E-03
            2101     10.7779E-03     28.2991E-03    -28.1884E+06     62.8034E+06     65.2306E+06    -1.58954E+06    -220.275E-03     445.749E-03    -225.474E-03     44.7667E-03    -220.748E-03     446.156E-03    -225.198E-03     41.7557E-03
            2102     10.0557E-03     28.2389E-03    -36.0990E+06     42.0391E+06     54.8049E+06     91.2862E+03    -220.891E-03     446.705E-03    -225.814E-03     45.2470E-03    -221.337E-03     447.012E-03    -225.548E-03     42.7534E-03
            2103     9.33411E-03     28.1780E-03    -44.4124E+06     6.69364E+06     43.6038E+06     1.38115E+06    -221.650E-03     447.826E-03    -226.176E-03     44.8580E-03    -222.047E-03     447.963E-03    -225.903E-03     42.8519E-03
            2104     8.61304E-03     28.1179E-03    -51.9080E+06    -27.3329E+06     31.8746E+06     1.60948E+06    -222.446E-03     448.977E-03    -226.530E-03     43.7332E-03    -222.794E-03     448.950E-03    -226.256E-03     42.1677E-03
            2105     7.89254E-03     28.0592E-03    -59.2332E+06    -56.9772E+06     20.0914E+06     1.51564E+06    -223.249E-03     450.119E-03    -226.870E-03     42.0762E-03    -223.555E-03     449.954E-03    -226.601E-03     40.9024E-03
            2106     7.17264E-03     28.0028E-03    -66.8023E+06    -82.9023E+06     8.04513E+06     1.42456E+06    -224.039E-03     451.230E-03    -227.191E-03     39.9366E-03    -224.311E-03     450.947E-03    -226.934E-03     39.1070E-03
            2107     6.45332E-03     27.9493E-03    -74.4968E+06    -106.112E+06    -4.64165E+06     1.30047E+06    -224.795E-03     452.284E-03    -227.489E-03     37.3385E-03    -225.040E-03     451.902E-03    -227.250E-03     36.8043E-03
            2108     5.73457E-03     27.8994E-03    -82.3077E+06    -128.254E+06    -18.4025E+06     1.12183E+06    -225.513E-03     453.273E-03    -227.761E-03     34.3293E-03    -225.735E-03     452.801E-03    -227.547E-03     34.0370E-03
            2109     5.01636E-03     27.8538E-03    -90.2408E+06    -149.640E+06    -33.4696E+06     930.685E+03    -226.183E-03     454.185E-03    -228.002E-03     30.9549E-03    -226.384E-03     453.631E-03    -227.822E-03     30.8498E-03
            2110     4.29866E-03     27.8129E-03    -98.1881E+06    -170.890E+06    -49.8751E+06     773.685E+03    -226.797E-03     455.007E-03    -228.210E-03     27.2389E-03    -226.977E-03     454.377E-03    -228.069E-03     27.2684E-03
            2111     3.58143E-03     27.7773E-03    -105.872E+06    -191.196E+06    -67.3378E+06     595.437E+03    -227.344E-03     455.725E-03    -228.381E-03     23.2227E-03    -227.504E-03     455.026E-03    -228.287E-03     23.3363E-03
            2112     2.86461E-03     27.7475E-03    -112.997E+06    -210.619E+06    -85.1079E+06     425.304E+03    -227.816E-03     456.331E-03    -228.515E-03     18.9470E-03    -227.955E-03     455.568E-03    -228.471E-03     19.0990E-03
            2113     2.14814E-03     27.7238E-03    -119.246E+06    -228.482E+06    -101.839E+06     319.520E+03    -228.204E-03     456.818E-03    -228.614E-03     14.4640E-03    -228.322E-03     455.998E-03    -228.619E-03     14.6161E-03
            2114     1.43193E-03     27.7065E-03    -124.187E+06    -242.980E+06    -115.741E+06     217.280E+03    -228.492E-03     457.175E-03    -228.682E-03     9.85630E-03    -228.594E-03     456.308E-03    -228.728E-03     9.97780E-03
            2115     715.918E-06     27.6958E-03    -127.380E+06    -252.916E+06    -125.119E+06     109.373E+03    -228.700E-03     457.397E-03    -228.697E-03     5.39435E-03    -228.789E-03     456.499E-03    -228.772E-03     5.46637E-03
            2116     13.6683E-03     27.0295E-03    -5.81073E+06     94.5778E+06     102.364E+06     338.893E+03    -218.235E-03     442.622E-03    -224.387E-03     27.5936E-03    -218.699E-03     443.103E-03    -224.004E-03     23.3695E-03
            2117     12.9447E-03     26.9856E-03    -12.0873E+06     89.6501E+06     98.1038E+06      201.66E+03    -218.381E-03     443.072E-03    -224.690E-03     36.8168E-03    -218.908E-03     443.589E-03    -224.312E-03     32.3214E-03
            2118     12.2216E-03     26.9348E-03    -18.9860E+06     79.0831E+06     85.7652E+06    -1.02571E+06    -218.798E-03     443.789E-03    -224.990E-03     40.8151E-03    -219.312E-03     444.268E-03    -224.649E-03     36.8801E-03
            2119     11.4986E-03     26.8785E-03    -26.6330E+06     67.2137E+06     70.1831E+06    -1.82105E+06    -219.327E-03     444.625E-03    -225.298E-03     43.9961E-03    -219.831E-03     445.069E-03    -225.006E-03     40.4515E-03
            2120     10.7758E-03     26.8189E-03    -34.5695E+06     57.3807E+06     58.1378E+06     346.080E+03    -219.945E-03     445.582E-03    -225.637E-03     45.6174E-03    -220.438E-03     445.987E-03    -225.379E-03     42.5853E-03
            2121     10.0535E-03     26.7571E-03    -42.0717E+06     40.0263E+06     50.4692E+06     2.45216E+06    -220.685E-03     446.702E-03    -226.017E-03     46.0700E-03    -221.156E-03     447.020E-03    -225.762E-03     43.5503E-03
            2122     9.33177E-03     26.6947E-03    -48.9630E+06     8.03914E+06     41.1396E+06     1.71354E+06    -221.525E-03     447.936E-03    -226.411E-03     45.6700E-03    -221.949E-03     448.095E-03    -226.146E-03     43.5979E-03
            2123     8.61064E-03     26.6330E-03    -55.5540E+06    -27.1970E+06     29.7778E+06     831.174E+03    -222.410E-03     449.205E-03    -226.795E-03     44.5659E-03    -222.778E-03     449.192E-03    -226.526E-03     42.9132E-03
            2124     7.89014E-03     26.5727E-03    -62.1438E+06    -56.8054E+06     18.6132E+06     804.051E+03    -223.291E-03     450.452E-03    -227.162E-03     42.8873E-03    -223.613E-03     450.298E-03    -226.896E-03     41.6263E-03
            2125     7.17027E-03     26.5146E-03    -68.9329E+06    -82.5269E+06     7.00231E+06     686.991E+03    -224.145E-03     451.651E-03    -227.507E-03     40.6951E-03    -224.430E-03     451.379E-03    -227.252E-03     39.7808E-03
            2126     6.45104E-03     26.4595E-03    -76.0162E+06    -105.710E+06    -5.37622E+06     495.307E+03    -224.960E-03     452.787E-03    -227.827E-03     38.0300E-03    -225.216E-03     452.413E-03    -227.590E-03     37.4136E-03
            2127     5.73241E-03     26.4081E-03    -83.3938E+06    -127.857E+06    -18.9351E+06     342.515E+03    -225.733E-03     453.852E-03    -228.119E-03     34.9431E-03    -225.963E-03     453.386E-03    -227.907E-03     34.5732E-03
            2128     5.01438E-03     26.3611E-03    -91.0039E+06    -149.354E+06    -33.8524E+06     255.362E+03    -226.454E-03     454.831E-03    -228.378E-03     31.4823E-03    -226.660E-03     454.283E-03    -228.199E-03     31.3067E-03
            2129     4.29689E-03     26.3189E-03    -98.6904E+06    -170.504E+06    -50.1994E+06     145.085E+03    -227.110E-03     455.711E-03    -228.601E-03     27.6783E-03    -227.295E-03     455.085E-03    -228.461E-03     27.6450E-03
            2130     3.57990E-03     26.2822E-03    -106.238E+06    -190.869E+06    -67.7056E+06     23.6053E+03    -227.694E-03     456.478E-03    -228.784E-03     23.5755E-03    -227.856E-03     455.782E-03    -228.692E-03     23.6349E-03
            2131     2.86335E-03     26.2514E-03    -113.340E+06    -210.530E+06    -85.4942E+06     31.4728E+03    -228.196E-03     457.126E-03    -228.930E-03     19.2158E-03    -228.337E-03     456.365E-03    -228.887E-03     19.3246E-03
            2132     2.14717E-03     26.2270E-03    -119.558E+06    -228.276E+06    -102.165E+06     66.1177E+03    -228.607E-03     457.644E-03    -229.038E-03     14.6558E-03    -228.727E-03     456.826E-03    -229.044E-03     14.7757E-03
            2133     1.43128E-03     26.2092E-03    -124.436E+06    -242.719E+06    -116.005E+06     34.2336E+03    -228.913E-03     458.025E-03    -229.112E-03     9.97872E-03    -229.015E-03     457.160E-03    -229.160E-03     10.0781E-03
            2134     715.584E-06     26.1981E-03    -127.576E+06    -252.719E+06    -125.338E+06     2.72173E+03    -229.119E-03     458.264E-03    -229.144E-03     5.45803E-03    -229.209E-03     457.367E-03    -229.220E-03     5.51786E-03
            2135     13.6679E-03     25.5534E-03    -5.66636E+06     93.5357E+06     103.532E+06     901.230E+03    -217.911E-03     442.342E-03    -224.431E-03     27.9426E-03    -218.376E-03     442.819E-03    -224.041E-03     23.7207E-03
            2136     12.9443E-03     25.5088E-03    -12.3993E+06     89.1045E+06     98.5699E+06     1.87415E+06    -217.951E-03     442.706E-03    -224.755E-03     37.3094E-03    -218.482E-03     443.224E-03    -224.374E-03     32.8196E-03
            2137     12.2205E-03     25.4574E-03    -20.6615E+06     80.9113E+06     82.7232E+06     2.87866E+06    -218.264E-03     443.333E-03    -225.069E-03     41.4032E-03    -218.788E-03     443.832E-03    -224.743E-03     37.4995E-03
            2138     11.4968E-03     25.4000E-03    -29.7152E+06     67.6001E+06     65.4926E+06     3.09219E+06    -218.919E-03     444.327E-03    -225.409E-03     44.5343E-03    -219.435E-03     444.789E-03    -225.136E-03     41.0309E-03
            2139     10.7739E-03     25.3387E-03    -37.6059E+06     54.8226E+06     55.8718E+06     2.26576E+06    -219.744E-03     445.537E-03    -225.793E-03     46.1404E-03    -220.250E-03     445.942E-03    -225.539E-03     43.0897E-03
            2140     10.0516E-03     25.2753E-03    -43.5461E+06     40.9245E+06     50.5874E+06     1.14440E+06    -220.579E-03     446.780E-03    -226.201E-03     46.6397E-03    -221.064E-03     447.109E-03    -225.944E-03     44.0415E-03
            2141     9.32978E-03     25.2113E-03    -49.1001E+06     10.5126E+06     41.9750E+06     254.163E+03    -221.481E-03     448.096E-03    -226.615E-03     46.2314E-03    -221.914E-03     448.271E-03    -226.349E-03     44.0750E-03
            2142     8.60862E-03     25.1478E-03    -55.3152E+06    -26.7039E+06     30.2219E+06    -466.812E+03    -222.444E-03     449.462E-03    -227.017E-03     45.0790E-03    -222.816E-03     449.455E-03    -226.747E-03     43.3432E-03
            2143     7.88814E-03     25.0857E-03    -61.8052E+06    -56.9499E+06     18.9882E+06    -818.148E+03    -223.390E-03     450.790E-03    -227.400E-03     43.3180E-03    -223.714E-03     450.638E-03    -227.133E-03     41.9705E-03
            2144     7.16835E-03     25.0258E-03    -68.4412E+06    -82.5424E+06     7.47741E+06    -839.373E+03    -224.296E-03     452.053E-03    -227.757E-03     41.0194E-03    -224.582E-03     451.782E-03    -227.501E-03     40.0237E-03
            2145     6.44923E-03     24.9691E-03    -75.4202E+06    -105.781E+06    -4.86854E+06    -813.387E+03    -225.155E-03     453.241E-03    -228.086E-03     38.2456E-03    -225.410E-03     452.867E-03    -227.848E-03     37.5554E-03
            2146     5.73075E-03     24.9161E-03    -82.7685E+06    -128.044E+06    -18.4662E+06    -733.144E+03    -225.961E-03     454.346E-03    -228.385E-03     35.0539E-03    -226.190E-03     453.880E-03    -228.171E-03     34.6190E-03
            2147     5.01289E-03     24.8675E-03    -90.3810E+06    -149.529E+06    -33.4562E+06    -648.181E+03    -226.704E-03     455.352E-03    -228.648E-03     31.4979E-03    -226.909E-03     454.802E-03    -228.467E-03     31.2662E-03
            2148     4.29559E-03     24.8240E-03    -98.0914E+06    -170.544E+06    -49.8273E+06    -596.924E+03    -227.375E-03     456.247E-03    -228.872E-03     27.6176E-03    -227.557E-03     455.620E-03    -228.732E-03     27.5371E-03
            2149     3.57881E-03     24.7861E-03    -105.684E+06    -191.191E+06    -67.2463E+06    -471.725E+03    -227.966E-03     457.024E-03    -229.057E-03     23.4622E-03    -228.127E-03     456.325E-03    -228.963E-03     23.4841E-03
            2150     2.86247E-03     24.7543E-03    -112.827E+06    -210.875E+06    -84.9756E+06    -292.953E+03    -228.471E-03     457.673E-03    -229.202E-03     19.0787E-03    -228.609E-03     456.909E-03    -229.157E-03     19.1587E-03
            2151     2.14651E-03     24.7291E-03    -119.069E+06    -228.355E+06    -101.676E+06    -212.357E+03    -228.878E-03     458.187E-03    -229.309E-03     14.5237E-03    -228.997E-03     457.367E-03    -229.313E-03     14.6217E-03
            2152     1.43084E-03     24.7107E-03    -123.969E+06    -242.854E+06    -115.551E+06     -167.09E+03    -229.183E-03     458.565E-03    -229.383E-03     9.87446E-03    -229.283E-03     457.699E-03    -229.428E-03     9.95902E-03
            2153     715.363E-06     24.6993E-03    -127.137E+06    -252.893E+06    -124.922E+06    -89.9853E+03    -229.374E-03     458.804E-03    -229.430E-03     5.39433E-03    -229.462E-03     457.905E-03    -229.503E-03     5.44635E-03
            2154     13.6672E-03     24.0772E-03    -5.04221E+06     92.3066E+06     102.241E+06     641.692E+03    -217.503E-03     441.978E-03    -224.476E-03     28.3676E-03    -217.963E-03     442.452E-03    -224.091E-03     24.1379E-03
            2155     12.9431E-03     24.0326E-03    -10.2761E+06     85.3427E+06     97.6091E+06     2.28460E+06    -217.714E-03     442.538E-03    -224.825E-03     37.9892E-03    -218.232E-03     443.040E-03    -224.445E-03     33.4866E-03
            2156     12.2193E-03     23.9806E-03    -15.6523E+06     76.3144E+06     86.4428E+06     5.79984E+06    -218.224E-03     443.398E-03    -225.173E-03     41.9739E-03    -218.727E-03     443.865E-03    -224.829E-03     38.0830E-03
            2157     11.4958E-03     23.9215E-03    -21.7805E+06     69.6320E+06     74.9238E+06     7.66548E+06    -218.914E-03     444.451E-03    -225.536E-03     44.8611E-03    -219.411E-03     444.900E-03    -225.231E-03     41.3910E-03
            2158     10.7728E-03     23.8585E-03    -29.0527E+06     61.7224E+06     64.1226E+06     5.05978E+06    -219.702E-03     445.619E-03    -225.917E-03     46.3518E-03    -220.189E-03     446.036E-03    -225.644E-03     43.3005E-03
            2159     10.0503E-03     23.7934E-03    -36.8646E+06     44.9586E+06     55.2392E+06     1.29334E+06    -220.595E-03     446.919E-03    -226.324E-03     46.7765E-03    -221.062E-03     447.255E-03    -226.060E-03     44.1367E-03
            2160     9.32847E-03     23.7276E-03    -44.1896E+06     11.8714E+06     45.2904E+06    -490.137E+03    -221.595E-03     448.338E-03    -226.743E-03     46.2327E-03    -222.013E-03     448.510E-03    -226.470E-03     44.0245E-03
            2161     8.60740E-03     23.6622E-03    -50.9680E+06    -25.7573E+06     33.2447E+06    -1.11839E+06    -222.620E-03     449.764E-03    -227.144E-03     44.9119E-03    -222.978E-03     449.753E-03    -226.867E-03     43.1292E-03
            2162     7.88705E-03     23.5982E-03    -57.9001E+06    -57.0932E+06     21.4567E+06    -1.45664E+06    -223.601E-03     451.121E-03    -227.520E-03     42.9673E-03    -223.911E-03     450.960E-03    -227.246E-03     41.5794E-03
            2163     7.16740E-03     23.5366E-03    -65.1879E+06    -82.9313E+06     9.51655E+06    -1.50206E+06    -224.523E-03     452.389E-03    -227.865E-03     40.4970E-03    -224.796E-03     452.109E-03    -227.603E-03     39.4670E-03
            2164     6.44845E-03     23.4781E-03    -72.7261E+06    -106.389E+06    -3.17494E+06    -1.37698E+06    -225.383E-03     453.562E-03    -228.180E-03     37.5819E-03    -225.626E-03     453.180E-03    -227.936E-03     36.8638E-03
            2165     5.73015E-03     23.4234E-03    -80.5024E+06    -128.671E+06    -17.0167E+06    -1.17124E+06    -226.173E-03     454.632E-03    -228.459E-03     34.2878E-03    -226.391E-03     454.158E-03    -228.241E-03     33.8307E-03
            2166     5.01246E-03     23.3733E-03    -88.4600E+06    -150.034E+06    -32.1482E+06    -996.158E+03    -226.885E-03     455.587E-03    -228.702E-03     30.6769E-03    -227.081E-03     455.030E-03    -228.517E-03     30.4266E-03
            2167     4.29531E-03     23.3285E-03    -96.4770E+06    -171.086E+06    -48.6269E+06    -815.992E+03    -227.515E-03     456.421E-03    -228.906E-03     26.7942E-03    -227.691E-03     455.788E-03    -228.761E-03     26.6978E-03
            2168     3.57865E-03     23.2894E-03    -104.316E+06    -191.852E+06    -66.0913E+06    -614.118E+03    -228.063E-03     457.134E-03    -229.071E-03     22.6895E-03    -228.217E-03     456.429E-03    -228.973E-03     22.6970E-03
            2169     2.86240E-03     23.2567E-03    -111.598E+06    -211.344E+06    -83.8448E+06    -459.504E+03    -228.523E-03     457.721E-03    -229.198E-03     18.4057E-03    -228.656E-03     456.951E-03    -229.149E-03     18.4714E-03
            2170     2.14649E-03     23.2307E-03    -117.924E+06    -228.695E+06    -100.616E+06    -342.204E+03    -228.892E-03     458.182E-03    -229.290E-03     13.9852E-03    -229.006E-03     457.357E-03    -229.290E-03     14.0710E-03
            2171     1.43084E-03     23.2118E-03    -122.914E+06    -243.272E+06    -114.544E+06    -221.672E+03    -229.168E-03     458.521E-03    -229.353E-03     9.49330E-03    -229.265E-03     457.649E-03    -229.394E-03     9.56925E-03
            2172     715.369E-06     23.2000E-03    -126.142E+06    -253.273E+06    -123.952E+06    -109.775E+03    -229.328E-03     458.733E-03    -229.405E-03     5.17817E-03    -229.412E-03     457.830E-03    -229.475E-03     5.22521E-03
            2173     13.6663E-03     22.6021E-03    -5.00793E+06     92.0692E+06     99.2348E+06    -365.778E+03    -217.150E-03     441.656E-03    -224.505E-03     28.4338E-03    -217.607E-03     442.134E-03    -224.135E-03     24.1771E-03
            2174     12.9420E-03     22.5565E-03    -9.85081E+06     80.5050E+06     94.9617E+06     422.348E+03    -217.701E-03     442.576E-03    -224.875E-03     38.0590E-03    -218.209E-03     443.060E-03    -224.503E-03     33.5034E-03
            2175     12.2185E-03     22.5029E-03    -13.9322E+06     69.0729E+06     87.5182E+06     2.81845E+06    -218.462E-03     443.704E-03    -225.241E-03     42.1703E-03    -218.950E-03     444.134E-03    -224.884E-03     38.2001E-03
            2176     11.4952E-03     22.4427E-03    -17.2090E+06     68.6667E+06     81.2260E+06     5.40821E+06    -219.201E-03     444.806E-03    -225.605E-03     45.0724E-03    -219.686E-03     445.239E-03    -225.274E-03     41.5322E-03
            2177     10.7724E-03     22.3783E-03    -21.4975E+06     67.2393E+06     71.7669E+06     6.62111E+06    -219.993E-03     445.956E-03    -225.963E-03     46.3123E-03    -220.464E-03     446.382E-03    -225.671E-03     43.2519E-03
            2178     10.0501E-03     22.3113E-03    -28.4118E+06     51.8743E+06     62.2061E+06     5.19664E+06    -220.915E-03     447.259E-03    -226.345E-03     46.3771E-03    -221.361E-03     447.608E-03    -226.068E-03     43.7690E-03
            2179     9.32851E-03     22.2436E-03    -36.9597E+06     15.9483E+06     50.4472E+06     2.18417E+06    -221.954E-03     448.689E-03    -226.735E-03     45.5258E-03    -222.349E-03     448.863E-03    -226.452E-03     43.3370E-03
            2180     8.60771E-03     22.1763E-03    -45.4395E+06    -24.4644E+06     36.9475E+06     389.029E+03    -222.996E-03     450.098E-03    -227.102E-03     43.9447E-03    -223.332E-03     450.079E-03    -226.816E-03     42.1711E-03
            2181     7.88764E-03     22.1104E-03    -53.5752E+06    -56.5846E+06     24.3760E+06    -132.213E+03    -223.955E-03     451.392E-03    -227.437E-03     41.7649E-03    -224.246E-03     451.221E-03    -227.155E-03     40.3893E-03
            2182     7.16827E-03     22.0470E-03    -61.6997E+06    -82.8269E+06     11.8770E+06    -447.204E+03    -224.825E-03     452.561E-03    -227.737E-03     39.1115E-03    -225.083E-03     452.272E-03    -227.468E-03     38.0930E-03
            2183     6.44955E-03     21.9868E-03    -69.9193E+06    -106.736E+06    -1.24814E+06    -573.412E+03    -225.609E-03     453.611E-03    -228.002E-03     36.0801E-03    -225.840E-03     453.218E-03    -227.752E-03     35.3695E-03
            2184     5.73142E-03     21.9306E-03    -78.2243E+06    -129.055E+06    -15.3680E+06    -565.723E+03    -226.303E-03     454.535E-03    -228.231E-03     32.7406E-03    -226.512E-03     454.052E-03    -228.008E-03     32.2855E-03
            2185     5.01382E-03     21.8792E-03    -86.5743E+06    -150.433E+06    -30.6958E+06    -509.726E+03    -226.908E-03     455.332E-03    -228.424E-03     29.1531E-03    -227.096E-03     454.768E-03    -228.234E-03     28.8993E-03
            2186     4.29669E-03     21.8332E-03    -94.8617E+06    -171.588E+06    -47.2947E+06    -402.851E+03    -227.429E-03     456.010E-03    -228.581E-03     25.3587E-03    -227.597E-03     455.369E-03    -228.431E-03     25.2543E-03
            2187     3.57994E-03     21.7931E-03    -102.865E+06    -192.197E+06    -64.9017E+06    -328.826E+03    -227.868E-03     456.571E-03    -228.703E-03     21.3994E-03    -228.017E-03     455.861E-03    -228.600E-03     21.3952E-03
            2188     2.86354E-03     21.7595E-03    -110.278E+06    -211.649E+06    -82.7512E+06    -311.568E+03    -228.232E-03     457.025E-03    -228.793E-03     17.3108E-03    -228.361E-03     456.250E-03    -228.740E-03     17.3627E-03
            2189     2.14740E-03     21.7329E-03    -116.716E+06    -229.125E+06    -99.5143E+06    -233.273E+03    -228.523E-03     457.378E-03    -228.855E-03     13.1274E-03    -228.632E-03     456.548E-03    -228.851E-03     13.2000E-03
            2190     1.43148E-03     21.7135E-03    -121.762E+06    -243.630E+06    -113.429E+06    -125.330E+03    -228.741E-03     457.637E-03    -228.896E-03     8.90153E-03    -228.833E-03     456.761E-03    -228.934E-03     8.96741E-03
            2191     715.704E-06     21.7015E-03    -125.016E+06    -253.581E+06    -122.843E+06    -61.0389E+03    -228.848E-03     457.801E-03    -228.954E-03     4.85755E-03    -228.927E-03     456.893E-03    -229.019E-03     4.89776E-03
            2192     13.6661E-03     21.1271E-03    -5.64819E+06     92.0964E+06      98.749E+06    -366.134E+03    -217.252E-03     441.766E-03    -224.514E-03     28.3031E-03    -217.713E-03     442.247E-03    -224.145E-03     24.0232E-03
            2193     12.9422E-03     21.0803E-03    -11.7665E+06     78.8652E+06     93.0554E+06    -504.655E+03    -217.892E-03     442.764E-03    -224.872E-03     37.9120E-03    -218.406E-03     443.246E-03    -224.504E-03     33.3097E-03
            2194     12.2185E-03     21.0253E-03    -17.4519E+06     66.6970E+06     84.0181E+06    -1.02001E+06    -218.748E-03     443.967E-03    -225.219E-03     42.0087E-03    -219.247E-03     444.397E-03    -224.870E-03     37.9413E-03
            2195     11.4954E-03     20.9634E-03    -21.9912E+06     64.3410E+06     77.3510E+06    -521.384E+03    -219.695E-03     445.254E-03    -225.559E-03     44.7457E-03    -220.194E-03     445.679E-03    -225.233E-03     41.0782E-03
            2196     10.7731E-03     20.8973E-03    -25.7499E+06     62.7001E+06     69.9073E+06     2.53391E+06    -220.665E-03     446.547E-03    -225.882E-03     45.6965E-03    -221.149E-03     446.959E-03    -225.586E-03     42.5455E-03
            2197     10.0514E-03     20.8286E-03    -30.1078E+06     54.6501E+06     63.6949E+06     5.34702E+06    -221.607E-03     447.813E-03    -226.207E-03     45.3806E-03    -222.066E-03     448.175E-03    -225.924E-03     42.7541E-03
            2198     9.33034E-03     20.7590E-03    -36.4205E+06     22.0533E+06     52.9934E+06     4.91470E+06    -222.598E-03     449.125E-03    -226.527E-03     44.1311E-03    -223.001E-03     449.323E-03    -226.241E-03     41.9689E-03
            2199     8.61002E-03     20.6900E-03    -44.2384E+06    -21.7052E+06     38.7232E+06     3.14855E+06    -223.579E-03     450.399E-03    -226.820E-03     42.2132E-03    -223.913E-03     450.387E-03    -226.531E-03     40.4715E-03
            2200     7.89039E-03     20.6224E-03    -52.3820E+06    -54.8051E+06     25.8679E+06     2.01208E+06    -224.429E-03     451.503E-03    -227.074E-03     39.7838E-03    -224.717E-03     451.336E-03    -226.789E-03     38.4309E-03
            2201     7.17138E-03     20.5575E-03    -60.5253E+06    -81.7108E+06     13.1933E+06     1.31270E+06    -225.157E-03     452.447E-03    -227.289E-03     36.9657E-03    -225.411E-03     452.157E-03    -227.017E-03     35.9602E-03
            2202     6.45289E-03     20.4959E-03    -68.7702E+06    -106.081E+06    -61.1319E+03     869.283E+03    -225.776E-03     453.244E-03    -227.468E-03     33.8470E-03    -226.003E-03     452.850E-03    -227.215E-03     33.1392E-03
            2203     5.73487E-03     20.4385E-03    -77.1272E+06    -128.655E+06    -14.2726E+06     569.437E+03    -226.290E-03     453.901E-03    -227.611E-03     30.4933E-03    -226.494E-03     453.416E-03    -227.384E-03     30.0315E-03
            2204     5.01724E-03     20.3860E-03    -85.5324E+06    -150.230E+06    -29.7031E+06     388.838E+03    -226.709E-03     454.430E-03    -227.721E-03     26.9583E-03    -226.893E-03     453.863E-03    -227.527E-03     26.6917E-03
            2205     4.29994E-03     20.3390E-03    -93.8438E+06    -171.471E+06    -46.3960E+06     264.046E+03    -227.046E-03     454.845E-03    -227.799E-03     23.2832E-03    -227.211E-03     454.202E-03    -227.646E-03     23.1623E-03
            2206     3.58290E-03     20.2982E-03    -101.844E+06    -192.003E+06    -64.0274E+06     149.457E+03    -227.310E-03     455.159E-03    -227.849E-03     19.5118E-03    -227.456E-03     454.447E-03    -227.743E-03     19.4904E-03
            2207     2.86607E-03     20.2641E-03    -109.258E+06    -211.595E+06    -81.8579E+06     74.5455E+03    -227.516E-03     455.392E-03    -227.876E-03     15.6818E-03    -227.640E-03     454.615E-03    -227.820E-03     15.7190E-03
            2208     2.14940E-03     20.2370E-03    -115.715E+06    -229.229E+06    -98.5937E+06     47.8815E+03    -227.672E-03     455.560E-03    -227.888E-03     11.8262E-03    -227.777E-03     454.726E-03    -227.880E-03     11.8873E-03
            2209     1.43285E-03     20.2172E-03    -120.786E+06    -243.687E+06    -112.483E+06     39.9196E+03    -227.788E-03     455.679E-03    -227.891E-03     7.98496E-03    -227.876E-03     454.799E-03    -227.925E-03     8.04282E-03
            2210     716.398E-06     20.2050E-03    -124.059E+06    -253.598E+06    -121.900E+06     25.7206E+03    -227.815E-03     455.756E-03    -227.941E-03     4.33859E-03    -227.891E-03     454.845E-03    -228.003E-03     4.37469E-03
            2211     13.6667E-03     19.6516E-03    -5.65760E+06     92.3683E+06     100.288E+06     157.391E+03    -217.726E-03     442.217E-03    -224.491E-03     28.4425E-03    -218.191E-03     442.699E-03    -224.115E-03     24.1332E-03
            2212     12.9429E-03     19.6037E-03    -11.3364E+06     80.1586E+06     94.2341E+06    -434.347E+03    -218.478E-03     443.292E-03    -224.814E-03     37.9508E-03    -218.997E-03     443.782E-03    -224.443E-03     33.3010E-03
            2213     12.2197E-03     19.5472E-03    -17.4623E+06     67.9827E+06     84.4319E+06    -1.28490E+06    -219.507E-03     444.621E-03    -225.113E-03     41.6847E-03    -220.012E-03     445.060E-03    -224.765E-03     37.5611E-03
            2214     11.4973E-03     19.4834E-03     -24.515E+06     62.5208E+06     74.9955E+06    -1.78051E+06    -220.615E-03     446.000E-03    -225.386E-03     43.9218E-03    -221.121E-03     446.424E-03    -225.066E-03     40.1869E-03
            2215     10.7756E-03     19.4154E-03    -31.3295E+06     56.4578E+06     64.9489E+06    -1.21453E+06    -221.694E-03     447.321E-03    -225.626E-03     44.4138E-03    -222.189E-03     447.716E-03    -225.338E-03     41.1660E-03
            2216     10.0547E-03     19.3450E-03    -36.7912E+06     50.5372E+06     59.4562E+06     908.302E+03    -222.648E-03     448.503E-03    -225.855E-03     43.6835E-03    -223.127E-03     448.858E-03    -225.578E-03     40.9581E-03
            2217     9.33450E-03     19.2739E-03    -41.7490E+06     23.6537E+06     51.1118E+06     2.95687E+06    -223.542E-03     449.608E-03    -226.065E-03     42.0120E-03    -223.969E-03     449.822E-03    -225.784E-03     39.7925E-03
            2218     8.61492E-03     19.2033E-03    -47.4777E+06    -18.8575E+06     38.0466E+06     3.29733E+06    -224.363E-03     450.602E-03    -226.239E-03     39.7165E-03    -224.714E-03     450.607E-03    -225.953E-03     37.9485E-03
            2219     7.89588E-03     19.1345E-03    -54.1712E+06    -52.5319E+06     25.6575E+06     2.68922E+06    -225.009E-03     451.378E-03    -226.368E-03     37.0108E-03    -225.307E-03     451.222E-03    -226.085E-03     35.6344E-03
            2220     7.17728E-03     19.0684E-03    -61.4739E+06    -80.0206E+06     13.2291E+06     2.11925E+06    -225.504E-03     451.959E-03    -226.455E-03     34.0014E-03    -225.764E-03     451.678E-03    -226.184E-03     32.9675E-03
            2221     6.45904E-03     19.0059E-03    -69.1478E+06    -104.725E+06     164.115E+03     1.66849E+06    -225.866E-03     452.370E-03    -226.504E-03     30.7702E-03    -226.096E-03     451.983E-03    -226.251E-03     30.0286E-03
            2222     5.74107E-03     18.9478E-03    -77.0863E+06    -127.580E+06    -13.9112E+06     1.30769E+06    -226.112E-03     452.631E-03    -226.519E-03     27.3886E-03    -226.317E-03     452.150E-03    -226.292E-03     26.8892E-03
            2223     5.02329E-03     18.8947E-03    -85.1833E+06    -149.393E+06    -29.2233E+06     1.02388E+06    -226.256E-03     452.759E-03    -226.503E-03     23.9186E-03    -226.440E-03     452.195E-03    -226.309E-03     23.6120E-03
            2224     4.30564E-03     18.8473E-03    -93.2935E+06    -170.716E+06    -45.8383E+06     798.673E+03    -226.318E-03     452.780E-03    -226.463E-03     20.4141E-03    -226.481E-03     452.140E-03    -226.309E-03     20.2530E-03
            2225     3.58805E-03     18.8062E-03    -101.198E+06    -191.336E+06    -63.4425E+06     597.059E+03    -226.319E-03     452.723E-03    -226.404E-03     16.9207E-03    -226.463E-03     452.012E-03    -226.297E-03     16.8610E-03
            2226     2.87048E-03     18.7719E-03    -108.555E+06    -211.126E+06    -81.2293E+06     441.209E+03    -226.286E-03     452.622E-03    -226.336E-03     13.4697E-03    -226.409E-03     451.846E-03    -226.279E-03     13.4725E-03
            2227     2.15290E-03     18.7447E-03    -114.951E+06    -228.843E+06    -97.9017E+06     331.362E+03    -226.239E-03     452.508E-03    -226.269E-03     10.0791E-03    -226.343E-03     451.675E-03    -226.260E-03     10.1119E-03
            2228     1.43529E-03     18.7249E-03    -119.978E+06    -243.330E+06    -111.737E+06     225.073E+03    -226.198E-03     452.409E-03    -226.212E-03     6.76629E-03    -226.284E-03     451.530E-03    -226.244E-03     6.80351E-03
            2229     717.655E-06     18.7126E-03    -123.222E+06    -253.240E+06    -121.097E+06     118.582E+03    -226.123E-03     452.343E-03    -226.220E-03     3.65476E-03    -226.197E-03     451.432E-03    -226.280E-03     3.67914E-03
            2230     13.6673E-03     18.1755E-03    -5.21746E+06     92.8440E+06     101.255E+06     79.0816E+03    -218.686E-03     443.121E-03    -224.435E-03     28.7987E-03    -219.155E-03     443.608E-03    -224.056E-03     24.4269E-03
            2231     12.9444E-03     18.1260E-03    -11.1357E+06     81.4062E+06     95.2793E+06    -168.431E+03    -219.690E-03     444.383E-03    -224.693E-03     37.9785E-03    -220.215E-03     444.882E-03    -224.319E-03     33.2550E-03
            2232     12.2222E-03     18.0676E-03    -17.5936E+06     68.4514E+06      84.952E+06    -200.487E+03    -220.929E-03     445.834E-03    -224.905E-03     41.2377E-03    -221.439E-03     446.278E-03    -224.554E-03     37.0490E-03
            2233     11.5009E-03     18.0020E-03    -24.0191E+06     63.2712E+06     75.3003E+06    -334.569E+03    -222.133E-03     447.199E-03    -225.066E-03     42.8598E-03    -222.639E-03     447.627E-03    -224.747E-03     39.0692E-03
            2234     10.7804E-03     17.9323E-03    -30.5310E+06     55.8563E+06     64.1924E+06    -1.05409E+06    -223.211E-03     448.388E-03    -225.176E-03     42.7002E-03    -223.699E-03     448.779E-03    -224.892E-03     39.3845E-03
            2235     10.0606E-03     17.8604E-03    -37.2380E+06     46.9307E+06     57.2311E+06    -1.32364E+06    -224.083E-03     449.343E-03    -225.260E-03     41.3960E-03    -224.554E-03     449.683E-03    -224.988E-03     38.5700E-03
            2236     9.34144E-03     17.7880E-03    -43.6881E+06     21.0067E+06     48.8559E+06    -291.329E+03    -224.800E-03     450.113E-03    -225.313E-03     39.2514E-03    -225.228E-03     450.319E-03    -225.036E-03     36.9128E-03
            2237     8.62277E-03     17.7165E-03    -49.7446E+06    -18.6189E+06     36.5602E+06     962.068E+03    -225.371E-03     450.689E-03    -225.318E-03     36.5522E-03    -225.730E-03     450.700E-03    -225.036E-03     34.6704E-03
            2238     7.90445E-03     17.6470E-03    -55.9610E+06    -51.4233E+06     24.6850E+06     1.48048E+06    -225.728E-03     451.000E-03    -225.272E-03     33.5137E-03    -226.034E-03     450.854E-03    -224.993E-03     32.0295E-03
            2239     7.18637E-03     17.5805E-03    -62.6898E+06    -78.7721E+06     12.6065E+06     1.52644E+06    -225.897E-03     451.075E-03    -225.179E-03     30.2566E-03    -226.163E-03     450.803E-03    -224.911E-03     29.1142E-03
            2240     6.46840E-03     17.5177E-03    -69.8799E+06    -103.514E+06    -208.940E+03     1.41866E+06    -225.901E-03     450.948E-03    -225.046E-03     26.8757E-03    -226.136E-03     450.568E-03    -224.796E-03     26.0233E-03
            2241     5.75043E-03     17.4595E-03    -77.4347E+06    -126.447E+06    -14.0890E+06     1.26909E+06    -225.761E-03     450.642E-03    -224.881E-03     23.4671E-03    -225.970E-03     450.168E-03    -224.656E-03     22.8547E-03
            2242     5.03237E-03     17.4066E-03     -85.246E+06    -148.344E+06    -29.2413E+06     1.11108E+06    -225.505E-03     450.197E-03    -224.693E-03     20.1133E-03    -225.691E-03     449.639E-03    -224.500E-03     19.6937E-03
            2243     4.31412E-03     17.3595E-03    -93.1318E+06    -169.747E+06    -45.7163E+06     959.244E+03    -225.172E-03     449.664E-03    -224.491E-03     16.8692E-03    -225.338E-03     449.028E-03    -224.339E-03     16.5988E-03
            2244     3.59565E-03     17.3187E-03    -100.836E+06    -190.419E+06    -63.1933E+06     821.335E+03    -224.807E-03     449.095E-03    -224.288E-03     13.7662E-03    -224.951E-03     448.389E-03    -224.182E-03     13.6057E-03
            2245     2.87692E-03     17.2848E-03    -108.047E+06    -210.325E+06    -80.8712E+06     683.033E+03    -224.451E-03     448.547E-03    -224.096E-03     10.8153E-03    -224.574E-03     447.774E-03    -224.039E-03     10.7300E-03
            2246     2.15795E-03     17.2580E-03    -114.360E+06    -228.101E+06    -97.4394E+06     543.660E+03    -224.137E-03     448.064E-03    -223.927E-03     8.01103E-03    -224.239E-03     447.233E-03    -223.918E-03     7.97227E-03
            2247     1.43876E-03     17.2385E-03    -119.333E+06    -242.583E+06    -111.165E+06     390.510E+03    -223.892E-03     447.686E-03    -223.794E-03     5.34043E-03    -223.977E-03     446.808E-03    -223.825E-03     5.32641E-03
            2248     719.422E-06     17.2265E-03    -122.538E+06    -252.503E+06    -120.445E+06     213.186E+03    -223.694E-03     447.440E-03    -223.745E-03     2.87250E-03    -223.767E-03     446.530E-03    -223.804E-03     2.86736E-03
            2249     13.6685E-03     16.6974E-03    -5.50172E+06     92.7941E+06     101.323E+06    -86.7333E+03    -220.345E-03     444.691E-03    -224.346E-03     29.2152E-03    -220.821E-03     445.183E-03    -223.966E-03     24.7477E-03
            2250     12.9468E-03     16.6463E-03    -11.2464E+06     81.3969E+06     95.4313E+06     184.351E+03    -221.590E-03     446.089E-03    -224.499E-03     38.0116E-03    -222.122E-03     446.594E-03    -224.124E-03     33.1757E-03
            2251     12.2261E-03     16.5860E-03    -17.0622E+06     68.7114E+06     85.2241E+06     124.482E+03    -222.994E-03     447.574E-03    -224.580E-03     40.6922E-03    -223.507E-03     448.023E-03    -224.228E-03     36.3849E-03
            2252     11.5064E-03     16.5186E-03    -22.9329E+06     64.1658E+06     75.7788E+06    -330.096E+03    -224.257E-03     448.843E-03    -224.586E-03     41.5836E-03    -224.763E-03     449.276E-03    -224.267E-03     37.6699E-03
            2253     10.7875E-03     16.4474E-03    -28.9126E+06     57.0981E+06     64.8299E+06    -702.968E+03    -225.261E-03     449.779E-03    -224.519E-03     40.6728E-03    -225.744E-03     450.175E-03    -224.235E-03     37.2409E-03
            2254     10.0692E-03     16.3745E-03    -35.3094E+06     46.7156E+06      57.368E+06    -991.064E+03    -225.948E-03     450.356E-03    -224.407E-03     38.6919E-03    -226.410E-03     450.692E-03    -224.137E-03     35.7437E-03
            2255     9.35136E-03     16.3015E-03    -42.2535E+06     19.3610E+06     48.2643E+06    -956.520E+03    -226.407E-03     450.658E-03    -224.251E-03     35.9669E-03    -226.825E-03     450.855E-03    -223.976E-03     33.4766E-03
            2256     8.63382E-03     16.2298E-03    -49.2641E+06    -19.7571E+06     35.7172E+06    -445.758E+03    -226.661E-03     450.695E-03    -224.034E-03     32.7696E-03    -227.016E-03     450.701E-03    -223.755E-03     30.7063E-03
            2257     7.91643E-03     16.1604E-03    -56.0922E+06    -51.5649E+06     23.8868E+06     115.764E+03    -226.647E-03     450.402E-03    -223.755E-03     29.3090E-03    -226.953E-03     450.257E-03    -223.479E-03     27.6256E-03
            2258     7.19897E-03     16.0942E-03    -62.9685E+06    -78.4167E+06     11.9132E+06     474.594E+03    -226.382E-03     449.804E-03    -223.422E-03     25.7254E-03    -226.651E-03     449.537E-03    -223.158E-03     24.3714E-03
            2259     6.48132E-03     16.0321E-03    -70.1016E+06    -102.912E+06    -781.161E+03     691.314E+03    -225.892E-03     448.940E-03    -223.049E-03     22.1553E-03    -226.129E-03     448.566E-03    -222.802E-03     21.0826E-03
            2260     5.76329E-03     15.9748E-03    -77.5436E+06    -125.710E+06    -14.5523E+06     819.682E+03    -225.215E-03     447.864E-03    -222.649E-03     18.7279E-03    -225.427E-03     447.396E-03    -222.427E-03     17.8929E-03
            2261     5.04474E-03     15.9230E-03    -85.2210E+06    -147.494E+06    -29.5871E+06     875.689E+03    -224.415E-03     446.653E-03    -222.238E-03     15.5296E-03    -224.604E-03     446.101E-03    -222.048E-03     14.8929E-03
            2262     4.32562E-03     15.8771E-03    -92.9853E+06    -168.864E+06    -45.9337E+06     879.229E+03    -223.561E-03     445.394E-03    -221.833E-03     12.6057E-03    -223.728E-03     444.764E-03    -221.683E-03     12.1316E-03
            2263     3.60587E-03     15.8376E-03    -100.596E+06    -189.533E+06    -63.2825E+06     854.849E+03    -222.720E-03     444.170E-03    -221.451E-03     9.97123E-03    -222.865E-03     443.469E-03    -221.346E-03     9.62827E-03
            2264     2.88554E-03     15.8048E-03    -107.707E+06    -209.405E+06    -80.8043E+06     811.907E+03    -221.954E-03     443.061E-03    -221.107E-03     7.61617E-03    -222.077E-03     442.292E-03    -221.051E-03     7.37698E-03
            2265     2.16467E-03     15.7790E-03    -113.918E+06    -227.119E+06    -97.1856E+06     702.680E+03    -221.309E-03     442.126E-03    -220.817E-03     5.50913E-03    -221.412E-03     441.299E-03    -220.808E-03     5.35025E-03
            2266     1.44338E-03     15.7603E-03    -118.809E+06    -241.548E+06    -110.746E+06     520.501E+03    -220.822E-03     441.417E-03    -220.595E-03     3.60540E-03    -220.907E-03     440.543E-03    -220.626E-03     3.50834E-03
            2267     721.774E-06     15.7487E-03    -121.961E+06    -251.420E+06    -119.908E+06     302.849E+03    -220.478E-03     440.964E-03    -220.486E-03     1.91038E-03    -220.551E-03     440.057E-03    -220.544E-03     1.85974E-03
            2268     13.6701E-03     15.2165E-03    -5.48785E+06     92.8221E+06     101.314E+06    -181.240E+03    -222.684E-03     446.905E-03    -224.221E-03     29.7474E-03    -223.167E-03     447.405E-03    -223.841E-03     25.1490E-03
            2269     12.9503E-03     15.1636E-03    -11.0039E+06     80.9999E+06     95.3025E+06    -299.419E+03    -224.170E-03     448.399E-03    -224.230E-03     38.1220E-03    -224.710E-03     448.911E-03    -223.855E-03     33.1126E-03
            2270     12.2315E-03     15.1014E-03    -16.6345E+06     69.1033E+06     85.3076E+06    -283.812E+03    -225.706E-03     449.842E-03    -224.136E-03     40.1108E-03    -226.225E-03     450.301E-03    -223.786E-03     35.6196E-03
            2271     11.5138E-03     15.0324E-03    -22.5738E+06     64.9903E+06     75.8778E+06    -491.745E+03    -226.949E-03     450.891E-03    -223.942E-03     40.1495E-03    -227.461E-03     451.334E-03    -223.624E-03     36.0491E-03
            2272     10.7969E-03     14.9603E-03    -28.7956E+06     57.5765E+06     64.6451E+06    -800.859E+03    -227.811E-03     451.461E-03    -223.650E-03     38.3976E-03    -228.298E-03     451.864E-03    -223.369E-03     34.7695E-03
            2273     10.0804E-03     14.8870E-03    -35.1648E+06     47.0529E+06     57.0217E+06    -918.808E+03    -228.265E-03     451.559E-03    -223.294E-03     35.6567E-03    -228.730E-03     451.901E-03    -223.026E-03     32.4943E-03
            2274     9.36425E-03     14.8142E-03    -41.7606E+06     19.3996E+06     47.8603E+06    -827.595E+03    -228.422E-03     451.295E-03    -222.874E-03     32.2550E-03    -228.840E-03     451.496E-03    -222.602E-03     29.5239E-03
            2275     8.64817E-03     14.7431E-03    -48.5496E+06    -20.0206E+06     35.2399E+06    -660.432E+03    -228.300E-03     450.676E-03    -222.376E-03     28.4508E-03    -228.654E-03     450.684E-03    -222.100E-03     26.1113E-03
            2276     7.93192E-03     14.6747E-03    -55.4465E+06    -51.8504E+06     23.2983E+06    -444.317E+03    -227.811E-03     449.613E-03    -221.802E-03     24.4679E-03    -228.117E-03     449.471E-03    -221.530E-03     22.4736E-03
            2277     7.21529E-03     14.6101E-03    -62.5077E+06    -78.4736E+06     11.2406E+06    -121.216E+03    -226.967E-03     448.136E-03    -221.169E-03     20.5141E-03    -227.236E-03     447.872E-03    -220.908E-03     18.8248E-03
            2278     6.49799E-03     14.5499E-03    -69.8051E+06    -102.769E+06    -1.48457E+06     205.606E+03    -225.826E-03     446.323E-03    -220.496E-03     16.7637E-03    -226.065E-03     445.953E-03    -220.253E-03     15.3435E-03
            2279     5.77980E-03     14.4949E-03    -77.3292E+06    -125.350E+06    -15.2269E+06     484.809E+03    -224.469E-03     444.277E-03    -219.807E-03     13.3436E-03    -224.682E-03     443.814E-03    -219.590E-03     12.1616E-03
            2280     5.06060E-03     14.4454E-03    -85.0276E+06    -146.939E+06    -30.1972E+06     697.318E+03    -222.992E-03     442.118E-03    -219.126E-03     10.3353E-03    -223.182E-03     441.571E-03    -218.940E-03     9.36376E-03
            2281     4.34030E-03     14.4020E-03    -92.7690E+06    -168.154E+06    -46.4201E+06     848.376E+03    -221.493E-03     439.967E-03    -218.474E-03     7.77775E-03    -221.661E-03     439.343E-03    -218.328E-03     6.99258E-03
            2282     3.61891E-03     14.3648E-03    -100.328E+06    -188.715E+06    -63.5516E+06     933.047E+03    -220.066E-03     437.942E-03    -217.876E-03     5.67365E-03    -220.213E-03     437.246E-03    -217.774E-03     5.05422E-03
            2283     2.89650E-03     14.3341E-03    -107.388E+06    -208.441E+06    -80.8460E+06     939.561E+03    -218.797E-03     436.147E-03    -217.351E-03     3.99239E-03    -218.921E-03     435.384E-03    -217.297E-03     3.52057E-03
            2284     2.17321E-03     14.3099E-03    -113.537E+06    -225.945E+06    -97.0300E+06     836.910E+03    -217.749E-03     434.666E-03    -216.917E-03     2.67624E-03    -217.852E-03     433.844E-03    -216.910E-03     2.33631E-03
            2285     1.44922E-03     14.2925E-03    -118.371E+06    -240.288E+06    -110.407E+06     639.937E+03    -216.970E-03     433.561E-03    -216.591E-03     1.64509E-03    -217.056E-03     432.692E-03    -216.623E-03     1.42371E-03
            2286     724.741E-06     14.2818E-03    -121.492E+06    -250.026E+06    -119.453E+06     379.074E+03    -216.459E-03     432.866E-03    -216.408E-03     827.031E-06    -216.532E-03     431.965E-03    -216.466E-03     708.394E-06
            2287     13.6722E-03     13.7319E-03    -5.32340E+06     93.3399E+06     101.478E+06    -311.791E+03    -225.687E-03     449.750E-03    -224.063E-03     30.4404E-03    -226.180E-03     450.262E-03    -223.683E-03     25.6700E-03
            2288     12.9546E-03     13.6771E-03    -11.1356E+06     81.0505E+06     95.1862E+06    -505.376E+03    -227.393E-03     451.282E-03    -223.889E-03     38.3208E-03    -227.946E-03     451.808E-03    -223.515E-03     33.0856E-03
            2289     12.2383E-03     13.6130E-03    -17.1073E+06     69.1811E+06     84.9890E+06    -647.339E+03    -229.022E-03     452.603E-03    -223.581E-03     39.5114E-03    -229.555E-03     453.075E-03    -223.232E-03     34.7728E-03
            2290     11.5230E-03     13.5429E-03    -22.9704E+06     65.4117E+06     75.5370E+06    -800.054E+03    -230.199E-03     453.341E-03    -223.142E-03     38.5802E-03    -230.722E-03     453.796E-03    -222.826E-03     34.2138E-03
            2291     10.8084E-03     13.4705E-03    -28.8710E+06     57.8521E+06     64.1878E+06    -879.805E+03    -230.874E-03     453.455E-03    -222.580E-03     35.8871E-03    -231.370E-03     453.868E-03    -222.302E-03     31.9690E-03
            2292     10.0942E-03     13.3976E-03    -35.0857E+06     47.4067E+06     56.4707E+06    -1.04775E+06    -231.070E-03     453.000E-03    -221.929E-03     32.3051E-03    -231.542E-03     453.352E-03    -221.665E-03     28.8166E-03
            2293     9.38003E-03     13.3258E-03    -41.5844E+06     19.7614E+06     47.1978E+06    -1.12368E+06    -230.878E-03     452.067E-03    -221.190E-03     28.1312E-03    -231.302E-03     452.278E-03    -220.922E-03     25.0295E-03
            2294     8.66571E-03     13.2563E-03    -48.1687E+06    -19.8705E+06     34.4691E+06    -873.956E+03    -230.260E-03     450.614E-03    -220.354E-03     23.6646E-03    -230.618E-03     450.631E-03    -220.083E-03     20.9125E-03
            2295     7.95091E-03     13.1903E-03    -54.9841E+06    -51.9222E+06     22.4224E+06    -487.839E+03    -229.128E-03     448.561E-03    -219.433E-03     19.2159E-03    -229.436E-03     448.425E-03    -219.166E-03     16.7770E-03
            2296     7.23516E-03     13.1287E-03    -62.1410E+06    -78.4922E+06     10.2776E+06    -113.814E+03    -227.547E-03     445.999E-03    -218.452E-03     15.0202E-03    -227.818E-03     445.741E-03    -218.196E-03     12.8667E-03
            2297     6.51817E-03     13.0720E-03    -69.5502E+06    -102.693E+06    -2.47115E+06     237.862E+03    -225.627E-03     443.067E-03    -217.440E-03     11.2335E-03    -225.867E-03     442.703E-03    -217.203E-03     9.34235E-03
            2298     5.79973E-03     13.0207E-03    -77.1794E+06    -125.095E+06    -16.1527E+06     556.333E+03    -223.481E-03     439.910E-03    -216.429E-03     7.96719E-03    -223.695E-03     439.453E-03    -216.216E-03     6.32067E-03
            2299     5.07965E-03     12.9752E-03    -84.9547E+06    -146.481E+06    -30.9836E+06     814.227E+03    -221.233E-03     436.680E-03    -215.447E-03     5.28385E-03    -221.425E-03     436.140E-03    -215.266E-03     3.86822E-03
            2300     4.35791E-03     12.9356E-03    -92.7375E+06    -167.505E+06    -47.0113E+06     1.00660E+06    -219.011E-03     433.535E-03    -214.524E-03     3.19651E-03    -219.181E-03     432.916E-03    -214.382E-03     2.00124E-03
            2301     3.63451E-03     12.9020E-03    -100.297E+06    -187.821E+06    -63.9038E+06     1.09406E+06    -216.932E-03     430.619E-03    -213.687E-03     1.67766E-03    -217.080E-03     429.929E-03    -213.589E-03     694.507E-06
            2302     2.90962E-03     12.8745E-03    -107.300E+06    -207.327E+06    -80.9380E+06     1.05724E+06    -215.102E-03     428.062E-03    -212.960E-03     669.400E-06    -215.228E-03     427.304E-03    -212.909E-03    -108.777E-06
            2303     2.18342E-03     12.8530E-03    -113.374E+06    -224.646E+06    -96.9079E+06     919.567E+03    -213.600E-03     425.965E-03    -212.365E-03     92.7068E-06    -213.705E-03     425.149E-03    -212.360E-03    -486.473E-06
            2304     1.45620E-03     12.8375E-03    -118.128E+06    -238.843E+06    -110.144E+06     693.221E+03    -212.485E-03     424.405E-03    -211.920E-03    -147.445E-06    -212.572E-03     423.542E-03    -211.953E-03    -534.279E-06
            2305     728.290E-06     12.8280E-03    -121.182E+06    -248.436E+06    -119.080E+06     393.213E+03    -211.777E-03     423.422E-03    -211.645E-03    -169.606E-06    -211.852E-03     422.528E-03    -211.704E-03    -379.432E-06
            2306     13.6747E-03     12.2427E-03    -5.61001E+06     93.7968E+06     101.510E+06    -256.277E+03    -229.323E-03     453.199E-03    -223.876E-03     31.2645E-03    -229.831E-03     453.726E-03    -223.496E-03     26.2794E-03
            2307     12.9598E-03     12.1858E-03    -11.3230E+06     81.4675E+06     95.1698E+06    -494.359E+03    -231.239E-03     454.722E-03    -223.483E-03     38.5680E-03    -231.810E-03     455.267E-03    -223.109E-03     33.0516E-03
            2308     12.2463E-03     12.1202E-03    -17.0649E+06     69.6844E+06     84.8243E+06    -872.904E+03    -232.926E-03     455.847E-03    -222.921E-03     38.7746E-03    -233.474E-03     456.336E-03    -222.573E-03     33.7191E-03
            2309     11.5338E-03     12.0494E-03    -22.9386E+06     65.5231E+06     75.1375E+06    -1.15404E+06    -234.000E-03     456.197E-03    -222.197E-03     36.7435E-03    -234.536E-03     456.667E-03    -221.883E-03     32.0215E-03
            2310     10.8220E-03     11.9774E-03    -28.8813E+06     57.9861E+06     63.6191E+06    -1.27331E+06    -234.475E-03     455.794E-03    -221.320E-03     33.0361E-03    -234.982E-03     456.221E-03    -221.044E-03     28.7168E-03
            2311     10.1103E-03     11.9058E-03    -34.8024E+06     47.7753E+06     55.6502E+06    -1.40821E+06    -234.339E-03     454.663E-03    -220.324E-03     28.5271E-03    -234.820E-03     455.029E-03    -220.064E-03     24.5816E-03
            2312     9.39860E-03     11.8360E-03    -41.0975E+06     19.9129E+06     46.1525E+06    -1.18208E+06    -233.605E-03     452.826E-03    -219.220E-03     23.6161E-03    -234.037E-03     453.049E-03    -218.959E-03     20.0074E-03
            2313     8.68630E-03     11.7696E-03    -47.9428E+06    -19.9146E+06     33.1965E+06    -618.264E+03    -232.256E-03     450.270E-03    -218.014E-03     18.7150E-03    -232.621E-03     450.299E-03    -217.750E-03     15.4205E-03
            2314     7.97281E-03     11.7076E-03    -55.0321E+06    -51.9307E+06     21.0721E+06    -113.007E+03    -230.287E-03     447.014E-03    -216.727E-03     14.1253E-03    -230.602E-03     446.889E-03    -216.467E-03     11.1248E-03
            2315     7.25780E-03     11.6506E-03    -62.2592E+06    -78.3780E+06     9.02969E+06     311.992E+03    -227.830E-03     443.225E-03    -215.395E-03     10.0484E-03    -228.108E-03     442.978E-03    -215.146E-03     7.32947E-03
            2316     6.54090E-03     11.5992E-03    -69.7268E+06    -102.463E+06    -3.57962E+06     682.551E+03    -225.035E-03     439.090E-03    -214.055E-03     6.60994E-03    -225.281E-03     438.735E-03    -213.823E-03     4.16469E-03
            2317     5.82186E-03     11.5534E-03    -77.4160E+06    -124.668E+06    -17.0121E+06     972.262E+03    -222.052E-03     434.795E-03    -212.743E-03     3.87001E-03    -222.272E-03     434.347E-03    -212.535E-03     1.69530E-03
            2318     5.10057E-03     11.5135E-03    -85.2486E+06    -145.851E+06    -31.5311E+06     1.16311E+06    -219.039E-03     430.533E-03    -211.493E-03     1.81721E-03    -219.237E-03     430.001E-03    -211.316E-03    -87.1862E-06
            2319     4.37701E-03     11.4792E-03    -93.0666E+06    -166.643E+06    -47.1889E+06     1.23762E+06    -216.142E-03     426.477E-03    -210.335E-03     387.959E-06    -216.317E-03     425.867E-03    -210.195E-03    -1.24562E-03
            2320     3.65131E-03     11.4506E-03    -100.627E+06    -186.665E+06    -63.7601E+06     1.15425E+06    -213.483E-03     422.778E-03    -209.296E-03    -504.080E-06    -213.636E-03     422.096E-03    -209.198E-03    -1.86669E-03
            2321     2.92364E-03     11.4273E-03    -107.628E+06    -206.014E+06    -80.5637E+06     934.637E+03    -211.166E-03     419.565E-03    -208.399E-03    -953.613E-06    -211.298E-03     418.816E-03    -208.347E-03    -2.04592E-03
            2322     2.19432E-03     11.4093E-03    -113.681E+06    -223.331E+06    -96.4658E+06     651.313E+03    -209.270E-03     416.936E-03    -207.666E-03    -1.04968E-03    -209.381E-03     416.128E-03    -207.659E-03    -1.87253E-03
            2323     1.46367E-03     11.3965E-03    -118.389E+06    -237.552E+06    -109.884E+06     379.772E+03    -207.856E-03     414.971E-03    -207.114E-03    -878.123E-06    -207.947E-03     414.115E-03    -207.148E-03    -1.43368E-03
            2324     732.094E-06     11.3886E-03    -121.432E+06    -247.231E+06    -119.007E+06     156.857E+03    -206.965E-03     413.722E-03    -206.757E-03    -550.293E-06    -207.043E-03     412.834E-03    -206.817E-03    -853.226E-06
            2325     13.6776E-03     10.7478E-03    -5.42017E+06     94.3787E+06     101.698E+06    -135.735E+03    -233.561E-03     457.220E-03    -223.659E-03     32.0722E-03    -234.084E-03     457.764E-03    -223.280E-03     26.8283E-03
            2326     12.9658E-03     10.6889E-03    -11.1280E+06     82.3732E+06     95.4528E+06    -628.882E+03    -235.701E-03     458.714E-03    -223.013E-03     38.6743E-03    -236.293E-03     459.282E-03    -222.640E-03     32.8127E-03
            2327     12.2556E-03     10.6220E-03    -16.9437E+06     70.4729E+06     84.8821E+06    -1.15237E+06    -237.440E-03     459.599E-03    -222.159E-03     37.6906E-03    -238.007E-03     460.110E-03    -221.812E-03     32.2409E-03
            2328     11.5463E-03     10.5514E-03    -22.6951E+06     65.5806E+06     74.7231E+06    -1.47147E+06    -238.374E-03     459.480E-03    -221.106E-03     34.3690E-03    -238.925E-03     459.967E-03    -220.794E-03     29.1844E-03
            2329     10.8376E-03     10.4804E-03    -28.4453E+06     57.8175E+06     62.7600E+06    -1.45814E+06    -238.486E-03     458.356E-03    -219.870E-03     29.5888E-03    -239.005E-03     458.798E-03    -219.599E-03     24.7394E-03
            2330     10.1290E-03     10.4110E-03    -34.7069E+06     47.5978E+06     54.1175E+06    -1.19999E+06    -237.710E-03     456.209E-03    -218.500E-03     24.3393E-03    -238.203E-03     456.592E-03    -218.248E-03     19.8088E-03
            2331     9.41962E-03     10.3450E-03    -41.5641E+06     19.6428E+06     44.3470E+06    -610.899E+03    -236.091E-03     453.117E-03    -217.026E-03     19.0969E-03    -236.536E-03     453.356E-03    -216.772E-03     14.8703E-03
            2332     8.70890E-03     10.2836E-03    -48.4830E+06    -19.8437E+06     31.7606E+06     68.8666E+03    -233.732E-03     449.201E-03    -215.469E-03     14.2763E-03    -234.110E-03     449.245E-03    -215.211E-03     10.3557E-03
            2333     7.99638E-03     10.2275E-03    -55.4611E+06    -51.7930E+06     19.9576E+06     560.632E+03    -230.727E-03     444.591E-03    -213.864E-03     10.1475E-03    -231.055E-03     444.481E-03    -213.609E-03     6.53399E-03
            2334     7.28149E-03     10.1771E-03    -62.7225E+06    -78.0730E+06     8.24834E+06     975.754E+03    -227.271E-03     439.526E-03    -212.255E-03     6.84676E-03    -227.560E-03     439.292E-03    -212.010E-03     3.54885E-03
            2335     6.56397E-03     10.1327E-03    -70.2298E+06    -101.904E+06    -3.93479E+06     1.26162E+06    -223.578E-03     434.265E-03    -210.687E-03     4.38959E-03    -223.836E-03     433.924E-03    -210.457E-03     1.41672E-03
            2336     5.84364E-03     10.0941E-03     -77.928E+06    -123.857E+06    -16.8055E+06     1.36443E+06    -219.851E-03     429.046E-03    -209.195E-03     2.68944E-03    -220.084E-03     428.611E-03    -208.986E-03     50.0917E-06
            2337     5.12048E-03     10.0610E-03    -85.7114E+06    -144.797E+06    -30.6410E+06     1.27896E+06    -216.258E-03     424.068E-03    -207.810E-03     1.59626E-03    -216.468E-03     423.548E-03    -207.629E-03    -704.426E-06
            2338     4.39465E-03     10.0333E-03    -93.4432E+06    -165.347E+06    -45.5821E+06     1.00375E+06    -212.933E-03     419.488E-03    -206.555E-03     950.568E-06    -213.120E-03     418.889E-03    -206.408E-03    -1.01055E-03
            2339     3.66635E-03     10.0105E-03    -100.942E+06    -185.230E+06    -61.6065E+06     563.673E+03    -209.973E-03     415.422E-03    -205.449E-03     603.834E-06    -210.138E-03     414.750E-03    -205.342E-03    -1.02048E-03
            2340     2.93590E-03     9.99230E-03    -107.942E+06    -204.672E+06    -78.3494E+06     50.0528E+03    -207.455E-03     411.963E-03    -204.508E-03     429.966E-06    -207.597E-03     411.221E-03    -204.446E-03    -863.273E-06
            2341     2.20363E-03     9.97846E-03    -114.103E+06    -222.450E+06    -94.8511E+06    -383.953E+03    -205.433E-03     409.179E-03    -203.745E-03     332.284E-06    -205.551E-03     408.376E-03    -203.732E-03    -636.500E-06
            2342     1.46992E-03     9.96871E-03    -118.995E+06    -237.339E+06    -109.287E+06    -546.332E+03    -203.949E-03     407.124E-03    -203.175E-03     242.545E-06    -204.045E-03     406.271E-03    -203.205E-03    -408.831E-06
            2343     735.236E-06     9.96283E-03    -122.263E+06    -247.576E+06    -119.312E+06    -404.381E+03    -203.021E-03     405.832E-03    -202.811E-03     135.195E-06    -203.101E-03     404.945E-03    -202.871E-03    -218.025E-06
            2344     13.6809E-03     9.24648E-03    -5.37121E+06     95.2657E+06     102.062E+06    -202.547E+03    -238.503E-03     461.910E-03    -223.407E-03     32.7768E-03    -239.044E-03     462.474E-03    -223.027E-03     27.2295E-03
            2345     12.9727E-03     9.18561E-03    -10.9562E+06     83.6406E+06     95.8924E+06    -740.467E+03    -240.850E-03     463.319E-03    -222.469E-03     38.3764E-03    -241.465E-03     463.915E-03    -222.095E-03     32.0990E-03
            2346     12.2661E-03     9.11775E-03    -16.6566E+06     71.1126E+06     84.8763E+06    -1.28652E+06    -242.554E-03     463.834E-03    -221.280E-03     35.9045E-03    -243.140E-03     464.367E-03    -220.934E-03     29.9556E-03
            2347     11.5607E-03     9.04784E-03    -22.5584E+06     65.2881E+06     73.9255E+06    -1.35827E+06    -243.083E-03     462.945E-03    -219.862E-03     31.3045E-03    -243.651E-03     463.451E-03    -219.554E-03     25.5349E-03
            2348     10.8555E-03     8.97932E-03    -28.9091E+06     56.6429E+06     61.2440E+06    -786.732E+03    -242.382E-03     460.636E-03    -218.254E-03     25.7459E-03    -242.919E-03     461.095E-03    -217.988E-03     20.2520E-03
            2349     10.1494E-03     8.91413E-03    -35.4947E+06     47.2795E+06     52.6695E+06    -155.920E+03    -240.445E-03     456.975E-03    -216.530E-03     20.2463E-03    -240.957E-03     457.377E-03    -216.284E-03     15.0524E-03
            2350     9.44178E-03     8.85393E-03    -42.1056E+06     19.9412E+06     43.5709E+06     145.689E+03    -237.518E-03     452.266E-03    -214.748E-03     15.3840E-03    -237.981E-03     452.524E-03    -214.498E-03     10.5079E-03
            2351     8.73195E-03     8.79960E-03    -48.8673E+06    -19.8502E+06     31.6155E+06     667.064E+03    -233.851E-03     446.796E-03    -212.945E-03     11.5236E-03    -234.246E-03     446.856E-03    -212.687E-03     7.00552E-03
            2352     8.01918E-03     8.75147E-03    -55.9055E+06    -51.3644E+06     20.3680E+06     1.24579E+06    -229.649E-03     440.814E-03    -211.165E-03     8.77178E-03    -229.994E-03     440.720E-03    -210.908E-03     4.64473E-03
            2353     7.30319E-03     8.70962E-03    -63.1462E+06    -77.1834E+06     9.55142E+06     1.37522E+06    -225.227E-03     434.686E-03    -209.459E-03     7.03673E-03    -225.536E-03     434.470E-03    -209.208E-03     3.32226E-03
            2354     6.58380E-03     8.67371E-03    -70.4682E+06    -100.824E+06    -1.57208E+06     1.20942E+06    -220.860E-03     428.726E-03    -207.866E-03     6.07687E-03    -221.138E-03     428.401E-03    -207.626E-03     2.78728E-03
            2355     5.86111E-03     8.64331E-03    -77.8172E+06    -122.423E+06    -13.3079E+06     798.717E+03    -216.737E-03     423.147E-03    -206.410E-03     5.61919E-03    -216.989E-03     422.726E-03    -206.186E-03     2.75644E-03
            2356     5.13537E-03     8.61790E-03    -85.1885E+06    -143.254E+06    -26.1316E+06     143.257E+03    -212.989E-03     418.096E-03    -205.107E-03     5.41517E-03    -213.215E-03     417.587E-03    -204.906E-03     2.97065E-03
            2357     4.40687E-03     8.59700E-03    -92.5333E+06    -163.762E+06    -40.4424E+06       -651.E+03    -209.697E-03     413.662E-03    -203.965E-03     5.25551E-03    -209.898E-03     413.070E-03    -203.795E-03     3.21332E-03
            2358     3.67600E-03     8.58014E-03    -99.7503E+06    -184.046E+06    -56.5963E+06    -1.43622E+06    -206.905E-03     409.892E-03    -202.987E-03     4.98127E-03    -207.079E-03     409.223E-03    -202.859E-03     3.32121E-03
            2359     2.94312E-03     8.56694E-03    -106.675E+06    -204.235E+06    -74.2938E+06    -1.95129E+06    -204.638E-03     406.814E-03    -202.176E-03     4.48310E-03    -204.783E-03     406.071E-03    -202.096E-03     3.18423E-03
            2360     2.20868E-03     8.55703E-03    -112.979E+06    -223.106E+06    -92.1648E+06    -2.04890E+06    -202.898E-03     404.431E-03    -201.533E-03     3.70976E-03    -203.015E-03     403.622E-03    -201.507E-03     2.75180E-03
            2361     1.47308E-03     8.55016E-03    -118.161E+06    -239.145E+06    -107.812E+06    -1.69581E+06    -201.672E-03     402.735E-03    -201.063E-03     2.67710E-03    -201.764E-03     401.871E-03    -201.084E-03     2.04092E-03
            2362     736.734E-06     8.54604E-03    -121.700E+06    -250.199E+06    -118.580E+06    -1.02708E+06    -200.911E-03     401.697E-03    -200.786E-03     1.51169E-03    -200.986E-03     400.796E-03    -200.840E-03     1.16973E-03
            2363     13.6848E-03     7.73767E-03    -5.36756E+06     95.9950E+06     102.675E+06    -402.317E+03    -244.429E-03     467.548E-03    -223.119E-03     33.4398E-03    -244.991E-03     468.134E-03    -222.737E-03     27.5398E-03
            2364     12.9808E-03     7.67463E-03    -10.9660E+06     84.5356E+06     96.4012E+06    -761.321E+03    -246.773E-03     468.612E-03    -221.839E-03     37.7068E-03    -247.416E-03     469.237E-03    -221.464E-03     30.9027E-03
            2365     12.2787E-03     7.60656E-03    -16.8791E+06     71.3694E+06     84.3556E+06    -962.081E+03    -247.962E-03     468.240E-03    -220.279E-03     33.5795E-03    -248.574E-03     468.802E-03    -219.936E-03     27.0026E-03
            2366     11.5769E-03     7.53889E-03    -23.0102E+06     64.1237E+06     72.6022E+06    -552.174E+03    -247.418E-03     465.912E-03    -218.494E-03     27.9574E-03    -248.007E-03     466.438E-03    -218.191E-03     21.5197E-03
            2367     10.8745E-03     7.47492E-03    -29.0123E+06     55.3784E+06     61.3015E+06     133.068E+03    -245.176E-03     461.743E-03    -216.567E-03     22.1827E-03    -245.732E-03     462.216E-03    -216.299E-03     16.0108E-03
            2368     10.1703E-03     7.41664E-03    -35.0111E+06     47.4339E+06     54.5853E+06     403.656E+03    -241.430E-03     456.028E-03    -214.599E-03     17.4474E-03    -241.961E-03     456.446E-03    -214.344E-03     11.6475E-03
            2369     9.46303E-03     7.36499E-03    -41.5994E+06     20.4984E+06     46.0092E+06     810.036E+03    -236.767E-03     449.436E-03    -212.669E-03     14.2100E-03    -237.249E-03     449.710E-03    -212.408E-03     8.86689E-03
            2370     8.75209E-03     7.32022E-03    -48.6820E+06    -19.2022E+06     34.9240E+06     1.19984E+06    -231.689E-03     442.520E-03    -210.831E-03     12.4169E-03    -232.105E-03     442.595E-03    -210.558E-03     7.59056E-03
            2371     8.03725E-03     7.28212E-03    -55.6094E+06    -49.9265E+06     25.1420E+06     841.632E+03    -226.537E-03     435.657E-03    -209.120E-03     11.7311E-03    -226.905E-03     435.578E-03    -208.841E-03     7.44600E-03
            2372     7.31838E-03     7.24998E-03    -62.1639E+06    -75.4470E+06     15.6302E+06     58.6590E+03    -221.641E-03     429.207E-03    -207.566E-03     11.6792E-03    -221.970E-03     429.003E-03    -207.289E-03     7.93738E-03
            2373     6.59587E-03     7.22312E-03    -68.5506E+06    -98.9826E+06     5.73093E+06    -962.496E+03    -217.200E-03     423.386E-03    -206.187E-03     11.8583E-03    -217.493E-03     423.068E-03    -205.915E-03     8.63959E-03
            2374     5.87013E-03     7.20085E-03    -74.8814E+06    -120.538E+06    -5.31371E+06    -2.19903E+06    -213.303E-03     418.285E-03    -204.981E-03     11.9737E-03    -213.563E-03     417.867E-03    -204.725E-03     9.24523E-03
            2375     5.14158E-03     7.18255E-03    -81.1738E+06    -141.815E+06    -18.4300E+06    -3.41714E+06    -209.993E-03     413.937E-03    -203.944E-03     11.8117E-03    -210.219E-03     413.425E-03    -203.713E-03     9.53339E-03
            2376     4.41073E-03     7.16767E-03    -87.5036E+06    -163.170E+06    -34.1094E+06    -4.30395E+06    -207.263E-03     410.329E-03    -203.066E-03     11.2472E-03    -207.453E-03     409.728E-03    -202.873E-03     9.37941E-03
            2377     3.67802E-03     7.15580E-03    -93.9477E+06    -184.870E+06    -52.0427E+06    -4.51271E+06    -205.087E-03     407.423E-03    -202.337E-03     10.2248E-03    -205.240E-03     406.738E-03    -202.192E-03     8.73204E-03
            2378     2.94390E-03     7.14652E-03    -100.403E+06    -206.388E+06    -70.9116E+06    -3.97169E+06    -203.418E-03     405.166E-03    -201.749E-03     8.75665E-03    -203.535E-03     404.400E-03    -201.659E-03     7.60784E-03
            2379     2.20874E-03     7.13958E-03    -106.493E+06    -226.217E+06    -88.6982E+06    -2.93229E+06    -202.197E-03     403.494E-03    -201.296E-03     6.91336E-03    -202.283E-03     402.655E-03    -201.258E-03     6.08009E-03
            2380     1.47287E-03     7.13475E-03    -111.619E+06    -242.603E+06    -103.226E+06    -1.79355E+06    -201.369E-03     402.343E-03    -200.974E-03     4.80680E-03    -201.430E-03     401.446E-03    -200.977E-03     4.26189E-03
            2381     736.556E-06     7.13188E-03    -115.179E+06    -253.731E+06    -112.879E+06    -863.974E+03    -200.836E-03     401.656E-03    -200.820E-03     2.65180E-03    -200.882E-03     400.719E-03    -200.850E-03     2.36231E-03
            2382     13.6891E-03     6.21949E-03    -5.45995E+06     96.5398E+06     102.939E+06    -447.558E+03    -251.207E-03     474.015E-03    -222.808E-03     34.4775E-03    -251.792E-03     474.624E-03    -222.425E-03     28.1947E-03
            2383     12.9903E-03     6.15463E-03    -11.1542E+06     84.5673E+06     96.8251E+06    -798.790E+03    -253.221E-03     474.374E-03    -221.153E-03     37.2910E-03    -253.900E-03     475.033E-03    -220.776E-03     29.8722E-03
            2384     12.2924E-03     6.08858E-03    -16.7227E+06     70.9000E+06     85.7625E+06    -703.194E+03    -252.952E-03     472.181E-03    -219.229E-03     31.4226E-03    -253.597E-03     472.770E-03    -218.879E-03     24.1336E-03
            2385     11.5938E-03     6.02566E-03    -22.0495E+06     62.9895E+06     75.5512E+06    -367.583E+03    -250.087E-03     467.241E-03    -217.154E-03     25.4102E-03    -250.697E-03     467.779E-03    -216.836E-03     18.3591E-03
            2386     10.8931E-03     5.96982E-03    -27.5517E+06     55.0060E+06     65.2126E+06     110.574E+03    -245.257E-03     460.314E-03    -215.056E-03     20.8845E-03    -245.827E-03     460.793E-03    -214.770E-03     14.3037E-03
            2387     10.1881E-03     5.92207E-03    -33.9349E+06     47.4018E+06     60.1104E+06     695.238E+03    -239.316E-03     452.387E-03    -213.071E-03     18.5520E-03    -239.862E-03     452.807E-03    -212.790E-03     12.6050E-03
            2388     9.47849E-03     5.88195E-03    -40.8477E+06     22.0293E+06     53.5098E+06     651.909E+03    -233.177E-03     444.440E-03    -211.263E-03     17.9055E-03    -233.677E-03     444.718E-03    -210.968E-03     12.6697E-03
            2389     8.76409E-03     5.84867E-03    -46.9791E+06    -16.2736E+06     43.4285E+06    -818.749E+03    -227.412E-03     437.061E-03    -209.649E-03     18.1560E-03    -227.842E-03     437.141E-03    -209.340E-03     13.6185E-03
            2390     8.04524E-03     5.82110E-03    -52.1925E+06    -47.5542E+06     34.3762E+06    -2.61285E+06    -222.235E-03     430.469E-03    -208.234E-03     18.6362E-03    -222.606E-03     430.387E-03    -207.918E-03     14.7518E-03
            2391     7.32271E-03     5.79831E-03    -57.2159E+06    -73.0094E+06     24.7881E+06    -4.33412E+06    -217.752E-03     424.761E-03    -207.009E-03     18.9279E-03    -218.073E-03     424.548E-03    -206.696E-03     15.6379E-03
            2392     6.59703E-03     5.77949E-03    -62.0836E+06    -96.8090E+06     13.3265E+06    -6.27278E+06    -213.990E-03     419.950E-03    -205.960E-03     18.8029E-03    -214.262E-03     419.620E-03    -205.663E-03     16.0324E-03
            2393     5.86879E-03     5.76397E-03    -66.7593E+06    -119.602E+06    -515.880E+03    -7.84277E+06    -210.909E-03     415.978E-03    -205.070E-03     18.1516E-03    -211.132E-03     415.542E-03    -204.802E-03     15.8341E-03
            2394     5.13857E-03     5.75119E-03    -71.6132E+06    -142.743E+06    -16.8191E+06    -8.40533E+06    -208.441E-03     412.763E-03    -204.321E-03     16.9598E-03    -208.616E-03     412.225E-03    -204.094E-03     15.0429E-03
            2395     4.40677E-03     5.74076E-03    -76.9683E+06    -166.106E+06    -34.6383E+06     -7.7435E+06    -206.507E-03     410.207E-03    -203.700E-03     15.2759E-03    -206.636E-03     409.573E-03    -203.521E-03     13.7184E-03
            2396     3.67383E-03     5.73233E-03    -82.7588E+06    -189.543E+06    -52.5689E+06    -6.04173E+06    -205.023E-03     408.219E-03    -203.196E-03     13.1906E-03    -205.110E-03     407.491E-03    -203.064E-03     11.9595E-03
            2397     2.94000E-03     5.72570E-03    -88.5522E+06    -211.628E+06    -69.0788E+06    -3.79818E+06    -203.910E-03     406.709E-03    -202.799E-03     10.8139E-03    -203.961E-03     405.895E-03    -202.709E-03     9.87999E-03
            2398     2.20553E-03     5.72069E-03    -93.7726E+06    -230.850E+06    -82.8720E+06    -1.68016E+06    -203.104E-03     405.603E-03    -202.499E-03     8.25122E-03    -203.127E-03     404.714E-03    -202.443E-03     7.58554E-03
            2399     1.47061E-03     5.71719E-03    -97.9490E+06    -245.632E+06    -93.1438E+06    -190.139E+03    -202.556E-03     404.845E-03    -202.289E-03     5.59933E-03    -202.559E-03     403.898E-03    -202.257E-03     5.17309E-03
            2400     735.375E-06     5.71510E-03    -100.750E+06    -254.887E+06    -99.6012E+06     402.161E+03    -202.161E-03     404.393E-03    -202.232E-03     3.04284E-03    -202.152E-03     403.410E-03    -202.215E-03     2.82177E-03
            2401     13.6931E-03     4.69015E-03    -5.50594E+06     97.3191E+06     102.498E+06    -293.166E+03    -258.468E-03     481.036E-03    -222.568E-03     37.9755E-03    -259.087E-03     481.684E-03    -222.189E-03     31.3746E-03
            2402     12.9993E-03     4.62518E-03    -10.5555E+06     85.2869E+06     97.9563E+06    -1.52547E+06    -259.194E-03     479.749E-03    -220.555E-03     38.4954E-03    -259.917E-03     480.455E-03    -220.174E-03     30.4941E-03
            2403     12.3055E-03     4.56432E-03    -15.1947E+06     70.2366E+06     90.2744E+06    -1.94343E+06    -255.771E-03     474.140E-03    -218.368E-03     31.5648E-03    -256.441E-03     474.744E-03    -217.997E-03     23.8434E-03
            2404     11.6083E-03     4.51203E-03    -20.4592E+06     62.1851E+06     81.6876E+06    -1.25195E+06    -249.269E-03     465.467E-03    -216.197E-03     26.8426E-03    -249.883E-03     465.994E-03    -215.849E-03     19.8114E-03
            2405     10.9052E-03     4.46953E-03    -26.6425E+06     54.8366E+06     69.6003E+06    -373.743E+03    -241.744E-03     455.927E-03    -214.183E-03     24.9273E-03    -242.306E-03     456.388E-03    -213.875E-03     18.8360E-03
            2406     10.1962E-03     4.43536E-03    -32.4749E+06     49.2255E+06     64.8928E+06    -1.01671E+06    -234.605E-03     447.041E-03    -212.437E-03     24.7291E-03    -235.135E-03     447.444E-03    -212.137E-03     19.5656E-03
            2407     9.48178E-03     4.40781E-03    -37.0468E+06     25.7839E+06     59.4569E+06    -3.38767E+06    -228.412E-03     439.365E-03    -210.953E-03     24.9430E-03    -228.886E-03     439.627E-03    -210.639E-03     20.6066E-03
            2408     8.76299E-03     4.38525E-03    -41.1539E+06    -12.8188E+06     47.2493E+06    -5.79279E+06    -223.251E-03     432.930E-03    -209.679E-03     24.9108E-03    -223.638E-03     432.989E-03    -209.365E-03     21.2831E-03
            2409     8.04092E-03     4.36671E-03    -45.4233E+06    -44.5129E+06     34.1064E+06    -8.21984E+06    -218.982E-03     427.571E-03    -208.589E-03     24.3995E-03    -219.299E-03     427.469E-03    -208.288E-03     21.3610E-03
            2410     7.31600E-03     4.35137E-03    -49.1692E+06    -70.8927E+06     19.9348E+06    -10.7311E+06    -215.511E-03     423.168E-03    -207.657E-03     23.3600E-03    -215.764E-03     422.937E-03    -207.383E-03     20.8014E-03
            2411     6.58895E-03     4.33858E-03    -52.6004E+06    -96.6814E+06     4.59374E+06    -12.2163E+06    -212.723E-03     419.589E-03    -206.867E-03     21.8283E-03    -212.915E-03     419.239E-03    -206.627E-03     19.6721E-03
            2412     5.86024E-03     4.32790E-03    -56.6720E+06    -122.626E+06    -11.7616E+06    -11.9978E+06    -210.501E-03     416.700E-03    -206.199E-03     19.8973E-03    -210.637E-03     416.234E-03    -205.998E-03     18.0933E-03
            2413     5.13015E-03     4.31900E-03    -61.6361E+06    -148.347E+06    -28.0090E+06    -10.1246E+06    -208.740E-03     414.381E-03    -205.641E-03     17.6741E-03    -208.827E-03     413.804E-03    -205.476E-03     16.1882E-03
            2414     4.39904E-03     4.31161E-03    -67.0823E+06    -173.343E+06    -43.1256E+06    -7.24100E+06    -207.350E-03     412.530E-03    -205.180E-03     15.2651E-03    -207.396E-03     411.847E-03    -205.047E-03     14.0687E-03
            2415     3.66706E-03     4.30560E-03    -72.3953E+06    -196.916E+06    -56.1949E+06    -4.04521E+06    -206.260E-03     411.068E-03    -204.808E-03     12.7562E-03    -206.271E-03     410.286E-03    -204.699E-03     11.8225E-03
            2416     2.93441E-03     4.30082E-03    -77.0408E+06    -217.670E+06    -66.8699E+06    -1.23567E+06    -205.419E-03     409.935E-03    -204.516E-03     10.2070E-03    -205.402E-03     409.066E-03    -204.423E-03     9.50871E-03
            2417     2.20125E-03     4.29721E-03    -80.7563E+06    -234.548E+06    -74.9786E+06     827.926E+03    -204.794E-03     409.089E-03    -204.295E-03     7.65447E-03    -204.755E-03     408.148E-03    -204.212E-03     7.16539E-03
            2418     1.46771E-03     4.29468E-03    -83.5155E+06    -246.000E+06    -80.7445E+06     1.82151E+06    -204.359E-03     408.496E-03    -204.137E-03     5.13272E-03    -204.306E-03     407.507E-03    -204.063E-03     4.82614E-03
            2419     733.924E-06     4.29317E-03    -85.2621E+06    -251.815E+06    -84.5179E+06     1.58610E+06    -203.996E-03     408.133E-03    -204.137E-03     2.76959E-03    -203.936E-03     407.121E-03    -204.071E-03     2.61354E-03
            2420     13.6935E-03     3.14780E-03    -6.09035E+06     96.7342E+06     103.710E+06     103.985E+03    -266.933E-03     489.679E-03    -222.747E-03     48.9741E-03    -267.617E-03     490.385E-03    -222.360E-03     42.1627E-03
            2421     13.0046E-03     3.08711E-03    -12.0825E+06     87.8809E+06     97.0313E+06    -763.456E+03    -263.713E-03     484.108E-03    -220.395E-03     42.8233E-03    -264.462E-03     484.847E-03    -220.020E-03     34.9333E-03
            2422     12.3114E-03     3.03911E-03    -18.7551E+06     75.0488E+06     84.6992E+06    -2.36838E+06    -254.867E-03     472.953E-03    -218.087E-03     34.9896E-03    -255.510E-03     473.553E-03    -217.745E-03     28.1845E-03
            2423     11.6107E-03     3.00460E-03    -24.5953E+06     62.9274E+06     75.8858E+06    -4.48133E+06    -245.530E-03     461.590E-03    -216.060E-03     31.8281E-03    -246.093E-03     462.071E-03    -215.736E-03     26.2382E-03
            2424     10.9028E-03     2.97815E-03    -27.7431E+06     53.9762E+06     64.7909E+06    -5.26834E+06    -237.525E-03     451.836E-03    -214.312E-03     30.1800E-03    -238.015E-03     452.233E-03    -214.026E-03     25.7054E-03
            2425     10.1894E-03     2.95685E-03    -29.8717E+06     51.7404E+06     50.9538E+06    -5.83400E+06    -230.933E-03     443.739E-03    -212.807E-03     28.6139E-03    -231.367E-03     444.105E-03    -212.583E-03     25.0108E-03
            2426     9.47216E-03     2.93957E-03    -33.5521E+06     28.4194E+06     35.4836E+06    -6.97191E+06    -225.708E-03     437.261E-03    -211.553E-03     26.8891E-03    -226.072E-03     437.505E-03    -211.369E-03     23.9530E-03
            2427     8.75199E-03     2.92553E-03    -38.1493E+06    -9.94361E+06     19.0978E+06    -8.92518E+06    -221.596E-03     432.099E-03    -210.504E-03     24.9935E-03    -221.879E-03     432.157E-03    -210.338E-03     22.5578E-03
            2428     8.02917E-03     2.91382E-03    -41.9005E+06    -40.7736E+06     4.87373E+06    -11.9503E+06    -218.262E-03     427.866E-03    -209.604E-03     22.9179E-03    -218.479E-03     427.776E-03    -209.460E-03     20.8508E-03
            2429     7.30445E-03     2.90398E-03    -45.3644E+06    -71.5063E+06    -9.18600E+06    -13.8247E+06    -215.554E-03     424.387E-03    -208.833E-03     20.7223E-03    -215.709E-03     424.154E-03    -208.709E-03     18.9535E-03
            2430     6.57805E-03     2.89572E-03    -49.6355E+06    -101.505E+06    -22.4806E+06     -12.853E+06    -213.343E-03     421.517E-03    -208.174E-03     18.4670E-03    -213.445E-03     421.148E-03    -208.067E-03     16.9735E-03
            2431     5.85023E-03     2.88874E-03    -54.6510E+06    -130.212E+06    -34.1074E+06    -10.1028E+06    -211.528E-03     419.145E-03    -207.617E-03     16.2093E-03    -211.589E-03     418.648E-03    -207.520E-03     14.9710E-03
            2432     5.12130E-03     2.88287E-03    -59.7235E+06    -156.956E+06    -44.0482E+06    -6.75550E+06    -210.036E-03     417.184E-03    -207.148E-03     13.9948E-03    -210.062E-03     416.569E-03    -207.054E-03     12.9876E-03
            2433     4.39135E-03     2.87800E-03    -64.2476E+06    -181.495E+06    -52.3399E+06    -3.49810E+06    -208.815E-03     415.573E-03    -206.758E-03     11.8424E-03    -208.810E-03     414.848E-03    -206.664E-03     11.0422E-03
            2434     3.66062E-03     2.87401E-03    -67.8896E+06    -203.306E+06    -59.0812E+06    -830.976E+03    -207.830E-03     414.269E-03    -206.439E-03     9.75525E-03    -207.798E-03     413.445E-03    -206.341E-03     9.13692E-03
            2435     2.92924E-03     2.87086E-03    -70.6462E+06    -221.809E+06    -64.3444E+06     1.16670E+06    -207.055E-03     413.240E-03    -206.185E-03     7.72709E-03    -206.999E-03     412.332E-03    -206.083E-03     7.26933E-03
            2436     2.19735E-03     2.86846E-03    -72.7440E+06    -235.808E+06    -68.4100E+06     2.43948E+06    -206.470E-03     412.460E-03    -205.989E-03     5.75228E-03    -206.396E-03     411.489E-03    -205.884E-03     5.43628E-03
            2437     1.46511E-03     2.86678E-03    -74.2925E+06    -243.421E+06    -71.8385E+06     2.64981E+06    -206.057E-03     411.900E-03    -205.843E-03     3.83874E-03    -205.973E-03     410.896E-03    -205.742E-03     3.64291E-03
            2438     732.618E-06     2.86578E-03    -75.2493E+06    -246.166E+06    -74.5432E+06     1.77202E+06    -205.677E-03     411.551E-03    -205.874E-03     2.06808E-03    -205.589E-03     410.538E-03    -205.781E-03     1.96763E-03
            2439     13.6800E-03     1.58382E-03    -4.69480E+06     96.4822E+06     108.085E+06     822.642E+03    -281.328E-03     505.069E-03    -223.741E-03     54.9514E-03    -281.961E-03     505.715E-03    -223.333E-03     49.2626E-03
            2440     12.9972E-03     1.54307E-03    -11.1840E+06     91.6350E+06     99.1347E+06     724.117E+03    -266.766E-03     487.741E-03    -220.975E-03     38.9370E-03    -267.351E-03     488.327E-03    -220.596E-03     33.7647E-03
            2441     12.3021E-03     1.52101E-03    -18.2464E+06     83.3986E+06     76.6166E+06    -866.723E+03    -253.594E-03     472.193E-03    -218.599E-03     30.9110E-03    -254.072E-03     472.683E-03    -218.310E-03     27.0886E-03
            2442     11.5977E-03     1.50345E-03    -24.1616E+06     69.1963E+06     50.5645E+06    -5.48253E+06    -243.757E-03     460.378E-03    -216.621E-03     26.5089E-03    -244.156E-03     460.792E-03    -216.433E-03     23.5736E-03
            2443     10.8889E-03     1.49009E-03    -28.6696E+06     54.6697E+06     28.4941E+06    -9.07697E+06    -236.380E-03     451.352E-03    -214.971E-03     22.9577E-03    -236.716E-03     451.698E-03    -214.867E-03     20.6412E-03
            2444     10.1764E-03     1.47975E-03    -32.8763E+06     45.7532E+06     8.61819E+06    -7.31888E+06    -230.546E-03     444.109E-03    -213.564E-03     20.0786E-03    -230.839E-03     444.425E-03    -213.539E-03     18.2502E-03
            2445     9.45988E-03     1.47132E-03    -37.4950E+06     27.4748E+06    -11.0362E+06    -4.17041E+06    -225.888E-03     438.255E-03    -212.366E-03     17.5439E-03    -226.136E-03     438.499E-03    -212.407E-03     16.1046E-03
            2446     8.74041E-03     1.46413E-03    -41.8428E+06    -3.45451E+06    -27.3707E+06    -6.53854E+06    -222.165E-03     433.527E-03    -211.362E-03     15.3879E-03    -222.356E-03     433.637E-03    -211.433E-03     14.1659E-03
            2447     8.01883E-03     1.45821E-03    -45.7325E+06    -39.0405E+06    -36.3605E+06    -9.76264E+06    -219.116E-03     429.647E-03    -210.532E-03     13.5304E-03    -219.255E-03     429.591E-03    -210.591E-03     12.4530E-03
            2448     7.29511E-03     1.45329E-03    -50.2810E+06    -75.8861E+06    -42.2466E+06    -9.23357E+06    -216.585E-03     426.418E-03    -209.832E-03     11.8555E-03    -216.681E-03     426.188E-03    -209.861E-03     10.9373E-03
            2449     6.56972E-03     1.44912E-03    -55.2781E+06    -108.666E+06    -47.3166E+06    -7.08007E+06    -214.470E-03     423.700E-03    -209.230E-03     10.3246E-03    -214.532E-03     423.316E-03    -209.228E-03     9.56173E-03
            2450     5.84295E-03     1.44561E-03    -59.6106E+06    -137.848E+06    -51.3693E+06    -4.70479E+06    -212.698E-03     421.411E-03    -208.713E-03     8.92007E-03    -212.730E-03     420.891E-03    -208.683E-03     8.29598E-03
            2451     5.11494E-03     1.44266E-03    -62.9219E+06    -163.839E+06    -54.9123E+06    -2.50524E+06    -211.220E-03     419.492E-03    -208.272E-03     7.61747E-03    -211.224E-03     418.850E-03    -208.217E-03     7.11553E-03
            2452     4.38597E-03     1.44021E-03    -65.2886E+06    -186.770E+06    -57.8998E+06    -748.043E+03    -210.001E-03     417.901E-03    -207.901E-03     6.39625E-03    -209.976E-03     417.150E-03    -207.825E-03     5.99971E-03
            2453     3.65615E-03     1.43821E-03    -66.9294E+06    -206.697E+06    -60.4458E+06     526.961E+03    -209.012E-03     416.606E-03    -207.594E-03     5.23950E-03    -208.962E-03     415.760E-03    -207.500E-03     4.93396E-03
            2454     2.92568E-03     1.43662E-03    -68.1028E+06    -223.677E+06    -62.4816E+06     1.46484E+06    -208.233E-03     415.583E-03    -207.350E-03     4.13256E-03    -208.161E-03     414.656E-03    -207.239E-03     3.90782E-03
            2455     2.19471E-03     1.43541E-03    -68.9671E+06    -235.306E+06    -64.5959E+06     2.02299E+06    -207.643E-03     414.799E-03    -207.157E-03     3.06742E-03    -207.554E-03     413.817E-03    -207.038E-03     2.91427E-03
            2456     1.46334E-03     1.43457E-03    -69.5612E+06    -239.977E+06    -67.1783E+06     1.84008E+06    -207.222E-03     414.231E-03    -207.008E-03     2.04466E-03    -207.125E-03     413.230E-03    -206.895E-03     1.94954E-03
            2457     731.738E-06     1.43408E-03    -69.8491E+06    -241.172E+06    -69.2258E+06     1.12328E+06    -206.823E-03     413.882E-03    -207.059E-03     1.10152E-03    -206.722E-03     412.877E-03    -206.954E-03     1.05220E-03


