********************************************************************************
Field Output Report, written Tue May 28 22:56:59 2024

Source 1
---------

   ODB: G:/Abaqus_calc_2019/1740/Vel_10/odb/zeides_2a_8_red_2500_cal_75_vel_10_fric_0100.odb
   Step: Step-1
   Frame: Increment  19630170: Step Time =    1.857

Loc 1 : Nodal values from source 1

Output sorted by column "Nodal Label".

Field Output reported at nodes for region: DIE_2A_8_D0_36-1.Region_1
   Computation algorithm: EXTRAPOLATE_COMPUTE_AVERAGE
   Averaged at nodes
   Averaging regions: ODB_REGIONS

      Node Label     COORD.COOR1     COORD.COOR2
                          @Loc 1          @Loc 1
-------------------------------------------------
               1     14.4417E-03     215.621E-03


Field Output reported at nodes for region: DIE_2A_8_D0_36-1.Region_2
   Computation algorithm: EXTRAPOLATE_COMPUTE_AVERAGE
   Averaged at nodes
   Averaging regions: ODB_REGIONS

      Node Label     COORD.COOR1     COORD.COOR2
                          @Loc 1          @Loc 1
-------------------------------------------------
               1     14.4417E-03     215.621E-03


Field Output reported at nodes for part: WIRE-1
   Computation algorithm: EXTRAPOLATE_COMPUTE_AVERAGE
   Averaged at nodes
   Averaging regions: ODB_REGIONS

      Node Label     COORD.COOR1     COORD.COOR2           S.S11           S.S22           S.S33           S.S12         PE.PE11         PE.PE22         PE.PE33         PE.PE12         LE.LE11         LE.LE22         LE.LE33         LE.LE12
                          @Loc 1          @Loc 1          @Loc 1          @Loc 1          @Loc 1          @Loc 1          @Loc 1          @Loc 1          @Loc 1          @Loc 1          @Loc 1          @Loc 1          @Loc 1          @Loc 1
-------------------------------------------------------------------------------------------------------------------------------------------------------------------------------------------------------------------------------------------------
               1    -1.72166E-06     98.6995E-03    -80.7788E+06    -101.128E+06    -81.2047E+06     2.24421E+06    -295.537E-03     591.972E-03    -296.436E-03     3.53655E-03    -295.507E-03     591.757E-03    -296.578E-03     3.42431E-03
               2     13.3864E-03     100.283E-03    -7.18865E+06     30.5169E+06     65.9579E+06     4.72407E+06    -299.614E-03     595.969E-03    -296.355E-03     77.3754E-03    -300.028E-03     596.275E-03    -296.059E-03     72.5295E-03
               3     13.5015E-03     198.871E-03    -29.9447E+06     50.4600E+06     66.8155E+06    -23.5763E+06    -133.139E-03     424.657E-03    -291.518E-03     20.6548E-03    -133.407E-03     424.898E-03    -291.213E-03     20.8255E-03
               4    -11.3302E-06     196.470E-03     20.4791E+06    -25.2179E+06     4.33059E+06    -4.25113E+06    -342.167E-03     699.550E-03    -357.383E-03    -33.1219E-03    -342.251E-03     699.478E-03    -357.355E-03    -33.6634E-03
               5     2.23594E-06    -1.34615E-15    -8.46109E+06    -20.2329E+06    -3.35511E+06     713.430E+03    -258.810E-03     514.797E-03    -255.987E-03    -455.981E-06    -258.501E-03     514.595E-03    -255.962E-03    -601.727E-06
               6     13.2377E-03    -1.34615E-15    -9.07946E+06     15.8782E+06    -5.25935E+06    -10.0786E+06    -491.435E-03     791.215E-03    -299.780E-03     119.797E-03    -492.596E-03     792.432E-03    -299.816E-03     99.9755E-03
               7     670.156E-06     98.7076E-03    -80.5306E+06    -97.4027E+06    -79.4961E+06     3.10367E+06    -295.973E-03     592.217E-03    -296.244E-03     5.17573E-03    -296.009E-03     591.971E-03    -296.383E-03     5.10046E-03
               8     1.33872E-03     98.7203E-03    -77.5392E+06    -86.2165E+06    -72.1275E+06     5.45083E+06    -296.255E-03     592.349E-03    -296.095E-03     8.81679E-03    -296.375E-03     592.107E-03    -296.218E-03     8.72857E-03
               9     2.00856E-03     98.7410E-03    -77.4514E+06    -76.9663E+06    -65.9367E+06     5.93358E+06    -296.055E-03     592.179E-03    -296.125E-03     13.2630E-03    -296.216E-03     591.986E-03    -296.230E-03     13.0489E-03
              10     2.67740E-03     98.7692E-03    -77.2574E+06    -71.1462E+06    -60.4914E+06     4.55310E+06    -296.162E-03     592.285E-03    -296.124E-03     17.9468E-03    -296.345E-03     592.118E-03    -296.211E-03     17.5781E-03
              11     3.34630E-03     98.8050E-03    -72.2434E+06    -63.3154E+06    -49.4638E+06     4.70460E+06    -296.378E-03     592.547E-03    -296.169E-03     22.0076E-03    -296.571E-03     592.403E-03    -296.220E-03     21.4924E-03
              12     4.01534E-03     98.8498E-03    -67.9352E+06    -55.8812E+06    -37.5903E+06     3.14229E+06    -296.577E-03     592.818E-03    -296.241E-03     26.3316E-03    -296.787E-03     592.698E-03    -296.250E-03     25.5569E-03
              13     4.68349E-03     98.9043E-03    -64.3323E+06    -45.9115E+06    -27.0579E+06     1.21603E+06    -296.953E-03     593.276E-03    -296.323E-03     31.4298E-03    -297.189E-03     593.199E-03    -296.298E-03     30.3159E-03
              14     5.35337E-03     98.9696E-03    -61.6099E+06    -34.0430E+06    -17.5166E+06     432.040E+03    -297.217E-03     593.632E-03    -296.415E-03     35.1732E-03    -297.484E-03     593.611E-03    -296.364E-03     33.6247E-03
              15     6.02172E-03     99.0369E-03    -56.0703E+06    -24.3763E+06    -7.20812E+06     1.25988E+06    -297.323E-03     593.829E-03    -296.506E-03     39.8199E-03    -297.611E-03     593.853E-03    -296.425E-03     37.7747E-03
              16     6.68999E-03     99.1184E-03    -46.3411E+06    -14.2693E+06     4.80157E+06    -458.141E+03    -296.716E-03     593.261E-03    -296.545E-03     46.2609E-03    -297.016E-03     593.332E-03    -296.433E-03     43.6403E-03
              17     7.36117E-03     99.2038E-03    -40.8873E+06    -7.26444E+06     15.9252E+06    -1.35499E+06    -295.624E-03     592.120E-03    -296.496E-03     50.5360E-03    -295.954E-03     592.233E-03    -296.347E-03     47.2214E-03
              18     8.03223E-03     99.2951E-03    -38.7424E+06    -2.53675E+06     28.2558E+06     5.95393E+06    -295.922E-03     592.347E-03    -296.425E-03     55.7657E-03    -296.283E-03     592.480E-03    -296.224E-03     52.3719E-03
              19     8.70125E-03     99.4006E-03    -34.1073E+06     4.00338E+06     41.2469E+06     9.22869E+06    -296.851E-03     593.248E-03    -296.397E-03     61.5195E-03    -297.237E-03     593.407E-03    -296.147E-03     58.0826E-03
              20     9.37062E-03     99.5098E-03    -31.3898E+06     7.01328E+06     45.7049E+06     1.48216E+06    -296.915E-03     593.281E-03    -296.366E-03     65.9719E-03    -297.353E-03     593.500E-03    -296.102E-03     61.5179E-03
              21     10.0410E-03     99.6297E-03    -14.8044E+06     23.3117E+06     57.5579E+06    -1.37765E+06    -297.375E-03     593.718E-03    -296.343E-03     70.4395E-03    -297.815E-03     594.020E-03    -296.067E-03     65.3048E-03
              22     10.7122E-03     99.7550E-03    -8.78418E+06     28.3254E+06     59.0766E+06     2.70441E+06    -298.724E-03     595.069E-03    -296.345E-03     74.3513E-03    -299.174E-03     595.417E-03    -296.078E-03     68.8834E-03
              23     11.3755E-03     99.8816E-03    -13.0043E+06     24.3790E+06     55.5948E+06     1.43256E+06    -298.499E-03     594.870E-03    -296.370E-03     78.1328E-03    -298.989E-03     595.238E-03    -296.109E-03     72.2817E-03
              24     12.0493E-03     100.015E-03    -3.29517E+06     34.9318E+06     67.7727E+06    -1.69981E+06    -297.289E-03     593.670E-03    -296.381E-03     80.1235E-03    -297.764E-03     594.061E-03    -296.088E-03     74.2360E-03
              25     12.7204E-03     100.149E-03    -3.44686E+06     34.4143E+06     69.1004E+06     898.586E+03    -298.321E-03     594.680E-03    -296.359E-03     78.8738E-03    -298.760E-03     595.030E-03    -296.059E-03     73.4916E-03
              26     13.3852E-03     102.008E-03    -1.20447E+06     36.3811E+06     73.4553E+06     3.45665E+06    -297.329E-03     593.670E-03    -296.341E-03     80.2793E-03    -297.702E-03     593.955E-03    -296.025E-03     76.1617E-03
              27     13.3963E-03     103.706E-03    -4.30231E+06     33.8479E+06     69.3120E+06    -5.37860E+06    -294.293E-03     590.359E-03    -296.066E-03     82.5266E-03    -294.725E-03     590.695E-03    -295.762E-03     77.4799E-03
              28     13.3930E-03     105.415E-03    -1.02357E+06     40.5512E+06     75.2649E+06    -9.17774E+06    -296.901E-03     592.593E-03    -295.692E-03     81.9576E-03    -297.388E-03     593.002E-03    -295.373E-03     75.8937E-03
              29     13.4051E-03     107.134E-03    -2.85323E+06     37.6711E+06     72.0932E+06    -3.80387E+06    -295.237E-03     590.596E-03    -295.360E-03     82.3163E-03    -295.690E-03     590.964E-03    -295.050E-03     76.9946E-03
              30     13.4035E-03     108.837E-03    -1.93734E+06     41.4019E+06     77.5426E+06    -149.386E+03    -295.445E-03     590.606E-03    -295.162E-03     81.3734E-03    -295.858E-03     590.935E-03    -294.831E-03     76.9199E-03
              31     13.4058E-03     110.548E-03    -508.433E+03      46.312E+06     82.8240E+06     1.78429E+06    -298.249E-03     593.275E-03    -295.025E-03     77.8950E-03    -298.629E-03     593.578E-03    -294.678E-03     73.9047E-03
              32     13.4068E-03     112.257E-03    -2.60522E+06     44.5074E+06     79.9080E+06     687.673E+03    -297.456E-03     592.348E-03    -294.893E-03     75.6071E-03    -297.838E-03     592.648E-03    -294.554E-03     71.4329E-03
              33     13.4097E-03     113.968E-03    -1.59888E+06     46.1755E+06     80.3739E+06    -25.1827E+03    -296.923E-03     591.662E-03    -294.740E-03     77.2603E-03    -297.308E-03     591.973E-03    -294.402E-03     73.0097E-03
              34     13.4117E-03     115.681E-03    -2.09931E+06     46.6199E+06     81.0826E+06     233.905E+03    -296.748E-03     591.331E-03    -294.583E-03     78.2574E-03    -297.139E-03     591.646E-03    -294.242E-03     73.9804E-03
              35     13.4136E-03     117.388E-03    -2.36954E+06     47.9325E+06     82.5606E+06     625.312E+03    -296.523E-03     590.953E-03    -294.430E-03     79.0181E-03    -296.923E-03     591.276E-03    -294.084E-03     74.6788E-03
              36     13.4164E-03     119.096E-03    -2.12260E+06     49.6581E+06     83.1101E+06     333.268E+03    -296.192E-03     590.439E-03    -294.246E-03     78.8632E-03    -296.590E-03     590.765E-03    -293.900E-03     74.5323E-03
              37     13.4190E-03     120.805E-03    -2.20154E+06     49.9329E+06     83.0770E+06     111.145E+03    -295.431E-03     589.486E-03    -294.054E-03     80.0876E-03    -295.837E-03     589.821E-03    -293.708E-03     75.6365E-03
              38     13.4222E-03     122.510E-03    -2.07611E+06     51.2503E+06     84.2358E+06     479.436E+03    -295.218E-03     589.062E-03    -293.844E-03     81.6928E-03    -295.642E-03     589.417E-03    -293.494E-03     77.0619E-03
              39     13.4247E-03     124.217E-03    -2.25558E+06     53.8289E+06     85.7565E+06     761.275E+03    -295.519E-03     589.149E-03    -293.630E-03     81.7871E-03    -295.955E-03     589.521E-03    -293.276E-03     77.0671E-03
              40     13.4274E-03     125.921E-03    -2.38533E+06     55.9791E+06     86.8190E+06     380.995E+03    -295.431E-03     588.854E-03    -293.423E-03     81.1896E-03    -295.863E-03     589.225E-03    -293.066E-03     76.5541E-03
              41     13.4306E-03     127.624E-03    -2.24728E+06     56.4266E+06     87.2396E+06     100.627E+03    -294.864E-03     588.071E-03    -293.207E-03     79.7777E-03    -295.277E-03     588.425E-03    -292.849E-03     75.3392E-03
              42     13.4336E-03     129.327E-03    -2.09451E+06     57.6030E+06     87.9161E+06     530.849E+03    -294.337E-03     587.326E-03    -292.988E-03     79.1166E-03    -294.750E-03     587.681E-03    -292.629E-03     74.7537E-03
              43     13.4366E-03     131.028E-03    -2.24394E+06     60.7300E+06     89.0700E+06     976.309E+03    -294.735E-03     587.483E-03    -292.748E-03     78.5928E-03    -295.156E-03     587.854E-03    -292.388E-03     74.3017E-03
              44     13.4396E-03     132.730E-03    -2.45139E+06     64.3144E+06     90.4483E+06     723.698E+03    -295.102E-03     587.608E-03    -292.506E-03     77.6029E-03    -295.524E-03     587.988E-03    -292.144E-03     73.4460E-03
              45     13.4428E-03     134.436E-03    -2.26993E+06     66.3498E+06     91.4704E+06     385.625E+03    -294.545E-03     586.832E-03    -292.287E-03     78.4788E-03    -294.986E-03     587.235E-03    -291.923E-03     74.1965E-03
              46     13.4458E-03     136.136E-03    -2.37310E+06     67.6829E+06     92.5216E+06     409.347E+03    -294.191E-03     586.259E-03    -292.068E-03     80.0036E-03    -294.658E-03     586.690E-03    -291.700E-03     75.5215E-03
              47     13.4489E-03     137.839E-03    -2.42341E+06     68.9782E+06     93.7766E+06     445.423E+03    -293.806E-03     585.656E-03    -291.850E-03     79.9088E-03    -294.280E-03     586.094E-03    -291.477E-03     75.4556E-03
              48     13.4519E-03     139.535E-03    -2.26360E+06     71.4960E+06     95.2058E+06     806.435E+03    -293.606E-03     585.230E-03    -291.624E-03     79.0948E-03    -294.080E-03     585.674E-03    -291.248E-03     74.7469E-03
              49     13.4549E-03     141.235E-03    -2.47645E+06      75.486E+06     96.2506E+06     1.07508E+06    -293.619E-03     585.009E-03    -291.391E-03     77.4952E-03    -294.088E-03     585.459E-03    -291.015E-03     73.3232E-03
              50     13.4580E-03     142.932E-03    -2.67072E+06     78.5119E+06     96.8566E+06     527.454E+03    -293.216E-03     584.383E-03    -291.167E-03     76.6674E-03    -293.685E-03     584.840E-03    -290.792E-03     72.6015E-03
              51     13.4610E-03     144.629E-03    -2.21412E+06     81.1882E+06     98.2996E+06     815.481E+03    -293.125E-03     584.065E-03    -290.941E-03     77.3135E-03    -293.604E-03     584.540E-03    -290.564E-03     73.1975E-03
              52     13.4640E-03     146.330E-03    -2.86531E+06     83.7415E+06     99.8555E+06     532.789E+03    -293.299E-03     584.015E-03    -290.716E-03     79.2931E-03    -293.805E-03     584.520E-03    -290.334E-03     74.9666E-03
              53     13.4669E-03     148.027E-03    -2.31019E+06     85.3626E+06     101.388E+06     427.827E+03    -293.110E-03     583.615E-03    -290.505E-03     81.2968E-03    -293.637E-03     584.143E-03    -290.119E-03     76.7628E-03
              54     13.4699E-03     149.725E-03    -2.80806E+06     87.1235E+06     102.159E+06     565.920E+03    -292.414E-03     582.722E-03    -290.308E-03     82.4967E-03    -292.960E-03     583.271E-03    -289.919E-03     77.8270E-03
              55     13.4725E-03     151.418E-03    -2.27408E+06     90.2026E+06     102.986E+06     980.560E+03    -292.092E-03     582.190E-03    -290.098E-03     82.6836E-03    -292.641E-03     582.753E-03    -289.711E-03     78.0210E-03
              56     13.4757E-03     153.110E-03    -3.05067E+06     93.8770E+06     104.514E+06     964.885E+03    -292.466E-03     582.341E-03    -289.875E-03     82.4231E-03    -293.021E-03     582.916E-03    -289.484E-03     77.8200E-03
              57     13.4781E-03     154.810E-03    -2.81731E+06     95.6512E+06     108.042E+06     181.280E+03    -292.226E-03     581.920E-03    -289.693E-03     83.0155E-03    -292.793E-03     582.502E-03    -289.287E-03     78.3547E-03
              58     13.4808E-03     156.498E-03    -2.20715E+06     99.6325E+06     111.043E+06     1.59688E+06    -291.489E-03     581.018E-03    -289.529E-03     82.5923E-03    -292.058E-03     581.611E-03    -289.115E-03     78.0114E-03
              59     13.4830E-03     158.189E-03    -3.46968E+06     106.049E+06     111.088E+06     1.33495E+06    -291.651E-03     580.996E-03    -289.345E-03     82.3122E-03    -292.234E-03     581.621E-03    -288.938E-03     77.7378E-03
              60     13.4849E-03     159.885E-03    -2.74712E+06     109.073E+06     109.975E+06     309.455E+03    -292.073E-03     581.238E-03    -289.165E-03     83.2077E-03    -292.660E-03     581.883E-03    -288.769E-03     78.5814E-03
              61     13.4873E-03     161.574E-03    -2.53200E+06     112.266E+06     111.068E+06     1.25979E+06    -292.391E-03     581.376E-03    -288.985E-03     83.0816E-03    -292.975E-03     582.027E-03    -288.589E-03     78.6012E-03
              62     13.4897E-03     163.268E-03    -3.02542E+06     118.015E+06     113.716E+06     1.46886E+06    -292.410E-03     581.222E-03    -288.812E-03     81.9592E-03    -292.994E-03     581.884E-03    -288.410E-03     77.6830E-03
              63     13.4918E-03     164.960E-03    -2.82903E+06     124.272E+06     115.415E+06     1.44908E+06    -292.202E-03     580.857E-03    -288.655E-03     83.6678E-03    -292.807E-03     581.559E-03    -288.254E-03     79.2723E-03
              64     13.4938E-03     166.655E-03    -3.23703E+06     130.144E+06     117.878E+06     1.21549E+06    -292.312E-03     580.821E-03    -288.509E-03     84.9641E-03    -292.937E-03     581.555E-03    -288.104E-03     80.5407E-03
              65     13.4956E-03     168.344E-03     -2.9966E+06     134.654E+06     122.075E+06     1.08783E+06    -293.161E-03     581.514E-03    -288.352E-03     84.4308E-03    -293.780E-03     582.246E-03    -287.933E-03     80.2290E-03
              66     13.4978E-03     170.036E-03    -3.63934E+06     136.960E+06     126.085E+06     359.130E+03    -295.076E-03     583.255E-03    -288.179E-03     82.7582E-03    -295.682E-03     583.968E-03    -287.742E-03     78.8975E-03
              67     13.4989E-03     171.735E-03    -2.96171E+06     137.847E+06     129.319E+06     241.545E+03    -296.817E-03     584.856E-03    -288.039E-03     83.3951E-03    -297.420E-03     585.563E-03    -287.588E-03     79.6419E-03
              68     13.5004E-03     173.440E-03    -3.79553E+06     137.333E+06     132.349E+06    -108.223E+03    -297.830E-03     585.767E-03    -287.937E-03     87.5911E-03    -298.464E-03     586.491E-03    -287.469E-03     83.5893E-03
              69     13.5017E-03     175.141E-03    -3.07731E+06     136.239E+06     136.625E+06     130.217E+03    -298.994E-03     586.829E-03    -287.835E-03     90.5391E-03    -299.640E-03     587.551E-03    -287.345E-03     86.4675E-03
              70     13.5029E-03     176.843E-03    -4.73294E+06     131.230E+06     136.363E+06    -1.65217E+06    -302.097E-03     589.789E-03    -287.692E-03     91.0360E-03    -302.731E-03     590.476E-03    -287.194E-03     87.1400E-03
              71     13.5031E-03     178.551E-03    -2.01649E+06     125.124E+06     136.287E+06    -774.392E+03    -306.821E-03     594.345E-03    -287.524E-03     90.4186E-03    -307.402E-03     594.968E-03    -287.021E-03     86.9666E-03
              72     13.5044E-03     180.273E-03    -4.58735E+06     120.683E+06     135.228E+06    -629.023E+03    -309.907E-03     597.313E-03    -287.406E-03     90.7666E-03    -310.469E-03     597.895E-03    -286.898E-03     87.7282E-03
              73     13.5042E-03     181.994E-03    -2.65056E+06     115.971E+06     132.232E+06    -628.751E+03    -312.230E-03     599.532E-03    -287.302E-03     92.9974E-03    -312.762E-03     600.083E-03    -286.805E-03     90.1991E-03
              74     13.5055E-03     183.716E-03    -4.55597E+06     105.606E+06     125.170E+06    -2.96487E+06    -317.212E-03     604.347E-03    -287.135E-03     94.6667E-03    -317.710E-03     604.840E-03    -286.655E-03     92.1913E-03
              75     13.5047E-03     185.457E-03     -858.44E+03     95.2490E+06     121.318E+06    -1.23810E+06    -322.754E-03     609.721E-03    -286.968E-03     95.9161E-03    -323.188E-03     610.140E-03    -286.498E-03     93.8761E-03
              76     13.5063E-03     187.201E-03    -5.19842E+06     80.0961E+06     116.991E+06    -4.17127E+06    -326.911E-03     613.770E-03    -286.859E-03     99.7515E-03    -327.340E-03     614.127E-03    -286.383E-03     97.7073E-03
              77     13.5051E-03     188.955E-03    -188.373E+03     63.2342E+06     119.083E+06    -2.62100E+06    -329.038E-03     615.844E-03    -286.806E-03     102.967E-03    -329.427E-03     616.112E-03    -286.302E-03     100.905E-03
              78     13.5079E-03     190.702E-03    -5.25865E+06     44.6638E+06     117.421E+06    -4.34081E+06    -326.776E-03     613.610E-03    -286.833E-03     101.749E-03    -327.148E-03     613.780E-03    -286.304E-03     99.9143E-03
              79     13.5062E-03     192.435E-03     1.03193E+06     25.0483E+06     122.497E+06    -3.95173E+06    -319.776E-03     606.744E-03    -286.967E-03     98.3284E-03    -320.070E-03     606.774E-03    -286.393E-03     96.9213E-03
              80     13.5109E-03     194.156E-03    -3.55444E+06     15.3489E+06     122.029E+06     -800.13E+03    -302.710E-03     590.006E-03    -287.296E-03     91.7429E-03    -302.984E-03     589.969E-03    -286.703E-03     90.8764E-03
              81     13.5085E-03     195.838E-03    -1.11223E+06     22.0104E+06     117.075E+06     4.09201E+06    -269.041E-03     557.026E-03    -287.984E-03     86.2302E-03    -269.265E-03     556.989E-03    -287.429E-03     86.0919E-03
              82     13.5153E-03     197.442E-03     8.81656E+06     42.4282E+06     99.0252E+06    -1.29623E+06    -190.515E-03     480.494E-03    -289.979E-03     53.4599E-03    -190.646E-03     480.571E-03    -289.559E-03     53.7650E-03
              83     12.6566E-03     198.731E-03    -25.8969E+06    -14.3027E+06     67.9846E+06    -12.1211E+06    -140.747E-03     436.357E-03    -295.611E-03    -28.2570E-03    -140.927E-03     436.323E-03    -295.212E-03    -27.7248E-03
              84     11.8530E-03     198.553E-03    -19.9153E+06    -14.3106E+06     98.6064E+06    -2.83557E+06    -154.165E-03     457.380E-03    -303.215E-03    -116.054E-03    -154.486E-03     457.431E-03    -302.672E-03    -114.708E-03
              85     11.0911E-03     198.355E-03    -16.7473E+06     14.7999E+06     117.628E+06    -6.48959E+06    -166.262E-03     475.992E-03    -309.730E-03    -179.821E-03    -166.813E-03     476.290E-03    -309.139E-03    -177.845E-03
              86     10.3583E-03     198.158E-03    -15.9879E+06    -6.65443E+06     111.255E+06    -9.58715E+06    -178.362E-03     493.789E-03    -315.427E-03    -222.840E-03    -179.001E-03     494.084E-03    -314.838E-03    -220.541E-03
              87     9.64231E-03     197.966E-03    -13.2574E+06    -298.963E+03     115.345E+06    -11.4808E+06    -190.651E-03     511.223E-03    -320.572E-03    -254.024E-03    -191.382E-03     511.609E-03    -319.975E-03    -251.504E-03
              88     8.94057E-03     197.781E-03    -9.07477E+06    -3.13481E+06     115.258E+06    -14.1293E+06    -205.341E-03     530.502E-03    -325.162E-03    -277.527E-03    -206.136E-03     530.921E-03    -324.568E-03    -274.780E-03
              89     8.25668E-03     197.610E-03    -6.88613E+06    -3.69064E+06     111.963E+06    -16.5582E+06    -222.410E-03     551.519E-03    -329.108E-03    -292.740E-03    -223.260E-03     551.965E-03    -328.533E-03    -289.778E-03
              90     7.58616E-03     197.448E-03    -3.72387E+06    -7.11826E+06     107.726E+06    -17.0374E+06    -239.581E-03     571.998E-03    -332.418E-03    -296.828E-03    -240.405E-03     572.390E-03    -331.863E-03    -293.857E-03
              91     6.92882E-03     197.296E-03    -302.927E+03    -7.42313E+06     103.369E+06    -17.1325E+06    -255.565E-03     590.765E-03    -335.199E-03    -292.451E-03    -256.314E-03     591.074E-03    -334.671E-03    -289.653E-03
              92     6.27800E-03     197.159E-03     2.69054E+06    -8.34934E+06     97.9652E+06    -16.8834E+06    -270.404E-03     608.007E-03    -337.603E-03    -281.534E-03    -271.039E-03     608.200E-03    -337.105E-03    -279.107E-03
              93     5.63546E-03     197.036E-03     5.47026E+06    -7.29193E+06     91.3515E+06    -17.0408E+06    -284.041E-03     623.764E-03    -339.723E-03    -265.193E-03    -284.541E-03     623.840E-03    -339.264E-03    -263.292E-03
              94     4.99560E-03     196.928E-03     7.88105E+06    -7.69621E+06     82.3354E+06    -17.2387E+06    -295.997E-03     637.625E-03    -341.628E-03    -246.962E-03    -296.388E-03     637.627E-03    -341.217E-03    -245.430E-03
              95     4.35914E-03     196.832E-03     11.0955E+06    -7.88719E+06     73.4327E+06    -17.3239E+06    -306.313E-03     649.670E-03    -343.357E-03    -226.100E-03    -306.611E-03     649.612E-03    -342.995E-03    -224.900E-03
              96     3.72581E-03     196.742E-03     14.1745E+06    -8.64213E+06     63.8176E+06    -17.2306E+06    -315.993E-03     660.894E-03    -344.900E-03    -203.518E-03    -316.234E-03     660.781E-03    -344.589E-03    -202.538E-03
              97     3.09875E-03     196.674E-03     17.2731E+06    -9.26133E+06     54.7628E+06    -16.7027E+06    -324.557E-03     670.910E-03    -346.352E-03    -179.172E-03    -324.742E-03     670.761E-03    -346.090E-03    -178.372E-03
              98     2.47123E-03     196.615E-03     19.1029E+06    -11.3337E+06     45.4580E+06    -15.3892E+06    -331.829E-03     679.613E-03    -347.784E-03    -153.273E-03    -331.959E-03     679.457E-03    -347.568E-03    -152.516E-03
              99     1.84385E-03     196.573E-03     20.1415E+06    -13.5569E+06     36.1342E+06    -13.1269E+06    -338.275E-03     687.308E-03    -349.033E-03    -125.698E-03    -338.388E-03     687.124E-03    -348.862E-03    -124.862E-03
             100     1.22241E-03     196.518E-03     21.3828E+06    -15.6199E+06     28.2132E+06    -10.0192E+06    -344.352E-03     694.210E-03    -349.858E-03    -95.6049E-03    -344.512E-03     693.983E-03    -349.725E-03    -94.5003E-03
             101     611.536E-06     196.512E-03     20.9075E+06    -21.3255E+06     14.2376E+06    -6.28760E+06    -344.853E-03     698.614E-03    -353.761E-03    -56.9170E-03    -345.009E-03     698.464E-03    -353.689E-03    -56.4655E-03
             102     2.18255E-06     194.590E-03    -34.6883E+06    -39.1617E+06    -33.4101E+06    -4.80099E+06    -324.089E-03     651.388E-03    -327.299E-03    -20.4508E-03    -324.141E-03     651.338E-03    -327.359E-03    -19.9221E-03
             103     3.67625E-06     192.832E-03    -140.047E+06    -87.4577E+06    -135.886E+06    -8.05143E+06    -291.922E-03     579.938E-03    -288.016E-03    -2.36818E-03    -292.130E-03     579.951E-03    -288.365E-03    -1.62661E-03
             104    -4.42972E-06     191.201E-03    -233.203E+06    -144.330E+06    -233.559E+06    -5.79498E+06    -272.662E-03     545.902E-03    -273.241E-03    -2.56765E-03    -273.218E-03     545.980E-03    -273.861E-03    -1.45944E-03
             105     4.32650E-06     189.586E-03    -229.896E+06    -171.426E+06    -229.054E+06    -2.00621E+06    -263.503E-03     529.684E-03    -266.181E-03    -3.36384E-03    -263.978E-03     529.644E-03    -266.744E-03    -1.90281E-03
             106    -8.05597E-06     187.971E-03    -150.945E+06    -173.055E+06    -150.928E+06     1.16629E+06    -261.124E-03     523.472E-03    -262.347E-03     3.31066E-03    -261.233E-03     523.226E-03    -262.632E-03     3.79574E-03
             107     9.84224E-06     186.372E-03    -112.310E+06    -168.751E+06    -110.635E+06    -785.247E+03    -263.831E-03     523.061E-03    -259.230E-03     8.40879E-03    -263.783E-03     522.776E-03    -259.375E-03     8.35146E-03
             108    -5.56379E-06     184.771E-03    -116.027E+06    -178.328E+06    -116.776E+06    -3.31327E+06    -262.404E-03     522.566E-03    -260.162E-03     3.97031E-03    -262.318E-03     522.282E-03    -260.319E-03     4.24350E-03
             109     4.01529E-06     183.200E-03    -127.254E+06    -196.770E+06    -126.844E+06    -3.18703E+06    -261.198E-03     526.884E-03    -265.686E-03    -413.069E-06    -261.039E-03     526.580E-03    -265.851E-03     370.347E-06
             110    -9.09235E-06     181.566E-03    -138.753E+06    -217.245E+06    -138.025E+06    -2.27734E+06    -267.184E-03     535.066E-03    -267.882E-03     3.43401E-03    -266.962E-03     534.740E-03    -268.056E-03     3.94358E-03
             111     12.6946E-06     179.923E-03    -142.868E+06    -230.304E+06    -143.872E+06    -1.51685E+06    -270.645E-03     538.566E-03    -267.921E-03     13.6253E-03    -270.395E-03     538.233E-03    -268.099E-03     13.1736E-03
             112    -13.2251E-06     178.319E-03    -146.193E+06    -239.978E+06    -145.726E+06    -1.03668E+06    -270.692E-03     541.792E-03    -271.100E-03     8.47450E-03    -270.433E-03     541.428E-03    -271.269E-03     8.50308E-03
             113     12.5142E-06     176.686E-03    -147.889E+06    -248.745E+06    -148.787E+06    -512.366E+03    -276.712E-03     549.772E-03    -273.060E-03     3.04850E-03    -276.460E-03     549.329E-03    -273.229E-03     3.60073E-03
             114    -7.38810E-06     175.035E-03    -149.322E+06    -253.782E+06    -148.862E+06    -831.146E+03    -280.781E-03     558.698E-03    -277.917E-03     7.20840E-03    -280.573E-03     558.188E-03    -278.077E-03     7.27170E-03
             115     5.67463E-06     173.362E-03    -149.205E+06    -258.923E+06    -149.441E+06    -243.165E+03    -281.264E-03     562.869E-03    -281.605E-03     6.39051E-03    -281.092E-03     562.299E-03    -281.761E-03     6.44665E-03
             116    -4.90022E-06     171.703E-03    -146.701E+06    -261.310E+06    -147.211E+06    -242.385E+03    -282.134E-03     564.308E-03    -282.174E-03     5.41371E-03    -281.997E-03     563.678E-03    -282.319E-03     5.58937E-03
             117     3.65866E-06     170.044E-03    -145.407E+06    -264.660E+06    -145.508E+06     182.447E+03    -285.229E-03     568.102E-03    -282.872E-03    -1.39203E-03    -285.146E-03     567.411E-03    -283.005E-03    -512.975E-06
             118     476.570E-09     168.370E-03    -141.689E+06    -266.134E+06    -142.061E+06    -393.720E+03    -287.695E-03     572.300E-03    -284.605E-03     1.45120E-03    -287.650E-03     571.559E-03    -284.724E-03     1.98591E-03
             119    -662.044E-09     166.667E-03    -138.218E+06    -266.713E+06    -137.508E+06     193.414E+03    -285.746E-03     573.583E-03    -287.837E-03     5.96445E-03    -285.720E-03     572.801E-03    -287.938E-03     5.94320E-03
             120    -2.17125E-06     165.000E-03    -133.670E+06    -266.496E+06    -133.802E+06     43.2359E+03    -285.748E-03     575.402E-03    -289.653E-03     6.94544E-03    -285.719E-03     574.597E-03    -289.742E-03     6.75555E-03
             121    -452.511E-09     163.303E-03    -129.644E+06    -264.503E+06    -128.885E+06     31.1924E+03    -287.381E-03     578.151E-03    -290.770E-03     7.74824E-03    -287.344E-03     577.348E-03    -290.843E-03     7.29647E-03
             122    -1.67123E-06     161.611E-03    -126.888E+06    -263.230E+06    -127.270E+06     310.321E+03    -289.426E-03     578.614E-03    -289.188E-03     7.87374E-03    -289.362E-03     577.835E-03    -289.258E-03     7.21518E-03
             123     3.90339E-06     159.928E-03    -123.845E+06    -259.147E+06    -124.296E+06     200.178E+03    -290.049E-03     578.122E-03    -288.073E-03     7.86214E-03    -289.931E-03     577.393E-03    -288.139E-03     7.34789E-03
             124    -3.75468E-06     158.235E-03    -122.343E+06    -255.247E+06    -122.214E+06     491.853E+03    -288.385E-03     576.803E-03    -288.418E-03     4.48880E-03    -288.212E-03     576.127E-03    -288.482E-03     4.52236E-03
             125     3.22391E-06     156.561E-03    -122.486E+06    -252.650E+06    -122.170E+06     956.351E+03    -290.355E-03     577.469E-03    -287.114E-03     1.17223E-03    -290.145E-03     576.838E-03    -287.181E-03     1.68346E-03
             126     1.30168E-06     154.867E-03    -120.419E+06    -248.417E+06    -120.365E+06     158.837E+03    -291.302E-03     579.271E-03    -287.969E-03     3.64497E-03    -291.058E-03     578.667E-03    -288.036E-03     3.78621E-03
             127    -1.76605E-06     153.164E-03    -119.789E+06    -245.364E+06    -118.677E+06     614.318E+03    -289.317E-03     579.126E-03    -289.809E-03     5.77105E-03    -289.079E-03     578.520E-03    -289.873E-03     5.53431E-03
             128     1.14023E-06     151.485E-03    -115.287E+06    -241.557E+06    -116.800E+06     292.504E+03    -289.475E-03     579.257E-03    -289.782E-03     5.09580E-03    -289.273E-03     578.633E-03    -289.849E-03     4.96107E-03
             129    -1.30660E-06     149.784E-03    -115.754E+06    -239.282E+06    -115.164E+06     517.837E+03    -288.914E-03     578.792E-03    -289.878E-03     4.86910E-03    -288.767E-03     578.144E-03    -289.939E-03     4.96869E-03
             130    -122.579E-09     148.101E-03    -114.234E+06    -235.964E+06    -114.537E+06     766.632E+03    -288.991E-03     578.105E-03    -289.114E-03     3.50962E-03    -288.867E-03     577.442E-03    -289.179E-03     3.86299E-03
             131     1.11965E-06     146.412E-03    -111.560E+06    -232.148E+06    -112.206E+06     881.842E+03    -290.071E-03     578.935E-03    -288.864E-03     1.81594E-03    -289.967E-03     578.270E-03    -288.926E-03     2.16038E-03
             132    -716.388E-09     144.726E-03    -111.121E+06    -229.797E+06    -111.044E+06     770.536E+03    -289.980E-03     579.652E-03    -289.672E-03    -2.76487E-03    -289.896E-03     578.988E-03    -289.733E-03    -2.11818E-03
             133     521.125E-09     143.039E-03    -108.367E+06    -225.355E+06    -108.645E+06     181.089E+03    -290.216E-03     580.868E-03    -290.653E-03    -3.61601E-03    -290.128E-03     580.198E-03    -290.712E-03    -3.01499E-03
             134    -1.11845E-06     141.335E-03    -107.936E+06    -222.278E+06    -107.236E+06     20.8655E+03    -290.942E-03     583.947E-03    -293.006E-03     3.27779E-03    -290.874E-03     583.274E-03    -293.063E-03     3.19867E-03
             135    -1.23334E-06     139.616E-03    -107.155E+06    -218.834E+06    -106.550E+06     426.853E+03    -290.479E-03     583.047E-03    -292.569E-03     8.46047E-03    -290.436E-03     582.386E-03    -292.629E-03     8.01981E-03
             136     598.326E-09     137.926E-03    -104.454E+06    -215.009E+06    -105.075E+06     695.702E+03    -289.300E-03     578.472E-03    -289.172E-03     7.85940E-03    -289.242E-03     577.824E-03    -289.234E-03     7.51889E-03
             137     12.1919E-09     136.255E-03    -103.442E+06    -211.846E+06    -103.689E+06     168.202E+03    -288.962E-03     578.551E-03    -289.589E-03     3.83546E-03    -288.890E-03     577.919E-03    -289.650E-03     3.69465E-03
             138    -1.65198E-06     134.559E-03    -103.225E+06    -209.037E+06    -102.728E+06     232.746E+03    -289.506E-03     582.615E-03    -293.109E-03     2.15250E-03    -289.437E-03     581.999E-03    -293.170E-03     2.18844E-03
             139    -1.72651E-06     132.854E-03    -102.104E+06    -205.598E+06    -101.631E+06     906.985E+03    -291.429E-03     584.401E-03    -292.972E-03     552.987E-06    -291.341E-03     583.800E-03    -293.034E-03     883.913E-06
             140     2.83109E-06     131.160E-03    -100.372E+06    -201.268E+06    -100.745E+06     640.117E+03    -294.393E-03     584.834E-03    -290.441E-03    -1.16234E-03    -294.277E-03     584.249E-03    -290.508E-03    -488.040E-06
             141     1.13248E-06     129.463E-03    -99.6568E+06    -197.786E+06    -99.7587E+06     6.97930E+03    -294.161E-03     586.395E-03    -292.234E-03     1.32088E-03    -294.049E-03     585.831E-03    -292.302E-03     1.80802E-03
             142    -2.75001E-06     127.740E-03    -98.2124E+06    -193.320E+06    -98.3051E+06     329.255E+03    -292.550E-03     587.145E-03    -294.595E-03     5.86126E-03    -292.452E-03     586.605E-03    -294.664E-03     5.65464E-03
             143     1.37792E-06     126.039E-03    -97.5107E+06    -189.506E+06    -97.7272E+06     1.18079E+06    -293.210E-03     586.159E-03    -292.949E-03     5.96292E-03    -293.110E-03     585.628E-03    -293.021E-03     5.34192E-03
             144     94.5513E-09     124.345E-03    -96.0099E+06    -184.611E+06    -96.1256E+06     304.798E+03    -292.621E-03     585.222E-03    -292.601E-03     3.86366E-03    -292.530E-03     584.696E-03    -292.675E-03     3.34359E-03
             145    -1.76736E-06     122.642E-03    -95.8001E+06    -180.624E+06    -95.7520E+06     142.231E+03    -292.391E-03     586.133E-03    -293.742E-03     1.94412E-03    -292.329E-03     585.620E-03    -293.820E-03     2.03941E-03
             146     1.43616E-06     120.937E-03    -93.3548E+06    -176.056E+06    -93.5000E+06     768.410E+03    -294.175E-03     587.267E-03    -293.093E-03     1.47240E-03    -294.113E-03     586.773E-03    -293.170E-03     1.74690E-03
             147     159.647E-09     119.232E-03    -92.0357E+06    -171.771E+06    -92.2244E+06     411.217E+03    -293.439E-03     586.960E-03    -293.521E-03     2.11952E-03    -293.369E-03     586.484E-03    -293.600E-03     2.15909E-03
             148    -2.06830E-06     117.529E-03    -92.5455E+06    -168.168E+06    -91.9351E+06     217.495E+03    -292.282E-03     586.534E-03    -294.252E-03     1.22908E-03    -292.222E-03     586.073E-03    -294.334E-03     1.18030E-03
             149     1.14135E-06     115.825E-03    -91.4370E+06    -163.821E+06    -91.4179E+06     100.513E+03    -293.802E-03     587.036E-03    -293.234E-03     2.26207E-03    -293.741E-03     586.577E-03    -293.321E-03     2.10652E-03
             150     344.261E-09     114.114E-03    -93.2756E+06    -160.379E+06    -93.2683E+06     644.518E+03    -295.039E-03     588.054E-03    -293.015E-03     4.90434E-03    -294.978E-03     587.596E-03    -293.114E-03     4.83881E-03
             151     654.161E-09     112.407E-03    -89.1051E+06    -152.567E+06    -90.6041E+06     948.459E+03    -293.790E-03     588.410E-03    -294.620E-03     2.63938E-03    -293.720E-03     587.968E-03    -294.722E-03     2.75960E-03
             152    -3.00897E-06     110.715E-03    -91.4875E+06    -149.768E+06    -92.8462E+06     517.290E+03    -294.500E-03     590.627E-03    -296.127E-03    -1.79181E-03    -294.442E-03     590.213E-03    -296.242E-03    -1.49174E-03
             153     2.94856E-06     108.991E-03    -88.9871E+06    -140.340E+06    -88.8620E+06    -20.6622E+03    -296.095E-03     593.186E-03    -297.091E-03     1.64477E-03    -296.033E-03     592.836E-03    -297.203E-03     1.51305E-03
             154    -4.46492E-06     107.260E-03    -84.6754E+06    -130.315E+06    -82.1267E+06     1.01168E+06    -294.293E-03     591.618E-03    -297.325E-03     6.68795E-03    -294.222E-03     591.310E-03    -297.424E-03     6.31495E-03
             155     1.66541E-06     105.561E-03    -89.6469E+06    -131.780E+06    -88.0103E+06     1.92805E+06    -296.469E-03     591.663E-03    -295.194E-03     4.78412E-03    -296.405E-03     591.343E-03    -295.313E-03     4.74847E-03
             156     2.57068E-06     103.848E-03    -80.5259E+06    -118.661E+06    -81.5887E+06     5.17230E+06    -298.305E-03     592.894E-03    -294.589E-03     1.59637E-03    -298.225E-03     592.608E-03    -294.708E-03     1.91106E-03
             157    -2.10399E-06     102.136E-03    -82.2240E+06    -113.345E+06    -81.5020E+06     1.35948E+06    -296.564E-03     592.774E-03    -296.210E-03     1.45306E-03    -296.513E-03     592.523E-03    -296.334E-03     1.68985E-03
             158     1.87511E-06     100.413E-03    -91.9564E+06    -118.852E+06    -91.7843E+06    -2.51984E+06    -296.472E-03     592.827E-03    -296.355E-03     3.52647E-03    -296.458E-03     592.572E-03    -296.508E-03     3.17315E-03
             159     125.102E-09     96.9922E-03    -65.2965E+06      -82.48E+06    -66.0280E+06     1.20671E+06    -295.427E-03     592.244E-03    -296.817E-03     1.63729E-03    -295.365E-03     592.077E-03    -296.933E-03     1.94316E-03
             160    -629.524E-09     95.2727E-03    -80.0284E+06    -95.5998E+06    -77.7566E+06    -1.97700E+06    -295.381E-03     592.190E-03    -296.809E-03     2.31542E-03    -295.357E-03     592.008E-03    -296.943E-03     2.46318E-03
             161    -994.781E-09     93.5579E-03    -78.7695E+06    -97.5137E+06    -83.6955E+06     788.048E+03    -294.309E-03     590.822E-03    -296.513E-03     4.38132E-03    -294.266E-03     590.637E-03    -296.676E-03     4.18944E-03
             162    -620.868E-09     91.8461E-03    -63.4565E+06    -74.4427E+06    -61.9684E+06     4.48456E+06    -295.317E-03     590.917E-03    -295.600E-03     4.41295E-03    -295.258E-03     590.787E-03    -295.710E-03     4.09892E-03
             163     1.61927E-06     90.1381E-03    -71.8754E+06    -76.3153E+06    -68.5305E+06    -2.01283E+06    -296.079E-03     591.808E-03    -295.729E-03     3.74511E-03    -296.051E-03     591.677E-03    -295.857E-03     3.50708E-03
             164    -2.36507E-06     88.4213E-03    -72.4271E+06    -80.2606E+06    -74.9230E+06    -113.564E+03    -295.195E-03     591.363E-03    -296.168E-03     2.72394E-03    -295.167E-03     591.208E-03    -296.321E-03     2.67035E-03
             165     1.56275E-06     86.7099E-03    -65.2817E+06    -70.6399E+06    -62.8445E+06    -1.22801E+06    -295.796E-03     591.442E-03    -295.645E-03     2.63572E-03    -295.774E-03     591.309E-03    -295.763E-03     2.69054E-03
             166    -747.488E-09     85.0005E-03    -65.5145E+06    -72.0249E+06    -65.2226E+06    -2.92721E+06    -296.611E-03     592.804E-03    -296.193E-03     1.69348E-03    -296.596E-03     592.686E-03    -296.320E-03     1.83402E-03
             167     299.216E-09     83.2810E-03    -67.6554E+06    -75.3993E+06    -70.1393E+06     2.72871E+06    -295.966E-03     592.775E-03    -296.810E-03     2.31580E-03    -295.967E-03     592.658E-03    -296.953E-03     2.30502E-03
             168    -1.17739E-06     81.5619E-03    -58.5201E+06    -64.3252E+06    -57.3881E+06     2.20190E+06    -296.070E-03     593.585E-03    -297.515E-03     6.33529E-03    -296.066E-03     593.479E-03    -297.624E-03     6.06171E-03
             169    -52.2627E-09     79.8425E-03    -54.3376E+06    -60.2777E+06    -53.8278E+06     175.560E+03    -296.979E-03     593.679E-03    -296.700E-03     3.60910E-03    -296.961E-03     593.570E-03    -296.803E-03     3.46361E-03
             170     1.48387E-06     78.1361E-03    -56.7389E+06    -63.4704E+06    -57.7189E+06     946.273E+03    -297.136E-03     592.617E-03    -295.480E-03     1.87531E-03    -297.131E-03     592.501E-03    -295.595E-03     1.93152E-03
             171    -852.313E-09     76.4202E-03    -54.2413E+06    -60.3374E+06    -53.9709E+06     169.885E+03    -296.521E-03     593.905E-03    -297.384E-03     2.49899E-03    -296.526E-03     593.804E-03    -297.488E-03     2.48307E-03
             172    -1.06237E-06     74.6953E-03    -52.9708E+06    -58.3378E+06    -51.5414E+06      68.709E+03    -296.044E-03     593.785E-03    -297.741E-03     2.55591E-03    -296.041E-03     593.690E-03    -297.837E-03     2.46159E-03
             173     570.795E-09     72.9826E-03    -49.7101E+06    -57.6100E+06    -53.1037E+06    -2.42653E+06    -296.036E-03     593.065E-03    -297.030E-03     3.68301E-03    -296.004E-03     592.963E-03    -297.140E-03     3.61334E-03
             174    -1.60777E-06     71.2683E-03    -54.6667E+06    -63.1479E+06    -60.3511E+06    -1.10801E+06    -296.217E-03     592.921E-03    -296.704E-03     636.598E-06    -296.192E-03     592.810E-03    -296.835E-03     723.104E-06
             175     1.78188E-06     69.5569E-03    -59.4294E+06    -59.7954E+06    -51.0582E+06     3.56134E+06    -296.209E-03     592.198E-03    -295.989E-03     446.653E-06    -296.225E-03     592.106E-03    -296.072E-03     606.884E-06
             176    -1.75182E-06     67.8374E-03    -49.2636E+06    -52.8726E+06    -48.4401E+06    -824.033E+03    -295.636E-03     591.659E-03    -296.023E-03     2.67848E-03    -295.605E-03     591.580E-03    -296.117E-03     2.60894E-03
             177     1.03377E-06     66.1226E-03    -46.1413E+06    -50.4751E+06    -46.9455E+06    -1.75837E+06    -295.511E-03     591.661E-03    -296.150E-03     4.62116E-03    -295.460E-03     591.579E-03    -296.245E-03     4.39654E-03
             178    -1.37828E-06     64.4104E-03    -52.3391E+06    -56.9667E+06    -53.6864E+06    -1.72391E+06    -296.013E-03     592.178E-03    -296.164E-03     4.10237E-03    -295.966E-03     592.081E-03    -296.274E-03     3.88171E-03
             179     1.29928E-06     62.6965E-03    -49.7513E+06    -54.0147E+06    -50.2375E+06     3.42085E+06    -296.921E-03     592.520E-03    -295.599E-03     2.84206E-03    -296.868E-03     592.432E-03    -295.699E-03     2.86354E-03
             180     338.840E-09     60.9819E-03    -43.2682E+06    -46.0869E+06    -41.7086E+06     2.18380E+06    -296.206E-03     592.406E-03    -296.200E-03     3.47992E-03    -296.153E-03     592.331E-03    -296.279E-03     3.59804E-03
             181    -2.15401E-06     59.2663E-03    -50.0286E+06    -54.1238E+06    -52.2447E+06    -2.37992E+06    -295.742E-03     592.334E-03    -296.592E-03     2.69611E-03    -295.706E-03     592.231E-03    -296.702E-03     2.60660E-03
             182     2.63122E-06     57.5544E-03    -52.8243E+06    -54.2664E+06    -50.2607E+06     547.563E+03    -297.079E-03     593.597E-03    -296.518E-03     3.76837E-03    -297.066E-03     593.485E-03    -296.614E-03     3.74614E-03
             183    -2.51261E-06     55.8306E-03    -38.6707E+06    -40.9070E+06    -37.8090E+06     2.03101E+06    -297.697E-03     594.586E-03    -296.889E-03     3.87051E-03    -297.656E-03     594.504E-03    -296.962E-03     3.90733E-03
             184     3.31288E-06     54.1154E-03    -36.5043E+06    -40.3003E+06    -38.1963E+06    -3.09928E+06    -297.428E-03     594.004E-03    -296.576E-03     3.32890E-03    -297.379E-03     593.921E-03    -296.655E-03     2.98651E-03
             185    -3.14951E-06     52.4025E-03    -39.6319E+06    -44.3488E+06    -42.4861E+06    -845.679E+03    -296.093E-03     593.139E-03    -297.046E-03     2.73153E-03    -296.044E-03     593.042E-03    -297.137E-03     2.46170E-03
             186     1.52095E-06     50.6813E-03    -38.2986E+06    -40.2129E+06    -35.0445E+06     3.11974E+06    -296.869E-03     593.590E-03    -296.721E-03     3.16922E-03    -296.827E-03     593.504E-03    -296.783E-03     3.07182E-03
             187     159.303E-09     48.9662E-03    -38.8639E+06    -42.4709E+06    -38.4644E+06    -885.269E+03    -298.230E-03     595.632E-03    -297.402E-03     4.82673E-03    -298.179E-03     595.547E-03    -297.476E-03     4.74238E-03
             188    -911.913E-09     47.2431E-03    -39.1983E+06    -44.8367E+06    -41.8559E+06    -976.911E+03    -297.024E-03     594.896E-03    -297.872E-03     2.45259E-03    -296.962E-03     594.804E-03    -297.959E-03     2.27542E-03
             189     332.957E-09     45.5265E-03    -45.6935E+06    -49.6810E+06    -43.7296E+06    -27.9709E+03    -296.365E-03     593.105E-03    -296.740E-03     3.47441E-03    -296.326E-03     593.004E-03    -296.820E-03     3.30224E-03
             190    -415.565E-09     43.8141E-03    -45.2199E+06    -51.0131E+06    -46.0876E+06     78.1838E+03    -297.648E-03     594.970E-03    -297.323E-03     4.04357E-03    -297.606E-03     594.875E-03    -297.414E-03     3.90691E-03
             191     749.288E-09     42.0866E-03    -31.8047E+06    -37.6644E+06    -31.6258E+06     1.05836E+06    -297.654E-03     595.373E-03    -297.719E-03     3.07031E-03    -297.588E-03     595.306E-03    -297.777E-03     3.09627E-03
             192    -1.34191E-06     40.3739E-03    -29.7807E+06    -38.1457E+06    -33.2360E+06    -2.01782E+06    -296.693E-03     594.508E-03    -297.815E-03     3.52804E-03    -296.614E-03     594.432E-03    -297.883E-03     3.40905E-03
             193     229.187E-09     38.6535E-03    -37.6617E+06    -45.7413E+06    -39.8742E+06    -482.694E+03    -297.048E-03     594.744E-03    -297.696E-03     2.65250E-03    -296.987E-03     594.639E-03    -297.774E-03     2.46409E-03
             194    -172.926E-09     36.9346E-03    -35.8741E+06    -40.9303E+06    -31.9075E+06     4.38996E+06    -298.193E-03     596.452E-03    -298.259E-03     3.94034E-03    -298.145E-03     596.344E-03    -298.307E-03     4.03338E-03
             195    -109.208E-09     35.2115E-03    -32.7424E+06    -39.6791E+06    -31.5309E+06    -1.72212E+06    -299.093E-03     598.206E-03    -299.113E-03     2.89476E-03    -299.042E-03     598.092E-03    -299.166E-03     2.66949E-03
             196     221.555E-09     33.4852E-03    -31.4202E+06    -38.9072E+06    -30.1810E+06    -1.83543E+06    -299.612E-03     598.980E-03    -299.369E-03     4.32596E-03    -299.566E-03     598.868E-03    -299.417E-03     4.06990E-03
             197    -148.116E-09     31.7559E-03    -31.4318E+06    -40.0261E+06    -32.3509E+06     606.907E+03    -300.786E-03     601.237E-03    -300.451E-03     5.04826E-03    -300.738E-03     601.128E-03    -300.509E-03     5.00554E-03
             198     363.843E-09     30.0260E-03    -36.7884E+06    -44.4762E+06    -35.5413E+06     948.851E+03    -300.798E-03     601.016E-03    -300.218E-03     2.58535E-03    -300.761E-03     600.893E-03    -300.277E-03     2.39062E-03
             199     62.1435E-09     28.3012E-03    -41.0586E+06    -49.3308E+06    -41.4465E+06     485.951E+03    -300.293E-03     601.155E-03    -300.862E-03     4.48611E-03    -300.249E-03     601.013E-03    -300.939E-03     4.30852E-03
             200    -1.41746E-06     26.5645E-03    -25.4835E+06    -35.9740E+06    -32.0190E+06    -1.26355E+06    -301.645E-03     604.248E-03    -302.602E-03     4.80839E-03    -301.541E-03     604.131E-03    -302.673E-03     4.78069E-03
             201     1.25382E-06     24.8265E-03    -26.5777E+06    -32.7168E+06    -24.8603E+06    -552.126E+03    -301.985E-03     603.394E-03    -301.410E-03     3.11002E-03    -301.895E-03     603.295E-03    -301.448E-03     2.96059E-03
             202    -497.634E-09     23.1022E-03    -35.5547E+06    -40.5807E+06    -31.0149E+06     1.46844E+06    -300.238E-03     600.277E-03    -300.039E-03     2.96800E-03    -300.180E-03     600.181E-03    -300.083E-03     2.85339E-03
             203    -135.657E-09     21.3716E-03    -29.0788E+06    -38.3038E+06    -32.4768E+06     327.249E+03    -298.861E-03     598.928E-03    -300.067E-03     3.55077E-03    -298.776E-03     598.836E-03    -300.132E-03     3.43678E-03
             204    -1.04856E-06     19.6468E-03    -34.2311E+06    -43.3320E+06    -36.5020E+06    -2.26669E+06    -297.686E-03     595.721E-03    -298.035E-03     2.32569E-03    -297.607E-03     595.588E-03    -298.105E-03     2.07324E-03
             205     1.56903E-06     17.9327E-03    -39.8894E+06    -46.7666E+06    -35.9238E+06     1.73071E+06    -295.075E-03     589.418E-03    -294.343E-03     2.29219E-03    -295.013E-03     589.261E-03    -294.397E-03     2.05108E-03
             206    -1.26386E-06     16.2266E-03    -36.0128E+06    -44.1496E+06    -32.6243E+06    -110.138E+03    -291.557E-03     582.884E-03    -291.327E-03     2.67108E-03    -291.487E-03     582.740E-03    -291.374E-03     2.32372E-03
             207     1.10880E-06     14.5378E-03    -25.6415E+06    -37.4428E+06    -27.7762E+06    -801.558E+03    -287.584E-03     575.298E-03    -287.714E-03     586.239E-06    -287.495E-03     575.173E-03    -287.761E-03     289.068E-06
             208    -1.30812E-06     12.8593E-03    -25.2692E+06    -36.6128E+06    -23.4400E+06    -3.51871E+06    -281.378E-03     563.501E-03    -282.123E-03    -857.649E-06    -281.308E-03     563.362E-03    -282.150E-03    -1.13460E-03
             209     374.995E-09     11.2032E-03    -26.0133E+06    -40.3087E+06    -27.0062E+06     -59.529E+03    -276.151E-03     551.717E-03    -275.567E-03     193.876E-06    -276.063E-03     551.547E-03    -275.606E-03     79.9294E-06
             210     1.19943E-06     9.56839E-03    -21.9124E+06    -37.5088E+06    -23.9135E+06     5.27082E+06    -270.887E-03     541.066E-03    -270.178E-03    -433.982E-06    -270.766E-03     540.868E-03    -270.212E-03    -506.559E-06
             211    -2.01343E-06     7.94783E-03    -5.09315E+06    -19.7569E+06    -3.24471E+06     2.19748E+06    -263.868E-03     528.894E-03    -265.026E-03    -1.04654E-03    -263.705E-03     528.711E-03    -265.006E-03    -1.27471E-03
             212     1.03877E-06     6.34987E-03    -4.59097E+06    -21.4400E+06    -5.76411E+06    -666.743E+03    -260.377E-03     520.681E-03    -260.304E-03     356.545E-06    -260.196E-03     520.525E-03    -260.295E-03     131.845E-06
             213    -197.651E-09     4.75890E-03    -15.2918E+06    -29.3839E+06    -11.5753E+06    -1.23419E+06    -258.459E-03     516.831E-03    -258.372E-03     550.974E-06    -258.289E-03     516.712E-03    -258.365E-03     385.129E-06
             214    -750.294E-09     3.17057E-03    -9.41948E+06    -25.5043E+06    -10.9584E+06     824.831E+03    -256.706E-03     514.724E-03    -258.018E-03     537.971E-06    -256.465E-03     514.622E-03    -258.022E-03     506.002E-06
             215    -469.278E-09     1.58715E-03    -8.81337E+06    -24.3350E+06    -10.6143E+06     178.454E+03    -257.627E-03     514.558E-03    -256.931E-03    -341.346E-06    -257.329E-03     514.396E-03    -256.936E-03    -453.954E-06
             216     695.362E-06    -1.34615E-15    -9.02539E+06    -21.0376E+06    -4.45506E+06    -467.775E+03    -258.285E-03     514.968E-03    -256.683E-03     354.593E-06    -258.062E-03     514.767E-03    -256.662E-03     254.963E-06
             217     1.39142E-03    -1.34615E-15    -9.21984E+06    -21.9316E+06    -6.16278E+06    -1.28164E+06    -258.090E-03     515.591E-03    -257.501E-03     854.851E-06    -257.989E-03     515.417E-03    -257.487E-03     761.578E-06
             218     2.08663E-03    -1.34615E-15    -8.72672E+06    -21.2833E+06    -5.46521E+06     411.256E+03    -258.869E-03     516.670E-03    -257.801E-03     570.007E-06    -258.817E-03     516.531E-03    -257.784E-03     450.823E-06
             219     2.78115E-03    -1.34615E-15    -8.66251E+06    -19.8671E+06    -2.79420E+06     604.361E+03    -260.032E-03     518.243E-03    -258.211E-03     765.114E-06    -260.003E-03     518.122E-03    -258.183E-03     607.929E-06
             220     3.47457E-03    -1.34615E-15    -7.89970E+06    -19.0533E+06    -1.64157E+06    -355.106E+03    -261.747E-03     520.489E-03    -258.742E-03     1.22869E-03    -261.723E-03     520.375E-03    -258.711E-03     1.00830E-03
             221     4.16649E-03    -1.34615E-15    -7.21809E+06    -19.3106E+06    -2.47880E+06     435.606E+03    -263.883E-03     523.293E-03    -259.410E-03     1.72950E-03    -263.861E-03     523.185E-03    -259.384E-03     1.46711E-03
             222     4.85688E-03    -1.34615E-15    -7.06993E+06    -18.7858E+06    -2.26907E+06     925.396E+03    -266.270E-03     526.484E-03    -260.214E-03     1.84173E-03    -266.257E-03     526.387E-03    -260.188E-03     1.51110E-03
             223     5.54614E-03    -1.34615E-15    -6.41027E+06    -11.0981E+06     2.04119E+06     1.25786E+06    -269.278E-03     530.442E-03    -261.163E-03     1.44825E-03    -269.281E-03     530.377E-03    -261.128E-03     1.06809E-03
             224     6.23315E-03    -1.34615E-15    -5.41009E+06    -3.37743E+06     6.05606E+06    -410.767E+03    -273.322E-03     535.613E-03    -262.291E-03     1.07902E-03    -273.337E-03     535.580E-03    -262.248E-03     528.046E-06
             225     6.91625E-03    -1.34615E-15    -3.90296E+06    -1.43000E+06     6.79304E+06    -1.20948E+06    -277.940E-03     541.557E-03    -263.616E-03     725.741E-06    -277.953E-03     541.531E-03    -263.574E-03     67.4708E-06
             226     7.59668E-03    -1.34615E-15    -2.28711E+06     1.02925E+06     8.15501E+06    -47.1166E+03    -283.471E-03     548.629E-03    -265.158E-03     1.05418E-03    -283.482E-03     548.614E-03    -265.116E-03     264.630E-06
             227     8.27269E-03    -1.34615E-15    -1.40395E+06     3.42821E+06     9.72718E+06    -647.271E+03    -290.969E-03     557.948E-03    -266.979E-03     303.049E-06    -290.985E-03     557.945E-03    -266.934E-03    -591.950E-06
             228     8.94466E-03    -1.34615E-15    -1.36777E+06     5.26979E+06     10.4063E+06    -376.406E+03    -300.460E-03     569.620E-03    -269.160E-03    -2.27534E-03    -300.480E-03     569.626E-03    -269.113E-03    -3.25190E-03
             229     9.60876E-03    -1.34615E-15    -873.210E+03     8.88935E+06     12.5253E+06     1.09519E+06    -311.927E-03     583.691E-03    -271.764E-03    -3.12096E-03    -311.951E-03     583.711E-03    -271.713E-03    -4.46967E-03
             230     10.2627E-03    -1.34615E-15    -2.52453E+06     10.9276E+06     13.4769E+06     2.16153E+06    -326.070E-03     600.918E-03    -274.848E-03    -1.70503E-03    -326.108E-03     600.952E-03    -274.793E-03    -2.86890E-03
             231     10.9072E-03    -1.34615E-15    -3.85875E+06     11.5844E+06     13.5231E+06     2.31355E+06    -344.171E-03     622.680E-03    -278.510E-03    -1.91311E-03    -344.219E-03     622.724E-03    -278.453E-03    -3.03780E-03
             232     11.5427E-03    -1.34615E-15    -3.55024E+06     13.3761E+06     13.1562E+06     2.59786E+06    -371.063E-03     654.042E-03    -282.979E-03     1.92454E-03    -371.109E-03     654.101E-03    -282.928E-03     1.26400E-03
             233     12.1470E-03    -1.34615E-15    -5.66183E+06     13.6252E+06     8.98813E+06     2.92070E+06    -411.066E-03     699.699E-03    -288.634E-03     21.6737E-03    -411.131E-03     699.794E-03    -288.600E-03     21.0152E-03
             234     12.7178E-03    -1.34615E-15    -8.12020E+06     14.6470E+06     435.425E+03    -3.63259E+06    -462.922E-03     758.718E-03    -295.796E-03     78.0641E-03    -463.545E-03     759.387E-03    -295.803E-03     67.4138E-03
             235     13.3214E-03     2.17376E-03    -3.67751E+06     24.6325E+06     4.54921E+06    -9.90817E+06    -448.947E-03     747.410E-03    -298.463E-03     116.883E-03    -450.053E-03     748.583E-03    -298.471E-03     99.2592E-03
             236     13.3582E-03     4.09462E-03     3.17818E+06     28.9096E+06     13.4938E+06    -6.15146E+06    -383.476E-03     680.173E-03    -296.698E-03     104.339E-03    -384.204E-03     680.972E-03    -296.677E-03     93.2437E-03
             237     13.3728E-03     5.91058E-03     2.92953E+06     21.4541E+06     13.3244E+06    -2.34585E+06    -351.473E-03     647.584E-03    -296.111E-03     91.8733E-03    -351.876E-03     648.033E-03    -296.080E-03     85.1747E-03
             238     13.3770E-03     7.69977E-03     602.522E+03     18.3048E+06     16.4327E+06    -1.34077E+06    -335.737E-03     631.718E-03    -295.981E-03     85.8035E-03    -336.112E-03     632.113E-03    -295.926E-03     79.5927E-03
             239     13.3814E-03     9.46454E-03    -53.8549E+03     18.2316E+06     20.9783E+06    -18.6911E+03    -321.770E-03     617.856E-03    -296.087E-03     82.6972E-03    -322.123E-03     618.213E-03    -296.008E-03     77.0131E-03
             240     13.3820E-03     11.2049E-03     632.436E+03     16.9814E+06     20.8824E+06     1.62688E+06    -311.036E-03     607.230E-03    -296.193E-03     83.7484E-03    -311.591E-03     607.787E-03    -296.115E-03     78.3790E-03
             241     13.3848E-03     12.9306E-03    -3.21595E+06     13.9126E+06     19.4941E+06    -71.9379E+03    -306.792E-03     603.049E-03    -296.257E-03     78.8935E-03    -307.328E-03     603.566E-03    -296.175E-03     73.8869E-03
             242     13.3805E-03     14.6526E-03    -681.631E+03     16.9750E+06     26.6964E+06    -924.417E+03    -303.241E-03     599.706E-03    -296.465E-03     72.9750E-03    -303.798E-03     600.242E-03    -296.355E-03     68.3159E-03
             243     13.3809E-03     16.3778E-03     69.3225E+03     17.5323E+06     26.8596E+06    -1.68396E+06    -296.834E-03     593.495E-03    -296.662E-03     76.5795E-03    -297.396E-03     594.042E-03    -296.553E-03     71.9186E-03
             244     13.3830E-03     18.0792E-03     1.47543E+06     14.1420E+06     24.5186E+06    -586.759E+03    -293.203E-03     589.867E-03    -296.663E-03     80.1620E-03    -293.479E-03     590.127E-03    -296.563E-03     75.6611E-03
             245     13.3836E-03     19.7890E-03    -6.70540E+06     17.8445E+06     25.8023E+06     4.62888E+06    -293.227E-03     589.883E-03    -296.656E-03     77.6503E-03    -293.459E-03     590.072E-03    -296.543E-03     73.5473E-03
             246     13.3812E-03     21.4940E-03    -1.65127E+06     33.8296E+06     36.2300E+06     2.07680E+06    -294.729E-03     591.527E-03    -296.797E-03     73.4726E-03    -294.732E-03     591.453E-03    -296.663E-03     69.2251E-03
             247     13.3769E-03     23.1962E-03     4.73169E+06     31.9206E+06     38.1323E+06    -3.49365E+06    -294.430E-03     591.305E-03    -296.875E-03     72.3035E-03    -294.439E-03     591.237E-03    -296.737E-03     68.1722E-03
             248     13.3843E-03     24.9050E-03    -11.8188E+06     8.60302E+06     21.3381E+06    -3.53026E+06    -291.479E-03     588.266E-03    -296.787E-03     73.7547E-03    -291.749E-03     588.442E-03    -296.675E-03     69.7915E-03
             249     13.3809E-03     26.6131E-03    -1.92812E+06     8.79128E+06     21.7178E+06     3.50606E+06    -291.021E-03     587.723E-03    -296.703E-03     76.6089E-03    -291.267E-03     587.931E-03    -296.604E-03     72.6817E-03
             250     13.3850E-03     28.3144E-03     6.53204E+06     19.5019E+06     29.9958E+06     1.82912E+06    -292.341E-03     588.932E-03    -296.591E-03     78.8258E-03    -292.597E-03     589.195E-03    -296.479E-03     74.4830E-03
             251     13.3850E-03     30.0185E-03     3.69608E+06     18.8782E+06     31.3023E+06    -2.91587E+06    -294.485E-03     590.945E-03    -296.461E-03     75.9293E-03    -294.763E-03     591.214E-03    -296.337E-03     71.1769E-03
             252     13.3850E-03     31.7318E-03    -853.614E+03     15.8682E+06     28.7939E+06    -319.390E+03    -295.447E-03     591.881E-03    -296.433E-03     72.0506E-03    -295.692E-03     592.096E-03    -296.311E-03     68.0195E-03
             253     13.3848E-03     33.4352E-03    -1.15258E+06     16.5061E+06     27.9605E+06     316.611E+03    -295.933E-03     592.347E-03    -296.414E-03     71.7172E-03    -296.154E-03     592.543E-03    -296.297E-03     68.0945E-03
             254     13.3854E-03     35.1525E-03    -42.8338E+03     17.7442E+06     29.5929E+06    -381.579E+03    -297.735E-03     594.108E-03    -296.373E-03     73.8685E-03    -297.988E-03     594.338E-03    -296.250E-03     69.7171E-03
             255     13.3846E-03     36.8741E-03    -1.03422E+06     17.7165E+06     30.9432E+06     583.100E+03    -297.579E-03     594.008E-03    -296.429E-03     75.6479E-03    -297.863E-03     594.262E-03    -296.299E-03     71.1739E-03
             256     13.3833E-03     38.5827E-03    -1.28945E+06     17.1234E+06     29.7094E+06     680.661E+03    -296.448E-03     592.937E-03    -296.489E-03     77.6916E-03    -296.734E-03     593.194E-03    -296.363E-03     73.2603E-03
             257     13.3850E-03     40.2938E-03    -1.57230E+06     16.6581E+06     27.7710E+06    -1.36059E+06    -296.520E-03     592.942E-03    -296.422E-03     78.7777E-03    -296.801E-03     593.197E-03    -296.305E-03     74.3939E-03
             258     13.3860E-03     42.0064E-03    -1.05045E+06     18.0924E+06     30.8661E+06    -61.6488E+03    -297.746E-03     594.119E-03    -296.373E-03     77.8144E-03    -298.037E-03     594.382E-03    -296.244E-03     73.2885E-03
             259     13.3838E-03     43.7243E-03    -1.73343E+06     18.2950E+06     32.8491E+06     412.614E+03    -299.091E-03     595.544E-03    -296.453E-03     77.1186E-03    -299.403E-03     595.820E-03    -296.312E-03     72.2877E-03
             260     13.3817E-03     45.4402E-03     574.971E+03     19.1628E+06     32.7358E+06    -431.206E+03    -297.816E-03     594.355E-03    -296.539E-03     77.8671E-03    -298.118E-03     594.633E-03    -296.404E-03     73.0814E-03
             261     13.3851E-03     47.1466E-03     2.05706E+06     21.7121E+06     35.2392E+06     224.395E+03    -296.504E-03     593.021E-03    -296.517E-03     76.8965E-03    -296.777E-03     593.278E-03    -296.376E-03     72.6019E-03
             262     13.3836E-03     48.8591E-03    -2.46751E+06     18.3035E+06     33.7173E+06     129.948E+03    -298.177E-03     594.632E-03    -296.454E-03     75.2900E-03    -298.453E-03     594.867E-03    -296.309E-03     71.1179E-03
             263     13.3843E-03     50.5805E-03    -3.05042E+06     17.1041E+06     31.6539E+06     1.26320E+06    -298.489E-03     594.938E-03    -296.448E-03     76.0754E-03    -298.768E-03     595.175E-03    -296.310E-03     71.9408E-03
             264     13.3840E-03     52.2922E-03     1.16836E+06     20.7306E+06     34.6858E+06     805.073E+03    -297.440E-03     593.894E-03    -296.454E-03     76.4293E-03    -297.709E-03     594.141E-03    -296.312E-03     72.3265E-03
             265     13.3853E-03     54.0011E-03    -229.940E+03     20.7370E+06     36.5851E+06    -38.2667E+03    -297.842E-03     594.227E-03    -296.385E-03     76.6543E-03    -298.130E-03     594.482E-03    -296.232E-03     72.3799E-03
             266     13.3866E-03     55.7218E-03    -578.526E+03     20.2679E+06     35.7611E+06     576.799E+03    -298.199E-03     594.496E-03    -296.297E-03     76.8042E-03    -298.486E-03     594.749E-03    -296.147E-03     72.6227E-03
             267     13.3867E-03     57.4346E-03     1.11848E+06     21.5780E+06     36.0527E+06    -1.27324E+06    -297.862E-03     594.096E-03    -296.235E-03     78.0217E-03    -298.167E-03     594.378E-03    -296.088E-03     73.4821E-03
             268     13.3889E-03     59.1460E-03    -2.73204E+06     19.6847E+06     37.7381E+06    -1.13482E+06    -297.518E-03     593.704E-03    -296.186E-03     77.1987E-03    -297.846E-03     593.983E-03    -296.022E-03     72.5699E-03
             269     13.3882E-03     60.8617E-03    -2.07275E+06     20.1069E+06     37.6679E+06     967.915E+03    -297.502E-03     593.643E-03    -296.141E-03     75.5856E-03    -297.793E-03     593.889E-03    -295.979E-03     71.5301E-03
             270     13.3896E-03     62.5692E-03    -2.20233E+06     19.4999E+06     35.8830E+06    -800.289E+03    -298.686E-03     594.798E-03    -296.112E-03     74.0711E-03    -298.969E-03     595.039E-03    -295.958E-03     69.9773E-03
             271     13.3869E-03     64.2909E-03    -5.29238E+06     19.1180E+06     39.5621E+06    -549.745E+03    -299.294E-03     595.471E-03    -296.178E-03     73.2071E-03    -299.595E-03     595.708E-03    -296.000E-03     69.1105E-03
             272     13.3878E-03     66.0062E-03    -647.904E+03     23.4614E+06     43.5489E+06     4.41408E+06    -297.872E-03     594.144E-03    -296.272E-03     75.0970E-03    -298.162E-03     594.388E-03    -296.087E-03     71.2162E-03
             273     13.3862E-03     67.7196E-03     4.34328E+06     27.6503E+06     46.9767E+06     748.606E+03    -296.937E-03     593.273E-03    -296.335E-03     75.6573E-03    -297.243E-03     593.555E-03    -296.147E-03     71.1669E-03
             274     13.3866E-03     69.4267E-03    -645.527E+03     21.7742E+06     41.1799E+06    -2.67987E+06    -297.125E-03     593.442E-03    -296.317E-03     75.4720E-03    -297.436E-03     593.709E-03    -296.141E-03     70.9213E-03
             275     13.3874E-03     71.1433E-03    -3.01365E+06     22.0177E+06     43.3452E+06    -20.3330E+03    -298.235E-03     594.551E-03    -296.316E-03     74.2296E-03    -298.536E-03     594.794E-03    -296.127E-03     70.0997E-03
             276     13.3846E-03     72.8597E-03     1.49078E+06     29.1137E+06     51.0907E+06    -218.093E+03    -299.654E-03     596.043E-03    -296.389E-03     74.3563E-03    -299.972E-03     596.322E-03    -296.178E-03     69.8399E-03
             277     13.3847E-03     74.5772E-03    -1.64824E+06     25.5713E+06     44.0173E+06    -261.629E+03    -297.588E-03     593.989E-03    -296.401E-03     76.7582E-03    -297.910E-03     594.270E-03    -296.216E-03     72.3045E-03
             278     13.3883E-03     76.2900E-03    -3.32442E+06     23.9795E+06     42.9014E+06     942.256E+03    -295.284E-03     591.659E-03    -296.375E-03     79.0728E-03    -295.596E-03     591.921E-03    -296.191E-03     75.0703E-03
             279     13.3857E-03     77.9996E-03    -1.80545E+06     27.2151E+06     49.0582E+06     699.128E+03    -298.456E-03     594.847E-03    -296.391E-03     78.4754E-03    -298.788E-03     595.127E-03    -296.183E-03     74.1585E-03
             280     13.3834E-03     79.7179E-03    -66.0051E+03     30.1238E+06     51.7041E+06    -68.8648E+03    -300.044E-03     596.448E-03    -296.404E-03     76.8806E-03    -300.380E-03     596.741E-03    -296.189E-03     72.3013E-03
             281     13.3879E-03     81.4281E-03    -2.26146E+06     25.9331E+06     48.0570E+06    -732.190E+03    -296.647E-03     592.927E-03    -296.280E-03     77.5245E-03    -296.968E-03     593.193E-03    -296.074E-03     73.2128E-03
             282     13.3918E-03     83.1392E-03    -1.47297E+06     28.0043E+06     52.3276E+06     488.877E+03    -296.929E-03     593.105E-03    -296.175E-03     75.3651E-03    -297.236E-03     593.354E-03    -295.952E-03     71.3359E-03
             283     13.3853E-03     84.8600E-03     1.09718E+06     33.9624E+06     61.5736E+06    -1.88326E+06    -299.768E-03     596.018E-03    -296.249E-03     75.0570E-03    -300.098E-03     596.294E-03    -295.992E-03     70.7179E-03
             284     13.3884E-03     86.5723E-03    -4.45478E+06     27.5159E+06     54.2322E+06    -333.693E+03    -297.987E-03     594.238E-03    -296.251E-03     76.7834E-03    -298.316E-03     594.492E-03    -296.013E-03     72.6898E-03
             285     13.3902E-03     88.2849E-03    -1.76806E+06     28.8955E+06     52.7803E+06     2.39197E+06    -296.247E-03     592.498E-03    -296.251E-03     73.0101E-03    -296.520E-03     592.715E-03    -296.026E-03     69.5594E-03
             286     13.3850E-03     89.9948E-03     1.42943E+06     35.1092E+06     63.0873E+06     2.48490E+06    -298.387E-03     594.748E-03    -296.361E-03     72.6894E-03    -298.681E-03     594.990E-03    -296.099E-03     68.9111E-03
             287     13.3870E-03     91.7107E-03    -1.94721E+06     33.5990E+06     64.9597E+06     3.41330E+06    -298.913E-03     595.232E-03    -296.319E-03     75.0674E-03    -299.236E-03     595.479E-03    -296.040E-03     71.1556E-03
             288     13.3908E-03     93.4266E-03     1.81210E+06     38.0998E+06     70.3570E+06     2.94776E+06    -298.607E-03     594.847E-03    -296.240E-03     72.9064E-03    -298.903E-03     595.081E-03    -295.946E-03     69.3429E-03
             289     13.3864E-03     95.1440E-03    -6.95338E+06     29.5987E+06     61.3617E+06    -2.65708E+06    -299.555E-03     595.836E-03    -296.281E-03     71.7759E-03    -299.882E-03     596.067E-03    -296.007E-03     67.8543E-03
             290     13.3867E-03     96.8620E-03     1.76469E+06     38.6946E+06     69.7420E+06    -1.72763E+06    -296.786E-03     593.172E-03    -296.386E-03     75.2626E-03    -297.121E-03     593.449E-03    -296.096E-03     71.0888E-03
             291     13.3898E-03     98.5709E-03     1.78120E+06     38.2432E+06     69.8397E+06     5.81845E+06    -295.594E-03     591.956E-03    -296.362E-03     78.5527E-03    -295.964E-03     592.266E-03    -296.071E-03     74.0529E-03
             292     668.245E-06     100.422E-03    -84.9259E+06    -109.534E+06    -84.7646E+06    -346.659E+03    -296.310E-03     592.618E-03    -296.308E-03     5.29999E-03    -296.347E-03     592.336E-03    -296.449E-03     5.03515E-03
             293     1.33798E-03     100.434E-03    -79.9605E+06    -98.5588E+06    -77.7493E+06     2.90587E+06    -296.221E-03     592.463E-03    -296.241E-03     8.95042E-03    -296.333E-03     592.173E-03    -296.371E-03     8.80726E-03
             294     2.00679E-03     100.455E-03    -76.6158E+06    -84.1072E+06    -68.0025E+06     5.77602E+06    -296.241E-03     592.480E-03    -296.238E-03     12.6486E-03    -296.385E-03     592.252E-03    -296.345E-03     12.5349E-03
             295     2.67706E-03     100.482E-03    -76.6823E+06    -71.6698E+06    -58.6961E+06     6.78931E+06    -296.402E-03     592.673E-03    -296.271E-03     17.2000E-03    -296.584E-03     592.499E-03    -296.350E-03     16.8980E-03
             296     3.34602E-03     100.522E-03    -75.0620E+06    -63.7761E+06    -48.8487E+06     5.31442E+06    -296.829E-03     593.188E-03    -296.359E-03     21.6689E-03    -297.035E-03     593.043E-03    -296.402E-03     21.1441E-03
             297     4.01457E-03     100.565E-03    -67.5091E+06    -53.3346E+06    -33.3014E+06     5.01612E+06    -297.015E-03     593.501E-03    -296.487E-03     26.4432E-03    -297.231E-03     593.385E-03    -296.478E-03     25.7765E-03
             298     4.68396E-03     100.621E-03    -66.8243E+06    -45.9065E+06    -25.0180E+06     3.38329E+06    -296.811E-03     593.365E-03    -296.555E-03     32.6227E-03    -297.064E-03     593.291E-03    -296.516E-03     31.4934E-03
             299     5.35157E-03     100.685E-03    -63.2258E+06    -34.2368E+06    -18.3597E+06     2.43576E+06    -296.716E-03     593.275E-03    -296.559E-03     37.5923E-03    -296.991E-03     593.257E-03    -296.509E-03     36.1616E-03
             300     6.02052E-03     100.754E-03    -51.8330E+06    -19.8442E+06    -5.87329E+06     505.588E+03    -296.591E-03     593.140E-03    -296.549E-03     43.0048E-03    -296.870E-03     593.181E-03    -296.474E-03     41.0745E-03
             301     6.69078E-03     100.831E-03    -46.1561E+06    -12.1912E+06     6.23554E+06     964.430E+03    -296.496E-03     593.028E-03    -296.532E-03     48.9297E-03    -296.815E-03     593.122E-03    -296.417E-03     46.0643E-03
             302     7.36007E-03     100.916E-03    -47.8215E+06    -11.2121E+06     14.3776E+06     805.382E+03    -296.915E-03     593.446E-03    -296.530E-03     51.3484E-03    -297.278E-03     593.557E-03    -296.373E-03     47.9560E-03
             303     8.02967E-03     101.007E-03    -40.7175E+06    -2.62340E+06     28.6457E+06     3.94442E+06    -296.880E-03     593.432E-03    -296.552E-03     54.2849E-03    -297.251E-03     593.566E-03    -296.346E-03     50.8198E-03
             304     8.70095E-03     101.114E-03    -29.2261E+06     9.08099E+06     43.0141E+06     8.62895E+06    -296.411E-03     592.946E-03    -296.535E-03     59.3127E-03    -296.792E-03     593.131E-03    -296.291E-03     55.5500E-03
             305     9.37045E-03     101.225E-03    -22.0243E+06     15.6394E+06     50.0191E+06     1.11078E+06    -296.650E-03     593.129E-03    -296.479E-03     64.3567E-03    -297.075E-03     593.386E-03    -296.219E-03     59.4936E-03
             306     10.0397E-03     101.341E-03    -20.1448E+06     18.0637E+06     51.6936E+06    -3.11522E+06    -296.954E-03     593.376E-03    -296.423E-03     68.9329E-03    -297.402E-03     593.668E-03    -296.161E-03     63.7307E-03
             307     10.7083E-03     101.469E-03    -10.5359E+06     27.2616E+06     60.5487E+06     1.29719E+06    -296.869E-03     593.250E-03    -296.381E-03     72.6661E-03    -297.307E-03     593.572E-03    -296.102E-03     67.5265E-03
             308     11.3829E-03     101.599E-03    -8.95507E+06     28.9398E+06     62.3532E+06     752.856E+03    -297.416E-03     593.751E-03    -296.335E-03     76.0614E-03    -297.910E-03     594.136E-03    -296.052E-03     69.9484E-03
             309     12.0490E-03     101.725E-03    -14.6531E+06     25.2535E+06     58.1658E+06    -635.328E+03    -298.267E-03     594.584E-03    -296.316E-03     77.7270E-03    -298.781E-03     594.966E-03    -296.041E-03     71.5160E-03
             310     12.7172E-03     101.865E-03    -6.63646E+06     32.6006E+06     67.4123E+06     2.59232E+06    -297.939E-03     594.274E-03    -296.335E-03     79.1527E-03    -298.364E-03     594.596E-03    -296.035E-03     74.2638E-03
             311     669.704E-06     102.135E-03    -80.9236E+06    -109.928E+06    -79.6349E+06     754.215E+03    -296.459E-03     592.712E-03    -296.254E-03     4.71383E-03    -296.472E-03     592.414E-03    -296.375E-03     4.71191E-03
             312     1.33873E-03     102.150E-03    -80.6562E+06    -104.558E+06    -77.7132E+06    -204.424E+03    -296.642E-03     592.995E-03    -296.353E-03     9.34942E-03    -296.743E-03     592.671E-03    -296.473E-03     9.11480E-03
             313     2.00791E-03     102.169E-03    -79.5353E+06    -95.5627E+06    -74.2488E+06     1.33146E+06    -296.920E-03     593.396E-03    -296.476E-03     12.4798E-03    -297.050E-03     593.122E-03    -296.594E-03     12.2407E-03
             314     2.67554E-03     102.198E-03    -74.1740E+06    -77.7949E+06    -63.2997E+06     4.55511E+06    -296.610E-03     593.167E-03    -296.557E-03     16.9753E-03    -296.763E-03     592.965E-03    -296.653E-03     16.6764E-03
             315     3.34463E-03     102.236E-03    -72.0606E+06    -64.5970E+06    -52.3689E+06     5.95031E+06    -296.311E-03     592.861E-03    -296.550E-03     22.2807E-03    -296.496E-03     592.713E-03    -296.614E-03     21.8585E-03
             316     4.01349E-03     102.283E-03    -69.1307E+06    -57.0605E+06    -42.0936E+06     6.28861E+06    -296.282E-03     592.797E-03    -296.515E-03     27.8850E-03    -296.489E-03     592.678E-03    -296.542E-03     27.2676E-03
             317     4.68204E-03     102.335E-03    -60.3983E+06    -46.1421E+06    -26.0850E+06     6.24274E+06    -296.086E-03     592.567E-03    -296.481E-03     34.2948E-03    -296.306E-03     592.485E-03    -296.457E-03     33.2311E-03
             318     5.35368E-03     102.399E-03    -54.6305E+06    -29.7753E+06    -10.5457E+06     5.68445E+06    -295.913E-03     592.334E-03    -296.420E-03     39.1974E-03    -296.163E-03     592.315E-03    -296.351E-03     37.8745E-03
             319     6.02413E-03     102.468E-03    -52.6176E+06    -16.7158E+06     2.01308E+06     3.73709E+06    -296.245E-03     592.618E-03    -296.373E-03     43.2557E-03    -296.540E-03     592.661E-03    -296.263E-03     41.4975E-03
             320     6.69376E-03     102.545E-03    -50.3331E+06    -11.2590E+06     13.3844E+06     4.96934E+06    -297.219E-03     593.619E-03    -296.400E-03     48.5770E-03    -297.563E-03     593.706E-03    -296.244E-03     45.9853E-03
             321     7.36212E-03     102.635E-03    -44.4892E+06    -4.35684E+06     24.1811E+06     2.46799E+06    -298.542E-03     595.053E-03    -296.512E-03     52.1967E-03    -298.903E-03     595.171E-03    -296.320E-03     49.1346E-03
             322     8.02829E-03     102.725E-03    -36.7379E+06     2.55953E+06     32.8963E+06     1.76287E+06    -298.614E-03     595.262E-03    -296.648E-03     55.4525E-03    -298.993E-03     595.425E-03    -296.434E-03     51.6787E-03
             323     8.69575E-03     102.825E-03    -33.6625E+06     4.48329E+06     35.1584E+06     2.38173E+06    -296.849E-03     593.523E-03    -296.674E-03     60.6343E-03    -297.269E-03     593.737E-03    -296.456E-03     56.0406E-03
             324     9.36756E-03     102.936E-03    -26.0677E+06     11.4814E+06     43.8402E+06     1.89440E+06    -296.097E-03     592.704E-03    -296.607E-03     65.9973E-03    -296.521E-03     592.949E-03    -296.366E-03     61.3381E-03
             325     10.0374E-03     103.057E-03    -19.6442E+06     19.7200E+06     54.1860E+06     3.83140E+06    -296.393E-03     592.917E-03    -296.524E-03     70.2079E-03    -296.833E-03     593.201E-03    -296.254E-03     65.3937E-03
             326     10.7089E-03     103.178E-03    -17.9689E+06     22.4182E+06     57.4600E+06     895.665E+03    -295.928E-03     592.346E-03    -296.418E-03     74.1460E-03    -296.400E-03     592.667E-03    -296.137E-03     68.9109E-03
             327     11.3769E-03     103.309E-03    -11.3628E+06     27.9847E+06     63.1381E+06     1.71286E+06    -296.262E-03     592.569E-03    -296.307E-03     77.9817E-03    -296.729E-03     592.912E-03    -296.015E-03     72.6669E-03
             328     12.0484E-03     103.446E-03    -8.65731E+06     30.7291E+06     65.5374E+06     3.10936E+06    -297.199E-03     593.422E-03    -296.223E-03     81.8563E-03    -297.667E-03     593.778E-03    -295.927E-03     76.5431E-03
             329     12.7173E-03     103.578E-03    -6.92519E+06     32.1062E+06     67.0323E+06    -1.46398E+06    -295.868E-03     591.995E-03    -296.127E-03     83.3805E-03    -296.321E-03     592.344E-03    -295.829E-03     78.1986E-03
             330     668.850E-06     103.850E-03    -79.7870E+06    -115.068E+06    -78.7674E+06     4.78114E+06    -297.525E-03     593.050E-03    -295.526E-03     4.35717E-03    -297.510E-03     592.713E-03    -295.637E-03     4.50732E-03
             331     1.33762E-03     103.865E-03    -79.3998E+06    -108.336E+06    -74.5742E+06     4.72951E+06    -296.697E-03     593.195E-03    -296.498E-03     9.56057E-03    -296.777E-03     592.835E-03    -296.599E-03     9.51985E-03
             332     2.00542E-03     103.887E-03    -80.9198E+06    -101.385E+06    -72.4925E+06     4.81678E+06    -296.695E-03     593.242E-03    -296.547E-03     13.9346E-03    -296.822E-03     592.935E-03    -296.645E-03     13.8433E-03
             333     2.67498E-03     103.914E-03    -77.3945E+06    -87.1637E+06    -65.9992E+06     5.43143E+06    -296.445E-03     592.987E-03    -296.541E-03     18.6145E-03    -296.595E-03     592.744E-03    -296.633E-03     18.4295E-03
             334     3.34468E-03     103.950E-03    -73.2368E+06    -71.1663E+06    -57.4849E+06     7.03175E+06    -295.877E-03     592.330E-03    -296.453E-03     23.7460E-03    -296.049E-03     592.157E-03    -296.531E-03     23.3922E-03
             335     4.01546E-03     103.995E-03    -68.8556E+06    -57.9232E+06    -45.0395E+06     6.65130E+06    -295.654E-03     591.992E-03    -296.338E-03     28.5659E-03    -295.855E-03     591.874E-03    -296.380E-03     27.8849E-03
             336     4.68658E-03     104.049E-03    -61.8381E+06    -46.6952E+06    -27.8388E+06     7.17168E+06    -295.890E-03     592.164E-03    -296.274E-03     33.5902E-03    -296.111E-03     592.081E-03    -296.256E-03     32.5697E-03
             337     5.35464E-03     104.112E-03    -57.7808E+06    -31.5706E+06    -12.9340E+06     7.32215E+06    -296.174E-03     592.422E-03    -296.247E-03     37.5969E-03    -296.431E-03     592.399E-03    -296.182E-03     36.2686E-03
             338     6.02403E-03     104.181E-03    -54.5345E+06    -17.2790E+06     1.12685E+06     7.44486E+06    -296.672E-03     592.940E-03    -296.268E-03     41.5844E-03    -296.969E-03     592.978E-03    -296.158E-03     39.9613E-03
             339     6.69223E-03     104.262E-03    -47.0945E+06    -7.11934E+06     16.5053E+06     7.95218E+06    -297.160E-03     593.494E-03    -296.334E-03     47.6054E-03    -297.482E-03     593.576E-03    -296.173E-03     45.4774E-03
             340     7.36102E-03     104.351E-03    -41.0308E+06    -1.01841E+06     28.4239E+06     7.42358E+06    -297.515E-03     593.921E-03    -296.405E-03     53.3607E-03    -297.848E-03     594.022E-03    -296.202E-03     51.0362E-03
             341     8.03045E-03     104.447E-03    -40.6144E+06    -727.717E+03     32.3915E+06     2.19905E+06    -297.917E-03     594.381E-03    -296.464E-03     58.5315E-03    -298.309E-03     594.532E-03    -296.242E-03     55.0222E-03
             342     8.69926E-03     104.540E-03    -39.6196E+06     899.063E+03     34.6637E+06    -3.98618E+06    -297.632E-03     594.129E-03    -296.497E-03     64.8769E-03    -298.101E-03     594.360E-03    -296.268E-03     59.8597E-03
             343     9.36796E-03     104.647E-03    -33.1463E+06     6.81295E+06     42.8458E+06     158.562E+03    -296.704E-03     593.183E-03    -296.479E-03     70.7195E-03    -297.164E-03     593.425E-03    -296.227E-03     66.1137E-03
             344     10.0397E-03     104.770E-03    -23.4813E+06     16.6318E+06     52.9701E+06     5.98444E+06    -295.785E-03     592.168E-03    -296.384E-03     73.4442E-03    -296.236E-03     592.441E-03    -296.109E-03     68.9039E-03
             345     10.7096E-03     104.889E-03    -17.6279E+06     22.9192E+06     58.1388E+06     2.39164E+06    -295.560E-03     591.800E-03    -296.240E-03     77.4790E-03    -296.042E-03     592.133E-03    -295.957E-03     72.2486E-03
             346     11.3832E-03     105.021E-03    -10.9670E+06     30.1477E+06     64.4315E+06     137.437E+03    -295.101E-03     591.183E-03    -296.082E-03     81.7774E-03    -295.577E-03     591.540E-03    -295.788E-03     76.5887E-03
             347     12.0552E-03     105.154E-03    -6.25977E+06     33.7704E+06     69.2418E+06     4.06759E+06    -294.515E-03     590.415E-03    -295.900E-03     83.8359E-03    -294.961E-03     590.757E-03    -295.594E-03     79.0642E-03
             348     12.7299E-03     105.290E-03    -3.53350E+06     36.5403E+06     72.3820E+06    -1.90479E+06    -295.736E-03     591.482E-03    -295.746E-03     83.6146E-03    -296.199E-03     591.852E-03    -295.432E-03     78.2691E-03
             349     668.990E-06     105.568E-03    -87.1548E+06    -128.296E+06    -85.9494E+06     2.71370E+06    -296.696E-03     592.342E-03    -295.646E-03     6.29758E-03    -296.690E-03     591.969E-03    -295.764E-03     6.27116E-03
             350     1.33800E-03     105.579E-03    -84.0339E+06    -120.154E+06    -80.9645E+06     5.23990E+06    -296.415E-03     592.565E-03    -296.150E-03     10.5171E-03    -296.495E-03     592.167E-03    -296.259E-03     10.4761E-03
             351     2.00902E-03     105.602E-03    -80.1372E+06    -106.892E+06    -71.8363E+06     7.34591E+06    -295.933E-03     592.097E-03    -296.164E-03     14.8027E-03    -296.051E-03     591.762E-03    -296.252E-03     14.7475E-03
             352     2.67785E-03     105.629E-03    -78.1173E+06    -92.7981E+06    -63.7311E+06     7.41774E+06    -296.145E-03     592.266E-03    -296.121E-03     19.0031E-03    -296.296E-03     591.996E-03    -296.192E-03     18.7878E-03
             353     3.34676E-03     105.664E-03    -75.4600E+06    -75.1745E+06    -55.2459E+06     6.51215E+06    -296.388E-03     592.525E-03    -296.136E-03     23.7254E-03    -296.572E-03     592.334E-03    -296.194E-03     23.1987E-03
             354     4.01540E-03     105.708E-03    -72.5233E+06    -60.3907E+06    -45.0858E+06     6.69864E+06    -296.483E-03     592.666E-03    -296.182E-03     27.8091E-03    -296.700E-03     592.542E-03    -296.215E-03     27.0208E-03
             355     4.68368E-03     105.762E-03    -69.5233E+06    -52.3267E+06    -32.9974E+06     7.86923E+06    -296.438E-03     592.673E-03    -296.235E-03     32.0212E-03    -296.680E-03     592.579E-03    -296.224E-03     31.0273E-03
             356     5.35434E-03     105.826E-03    -62.4021E+06    -35.1457E+06    -18.8273E+06     7.34253E+06    -296.387E-03     592.645E-03    -296.258E-03     36.6164E-03    -296.651E-03     592.617E-03    -296.211E-03     35.3469E-03
             357     6.02314E-03     105.897E-03    -56.0636E+06    -20.2615E+06    -7.61039E+06     7.09484E+06    -296.332E-03     592.583E-03    -296.251E-03     41.9507E-03    -296.619E-03     592.621E-03    -296.178E-03     40.3773E-03
             358     6.69344E-03     105.976E-03    -50.8492E+06    -13.6702E+06     3.94620E+06     5.50848E+06    -295.979E-03     592.205E-03    -296.227E-03     48.2593E-03    -296.289E-03     592.275E-03    -296.113E-03     46.2369E-03
             359     7.36403E-03     106.064E-03    -45.3903E+06     -6.7841E+06     19.0044E+06     7.87927E+06    -295.312E-03     591.475E-03    -296.163E-03     53.9997E-03    -295.642E-03     591.565E-03    -295.992E-03     51.7795E-03
             360     8.03478E-03     106.159E-03    -40.4247E+06    -108.553E+03     34.9149E+06     5.62893E+06    -295.381E-03     591.462E-03    -296.081E-03     59.4350E-03    -295.762E-03     591.598E-03    -295.847E-03     56.3552E-03
             361     8.70486E-03     106.257E-03    -30.2376E+06     12.5778E+06     52.3205E+06     815.828E+03    -296.692E-03     592.739E-03    -296.047E-03     65.8651E-03    -297.131E-03     592.964E-03    -295.760E-03     61.5133E-03
             362     9.37401E-03     106.363E-03    -25.5042E+06     17.4642E+06     58.0908E+06     2.08739E+06    -296.975E-03     592.999E-03    -296.024E-03     72.6521E-03    -297.446E-03     593.273E-03    -295.722E-03     67.9405E-03
             363     10.0429E-03     106.479E-03    -24.7646E+06     16.9499E+06     55.9717E+06     2.23318E+06    -296.044E-03     591.983E-03    -295.939E-03     76.9477E-03    -296.536E-03     592.286E-03    -295.648E-03     71.9705E-03
             364     10.7159E-03     106.599E-03    -16.5963E+06     24.1697E+06     60.5809E+06     1.50847E+06    -295.539E-03     591.355E-03    -295.816E-03     80.1453E-03    -296.036E-03     591.703E-03    -295.524E-03     74.8195E-03
             365     11.3852E-03     106.730E-03    -12.6892E+06     28.4834E+06     62.9208E+06    -270.056E+03    -295.410E-03     591.087E-03    -295.676E-03     82.5171E-03    -295.922E-03     591.472E-03    -295.385E-03     76.8270E-03
             366     12.0581E-03     106.856E-03    -6.65893E+06     34.7630E+06     69.1100E+06     1.28212E+06    -295.232E-03     590.784E-03    -295.552E-03     81.9566E-03    -295.699E-03     591.150E-03    -295.247E-03     76.7327E-03
             367     12.7287E-03     106.998E-03    -1.93938E+06     38.7978E+06     73.4976E+06    -417.745E+03    -295.143E-03     590.572E-03    -295.429E-03     81.8171E-03    -295.576E-03     590.922E-03    -295.114E-03     76.8755E-03
             368     671.211E-06     107.283E-03    -89.0153E+06    -133.942E+06    -87.0015E+06     710.801E+03    -295.168E-03     591.723E-03    -296.555E-03     6.44613E-03    -295.172E-03     591.342E-03    -296.667E-03     6.18744E-03
             369     1.33953E-03     107.293E-03    -88.3805E+06    -129.862E+06    -86.1623E+06     913.171E+03    -296.034E-03     591.863E-03    -295.830E-03     8.90412E-03    -296.121E-03     591.437E-03    -295.944E-03     8.66398E-03
             370     2.00750E-03     107.313E-03    -82.6115E+06    -116.418E+06    -77.4911E+06     2.76065E+06    -295.869E-03     591.736E-03    -295.867E-03     13.4223E-03    -295.979E-03     591.367E-03    -295.966E-03     13.1121E-03
             371     2.67804E-03     107.342E-03    -79.0620E+06    -100.345E+06    -68.2025E+06     5.69848E+06    -295.941E-03     591.811E-03    -295.870E-03     17.7122E-03    -296.082E-03     591.514E-03    -295.951E-03     17.3815E-03
             372     3.34738E-03     107.379E-03    -74.4177E+06    -78.2442E+06    -55.2847E+06     8.43717E+06    -296.413E-03     592.341E-03    -295.928E-03     22.9189E-03    -296.588E-03     592.135E-03    -295.983E-03     22.4727E-03
             373     4.01609E-03     107.424E-03    -74.8348E+06    -63.2036E+06    -46.9359E+06     9.55399E+06    -296.721E-03     592.746E-03    -296.025E-03     28.5141E-03    -296.942E-03     592.613E-03    -296.060E-03     27.8871E-03
             374     4.68512E-03     107.478E-03    -71.3621E+06    -53.4589E+06    -36.8842E+06     8.64754E+06    -296.574E-03     592.683E-03    -296.109E-03     34.1320E-03    -296.821E-03     592.593E-03    -296.112E-03     33.1675E-03
             375     5.35323E-03     107.539E-03    -64.0225E+06    -36.1227E+06    -24.0814E+06     7.36050E+06    -296.079E-03     592.199E-03    -296.120E-03     39.2907E-03    -296.346E-03     592.180E-03    -296.095E-03     38.0183E-03
             376     6.02387E-03     107.610E-03    -59.5874E+06    -22.1449E+06    -12.1130E+06     5.91688E+06    -295.632E-03     591.701E-03    -296.069E-03     44.2351E-03    -295.931E-03     591.745E-03    -296.011E-03     42.6396E-03
             377     6.69376E-03     107.687E-03    -54.1266E+06    -14.9398E+06     3.14235E+06     4.69026E+06    -295.134E-03     591.130E-03    -295.996E-03     49.5551E-03    -295.462E-03     591.204E-03    -295.880E-03     47.4490E-03
             378     7.36453E-03     107.774E-03    -47.2335E+06    -5.83362E+06     18.5370E+06     4.04692E+06    -294.156E-03     590.017E-03    -295.861E-03     54.2384E-03    -294.515E-03     590.133E-03    -295.691E-03     51.5004E-03
             379     8.03715E-03     107.865E-03    -37.3269E+06     4.48534E+06     36.0138E+06     4.20464E+06    -293.795E-03     589.482E-03    -295.687E-03     59.4097E-03    -294.169E-03     589.635E-03    -295.459E-03     56.2783E-03
             380     8.70955E-03     107.969E-03    -30.3848E+06     11.9955E+06     50.2501E+06     4.19993E+06    -294.704E-03     590.245E-03    -295.541E-03     65.1933E-03    -295.115E-03     590.445E-03    -295.263E-03     61.4482E-03
             381     9.38035E-03     108.076E-03    -25.1277E+06     17.7710E+06     59.0379E+06     4.25796E+06    -295.557E-03     591.003E-03    -295.447E-03     70.7923E-03    -296.019E-03     591.268E-03    -295.141E-03     66.1939E-03
             382     10.0527E-03     108.189E-03    -22.1531E+06     20.8383E+06     61.6181E+06     2.15425E+06    -296.041E-03     591.414E-03    -295.373E-03     76.1737E-03    -296.546E-03     591.735E-03    -295.063E-03     70.9334E-03
             383     10.7208E-03     108.312E-03    -19.7014E+06     23.4144E+06     61.4602E+06     1.00671E+06    -296.157E-03     591.458E-03    -295.301E-03     79.3331E-03    -296.677E-03     591.813E-03    -294.999E-03     73.7876E-03
             384     11.3943E-03     108.436E-03    -12.1994E+06     30.5320E+06     67.0432E+06     2.73155E+06    -296.522E-03     591.774E-03    -295.252E-03     82.3323E-03    -297.023E-03     592.146E-03    -294.944E-03     76.9550E-03
             385     12.0620E-03     108.575E-03    -7.27198E+06     34.5846E+06     69.4589E+06    -575.142E+03    -296.922E-03     592.136E-03    -295.214E-03     83.4864E-03    -297.419E-03     592.528E-03    -294.906E-03     77.8279E-03
             386     12.7330E-03     108.700E-03    -4.19594E+06     38.0015E+06     72.7650E+06    -2.06398E+06    -296.129E-03     591.306E-03    -295.177E-03     81.9364E-03    -296.587E-03     591.673E-03    -294.862E-03     76.6886E-03
             387     666.727E-06     108.991E-03    -87.7042E+06    -137.766E+06    -86.9661E+06     742.381E+03    -295.492E-03     592.008E-03    -296.516E-03     5.08667E-03    -295.487E-03     591.598E-03    -296.624E-03     4.88864E-03
             388     1.33844E-03     109.007E-03    -87.3001E+06    -132.779E+06    -84.3134E+06     1.85286E+06    -295.371E-03     591.183E-03    -295.812E-03     10.0452E-03    -295.444E-03     590.731E-03    -295.914E-03     9.81425E-03
             389     2.00894E-03     109.026E-03    -87.5927E+06    -124.875E+06    -81.0088E+06     3.09643E+06    -295.945E-03     591.658E-03    -295.712E-03     14.0910E-03    -296.059E-03     591.255E-03    -295.809E-03     13.8686E-03
             390     2.67741E-03     109.054E-03    -83.7193E+06    -109.515E+06    -72.5348E+06     4.96024E+06    -296.002E-03     591.770E-03    -295.768E-03     18.7300E-03    -296.145E-03     591.438E-03    -295.850E-03     18.4531E-03
             391     3.34709E-03     109.092E-03    -79.1679E+06    -90.0318E+06    -62.1042E+06     7.39733E+06    -295.739E-03     591.519E-03    -295.780E-03     23.4401E-03    -295.910E-03     591.271E-03    -295.846E-03     23.0994E-03
             392     4.01723E-03     109.138E-03    -73.4166E+06    -67.1639E+06    -49.8197E+06     8.54033E+06    -295.399E-03     591.130E-03    -295.732E-03     29.0853E-03    -295.602E-03     590.979E-03    -295.777E-03     28.5246E-03
             393     4.68701E-03     109.191E-03    -69.2702E+06    -51.8717E+06    -38.4201E+06     7.34895E+06    -295.380E-03     591.046E-03    -295.666E-03     35.4064E-03    -295.618E-03     590.965E-03    -295.682E-03     34.4059E-03
             394     5.35782E-03     109.253E-03    -66.3278E+06    -36.9596E+06    -26.8656E+06     6.77155E+06    -295.424E-03     591.033E-03    -295.609E-03     41.2141E-03    -295.700E-03     591.021E-03    -295.594E-03     39.8943E-03
             395     6.02730E-03     109.321E-03    -60.3983E+06    -20.7742E+06    -10.0753E+06     7.20196E+06    -295.259E-03     590.828E-03    -295.569E-03     46.3664E-03    -295.569E-03     590.879E-03    -295.501E-03     44.7832E-03
             396     6.69812E-03     109.399E-03    -53.4928E+06    -11.9856E+06     7.87917E+06     6.52137E+06    -294.855E-03     590.372E-03    -295.516E-03     51.3622E-03    -295.196E-03     590.457E-03    -295.382E-03     49.2056E-03
             397     7.36920E-03     109.483E-03    -46.6091E+06    -2.75703E+06     23.6672E+06     4.36121E+06    -294.528E-03     589.955E-03    -295.427E-03     55.4316E-03    -294.902E-03     590.085E-03    -295.237E-03     52.5554E-03
             398     8.04022E-03     109.572E-03    -41.2494E+06     3.44553E+06     34.8133E+06     2.06536E+06    -294.141E-03     589.443E-03    -295.302E-03     59.7742E-03    -294.543E-03     589.610E-03    -295.073E-03     56.3481E-03
             399     8.71179E-03     109.676E-03    -36.9110E+06     6.51384E+06     42.2386E+06     2.27383E+06    -293.801E-03     588.947E-03    -295.146E-03     64.4165E-03    -294.222E-03     589.137E-03    -294.890E-03     60.7000E-03
             400     9.38455E-03     109.783E-03    -30.9222E+06     11.9505E+06     50.8178E+06     3.57933E+06    -294.444E-03     589.453E-03    -295.010E-03     68.6517E-03    -294.896E-03     589.691E-03    -294.728E-03     64.3353E-03
             401     10.0542E-03     109.900E-03    -22.3615E+06     21.5747E+06     61.0530E+06     3.12364E+06    -295.617E-03     590.556E-03    -294.940E-03     73.4486E-03    -296.105E-03     590.865E-03    -294.633E-03     68.3980E-03
             402     10.7272E-03     110.021E-03    -16.2217E+06     28.1966E+06     66.5913E+06     1.66420E+06    -296.495E-03     591.414E-03    -294.919E-03     76.5929E-03    -297.012E-03     591.780E-03    -294.603E-03     70.9232E-03
             403     11.3946E-03     110.147E-03    -12.6544E+06     31.8764E+06     68.9022E+06     935.338E+03    -296.740E-03     591.655E-03    -294.915E-03     79.9125E-03    -297.257E-03     592.041E-03    -294.599E-03     74.2312E-03
             404     12.0681E-03     110.283E-03    -9.01214E+06     35.1978E+06     72.0891E+06    -1.37834E+06    -297.268E-03     592.197E-03    -294.929E-03     81.5784E-03    -297.788E-03     592.601E-03    -294.606E-03     75.6563E-03
             405     12.7373E-03     110.415E-03    -3.74049E+06     41.4840E+06     78.3516E+06    -1.02235E+06    -298.069E-03     593.053E-03    -294.984E-03     79.2040E-03    -298.529E-03     593.420E-03    -294.647E-03     73.9333E-03
             406     671.326E-06     110.702E-03    -88.9314E+06    -144.995E+06    -88.6150E+06     1.72583E+06    -294.991E-03     590.700E-03    -295.709E-03     3.84289E-03    -294.980E-03     590.240E-03    -295.813E-03     3.97196E-03
             407     1.34016E-03     110.718E-03    -87.8248E+06    -138.430E+06    -84.0098E+06     3.37117E+06    -295.364E-03     590.654E-03    -295.290E-03     10.7557E-03    -295.427E-03     590.167E-03    -295.382E-03     10.7351E-03
             408     2.00911E-03     110.738E-03    -87.9273E+06    -130.473E+06    -80.1498E+06     4.29045E+06    -295.372E-03     590.665E-03    -295.293E-03     14.9120E-03    -295.478E-03     590.231E-03    -295.377E-03     14.7862E-03
             409     2.67917E-03     110.768E-03    -84.3814E+06    -116.500E+06    -72.1264E+06     5.13527E+06    -295.457E-03     590.765E-03    -295.308E-03     20.4301E-03    -295.593E-03     590.398E-03    -295.377E-03     20.1435E-03
             410     3.34834E-03     110.803E-03    -80.3747E+06    -99.3157E+06    -63.4307E+06     5.87973E+06    -295.233E-03     590.529E-03    -295.296E-03     25.4814E-03    -295.395E-03     590.238E-03    -295.353E-03     25.0870E-03
             411     4.01866E-03     110.848E-03    -73.5771E+06    -74.0750E+06    -50.5223E+06     6.82491E+06    -294.786E-03     590.014E-03    -295.228E-03     30.3113E-03    -294.978E-03     589.829E-03    -295.266E-03     29.7210E-03
             412     4.69034E-03     110.900E-03    -68.2562E+06    -51.9697E+06    -35.9514E+06     6.50169E+06    -294.461E-03     589.590E-03    -295.128E-03     35.3166E-03    -294.696E-03     589.502E-03    -295.134E-03     34.3524E-03
             413     5.36079E-03     110.963E-03    -65.2465E+06    -37.9172E+06    -22.3418E+06     6.24565E+06    -294.488E-03     589.525E-03    -295.037E-03     40.2602E-03    -294.762E-03     589.498E-03    -295.000E-03     38.9653E-03
             414     6.03206E-03     111.032E-03    -60.1566E+06    -23.2258E+06    -8.11292E+06     7.35103E+06    -294.578E-03     589.544E-03    -294.966E-03     45.2651E-03    -294.885E-03     589.579E-03    -294.886E-03     43.6708E-03
             415     6.70249E-03     111.108E-03    -55.0071E+06    -12.4909E+06     4.88407E+06     5.94452E+06    -294.504E-03     589.408E-03    -294.903E-03     50.2023E-03    -294.846E-03     589.496E-03    -294.781E-03     47.9961E-03
             416     7.37352E-03     111.191E-03    -48.9951E+06    -4.84777E+06     18.8850E+06     4.62322E+06    -294.908E-03     589.773E-03    -294.866E-03     55.2244E-03    -295.278E-03     589.898E-03    -294.693E-03     52.4813E-03
             417     8.04330E-03     111.284E-03    -42.7554E+06     2.33402E+06     33.1911E+06     3.14297E+06    -295.280E-03     590.143E-03    -294.863E-03     59.7470E-03    -295.698E-03     590.321E-03    -294.638E-03     56.0562E-03
             418     8.71477E-03     111.378E-03    -35.3292E+06     10.2101E+06     46.9686E+06     2.75959E+06    -294.832E-03     589.680E-03    -294.848E-03     63.7858E-03    -295.269E-03     589.892E-03    -294.577E-03     59.7447E-03
             419     9.38597E-03     111.492E-03    -28.4300E+06     16.9733E+06     56.9136E+06     3.55460E+06    -294.626E-03     589.413E-03    -294.787E-03     67.7708E-03    -295.082E-03     589.663E-03    -294.486E-03     63.4357E-03
             420     10.0589E-03     111.606E-03    -22.9136E+06     22.4204E+06     62.5236E+06     2.19935E+06    -295.305E-03     590.027E-03    -294.722E-03     72.0949E-03    -295.791E-03     590.329E-03    -294.408E-03     67.1636E-03
             421     10.7272E-03     111.734E-03    -17.1659E+06     28.4417E+06     66.5416E+06     569.821E+03    -296.366E-03     591.064E-03    -294.698E-03     75.5384E-03    -296.874E-03     591.419E-03    -294.382E-03     70.0966E-03
             422     11.3996E-03     111.856E-03    -11.5904E+06     34.0208E+06     71.2277E+06    -385.111E+03    -297.303E-03     592.034E-03    -294.732E-03     78.5279E-03    -297.839E-03     592.444E-03    -294.408E-03     72.4638E-03
             423     12.0674E-03     111.992E-03    -7.44372E+06     38.2458E+06     75.4823E+06     210.208E+03    -297.902E-03     592.700E-03    -294.798E-03     80.3588E-03    -298.420E-03     593.108E-03    -294.466E-03     74.4794E-03
             424     12.7365E-03     112.131E-03    -4.40366E+06     42.1267E+06     78.1982E+06     655.816E+03    -297.768E-03     592.630E-03    -294.863E-03     77.8311E-03    -298.209E-03     592.979E-03    -294.526E-03     72.8777E-03
             425     670.024E-06     112.416E-03    -90.2658E+06    -151.930E+06    -90.2887E+06     1.26413E+06    -294.654E-03     589.245E-03    -294.591E-03     4.91142E-03    -294.648E-03     588.758E-03    -294.691E-03     4.95107E-03
             426     1.33969E-03     112.427E-03    -88.9474E+06    -145.729E+06    -85.9646E+06     2.24226E+06    -295.019E-03     589.665E-03    -294.646E-03     9.99772E-03    -295.086E-03     589.154E-03    -294.735E-03     9.92758E-03
             427     2.01088E-03     112.449E-03    -86.1967E+06    -135.382E+06    -79.4136E+06     3.24945E+06    -294.495E-03     589.181E-03    -294.686E-03     15.3658E-03    -294.589E-03     588.721E-03    -294.762E-03     15.1888E-03
             428     2.68134E-03     112.476E-03    -83.1061E+06    -121.476E+06    -71.1657E+06     4.04744E+06    -294.503E-03     589.127E-03    -294.623E-03     20.3051E-03    -294.629E-03     588.733E-03    -294.683E-03     19.9980E-03
             429     3.35280E-03     112.514E-03     -79.267E+06    -102.848E+06    -60.8889E+06     4.76116E+06    -294.608E-03     589.203E-03    -294.594E-03     24.9490E-03    -294.765E-03     588.890E-03    -294.635E-03     24.5088E-03
             430     4.02270E-03     112.557E-03    -75.6070E+06    -79.7667E+06    -49.7586E+06     5.64063E+06    -294.691E-03     589.275E-03    -294.583E-03     29.9913E-03    -294.889E-03     589.065E-03    -294.607E-03     29.3259E-03
             431     4.69195E-03     112.610E-03    -70.4658E+06    -55.2746E+06    -36.3075E+06     6.54865E+06    -294.531E-03     589.101E-03    -294.570E-03     35.1292E-03    -294.771E-03     589.000E-03    -294.569E-03     34.1526E-03
             432     5.36321E-03     112.670E-03    -65.4034E+06    -40.9706E+06    -22.3453E+06     7.14987E+06    -294.272E-03     588.814E-03    -294.542E-03     39.7932E-03    -294.543E-03     588.772E-03    -294.500E-03     38.4887E-03
             433     6.03411E-03     112.740E-03    -59.9003E+06    -26.0598E+06    -8.53321E+06     7.24705E+06    -294.148E-03     588.640E-03    -294.492E-03     44.1308E-03    -294.452E-03     588.664E-03    -294.410E-03     42.4174E-03
             434     6.70577E-03     112.815E-03    -54.1785E+06    -10.3574E+06     5.17684E+06     6.17663E+06    -294.364E-03     588.813E-03    -294.449E-03     48.4824E-03    -294.703E-03     588.908E-03    -294.329E-03     46.3058E-03
             435     7.37680E-03     112.899E-03    -48.4402E+06    -2.82414E+06     19.5779E+06     5.15201E+06    -294.779E-03     589.228E-03    -294.449E-03     53.5682E-03    -295.146E-03     589.356E-03    -294.277E-03     50.8888E-03
             436     8.04844E-03     112.993E-03    -42.0482E+06     3.84230E+06     34.7632E+06     3.64003E+06    -295.306E-03     589.792E-03    -294.486E-03     58.3872E-03    -295.715E-03     589.965E-03    -294.257E-03     54.8627E-03
             437     8.71685E-03     113.090E-03    -35.5963E+06     11.3717E+06     48.7141E+06     2.56992E+06    -295.889E-03     590.436E-03    -294.548E-03     63.5451E-03    -296.340E-03     590.661E-03    -294.269E-03     59.3036E-03
             438     9.38740E-03     113.196E-03    -28.9944E+06     18.6404E+06     59.2144E+06     2.52575E+06    -295.924E-03     590.521E-03    -294.597E-03     68.2322E-03    -296.406E-03     590.795E-03    -294.286E-03     63.5296E-03
             439     10.0570E-03     113.315E-03    -22.5127E+06     24.8919E+06     65.8517E+06     1.52940E+06    -295.932E-03     590.546E-03    -294.614E-03     71.8570E-03    -296.430E-03     590.862E-03    -294.288E-03     66.7929E-03
             440     10.7306E-03     113.439E-03    -17.2703E+06     30.6662E+06     69.2465E+06     781.325E+03    -296.591E-03     591.218E-03    -294.627E-03     74.3073E-03    -297.098E-03     591.572E-03    -294.300E-03     68.9628E-03
             441     11.3987E-03     113.570E-03    -13.6750E+06     33.6069E+06     70.8057E+06     1.12654E+06    -297.366E-03     592.035E-03    -294.670E-03     76.8576E-03    -297.894E-03     592.429E-03    -294.344E-03     71.0290E-03
             442     12.0686E-03     113.705E-03    -9.41245E+06     37.1284E+06     72.8995E+06     1.30725E+06    -297.086E-03     591.799E-03    -294.713E-03     80.0938E-03    -297.603E-03     592.203E-03    -294.388E-03     74.2987E-03
             443     12.7394E-03     113.840E-03    -3.99997E+06     43.2289E+06     77.4338E+06     524.522E+03    -296.712E-03     591.445E-03    -294.732E-03     79.2260E-03    -297.150E-03     591.797E-03    -294.402E-03     74.3515E-03
             444     671.043E-06     114.124E-03    -91.3025E+06    -156.951E+06    -90.4268E+06     954.721E+03    -294.486E-03     587.959E-03    -293.473E-03     6.37580E-03    -294.490E-03     587.464E-03    -293.566E-03     6.29246E-03
             445     1.34171E-03     114.136E-03    -89.4063E+06    -150.461E+06    -86.2001E+06     1.68596E+06    -294.110E-03     588.068E-03    -293.957E-03     10.4904E-03    -294.187E-03     587.547E-03    -294.040E-03     10.3165E-03
             446     2.01198E-03     114.154E-03    -87.2263E+06    -140.323E+06    -80.1071E+06     2.45290E+06    -294.317E-03     588.344E-03    -294.027E-03     15.3416E-03    -294.413E-03     587.867E-03    -294.097E-03     15.0178E-03
             447     2.68285E-03     114.185E-03    -84.1814E+06    -125.724E+06    -71.4680E+06     3.34427E+06    -294.259E-03     588.346E-03    -294.087E-03     19.4727E-03    -294.386E-03     587.936E-03    -294.140E-03     19.0533E-03
             448     3.35259E-03     114.220E-03    -81.5217E+06    -107.565E+06    -62.0068E+06     4.37314E+06    -294.037E-03     588.130E-03    -294.092E-03     23.7212E-03    -294.199E-03     587.800E-03    -294.128E-03     23.2073E-03
             449     4.02411E-03     114.265E-03    -77.3898E+06    -84.4829E+06    -50.4429E+06     5.48345E+06    -294.023E-03     588.093E-03    -294.070E-03     29.0584E-03    -294.225E-03     587.867E-03    -294.087E-03     28.2859E-03
             450     4.69579E-03     114.317E-03    -73.3217E+06    -59.7321E+06    -38.7929E+06     6.57813E+06    -294.330E-03     588.392E-03    -294.062E-03     34.5152E-03    -294.578E-03     588.281E-03    -294.063E-03     33.3969E-03
             451     5.36586E-03     114.378E-03    -68.4073E+06    -42.8913E+06    -26.2849E+06     6.58767E+06    -294.490E-03     588.582E-03    -294.091E-03     39.2800E-03    -294.772E-03     588.545E-03    -294.061E-03     37.7993E-03
             452     6.03672E-03     114.446E-03    -62.0629E+06    -26.7893E+06    -12.2491E+06     6.02342E+06    -294.475E-03     588.597E-03    -294.123E-03     43.4895E-03    -294.787E-03     588.629E-03    -294.055E-03     41.6262E-03
             453     6.70736E-03     114.522E-03    -55.5930E+06    -10.2023E+06     4.14557E+06     5.87232E+06    -294.660E-03     588.821E-03    -294.161E-03     47.7361E-03    -295.007E-03     588.923E-03    -294.045E-03     45.4754E-03
             454     7.37777E-03     114.607E-03    -48.9440E+06    -1.11114E+06     22.0808E+06     4.99443E+06    -294.845E-03     589.068E-03    -294.224E-03     52.4977E-03    -295.226E-03     589.208E-03    -294.041E-03     49.6466E-03
             455     8.04791E-03     114.699E-03    -42.3413E+06     6.06617E+06     37.6223E+06     3.75778E+06    -295.061E-03     589.342E-03    -294.281E-03     56.8720E-03    -295.469E-03     589.512E-03    -294.040E-03     53.5104E-03
             456     8.72116E-03     114.800E-03    -35.8441E+06     12.5604E+06     50.1176E+06     2.82078E+06    -295.684E-03     590.025E-03    -294.341E-03     61.6969E-03    -296.127E-03     590.240E-03    -294.057E-03     57.6996E-03
             457     9.39007E-03     114.909E-03    -29.8894E+06     19.1902E+06     59.2333E+06     1.90325E+06    -296.414E-03     590.829E-03    -294.415E-03     67.2604E-03    -296.892E-03     591.097E-03    -294.103E-03     62.6778E-03
             458     10.0606E-03     115.023E-03    -23.7743E+06     25.5203E+06     65.6088E+06     2.10175E+06    -297.004E-03     591.499E-03    -294.495E-03     72.6614E-03    -297.516E-03     591.826E-03    -294.169E-03     67.5426E-03
             459     10.7273E-03     115.150E-03    -18.5351E+06     30.0404E+06     68.4892E+06     2.58814E+06    -297.136E-03     591.697E-03    -294.561E-03     76.2734E-03    -297.665E-03     592.068E-03    -294.235E-03     70.7536E-03
             460     11.3984E-03     115.280E-03    -13.6522E+06     34.7929E+06     71.0746E+06     1.96973E+06    -296.572E-03     591.167E-03    -294.595E-03     78.8947E-03    -297.101E-03     591.565E-03    -294.270E-03     73.2315E-03
             461     12.0695E-03     115.412E-03    -8.41592E+06     39.6428E+06     75.0090E+06     903.115E+03    -296.099E-03     590.692E-03    -294.593E-03     80.8205E-03    -296.613E-03     591.099E-03    -294.263E-03     75.1367E-03
             462     12.7414E-03     115.546E-03    -4.19715E+06     43.8964E+06     78.7114E+06     296.184E+03    -296.398E-03     590.980E-03    -294.582E-03     79.6508E-03    -296.838E-03     591.333E-03    -294.246E-03     74.7576E-03
             463     670.781E-06     115.827E-03    -91.0208E+06    -161.529E+06    -90.1067E+06     927.197E+03    -293.562E-03     586.877E-03    -293.315E-03     4.77795E-03    -293.570E-03     586.372E-03    -293.399E-03     4.66645E-03
             464     1.34284E-03     115.840E-03    -89.8451E+06    -154.982E+06    -86.1533E+06     2.17716E+06    -293.697E-03     587.148E-03    -293.452E-03     9.78375E-03    -293.777E-03     586.612E-03    -293.527E-03     9.62099E-03
             465     2.01332E-03     115.863E-03    -87.8463E+06    -144.669E+06    -79.8732E+06     3.03296E+06    -294.035E-03     587.615E-03    -293.580E-03     14.6730E-03    -294.133E-03     587.122E-03    -293.642E-03     14.3444E-03
             466     2.68329E-03     115.891E-03    -85.3555E+06    -130.833E+06    -72.0179E+06     3.97359E+06    -293.860E-03     587.532E-03    -293.672E-03     19.5071E-03    -293.988E-03     587.102E-03    -293.718E-03     19.0476E-03
             467     3.35507E-03     115.927E-03    -81.7470E+06    -112.528E+06    -62.1124E+06     5.01533E+06    -293.817E-03     587.516E-03    -293.698E-03     24.1512E-03    -293.977E-03     587.166E-03    -293.727E-03     23.5438E-03
             468     4.02578E-03     115.969E-03    -77.3565E+06    -90.0765E+06    -50.5589E+06     6.10509E+06    -294.029E-03     587.753E-03    -293.723E-03     28.8386E-03    -294.225E-03     587.501E-03    -293.733E-03     27.9816E-03
             469     4.69644E-03     116.024E-03    -72.6238E+06    -63.0927E+06    -37.8459E+06     6.67344E+06    -294.268E-03     588.035E-03    -293.767E-03     33.3092E-03    -294.510E-03     587.905E-03    -293.759E-03     32.1478E-03
             470     5.36758E-03     116.085E-03    -67.2386E+06    -41.7282E+06    -23.7492E+06     5.86806E+06    -294.428E-03     588.260E-03    -293.833E-03     37.5178E-03    -294.708E-03     588.223E-03    -293.793E-03     36.0308E-03
             471     6.03804E-03     116.153E-03    -61.6811E+06    -27.9885E+06    -9.03413E+06     5.03799E+06    -294.556E-03     588.464E-03    -293.908E-03     42.3824E-03    -294.866E-03     588.482E-03    -293.823E-03     40.5492E-03
             472     6.70838E-03     116.230E-03    -55.5947E+06    -12.2149E+06     5.87651E+06     5.20110E+06    -294.820E-03     588.799E-03    -293.978E-03     47.6100E-03    -295.167E-03     588.887E-03    -293.851E-03     45.3416E-03
             473     7.37931E-03     116.314E-03    -49.1766E+06    -79.4837E+03     21.0927E+06     4.75132E+06    -295.213E-03     589.278E-03    -294.065E-03     52.2876E-03    -295.593E-03     589.422E-03    -293.888E-03     49.5079E-03
             474     8.05056E-03     116.407E-03    -42.6941E+06     7.21334E+06     36.4278E+06     3.95555E+06    -295.544E-03     589.714E-03    -294.170E-03     56.5010E-03    -295.952E-03     589.890E-03    -293.936E-03     53.2062E-03
             475     8.71818E-03     116.507E-03    -36.3495E+06     13.5007E+06     49.9048E+06     3.48289E+06    -295.659E-03     589.923E-03    -294.264E-03     60.9434E-03    -296.098E-03     590.135E-03    -293.981E-03     57.1058E-03
             476     9.39070E-03     116.616E-03    -30.0593E+06     20.3471E+06     60.0854E+06     3.02037E+06    -295.979E-03     590.313E-03    -294.334E-03     65.9745E-03    -296.448E-03     590.574E-03    -294.020E-03     61.6293E-03
             477     10.0602E-03     116.735E-03    -24.7153E+06     25.5230E+06     65.5596E+06     2.74164E+06    -296.411E-03     590.798E-03    -294.387E-03     71.9818E-03    -296.920E-03     591.120E-03    -294.060E-03     66.9846E-03
             478     10.7324E-03     116.861E-03    -19.0102E+06     30.1958E+06     68.6047E+06     2.33598E+06    -296.209E-03     590.622E-03    -294.413E-03     76.6380E-03    -296.741E-03     590.995E-03    -294.086E-03     71.1132E-03
             479     11.4025E-03     116.988E-03     -13.144E+06     36.7743E+06     72.5937E+06     1.59203E+06    -295.928E-03     590.338E-03    -294.411E-03     79.5237E-03    -296.465E-03     590.749E-03    -294.082E-03     73.7897E-03
             480     12.0734E-03     117.120E-03    -8.47012E+06     41.0572E+06     76.2709E+06     1.07672E+06    -296.389E-03     590.795E-03    -294.407E-03     81.5428E-03    -296.907E-03     591.208E-03    -294.073E-03     75.8752E-03
             481     12.7426E-03     117.256E-03    -4.22297E+06     45.1232E+06     80.1788E+06     821.751E+03    -296.666E-03     591.086E-03    -294.420E-03     80.5235E-03    -297.113E-03     591.446E-03    -294.078E-03     75.5997E-03
             482     671.654E-06     117.531E-03    -91.9112E+06    -166.409E+06    -90.8436E+06     777.219E+03    -292.975E-03     586.774E-03    -293.799E-03     4.53180E-03    -292.984E-03     586.259E-03    -293.879E-03     4.40569E-03
             483     1.34154E-03     117.545E-03    -90.2028E+06    -160.403E+06    -86.9390E+06     1.94372E+06    -293.555E-03     586.940E-03    -293.385E-03     10.0332E-03    -293.636E-03     586.385E-03    -293.456E-03     9.79732E-03
             484     2.01308E-03     117.567E-03    -87.8506E+06    -149.969E+06    -80.3250E+06     3.13833E+06    -293.357E-03     586.770E-03    -293.413E-03     14.1087E-03    -293.452E-03     586.255E-03    -293.470E-03     13.8433E-03
             485     2.68533E-03     117.595E-03    -84.5825E+06    -135.544E+06    -71.4894E+06     4.12662E+06    -293.408E-03     586.811E-03    -293.403E-03     18.3472E-03    -293.527E-03     586.357E-03    -293.441E-03     17.9778E-03
             486     3.35600E-03     117.631E-03    -80.5509E+06    -117.413E+06    -60.9605E+06     4.93532E+06    -293.866E-03     587.310E-03    -293.444E-03     23.0084E-03    -294.014E-03     586.932E-03    -293.462E-03     22.4529E-03
             487     4.02669E-03     117.677E-03    -76.0136E+06    -95.1276E+06    -49.1344E+06     5.70151E+06    -294.294E-03     587.837E-03    -293.542E-03     27.9224E-03    -294.477E-03     587.554E-03    -293.540E-03     27.1394E-03
             488     4.69693E-03     117.730E-03    -70.8551E+06    -66.3292E+06    -35.6822E+06     6.37272E+06    -294.272E-03     587.907E-03    -293.635E-03     33.0256E-03    -294.501E-03     587.753E-03    -293.615E-03     31.9412E-03
             489     5.36733E-03     117.791E-03    -65.7778E+06    -41.2409E+06    -20.9292E+06     6.47936E+06    -294.298E-03     588.007E-03    -293.709E-03     37.6217E-03    -294.574E-03     587.964E-03    -293.658E-03     36.2290E-03
             490     6.03844E-03     117.859E-03    -60.6733E+06    -29.3919E+06    -5.91891E+06     6.15411E+06    -294.614E-03     588.413E-03    -293.799E-03     42.0140E-03    -294.919E-03     588.416E-03    -293.698E-03     40.2691E-03
             491     6.70993E-03     117.936E-03    -54.9449E+06    -13.9113E+06     8.13073E+06     5.98499E+06    -294.860E-03     588.746E-03    -293.886E-03     46.5843E-03    -295.198E-03     588.815E-03    -293.745E-03     44.4676E-03
             492     7.38003E-03     118.023E-03    -49.1939E+06     1.34999E+06     21.4873E+06     5.53459E+06    -295.128E-03     589.097E-03    -293.969E-03     51.6319E-03    -295.503E-03     589.240E-03    -293.792E-03     49.0581E-03
             493     8.04897E-03     118.116E-03    -43.5176E+06     7.73022E+06     35.2743E+06     4.80252E+06    -295.470E-03     589.540E-03    -294.070E-03     56.9342E-03    -295.880E-03     589.721E-03    -293.841E-03     53.7265E-03
             494     8.72192E-03     118.216E-03    -37.2582E+06     14.3282E+06     48.6457E+06     4.01520E+06    -295.888E-03     590.060E-03    -294.172E-03     62.0262E-03    -296.329E-03     590.279E-03    -293.896E-03     58.3006E-03
             495     9.38994E-03     118.325E-03    -31.0482E+06     20.4421E+06     59.2270E+06     3.46628E+06    -296.119E-03     590.379E-03    -294.260E-03     67.1970E-03    -296.591E-03     590.641E-03    -293.949E-03     62.9577E-03
             496     10.0615E-03     118.442E-03    -24.7565E+06     26.5576E+06     66.8436E+06     3.02014E+06    -295.666E-03     589.969E-03    -294.304E-03     71.8537E-03    -296.170E-03     590.287E-03    -293.972E-03     66.9817E-03
             497     10.7316E-03     118.567E-03    -19.2140E+06     32.3584E+06     70.6849E+06     2.20971E+06    -295.179E-03     589.465E-03    -294.286E-03     75.1720E-03    -295.708E-03     589.835E-03    -293.951E-03     69.7599E-03
             498     11.4038E-03     118.695E-03    -14.2134E+06     37.3132E+06     73.4970E+06     1.64459E+06    -295.561E-03     589.814E-03    -294.253E-03     78.2448E-03    -296.103E-03     590.225E-03    -293.919E-03     72.4789E-03
             499     12.0745E-03     118.828E-03    -9.38667E+06     41.8037E+06     76.8207E+06     1.50460E+06    -296.103E-03     590.345E-03    -294.242E-03     80.7693E-03    -296.625E-03     590.759E-03    -293.905E-03     75.1016E-03
             500     12.7461E-03     118.966E-03    -4.75912E+06     46.8161E+06     80.4899E+06     902.498E+03    -296.198E-03     590.440E-03    -294.243E-03     80.1824E-03    -296.646E-03     590.805E-03    -293.901E-03     75.2818E-03
             501     670.847E-06     119.235E-03    -91.6796E+06    -170.138E+06    -90.7810E+06     638.577E+03    -293.452E-03     586.924E-03    -293.472E-03     4.85476E-03    -293.454E-03     586.393E-03    -293.546E-03     4.78466E-03
             502     1.34276E-03     119.250E-03    -90.4055E+06    -165.168E+06    -86.9331E+06     1.32315E+06    -293.436E-03     586.859E-03    -293.423E-03     9.78349E-03    -293.512E-03     586.282E-03    -293.487E-03     9.54257E-03
             503     2.01367E-03     119.270E-03    -88.0488E+06    -154.942E+06    -80.9712E+06     2.25426E+06    -293.478E-03     586.906E-03    -293.429E-03     13.5396E-03    -293.566E-03     586.368E-03    -293.481E-03     13.2565E-03
             504     2.68418E-03     119.299E-03    -84.9270E+06    -140.182E+06    -72.4896E+06     3.15782E+06    -293.585E-03     587.037E-03    -293.452E-03     17.3179E-03    -293.696E-03     586.561E-03    -293.489E-03     17.0063E-03
             505     3.35548E-03     119.336E-03    -81.0747E+06    -122.191E+06    -61.7013E+06     4.03195E+06    -293.691E-03     587.182E-03    -293.492E-03     22.3420E-03    -293.833E-03     586.783E-03    -293.505E-03     21.8420E-03
             506     4.02624E-03     119.382E-03    -76.6374E+06    -99.7525E+06    -49.5090E+06     5.01577E+06    -293.769E-03     587.298E-03    -293.528E-03     27.5095E-03    -293.947E-03     586.993E-03    -293.520E-03     26.7863E-03
             507     4.69765E-03     119.435E-03    -71.9861E+06    -71.9320E+06    -36.4225E+06     6.52338E+06    -293.753E-03     587.302E-03    -293.550E-03     32.5494E-03    -293.977E-03     587.121E-03    -293.523E-03     31.5709E-03
             508     5.36918E-03     119.497E-03    -67.1488E+06    -44.5945E+06    -22.6656E+06     8.10072E+06    -294.117E-03     587.698E-03    -293.581E-03     37.9181E-03    -294.392E-03     587.642E-03    -293.532E-03     36.6272E-03
             509     6.03942E-03     119.567E-03    -62.1090E+06    -29.5342E+06    -8.64234E+06     8.03035E+06    -294.847E-03     588.522E-03    -293.675E-03     42.6409E-03    -295.155E-03     588.530E-03    -293.586E-03     40.9910E-03
             510     6.70853E-03     119.644E-03    -56.7016E+06    -14.0979E+06     5.63619E+06     6.90648E+06    -294.887E-03     588.672E-03    -293.786E-03     47.1574E-03    -295.228E-03     588.746E-03    -293.655E-03     45.1096E-03
             511     7.37979E-03     119.729E-03    -50.6231E+06     1.62540E+06     20.7894E+06     6.09955E+06    -294.610E-03     588.471E-03    -293.861E-03     52.7290E-03    -294.994E-03     588.621E-03    -293.686E-03     50.1784E-03
             512     8.05261E-03     119.823E-03    -44.0654E+06     8.54587E+06     35.8442E+06     5.37962E+06    -295.056E-03     588.988E-03    -293.932E-03     58.0195E-03    -295.473E-03     589.174E-03    -293.701E-03     54.8762E-03
             513     8.72069E-03     119.924E-03    -37.6138E+06     15.3751E+06     49.4247E+06     4.78861E+06    -295.753E-03     589.773E-03    -294.020E-03     62.8353E-03    -296.201E-03     589.999E-03    -293.741E-03     59.1442E-03
             514     9.39305E-03     120.034E-03    -31.4728E+06     21.5928E+06     60.6094E+06     4.29377E+06    -295.980E-03     590.090E-03    -294.110E-03     67.9034E-03    -296.464E-03     590.364E-03    -293.793E-03     63.5751E-03
             515     10.0622E-03     120.151E-03    -25.6620E+06     27.6268E+06     68.0609E+06     3.61706E+06    -295.571E-03     589.726E-03    -294.155E-03     72.3672E-03    -296.089E-03     590.054E-03    -293.818E-03     67.4349E-03
             516     10.7342E-03     120.273E-03    -19.8367E+06     34.1218E+06     72.0366E+06     2.83835E+06    -295.303E-03     589.447E-03    -294.144E-03     76.3865E-03    -295.846E-03     589.832E-03    -293.805E-03     70.9511E-03
             517     11.4050E-03     120.401E-03    -14.6240E+06     38.5355E+06     74.7642E+06     2.07258E+06    -295.632E-03     589.754E-03    -294.122E-03     79.5638E-03    -296.185E-03     590.175E-03    -293.782E-03     73.8107E-03
             518     12.0761E-03     120.536E-03    -9.57348E+06     43.3797E+06     77.6819E+06     1.17279E+06    -295.569E-03     589.669E-03    -294.100E-03     81.0465E-03    -296.095E-03     590.090E-03    -293.761E-03     75.3829E-03
             519     12.7471E-03     120.670E-03    -4.46642E+06     48.5005E+06     81.1165E+06     393.327E+03    -295.350E-03     589.420E-03    -294.070E-03     80.7241E-03    -295.804E-03     589.795E-03    -293.728E-03     75.7416E-03
             520     671.036E-06     120.941E-03    -92.8919E+06    -174.037E+06    -91.9722E+06     1.01726E+06    -293.819E-03     587.129E-03    -293.311E-03     4.15342E-03    -293.823E-03     586.581E-03    -293.384E-03     4.21936E-03
             521     1.34162E-03     120.953E-03    -91.5567E+06    -168.544E+06    -87.6876E+06     1.48340E+06    -293.414E-03     586.919E-03    -293.505E-03     9.52747E-03    -293.487E-03     586.325E-03    -293.566E-03     9.33382E-03
             522     2.01283E-03     120.976E-03    -89.5452E+06    -158.900E+06    -81.5284E+06     2.05236E+06    -293.552E-03     587.040E-03    -293.488E-03     14.1330E-03    -293.638E-03     586.483E-03    -293.536E-03     13.8855E-03
             523     2.68378E-03     121.004E-03    -86.7703E+06    -144.355E+06    -73.6611E+06     2.79448E+06    -293.676E-03     587.189E-03    -293.513E-03     18.3774E-03    -293.789E-03     586.697E-03    -293.547E-03     18.0864E-03
             524     3.35469E-03     121.041E-03    -83.3315E+06    -126.683E+06    -63.7100E+06     3.70902E+06    -293.468E-03     586.991E-03    -293.524E-03     23.3544E-03    -293.612E-03     586.576E-03    -293.538E-03     22.8795E-03
             525     4.02647E-03     121.086E-03    -79.3347E+06    -105.253E+06    -52.1040E+06     4.96009E+06    -293.364E-03     586.863E-03    -293.499E-03     28.1812E-03    -293.544E-03     586.540E-03    -293.492E-03     27.4836E-03
             526     4.69760E-03     121.140E-03    -74.5707E+06    -79.2320E+06    -39.4592E+06     6.58863E+06    -293.576E-03     587.056E-03    -293.480E-03     32.6277E-03    -293.798E-03     586.846E-03    -293.454E-03     31.7321E-03
             527     5.36872E-03     121.201E-03    -68.9606E+06    -50.2627E+06    -25.8020E+06     8.04613E+06    -293.966E-03     587.460E-03    -293.494E-03     37.8911E-03    -294.236E-03     587.382E-03    -293.451E-03     36.7107E-03
             528     6.04001E-03     121.274E-03    -62.8099E+06    -30.1314E+06    -10.9932E+06     8.60469E+06    -294.229E-03     587.779E-03    -293.550E-03     42.7299E-03    -294.534E-03     587.786E-03    -293.470E-03     41.2414E-03
             529     6.71167E-03     121.351E-03    -56.9637E+06    -13.0189E+06     3.84438E+06     7.86203E+06    -294.379E-03     587.993E-03    -293.614E-03     47.2829E-03    -294.719E-03     588.073E-03    -293.493E-03     45.3713E-03
             530     7.38248E-03     121.434E-03    -51.2465E+06     2.46636E+06     18.9423E+06     6.56827E+06    -294.657E-03     588.338E-03    -293.681E-03     52.8785E-03    -295.041E-03     588.494E-03    -293.516E-03     50.3932E-03
             531     8.05182E-03     121.529E-03    -45.3048E+06     8.78077E+06     34.8126E+06     5.85633E+06    -294.959E-03     588.728E-03    -293.769E-03     58.0635E-03    -295.375E-03     588.913E-03    -293.542E-03     55.0568E-03
             532     8.72485E-03     121.632E-03    -38.9281E+06     15.8266E+06     50.0551E+06     5.52260E+06    -295.255E-03     589.110E-03    -293.855E-03     63.0723E-03    -295.709E-03     589.337E-03    -293.571E-03     59.4377E-03
             533     9.39342E-03     121.742E-03    -32.2471E+06      22.864E+06     62.0520E+06     4.83158E+06    -295.223E-03     589.137E-03    -293.914E-03     68.0353E-03    -295.717E-03     589.418E-03    -293.591E-03     63.7040E-03
             534     10.0657E-03     121.858E-03    -25.5709E+06     29.1432E+06     69.9127E+06     3.97486E+06    -295.128E-03     589.060E-03    -293.933E-03     72.6360E-03    -295.652E-03     589.395E-03    -293.588E-03     67.7055E-03
             535     10.7362E-03     121.978E-03    -19.4338E+06     35.2290E+06     73.7070E+06     3.29378E+06    -295.566E-03     589.493E-03    -293.927E-03     77.3339E-03    -296.118E-03     589.888E-03    -293.582E-03     71.8294E-03
             536     11.4072E-03     122.110E-03    -13.7761E+06     41.0236E+06     76.3791E+06     2.28366E+06    -295.696E-03     589.617E-03    -293.921E-03     80.5570E-03    -296.257E-03     590.053E-03    -293.579E-03     74.7668E-03
             537     12.0783E-03     122.242E-03    -8.56712E+06     45.7202E+06     79.2880E+06     1.07201E+06    -295.218E-03     589.119E-03    -293.901E-03     81.8079E-03    -295.750E-03     589.553E-03    -293.558E-03     76.1112E-03
             538     12.7506E-03     122.376E-03    -4.18335E+06     49.2814E+06     82.1912E+06     502.388E+03    -295.082E-03     588.945E-03    -293.863E-03     81.9410E-03    -295.549E-03     589.333E-03    -293.517E-03     76.8307E-03
             539     671.040E-06     122.646E-03    -95.1944E+06    -178.432E+06    -94.3087E+06     765.103E+03    -293.097E-03     586.597E-03    -293.499E-03     5.11855E-03    -293.100E-03     586.031E-03    -293.574E-03     5.06270E-03
             540     1.34226E-03     122.658E-03    -93.6960E+06    -172.406E+06    -89.9590E+06     1.76762E+06    -293.681E-03     587.020E-03    -293.339E-03     10.1198E-03    -293.753E-03     586.413E-03    -293.403E-03     9.96917E-03
             541     2.01363E-03     122.679E-03    -91.3875E+06    -162.712E+06    -82.9161E+06     2.52327E+06    -293.287E-03     586.689E-03    -293.402E-03     14.2989E-03    -293.374E-03     586.117E-03    -293.449E-03     14.1570E-03
             542     2.68497E-03     122.709E-03    -88.4237E+06    -148.636E+06    -74.2354E+06     3.40221E+06    -293.218E-03     586.581E-03    -293.363E-03     18.9052E-03    -293.332E-03     586.069E-03    -293.390E-03     18.6602E-03
             543     3.35610E-03     122.745E-03    -84.9655E+06    -131.547E+06    -64.2724E+06     4.44882E+06    -293.530E-03     586.888E-03    -293.358E-03     23.7764E-03    -293.675E-03     586.451E-03    -293.365E-03     23.3754E-03
             544     4.02700E-03     122.790E-03    -80.8158E+06    -110.458E+06    -53.0381E+06     5.47648E+06    -293.578E-03     586.959E-03    -293.382E-03     28.2924E-03    -293.756E-03     586.612E-03    -293.370E-03     27.7055E-03
             545     4.69854E-03     122.844E-03    -76.1616E+06    -84.9366E+06    -40.7443E+06     6.39103E+06    -293.673E-03     587.074E-03    -293.400E-03     32.9338E-03    -293.891E-03     586.838E-03    -293.371E-03     32.1458E-03
             546     5.36931E-03     122.907E-03    -71.0781E+06    -55.2936E+06    -27.3279E+06     7.10051E+06    -293.818E-03     587.238E-03    -293.419E-03     38.4629E-03    -294.089E-03     587.139E-03    -293.373E-03     37.3314E-03
             547     6.04028E-03     122.978E-03    -65.5207E+06    -32.6620E+06    -13.5322E+06     7.44963E+06    -293.659E-03     587.095E-03    -293.436E-03     42.6389E-03    -293.966E-03     587.093E-03    -293.361E-03     41.2495E-03
             548     6.71171E-03     123.055E-03    -59.2857E+06    -13.2279E+06     865.380E+03     7.49223E+06    -293.845E-03     587.295E-03    -293.450E-03     46.9744E-03    -294.186E-03     587.376E-03    -293.340E-03     45.2389E-03
             549     7.38256E-03     123.142E-03    -52.8733E+06     2.96722E+06     16.9966E+06     7.28536E+06    -294.499E-03     588.001E-03    -293.502E-03     53.0108E-03    -294.887E-03     588.162E-03    -293.344E-03     50.6246E-03
             550     8.05447E-03     123.235E-03    -46.4297E+06     9.56066E+06     33.9864E+06     6.57412E+06    -294.785E-03     588.378E-03    -293.593E-03     58.6056E-03    -295.207E-03     588.571E-03    -293.370E-03     55.6243E-03
             551     8.72357E-03     123.338E-03    -39.5949E+06     16.7041E+06     49.4269E+06     5.43960E+06    -294.556E-03     588.214E-03    -293.658E-03     63.6423E-03    -295.014E-03     588.447E-03    -293.377E-03     60.0311E-03
             552     9.39700E-03     123.448E-03    -32.5535E+06     24.0643E+06     62.0366E+06     4.42635E+06    -294.361E-03     588.037E-03    -293.676E-03     68.2779E-03    -294.855E-03     588.321E-03    -293.354E-03     64.0044E-03
             553     10.0678E-03     123.561E-03    -25.7684E+06     30.1581E+06     70.6106E+06     3.68675E+06    -294.828E-03     588.501E-03    -293.673E-03     73.2659E-03    -295.359E-03     588.843E-03    -293.326E-03     68.3183E-03
             554     10.7395E-03     123.687E-03    -19.4326E+06     36.1726E+06     74.7204E+06     2.97803E+06    -295.427E-03     589.096E-03    -293.669E-03     78.0292E-03    -295.988E-03     589.500E-03    -293.320E-03     72.4776E-03
             555     11.4103E-03     123.815E-03    -13.8169E+06     43.3220E+06     77.7285E+06     2.30163E+06    -295.383E-03     589.048E-03    -293.664E-03     80.8200E-03    -295.951E-03     589.495E-03    -293.318E-03     75.0126E-03
             556     12.0822E-03     123.947E-03    -8.82677E+06     47.3492E+06     80.5640E+06     1.66858E+06    -295.231E-03     588.882E-03    -293.651E-03     81.7700E-03    -295.768E-03     589.322E-03    -293.304E-03     76.0724E-03
             557     12.7534E-03     124.080E-03    -4.28669E+06     50.8661E+06     83.6257E+06     1.04670E+06    -295.386E-03     589.021E-03    -293.635E-03     81.7975E-03    -295.858E-03     589.416E-03    -293.285E-03     76.6601E-03
             558     672.365E-06     124.347E-03    -95.8575E+06    -182.819E+06    -94.9605E+06     838.075E+03    -293.185E-03     585.947E-03    -292.762E-03     6.35976E-03    -293.170E-03     585.363E-03    -292.833E-03     5.97343E-03
             559     1.34276E-03     124.365E-03    -94.6058E+06    -176.962E+06    -90.9360E+06     1.80643E+06    -293.629E-03     586.691E-03    -293.062E-03     9.93741E-03    -293.698E-03     586.064E-03    -293.123E-03     9.79713E-03
             560     2.01298E-03     124.382E-03    -92.2202E+06    -167.087E+06    -84.2705E+06     2.65241E+06    -293.293E-03     586.506E-03    -293.213E-03     13.8265E-03    -293.378E-03     585.916E-03    -293.259E-03     13.7179E-03
             561     2.68509E-03     124.411E-03    -89.1851E+06    -153.684E+06    -75.3668E+06     3.67889E+06    -293.109E-03     586.322E-03    -293.214E-03     18.5597E-03    -293.216E-03     585.787E-03    -293.239E-03     18.3529E-03
             562     3.35669E-03     124.449E-03    -85.2664E+06    -136.746E+06    -64.4648E+06     4.79570E+06    -293.349E-03     586.564E-03    -293.215E-03     23.2857E-03    -293.487E-03     586.101E-03    -293.216E-03     22.9603E-03
             563     4.02752E-03     124.495E-03    -80.7656E+06    -115.345E+06    -52.5694E+06     5.79724E+06    -293.607E-03     586.859E-03    -293.252E-03     28.1374E-03    -293.777E-03     586.486E-03    -293.230E-03     27.6592E-03
             564     4.69823E-03     124.548E-03    -75.9271E+06    -89.9670E+06    -39.7240E+06     6.88724E+06    -293.540E-03     586.825E-03    -293.285E-03     33.2368E-03    -293.749E-03     586.560E-03    -293.243E-03     32.5578E-03
             565     5.36997E-03     124.612E-03    -70.8454E+06    -59.1732E+06    -26.1154E+06     7.77383E+06    -293.363E-03     586.644E-03    -293.281E-03     38.9189E-03    -293.627E-03     586.522E-03    -293.223E-03     37.8729E-03
             566     6.04156E-03     124.682E-03    -65.3322E+06    -32.8263E+06    -12.0284E+06     7.24200E+06    -293.531E-03     586.804E-03    -293.273E-03     43.4400E-03    -293.837E-03     586.797E-03    -293.191E-03     42.1047E-03
             567     6.71291E-03     124.759E-03    -59.3022E+06    -15.6694E+06     2.83327E+06     6.69089E+06    -293.694E-03     586.985E-03    -293.292E-03     47.9318E-03    -294.032E-03     587.049E-03    -293.169E-03     46.2679E-03
             568     7.38496E-03     124.846E-03    -52.7299E+06     822.060E+03     18.3952E+06     7.26744E+06    -293.808E-03     587.122E-03    -293.314E-03     54.0213E-03    -294.195E-03     587.271E-03    -293.147E-03     51.6781E-03
             569     8.05528E-03     124.942E-03    -46.1285E+06     11.9183E+06     33.7168E+06     6.73329E+06    -294.156E-03     587.504E-03    -293.348E-03     59.6061E-03    -294.584E-03     587.713E-03    -293.130E-03     56.5969E-03
             570     8.72828E-03     125.043E-03    -39.5581E+06     18.3953E+06     48.4788E+06     5.28563E+06    -294.102E-03     587.486E-03    -293.384E-03     64.1059E-03    -294.561E-03     587.729E-03    -293.111E-03     60.5260E-03
             571     9.39868E-03     125.151E-03    -32.7418E+06     25.1829E+06     61.5132E+06     4.22785E+06    -294.183E-03     587.583E-03    -293.400E-03     68.7315E-03    -294.679E-03     587.874E-03    -293.081E-03     64.4943E-03
             572     10.0712E-03     125.267E-03    -26.1297E+06     31.0423E+06     70.7986E+06     3.54445E+06    -294.771E-03     588.181E-03    -293.410E-03     73.5666E-03    -295.306E-03     588.528E-03    -293.063E-03     68.6265E-03
             573     10.7419E-03     125.392E-03    -20.2805E+06     37.3385E+06     75.4678E+06     3.11911E+06    -295.037E-03     588.449E-03    -293.412E-03     77.6650E-03    -295.601E-03     588.854E-03    -293.060E-03     72.1687E-03
             574     11.4139E-03     125.521E-03    -14.8715E+06     44.5548E+06     78.7549E+06     2.61942E+06    -295.085E-03     588.491E-03    -293.406E-03     80.0976E-03    -295.656E-03     588.939E-03    -293.055E-03     74.3511E-03
             575     12.0849E-03     125.652E-03    -9.85543E+06     49.0965E+06     81.5519E+06     1.94527E+06    -295.467E-03     588.874E-03    -293.406E-03     81.5179E-03    -296.013E-03     589.321E-03    -293.055E-03     75.7995E-03
             576     12.7561E-03     125.786E-03    -5.01539E+06     53.0191E+06     84.4629E+06     983.343E+03    -295.607E-03     589.022E-03    -293.415E-03     81.5922E-03    -296.084E-03     589.425E-03    -293.063E-03     76.4624E-03
             577     670.983E-06     126.052E-03    -96.7984E+06    -187.358E+06    -95.9140E+06     1.16847E+06    -293.150E-03     586.133E-03    -292.983E-03     6.48512E-03    -293.129E-03     585.535E-03    -293.050E-03     6.15861E-03
             578     1.34257E-03     126.066E-03    -95.2751E+06    -181.403E+06    -91.5687E+06     1.65872E+06    -292.983E-03     585.990E-03    -293.007E-03     9.38217E-03    -293.047E-03     585.341E-03    -293.064E-03     9.34780E-03
             579     2.01502E-03     126.086E-03    -92.9929E+06      -171.7E+06    -85.0206E+06     2.59314E+06    -293.187E-03     586.212E-03    -293.025E-03     13.9023E-03    -293.267E-03     585.600E-03    -293.066E-03     13.8464E-03
             580     2.68507E-03     126.115E-03    -89.7299E+06    -158.381E+06    -76.1564E+06     3.37356E+06    -293.283E-03     586.360E-03    -293.077E-03     18.7153E-03    -293.386E-03     585.804E-03    -293.098E-03     18.5440E-03
             581     3.35624E-03     126.152E-03    -85.7323E+06    -141.402E+06    -65.4378E+06     4.13652E+06    -292.988E-03     586.078E-03    -293.090E-03     23.9842E-03    -293.121E-03     585.595E-03    -293.088E-03     23.6397E-03
             582     4.02832E-03     126.199E-03    -80.9683E+06    -120.462E+06    -52.9712E+06     5.10455E+06    -293.130E-03     586.207E-03    -293.077E-03     28.9355E-03    -293.293E-03     585.809E-03    -293.050E-03     28.4835E-03
             583     4.69993E-03     126.252E-03    -75.4817E+06    -95.5214E+06    -39.4088E+06     6.28359E+06    -293.260E-03     586.341E-03    -293.080E-03     33.6181E-03    -293.458E-03     586.046E-03    -293.029E-03     33.0147E-03
             584     5.37126E-03     126.314E-03    -69.4023E+06    -63.9820E+06    -24.9932E+06     7.54394E+06    -293.055E-03     586.120E-03    -293.064E-03     39.0781E-03    -293.305E-03     585.968E-03    -292.996E-03     38.1279E-03
             585     6.04333E-03     126.386E-03    -63.5115E+06    -33.0501E+06    -9.71848E+06     8.25608E+06    -293.155E-03     586.195E-03    -293.040E-03     44.0957E-03    -293.457E-03     586.182E-03    -292.949E-03     42.7938E-03
             586     6.71454E-03     126.464E-03    -58.0872E+06    -17.2265E+06     5.55056E+06     8.06064E+06    -293.461E-03     586.515E-03    -293.054E-03     48.4023E-03    -293.796E-03     586.566E-03    -292.917E-03     46.7510E-03
             587     7.38574E-03     126.548E-03    -52.5477E+06    -1.58115E+06     19.6882E+06     7.67261E+06    -293.549E-03     586.619E-03    -293.071E-03     54.3644E-03    -293.932E-03     586.753E-03    -292.894E-03     52.0858E-03
             588     8.05907E-03     126.646E-03    -46.2823E+06     14.3773E+06     33.9169E+06     6.90528E+06    -293.552E-03     586.629E-03    -293.077E-03     59.3677E-03    -293.978E-03     586.843E-03    -292.861E-03     56.4836E-03
             589     8.72940E-03     126.746E-03    -39.6387E+06     20.4639E+06     48.5780E+06     5.61138E+06    -293.836E-03     586.937E-03    -293.101E-03     63.2577E-03    -294.289E-03     587.181E-03    -292.831E-03     59.8304E-03
             590     9.40237E-03     126.855E-03    -33.1748E+06     26.1044E+06     61.7371E+06     4.76147E+06    -294.390E-03     587.530E-03    -293.139E-03     68.4267E-03    -294.886E-03     587.821E-03    -292.820E-03     64.2658E-03
             591     10.0727E-03     126.972E-03    -27.1108E+06     31.8633E+06     71.5944E+06     4.25349E+06    -294.737E-03     587.914E-03    -293.177E-03     73.2301E-03    -295.275E-03     588.261E-03    -292.826E-03     68.3567E-03
             592     10.7448E-03     127.096E-03    -21.0951E+06     38.6480E+06     76.8157E+06     3.53154E+06    -294.766E-03     587.955E-03    -293.189E-03     76.9899E-03    -295.330E-03     588.358E-03    -292.830E-03     71.5833E-03
             593     11.4159E-03     127.225E-03    -15.2539E+06     45.8116E+06     80.0307E+06     2.80582E+06    -294.989E-03     588.176E-03    -293.186E-03     79.7192E-03    -295.559E-03     588.622E-03    -292.830E-03     74.0468E-03
             594     12.0879E-03     127.357E-03    -9.85983E+06     51.7834E+06     82.9028E+06     1.88082E+06    -295.422E-03     588.616E-03    -293.194E-03     81.3463E-03    -295.970E-03     589.071E-03    -292.840E-03     75.6717E-03
             595     12.7589E-03     127.493E-03    -4.68576E+06     55.3941E+06     85.5980E+06     680.123E+03    -295.228E-03     588.432E-03    -293.203E-03     80.8575E-03    -295.699E-03     588.834E-03    -292.849E-03     75.8262E-03
             596     671.193E-06     127.759E-03    -97.8980E+06    -191.585E+06    -96.9764E+06     785.978E+03    -292.408E-03     586.242E-03    -293.834E-03     5.87544E-03    -292.387E-03     585.631E-03    -293.899E-03     5.84161E-03
             597     1.34298E-03     127.765E-03    -96.5345E+06    -185.676E+06    -92.7232E+06     1.60276E+06    -292.516E-03     585.475E-03    -292.959E-03     9.42500E-03    -292.581E-03     584.810E-03    -293.014E-03     9.44072E-03
             598     2.01384E-03     127.791E-03    -94.1016E+06    -175.737E+06    -85.8202E+06     2.28662E+06    -292.776E-03     585.612E-03    -292.836E-03     14.3353E-03    -292.857E-03     584.985E-03    -292.873E-03     14.3074E-03
             599     2.68610E-03     127.817E-03    -90.8477E+06    -162.251E+06    -76.7526E+06     2.91308E+06    -292.802E-03     585.625E-03    -292.823E-03     18.9495E-03    -292.905E-03     585.052E-03    -292.840E-03     18.8508E-03
             600     3.35791E-03     127.855E-03    -86.8483E+06    -145.231E+06    -65.9477E+06     3.56470E+06    -292.818E-03     585.635E-03    -292.817E-03     24.5209E-03    -292.951E-03     585.135E-03    -292.810E-03     24.2085E-03
             601     4.02936E-03     127.900E-03    -82.3616E+06    -124.816E+06    -53.9594E+06     4.28847E+06    -292.760E-03     585.564E-03    -292.804E-03     29.4976E-03    -292.924E-03     585.149E-03    -292.773E-03     29.0348E-03
             602     4.70093E-03     127.956E-03    -77.3335E+06    -100.219E+06    -40.7857E+06     5.09947E+06    -292.845E-03     585.633E-03    -292.788E-03     34.0698E-03    -293.045E-03     585.320E-03    -292.734E-03     33.4416E-03
             603     5.37280E-03     128.015E-03    -71.8605E+06     -70.233E+06    -26.6970E+06     6.47450E+06    -293.043E-03     585.824E-03    -292.781E-03     39.3146E-03    -293.294E-03     585.648E-03    -292.708E-03     38.3773E-03
             604     6.04439E-03     128.089E-03    -65.9395E+06    -38.0956E+06    -12.2683E+06     8.31821E+06    -292.844E-03     585.609E-03    -292.765E-03     44.2289E-03    -293.147E-03     585.578E-03    -292.675E-03     42.9634E-03
             605     6.71706E-03     128.165E-03    -59.7786E+06    -18.5931E+06     2.09517E+06     9.21930E+06    -292.990E-03     585.746E-03    -292.755E-03     48.8366E-03    -293.329E-03     585.800E-03    -292.631E-03     47.1846E-03
             606     7.38902E-03     128.253E-03    -53.5504E+06    -1.04726E+06     17.0976E+06     8.52535E+06    -293.571E-03     586.348E-03    -292.776E-03     54.5669E-03    -293.956E-03     586.489E-03    -292.611E-03     52.3255E-03
             607     8.05916E-03     128.347E-03    -47.1167E+06     15.9110E+06     33.2346E+06     7.18306E+06    -293.582E-03     586.399E-03    -292.817E-03     59.0577E-03    -294.010E-03     586.620E-03    -292.605E-03     56.2662E-03
             608     8.73290E-03     128.449E-03    -40.6967E+06     21.5203E+06     49.0829E+06     6.40368E+06    -293.738E-03     586.604E-03    -292.866E-03     63.4073E-03    -294.200E-03     586.855E-03    -292.593E-03     60.0012E-03
             609     9.40305E-03     128.558E-03    -34.4792E+06     27.2590E+06     62.8937E+06     5.80099E+06    -294.354E-03     587.273E-03    -292.919E-03     68.5954E-03    -294.861E-03     587.572E-03    -292.594E-03     64.4466E-03
             610     10.0755E-03     128.676E-03    -27.8888E+06     33.5506E+06     73.2544E+06     4.67439E+06    -294.671E-03     587.641E-03    -292.970E-03     73.0692E-03    -295.213E-03     587.991E-03    -292.612E-03     68.2601E-03
             611     10.7464E-03     128.800E-03    -21.3262E+06     40.4121E+06     78.5591E+06     3.52952E+06    -294.616E-03     587.605E-03    -292.989E-03     76.5333E-03    -295.177E-03     588.006E-03    -292.624E-03     71.2344E-03
             612     11.4188E-03     128.928E-03    -15.1746E+06     47.7411E+06     81.5791E+06     2.43510E+06    -294.823E-03     587.810E-03    -292.988E-03     80.0604E-03    -295.396E-03     588.263E-03    -292.627E-03     74.4039E-03
             613     12.0894E-03     129.063E-03    -9.43688E+06     53.9889E+06     84.2186E+06     1.49025E+06    -295.140E-03     588.131E-03    -292.991E-03     81.8214E-03    -295.695E-03     588.599E-03    -292.634E-03     76.1280E-03
             614     12.7613E-03     129.196E-03    -4.46384E+06     57.2461E+06     86.4586E+06     838.499E+03    -294.753E-03     587.743E-03    -292.990E-03     80.3859E-03    -295.225E-03     588.151E-03    -292.634E-03     75.4144E-03
             615     670.836E-06     129.455E-03    -99.0796E+06    -195.603E+06    -98.1619E+06     625.171E+03    -293.303E-03     585.861E-03    -292.558E-03     4.02196E-03    -293.276E-03     585.231E-03    -292.621E-03     4.32641E-03
             616     1.34323E-03     129.470E-03    -97.5551E+06    -189.371E+06    -93.7170E+06     1.53055E+06    -292.371E-03     585.149E-03    -292.777E-03     9.52349E-03    -292.435E-03     584.468E-03    -292.830E-03     9.56898E-03
             617     2.01537E-03     129.491E-03    -95.2223E+06    -179.400E+06    -86.7417E+06     2.17746E+06    -292.145E-03     584.742E-03    -292.598E-03     14.2979E-03    -292.224E-03     584.100E-03    -292.633E-03     14.2864E-03
             618     2.68716E-03     129.519E-03    -92.1359E+06    -165.926E+06    -77.5815E+06     2.93849E+06    -292.160E-03     584.642E-03    -292.482E-03     19.1693E-03    -292.262E-03     584.054E-03    -292.496E-03     19.0904E-03
             619     3.35884E-03     129.556E-03    -88.3979E+06    -149.081E+06    -66.7263E+06     3.73505E+06    -292.510E-03     584.956E-03    -292.446E-03     24.8140E-03    -292.643E-03     584.440E-03    -292.435E-03     24.5466E-03
             620     4.03057E-03     129.603E-03    -84.0852E+06    -128.691E+06    -54.6000E+06     4.58973E+06    -292.619E-03     585.076E-03    -292.457E-03     29.6408E-03    -292.785E-03     584.644E-03    -292.421E-03     29.2289E-03
             621     4.70313E-03     129.655E-03    -79.4568E+06    -104.469E+06    -41.7471E+06     5.56368E+06    -292.601E-03     585.064E-03    -292.463E-03     34.2501E-03    -292.803E-03     584.734E-03    -292.405E-03     33.6693E-03
             622     5.37481E-03     129.719E-03    -74.4257E+06    -76.2211E+06    -28.4153E+06     6.78215E+06    -292.750E-03     585.213E-03    -292.463E-03     39.5491E-03    -293.002E-03     585.012E-03    -292.386E-03     38.6523E-03
             623     6.04650E-03     129.789E-03    -68.7498E+06    -43.4944E+06    -14.5083E+06     7.74175E+06    -292.782E-03     585.240E-03    -292.459E-03     44.2173E-03    -293.087E-03     585.189E-03    -292.368E-03     42.9928E-03
             624     6.71846E-03     129.866E-03    -62.1917E+06    -20.6811E+06    -313.553E+03     7.88404E+06    -292.928E-03     585.395E-03    -292.467E-03     49.1368E-03    -293.274E-03     585.448E-03    -292.349E-03     47.4721E-03
             625     7.39030E-03     129.955E-03    -55.2317E+06    -1.04894E+06     14.1974E+06     7.73525E+06    -293.352E-03     585.846E-03    -292.495E-03     54.5524E-03    -293.740E-03     585.994E-03    -292.342E-03     52.3184E-03
             626     8.06318E-03     130.050E-03    -48.6270E+06     16.3716E+06     30.6100E+06     7.57757E+06    -293.696E-03     586.249E-03    -292.554E-03     58.7938E-03    -294.127E-03     586.477E-03    -292.354E-03     56.0525E-03
             627     8.73316E-03     130.151E-03    -41.9550E+06     21.9772E+06     47.9762E+06     6.87625E+06    -293.799E-03     586.436E-03    -292.637E-03     63.4587E-03    -294.265E-03     586.692E-03    -292.368E-03     60.0964E-03
             628     9.40653E-03     130.262E-03    -34.6274E+06     29.1093E+06     63.4448E+06     5.68800E+06    -294.131E-03     586.836E-03    -292.705E-03     69.0413E-03    -294.642E-03     587.143E-03    -292.379E-03     64.9119E-03
             629     10.0769E-03     130.380E-03    -27.4368E+06     36.0153E+06     74.6588E+06     4.49474E+06    -294.491E-03     587.249E-03    -292.758E-03     73.1130E-03    -295.032E-03     587.604E-03    -292.397E-03     68.3849E-03
             630     10.7492E-03     130.503E-03    -20.7933E+06     42.5672E+06     80.2942E+06     3.35784E+06    -294.386E-03     587.165E-03    -292.779E-03     76.5873E-03    -294.948E-03     587.571E-03    -292.409E-03     71.3494E-03
             631     11.4203E-03     130.631E-03    -14.7283E+06     50.0312E+06     83.3302E+06     2.31514E+06    -294.322E-03     587.089E-03    -292.768E-03     81.0423E-03    -294.909E-03     587.560E-03    -292.402E-03     75.2933E-03
             632     12.0932E-03     130.767E-03    -9.41126E+06     54.9249E+06     85.4236E+06     1.67124E+06    -294.595E-03     587.346E-03    -292.751E-03     83.2881E-03    -295.171E-03     587.836E-03    -292.389E-03     77.4217E-03
             633     12.7645E-03     130.899E-03    -4.54471E+06     58.6270E+06     87.5236E+06     1.24675E+06    -294.781E-03     587.526E-03    -292.746E-03     80.9191E-03    -295.268E-03     587.952E-03    -292.386E-03     75.8886E-03
             634     672.354E-06     131.159E-03    -99.9643E+06    -199.212E+06    -99.1278E+06      873.18E+03    -293.687E-03     585.179E-03    -291.491E-03     2.72154E-03    -293.657E-03     584.530E-03    -291.553E-03     3.15380E-03
             635     1.34287E-03     131.170E-03    -98.5958E+06    -193.163E+06    -94.5952E+06     1.49799E+06    -292.309E-03     584.804E-03    -292.494E-03     8.77021E-03    -292.368E-03     584.105E-03    -292.544E-03     8.92843E-03
             636     2.01529E-03     131.190E-03    -96.1254E+06    -183.316E+06    -87.4468E+06     2.32787E+06    -291.590E-03     583.917E-03    -292.326E-03     13.7708E-03    -291.666E-03     583.256E-03    -292.358E-03     13.8335E-03
             637     2.68796E-03     131.218E-03    -92.8502E+06    -169.952E+06    -78.0941E+06     3.19208E+06    -291.774E-03     583.932E-03    -292.158E-03     19.1969E-03    -291.873E-03     583.325E-03    -292.167E-03     19.1522E-03
             638     3.36058E-03     131.256E-03    -88.9516E+06    -153.300E+06    -67.0421E+06     4.10961E+06    -292.084E-03     584.190E-03    -292.106E-03     24.5610E-03    -292.211E-03     583.652E-03    -292.090E-03     24.3726E-03
             639     4.03276E-03     131.303E-03    -84.3174E+06    -133.155E+06    -54.6185E+06     5.12423E+06    -292.330E-03     584.446E-03    -292.115E-03     29.3450E-03    -292.489E-03     583.991E-03    -292.073E-03     29.0206E-03
             640     4.70377E-03     131.356E-03    -79.0214E+06    -109.287E+06    -41.3145E+06     6.21429E+06    -292.417E-03     584.556E-03    -292.139E-03     34.1556E-03    -292.611E-03     584.201E-03    -292.072E-03     33.6405E-03
             641     5.37625E-03     131.419E-03    -73.3201E+06    -81.2455E+06    -27.3609E+06     7.28636E+06    -292.359E-03     584.504E-03    -292.146E-03     39.5888E-03    -292.598E-03     584.274E-03    -292.058E-03     38.7411E-03
             642     6.04887E-03     131.490E-03    -67.4732E+06    -47.0711E+06    -12.6963E+06     8.11153E+06    -292.810E-03     584.966E-03    -292.156E-03     44.3558E-03    -293.105E-03     584.891E-03    -292.054E-03     43.1731E-03
             643     6.72045E-03     131.568E-03    -61.6165E+06    -19.8741E+06     1.88928E+06     7.41922E+06    -293.200E-03     585.407E-03    -292.207E-03     49.0047E-03    -293.545E-03     585.457E-03    -292.079E-03     47.4259E-03
             644     7.39249E-03     131.655E-03    -55.2112E+06    -3.23184E+06     16.5859E+06     6.61651E+06    -293.157E-03     585.426E-03    -292.269E-03     54.4738E-03    -293.543E-03     585.556E-03    -292.101E-03     52.3183E-03
             645     8.06353E-03     131.752E-03    -48.1743E+06     13.7279E+06     32.0696E+06     7.28685E+06    -293.472E-03     585.797E-03    -292.325E-03     59.0609E-03    -293.898E-03     586.008E-03    -292.115E-03     56.3721E-03
             646     8.73648E-03     131.854E-03    -41.1796E+06     24.6829E+06     47.5182E+06     6.78528E+06    -293.851E-03     586.252E-03    -292.401E-03     63.3923E-03    -294.312E-03     586.516E-03    -292.139E-03     60.1336E-03
             647     9.40704E-03     131.963E-03    -34.4182E+06     31.0198E+06     62.2459E+06     5.29187E+06    -293.852E-03     586.326E-03    -292.475E-03     69.3665E-03    -294.364E-03     586.645E-03    -292.158E-03     65.2676E-03
             648     10.0800E-03     132.085E-03    -27.5705E+06     37.9299E+06     74.4961E+06     4.26858E+06    -293.937E-03     586.457E-03    -292.519E-03     73.7474E-03    -294.487E-03     586.827E-03    -292.162E-03     68.9828E-03
             649     10.7512E-03     132.204E-03    -20.9859E+06     44.2861E+06     81.1959E+06     3.43452E+06    -294.170E-03     586.706E-03    -292.535E-03     76.9533E-03    -294.741E-03     587.123E-03    -292.163E-03     71.6952E-03
             650     11.4244E-03     132.334E-03    -15.1877E+06     51.4353E+06     84.5046E+06     2.87886E+06    -294.076E-03     586.603E-03    -292.527E-03     80.5881E-03    -294.664E-03     587.075E-03    -292.157E-03     74.9154E-03
             651     12.0962E-03     132.466E-03    -9.93504E+06     56.0952E+06     86.6094E+06     2.29059E+06    -294.113E-03     586.619E-03    -292.506E-03     82.8734E-03    -294.691E-03     587.110E-03    -292.140E-03     77.0614E-03
             652     12.7689E-03     132.604E-03    -4.94025E+06     60.6325E+06     88.7160E+06     1.31990E+06    -294.718E-03     587.217E-03    -292.499E-03     80.6137E-03    -295.212E-03     587.652E-03    -292.137E-03     75.6200E-03
             653     671.771E-06     132.862E-03    -101.275E+06    -203.258E+06    -99.8559E+06     1.11855E+06    -291.684E-03     584.201E-03    -292.518E-03     2.99116E-03    -291.668E-03     583.538E-03    -292.575E-03     3.30030E-03
             654     1.34400E-03     132.871E-03    -99.4268E+06    -196.907E+06    -95.1449E+06     1.61161E+06    -291.791E-03     583.800E-03    -292.009E-03     8.44306E-03    -291.850E-03     583.087E-03    -292.055E-03     8.63812E-03
             655     2.01633E-03     132.887E-03    -96.9633E+06    -187.221E+06    -88.0382E+06     2.25627E+06    -291.738E-03     583.663E-03    -291.925E-03     14.1930E-03    -291.812E-03     582.986E-03    -291.953E-03     14.2437E-03
             656     2.68893E-03     132.917E-03     -93.468E+06    -173.953E+06    -78.4776E+06     2.98683E+06    -291.894E-03     583.791E-03    -291.897E-03     19.1208E-03    -291.992E-03     583.168E-03    -291.901E-03     19.1089E-03
             657     3.36068E-03     132.955E-03    -89.0099E+06    -157.333E+06    -66.9672E+06     3.69934E+06    -291.808E-03     583.699E-03    -291.891E-03     23.7506E-03    -291.929E-03     583.140E-03    -291.868E-03     23.6718E-03
             658     4.03310E-03     133.001E-03    -83.8980E+06    -137.527E+06    -54.2478E+06     4.45661E+06    -291.724E-03     583.591E-03    -291.867E-03     28.9366E-03    -291.874E-03     583.112E-03    -291.818E-03     28.6817E-03
             659     4.70635E-03     133.057E-03    -78.1620E+06    -114.100E+06    -40.5536E+06     5.32412E+06    -291.982E-03     583.835E-03    -291.853E-03     33.8219E-03    -292.164E-03     583.452E-03    -291.777E-03     33.3653E-03
             660     5.37833E-03     133.117E-03    -71.8580E+06    -86.2963E+06    -26.0333E+06     6.37523E+06    -292.396E-03     584.269E-03    -291.872E-03     39.1181E-03    -292.620E-03     584.007E-03    -291.773E-03     38.3604E-03
             661     6.05026E-03     133.190E-03    -65.3024E+06    -52.0855E+06    -10.9368E+06     7.78834E+06    -292.804E-03     584.721E-03    -291.917E-03     44.1744E-03    -293.081E-03     584.613E-03    -291.801E-03     43.0834E-03
             662     6.72197E-03     133.270E-03    -59.0050E+06    -19.5224E+06     4.52706E+06     8.73202E+06    -292.975E-03     584.953E-03    -291.977E-03     48.4092E-03    -293.305E-03     584.990E-03    -291.841E-03     47.0100E-03
             663     7.39360E-03     133.356E-03    -53.4554E+06    -3.83972E+06     19.5346E+06     8.32498E+06    -292.926E-03     584.971E-03    -292.045E-03     54.2753E-03    -293.302E-03     585.086E-03    -291.864E-03     52.2815E-03
             664     8.06678E-03     133.453E-03    -47.8857E+06     11.4880E+06     33.7397E+06     7.60864E+06    -293.161E-03     585.256E-03    -292.094E-03     59.8128E-03    -293.586E-03     585.453E-03    -291.873E-03     57.1509E-03
             665     8.73767E-03     133.556E-03    -41.4829E+06     27.4515E+06     47.9342E+06     6.81739E+06    -293.688E-03     585.842E-03    -292.155E-03     63.8308E-03    -294.154E-03     586.120E-03    -291.895E-03     60.6082E-03
             666     9.41027E-03     133.665E-03    -34.6867E+06     32.9632E+06     62.1194E+06     5.59258E+06    -293.655E-03     585.887E-03    -292.231E-03     69.0537E-03    -294.166E-03     586.211E-03    -291.918E-03     65.0595E-03
             667     10.0822E-03     133.783E-03    -28.1354E+06     39.0632E+06     74.6096E+06     4.75556E+06    -293.543E-03     585.819E-03    -292.276E-03     73.8221E-03    -294.098E-03     586.196E-03    -291.919E-03     69.0764E-03
             668     10.7552E-03     133.908E-03    -21.9993E+06     45.3386E+06     81.9515E+06     4.18713E+06    -294.000E-03     586.294E-03    -292.294E-03     76.6710E-03    -294.574E-03     586.713E-03    -291.918E-03     71.4701E-03
             669     11.4257E-03     134.034E-03    -16.1391E+06     52.5599E+06      85.597E+06     3.49641E+06    -294.152E-03     586.453E-03    -292.301E-03     79.7633E-03    -294.738E-03     586.920E-03    -291.926E-03     74.2096E-03
             670     12.0984E-03     134.168E-03    -10.4301E+06     58.7027E+06     87.9281E+06     2.34602E+06    -294.069E-03     586.362E-03    -292.293E-03     82.7941E-03    -294.657E-03     586.867E-03    -291.924E-03     76.9648E-03
             671     12.7703E-03     134.304E-03    -4.91911E+06     63.4250E+06     89.9585E+06     962.024E+03    -294.329E-03     586.615E-03    -292.286E-03     81.2528E-03    -294.841E-03     587.074E-03    -291.921E-03     76.1444E-03
             672     671.971E-06     134.560E-03    -102.515E+06    -207.023E+06    -101.280E+06     632.726E+03    -290.352E-03     582.518E-03    -292.167E-03     4.17410E-03    -290.346E-03     581.842E-03    -292.224E-03     4.29472E-03
             673     1.34543E-03     134.567E-03    -100.628E+06    -200.695E+06    -96.5843E+06     1.42361E+06    -291.582E-03     582.879E-03    -291.297E-03     8.66308E-03    -291.641E-03     582.153E-03    -291.343E-03     8.85347E-03
             674     2.01766E-03     134.587E-03    -97.9101E+06    -190.463E+06    -88.9193E+06     2.03400E+06    -292.072E-03     583.544E-03    -291.472E-03     14.0461E-03    -292.145E-03     582.853E-03    -291.499E-03     14.1444E-03
             675     2.68876E-03     134.616E-03     -94.396E+06    -177.136E+06    -79.1036E+06     2.48668E+06    -292.010E-03     583.634E-03    -291.624E-03     19.3831E-03    -292.107E-03     582.998E-03    -291.626E-03     19.3649E-03
             676     3.36144E-03     134.654E-03    -90.0905E+06    -160.713E+06    -67.5226E+06     3.00294E+06    -291.642E-03     583.314E-03    -291.673E-03     24.0194E-03    -291.764E-03     582.742E-03    -291.647E-03     23.9415E-03
             677     4.03423E-03     134.699E-03    -85.1225E+06    -140.968E+06    -54.6033E+06     3.54107E+06    -291.444E-03     583.095E-03    -291.651E-03     29.0936E-03    -291.594E-03     582.600E-03    -291.596E-03     28.8648E-03
             678     4.70650E-03     134.754E-03    -79.6636E+06    -117.960E+06    -40.8992E+06     4.18228E+06    -291.824E-03     583.461E-03    -291.636E-03     33.8673E-03    -292.006E-03     583.060E-03    -291.554E-03     33.4600E-03
             679     5.37908E-03     134.817E-03    -73.9085E+06    -91.1303E+06    -26.8817E+06     5.09392E+06    -292.402E-03     584.075E-03    -291.673E-03     38.9156E-03    -292.626E-03     583.791E-03    -291.568E-03     38.2406E-03
             680     6.05087E-03     134.891E-03    -67.8150E+06    -58.7190E+06    -12.4034E+06     6.62185E+06    -292.402E-03     584.122E-03    -291.720E-03     44.2417E-03    -292.678E-03     583.985E-03    -291.598E-03     43.2020E-03
             681     6.72341E-03     134.969E-03    -61.4244E+06    -24.6257E+06     2.03141E+06     8.65800E+06    -292.377E-03     584.119E-03    -291.742E-03     48.9496E-03    -292.709E-03     584.139E-03    -291.607E-03     47.5520E-03
             682     7.39613E-03     135.056E-03    -54.8391E+06    -4.68741E+06     15.9263E+06     9.78531E+06    -292.687E-03     584.464E-03    -291.777E-03     54.3511E-03    -293.060E-03     584.580E-03    -291.611E-03     52.4311E-03
             683     8.06768E-03     135.152E-03    -48.4552E+06     12.5359E+06     30.7596E+06     9.11976E+06    -292.930E-03     584.757E-03    -291.826E-03     60.0997E-03    -293.355E-03     584.964E-03    -291.620E-03     57.4966E-03
             684     8.74082E-03     135.258E-03    -42.2788E+06     29.5736E+06     47.1038E+06     7.57851E+06    -293.273E-03     585.162E-03    -291.889E-03     64.4175E-03    -293.747E-03     585.455E-03    -291.636E-03     61.2085E-03
             685     9.41204E-03     135.365E-03    -35.9915E+06     34.5332E+06     62.6089E+06     6.41586E+06    -293.674E-03     585.651E-03    -291.978E-03     68.7776E-03    -294.188E-03     585.979E-03    -291.662E-03     64.8945E-03
             686     10.0846E-03     135.484E-03    -29.5346E+06     39.8706E+06     75.6132E+06     5.66445E+06    -293.674E-03     585.723E-03    -292.049E-03     73.5656E-03    -294.233E-03     586.099E-03    -291.686E-03     68.9248E-03
             687     10.7561E-03     135.608E-03    -22.9198E+06     46.8610E+06     83.5257E+06     4.74398E+06    -293.502E-03     585.573E-03    -292.072E-03     76.9925E-03    -294.087E-03     586.001E-03    -291.689E-03     71.8055E-03
             688     11.4296E-03     135.736E-03    -16.3543E+06     55.0555E+06     87.4782E+06     3.32083E+06    -293.863E-03     585.930E-03    -292.067E-03     80.4899E-03    -294.463E-03     586.414E-03    -291.686E-03     74.8618E-03
             689     12.1012E-03     135.868E-03    -10.1823E+06     61.9567E+06     89.8070E+06     1.79355E+06    -294.197E-03     586.262E-03    -292.065E-03     83.5374E-03    -294.803E-03     586.791E-03    -291.691E-03     77.5873E-03
             690     12.7739E-03     136.006E-03    -4.82566E+06     65.7203E+06     91.3598E+06     774.569E+03    -294.178E-03     586.244E-03    -292.066E-03     82.3175E-03    -294.713E-03     586.730E-03    -291.698E-03     77.0459E-03
             691     674.534E-06     136.252E-03    -103.065E+06    -210.124E+06    -102.134E+06     536.152E+03    -290.461E-03     580.316E-03    -289.855E-03     5.93455E-03    -290.454E-03     579.625E-03    -289.911E-03     5.87585E-03
             692     1.34582E-03     136.266E-03    -101.757E+06    -203.845E+06     -97.847E+06     1.10140E+06    -292.158E-03     582.683E-03    -290.525E-03     9.78829E-03    -292.218E-03     581.946E-03    -290.572E-03     9.87679E-03
             693     2.01746E-03     136.284E-03    -99.1905E+06    -193.571E+06    -90.4707E+06     1.68158E+06    -292.069E-03     583.164E-03    -291.096E-03     14.1187E-03    -292.143E-03     582.463E-03    -291.123E-03     14.2426E-03
             694     2.69072E-03     136.315E-03    -95.7577E+06    -180.200E+06    -80.2886E+06     2.42178E+06    -291.552E-03     582.848E-03    -291.296E-03     19.1393E-03    -291.648E-03     582.199E-03    -291.297E-03     19.2001E-03
             695     3.36273E-03     136.351E-03    -91.7559E+06    -163.498E+06    -68.4824E+06     3.02102E+06    -291.441E-03     582.784E-03    -291.342E-03     24.2040E-03    -291.566E-03     582.201E-03    -291.315E-03     24.1634E-03
             696     4.03513E-03     136.396E-03    -87.0933E+06    -143.932E+06    -55.5494E+06     3.59839E+06    -291.627E-03     582.999E-03    -291.372E-03     29.4379E-03    -291.781E-03     582.494E-03    -291.315E-03     29.2321E-03
             697     4.70806E-03     136.452E-03    -81.9734E+06    -121.473E+06    -41.9470E+06     4.34100E+06    -291.870E-03     583.284E-03    -291.414E-03     34.8724E-03    -292.059E-03     582.873E-03    -291.329E-03     34.4172E-03
             698     5.37986E-03     136.517E-03    -76.5069E+06    -95.4026E+06    -28.0998E+06     5.31472E+06    -291.958E-03     583.412E-03    -291.454E-03     39.9034E-03    -292.189E-03     583.114E-03    -291.345E-03     39.1888E-03
             699     6.05265E-03     136.588E-03    -70.8504E+06    -65.3318E+06    -14.4421E+06     6.82088E+06    -291.748E-03     583.210E-03    -291.462E-03     44.8457E-03    -292.028E-03     583.048E-03    -291.337E-03     43.8301E-03
             700     6.72557E-03     136.668E-03    -64.7979E+06    -30.2933E+06    -462.968E+03     8.12224E+06    -292.029E-03     583.482E-03    -291.453E-03     50.1712E-03    -292.370E-03     583.487E-03    -291.318E-03     48.7039E-03
             701     7.39768E-03     136.756E-03    -58.0626E+06    -6.84204E+06     13.1625E+06     8.30270E+06    -292.625E-03     584.111E-03    -291.486E-03     55.0591E-03    -293.011E-03     584.228E-03    -291.326E-03     53.0834E-03
             702     8.07051E-03     136.851E-03    -50.7545E+06     12.4060E+06     27.0817E+06     8.16784E+06    -292.756E-03     584.296E-03    -291.539E-03     60.5072E-03    -293.188E-03     584.513E-03    -291.348E-03     57.8972E-03
             703     8.74241E-03     136.956E-03    -43.6589E+06     30.3137E+06     43.6935E+06     8.13372E+06    -292.939E-03     584.540E-03    -291.601E-03     65.1060E-03    -293.420E-03     584.847E-03    -291.363E-03     61.8798E-03
             704     9.41552E-03     137.067E-03    -36.8349E+06     36.3022E+06     61.3915E+06     7.26472E+06    -293.552E-03     585.251E-03    -291.698E-03     69.4720E-03    -294.075E-03     585.594E-03    -291.391E-03     65.5739E-03
             705     10.0865E-03     137.185E-03    -29.5873E+06     41.9663E+06     76.2560E+06     5.63052E+06    -293.596E-03     585.383E-03    -291.787E-03     73.8585E-03    -294.158E-03     585.768E-03    -291.424E-03     69.2505E-03
             706     10.7598E-03     137.307E-03    -22.1745E+06     49.0111E+06     85.2809E+06     4.18399E+06    -293.288E-03     585.108E-03    -291.820E-03     77.5607E-03    -293.878E-03     585.546E-03    -291.433E-03     72.3513E-03
             707     11.4320E-03     137.435E-03    -15.4902E+06     57.7992E+06     89.7545E+06     3.14793E+06    -293.740E-03     585.560E-03    -291.820E-03     81.0037E-03    -294.346E-03     586.057E-03    -291.433E-03     75.3542E-03
             708     12.1047E-03     137.570E-03    -9.97551E+06     64.7833E+06     91.8807E+06     2.18910E+06    -294.249E-03     586.079E-03    -291.830E-03     82.8857E-03    -294.852E-03     586.611E-03    -291.450E-03     77.0473E-03
             709     12.7764E-03     137.704E-03    -4.94977E+06     68.1564E+06     93.0407E+06     1.05550E+06    -294.064E-03     585.908E-03    -291.844E-03     81.7350E-03    -294.601E-03     586.400E-03    -291.471E-03     76.5495E-03
             710     674.687E-06     137.947E-03    -104.091E+06    -213.116E+06    -103.240E+06     817.006E+03    -290.448E-03     580.022E-03    -289.574E-03     7.43450E-03    -290.449E-03     579.317E-03    -289.630E-03     7.32361E-03
             711     1.34707E-03     137.962E-03    -102.741E+06    -206.588E+06    -98.3318E+06     1.23864E+06    -291.681E-03     581.998E-03    -290.317E-03     9.31876E-03    -291.744E-03     581.252E-03    -290.360E-03     9.45792E-03
             712     2.01896E-03     137.983E-03    -100.369E+06    -196.961E+06    -90.8159E+06     1.90665E+06    -291.584E-03     582.380E-03    -290.796E-03     13.6895E-03    -291.660E-03     581.665E-03    -290.819E-03     13.8754E-03
             713     2.69045E-03     138.010E-03    -96.9684E+06    -183.714E+06    -81.0296E+06     2.63635E+06    -291.171E-03     582.132E-03    -290.961E-03     18.5806E-03    -291.267E-03     581.468E-03    -290.959E-03     18.7353E-03
             714     3.36425E-03     138.047E-03    -92.6496E+06    -166.576E+06    -69.3045E+06     3.36721E+06    -291.189E-03     582.199E-03    -291.010E-03     24.2306E-03    -291.312E-03     581.603E-03    -290.980E-03     24.2359E-03
             715     4.03677E-03     138.094E-03    -87.8120E+06    -147.294E+06    -56.1319E+06     4.13007E+06    -291.588E-03     582.658E-03    -291.070E-03     29.5278E-03    -291.740E-03     582.138E-03    -291.010E-03     29.3697E-03
             716     4.70871E-03     138.148E-03    -82.4667E+06    -125.213E+06    -42.3538E+06     4.95297E+06    -291.610E-03     582.747E-03    -291.136E-03     35.1251E-03    -291.796E-03     582.318E-03    -291.047E-03     34.7116E-03
             717     5.38201E-03     138.214E-03    -76.6526E+06    -99.8088E+06    -28.3218E+06     5.91565E+06    -291.451E-03     582.614E-03    -291.164E-03     39.9873E-03    -291.674E-03     582.294E-03    -291.050E-03     39.3473E-03
             718     6.05492E-03     138.284E-03    -70.2281E+06    -70.5017E+06    -13.9387E+06      6.8572E+06    -291.573E-03     582.741E-03    -291.169E-03     44.4535E-03    -291.839E-03     582.549E-03    -291.034E-03     43.5608E-03
             719     6.72790E-03     138.365E-03    -63.3788E+06    -34.7988E+06     978.285E+03     7.87423E+06    -291.900E-03     583.076E-03    -291.177E-03     50.0017E-03    -292.226E-03     583.052E-03    -291.029E-03     48.6268E-03
             720     7.40059E-03     138.455E-03    -56.7424E+06    -6.60273E+06     15.4368E+06     7.80955E+06    -292.284E-03     583.496E-03    -291.211E-03     54.9237E-03    -292.664E-03     583.605E-03    -291.042E-03     53.0359E-03
             721     8.07247E-03     138.549E-03    -50.2545E+06     10.3946E+06     29.6189E+06     7.21159E+06    -292.657E-03     583.932E-03    -291.275E-03     60.1490E-03    -293.082E-03     584.130E-03    -291.069E-03     57.6454E-03
             722     8.74562E-03     138.655E-03    -43.3905E+06     27.7681E+06     44.8466E+06     7.68235E+06    -292.901E-03     584.248E-03    -291.348E-03     64.9244E-03    -293.374E-03     584.536E-03    -291.101E-03     61.7867E-03
             723     9.41728E-03     138.766E-03    -36.1431E+06     39.8473E+06     60.8746E+06     6.93462E+06    -293.029E-03     584.456E-03    -291.427E-03     69.2833E-03    -293.549E-03     584.812E-03    -291.128E-03     65.4716E-03
             724     10.0906E-03     138.885E-03    -28.8708E+06     45.0559E+06     75.6646E+06     5.01071E+06    -293.163E-03     584.665E-03    -291.502E-03     73.1207E-03    -293.713E-03     585.053E-03    -291.147E-03     68.6669E-03
             725     10.7624E-03     139.004E-03    -22.1985E+06     50.5008E+06     85.6289E+06     4.02703E+06    -293.520E-03     585.075E-03    -291.555E-03     77.1030E-03    -294.103E-03     585.511E-03    -291.168E-03     72.0056E-03
             726     11.4349E-03     139.136E-03    -16.1602E+06     59.0607E+06     90.7992E+06     3.58989E+06    -293.798E-03     585.383E-03    -291.585E-03     81.1315E-03    -294.411E-03     585.884E-03    -291.193E-03     75.5076E-03
             727     12.1067E-03     139.269E-03    -10.2492E+06     67.3741E+06     93.4952E+06     2.77493E+06    -294.012E-03     585.615E-03    -291.603E-03     83.4980E-03    -294.632E-03     586.166E-03    -291.218E-03     77.5989E-03
             728     12.7790E-03     139.407E-03    -4.78833E+06     71.2411E+06     94.7518E+06     1.50065E+06    -293.911E-03     585.528E-03    -291.617E-03     81.8931E-03    -294.460E-03     586.039E-03    -291.240E-03     76.6871E-03
             729     671.933E-06     139.642E-03    -106.286E+06    -216.445E+06    -104.718E+06     774.696E+03    -290.272E-03     582.053E-03    -291.781E-03     7.49071E-03    -290.281E-03     581.338E-03    -291.837E-03     7.35950E-03
             730     1.34524E-03     139.656E-03    -104.285E+06    -210.021E+06    -99.4612E+06     1.51405E+06    -290.152E-03     580.981E-03    -290.829E-03     9.07575E-03    -290.217E-03     580.223E-03    -290.871E-03     9.24804E-03
             731     2.01882E-03     139.679E-03    -101.510E+06    -200.461E+06    -91.3718E+06     2.19313E+06    -290.456E-03     581.096E-03    -290.640E-03     13.5020E-03    -290.531E-03     580.366E-03    -290.659E-03     13.7336E-03
             732     2.69265E-03     139.705E-03    -97.7959E+06    -187.015E+06    -81.2193E+06     2.79969E+06    -290.959E-03     581.616E-03    -290.658E-03     18.4725E-03    -291.054E-03     580.937E-03    -290.651E-03     18.6839E-03
             733     3.36458E-03     139.742E-03    -93.3606E+06    -170.023E+06    -69.5292E+06     3.42028E+06    -291.234E-03     581.982E-03    -290.749E-03     24.0833E-03    -291.355E-03     581.370E-03    -290.715E-03     24.1640E-03
             734     4.03759E-03     139.790E-03    -88.1920E+06    -150.898E+06    -56.3805E+06     4.06884E+06    -291.183E-03     582.010E-03    -290.827E-03     29.1308E-03    -291.329E-03     581.471E-03    -290.762E-03     29.0829E-03
             735     4.71075E-03     139.846E-03    -82.4332E+06    -129.071E+06    -42.2427E+06     4.82479E+06    -291.158E-03     582.027E-03    -290.869E-03     34.5633E-03    -291.334E-03     581.575E-03    -290.774E-03     34.2868E-03
             736     5.38341E-03     139.909E-03    -76.2364E+06    -103.452E+06    -27.6516E+06     5.46456E+06    -291.291E-03     582.185E-03    -290.894E-03     39.4898E-03    -291.505E-03     581.841E-03    -290.772E-03     38.9792E-03
             737     6.05630E-03     139.982E-03    -69.7118E+06    -74.1939E+06    -12.7627E+06     5.97608E+06    -291.629E-03     582.555E-03    -290.926E-03     44.2153E-03    -291.887E-03     582.339E-03    -290.781E-03     43.4000E-03
             738     6.72851E-03     140.061E-03    -62.8652E+06    -39.1993E+06     2.22650E+06     6.60631E+06    -291.797E-03     582.756E-03    -290.959E-03     49.6810E-03    -292.113E-03     582.703E-03    -290.799E-03     48.3881E-03
             739     7.40167E-03     140.151E-03    -55.6862E+06    -7.28929E+06     16.8126E+06     7.20073E+06    -291.915E-03     582.903E-03    -290.988E-03     54.6250E-03    -292.286E-03     583.001E-03    -290.812E-03     52.8437E-03
             740     8.07500E-03     140.248E-03    -48.7910E+06     7.87375E+06     31.2649E+06     7.85050E+06    -292.463E-03     583.513E-03    -291.050E-03     59.8335E-03    -292.875E-03     583.689E-03    -290.835E-03     57.4542E-03
             741     8.74656E-03     140.353E-03    -42.3443E+06     25.6877E+06     46.4385E+06     8.04133E+06    -292.668E-03     583.793E-03    -291.124E-03     64.5561E-03    -293.130E-03     584.060E-03    -290.868E-03     61.5447E-03
             742     9.41978E-03     140.464E-03    -35.9519E+06      43.257E+06     61.7405E+06     7.08197E+06    -292.442E-03     583.623E-03    -291.181E-03     69.1620E-03    -292.961E-03     583.989E-03    -290.883E-03     65.4589E-03
             743     10.0922E-03     140.582E-03    -29.8692E+06     47.1608E+06     75.7335E+06     6.03734E+06    -292.851E-03     584.092E-03    -291.241E-03     73.6011E-03    -293.410E-03     584.493E-03    -290.888E-03     69.1856E-03
             744     10.7652E-03     140.705E-03    -23.8032E+06     52.1000E+06     85.8988E+06     5.08281E+06    -293.511E-03     584.813E-03    -291.302E-03     77.5427E-03    -294.107E-03     585.260E-03    -290.913E-03     72.4686E-03
             745     11.4371E-03     140.834E-03    -17.2843E+06     61.3273E+06     91.7500E+06     3.55326E+06    -293.634E-03     584.976E-03    -291.342E-03     81.3834E-03    -294.259E-03     585.491E-03    -290.947E-03     75.7655E-03
             746     12.1105E-03     140.969E-03    -10.9416E+06     69.4483E+06     94.4332E+06     2.25888E+06    -293.788E-03     585.150E-03    -291.362E-03     84.0052E-03    -294.423E-03     585.719E-03    -290.975E-03     78.0326E-03
             747     12.7831E-03     141.106E-03    -5.19203E+06     73.7273E+06     95.5912E+06     1.45694E+06    -293.820E-03     585.200E-03    -291.380E-03     81.3508E-03    -294.375E-03     585.721E-03    -291.001E-03     76.1846E-03
             748     671.117E-06     141.335E-03    -107.150E+06    -220.094E+06    -105.722E+06     584.515E+03    -290.294E-03     582.369E-03    -292.075E-03     6.55439E-03    -290.289E-03     581.640E-03    -292.129E-03     6.43848E-03
             749     1.34558E-03     141.350E-03    -105.274E+06    -213.950E+06    -100.906E+06     1.51184E+06    -289.714E-03     580.571E-03    -290.858E-03     10.7316E-03    -289.773E-03     579.796E-03    -290.899E-03     10.7592E-03
             750     2.01964E-03     141.370E-03    -102.515E+06    -203.814E+06    -92.7670E+06     2.18994E+06    -290.048E-03     580.548E-03    -290.500E-03     13.8938E-03    -290.120E-03     579.804E-03    -290.520E-03     14.1255E-03
             751     2.69252E-03     141.400E-03    -98.7309E+06    -190.197E+06    -81.9598E+06     2.77335E+06    -290.756E-03     581.228E-03    -290.472E-03     18.5485E-03    -290.850E-03     580.535E-03    -290.463E-03     18.7920E-03
             752     3.36559E-03     141.438E-03    -94.1423E+06    -173.114E+06    -69.4288E+06     3.30502E+06    -291.040E-03     581.605E-03    -290.565E-03     23.6302E-03    -291.158E-03     580.976E-03    -290.525E-03     23.8068E-03
             753     4.03807E-03     141.485E-03    -88.9568E+06    -154.236E+06    -55.8513E+06     3.86885E+06    -290.796E-03     581.427E-03    -290.631E-03     28.9709E-03    -290.941E-03     580.870E-03    -290.558E-03     28.9970E-03
             754     4.71137E-03     141.539E-03    -83.2391E+06    -132.507E+06    -41.7550E+06     4.45051E+06    -290.844E-03     581.496E-03    -290.652E-03     34.3784E-03    -291.019E-03     581.026E-03    -290.548E-03     34.1838E-03
             755     5.38463E-03     141.605E-03    -77.2201E+06    -106.614E+06    -27.4154E+06     5.09217E+06    -291.117E-03     581.790E-03    -290.672E-03     39.5003E-03    -291.330E-03     581.429E-03    -290.543E-03     39.0560E-03
             756     6.05746E-03     141.676E-03    -71.1407E+06    -77.6781E+06    -12.7800E+06     5.91936E+06    -291.471E-03     582.181E-03    -290.710E-03     44.6387E-03    -291.730E-03     581.949E-03    -290.558E-03     43.8550E-03
             757     6.73084E-03     141.759E-03    -65.1669E+06    -42.6412E+06     2.02671E+06     6.76585E+06    -291.772E-03     582.526E-03    -290.755E-03     49.7076E-03    -292.091E-03     582.457E-03    -290.588E-03     48.5035E-03
             758     7.40334E-03     141.847E-03    -59.3528E+06    -9.62473E+06     15.7283E+06     7.14212E+06    -291.884E-03     582.681E-03    -290.797E-03     54.5580E-03    -292.265E-03     582.771E-03    -290.618E-03     52.8759E-03
             759     8.07585E-03     141.945E-03    -53.0144E+06     5.50498E+06     27.4205E+06     7.01691E+06    -292.050E-03     582.895E-03    -290.845E-03     60.0220E-03    -292.472E-03     583.069E-03    -290.639E-03     57.6953E-03
             760     8.74929E-03     142.051E-03    -45.8250E+06     23.9451E+06     41.0779E+06     7.17641E+06    -292.139E-03     583.027E-03    -290.889E-03     64.2671E-03    -292.602E-03     583.294E-03    -290.652E-03     61.3547E-03
             761     9.42212E-03     142.160E-03    -38.7517E+06     43.6505E+06     58.6903E+06     7.57153E+06    -292.225E-03     583.168E-03    -290.943E-03     68.4789E-03    -292.745E-03     583.535E-03    -290.657E-03     64.9258E-03
             762     10.0959E-03     142.279E-03    -31.5978E+06     49.0600E+06     75.7818E+06     6.79783E+06    -292.576E-03     583.592E-03    -291.016E-03     73.2586E-03    -293.142E-03     584.000E-03    -290.662E-03     68.9342E-03
             763     10.7680E-03     142.404E-03    -24.0265E+06     55.2706E+06     87.3809E+06     4.97528E+06    -293.061E-03     584.133E-03    -291.073E-03     77.1386E-03    -293.660E-03     584.590E-03    -290.681E-03     72.1387E-03
             764     11.4409E-03     142.533E-03    -17.0940E+06     64.6321E+06     93.3780E+06     3.41077E+06    -293.465E-03     584.576E-03    -291.110E-03     80.6322E-03    -294.087E-03     585.095E-03    -290.712E-03     75.1219E-03
             765     12.1127E-03     142.667E-03    -11.0027E+06     71.6954E+06     95.5911E+06     2.19714E+06    -293.730E-03     584.869E-03    -291.138E-03     83.6702E-03    -294.366E-03     585.443E-03    -290.748E-03     77.7517E-03
             766     12.7847E-03     142.806E-03    -5.39163E+06     75.7948E+06     96.2740E+06     1.07059E+06    -293.540E-03     584.698E-03    -291.159E-03     80.9299E-03    -294.096E-03     585.225E-03    -290.779E-03     75.8231E-03
             767     674.297E-06     143.028E-03    -108.162E+06    -223.710E+06    -107.128E+06     669.281E+03    -290.201E-03     580.674E-03    -290.473E-03     3.07904E-03    -290.184E-03     579.937E-03    -290.528E-03     3.31498E-03
             768     1.34673E-03     143.044E-03    -106.620E+06    -217.607E+06    -101.993E+06     1.41677E+06    -290.264E-03     580.552E-03    -290.288E-03     10.4059E-03    -290.321E-03     579.760E-03    -290.328E-03     10.4939E-03
             769     2.01938E-03     143.063E-03    -103.550E+06    -207.058E+06    -93.5628E+06     2.00254E+06    -290.476E-03     580.790E-03    -290.314E-03     14.1465E-03    -290.548E-03     580.032E-03    -290.331E-03     14.3861E-03
             770     2.69284E-03     143.095E-03    -99.7581E+06    -193.355E+06    -82.8363E+06     2.60562E+06    -290.533E-03     580.904E-03    -290.371E-03     19.0989E-03    -290.626E-03     580.197E-03    -290.360E-03     19.3173E-03
             771     3.36559E-03     143.133E-03    -95.2035E+06    -176.435E+06    -70.0856E+06     3.29563E+06    -290.490E-03     580.900E-03    -290.410E-03     23.5867E-03    -290.607E-03     580.257E-03    -290.367E-03     23.8002E-03
             772     4.03956E-03     143.178E-03    -89.8806E+06    -157.301E+06    -55.9197E+06     3.95637E+06    -290.659E-03     581.102E-03    -290.444E-03     28.7745E-03    -290.802E-03     580.530E-03    -290.365E-03     28.8692E-03
             773     4.71252E-03     143.234E-03    -84.1261E+06    -135.771E+06    -41.4327E+06     4.58183E+06    -290.740E-03     581.218E-03    -290.478E-03     34.0202E-03    -290.913E-03     580.731E-03    -290.366E-03     33.9245E-03
             774     5.38572E-03     143.299E-03    -78.1076E+06    -110.431E+06    -27.1315E+06     5.46551E+06    -290.805E-03     581.302E-03    -290.497E-03     39.2423E-03    -291.014E-03     580.921E-03    -290.359E-03     38.8878E-03
             775     6.05915E-03     143.372E-03    -71.8130E+06    -81.8586E+06    -12.8286E+06     6.52757E+06    -291.222E-03     581.744E-03    -290.522E-03     44.5809E-03    -291.477E-03     581.490E-03    -290.363E-03     43.8793E-03
             776     6.73145E-03     143.454E-03    -65.4114E+06    -48.0873E+06     1.59667E+06     8.21760E+06    -291.674E-03     582.241E-03    -290.567E-03     49.5290E-03    -291.983E-03     582.142E-03    -290.394E-03     48.4605E-03
             777     7.40445E-03     143.544E-03    -59.0725E+06    -11.0017E+06     16.2823E+06     9.22144E+06    -291.788E-03     582.404E-03    -290.616E-03     54.3442E-03    -292.162E-03     582.481E-03    -290.433E-03     52.8229E-03
             778     8.07763E-03     143.641E-03    -52.7343E+06     8.86644E+06     29.7357E+06     7.32673E+06    -291.725E-03     582.389E-03    -290.664E-03     59.8744E-03    -292.148E-03     582.571E-03    -290.452E-03     57.6782E-03
             779     8.75066E-03     143.747E-03    -46.0416E+06     20.7561E+06     43.0211E+06     6.00218E+06    -291.932E-03     582.642E-03    -290.710E-03     63.9970E-03    -292.388E-03     582.884E-03    -290.458E-03     61.2098E-03
             780     9.42372E-03     143.857E-03    -38.6222E+06     40.8136E+06     59.1956E+06     6.85561E+06    -292.324E-03     583.091E-03    -290.766E-03     67.9737E-03    -292.832E-03     583.434E-03    -290.473E-03     64.5586E-03
             781     10.0957E-03     143.975E-03    -31.0438E+06     52.9970E+06     75.5908E+06     6.08377E+06    -292.307E-03     583.140E-03    -290.833E-03     72.7330E-03    -292.868E-03     583.560E-03    -290.487E-03     68.5236E-03
             782     10.7697E-03     144.100E-03    -23.8847E+06     58.2306E+06     87.4657E+06     4.34171E+06    -292.532E-03     583.412E-03    -290.880E-03     77.2881E-03    -293.134E-03     583.883E-03    -290.492E-03     72.3096E-03
             783     11.4421E-03     144.231E-03    -16.9940E+06     67.0404E+06     94.3414E+06     3.21432E+06    -293.236E-03     584.147E-03    -290.911E-03     80.6962E-03    -293.861E-03     584.676E-03    -290.512E-03     75.2143E-03
             784     12.1153E-03     144.365E-03    -10.5196E+06     74.0648E+06     96.9785E+06     2.19134E+06    -293.273E-03     584.206E-03    -290.933E-03     83.4809E-03    -293.909E-03     584.787E-03    -290.540E-03     77.6097E-03
             785     12.7886E-03     144.504E-03    -4.82315E+06     78.1502E+06     97.7215E+06     1.27697E+06    -293.065E-03     584.005E-03    -290.940E-03     81.3328E-03    -293.629E-03     584.546E-03    -290.558E-03     76.2006E-03
             786     672.915E-06     144.722E-03    -110.182E+06    -227.204E+06    -108.789E+06     835.453E+03    -290.089E-03     579.875E-03    -289.786E-03     2.32284E-03    -290.073E-03     579.135E-03    -289.841E-03     2.71830E-03
             787     1.34681E-03     144.736E-03    -108.064E+06    -220.534E+06    -103.130E+06     1.22621E+06    -290.223E-03     580.188E-03    -289.965E-03     9.91984E-03    -290.282E-03     579.385E-03    -290.004E-03     10.0695E-03
             788     2.02028E-03     144.758E-03    -105.199E+06    -210.382E+06    -94.7974E+06     1.86664E+06    -290.449E-03     580.543E-03    -290.094E-03     14.9002E-03    -290.524E-03     579.775E-03    -290.111E-03     15.0674E-03
             789     2.69277E-03     144.788E-03    -101.305E+06    -196.516E+06    -83.8115E+06     2.49099E+06    -290.512E-03     580.714E-03    -290.202E-03     19.2478E-03    -290.607E-03     579.996E-03    -290.189E-03     19.4824E-03
             790     3.36703E-03     144.825E-03    -96.4739E+06    -179.824E+06    -71.0344E+06     3.09893E+06    -290.440E-03     580.710E-03    -290.270E-03     23.3657E-03    -290.557E-03     580.052E-03    -290.224E-03     23.6524E-03
             791     4.03951E-03     144.873E-03    -90.9587E+06    -160.526E+06    -57.0453E+06     3.74123E+06    -290.507E-03     580.818E-03    -290.311E-03     28.3653E-03    -290.648E-03     580.231E-03    -290.231E-03     28.5600E-03
             792     4.71277E-03     144.928E-03    -84.8717E+06    -139.204E+06    -42.1817E+06     4.44806E+06    -290.636E-03     580.984E-03    -290.347E-03     33.7174E-03    -290.805E-03     580.479E-03    -290.233E-03     33.7106E-03
             793     5.38624E-03     144.992E-03    -78.2990E+06    -114.480E+06    -27.2477E+06     5.22497E+06    -290.783E-03     581.161E-03    -290.379E-03     38.8228E-03    -290.985E-03     580.759E-03    -290.236E-03     38.5727E-03
             794     6.05946E-03     145.066E-03    -71.4455E+06    -86.6389E+06    -12.5808E+06     6.24826E+06    -290.885E-03     581.285E-03    -290.401E-03     44.3049E-03    -291.128E-03     581.004E-03    -290.234E-03     43.6994E-03
             795     6.73321E-03     145.150E-03    -64.2031E+06    -54.7280E+06     2.03803E+06     7.54946E+06    -291.277E-03     581.700E-03    -290.423E-03     49.6692E-03    -291.570E-03     581.565E-03    -290.241E-03     48.6443E-03
             796     7.40598E-03     145.239E-03    -56.4609E+06    -14.2531E+06     17.4986E+06     8.80236E+06    -291.580E-03     582.033E-03    -290.453E-03     54.0222E-03    -291.934E-03     582.085E-03    -290.263E-03     52.6054E-03
             797     8.07907E-03     145.336E-03    -49.2568E+06     12.6800E+06     32.8535E+06     9.05759E+06    -291.623E-03     582.124E-03    -290.501E-03     59.1609E-03    -292.032E-03     582.308E-03    -290.284E-03     57.1572E-03
             798     8.75233E-03     145.442E-03    -43.2653E+06     20.7362E+06     47.0242E+06     7.96122E+06    -291.857E-03     582.421E-03    -290.564E-03     63.9540E-03    -292.301E-03     582.648E-03    -290.296E-03     61.3041E-03
             799     9.42513E-03     145.554E-03    -37.2852E+06     39.1500E+06     61.6533E+06     6.84835E+06    -292.033E-03     582.647E-03    -290.614E-03     68.1159E-03    -292.531E-03     582.973E-03    -290.308E-03     64.8004E-03
             800     10.0989E-03     145.671E-03    -30.5717E+06     56.3866E+06     76.4580E+06     5.95805E+06    -292.099E-03     582.759E-03    -290.660E-03     72.7880E-03    -292.658E-03     583.189E-03    -290.315E-03     68.6813E-03
             801     10.7717E-03     145.794E-03    -23.6449E+06     61.1040E+06     88.1983E+06     4.56155E+06    -292.394E-03     583.100E-03    -290.706E-03     77.6362E-03    -292.998E-03     583.581E-03    -290.319E-03     72.7190E-03
             802     11.4454E-03     145.929E-03    -17.1264E+06     68.8445E+06     95.4160E+06     3.39735E+06    -292.611E-03     583.339E-03    -290.728E-03     80.9714E-03    -293.238E-03     583.873E-03    -290.326E-03     75.5413E-03
             803     12.1175E-03     146.062E-03    -11.2571E+06     76.2692E+06     98.5041E+06     2.50409E+06    -292.514E-03     583.238E-03    -290.724E-03     83.2812E-03    -293.155E-03     583.825E-03    -290.326E-03     77.4776E-03
             804     12.7910E-03     146.198E-03    -5.67014E+06     80.9296E+06     99.4045E+06     1.23977E+06    -292.860E-03     583.577E-03    -290.717E-03     82.1366E-03    -293.441E-03     584.137E-03    -290.329E-03     76.9271E-03
             805     674.134E-06     146.417E-03    -111.350E+06    -230.106E+06    -110.459E+06     883.618E+03    -290.233E-03     579.525E-03    -289.292E-03     4.11636E-03    -290.206E-03     578.778E-03    -289.349E-03     4.41226E-03
             806     1.34706E-03     146.425E-03    -109.869E+06    -223.742E+06    -104.938E+06     1.23120E+06    -290.226E-03     580.049E-03    -289.823E-03     9.66020E-03    -290.287E-03     579.235E-03    -289.864E-03     9.84181E-03
             807     2.02059E-03     146.452E-03    -106.825E+06    -213.280E+06    -96.1239E+06     1.77419E+06    -290.050E-03     580.000E-03    -289.949E-03     14.5988E-03    -290.129E-03     579.222E-03    -289.966E-03     14.8171E-03
             808     2.69431E-03     146.480E-03    -102.726E+06    -199.434E+06    -84.9425E+06     2.22801E+06    -290.238E-03     580.245E-03    -290.007E-03     19.1837E-03    -290.334E-03     579.516E-03    -289.994E-03     19.4591E-03
             809     3.36611E-03     146.520E-03    -97.8029E+06    -182.754E+06    -71.9748E+06     2.74854E+06    -290.496E-03     580.584E-03    -290.088E-03     24.1445E-03    -290.614E-03     579.915E-03    -290.041E-03     24.3963E-03
             810     4.04010E-03     146.565E-03    -92.2536E+06    -163.652E+06    -57.9266E+06     3.30022E+06    -290.522E-03     580.686E-03    -290.164E-03     28.8721E-03    -290.664E-03     580.088E-03    -290.083E-03     29.0669E-03
             811     4.71386E-03     146.622E-03    -86.1689E+06    -142.176E+06    -43.2964E+06     3.78819E+06    -290.685E-03     580.909E-03    -290.224E-03     34.1388E-03    -290.854E-03     580.393E-03    -290.109E-03     34.1463E-03
             812     5.38664E-03     146.686E-03    -79.7204E+06    -118.002E+06    -28.3533E+06     4.34662E+06    -290.863E-03     581.142E-03    -290.279E-03     38.8573E-03    -291.065E-03     580.724E-03    -290.134E-03     38.6763E-03
             813     6.05998E-03     146.760E-03    -72.9417E+06    -90.9427E+06    -13.2973E+06     5.13144E+06    -290.781E-03     581.095E-03    -290.314E-03     44.0991E-03    -291.022E-03     580.794E-03    -290.143E-03     43.5916E-03
             814     6.73344E-03     146.842E-03    -65.9741E+06    -59.2352E+06     1.78429E+06     5.89899E+06    -290.863E-03     581.187E-03    -290.324E-03     49.5936E-03    -291.155E-03     581.030E-03    -290.133E-03     48.6319E-03
             815     7.40692E-03     146.935E-03    -59.0705E+06    -19.7297E+06     16.7638E+06     7.05086E+06    -291.123E-03     581.448E-03    -290.325E-03     53.8433E-03    -291.479E-03     581.475E-03    -290.127E-03     52.4920E-03
             816     8.07993E-03     147.029E-03    -52.0669E+06     9.65996E+06     29.7091E+06     8.54041E+06    -291.408E-03     581.748E-03    -290.340E-03     59.2680E-03    -291.821E-03     581.924E-03    -290.130E-03     57.3128E-03
             817     8.75320E-03     147.137E-03    -44.8502E+06     22.0590E+06     42.2463E+06     8.89333E+06    -291.660E-03     582.042E-03    -290.382E-03     64.3848E-03    -292.108E-03     582.286E-03    -290.138E-03     61.7670E-03
             818     9.42674E-03     147.248E-03    -37.8474E+06     41.1030E+06     58.4227E+06     7.72014E+06    -291.710E-03     582.140E-03    -290.429E-03     67.9288E-03    -292.206E-03     582.477E-03    -290.142E-03     64.7250E-03
             819     10.0999E-03     147.366E-03    -30.9529E+06     58.4999E+06     76.1287E+06     6.19129E+06    -291.877E-03     582.360E-03    -290.483E-03     72.5639E-03    -292.436E-03     582.796E-03    -290.142E-03     68.5693E-03
             820     10.7732E-03     147.491E-03    -24.1741E+06     63.2172E+06     89.4563E+06     5.21540E+06    -292.088E-03     582.619E-03    -290.531E-03     77.8459E-03    -292.698E-03     583.108E-03    -290.140E-03     72.9851E-03
             821     11.4459E-03     147.623E-03    -17.7341E+06     70.6053E+06     97.3443E+06     4.42394E+06    -291.998E-03     582.538E-03    -290.540E-03     81.2825E-03    -292.636E-03     583.082E-03    -290.130E-03     75.8778E-03
             822     12.1212E-03     147.757E-03    -11.3337E+06     79.9366E+06     101.309E+06     2.88010E+06    -292.106E-03     582.626E-03    -290.520E-03     83.0987E-03    -292.755E-03     583.225E-03    -290.113E-03     77.3345E-03
             823     12.7944E-03     147.894E-03    -5.20390E+06     84.2818E+06     101.780E+06     1.13053E+06    -292.710E-03     583.217E-03    -290.506E-03     82.6927E-03    -293.302E-03     583.794E-03    -290.112E-03     77.4252E-03
             824     674.060E-06     148.106E-03    -113.522E+06    -233.423E+06    -112.271E+06     921.594E+03    -289.809E-03     579.122E-03    -289.313E-03     5.24888E-03    -289.772E-03     578.370E-03    -289.371E-03     5.51267E-03
             825     1.34692E-03     148.121E-03    -111.542E+06    -226.475E+06    -106.402E+06     1.20705E+06    -290.480E-03     580.186E-03    -289.706E-03     9.66209E-03    -290.541E-03     579.361E-03    -289.748E-03     9.84888E-03
             826     2.02003E-03     148.141E-03    -108.415E+06    -215.904E+06    -97.6180E+06     1.59871E+06    -289.918E-03     579.829E-03    -289.910E-03     14.1233E-03    -289.999E-03     579.042E-03    -289.928E-03     14.4167E-03
             827     2.69384E-03     148.173E-03    -104.396E+06    -202.092E+06    -86.2135E+06     2.11128E+06    -289.603E-03     579.494E-03    -289.891E-03     19.0372E-03    -289.702E-03     578.756E-03    -289.877E-03     19.3521E-03
             828     3.36894E-03     148.212E-03    -99.5242E+06    -185.375E+06    -72.9298E+06     2.57316E+06    -290.081E-03     579.969E-03    -289.887E-03     24.2512E-03    -290.203E-03     579.291E-03    -289.839E-03     24.5193E-03
             829     4.04129E-03     148.259E-03    -93.9012E+06    -166.205E+06    -58.5362E+06     2.99288E+06    -290.649E-03     580.621E-03    -289.971E-03     28.9118E-03    -290.795E-03     580.013E-03    -289.887E-03     29.1467E-03
             830     4.71385E-03     148.314E-03    -87.8748E+06    -144.784E+06    -43.7471E+06     3.52625E+06    -290.810E-03     580.888E-03    -290.078E-03     34.3861E-03    -290.982E-03     580.361E-03    -289.959E-03     34.4315E-03
             831     5.38747E-03     148.381E-03    -81.5929E+06    -121.084E+06    -28.9859E+06     4.16541E+06    -290.710E-03     580.861E-03    -290.150E-03     39.0777E-03    -290.914E-03     580.429E-03    -290.001E-03     38.9506E-03
             832     6.06063E-03     148.452E-03    -75.1953E+06    -94.4164E+06    -14.4185E+06     4.88352E+06    -290.809E-03     580.999E-03    -290.190E-03     44.6556E-03    -291.056E-03     580.686E-03    -290.016E-03     44.1723E-03
             833     6.73390E-03     148.537E-03    -68.8155E+06    -63.3157E+06     48.7054E+03     5.98185E+06    -290.781E-03     580.988E-03    -290.207E-03     50.1498E-03    -291.079E-03     580.817E-03    -290.015E-03     49.2301E-03
             834     7.40775E-03     148.626E-03    -62.5309E+06    -25.6320E+06     14.4307E+06     7.59286E+06    -290.553E-03     580.741E-03    -290.188E-03     54.3062E-03    -290.913E-03     580.746E-03    -289.988E-03     53.0210E-03
             835     8.08187E-03     148.725E-03    -56.1046E+06     7.53330E+06     27.4929E+06     7.86199E+06    -290.907E-03     581.072E-03    -290.165E-03     59.9794E-03    -291.335E-03     581.247E-03    -289.957E-03     58.0467E-03
             836     8.75521E-03     148.831E-03    -48.9093E+06     23.2896E+06     39.4369E+06     6.30738E+06    -291.388E-03     581.568E-03    -290.180E-03     65.0563E-03    -291.855E-03     581.830E-03    -289.946E-03     62.4221E-03
             837     9.42839E-03     148.944E-03    -40.9505E+06     41.1511E+06     53.8320E+06     5.67309E+06    -291.599E-03     581.816E-03    -290.217E-03     68.7882E-03    -292.108E-03     582.169E-03    -289.948E-03     65.5355E-03
             838     10.1019E-03     149.060E-03    -33.4056E+06     59.1185E+06     72.1230E+06     5.97633E+06    -291.673E-03     581.945E-03    -290.272E-03     73.4540E-03    -292.246E-03     582.399E-03    -289.948E-03     69.4193E-03
             839     10.7757E-03     149.186E-03    -26.2981E+06     64.6594E+06     88.3749E+06     5.38667E+06    -291.566E-03     581.887E-03    -290.321E-03     78.2953E-03    -292.192E-03     582.392E-03    -289.935E-03     73.4230E-03
             840     11.4505E-03     149.316E-03    -18.7962E+06     73.4911E+06     98.5001E+06     3.80207E+06    -291.878E-03     582.207E-03    -290.329E-03     81.7024E-03    -292.533E-03     582.771E-03    -289.916E-03     76.2543E-03
             841     12.1223E-03     149.452E-03    -11.6220E+06     83.6946E+06     103.254E+06     2.20746E+06    -292.269E-03     582.593E-03    -290.324E-03     83.1498E-03    -292.929E-03     583.210E-03    -289.912E-03     77.3550E-03
             842     12.7961E-03     149.588E-03    -5.57015E+06     87.0824E+06     103.169E+06     1.07208E+06    -292.348E-03     582.663E-03    -290.315E-03     82.8705E-03    -292.950E-03     583.255E-03    -289.917E-03     77.5647E-03
             843     674.140E-06     149.799E-03    -114.973E+06    -236.330E+06    -113.556E+06     625.764E+03    -289.465E-03     579.163E-03    -289.698E-03     6.65813E-03    -289.417E-03     578.415E-03    -289.757E-03     6.70732E-03
             844     1.34749E-03     149.813E-03    -112.976E+06    -229.160E+06    -108.105E+06     1.06290E+06    -289.977E-03     579.590E-03    -289.613E-03     10.0540E-03    -290.039E-03     578.757E-03    -289.657E-03     10.2196E-03
             845     2.02061E-03     149.835E-03    -109.993E+06    -218.684E+06    -98.9208E+06     1.68949E+06    -289.952E-03     579.701E-03    -289.748E-03     14.2932E-03    -290.034E-03     578.904E-03    -289.766E-03     14.6331E-03
             846     2.69445E-03     149.862E-03    -105.860E+06    -204.595E+06    -87.0702E+06     2.17967E+06    -289.994E-03     579.815E-03    -289.821E-03     18.9394E-03    -290.094E-03     579.067E-03    -289.806E-03     19.3423E-03
             847     3.36737E-03     149.904E-03    -100.816E+06     -187.77E+06    -73.4111E+06     2.58290E+06    -289.879E-03     579.740E-03    -289.862E-03     23.1779E-03    -290.000E-03     579.050E-03    -289.810E-03     23.6381E-03
             848     4.04176E-03     149.951E-03    -95.1091E+06    -168.677E+06    -58.7315E+06     3.07497E+06    -290.069E-03     579.960E-03    -289.891E-03     28.3522E-03    -290.215E-03     579.340E-03    -289.802E-03     28.7223E-03
             849     4.71526E-03     150.008E-03    -88.9058E+06    -147.476E+06    -43.7666E+06     3.59251E+06    -290.433E-03     580.375E-03    -289.942E-03     34.1163E-03    -290.605E-03     579.834E-03    -289.818E-03     34.2755E-03
             850     5.38821E-03     150.073E-03    -82.3119E+06    -124.141E+06    -28.9884E+06     4.20106E+06    -290.461E-03     580.454E-03    -289.992E-03     39.0613E-03    -290.663E-03     580.007E-03    -289.838E-03     39.0192E-03
             851     6.06215E-03     150.146E-03    -75.4484E+06    -97.9920E+06    -14.3960E+06     5.07602E+06    -290.558E-03     580.580E-03    -290.022E-03     44.9185E-03    -290.801E-03     580.248E-03    -289.842E-03     44.4955E-03
             852     6.73551E-03     150.230E-03    -68.3192E+06    -68.0965E+06    -13.1146E+03     6.19372E+06    -290.663E-03     580.698E-03    -290.035E-03     50.2581E-03    -290.948E-03     580.499E-03    -289.837E-03     49.4396E-03
             853     7.40905E-03     150.319E-03    -60.8716E+06    -32.0945E+06     14.5778E+06     7.81058E+06    -290.589E-03     580.617E-03    -290.029E-03     54.1561E-03    -290.926E-03     580.582E-03    -289.821E-03     53.0149E-03
             854     8.08308E-03     150.417E-03    -53.6335E+06     7.44879E+06     29.7070E+06     8.78355E+06    -290.538E-03     580.543E-03    -290.004E-03     59.6762E-03    -290.950E-03     580.704E-03    -289.789E-03     57.9159E-03
             855     8.75703E-03     150.525E-03    -47.3161E+06     29.4433E+06     43.4946E+06     6.79591E+06    -290.695E-03     580.688E-03    -289.994E-03     64.6817E-03    -291.160E-03     580.965E-03    -289.750E-03     62.2266E-03
             856     9.43098E-03     150.636E-03    -41.1914E+06     40.1938E+06     57.0356E+06     4.50916E+06    -291.044E-03     581.052E-03    -290.008E-03     69.1372E-03    -291.554E-03     581.393E-03    -289.721E-03     65.9528E-03
             857     10.1045E-03     150.755E-03    -33.7874E+06     56.5006E+06     73.2266E+06     4.67802E+06    -291.490E-03     581.534E-03    -290.043E-03     73.8392E-03    -292.060E-03     581.971E-03    -289.710E-03     69.8546E-03
             858     10.7780E-03     150.878E-03    -25.7087E+06     67.0985E+06     88.1645E+06     4.46245E+06    -291.763E-03     581.855E-03    -290.091E-03     77.9050E-03    -292.378E-03     582.361E-03    -289.710E-03     73.1654E-03
             859     11.4511E-03     151.010E-03    -18.3743E+06     77.4822E+06     98.9186E+06     2.90199E+06    -291.782E-03     581.899E-03    -290.118E-03     81.5572E-03    -292.434E-03     582.475E-03    -289.709E-03     76.1919E-03
             860     12.1259E-03     151.147E-03    -11.6057E+06     85.9544E+06     104.016E+06     1.60527E+06    -292.012E-03     582.129E-03    -290.118E-03     83.8673E-03    -292.682E-03     582.763E-03    -289.706E-03     78.0186E-03
             861     12.7988E-03     151.282E-03    -5.24496E+06     88.4063E+06     103.759E+06     1.06877E+06    -292.182E-03     582.289E-03    -290.106E-03     83.6288E-03    -292.792E-03     582.893E-03    -289.708E-03     78.2531E-03
             862     673.169E-06     151.486E-03    -115.705E+06    -239.032E+06    -115.141E+06     613.119E+03    -289.560E-03     579.217E-03    -289.657E-03     6.97523E-03    -289.483E-03     578.474E-03    -289.718E-03     6.94783E-03
             863     1.34728E-03     151.506E-03    -114.662E+06    -232.232E+06    -109.252E+06     1.21938E+06    -289.602E-03     579.152E-03    -289.550E-03     9.69990E-03    -289.663E-03     578.304E-03    -289.593E-03     10.0054E-03
             864     2.02183E-03     151.523E-03    -111.296E+06    -221.390E+06    -99.7259E+06     1.69596E+06    -289.953E-03     579.583E-03    -289.630E-03     13.7683E-03    -290.034E-03     578.774E-03    -289.646E-03     14.2472E-03
             865     2.69432E-03     151.559E-03    -106.922E+06    -207.112E+06    -87.7406E+06     2.14505E+06    -290.281E-03     580.047E-03    -289.766E-03     18.9249E-03    -290.380E-03     579.287E-03    -289.749E-03     19.4109E-03
             866     3.36738E-03     151.594E-03    -101.698E+06    -190.213E+06    -73.7307E+06     2.66469E+06    -290.006E-03     579.869E-03    -289.863E-03     23.6298E-03    -290.128E-03     579.168E-03    -289.808E-03     24.1219E-03
             867     4.04124E-03     151.642E-03    -95.8253E+06    -171.011E+06    -58.7619E+06     3.02924E+06    -289.697E-03     579.571E-03    -289.874E-03     28.8107E-03    -289.841E-03     578.939E-03    -289.781E-03     29.2158E-03
             868     4.71522E-03     151.700E-03    -89.2790E+06    -149.858E+06    -43.4307E+06     3.30106E+06    -289.714E-03     579.565E-03    -289.852E-03     33.8302E-03    -289.881E-03     579.010E-03    -289.722E-03     34.1080E-03
             869     5.38950E-03     151.765E-03    -82.3318E+06    -126.753E+06    -28.2560E+06     3.65812E+06    -290.103E-03     579.949E-03    -289.846E-03     38.9823E-03    -290.300E-03     579.486E-03    -289.684E-03     39.0399E-03
             870     6.06260E-03     151.838E-03    -75.0490E+06    -101.297E+06    -13.4404E+06     4.11164E+06    -290.320E-03     580.180E-03    -289.860E-03     44.5465E-03    -290.552E-03     579.825E-03    -289.672E-03     44.2579E-03
             871     6.73689E-03     151.921E-03    -67.4751E+06    -72.1030E+06     1.25836E+06     4.73863E+06    -290.336E-03     580.201E-03    -289.865E-03     49.9315E-03    -290.609E-03     579.974E-03    -289.656E-03     49.2403E-03
             872     7.41051E-03     152.013E-03    -59.6394E+06    -37.8849E+06     16.0520E+06     5.72044E+06    -290.612E-03     580.474E-03    -289.862E-03     54.3189E-03    -290.935E-03     580.404E-03    -289.640E-03     53.2457E-03
             873     8.08369E-03     152.108E-03    -51.3530E+06     4.10753E+06     31.4591E+06     6.95048E+06    -290.504E-03     580.351E-03    -289.847E-03     59.6478E-03    -290.898E-03     580.486E-03    -289.621E-03     57.9762E-03
             874     8.75830E-03     152.216E-03    -42.9378E+06     33.3297E+06     46.6273E+06     7.42327E+06    -290.137E-03     579.955E-03    -289.819E-03     64.6280E-03    -290.585E-03     580.235E-03    -289.572E-03     62.3026E-03
             875     9.43280E-03     152.328E-03    -35.7232E+06     41.0164E+06     61.3895E+06     7.09487E+06    -290.431E-03     580.242E-03    -289.811E-03     68.9424E-03    -290.914E-03     580.566E-03    -289.512E-03     65.9429E-03
             876     10.1073E-03     152.448E-03    -30.0202E+06     56.1845E+06     76.8682E+06     6.24098E+06    -291.255E-03     581.085E-03    -289.831E-03     73.6845E-03    -291.801E-03     581.502E-03    -289.484E-03     69.8759E-03
             877     10.7806E-03     152.573E-03    -24.2575E+06     70.3119E+06     89.7757E+06     4.72496E+06    -291.751E-03     581.623E-03    -289.872E-03     77.7252E-03    -292.356E-03     582.131E-03    -289.490E-03     73.1451E-03
             878     11.4542E-03     152.704E-03    -17.6378E+06     80.9386E+06     100.442E+06     3.20129E+06    -291.560E-03     581.464E-03    -289.904E-03     81.7590E-03    -292.212E-03     582.050E-03    -289.494E-03     76.4800E-03
             879     12.1280E-03     152.838E-03    -11.2275E+06     87.9734E+06     105.724E+06     2.10680E+06    -291.521E-03     581.420E-03    -289.899E-03     84.5504E-03    -292.201E-03     582.065E-03    -289.481E-03     78.6743E-03
             880     12.8023E-03     152.979E-03    -5.68439E+06     89.5805E+06     104.931E+06     1.32378E+06    -292.080E-03     581.961E-03    -289.882E-03     83.8339E-03    -292.696E-03     582.572E-03    -289.479E-03     78.4543E-03
             881     674.470E-06     153.183E-03    -118.436E+06    -242.462E+06    -116.404E+06     813.938E+03    -289.502E-03     579.152E-03    -289.651E-03     6.74734E-03    -289.404E-03     578.409E-03    -289.709E-03     6.73144E-03
             882     1.34758E-03     153.192E-03    -115.748E+06    -235.277E+06    -110.086E+06     1.32705E+06    -289.850E-03     579.416E-03    -289.566E-03     9.66185E-03    -289.907E-03     578.553E-03    -289.607E-03     9.96927E-03
             883     2.02026E-03     153.218E-03    -112.423E+06    -223.862E+06    -100.396E+06     1.81141E+06    -289.869E-03     579.549E-03    -289.680E-03     14.1446E-03    -289.950E-03     578.729E-03    -289.694E-03     14.5811E-03
             884     2.69440E-03     153.247E-03    -107.999E+06    -209.599E+06    -87.8891E+06     2.19520E+06    -289.624E-03     579.344E-03    -289.720E-03     18.8869E-03    -289.723E-03     578.572E-03    -289.699E-03     19.4008E-03
             885     3.36885E-03     153.287E-03    -102.624E+06    -192.645E+06    -73.7155E+06     2.54982E+06    -289.815E-03     579.550E-03    -289.735E-03     23.9450E-03    -289.937E-03     578.838E-03    -289.676E-03     24.4658E-03
             886     4.04161E-03     153.334E-03    -96.5601E+06    -172.803E+06    -58.5873E+06     2.80836E+06    -289.837E-03     579.598E-03    -289.761E-03     28.9558E-03    -289.981E-03     578.956E-03    -289.663E-03     29.4333E-03
             887     4.71588E-03     153.390E-03    -90.0479E+06    -151.506E+06    -42.8571E+06     2.96550E+06    -289.544E-03     579.299E-03    -289.756E-03     34.0939E-03    -289.713E-03     578.735E-03    -289.620E-03     34.4354E-03
             888     5.38985E-03     153.456E-03    -83.1114E+06    -128.474E+06    -27.3190E+06     3.04187E+06    -289.799E-03     579.534E-03    -289.735E-03     39.1710E-03    -289.997E-03     579.059E-03    -289.564E-03     39.3111E-03
             889     6.06415E-03     153.530E-03    -76.0171E+06    -103.366E+06    -12.3481E+06     3.17961E+06    -290.155E-03     579.893E-03    -289.737E-03     43.9793E-03    -290.385E-03     579.521E-03    -289.539E-03     43.8705E-03
             890     6.73747E-03     153.612E-03    -68.9050E+06    -74.7332E+06     2.10219E+06     3.50604E+06    -290.087E-03     579.823E-03    -289.737E-03     49.1810E-03    -290.358E-03     579.578E-03    -289.518E-03     48.6823E-03
             891     7.41202E-03     153.704E-03    -61.7325E+06    -41.3142E+06     16.5401E+06     3.98319E+06    -290.063E-03     579.775E-03    -289.712E-03     54.0639E-03    -290.387E-03     579.686E-03    -289.480E-03     53.1189E-03
             892     8.08622E-03     153.802E-03    -54.6431E+06     324.746E+03     31.5019E+06     4.52505E+06    -290.146E-03     579.820E-03    -289.674E-03     59.0544E-03    -290.542E-03     579.932E-03    -289.438E-03     57.5483E-03
             893     8.75998E-03     153.905E-03    -47.7025E+06     31.0370E+06     44.1614E+06     5.17465E+06    -290.085E-03     579.718E-03    -289.633E-03     64.3170E-03    -290.544E-03     579.990E-03    -289.388E-03     62.1195E-03
             894     9.43465E-03     154.019E-03    -40.3382E+06     38.9744E+06     54.9523E+06     6.01390E+06    -290.493E-03     580.113E-03    -289.620E-03     68.9113E-03    -290.981E-03     580.437E-03    -289.343E-03     66.0076E-03
             895     10.1085E-03     154.139E-03    -32.4107E+06     56.6308E+06     71.2176E+06     6.65190E+06    -290.830E-03     580.466E-03    -289.636E-03     73.1257E-03    -291.371E-03     580.887E-03    -289.315E-03     69.4843E-03
             896     10.7826E-03     154.267E-03    -24.8359E+06     74.2426E+06     89.0229E+06     5.79484E+06    -290.770E-03     580.433E-03    -289.663E-03     77.1630E-03    -291.372E-03     580.952E-03    -289.290E-03     72.7516E-03
             897     11.4570E-03     154.394E-03    -18.3589E+06     83.0580E+06     102.079E+06     4.49080E+06    -291.259E-03     580.943E-03    -289.685E-03     81.5318E-03    -291.912E-03     581.530E-03    -289.268E-03     76.3813E-03
             898     12.1310E-03     154.533E-03    -12.3836E+06     91.0059E+06     108.417E+06     3.36538E+06    -291.718E-03     581.412E-03    -289.694E-03     84.0779E-03    -292.402E-03     582.061E-03    -289.266E-03     78.3188E-03
             899     12.8050E-03     154.667E-03    -6.07556E+06     93.2342E+06     108.520E+06     1.35467E+06    -291.972E-03     581.667E-03    -289.695E-03     83.5077E-03    -292.596E-03     582.286E-03    -289.279E-03     78.1792E-03
             900     673.071E-06     154.868E-03    -119.551E+06    -245.963E+06    -118.016E+06     675.473E+03    -290.302E-03     578.991E-03    -288.689E-03     6.22609E-03    -290.201E-03     578.240E-03    -288.749E-03     6.36043E-03
             901     1.34730E-03     154.887E-03    -117.223E+06    -238.568E+06    -111.418E+06     1.42747E+06    -289.663E-03     579.122E-03    -289.459E-03     11.0603E-03    -289.722E-03     578.247E-03    -289.501E-03     11.2501E-03
             902     2.02110E-03     154.908E-03    -113.684E+06    -226.604E+06    -101.235E+06     1.98787E+06    -289.794E-03     579.353E-03    -289.559E-03     14.8062E-03    -289.878E-03     578.524E-03    -289.572E-03     15.2085E-03
             903     2.69496E-03     154.938E-03    -109.077E+06    -211.813E+06    -88.1497E+06     2.38532E+06    -289.491E-03     579.097E-03    -289.606E-03     18.8886E-03    -289.592E-03     578.316E-03    -289.582E-03     19.4626E-03
             904     3.36837E-03     154.977E-03    -103.596E+06    -194.830E+06    -73.3352E+06     2.63103E+06    -289.530E-03     579.137E-03    -289.607E-03     24.0107E-03    -289.654E-03     578.414E-03    -289.541E-03     24.5998E-03
             905     4.04304E-03     155.026E-03    -97.4206E+06    -174.699E+06    -57.8066E+06     2.97794E+06    -289.732E-03     579.356E-03    -289.624E-03     28.3174E-03    -289.878E-03     578.703E-03    -289.518E-03     28.9510E-03
             906     4.71634E-03     155.080E-03    -90.8320E+06    -152.656E+06    -41.9911E+06     3.15624E+06    -289.823E-03     579.474E-03    -289.651E-03     33.5006E-03    -289.994E-03     578.902E-03    -289.508E-03     34.0067E-03
             907     5.39049E-03     155.147E-03    -84.0513E+06    -129.955E+06    -26.3324E+06     3.30223E+06    -289.793E-03     579.458E-03    -289.666E-03     38.8272E-03    -289.992E-03     578.974E-03    -289.487E-03     39.1188E-03
             908     6.06402E-03     155.221E-03    -77.2208E+06    -105.057E+06    -11.3275E+06     3.64759E+06    -289.759E-03     579.417E-03    -289.658E-03     43.5336E-03    -289.990E-03     579.034E-03    -289.450E-03     43.6039E-03
             909     6.73836E-03     155.304E-03    -70.4734E+06    -76.7353E+06     2.98385E+06     4.10910E+06    -289.762E-03     579.393E-03    -289.631E-03     48.9019E-03    -290.035E-03     579.135E-03    -289.402E-03     48.5722E-03
             910     7.41217E-03     155.393E-03    -64.0125E+06    -44.0733E+06     16.8277E+06     4.84737E+06    -289.654E-03     579.238E-03    -289.584E-03     53.9436E-03    -289.981E-03     579.132E-03    -289.343E-03     53.1607E-03
             911     8.08691E-03     155.492E-03    -57.8692E+06    -3.32359E+06     30.8521E+06     6.15126E+06    -289.735E-03     579.256E-03    -289.521E-03     58.6122E-03    -290.132E-03     579.346E-03    -289.278E-03     57.3348E-03
             912     8.76176E-03     155.596E-03    -51.8251E+06     31.1371E+06     43.3492E+06     6.20958E+06    -290.164E-03     579.640E-03    -289.476E-03     63.4881E-03    -290.630E-03     579.907E-03    -289.229E-03     61.5593E-03
             913     9.43565E-03     155.710E-03    -45.2590E+06     40.4550E+06     53.2850E+06     3.85871E+06    -290.448E-03     579.920E-03    -289.472E-03     68.9633E-03    -290.956E-03     580.256E-03    -289.198E-03     66.1641E-03
             914     10.1094E-03     155.832E-03    -37.0597E+06     56.4247E+06     67.1103E+06     1.47895E+06    -290.251E-03     579.719E-03    -289.468E-03     73.3402E-03    -290.805E-03     580.148E-03    -289.161E-03     69.7150E-03
             915     10.7848E-03     155.954E-03    -27.6168E+06     72.3810E+06     83.4456E+06     2.01815E+06    -290.364E-03     579.830E-03    -289.466E-03     77.2507E-03    -290.965E-03     580.348E-03    -289.114E-03     72.8664E-03
             916     11.4595E-03     156.088E-03    -18.6222E+06     81.3729E+06     99.7064E+06     4.07721E+06    -291.120E-03     580.614E-03    -289.494E-03     81.1708E-03    -291.761E-03     581.188E-03    -289.086E-03     76.1270E-03
             917     12.1331E-03     156.224E-03    -10.8461E+06     94.4931E+06     111.150E+06     4.02939E+06    -291.732E-03     581.258E-03    -289.526E-03     83.4903E-03    -292.410E-03     581.910E-03    -289.091E-03     77.8316E-03
             918     12.8061E-03     156.363E-03    -4.74597E+06     98.0928E+06     112.259E+06     2.42612E+06    -291.716E-03     581.250E-03    -289.534E-03     83.4104E-03    -292.346E-03     581.886E-03    -289.108E-03     78.1088E-03
             919     674.375E-06     156.559E-03    -121.108E+06    -249.686E+06    -119.376E+06     998.441E+03    -290.139E-03     578.211E-03    -288.071E-03     5.67900E-03    -290.059E-03     577.443E-03    -288.131E-03     5.93835E-03
             920     1.34843E-03     156.575E-03    -118.364E+06    -241.724E+06    -112.347E+06     1.41153E+06    -289.785E-03     578.967E-03    -289.181E-03     11.2818E-03    -289.848E-03     578.083E-03    -289.221E-03     11.4911E-03
             921     2.02187E-03     156.600E-03    -114.923E+06    -229.908E+06    -102.136E+06     2.05215E+06    -289.634E-03     579.021E-03    -289.387E-03     13.9350E-03    -289.718E-03     578.179E-03    -289.398E-03     14.5010E-03
             922     2.69506E-03     156.628E-03    -110.244E+06    -214.458E+06    -88.8610E+06     2.63176E+06    -289.620E-03     579.092E-03    -289.472E-03     18.4612E-03    -289.723E-03     578.301E-03    -289.446E-03     19.1627E-03
             923     3.36945E-03     156.668E-03    -104.639E+06    -196.903E+06    -73.3914E+06     3.05783E+06    -289.445E-03     578.957E-03    -289.511E-03     23.7430E-03    -289.571E-03     578.225E-03    -289.441E-03     24.4479E-03
             924     4.04265E-03     156.716E-03    -98.2223E+06    -176.671E+06    -57.1012E+06     3.24164E+06    -289.467E-03     578.987E-03    -289.520E-03     28.4982E-03    -289.615E-03     578.325E-03    -289.407E-03     29.2001E-03
             925     4.71685E-03     156.772E-03    -91.3247E+06    -154.518E+06    -41.0148E+06     3.58265E+06    -289.873E-03     579.418E-03    -289.546E-03     33.9061E-03    -290.044E-03     578.836E-03    -289.394E-03     34.4697E-03
             926     5.39012E-03     156.837E-03    -84.2610E+06    -132.044E+06    -25.2641E+06     4.11424E+06    -289.793E-03     579.369E-03    -289.576E-03     39.0273E-03    -289.990E-03     578.872E-03    -289.389E-03     39.4182E-03
             927     6.06479E-03     156.911E-03    -77.0769E+06    -107.136E+06    -10.0795E+06     4.59290E+06    -289.391E-03     578.950E-03    -289.559E-03     43.8366E-03    -289.619E-03     578.553E-03    -289.342E-03     44.0009E-03
             928     6.73933E-03     156.993E-03    -69.8437E+06    -79.4867E+06     4.36144E+06     5.25278E+06    -289.281E-03     578.781E-03    -289.499E-03     49.0927E-03    -289.546E-03     578.503E-03    -289.261E-03     48.8900E-03
             929     7.41414E-03     157.084E-03    -62.5721E+06    -48.0876E+06     18.2723E+06     6.39332E+06    -289.371E-03     578.799E-03    -289.428E-03     54.1728E-03    -289.683E-03     578.666E-03    -289.176E-03     53.5387E-03
             930     8.08852E-03     157.180E-03    -55.2220E+06    -9.37138E+06     32.3622E+06     8.26138E+06    -289.793E-03     579.160E-03    -289.367E-03     59.4298E-03    -290.171E-03     579.214E-03    -289.111E-03     58.2466E-03
             931     8.76243E-03     157.288E-03    -48.2424E+06     32.3825E+06     46.5597E+06     9.24526E+06    -290.153E-03     579.481E-03    -289.328E-03     64.0899E-03    -290.605E-03     579.742E-03    -289.073E-03     62.2972E-03
             932     9.43668E-03     157.400E-03    -41.9907E+06     51.3405E+06     58.8511E+06     6.07019E+06    -289.886E-03     579.197E-03    -289.311E-03     69.0449E-03    -290.394E-03     579.568E-03    -289.031E-03     66.4432E-03
             933     10.1125E-03     157.521E-03    -35.9451E+06     65.6347E+06     72.9183E+06     92.9232E+03    -289.961E-03     579.257E-03    -289.296E-03     73.7403E-03    -290.527E-03     579.716E-03    -288.974E-03     70.2227E-03
             934     10.7864E-03     157.645E-03    -29.0058E+06     67.4484E+06     84.4417E+06    -2.55230E+06    -290.710E-03     580.014E-03    -289.304E-03     77.7245E-03    -291.310E-03     580.506E-03    -288.938E-03     73.3579E-03
             935     11.4601E-03     157.779E-03    -21.0834E+06     71.8163E+06     97.3976E+06     383.114E+03    -291.145E-03     580.487E-03    -289.343E-03     81.9125E-03    -291.784E-03     581.025E-03    -288.929E-03     76.8102E-03
             936     12.1346E-03     157.916E-03    -13.7061E+06     94.7854E+06     110.484E+06     3.36638E+06    -291.236E-03     580.600E-03    -289.363E-03     84.3779E-03    -291.939E-03     581.270E-03    -288.928E-03     78.6044E-03
             937     12.8094E-03     158.055E-03    -6.92228E+06     102.924E+06     112.236E+06     2.54466E+06    -291.463E-03     580.818E-03    -289.355E-03     83.6652E-03    -292.116E-03     581.486E-03    -288.933E-03     78.2983E-03
             938     675.540E-06     158.249E-03    -121.782E+06    -252.926E+06    -120.162E+06     805.884E+03    -289.192E-03     577.823E-03    -288.631E-03     7.17155E-03    -289.133E-03     577.029E-03    -288.689E-03     7.18198E-03
             939     1.34716E-03     158.267E-03    -119.573E+06    -245.476E+06    -113.460E+06     1.44652E+06    -289.809E-03     578.850E-03    -289.040E-03     11.1556E-03    -289.875E-03     577.954E-03    -289.078E-03     11.3701E-03
             940     2.02119E-03     158.289E-03    -115.802E+06    -233.309E+06    -102.585E+06     2.13377E+06    -289.475E-03     578.757E-03    -289.282E-03     14.1069E-03    -289.559E-03     577.900E-03    -289.289E-03     14.7045E-03
             941     2.69582E-03     158.319E-03    -110.880E+06    -217.579E+06    -88.8927E+06     2.77690E+06    -289.430E-03     578.781E-03    -289.351E-03     18.7168E-03    -289.532E-03     577.975E-03    -289.319E-03     19.4643E-03
             942     3.36873E-03     158.358E-03    -104.857E+06    -199.188E+06    -73.2717E+06     3.20332E+06    -289.321E-03     578.702E-03    -289.381E-03     23.6381E-03    -289.444E-03     577.958E-03    -289.306E-03     24.4577E-03
             943     4.04394E-03     158.404E-03    -98.2703E+06    -178.627E+06    -56.6910E+06     3.50473E+06    -289.251E-03     578.634E-03    -289.384E-03     28.9625E-03    -289.396E-03     577.961E-03    -289.266E-03     29.7341E-03
             944     4.71780E-03     158.463E-03    -91.2148E+06    -157.118E+06    -39.9963E+06     3.87056E+06    -289.479E-03     578.866E-03    -289.387E-03     34.4686E-03    -289.646E-03     578.268E-03    -289.227E-03     35.1008E-03
             945     5.39196E-03     158.528E-03    -83.7260E+06    -134.443E+06    -23.9623E+06     4.27588E+06    -289.444E-03     578.834E-03    -289.390E-03     39.1825E-03    -289.635E-03     578.320E-03    -289.194E-03     39.6949E-03
             946     6.06588E-03     158.600E-03    -76.0153E+06    -109.528E+06    -8.65106E+06     4.71992E+06    -289.301E-03     578.667E-03    -289.366E-03     44.3360E-03    -289.520E-03     578.253E-03    -289.140E-03     44.5893E-03
             947     6.74033E-03     158.683E-03    -68.2845E+06    -82.6170E+06     6.06940E+06      5.2561E+06    -289.165E-03     578.481E-03    -289.315E-03     49.2322E-03    -289.416E-03     578.179E-03    -289.066E-03     49.1677E-03
             948     7.41525E-03     158.771E-03    -60.4650E+06    -52.3171E+06     20.3418E+06     5.99390E+06    -289.319E-03     578.574E-03    -289.255E-03     54.1456E-03    -289.613E-03     578.408E-03    -288.989E-03     53.6624E-03
             949     8.09014E-03     158.871E-03    -52.2838E+06    -15.9025E+06     34.7301E+06     7.20671E+06    -289.728E-03     578.933E-03    -289.205E-03     59.4253E-03    -290.080E-03     578.942E-03    -288.933E-03     58.3712E-03
             950     8.76457E-03     158.978E-03    -43.5958E+06     29.1778E+06     49.9376E+06     8.65855E+06    -289.668E-03     578.824E-03    -289.155E-03     64.0227E-03    -290.092E-03     579.051E-03    -288.885E-03     62.3731E-03
             951     9.43951E-03     159.089E-03    -35.5262E+06     59.5860E+06     64.3068E+06     8.69027E+06    -289.808E-03     578.929E-03    -289.121E-03     68.6227E-03    -290.293E-03     579.313E-03    -288.834E-03     66.2502E-03
             952     10.1137E-03     159.208E-03    -29.5802E+06     79.3873E+06     80.6640E+06     5.81339E+06    -290.145E-03     579.270E-03    -289.125E-03     73.2399E-03    -290.699E-03     579.767E-03    -288.794E-03     69.9906E-03
             953     10.7885E-03     159.338E-03    -25.1659E+06     72.3431E+06     91.0789E+06     1.62023E+06    -290.306E-03     579.455E-03    -289.149E-03     77.7249E-03    -290.897E-03     579.950E-03    -288.762E-03     73.5485E-03
             954     11.4631E-03     159.467E-03    -20.3016E+06     62.9524E+06     97.8806E+06     585.378E+03    -290.799E-03     579.965E-03    -289.166E-03     83.0005E-03    -291.427E-03     580.460E-03    -288.738E-03     77.9044E-03
             955     12.1372E-03     159.609E-03    -13.3865E+06     91.5187E+06     109.891E+06     2.06896E+06    -291.242E-03     580.413E-03    -289.170E-03     85.2817E-03    -291.942E-03     581.071E-03    -288.734E-03     79.4697E-03
             956     12.8112E-03     159.744E-03    -6.02744E+06     108.585E+06     112.792E+06     1.46228E+06    -291.714E-03     580.883E-03    -289.169E-03     84.0226E-03    -292.371E-03     581.576E-03    -288.753E-03     78.6578E-03
             957     672.770E-06     159.937E-03    -123.119E+06    -256.607E+06    -121.714E+06     638.875E+03    -289.542E-03     578.069E-03    -288.526E-03     8.88168E-03    -289.513E-03     577.243E-03    -288.584E-03     8.66583E-03
             958     1.34921E-03     159.957E-03    -120.834E+06    -248.901E+06    -114.414E+06     1.42026E+06    -288.903E-03     577.871E-03    -288.969E-03     11.2167E-03    -288.970E-03     576.964E-03    -289.005E-03     11.5120E-03
             959     2.02249E-03     159.979E-03    -116.911E+06    -236.545E+06    -103.266E+06     1.99028E+06    -289.044E-03     578.024E-03    -288.980E-03     15.0588E-03    -289.128E-03     577.154E-03    -288.984E-03     15.6242E-03
             960     2.69571E-03     160.008E-03    -111.626E+06    -220.504E+06    -89.1938E+06     2.44859E+06    -289.247E-03     578.288E-03    -289.040E-03     19.9145E-03    -289.349E-03     577.470E-03    -289.005E-03     20.6029E-03
             961     3.37087E-03     160.048E-03    -105.402E+06    -201.733E+06    -73.2466E+06     2.89595E+06    -289.260E-03     578.365E-03    -289.106E-03     24.3663E-03    -289.382E-03     577.610E-03    -289.026E-03     25.1875E-03
             962     4.04394E-03     160.093E-03    -98.4624E+06    -180.992E+06    -56.3876E+06     3.34434E+06    -289.284E-03     578.434E-03    -289.150E-03     29.5824E-03    -289.427E-03     577.749E-03    -289.027E-03     30.3879E-03
             963     4.71843E-03     160.153E-03    -91.0513E+06    -159.246E+06    -39.3397E+06     3.64873E+06    -289.035E-03     578.194E-03    -289.160E-03     34.7214E-03    -289.198E-03     577.583E-03    -288.993E-03     35.4454E-03
             964     5.39308E-03     160.216E-03    -83.3951E+06    -136.580E+06    -22.8381E+06     3.89148E+06    -289.059E-03     578.199E-03    -289.140E-03     39.2489E-03    -289.244E-03     577.669E-03    -288.935E-03     39.8844E-03
             965     6.06795E-03     160.290E-03    -75.7040E+06    -111.982E+06    -7.29891E+06     4.26300E+06    -289.244E-03     578.364E-03    -289.120E-03     44.0350E-03    -289.456E-03     577.930E-03    -288.884E-03     44.4654E-03
             966     6.74245E-03     160.370E-03    -67.9498E+06    -85.1535E+06     7.59306E+06     4.67958E+06    -289.206E-03     578.301E-03    -289.095E-03     48.9305E-03    -289.449E-03     577.978E-03    -288.835E-03     49.0460E-03
             967     7.41683E-03     160.461E-03    -60.2333E+06    -55.4004E+06     21.9388E+06     5.14310E+06    -289.439E-03     578.501E-03    -289.061E-03     54.8401E-03    -289.729E-03     578.316E-03    -288.784E-03     54.4167E-03
             968     8.09080E-03     160.560E-03    -52.6625E+06    -19.5954E+06     36.1077E+06     5.50181E+06    -289.573E-03     578.599E-03    -289.026E-03     59.9105E-03    -289.921E-03     578.585E-03    -288.740E-03     58.9258E-03
             969     8.76592E-03     160.666E-03    -45.0183E+06     25.2715E+06     51.0362E+06     5.77297E+06    -289.381E-03     578.354E-03    -288.973E-03     63.6763E-03    -289.800E-03     578.555E-03    -288.689E-03     62.1554E-03
             970     9.44110E-03     160.778E-03    -36.8696E+06     57.3454E+06     64.2116E+06     6.76113E+06    -289.745E-03     578.675E-03    -288.931E-03     69.1024E-03    -290.233E-03     579.050E-03    -288.639E-03     66.7584E-03
             971     10.1150E-03     160.901E-03    -28.6777E+06     82.1994E+06     79.0330E+06     8.40236E+06    -290.014E-03     578.935E-03    -288.920E-03     73.8384E-03    -290.564E-03     579.445E-03    -288.603E-03     70.6871E-03
             972     10.7900E-03     161.022E-03    -21.7807E+06     81.5893E+06     91.3704E+06     7.67602E+06    -290.053E-03     578.991E-03    -288.938E-03     78.0862E-03    -290.636E-03     579.521E-03    -288.568E-03     74.1132E-03
             973     11.4655E-03     161.159E-03    -15.9381E+06     64.9524E+06     98.0975E+06     4.63418E+06    -290.463E-03     579.419E-03    -288.956E-03     82.7943E-03    -291.061E-03     579.907E-03    -288.536E-03     77.9176E-03
             974     12.1401E-03     161.297E-03    -10.6237E+06     90.3596E+06     110.179E+06     2.96391E+06    -291.160E-03     580.125E-03    -288.964E-03     85.8454E-03    -291.847E-03     580.774E-03    -288.529E-03     80.0676E-03
             975     12.8136E-03     161.439E-03    -5.33698E+06     113.217E+06     114.774E+06     2.02766E+06    -292.027E-03     581.006E-03    -288.979E-03     85.0970E-03    -292.698E-03     581.727E-03    -288.562E-03     79.7078E-03
             976     675.308E-06     161.629E-03    -125.775E+06    -260.041E+06    -124.126E+06     586.372E+03    -289.076E-03     578.204E-03    -289.127E-03     7.79365E-03    -289.079E-03     577.350E-03    -289.189E-03     7.63433E-03
             977     1.34713E-03     161.643E-03    -122.993E+06    -251.681E+06    -116.311E+06     1.04928E+06    -288.268E-03     577.183E-03    -288.914E-03     9.85578E-03    -288.343E-03     576.269E-03    -288.953E-03     10.3147E-03
             978     2.02361E-03     161.666E-03    -118.843E+06    -239.210E+06    -104.881E+06     1.48309E+06    -288.074E-03     576.749E-03    -288.675E-03     14.7788E-03    -288.162E-03     575.872E-03    -288.680E-03     15.4110E-03
             979     2.69831E-03     161.698E-03    -113.441E+06    -222.957E+06    -90.2902E+06     1.90465E+06    -288.594E-03     577.195E-03    -288.601E-03     19.9403E-03    -288.700E-03     576.369E-03    -288.565E-03     20.6977E-03
             980     3.37144E-03     161.735E-03    -107.094E+06    -203.962E+06    -73.9355E+06     2.24513E+06    -289.034E-03     577.695E-03    -288.662E-03     25.2251E-03    -289.160E-03     576.932E-03    -288.580E-03     26.0348E-03
             981     4.04622E-03     161.785E-03    -99.8538E+06    -183.191E+06    -56.7061E+06     2.54910E+06    -289.170E-03     577.920E-03    -288.750E-03     30.5362E-03    -289.316E-03     577.226E-03    -288.623E-03     31.3336E-03
             982     4.72027E-03     161.839E-03    -92.1861E+06    -161.260E+06    -39.5189E+06     2.94713E+06    -289.067E-03     577.875E-03    -288.808E-03     35.3278E-03    -289.232E-03     577.255E-03    -288.638E-03     36.0985E-03
             983     5.39504E-03     161.906E-03    -84.3652E+06    -138.525E+06    -22.7876E+06     3.32851E+06    -289.050E-03     577.883E-03    -288.833E-03     39.9091E-03    -289.237E-03     577.345E-03    -288.624E-03     40.5907E-03
             984     6.06892E-03     161.978E-03    -76.4129E+06    -114.274E+06    -6.83870E+06     3.70885E+06    -289.108E-03     577.948E-03    -288.840E-03     44.3522E-03    -289.318E-03     577.501E-03    -288.598E-03     44.8733E-03
             985     6.74356E-03     162.059E-03    -68.5767E+06    -87.5370E+06     8.03969E+06     4.25732E+06    -289.159E-03     577.991E-03    -288.832E-03     49.2817E-03    -289.400E-03     577.655E-03    -288.566E-03     49.4926E-03
             986     7.41856E-03     162.148E-03    -60.8971E+06    -57.8586E+06     22.2717E+06     4.83183E+06    -289.276E-03     578.087E-03    -288.811E-03     55.4763E-03    -289.564E-03     577.889E-03    -288.528E-03     55.1187E-03
             987     8.09381E-03     162.250E-03    -53.5273E+06    -22.2409E+06     36.3967E+06     5.63948E+06    -289.407E-03     578.188E-03    -288.780E-03     60.4751E-03    -289.753E-03     578.158E-03    -288.488E-03     59.5760E-03
             988     8.76809E-03     162.353E-03    -46.7668E+06     23.0151E+06     51.0607E+06     6.52657E+06    -289.442E-03     578.181E-03    -288.739E-03     64.4389E-03    -289.865E-03     578.371E-03    -288.449E-03     63.0079E-03
             989     9.44254E-03     162.467E-03    -40.3982E+06     56.5196E+06     63.3739E+06     5.84951E+06    -289.260E-03     577.951E-03    -288.692E-03     70.2918E-03    -289.763E-03     578.328E-03    -288.398E-03     67.9823E-03
             990     10.1188E-03     162.588E-03    -33.3308E+06     75.9689E+06     75.7009E+06     5.92898E+06    -289.694E-03     578.357E-03    -288.663E-03     75.1554E-03    -290.255E-03     578.849E-03    -288.346E-03     72.0077E-03
             991     10.7934E-03     162.714E-03    -25.6209E+06     82.2163E+06     87.6781E+06     7.67782E+06    -290.674E-03     579.363E-03    -288.689E-03     78.7320E-03    -291.268E-03     579.903E-03    -288.333E-03     74.8464E-03
             992     11.4669E-03     162.847E-03    -19.0882E+06     72.1406E+06     95.5794E+06     6.84802E+06    -290.781E-03     579.524E-03    -288.743E-03     82.5345E-03    -291.392E-03     580.046E-03    -288.342E-03     77.8371E-03
             993     12.1421E-03     162.986E-03    -12.9143E+06     92.5786E+06     109.454E+06     4.71599E+06    -290.958E-03     579.739E-03    -288.781E-03     86.3613E-03    -291.660E-03     580.406E-03    -288.349E-03     80.6166E-03
             994     12.8169E-03     163.131E-03    -6.25327E+06     118.057E+06     116.758E+06     2.75527E+06    -291.907E-03     580.710E-03    -288.803E-03     85.2171E-03    -292.591E-03     581.453E-03    -288.382E-03     79.8764E-03
             995     672.258E-06     163.319E-03    -128.857E+06    -262.018E+06    -126.725E+06     288.257E+03    -287.767E-03     577.515E-03    -289.748E-03     7.71374E-03    -287.788E-03     576.648E-03    -289.815E-03     7.67529E-03
             996     1.34925E-03     163.329E-03    -126.238E+06    -253.967E+06    -119.438E+06     681.458E+03    -288.074E-03     576.679E-03    -288.604E-03     10.0972E-03    -288.159E-03     575.763E-03    -288.650E-03     10.5741E-03
             997     2.02265E-03     163.352E-03    -121.876E+06    -241.032E+06    -107.349E+06     938.993E+03    -287.766E-03     576.159E-03    -288.392E-03     14.9730E-03    -287.863E-03     575.280E-03    -288.403E-03     15.6525E-03
             998     2.69844E-03     163.383E-03    -116.179E+06    -224.649E+06    -92.2332E+06     1.15870E+06    -287.739E-03     575.992E-03    -288.253E-03     19.7913E-03    -287.852E-03     575.164E-03    -288.220E-03     20.6518E-03
             999     3.37425E-03     163.424E-03    -109.427E+06    -205.572E+06    -75.3437E+06     1.36654E+06    -288.148E-03     576.358E-03    -288.210E-03     25.0827E-03    -288.281E-03     575.591E-03    -288.130E-03     26.0100E-03
            1000     4.04820E-03     163.470E-03    -102.048E+06    -184.861E+06    -57.8286E+06     1.63301E+06    -288.678E-03     576.935E-03    -288.257E-03     30.6647E-03    -288.829E-03     576.235E-03    -288.130E-03     31.5684E-03
            1001     4.72279E-03     163.529E-03    -94.2102E+06    -163.146E+06    -40.5398E+06     1.93064E+06    -289.107E-03     577.458E-03    -288.351E-03     35.5633E-03    -289.275E-03     576.830E-03    -288.180E-03     36.4444E-03
            1002     5.39647E-03     163.592E-03    -86.0553E+06    -140.345E+06    -23.9030E+06     2.28699E+06    -288.918E-03     577.344E-03    -288.426E-03     40.3265E-03    -289.106E-03     576.798E-03    -288.217E-03     41.1059E-03
            1003     6.07191E-03     163.666E-03    -77.8587E+06    -116.511E+06    -8.07227E+06     2.76223E+06    -288.794E-03     577.243E-03    -288.450E-03     45.5819E-03    -289.005E-03     576.788E-03    -288.208E-03     46.1164E-03
            1004     6.74651E-03     163.746E-03    -69.7242E+06    -90.3623E+06     6.91226E+06     3.47509E+06    -289.162E-03     577.622E-03    -288.460E-03     50.6557E-03    -289.402E-03     577.274E-03    -288.193E-03     50.8740E-03
            1005     7.42090E-03     163.836E-03    -61.8329E+06    -60.8653E+06     21.1550E+06     4.43667E+06    -289.289E-03     577.757E-03    -288.469E-03     56.3265E-03    -289.573E-03     577.544E-03    -288.185E-03     56.0540E-03
            1006     8.09550E-03     163.936E-03    -54.1984E+06    -26.9281E+06     35.0912E+06     5.87441E+06    -289.163E-03     577.617E-03    -288.454E-03     61.2853E-03    -289.499E-03     577.563E-03    -288.161E-03     60.4981E-03
            1007     8.77087E-03     164.042E-03    -46.8063E+06     17.8464E+06     50.1027E+06     8.14753E+06    -289.183E-03     577.598E-03    -288.415E-03     65.3575E-03    -289.593E-03     577.760E-03    -288.123E-03     64.0601E-03
            1008     9.44637E-03     164.153E-03    -40.3133E+06     58.6837E+06     63.7817E+06     9.36147E+06    -289.286E-03     577.661E-03    -288.375E-03     70.3548E-03    -289.782E-03     578.037E-03    -288.083E-03     68.3025E-03
            1009     10.1213E-03     164.274E-03    -34.8858E+06     75.8287E+06     75.3540E+06     7.88766E+06    -289.774E-03     578.144E-03    -288.370E-03     75.9505E-03    -290.339E-03     578.636E-03    -288.052E-03     72.9357E-03
            1010     10.7955E-03     164.406E-03    -28.8171E+06     79.4492E+06     86.0356E+06     6.34557E+06    -290.751E-03     579.165E-03    -288.414E-03     80.0477E-03    -291.357E-03     579.701E-03    -288.058E-03     76.1585E-03
            1011     11.4700E-03     164.535E-03    -21.0252E+06     75.5242E+06     95.0554E+06     5.84077E+06    -291.600E-03     580.101E-03    -288.501E-03     83.2912E-03    -292.223E-03     580.642E-03    -288.105E-03     78.6241E-03
            1012     12.1438E-03     164.675E-03    -13.2579E+06     96.4128E+06     109.989E+06     4.42966E+06    -291.719E-03     580.315E-03    -288.595E-03     87.1888E-03    -292.432E-03     581.003E-03    -288.166E-03     81.4347E-03
            1013     12.8174E-03     164.822E-03    -6.28841E+06     123.264E+06     118.036E+06     2.38720E+06    -291.855E-03     580.500E-03    -288.645E-03     86.2796E-03    -292.555E-03     581.273E-03    -288.225E-03     80.8798E-03
            1014     676.403E-06     165.002E-03    -132.668E+06    -263.502E+06    -130.852E+06     157.213E+03    -286.792E-03     575.472E-03    -288.680E-03     7.36942E-03    -286.823E-03     574.607E-03    -288.760E-03     7.47790E-03
            1015     1.34919E-03     165.017E-03    -129.851E+06    -254.948E+06    -122.738E+06     300.855E+03    -287.723E-03     575.441E-03    -287.718E-03     10.5741E-03    -287.820E-03     574.531E-03    -287.774E-03     11.0578E-03
            1016     2.02504E-03     165.036E-03    -125.490E+06    -241.862E+06    -110.571E+06     325.427E+03    -287.750E-03     575.493E-03    -287.743E-03     16.1752E-03    -287.860E-03     574.621E-03    -287.763E-03     16.8024E-03
            1017     2.69931E-03     165.068E-03    -119.733E+06    -225.350E+06    -95.2397E+06     306.778E+03    -287.779E-03     575.550E-03    -287.771E-03     21.0528E-03    -287.905E-03     574.728E-03    -287.747E-03     21.8656E-03
            1018     3.37422E-03     165.107E-03    -112.868E+06    -206.372E+06    -78.0224E+06     311.004E+03    -287.688E-03     575.476E-03    -287.788E-03     25.3215E-03    -287.831E-03     574.712E-03    -287.716E-03     26.3310E-03
            1019     4.05044E-03     165.157E-03    -105.233E+06    -185.868E+06    -60.2403E+06     388.153E+03    -287.837E-03     575.637E-03    -287.800E-03     30.6947E-03    -287.997E-03     574.938E-03    -287.679E-03     31.7216E-03
            1020     4.72474E-03     165.215E-03    -97.0532E+06    -164.235E+06    -42.7285E+06     523.759E+03    -288.105E-03     575.932E-03    -287.826E-03     36.3752E-03    -288.281E-03     575.304E-03    -287.661E-03     37.3128E-03
            1021     5.39995E-03     165.280E-03    -88.7107E+06    -141.882E+06    -26.1287E+06     788.657E+03    -288.528E-03     576.401E-03    -287.873E-03     41.4288E-03    -288.721E-03     575.852E-03    -287.669E-03     42.2641E-03
            1022     6.07459E-03     165.350E-03    -80.4118E+06    -118.546E+06    -10.4981E+06     1.28276E+06    -288.817E-03     576.749E-03    -287.932E-03     46.3129E-03    -289.030E-03     576.287E-03    -287.696E-03     46.9659E-03
            1023     6.74977E-03     165.435E-03    -72.1554E+06    -93.2596E+06     4.42485E+06     1.97753E+06    -288.899E-03     576.880E-03    -287.980E-03     51.3080E-03    -289.139E-03     576.519E-03    -287.718E-03     51.6609E-03
            1024     7.42443E-03     165.523E-03    -64.0085E+06    -65.1145E+06     18.6995E+06     3.19259E+06    -289.030E-03     577.036E-03    -288.006E-03     57.2549E-03    -289.310E-03     576.804E-03    -287.725E-03     57.0975E-03
            1025     8.09956E-03     165.623E-03    -56.1409E+06    -32.7603E+06     32.5881E+06     5.02034E+06    -289.046E-03     577.056E-03    -288.010E-03     62.5980E-03    -289.377E-03     576.977E-03    -287.718E-03     61.8826E-03
            1026     8.77472E-03     165.727E-03    -48.4712E+06     8.34756E+06     46.8867E+06     7.96173E+06    -289.329E-03     577.330E-03    -288.001E-03     66.6058E-03    -289.727E-03     577.449E-03    -287.708E-03     65.3845E-03
            1027     9.44951E-03     165.841E-03    -40.8735E+06     55.0041E+06     60.6592E+06     10.8460E+06    -289.845E-03     577.846E-03    -288.000E-03     70.8024E-03    -290.326E-03     578.200E-03    -287.717E-03     68.9416E-03
            1028     10.1240E-03     165.961E-03    -33.2556E+06     81.7155E+06     73.7890E+06     10.3662E+06    -289.970E-03     578.002E-03    -288.032E-03     76.4370E-03    -290.525E-03     578.516E-03    -287.734E-03     73.6159E-03
            1029     10.7999E-03     166.092E-03    -26.0965E+06     82.6375E+06     86.0611E+06     7.55120E+06    -290.589E-03     578.693E-03    -288.103E-03     81.3484E-03    -291.187E-03     579.242E-03    -287.755E-03     77.5112E-03
            1030     11.4739E-03     166.227E-03    -19.9051E+06     77.7478E+06     95.7234E+06     5.13225E+06    -292.174E-03     580.395E-03    -288.221E-03     84.4577E-03    -292.796E-03     580.945E-03    -287.826E-03     79.8044E-03
            1031     12.1464E-03     166.368E-03    -13.3393E+06     100.077E+06     110.727E+06     3.53196E+06    -292.781E-03     581.154E-03    -288.372E-03     87.3280E-03    -293.493E-03     581.852E-03    -287.944E-03     81.6614E-03
            1032     12.8209E-03     166.510E-03    -6.45549E+06     127.295E+06     119.725E+06     2.08786E+06    -292.404E-03     580.883E-03    -288.479E-03     86.7804E-03    -293.110E-03     581.671E-03    -288.056E-03     81.4226E-03
            1033     674.839E-06     166.690E-03    -137.096E+06    -263.728E+06    -134.811E+06     21.7616E+03    -286.163E-03     573.422E-03    -287.259E-03     6.51605E-03    -286.202E-03     572.572E-03    -287.351E-03     6.75563E-03
            1034     1.35170E-03     166.696E-03    -134.057E+06    -255.084E+06    -126.809E+06    -193.248E+03    -286.863E-03     573.588E-03    -286.725E-03     10.4193E-03    -286.974E-03     572.688E-03    -286.794E-03     10.9506E-03
            1035     2.02676E-03     166.721E-03    -129.487E+06    -241.698E+06    -114.229E+06    -302.009E+03    -287.274E-03     574.126E-03    -286.853E-03     16.4172E-03    -287.398E-03     573.266E-03    -286.885E-03     17.0836E-03
            1036     2.70205E-03     166.752E-03    -123.618E+06    -224.887E+06    -98.5312E+06    -521.525E+03    -287.453E-03     574.457E-03    -287.004E-03     21.8043E-03    -287.593E-03     573.646E-03    -286.992E-03     22.6321E-03
            1037     3.37684E-03     166.792E-03    -116.658E+06    -205.962E+06    -81.1222E+06    -822.141E+03    -287.556E-03     574.681E-03    -287.125E-03     27.3536E-03    -287.714E-03     573.929E-03    -287.063E-03     28.2626E-03
            1038     4.05105E-03     166.839E-03    -108.852E+06    -185.650E+06    -63.1192E+06    -1.06888E+06    -287.365E-03     574.560E-03    -287.195E-03     32.3733E-03    -287.538E-03     573.870E-03    -287.083E-03     33.3626E-03
            1039     4.72821E-03     166.898E-03    -100.612E+06    -164.474E+06    -45.5010E+06    -1.14777E+06    -287.234E-03     574.444E-03    -287.210E-03     37.0397E-03    -287.420E-03     573.821E-03    -287.053E-03     38.0693E-03
            1040     5.40414E-03     166.963E-03    -92.1147E+06    -142.639E+06    -28.7777E+06    -1.03768E+06    -287.945E-03     575.184E-03    -287.240E-03     42.1326E-03    -288.147E-03     574.637E-03    -287.043E-03     43.0731E-03
            1041     6.07843E-03     167.039E-03    -83.5223E+06    -120.012E+06    -13.1893E+06    -730.718E+03    -288.526E-03     575.843E-03    -287.317E-03     47.0102E-03    -288.745E-03     575.377E-03    -287.088E-03     47.7828E-03
            1042     6.75293E-03     167.117E-03    -75.0244E+06    -95.7823E+06     1.43213E+06    -44.3226E+03    -288.476E-03     575.862E-03    -287.386E-03     52.6652E-03    -288.720E-03     575.495E-03    -287.131E-03     53.0649E-03
            1043     7.42884E-03     167.210E-03    -66.6597E+06    -69.3712E+06     15.3507E+06     1.06974E+06    -288.700E-03     576.125E-03    -287.425E-03     58.4730E-03    -288.978E-03     575.876E-03    -287.151E-03     58.3839E-03
            1044     8.10406E-03     167.307E-03    -58.2436E+06    -39.1016E+06     28.9203E+06     2.88826E+06    -289.184E-03     576.648E-03    -287.464E-03     63.0988E-03    -289.503E-03     576.538E-03    -287.178E-03     62.5566E-03
            1045     8.77910E-03     167.415E-03    -49.6830E+06    -1.60645E+06     42.8958E+06     5.52453E+06    -289.794E-03     577.310E-03    -287.517E-03     67.6327E-03    -290.170E-03     577.380E-03    -287.228E-03     66.5406E-03
            1046     9.45340E-03     167.528E-03    -41.1045E+06     47.0956E+06     58.3553E+06     8.42842E+06    -290.356E-03     577.939E-03    -287.583E-03     71.8016E-03    -290.816E-03     578.250E-03    -287.300E-03     70.0651E-03
            1047     10.1282E-03     167.649E-03    -33.3958E+06     83.1084E+06     72.3852E+06     9.99169E+06    -290.621E-03     578.289E-03    -287.668E-03     76.3366E-03    -291.161E-03     578.796E-03    -287.378E-03     73.7633E-03
            1048     10.8022E-03     167.778E-03    -26.8948E+06     88.5003E+06     82.8555E+06     8.75577E+06    -291.108E-03     578.890E-03    -287.782E-03     81.6614E-03    -291.705E-03     579.465E-03    -287.457E-03     78.0119E-03
            1049     11.4766E-03     167.919E-03    -20.3261E+06     83.4814E+06     93.2170E+06     5.86267E+06    -292.083E-03     580.012E-03    -287.929E-03     85.4234E-03    -292.710E-03     580.593E-03    -287.555E-03     80.8479E-03
            1050     12.1502E-03     168.060E-03    -13.5360E+06     103.893E+06     110.859E+06     3.25436E+06    -293.196E-03     581.312E-03    -288.116E-03     88.1242E-03    -293.913E-03     582.028E-03    -287.693E-03     82.4988E-03
            1051     12.8215E-03     168.204E-03    -6.61232E+06     130.578E+06     122.473E+06     1.63403E+06    -293.451E-03     581.736E-03    -288.286E-03     87.0758E-03    -294.160E-03     582.530E-03    -287.853E-03     81.8123E-03
            1052     676.249E-06     168.361E-03    -140.786E+06    -263.059E+06    -138.991E+06    -339.768E+03    -286.453E-03     571.646E-03    -285.194E-03     5.12336E-03    -286.488E-03     570.824E-03    -285.303E-03     5.58463E-03
            1053     1.35252E-03     168.380E-03    -137.946E+06    -254.134E+06    -130.450E+06    -476.292E+03    -285.807E-03     571.600E-03    -285.793E-03     11.5753E-03    -285.930E-03     570.715E-03    -285.877E-03     12.0713E-03
            1054     2.02793E-03     168.401E-03    -133.284E+06    -240.473E+06    -117.579E+06    -884.710E+03    -286.379E-03     572.276E-03    -285.896E-03     17.1512E-03    -286.517E-03     571.429E-03    -285.942E-03     17.8589E-03
            1055     2.70400E-03     168.433E-03    -127.193E+06    -223.437E+06    -101.518E+06    -1.33281E+06    -286.319E-03     572.355E-03    -286.035E-03     22.6288E-03    -286.473E-03     571.559E-03    -286.034E-03     23.5104E-03
            1056     3.38041E-03     168.473E-03    -120.113E+06    -204.286E+06    -83.7646E+06    -1.81481E+06    -286.638E-03     572.777E-03    -286.139E-03     28.7709E-03    -286.811E-03     572.041E-03    -286.087E-03     29.6873E-03
            1057     4.05676E-03     168.524E-03    -112.331E+06    -184.098E+06    -65.6330E+06    -2.32724E+06    -287.127E-03     573.394E-03    -286.267E-03     33.8379E-03    -287.313E-03     572.719E-03    -286.166E-03     34.8555E-03
            1058     4.73080E-03     168.578E-03    -103.987E+06    -163.262E+06    -47.9763E+06    -2.79698E+06    -287.323E-03     573.721E-03    -286.398E-03     38.8781E-03    -287.523E-03     573.111E-03    -286.251E-03     39.9065E-03
            1059     5.40623E-03     168.647E-03    -95.3445E+06    -142.085E+06    -31.3605E+06    -3.11934E+06    -287.367E-03     573.861E-03    -286.494E-03     44.3750E-03    -287.582E-03     573.324E-03    -286.306E-03     45.2648E-03
            1060     6.08281E-03     168.721E-03    -86.5968E+06    -120.409E+06    -15.9181E+06    -3.11946E+06    -287.555E-03     574.116E-03    -286.561E-03     48.6708E-03    -287.782E-03     573.655E-03    -286.341E-03     49.4684E-03
            1061     6.75900E-03     168.802E-03    -77.8901E+06    -97.4183E+06    -1.54195E+06    -2.75032E+06    -288.268E-03     574.906E-03    -286.638E-03     54.2161E-03    -288.516E-03     574.536E-03    -286.391E-03     54.6737E-03
            1062     7.43385E-03     168.892E-03    -69.1510E+06    -72.5465E+06     12.2299E+06    -1.91421E+06    -289.036E-03     575.781E-03    -286.744E-03     59.6622E-03    -289.313E-03     575.518E-03    -286.478E-03     59.6851E-03
            1063     8.10879E-03     168.994E-03    -60.5738E+06    -44.5231E+06     25.5316E+06    -583.424E+03    -289.532E-03     576.396E-03    -286.864E-03     64.0150E-03    -289.842E-03     576.259E-03    -286.584E-03     63.6165E-03
            1064     8.78336E-03     169.100E-03    -52.2274E+06    -9.30160E+06     39.2835E+06     1.38280E+06    -290.036E-03     577.017E-03    -286.981E-03     68.8389E-03    -290.403E-03     577.052E-03    -286.696E-03     67.8425E-03
            1065     9.45826E-03     169.217E-03    -44.1137E+06     35.5167E+06     54.4864E+06     5.18870E+06    -290.741E-03     577.847E-03    -287.106E-03     73.1783E-03    -291.189E-03     578.106E-03    -286.821E-03     71.5201E-03
            1066     10.1317E-03     169.337E-03    -36.2652E+06     78.7171E+06     68.9257E+06     8.70285E+06    -291.683E-03     578.939E-03    -287.255E-03     77.5585E-03    -292.222E-03     579.428E-03    -286.972E-03     75.0939E-03
            1067     10.8057E-03     169.468E-03    -28.4569E+06     94.6658E+06     80.5332E+06     7.94085E+06    -292.107E-03     579.548E-03    -287.442E-03     82.5395E-03    -292.710E-03     580.153E-03    -287.135E-03     79.0205E-03
            1068     11.4794E-03     169.607E-03    -21.1866E+06     89.3160E+06     90.9626E+06     4.95945E+06    -292.136E-03     579.771E-03    -287.636E-03     86.5529E-03    -292.773E-03     580.387E-03    -287.279E-03     82.0166E-03
            1069     12.1533E-03     169.752E-03    -14.0917E+06     108.594E+06     110.043E+06     2.82966E+06    -293.181E-03     581.023E-03    -287.842E-03     90.0346E-03    -293.920E-03     581.778E-03    -287.428E-03     84.2972E-03
            1070     12.8270E-03     169.900E-03    -7.00690E+06     133.799E+06     124.930E+06     1.17733E+06    -294.594E-03     582.662E-03    -288.068E-03     87.2983E-03    -295.309E-03     583.465E-03    -287.627E-03     82.1279E-03
            1071     676.719E-06     170.040E-03    -144.175E+06    -261.393E+06    -142.262E+06    -286.302E+03    -285.260E-03     568.891E-03    -283.631E-03     4.60772E-03    -285.281E-03     568.102E-03    -283.754E-03     5.16784E-03
            1072     1.35381E-03     170.054E-03    -140.980E+06    -252.216E+06    -133.433E+06    -923.678E+03    -285.049E-03     569.573E-03    -284.524E-03     12.9709E-03    -285.182E-03     568.703E-03    -284.621E-03     13.3960E-03
            1073     2.03130E-03     170.080E-03    -136.333E+06    -238.395E+06    -120.325E+06    -1.35612E+06    -284.871E-03     569.569E-03    -284.698E-03     18.1980E-03    -285.021E-03     568.740E-03    -284.756E-03     18.9108E-03
            1074     2.70762E-03     170.110E-03    -130.294E+06    -221.069E+06    -104.054E+06    -1.94102E+06    -285.233E-03     570.031E-03    -284.799E-03     24.0714E-03    -285.399E-03     569.253E-03    -284.809E-03     24.9492E-03
            1075     3.38422E-03     170.151E-03    -123.087E+06    -201.543E+06    -85.9867E+06    -2.64801E+06    -285.668E-03     570.606E-03    -284.938E-03     30.2072E-03    -285.853E-03     569.888E-03    -284.897E-03     31.1590E-03
            1076     4.06006E-03     170.203E-03    -115.120E+06    -181.166E+06    -67.5140E+06    -3.44327E+06    -286.121E-03     571.218E-03    -285.097E-03     35.4815E-03    -286.321E-03     570.562E-03    -285.005E-03     36.5312E-03
            1077     4.73715E-03     170.259E-03    -106.688E+06    -160.501E+06    -49.6796E+06    -4.28639E+06    -286.661E-03     571.928E-03    -285.267E-03     41.4220E-03    -286.874E-03     571.337E-03    -285.128E-03     42.4025E-03
            1078     5.41298E-03     170.327E-03    -98.0474E+06    -139.851E+06    -33.0308E+06    -4.99836E+06    -286.985E-03     572.412E-03    -285.428E-03     47.4020E-03    -287.213E-03     571.892E-03    -285.248E-03     48.2099E-03
            1079     6.08870E-03     170.401E-03    -89.3521E+06    -118.982E+06    -17.7138E+06    -5.53637E+06    -287.529E-03     573.109E-03    -285.579E-03     51.4201E-03    -287.768E-03     572.659E-03    -285.366E-03     52.1826E-03
            1080     6.76438E-03     170.484E-03    -80.5814E+06    -97.1962E+06    -3.45227E+06    -5.73985E+06    -288.519E-03     574.275E-03    -285.755E-03     56.2564E-03    -288.773E-03     573.908E-03    -285.515E-03     56.7705E-03
            1081     7.43941E-03     170.578E-03    -71.8901E+06    -74.0901E+06     9.93383E+06    -5.47859E+06    -289.372E-03     575.333E-03    -285.961E-03     61.3201E-03    -289.650E-03     575.064E-03    -285.699E-03     61.4425E-03
            1082     8.11407E-03     170.677E-03    -63.2043E+06    -47.9181E+06     22.9738E+06    -4.58228E+06    -289.936E-03     576.105E-03    -286.169E-03     65.7964E-03    -290.245E-03     575.953E-03    -285.893E-03     65.4770E-03
            1083     8.78894E-03     170.786E-03    -54.5809E+06    -16.0760E+06     36.1405E+06    -2.52039E+06    -290.381E-03     576.743E-03    -286.362E-03     70.5006E-03    -290.739E-03     576.745E-03    -286.079E-03     69.5974E-03
            1084     9.46308E-03     170.902E-03    -45.9288E+06     21.9597E+06     49.8475E+06     1.33465E+06    -291.141E-03     577.689E-03    -286.548E-03     75.3389E-03    -291.569E-03     577.888E-03    -286.264E-03     73.7202E-03
            1085     10.1375E-03     171.027E-03    -37.1859E+06     71.6923E+06     65.8155E+06     5.08732E+06    -292.496E-03     579.256E-03    -286.760E-03     80.1449E-03    -293.026E-03     579.717E-03    -286.481E-03     77.6689E-03
            1086     10.8097E-03     171.159E-03    -28.9874E+06     99.0463E+06     80.0356E+06     5.61119E+06    -293.207E-03     580.231E-03    -287.023E-03     83.6449E-03    -293.810E-03     580.850E-03    -286.725E-03     80.2496E-03
            1087     11.4830E-03     171.296E-03    -21.5558E+06     94.3305E+06     91.0036E+06     3.84468E+06    -293.351E-03     580.656E-03    -287.306E-03     87.4232E-03    -293.993E-03     581.293E-03    -286.956E-03     82.9568E-03
            1088     12.1567E-03     171.442E-03    -14.4451E+06     112.885E+06     110.789E+06     1.70648E+06    -294.098E-03     581.688E-03    -287.590E-03     91.0917E-03    -294.847E-03     582.465E-03    -287.178E-03     85.3335E-03
            1089     12.8281E-03     171.595E-03    -6.92571E+06     136.026E+06     127.141E+06     416.053E+03    -295.721E-03     583.610E-03    -287.888E-03     87.8118E-03    -296.437E-03     584.415E-03    -287.440E-03     82.7130E-03
            1090     680.077E-06     171.712E-03    -146.112E+06    -258.556E+06    -144.348E+06    -538.023E+03    -283.179E-03     565.636E-03    -282.456E-03     7.76207E-03    -283.174E-03     564.882E-03    -282.591E-03     8.03397E-03
            1091     1.35591E-03     171.728E-03    -143.513E+06    -249.830E+06    -135.711E+06    -1.17211E+06    -283.789E-03     566.741E-03    -282.952E-03     12.9319E-03    -283.930E-03     565.885E-03    -283.060E-03     13.4526E-03
            1092     2.03322E-03     171.750E-03    -138.626E+06    -235.671E+06    -122.201E+06    -1.84210E+06    -283.388E-03     566.592E-03    -283.204E-03     18.9760E-03    -283.550E-03     565.782E-03    -283.272E-03     19.7269E-03
            1093     2.71209E-03     171.783E-03    -132.256E+06    -217.815E+06    -105.478E+06    -2.55393E+06    -283.848E-03     567.163E-03    -283.315E-03     25.5700E-03    -284.025E-03     566.403E-03    -283.334E-03     26.4503E-03
            1094     3.38881E-03     171.826E-03    -124.853E+06    -197.914E+06    -87.0420E+06    -3.38954E+06    -284.410E-03     567.889E-03    -283.479E-03     32.0401E-03    -284.605E-03     567.190E-03    -283.446E-03     33.0139E-03
            1095     4.06679E-03     171.876E-03    -116.750E+06    -177.209E+06    -68.2221E+06    -4.35829E+06    -284.880E-03     568.545E-03    -283.665E-03     37.9838E-03    -285.090E-03     567.910E-03    -283.580E-03     39.0172E-03
            1096     4.74329E-03     171.936E-03    -108.278E+06    -156.431E+06    -50.0478E+06    -5.39303E+06    -285.493E-03     569.353E-03    -283.859E-03     43.2967E-03    -285.715E-03     568.780E-03    -283.726E-03     44.3579E-03
            1097     5.42039E-03     172.003E-03    -99.6046E+06    -135.909E+06    -33.1280E+06    -6.45174E+06    -286.363E-03     570.439E-03    -284.075E-03     49.2816E-03    -286.599E-03     569.935E-03    -283.899E-03     50.2051E-03
            1098     6.09655E-03     172.081E-03    -90.8652E+06    -115.522E+06    -17.7285E+06    -7.42917E+06    -287.794E-03     572.138E-03    -284.344E-03     54.7158E-03    -288.043E-03     571.706E-03    -284.133E-03     55.4604E-03
            1099     6.77124E-03     172.165E-03    -82.2536E+06    -94.8918E+06    -3.77324E+06    -8.19922E+06    -288.931E-03     573.594E-03    -284.663E-03     59.6970E-03    -289.194E-03     573.239E-03    -284.425E-03     60.1781E-03
            1100     7.44644E-03     172.260E-03    -73.7670E+06    -73.2341E+06     9.10829E+06    -8.50528E+06    -289.660E-03     574.645E-03    -284.985E-03     64.7522E-03    -289.946E-03     574.383E-03    -284.726E-03     64.8440E-03
            1101     8.12114E-03     172.361E-03    -65.4091E+06    -49.2337E+06     21.3797E+06    -8.21569E+06    -290.559E-03     575.856E-03    -285.297E-03     68.8466E-03    -290.872E-03     575.701E-03    -285.024E-03     68.5528E-03
            1102     8.79508E-03     172.471E-03    -56.9543E+06    -21.6406E+06     33.8066E+06    -6.87161E+06    -291.253E-03     576.857E-03    -285.604E-03     72.7389E-03    -291.604E-03     576.832E-03    -285.321E-03     71.9443E-03
            1103     9.46970E-03     172.588E-03    -48.1290E+06     12.0491E+06     47.0928E+06    -4.44525E+06    -292.026E-03     577.926E-03    -285.900E-03     77.4796E-03    -292.442E-03     578.077E-03    -285.612E-03     75.9338E-03
            1104     10.1427E-03     172.717E-03    -38.8233E+06     62.1045E+06     63.3040E+06    -1.05637E+06    -293.167E-03     579.363E-03    -286.196E-03     82.3970E-03    -293.686E-03     579.781E-03    -285.913E-03     79.9197E-03
            1105     10.8160E-03     172.852E-03    -29.7537E+06     97.3166E+06     78.3386E+06      1.8493E+06    -294.367E-03     580.901E-03    -286.534E-03     84.7330E-03    -294.961E-03     581.507E-03    -286.240E-03     81.4266E-03
            1106     11.4878E-03     172.987E-03    -21.5512E+06     98.2654E+06     90.5062E+06     1.82488E+06    -295.526E-03     582.459E-03    -286.933E-03     88.0065E-03    -296.164E-03     583.107E-03    -286.592E-03     83.6575E-03
            1107     12.1584E-03     173.137E-03    -13.9005E+06     115.997E+06     111.190E+06     681.988E+03    -295.992E-03     583.343E-03    -287.351E-03     91.6313E-03    -296.737E-03     584.128E-03    -286.943E-03     85.9618E-03
            1108     12.8308E-03     173.289E-03    -6.98814E+06     137.083E+06     128.900E+06     160.003E+03    -296.866E-03     584.613E-03    -287.747E-03     89.9720E-03    -297.593E-03     585.428E-03    -287.291E-03     84.8088E-03
            1109     678.117E-06     173.379E-03    -147.858E+06    -255.514E+06    -145.833E+06    -739.275E+03    -281.194E-03     562.602E-03    -281.408E-03     8.33377E-03    -281.172E-03     561.886E-03    -281.552E-03     8.57211E-03
            1110     1.35851E-03     173.395E-03    -144.573E+06    -246.243E+06    -136.516E+06    -1.64257E+06    -281.326E-03     562.562E-03    -281.235E-03     13.5021E-03    -281.474E-03     561.724E-03    -281.351E-03     14.0507E-03
            1111     2.03802E-03     173.417E-03    -139.613E+06    -232.019E+06    -122.795E+06    -2.47933E+06    -281.700E-03     563.027E-03    -281.327E-03     20.6813E-03    -281.871E-03     562.236E-03    -281.403E-03     21.3874E-03
            1112     2.71567E-03     173.451E-03    -132.982E+06    -213.838E+06    -105.607E+06    -3.37139E+06    -282.103E-03     563.575E-03    -281.472E-03     28.3306E-03    -282.288E-03     562.836E-03    -281.498E-03     29.1016E-03
            1113     3.39544E-03     173.494E-03    -125.293E+06    -193.692E+06    -86.7396E+06    -4.28063E+06    -282.817E-03     564.477E-03    -281.660E-03     34.7082E-03    -283.019E-03     563.798E-03    -281.631E-03     35.6318E-03
            1114     4.07317E-03     173.547E-03    -116.880E+06    -172.604E+06    -67.4823E+06    -5.26172E+06    -283.598E-03     565.495E-03    -281.898E-03     40.6447E-03    -283.814E-03     564.879E-03    -281.815E-03     41.6788E-03
            1115     4.75136E-03     173.608E-03    -108.048E+06    -151.421E+06    -48.8635E+06    -6.36084E+06    -284.577E-03     566.750E-03    -282.173E-03     46.6137E-03    -284.803E-03     566.197E-03    -282.041E-03     47.6509E-03
            1116     5.42858E-03     173.676E-03    -99.1590E+06    -130.816E+06    -31.6382E+06    -7.49972E+06    -285.967E-03     568.469E-03    -282.502E-03     52.5669E-03    -286.206E-03     567.983E-03    -282.327E-03     53.5221E-03
            1117     6.10541E-03     173.758E-03    -90.4278E+06    -110.750E+06    -16.0637E+06    -8.66191E+06    -287.388E-03     570.274E-03    -282.886E-03     58.1090E-03    -287.638E-03     569.857E-03    -282.675E-03     58.9093E-03
            1118     6.78121E-03     173.846E-03    -81.8656E+06    -90.7743E+06    -2.04269E+06    -9.68328E+06    -288.886E-03     572.199E-03    -283.313E-03     62.9127E-03    -289.149E-03     571.854E-03    -283.073E-03     63.5034E-03
            1119     7.45588E-03     173.940E-03    -73.5325E+06    -70.2340E+06     10.6539E+06    -10.4440E+06    -290.195E-03     573.958E-03    -283.763E-03     67.9546E-03    -290.479E-03     573.702E-03    -283.502E-03     68.1732E-03
            1120     8.13016E-03     174.046E-03    -65.3677E+06    -48.1567E+06     22.5202E+06    -10.6848E+06    -291.233E-03     575.446E-03    -284.213E-03     72.1642E-03    -291.544E-03     575.289E-03    -283.935E-03     71.9566E-03
            1121     8.80385E-03     174.156E-03    -57.1881E+06    -23.1694E+06     34.2642E+06    -10.4787E+06    -292.424E-03     577.082E-03    -284.658E-03     76.1872E-03    -292.773E-03     577.046E-03    -284.370E-03     75.4065E-03
            1122     9.47617E-03     174.276E-03    -48.8055E+06     7.61421E+06     46.5732E+06    -9.61163E+06    -293.603E-03     578.706E-03    -285.102E-03     81.0312E-03    -294.017E-03     578.838E-03    -284.810E-03     79.4310E-03
            1123     10.1492E-03     174.406E-03    -40.5342E+06     51.8128E+06     61.1383E+06    -6.90938E+06    -294.473E-03     580.006E-03    -285.533E-03     85.4758E-03    -294.985E-03     580.381E-03    -285.244E-03     82.9539E-03
            1124     10.8213E-03     174.543E-03    -32.0235E+06     90.6760E+06     75.5018E+06    -3.62601E+06    -295.844E-03     581.820E-03    -285.977E-03     87.9240E-03    -296.441E-03     582.407E-03    -285.684E-03     84.5498E-03
            1125     11.4917E-03     174.684E-03    -23.4592E+06     99.4411E+06     87.1862E+06    -2.20704E+06    -297.712E-03     584.199E-03    -286.487E-03     90.7623E-03    -298.361E-03     584.866E-03    -286.162E-03     86.3857E-03
            1126     12.1621E-03     174.833E-03    -15.4701E+06     115.673E+06     107.116E+06    -1.82181E+06    -298.441E-03     585.486E-03    -287.045E-03     93.1843E-03    -299.185E-03     586.275E-03    -286.654E-03     87.5434E-03
            1127     12.8315E-03     174.985E-03    -7.31212E+06     135.736E+06     129.070E+06    -698.279E+03    -298.651E-03     586.231E-03    -287.580E-03     91.8997E-03    -299.381E-03     587.042E-03    -287.121E-03     86.7234E-03
            1128     680.664E-06     175.038E-03    -148.080E+06    -250.933E+06    -145.751E+06    -1.29206E+06    -279.492E-03     557.867E-03    -278.375E-03     9.53173E-03    -279.456E-03     557.192E-03    -278.525E-03     9.73503E-03
            1129     1.36160E-03     175.053E-03    -144.475E+06    -241.694E+06    -136.291E+06    -2.21671E+06    -278.581E-03     557.362E-03    -278.781E-03     16.1134E-03    -278.736E-03     556.546E-03    -278.902E-03     16.4996E-03
            1130     2.04186E-03     175.078E-03    -139.148E+06    -227.034E+06    -121.863E+06    -3.30041E+06    -279.445E-03     558.274E-03    -278.829E-03     23.6296E-03    -279.622E-03     557.506E-03    -278.908E-03     24.1922E-03
            1131     2.72370E-03     175.111E-03    -132.429E+06    -208.969E+06    -104.371E+06    -4.44889E+06    -280.364E-03     559.448E-03    -279.083E-03     31.1782E-03    -280.553E-03     558.728E-03    -279.110E-03     31.8669E-03
            1132     3.40267E-03     175.158E-03    -124.377E+06    -188.681E+06    -85.0671E+06    -5.55257E+06    -281.205E-03     560.607E-03    -279.402E-03     38.0420E-03    -281.411E-03     559.948E-03    -279.374E-03     38.8701E-03
            1133     4.08230E-03     175.212E-03    -115.529E+06    -167.400E+06    -65.4845E+06    -6.64370E+06    -282.168E-03     561.916E-03    -279.748E-03     44.0167E-03    -282.386E-03     561.319E-03    -279.665E-03     45.0027E-03
            1134     4.76152E-03     175.274E-03    -106.405E+06    -146.120E+06    -46.6430E+06    -7.66144E+06    -283.838E-03     563.994E-03    -280.156E-03     50.6042E-03    -284.064E-03     563.458E-03    -280.023E-03     51.5933E-03
            1135     5.43899E-03     175.349E-03    -97.2325E+06    -125.394E+06    -29.1280E+06    -8.74414E+06    -285.704E-03     566.357E-03    -280.654E-03     56.2885E-03    -285.940E-03     565.888E-03    -280.477E-03     57.2702E-03
            1136     6.11516E-03     175.430E-03    -88.1498E+06    -105.318E+06    -13.1907E+06    -9.83714E+06    -287.134E-03     568.331E-03    -281.197E-03     61.7500E-03    -287.381E-03     567.929E-03    -280.982E-03     62.6076E-03
            1137     6.79169E-03     175.522E-03    -79.3146E+06    -85.6756E+06     1.13877E+06    -10.8592E+06    -288.912E-03     570.674E-03    -281.762E-03     66.5704E-03    -289.168E-03     570.341E-03    -281.517E-03     67.2367E-03
            1138     7.46644E-03     175.621E-03    -70.8015E+06    -65.8493E+06     13.9360E+06    -11.7338E+06    -290.749E-03     573.111E-03    -282.362E-03     70.6147E-03    -291.022E-03     572.859E-03    -282.095E-03     71.0300E-03
            1139     8.14044E-03     175.728E-03    -62.5011E+06    -45.1715E+06     25.6243E+06    -12.4260E+06    -292.105E-03     575.079E-03    -282.973E-03     74.4060E-03    -292.399E-03     574.916E-03    -282.689E-03     74.4393E-03
            1140     8.81410E-03     175.842E-03    -54.4109E+06    -21.4751E+06     37.0237E+06    -12.7060E+06    -293.555E-03     577.132E-03    -283.577E-03     78.2406E-03    -293.883E-03     577.084E-03    -283.282E-03     77.7391E-03
            1141     9.48689E-03     175.966E-03    -46.6238E+06     6.74159E+06     48.5971E+06    -12.3248E+06    -295.005E-03     579.181E-03    -284.177E-03     82.7301E-03    -295.393E-03     579.287E-03    -283.876E-03     81.4591E-03
            1142     10.1578E-03     176.096E-03    -38.8547E+06     45.0445E+06     61.6959E+06    -10.6971E+06    -296.180E-03     580.942E-03    -284.761E-03     87.3028E-03    -296.657E-03     581.262E-03    -284.462E-03     85.0799E-03
            1143     10.8289E-03     176.237E-03    -30.5533E+06     84.1465E+06     75.4314E+06    -8.07890E+06    -297.582E-03     582.925E-03    -285.343E-03     90.7681E-03    -298.154E-03     583.469E-03    -285.043E-03     87.5410E-03
            1144     11.4993E-03     176.383E-03    -22.5743E+06     96.8073E+06     85.6978E+06    -5.92645E+06    -299.345E-03     585.307E-03    -285.962E-03     93.5089E-03    -299.980E-03     585.957E-03    -285.641E-03     89.2150E-03
            1145     12.1670E-03     176.535E-03    -15.1000E+06     112.632E+06     103.842E+06    -4.11494E+06    -300.916E-03     587.556E-03    -286.640E-03     95.6633E-03    -301.652E-03     588.337E-03    -286.262E-03     90.0435E-03
            1146     12.8350E-03     176.687E-03    -7.98537E+06     131.500E+06     127.271E+06    -2.39195E+06    -301.834E-03     589.176E-03    -287.343E-03     93.6322E-03    -302.557E-03     589.970E-03    -286.885E-03     88.5025E-03
            1147     683.228E-06     176.689E-03    -146.740E+06    -245.160E+06    -144.878E+06    -1.34441E+06    -276.541E-03     550.686E-03    -274.145E-03     8.37180E-03    -276.483E-03     550.055E-03    -274.301E-03     8.75883E-03
            1148     1.36647E-03     176.701E-03    -143.398E+06    -235.519E+06    -134.825E+06    -2.87770E+06    -276.572E-03     552.064E-03    -275.492E-03     17.5189E-03    -276.728E-03     551.272E-03    -275.616E-03     17.8731E-03
            1149     2.05013E-03     176.730E-03    -137.915E+06    -220.851E+06    -120.108E+06    -4.26515E+06    -277.205E-03     553.162E-03    -275.958E-03     24.7905E-03    -277.385E-03     552.418E-03    -276.038E-03     25.4263E-03
            1150     2.73017E-03     176.765E-03    -130.735E+06    -202.573E+06    -101.917E+06    -5.72771E+06    -278.166E-03     554.540E-03    -276.373E-03     32.8352E-03    -278.356E-03     553.843E-03    -276.400E-03     33.6178E-03
            1151     3.41210E-03     176.814E-03    -122.463E+06    -182.518E+06    -82.3778E+06    -7.14719E+06    -279.210E-03     556.015E-03    -276.805E-03     40.3051E-03    -279.414E-03     555.374E-03    -276.774E-03     41.2265E-03
            1152     4.09299E-03     176.869E-03    -113.496E+06    -161.449E+06    -62.7581E+06    -8.36805E+06    -280.800E-03     558.085E-03    -277.285E-03     47.0538E-03    -281.015E-03     557.506E-03    -277.200E-03     48.1135E-03
            1153     4.77197E-03     176.937E-03    -104.105E+06    -140.322E+06    -43.8847E+06    -9.53054E+06    -282.910E-03     560.768E-03    -277.858E-03     54.6778E-03    -283.131E-03     560.249E-03    -277.723E-03     55.6882E-03
            1154     5.45017E-03     177.015E-03    -94.5537E+06    -119.683E+06    -26.2754E+06    -10.6161E+06    -285.032E-03     563.550E-03    -278.518E-03     60.7196E-03    -285.262E-03     563.095E-03    -278.339E-03     61.7250E-03
            1155     6.12798E-03     177.100E-03    -85.1430E+06    -99.8210E+06    -10.1308E+06    -11.5723E+06    -287.223E-03     566.462E-03    -279.240E-03     66.0360E-03    -287.460E-03     566.073E-03    -279.022E-03     66.9756E-03
            1156     6.80334E-03     177.196E-03    -76.0169E+06    -80.3552E+06     4.45219E+06    -12.4519E+06    -289.373E-03     569.376E-03    -280.003E-03     71.1724E-03    -289.618E-03     569.053E-03    -279.754E-03     71.9250E-03
            1157     7.47807E-03     177.300E-03    -67.2727E+06    -61.1888E+06     17.3982E+06    -13.2322E+06    -291.299E-03     572.083E-03    -280.784E-03     74.6579E-03    -291.555E-03     571.833E-03    -280.511E-03     75.2608E-03
            1158     8.15143E-03     177.410E-03    -59.0339E+06    -41.2252E+06     29.1002E+06    -13.7628E+06    -293.181E-03     574.751E-03    -281.570E-03     78.5367E-03    -293.458E-03     574.588E-03    -281.280E-03     78.7966E-03
            1159     8.82328E-03     177.528E-03    -51.2362E+06    -18.4340E+06     40.2990E+06    -14.1105E+06    -295.191E-03     577.552E-03    -282.361E-03     82.5642E-03    -295.502E-03     577.499E-03    -282.058E-03     82.2952E-03
            1160     9.49447E-03     177.654E-03    -43.6545E+06     7.56392E+06     51.4453E+06    -14.0218E+06    -296.768E-03     579.915E-03    -283.147E-03     85.6655E-03    -297.128E-03     579.998E-03    -282.838E-03     84.7632E-03
            1161     10.1661E-03     177.789E-03    -35.7418E+06     43.5486E+06     64.3358E+06    -13.5850E+06    -298.168E-03     582.077E-03    -283.909E-03     89.6388E-03    -298.610E-03     582.361E-03    -283.599E-03     87.7874E-03
            1162     10.8358E-03     177.932E-03    -27.6737E+06     78.7891E+06     76.7806E+06    -12.1008E+06    -299.787E-03     584.444E-03    -284.657E-03     92.9063E-03    -300.320E-03     584.936E-03    -284.347E-03     89.9753E-03
            1163     11.5042E-03     178.082E-03    -19.8249E+06     89.6554E+06     85.8634E+06    -8.67583E+06    -301.102E-03     586.518E-03    -285.416E-03     94.7208E-03    -301.692E-03     587.108E-03    -285.088E-03     90.7471E-03
            1164     12.1736E-03     178.237E-03    -12.9123E+06     107.019E+06     103.218E+06    -5.08775E+06    -302.929E-03     589.140E-03    -286.211E-03     97.3657E-03    -303.637E-03     589.883E-03    -285.832E-03     91.9158E-03
            1165     12.8392E-03     178.398E-03    -5.98467E+06     125.848E+06     126.454E+06    -2.19483E+06    -305.526E-03     592.599E-03    -287.073E-03     94.7447E-03    -306.220E-03     593.352E-03    -286.615E-03     89.8233E-03
            1166     687.772E-06     178.323E-03    -145.043E+06    -237.188E+06    -142.749E+06    -1.98888E+06    -272.557E-03     544.049E-03    -271.492E-03     11.0760E-03    -272.495E-03     543.473E-03    -271.651E-03     11.2597E-03
            1167     1.37090E-03     178.346E-03    -141.479E+06    -227.869E+06    -132.998E+06    -3.78968E+06    -274.299E-03     546.659E-03    -272.361E-03     17.3495E-03    -274.455E-03     545.897E-03    -272.490E-03     17.8844E-03
            1168     2.05299E-03     178.370E-03    -135.691E+06    -212.880E+06    -117.539E+06    -5.53844E+06    -274.435E-03     547.493E-03    -273.058E-03     26.1028E-03    -274.617E-03     546.779E-03    -273.140E-03     26.8468E-03
            1169     2.73880E-03     178.412E-03    -128.250E+06    -194.758E+06    -98.9818E+06    -7.27356E+06    -275.531E-03     549.042E-03    -273.510E-03     35.3772E-03    -275.722E-03     548.374E-03    -273.537E-03     36.2159E-03
            1170     3.42150E-03     178.460E-03    -119.698E+06    -174.925E+06    -78.9998E+06    -8.91792E+06    -277.270E-03     551.306E-03    -274.037E-03     42.6504E-03    -277.471E-03     550.690E-03    -274.005E-03     43.7260E-03
            1171     4.10336E-03     178.522E-03    -110.392E+06    -154.446E+06    -59.1412E+06    -10.4253E+06    -279.147E-03     553.808E-03    -274.661E-03     50.1353E-03    -279.355E-03     553.247E-03    -274.573E-03     51.3369E-03
            1172     4.78449E-03     178.593E-03    -100.767E+06    -133.780E+06    -40.3111E+06    -11.6545E+06    -281.379E-03     556.738E-03    -275.358E-03     58.4554E-03    -281.591E-03     556.234E-03    -275.220E-03     59.5950E-03
            1173     5.46431E-03     178.676E-03    -91.2268E+06    -113.621E+06    -22.8765E+06    -12.6502E+06    -284.085E-03     560.231E-03    -276.146E-03     65.0731E-03    -284.304E-03     559.789E-03    -275.964E-03     66.2216E-03
            1174     6.14100E-03     178.768E-03    -81.9048E+06    -94.2762E+06    -6.88829E+06    -13.4704E+06    -286.899E-03     563.928E-03    -277.029E-03     70.8079E-03    -287.123E-03     563.547E-03    -276.808E-03     71.9270E-03
            1175     6.81729E-03     178.868E-03    -72.9285E+06    -75.1346E+06     7.62273E+06    -14.1599E+06    -289.456E-03     567.424E-03    -277.967E-03     76.5930E-03    -289.687E-03     567.107E-03    -277.715E-03     77.5199E-03
            1176     7.49171E-03     178.977E-03    -64.3693E+06    -56.4987E+06     20.5326E+06    -14.7320E+06    -291.872E-03     570.801E-03    -278.929E-03     80.4276E-03    -292.114E-03     570.555E-03    -278.651E-03     81.2154E-03
            1177     8.16542E-03     179.090E-03    -56.1668E+06    -37.1129E+06     32.1772E+06    -15.1611E+06    -294.374E-03     574.283E-03    -279.909E-03     84.0415E-03    -294.635E-03     574.120E-03    -279.613E-03     84.5224E-03
            1178     8.83798E-03     179.215E-03    -48.3133E+06    -15.1128E+06     43.1750E+06    -15.2642E+06    -296.936E-03     577.842E-03    -280.906E-03     88.0594E-03    -297.232E-03     577.788E-03    -280.598E-03     87.9732E-03
            1179     9.50787E-03     179.346E-03    -41.0744E+06     9.81182E+06     54.0011E+06    -15.1988E+06    -299.394E-03     581.314E-03    -281.920E-03     90.4371E-03    -299.737E-03     581.390E-03    -281.605E-03     89.7710E-03
            1180     10.1762E-03     179.481E-03    -34.0565E+06     45.2651E+06     66.5025E+06    -14.9937E+06    -301.208E-03     584.133E-03    -282.925E-03     93.1652E-03    -301.632E-03     584.405E-03    -282.609E-03     91.6380E-03
            1181     10.8444E-03     179.632E-03    -27.5386E+06     76.0767E+06     77.3355E+06    -14.2684E+06    -302.410E-03     586.301E-03    -283.891E-03     95.8902E-03    -302.928E-03     586.767E-03    -283.574E-03     93.2214E-03
            1182     11.5117E-03     179.783E-03    -20.7938E+06     80.2442E+06     83.8096E+06    -11.8727E+06    -304.092E-03     588.932E-03    -284.839E-03     97.2125E-03    -304.662E-03     589.469E-03    -284.506E-03     93.4242E-03
            1183     12.1772E-03     179.941E-03    -13.9581E+06     95.8968E+06     99.7130E+06    -6.86239E+06    -306.343E-03     592.166E-03    -285.823E-03     98.8481E-03    -307.021E-03     592.846E-03    -285.443E-03     93.6315E-03
            1184     12.8426E-03     180.111E-03    -7.76673E+06     118.347E+06     124.070E+06    -2.18923E+06    -308.691E-03     595.559E-03    -286.868E-03     95.4085E-03    -309.359E-03     596.259E-03    -286.408E-03     90.8353E-03
            1185     687.154E-06     179.959E-03    -141.892E+06    -227.087E+06    -140.011E+06    -2.68702E+06    -270.205E-03     538.796E-03    -268.591E-03     13.8537E-03    -270.151E-03     538.257E-03    -268.756E-03     13.8755E-03
            1186     1.37355E-03     179.975E-03    -138.142E+06    -217.481E+06    -129.407E+06    -5.06987E+06    -270.203E-03     539.640E-03    -269.438E-03     19.2077E-03    -270.362E-03     538.919E-03    -269.569E-03     19.7752E-03
            1187     2.06248E-03     180.005E-03    -131.984E+06    -202.963E+06    -113.930E+06    -7.35207E+06    -271.420E-03     541.276E-03    -269.855E-03     28.9567E-03    -271.601E-03     540.598E-03    -269.939E-03     29.7022E-03
            1188     2.74678E-03     180.045E-03    -124.374E+06    -185.332E+06    -95.1331E+06    -9.39102E+06    -273.165E-03     543.575E-03    -270.410E-03     38.4986E-03    -273.353E-03     542.940E-03    -270.436E-03     39.3924E-03
            1189     3.43154E-03     180.103E-03    -115.460E+06    -166.046E+06    -74.8094E+06    -11.1845E+06    -275.218E-03     546.310E-03    -271.092E-03     46.3360E-03    -275.413E-03     545.722E-03    -271.058E-03     47.4870E-03
            1190     4.11473E-03     180.164E-03    -105.932E+06    -146.383E+06    -54.7114E+06    -12.7070E+06    -277.457E-03     549.326E-03    -271.869E-03     53.9039E-03    -277.654E-03     548.786E-03    -271.777E-03     55.2523E-03
            1191     4.79705E-03     180.242E-03    -96.1965E+06    -126.802E+06    -35.8809E+06    -13.9015E+06    -280.020E-03     552.740E-03    -272.719E-03     62.3439E-03    -280.217E-03     552.249E-03    -272.575E-03     63.6904E-03
            1192     5.47704E-03     180.331E-03    -86.4921E+06    -107.648E+06    -18.6256E+06    -14.6365E+06    -282.828E-03     556.471E-03    -273.643E-03     69.1588E-03    -283.026E-03     556.034E-03    -273.454E-03     70.5637E-03
            1193     6.15670E-03     180.429E-03    -77.1146E+06    -88.8267E+06    -2.86660E+06    -15.0931E+06    -285.792E-03     560.430E-03    -274.638E-03     75.4214E-03    -285.992E-03     560.049E-03    -274.412E-03     76.8071E-03
            1194     6.83330E-03     180.536E-03    -68.1986E+06    -70.0344E+06     11.4595E+06    -15.4567E+06    -288.929E-03     564.626E-03    -275.697E-03     81.3796E-03    -289.134E-03     564.307E-03    -275.439E-03     82.6105E-03
            1195     7.50884E-03     180.651E-03    -59.7446E+06    -51.9538E+06     24.2461E+06    -15.7211E+06    -292.399E-03     569.225E-03    -276.826E-03     85.6961E-03    -292.614E-03     568.974E-03    -276.543E-03     86.7819E-03
            1196     8.18105E-03     180.772E-03    -51.8798E+06    -33.0461E+06     35.6680E+06    -15.8087E+06    -295.908E-03     573.935E-03    -278.027E-03     88.8198E-03    -296.138E-03     573.762E-03    -277.726E-03     89.6910E-03
            1197     8.85121E-03     180.901E-03    -44.6906E+06    -12.2970E+06     46.1149E+06    -15.6675E+06    -298.778E-03     578.042E-03    -279.264E-03     92.0896E-03    -299.039E-03     577.968E-03    -278.951E-03     92.5015E-03
            1198     9.52104E-03     181.039E-03    -37.7031E+06     12.1097E+06     56.9061E+06    -15.1035E+06    -301.789E-03     582.301E-03    -280.513E-03     95.0266E-03    -302.100E-03     582.357E-03    -280.191E-03     94.8222E-03
            1199     10.1875E-03     181.183E-03    -31.2405E+06     46.7283E+06     69.1556E+06    -14.1681E+06    -304.504E-03     586.272E-03    -281.768E-03     97.1536E-03    -304.895E-03     586.518E-03    -281.445E-03     96.1589E-03
            1200     10.8534E-03     181.331E-03    -25.2293E+06     74.8751E+06     79.6941E+06    -12.6508E+06    -306.078E-03     589.076E-03    -282.998E-03     98.7706E-03    -306.554E-03     589.498E-03    -282.671E-03     96.7360E-03
            1201     11.5193E-03     181.490E-03    -20.1977E+06     75.7397E+06     85.0978E+06    -11.1467E+06    -308.237E-03     592.441E-03    -284.204E-03     100.287E-03    -308.771E-03     592.927E-03    -283.859E-03     97.0298E-03
            1202     12.1820E-03     181.655E-03    -14.5334E+06     83.5862E+06     97.5091E+06    -8.56646E+06    -310.989E-03     596.426E-03    -285.437E-03     101.897E-03    -311.626E-03     597.027E-03    -285.050E-03     97.0757E-03
            1203     12.8421E-03     181.826E-03    -6.72189E+06     106.987E+06     120.423E+06    -3.54180E+06    -312.210E-03     598.895E-03    -286.684E-03     97.8354E-03    -312.834E-03     599.526E-03    -286.228E-03     93.5710E-03
            1204     688.248E-06     181.573E-03    -136.448E+06    -213.323E+06    -133.692E+06    -3.69596E+06    -266.054E-03     533.252E-03    -267.198E-03     9.77944E-03    -266.013E-03     532.744E-03    -267.360E-03     10.2318E-03
            1205     1.38101E-03     181.594E-03    -131.929E+06    -204.053E+06    -123.329E+06    -6.59895E+06    -266.420E-03     532.897E-03    -266.477E-03     20.4840E-03    -266.577E-03     532.225E-03    -266.606E-03     21.0675E-03
            1206     2.06767E-03     181.627E-03    -126.079E+06    -190.825E+06    -108.386E+06    -9.41532E+06    -268.803E-03     535.560E-03    -266.757E-03     29.1393E-03    -268.977E-03     534.924E-03    -266.840E-03     30.1073E-03
            1207     2.75623E-03     181.673E-03    -118.244E+06    -174.043E+06    -89.5675E+06    -11.8348E+06    -270.406E-03     537.817E-03    -267.411E-03     39.0932E-03    -270.583E-03     537.216E-03    -267.435E-03     40.2744E-03
            1208     3.44260E-03     181.733E-03    -109.389E+06    -155.881E+06    -69.5206E+06    -13.8187E+06    -272.561E-03     540.694E-03    -268.133E-03     48.6261E-03    -272.740E-03     540.132E-03    -268.096E-03     49.9944E-03
            1209     4.12766E-03     181.802E-03    -99.8054E+06    -137.526E+06    -49.6716E+06    -15.3464E+06    -275.763E-03     544.772E-03    -269.009E-03     56.9611E-03    -275.939E-03     544.250E-03    -268.913E-03     58.5667E-03
            1210     4.81016E-03     181.885E-03    -89.9528E+06    -119.490E+06    -31.0314E+06    -16.3847E+06    -278.702E-03     548.725E-03    -270.023E-03     65.4434E-03    -278.872E-03     548.241E-03    -269.874E-03     67.1480E-03
            1211     5.49216E-03     181.980E-03    -80.2575E+06    -101.940E+06    -14.1600E+06    -16.8806E+06    -281.357E-03     552.436E-03    -271.079E-03     72.8478E-03    -281.521E-03     551.993E-03    -270.885E-03     74.6302E-03
            1212     6.17139E-03     182.083E-03    -70.9539E+06    -84.2822E+06     1.08803E+06    -16.7743E+06    -284.683E-03     556.861E-03    -272.177E-03     79.3697E-03    -284.842E-03     556.466E-03    -271.947E-03     81.1974E-03
            1213     6.84986E-03     182.198E-03    -62.3210E+06    -66.4702E+06     15.0347E+06    -16.1874E+06    -288.479E-03     561.845E-03    -273.365E-03     84.8960E-03    -288.637E-03     561.502E-03    -273.104E-03     86.7297E-03
            1214     7.52491E-03     182.320E-03    -54.6402E+06    -48.8015E+06     27.6735E+06    -15.3571E+06    -292.616E-03     567.272E-03    -274.657E-03     89.7856E-03    -292.783E-03     566.992E-03    -274.368E-03     91.5282E-03
            1215     8.19784E-03     182.453E-03    -47.8932E+06    -29.9965E+06     39.0183E+06    -14.6135E+06    -296.847E-03     572.892E-03    -276.046E-03     93.3404E-03    -297.030E-03     572.687E-03    -275.738E-03     94.9400E-03
            1216     8.86810E-03     182.587E-03    -41.8436E+06    -9.65931E+06     49.3197E+06    -13.9467E+06    -300.696E-03     578.199E-03    -277.503E-03     96.5679E-03    -300.911E-03     578.089E-03    -277.182E-03     97.8152E-03
            1217     9.53567E-03     182.732E-03    -36.2701E+06     13.9222E+06     59.6695E+06    -13.4035E+06    -304.051E-03     583.038E-03    -278.987E-03     99.7850E-03    -304.320E-03     583.056E-03    -278.656E-03     100.398E-03
            1218     10.2026E-03     182.885E-03    -30.4327E+06     47.5621E+06     71.7695E+06    -12.6511E+06    -307.236E-03     587.709E-03    -280.473E-03     101.054E-03    -307.580E-03     587.907E-03    -280.139E-03     100.979E-03
            1219     10.8659E-03     183.040E-03    -24.3552E+06     72.8269E+06     82.1594E+06    -11.4205E+06    -310.427E-03     592.399E-03    -281.971E-03     102.144E-03    -310.849E-03     592.755E-03    -281.631E-03     101.073E-03
            1220     11.5267E-03     183.201E-03    -17.9942E+06     73.1263E+06     87.6394E+06    -9.56428E+06    -313.124E-03     596.598E-03    -283.474E-03     104.146E-03    -313.609E-03     597.026E-03    -283.116E-03     101.625E-03
            1221     12.1878E-03     183.375E-03    -11.6605E+06     76.9030E+06     97.3635E+06    -7.18916E+06    -315.153E-03     600.111E-03    -284.958E-03     105.769E-03    -315.743E-03     600.651E-03    -284.566E-03     101.449E-03
            1222     12.8473E-03     183.552E-03    -6.65664E+06     95.3766E+06     115.230E+06    -4.48777E+06    -316.627E-03     603.041E-03    -286.415E-03     100.459E-03    -317.208E-03     603.604E-03    -285.967E-03     96.5695E-03
            1223     691.343E-06     183.177E-03    -126.564E+06    -195.272E+06    -124.593E+06    -4.78627E+06    -263.007E-03     527.727E-03    -264.720E-03     8.55846E-03    -262.996E-03     527.261E-03    -264.876E-03     9.16233E-03
            1224     1.38150E-03     183.205E-03    -123.292E+06    -188.193E+06    -115.561E+06    -8.16117E+06    -265.095E-03     529.097E-03    -264.002E-03     20.7987E-03    -265.245E-03     528.482E-03    -264.128E-03     21.5504E-03
            1225     2.07344E-03     183.242E-03    -117.525E+06    -175.941E+06    -100.647E+06    -11.4030E+06    -266.085E-03     530.573E-03    -264.489E-03     28.7325E-03    -266.248E-03     529.987E-03    -264.566E-03     30.0087E-03
            1226     2.76197E-03     183.290E-03    -110.307E+06    -161.174E+06    -83.1045E+06    -14.0406E+06    -267.561E-03     532.566E-03    -265.005E-03     38.2250E-03    -267.722E-03     532.005E-03    -265.027E-03     39.8489E-03
            1227     3.45154E-03     183.353E-03    -101.928E+06    -144.800E+06    -64.0754E+06    -16.0103E+06    -269.869E-03     535.509E-03    -265.640E-03     48.6311E-03    -270.026E-03     534.976E-03    -265.603E-03     50.4595E-03
            1228     4.13835E-03     183.432E-03    -93.3022E+06    -128.328E+06    -45.3590E+06    -17.2829E+06    -273.431E-03     539.920E-03    -266.489E-03     58.1275E-03    -273.582E-03     539.416E-03    -266.395E-03     60.2067E-03
            1229     4.82280E-03     183.521E-03    -84.8140E+06    -112.468E+06    -27.9025E+06    -17.8176E+06    -276.789E-03     544.326E-03    -267.537E-03     65.7605E-03    -276.927E-03     543.845E-03    -267.390E-03     68.1842E-03
            1230     5.50554E-03     183.620E-03    -76.7448E+06    -96.9028E+06    -11.9852E+06    -17.6384E+06    -279.735E-03     548.396E-03    -268.661E-03     73.7893E-03    -279.864E-03     547.943E-03    -268.469E-03     76.3841E-03
            1231     6.18735E-03     183.733E-03    -69.4053E+06    -81.1298E+06     2.26299E+06    -16.8561E+06    -283.499E-03     553.343E-03    -269.845E-03     81.4842E-03    -283.622E-03     552.926E-03    -269.615E-03     84.1699E-03
            1232     6.86504E-03     183.855E-03    -62.6870E+06    -64.8946E+06     15.2534E+06    -15.5381E+06    -287.764E-03     558.900E-03    -271.136E-03     87.6913E-03    -287.884E-03     558.523E-03    -270.875E-03     90.4893E-03
            1233     7.54118E-03     183.987E-03    -56.3009E+06    -47.7495E+06     27.4542E+06    -14.0026E+06    -292.187E-03     564.724E-03    -272.538E-03     93.7114E-03    -292.316E-03     564.405E-03    -272.250E-03     96.4427E-03
            1234     8.21426E-03     184.128E-03    -50.1960E+06    -28.7564E+06     39.0063E+06    -12.5292E+06    -296.957E-03     571.003E-03    -274.045E-03     97.8977E-03    -297.103E-03     570.755E-03    -273.736E-03     100.528E-03
            1235     8.88428E-03     184.274E-03    -44.3141E+06    -7.76634E+06     49.8789E+06    -11.5390E+06    -301.799E-03     577.457E-03    -275.657E-03     101.187E-03    -301.974E-03     577.303E-03    -275.332E-03     103.519E-03
            1236     9.55133E-03     184.427E-03    -38.1487E+06     18.2005E+06     61.1831E+06    -11.8343E+06    -306.419E-03     583.767E-03    -277.348E-03     104.736E-03    -306.652E-03     583.753E-03    -277.013E-03     106.362E-03
            1237     10.2152E-03     184.586E-03    -31.0208E+06     50.3765E+06     73.0602E+06    -12.8710E+06    -310.605E-03     589.691E-03    -279.086E-03     105.556E-03    -310.908E-03     589.852E-03    -278.749E-03     106.404E-03
            1238     10.8781E-03     184.752E-03    -23.8012E+06     68.7502E+06     81.9365E+06    -11.7441E+06    -314.525E-03     595.387E-03    -280.862E-03     105.685E-03    -314.891E-03     595.677E-03    -280.518E-03     105.458E-03
            1239     11.5378E-03     184.923E-03    -17.7709E+06     69.0404E+06     87.1328E+06    -9.31372E+06    -317.836E-03     600.489E-03    -282.653E-03     106.877E-03    -318.275E-03     600.858E-03    -282.291E-03     105.072E-03
            1240     12.1944E-03     185.099E-03    -11.9995E+06     71.7247E+06     95.9185E+06    -7.30091E+06    -319.836E-03     604.249E-03    -284.413E-03     107.377E-03    -320.380E-03     604.727E-03    -284.020E-03     103.692E-03
            1241     12.8515E-03     185.281E-03    -4.89173E+06     85.3758E+06     111.954E+06    -3.68253E+06    -321.623E-03     607.748E-03    -286.125E-03     101.580E-03    -322.144E-03     608.230E-03    -285.682E-03     98.2197E-03
            1242     695.304E-06     184.787E-03    -115.504E+06    -176.564E+06    -114.173E+06    -4.86855E+06    -263.222E-03     524.344E-03    -261.122E-03     9.43914E-03    -263.247E-03     523.925E-03    -261.270E-03     9.99686E-03
            1243     1.38469E-03     184.810E-03    -113.512E+06    -170.597E+06    -106.255E+06    -8.04742E+06    -263.676E-03     526.056E-03    -262.380E-03     19.6613E-03    -263.820E-03     525.507E-03    -262.500E-03     20.7458E-03
            1244     2.07539E-03     184.848E-03    -109.819E+06    -160.464E+06    -93.9529E+06    -11.1020E+06    -264.116E-03     526.967E-03    -262.852E-03     29.1543E-03    -264.270E-03     526.435E-03    -262.930E-03     30.7202E-03
            1245     2.76778E-03     184.901E-03    -105.061E+06    -147.990E+06    -79.0473E+06    -13.4337E+06    -265.996E-03     529.310E-03    -263.314E-03     37.4415E-03    -266.150E-03     528.797E-03    -263.343E-03     39.5974E-03
            1246     3.45704E-03     184.966E-03    -99.8181E+06    -134.436E+06    -62.7002E+06    -14.7766E+06    -268.109E-03     532.061E-03    -263.951E-03     46.9581E-03    -268.263E-03     531.565E-03    -263.925E-03     49.5497E-03
            1247     4.14604E-03     185.052E-03    -94.3042E+06    -120.131E+06    -45.9167E+06    -15.3151E+06    -270.757E-03     535.470E-03    -264.713E-03     57.0624E-03    -270.907E-03     534.992E-03    -264.632E-03     59.9784E-03
            1248     4.83245E-03     185.149E-03    -88.8284E+06    -106.200E+06    -29.8443E+06    -15.3386E+06    -274.225E-03     539.858E-03    -265.633E-03     64.4371E-03    -274.365E-03     539.392E-03    -265.500E-03     67.8910E-03
            1249     5.51681E-03     185.254E-03    -83.3746E+06    -92.8357E+06    -15.0577E+06    -14.8776E+06    -277.934E-03     544.648E-03    -266.714E-03     72.6553E-03    -278.064E-03     544.196E-03    -266.533E-03     76.4566E-03
            1250     6.19868E-03     185.374E-03    -77.6342E+06    -78.6734E+06    -1.31399E+06    -14.0124E+06    -281.761E-03     549.667E-03    -267.906E-03     81.2479E-03    -281.881E-03     549.237E-03    -267.686E-03     85.2109E-03
            1251     6.87932E-03     185.507E-03    -71.8033E+06    -63.2353E+06     11.3044E+06    -13.1618E+06    -286.024E-03     555.223E-03    -269.198E-03     88.2916E-03    -286.137E-03     554.824E-03    -268.946E-03     92.3912E-03
            1252     7.55642E-03     185.646E-03    -65.7269E+06    -46.0491E+06     23.0734E+06    -12.7329E+06    -291.088E-03     561.705E-03    -270.617E-03     95.4559E-03    -291.204E-03     561.358E-03    -270.340E-03     99.4406E-03
            1253     8.23080E-03     185.800E-03    -58.5885E+06    -27.0865E+06     34.7171E+06    -12.9273E+06    -296.669E-03     568.860E-03    -272.191E-03     100.333E-03    -296.795E-03     568.581E-03    -271.893E-03     104.152E-03
            1254     8.90133E-03     185.956E-03    -50.2716E+06    -5.62779E+06     46.4311E+06    -13.2751E+06    -302.305E-03     576.221E-03    -273.916E-03     103.380E-03    -302.450E-03     576.035E-03    -273.603E-03     106.877E-03
            1255     9.56882E-03     186.121E-03    -41.5474E+06     24.5615E+06     59.6738E+06    -14.3602E+06    -308.196E-03     583.972E-03    -275.775E-03     107.001E-03    -308.398E-03     583.941E-03    -275.452E-03     109.699E-03
            1256     10.2319E-03     186.295E-03    -33.5605E+06     54.4767E+06     70.9219E+06    -15.4840E+06    -314.024E-03     591.775E-03    -277.751E-03     107.873E-03    -314.292E-03     591.913E-03    -277.427E-03     109.662E-03
            1257     10.8900E-03     186.467E-03    -26.4231E+06     60.2744E+06     76.3522E+06    -13.5082E+06    -318.704E-03     598.518E-03    -279.814E-03     107.089E-03    -319.015E-03     598.729E-03    -279.482E-03     107.779E-03
            1258     11.5464E-03     186.649E-03    -19.7663E+06     63.7628E+06     84.4304E+06    -9.81501E+06    -322.169E-03     604.067E-03    -281.898E-03     107.019E-03    -322.552E-03     604.363E-03    -281.539E-03     106.161E-03
            1259     12.2017E-03     186.831E-03    -13.4972E+06     69.4706E+06     95.5462E+06    -8.36183E+06    -324.534E-03     608.472E-03    -283.938E-03     106.612E-03    -325.024E-03     608.884E-03    -283.541E-03     103.825E-03
            1260     12.8532E-03     187.020E-03    -7.79612E+06     73.0898E+06     108.553E+06    -6.33016E+06    -326.130E-03     612.030E-03    -285.901E-03     103.044E-03    -326.614E-03     612.432E-03    -285.452E-03     100.090E-03
            1261     690.224E-06     186.386E-03    -112.281E+06    -166.141E+06    -108.900E+06    -760.120E+03    -262.722E-03     523.066E-03    -260.344E-03     10.9566E-03    -262.771E-03     522.670E-03    -260.485E-03     11.5276E-03
            1262     1.38583E-03     186.411E-03    -112.638E+06    -159.523E+06    -103.464E+06    -1.42135E+06    -262.178E-03     523.762E-03    -261.583E-03     18.2125E-03    -262.338E-03     523.263E-03    -261.706E-03     19.7479E-03
            1263     2.07950E-03     186.450E-03    -113.263E+06    -150.059E+06    -94.2229E+06    -2.62589E+06    -263.623E-03     525.576E-03    -261.954E-03     27.3902E-03    -263.804E-03     525.097E-03    -262.043E-03     29.5954E-03
            1264     2.76949E-03     186.507E-03    -113.316E+06    -138.197E+06    -81.7932E+06    -3.94400E+06    -265.564E-03     528.102E-03    -262.538E-03     35.2221E-03    -265.763E-03     527.647E-03    -262.582E-03     38.2009E-03
            1265     3.45956E-03     186.577E-03    -112.209E+06    -125.313E+06    -67.4533E+06    -5.69063E+06    -267.484E-03     530.729E-03    -263.245E-03     43.3998E-03    -267.695E-03     530.293E-03    -263.238E-03     47.0788E-03
            1266     4.14869E-03     186.664E-03    -109.570E+06    -112.433E+06    -52.3336E+06    -7.43833E+06    -269.079E-03     533.044E-03    -263.965E-03     52.4925E-03    -269.292E-03     532.621E-03    -263.905E-03     56.6882E-03
            1267     4.83782E-03     186.769E-03    -105.301E+06    -99.5004E+06    -37.1067E+06    -8.94393E+06    -271.597E-03     536.313E-03    -264.716E-03     60.0855E-03    -271.800E-03     535.897E-03    -264.604E-03     64.8665E-03
            1268     5.52380E-03     186.882E-03    -99.4702E+06    -86.4887E+06    -22.5171E+06    -10.7089E+06    -275.683E-03     541.310E-03    -265.626E-03     68.4343E-03    -275.867E-03     540.899E-03    -265.469E-03     73.6218E-03
            1269     6.20755E-03     187.010E-03    -91.8944E+06    -73.5807E+06    -8.90256E+06    -12.6728E+06    -279.893E-03     546.622E-03    -266.729E-03     76.7247E-03    -280.049E-03     546.217E-03    -266.533E-03     82.1548E-03
            1270     6.88875E-03     187.149E-03    -82.5871E+06    -59.1679E+06     4.21792E+06    -14.3609E+06    -284.223E-03     552.196E-03    -267.973E-03     83.6523E-03    -284.350E-03     551.808E-03    -267.746E-03     89.2308E-03
            1271     7.56783E-03     187.301E-03    -72.0046E+06    -41.6822E+06     17.2691E+06    -15.8917E+06    -289.657E-03     559.026E-03    -269.369E-03     91.0097E-03    -289.760E-03     558.676E-03    -269.118E-03     96.4271E-03
            1272     8.24228E-03     187.466E-03    -61.4501E+06    -22.9559E+06     29.7911E+06    -17.1313E+06    -295.873E-03     566.834E-03    -270.962E-03     96.1377E-03    -295.965E-03     566.542E-03    -270.690E-03     101.334E-03
            1273     8.91308E-03     187.636E-03    -51.6933E+06    -1.12066E+06     42.1056E+06    -18.4460E+06    -302.524E-03     575.288E-03    -272.764E-03     99.1329E-03    -302.628E-03     575.083E-03    -272.477E-03     103.990E-03
            1274     9.57877E-03     187.814E-03    -42.7341E+06     27.4335E+06     55.0377E+06    -18.5331E+06    -309.276E-03     584.029E-03    -274.753E-03     102.664E-03    -309.424E-03     583.965E-03    -274.456E-03     106.754E-03
            1275     10.2408E-03     188.002E-03    -35.7300E+06     54.0143E+06     65.9098E+06    -16.4272E+06    -315.618E-03     592.509E-03    -276.890E-03     104.073E-03    -315.829E-03     592.595E-03    -276.587E-03     107.227E-03
            1276     10.8989E-03     188.191E-03    -29.4990E+06     56.1223E+06     71.3005E+06    -14.9710E+06    -321.216E-03     600.355E-03    -279.139E-03     103.594E-03    -321.468E-03     600.496E-03    -278.821E-03     105.578E-03
            1277     11.5530E-03     188.377E-03    -21.5517E+06     60.8842E+06     80.9518E+06    -15.4154E+06    -325.298E-03     606.725E-03    -281.427E-03     104.470E-03    -325.622E-03     606.955E-03    -281.079E-03     104.679E-03
            1278     12.2039E-03     188.573E-03    -12.5254E+06     62.8079E+06     92.8765E+06    -13.2772E+06    -327.300E-03     610.956E-03    -283.656E-03     104.462E-03    -327.710E-03     611.276E-03    -283.265E-03     102.599E-03
            1279     12.8567E-03     188.760E-03    -4.11169E+06     57.3385E+06     107.689E+06    -6.61559E+06    -328.413E-03     614.189E-03    -285.776E-03     103.317E-03    -328.825E-03     614.478E-03    -285.315E-03     100.836E-03
            1280     695.704E-06     187.985E-03    -149.774E+06    -170.072E+06    -147.326E+06     2.27875E+06    -261.541E-03     523.586E-03    -262.045E-03     7.87153E-03    -261.732E-03     523.255E-03    -262.318E-03     8.85776E-03
            1281     1.38628E-03     188.008E-03    -146.828E+06    -161.438E+06    -136.690E+06     4.17109E+06    -263.029E-03     525.029E-03    -262.000E-03     15.9017E-03    -263.310E-03     524.619E-03    -262.236E-03     17.9384E-03
            1282     2.07671E-03     188.053E-03    -142.239E+06    -148.934E+06    -120.293E+06     4.76918E+06    -264.531E-03     527.115E-03    -262.584E-03     22.6636E-03    -264.822E-03     526.722E-03    -262.763E-03     25.7353E-03
            1283     2.76860E-03     188.112E-03    -135.627E+06    -134.196E+06    -100.598E+06     3.85540E+06    -265.826E-03     529.055E-03    -263.229E-03     29.7866E-03    -266.119E-03     528.682E-03    -263.341E-03     33.7743E-03
            1284     3.45832E-03     188.188E-03    -127.756E+06    -119.254E+06    -80.0285E+06     2.17014E+06    -267.695E-03     531.604E-03    -263.908E-03     36.9180E-03    -267.979E-03     531.243E-03    -263.950E-03     41.7818E-03
            1285     4.14663E-03     188.277E-03    -119.447E+06    -105.134E+06    -60.2991E+06    -83.9449E+03    -269.207E-03     533.822E-03    -264.615E-03     43.8068E-03    -269.475E-03     533.467E-03    -264.591E-03     49.4475E-03
            1286     4.83477E-03     188.382E-03    -110.863E+06    -90.7544E+06    -42.4194E+06    -3.18030E+06    -270.921E-03     536.229E-03    -265.307E-03     50.7456E-03    -271.167E-03     535.881E-03    -265.227E-03     57.0133E-03
            1287     5.52273E-03     188.504E-03    -102.048E+06    -76.7337E+06    -26.6118E+06    -6.81814E+06    -274.186E-03     540.271E-03    -266.084E-03     57.8065E-03    -274.403E-03     539.930E-03    -265.958E-03     64.5503E-03
            1288     6.20702E-03     188.640E-03    -93.6070E+06    -61.9807E+06    -12.5199E+06    -11.1627E+06    -278.408E-03     545.460E-03    -267.053E-03     64.1964E-03    -278.598E-03     545.135E-03    -266.890E-03     71.3025E-03
            1289     6.88882E-03     188.787E-03    -85.3649E+06    -46.9135E+06     67.5516E+03    -16.6963E+06    -283.072E-03     551.293E-03    -268.221E-03     70.6936E-03    -283.237E-03     550.988E-03    -268.029E-03     77.9102E-03
            1290     7.56700E-03     188.950E-03    -76.2109E+06    -31.8363E+06     11.8994E+06    -21.9449E+06    -288.357E-03     557.933E-03    -269.576E-03     77.8847E-03    -288.493E-03     557.652E-03    -269.360E-03     84.8881E-03
            1291     8.24284E-03     189.127E-03    -65.9683E+06    -15.1822E+06     23.8236E+06    -25.9155E+06    -294.302E-03     565.427E-03    -271.125E-03     83.3530E-03    -294.419E-03     565.187E-03    -270.888E-03     90.0759E-03
            1292     8.91342E-03     189.313E-03    -54.5356E+06     4.25570E+06     36.4303E+06    -28.4060E+06    -301.151E-03     574.036E-03    -272.885E-03     87.8552E-03    -301.257E-03     573.860E-03    -272.630E-03     94.1150E-03
            1293     9.57970E-03     189.505E-03    -42.9496E+06     21.9686E+06     48.4975E+06    -26.9183E+06    -308.349E-03     583.208E-03    -274.859E-03     92.8582E-03    -308.458E-03     583.103E-03    -274.586E-03     98.2753E-03
            1294     10.2409E-03     189.708E-03    -31.8183E+06     41.9703E+06     60.5850E+06    -20.7992E+06    -314.794E-03     591.785E-03    -276.992E-03     95.8228E-03    -314.927E-03     591.781E-03    -276.704E-03     100.244E-03
            1295     10.8987E-03     189.909E-03    -21.6724E+06     59.1931E+06     72.6856E+06    -17.7755E+06    -320.419E-03     599.647E-03    -279.228E-03     96.6799E-03    -320.596E-03     599.748E-03    -278.919E-03     99.8706E-03
            1296     11.5523E-03     190.112E-03    -14.2077E+06     62.2509E+06     82.8873E+06    -17.7669E+06    -324.543E-03     606.044E-03    -281.501E-03     98.6305E-03    -324.784E-03     606.216E-03    -281.156E-03     99.9697E-03
            1297     12.2051E-03     190.310E-03    -9.86292E+06     48.0242E+06     90.5854E+06    -13.5578E+06    -326.919E-03     610.641E-03    -283.722E-03     100.849E-03    -327.242E-03     610.838E-03    -283.325E-03     99.8893E-03
            1298     12.8545E-03     190.506E-03    -6.85891E+06     39.7484E+06     105.494E+06    -7.28415E+06    -327.319E-03     613.142E-03    -285.822E-03     101.677E-03    -327.688E-03     613.321E-03    -285.342E-03     99.6790E-03
            1299     688.808E-06     189.580E-03    -227.439E+06    -169.123E+06    -224.860E+06    -2.99028E+06    -264.461E-03     530.063E-03    -265.602E-03     2.94859E-03    -264.977E-03     529.949E-03    -266.151E-03     4.53699E-03
            1300     1.38185E-03     189.616E-03    -219.499E+06    -158.705E+06    -211.320E+06    -5.99632E+06    -266.097E-03     531.361E-03    -265.265E-03     10.6619E-03    -266.651E-03     531.189E-03    -265.773E-03     13.0148E-03
            1301     2.07154E-03     189.660E-03    -206.127E+06    -143.865E+06    -188.523E+06    -9.73696E+06    -266.983E-03     532.750E-03    -265.767E-03     14.3041E-03    -267.521E-03     532.591E-03    -266.202E-03     17.8478E-03
            1302     2.76004E-03     189.721E-03    -189.194E+06    -128.599E+06    -159.839E+06    -12.8122E+06    -267.906E-03     534.195E-03    -266.289E-03     19.6964E-03    -268.415E-03     534.038E-03    -266.627E-03     24.2669E-03
            1303     3.44876E-03     189.800E-03    -170.182E+06    -113.293E+06    -129.078E+06    -15.4659E+06    -269.513E-03     536.391E-03    -266.878E-03     24.1956E-03    -269.987E-03     536.231E-03    -267.112E-03     29.8482E-03
            1304     4.13650E-03     189.893E-03    -149.666E+06    -98.8190E+06    -99.0062E+06    -17.9412E+06    -271.124E-03     538.684E-03    -267.560E-03     27.2827E-03    -271.558E-03     538.521E-03    -267.695E-03     34.0357E-03
            1305     4.82279E-03     190.000E-03    -128.645E+06    -83.6258E+06    -71.0995E+06    -20.1009E+06    -272.907E-03     541.202E-03    -268.294E-03     32.0451E-03    -273.288E-03     541.033E-03    -268.342E-03     39.5896E-03
            1306     5.50703E-03     190.126E-03    -108.285E+06    -70.1998E+06    -46.0367E+06    -21.6422E+06    -275.197E-03     544.293E-03    -269.095E-03     36.8419E-03    -275.518E-03     544.112E-03    -269.067E-03     45.0291E-03
            1307     6.19091E-03     190.269E-03    -89.1656E+06    -53.9405E+06    -23.3152E+06    -22.6271E+06    -278.064E-03     548.060E-03    -269.995E-03     40.7018E-03    -278.337E-03     547.890E-03    -269.905E-03     49.4335E-03
            1308     6.87165E-03     190.425E-03    -72.0230E+06    -35.0245E+06    -2.41152E+06    -23.8875E+06    -282.048E-03     553.091E-03    -271.043E-03     46.0306E-03    -282.272E-03     552.941E-03    -270.900E-03     54.9627E-03
            1309     7.54975E-03     190.597E-03    -57.8412E+06    -19.0667E+06     15.4180E+06    -26.2802E+06    -286.761E-03     559.031E-03    -272.271E-03     52.5241E-03    -286.935E-03     558.888E-03    -272.082E-03     61.3247E-03
            1310     8.22365E-03     190.784E-03    -46.1297E+06    -2.91350E+06     30.5024E+06    -29.3514E+06    -291.682E-03     565.344E-03    -273.663E-03     58.2288E-03    -291.821E-03     565.221E-03    -273.439E-03     66.7411E-03
            1311     8.89577E-03     190.982E-03    -37.6238E+06     8.38873E+06     41.9794E+06    -29.8361E+06    -297.083E-03     572.288E-03    -275.205E-03     63.6580E-03    -297.196E-03     572.177E-03    -274.953E-03     71.6820E-03
            1312     9.56310E-03     191.192E-03    -31.6973E+06     17.9627E+06     51.5224E+06    -27.8580E+06    -302.918E-03     579.808E-03    -276.890E-03     70.4563E-03    -303.017E-03     579.711E-03    -276.612E-03     77.5844E-03
            1313     10.2268E-03     191.407E-03    -25.8329E+06     31.7119E+06     61.4883E+06    -26.0297E+06    -308.497E-03     587.179E-03    -278.683E-03     77.1701E-03    -308.601E-03     587.129E-03    -278.384E-03     83.0945E-03
            1314     10.8860E-03     191.625E-03    -20.2341E+06     54.2802E+06     75.6538E+06    -21.5761E+06    -313.438E-03     593.982E-03    -280.544E-03     83.7369E-03    -313.594E-03     594.042E-03    -280.215E-03     88.0993E-03
            1315     11.5434E-03     191.837E-03    -15.9990E+06     57.6230E+06     84.4995E+06    -15.8817E+06    -317.800E-03     600.225E-03    -282.425E-03     89.9693E-03    -318.013E-03     600.343E-03    -282.063E-03     92.3086E-03
            1316     12.1980E-03     192.045E-03    -10.7974E+06     35.2475E+06     88.4029E+06    -11.2827E+06    -321.153E-03     605.446E-03    -284.293E-03     96.3871E-03    -321.429E-03     605.554E-03    -283.887E-03     96.0924E-03
            1317     12.8524E-03     192.250E-03    -3.10263E+06     25.2307E+06     107.681E+06    -6.37786E+06    -321.134E-03     607.230E-03    -286.096E-03     99.2881E-03    -321.444E-03     607.307E-03    -285.590E-03     97.6697E-03
            1318     687.643E-06     191.202E-03    -229.761E+06    -139.807E+06    -228.254E+06    -10.8974E+06    -273.637E-03     547.040E-03    -273.403E-03    -681.501E-06    -274.230E-03     547.071E-03    -274.008E-03     659.511E-06
            1319     1.37028E-03     191.235E-03    -222.524E+06    -128.379E+06    -215.677E+06    -20.4590E+06    -273.956E-03     547.682E-03    -273.726E-03     20.7055E-06    -274.590E-03     547.687E-03    -274.295E-03     2.26595E-03
            1320     2.05606E-03     191.282E-03    -213.073E+06    -116.680E+06    -197.159E+06    -28.8911E+06    -273.683E-03     547.678E-03    -273.994E-03    -2.11312E-03    -274.329E-03     547.714E-03    -274.502E-03     1.46111E-03
            1321     2.74177E-03     191.343E-03    -199.420E+06    -104.951E+06    -172.133E+06    -36.4882E+06    -274.576E-03     548.911E-03    -274.334E-03    -2.44676E-03    -275.230E-03     548.970E-03    -274.754E-03     2.24743E-03
            1322     3.42560E-03     191.425E-03    -182.612E+06    -92.9986E+06    -144.455E+06    -43.2392E+06    -275.341E-03     550.193E-03    -274.852E-03    -3.80558E-03    -276.000E-03     550.281E-03    -275.175E-03     2.05416E-03
            1323     4.10799E-03     191.521E-03    -164.117E+06    -82.3554E+06    -117.081E+06    -48.7949E+06    -275.877E-03     551.313E-03    -275.436E-03    -6.37050E-03    -276.543E-03     551.433E-03    -275.664E-03     753.721E-06
            1324     4.78967E-03     191.630E-03    -144.196E+06    -71.6838E+06    -90.7034E+06    -52.6891E+06    -276.776E-03     552.838E-03    -276.062E-03    -5.53933E-03    -277.422E-03     552.971E-03    -276.203E-03     2.51852E-03
            1325     5.47023E-03     191.761E-03    -123.633E+06    -62.6398E+06    -66.0421E+06    -54.9469E+06    -277.647E-03     554.383E-03    -276.735E-03    -3.95691E-03    -278.266E-03     554.524E-03    -276.795E-03     4.95425E-03
            1326     6.14863E-03     191.905E-03    -103.351E+06    -51.9704E+06    -43.3358E+06    -55.2876E+06    -278.480E-03     555.905E-03    -277.425E-03    -2.25112E-03    -279.069E-03     556.062E-03    -277.416E-03     7.44106E-03
            1327     6.82715E-03     192.067E-03    -83.8229E+06    -37.3414E+06    -21.3904E+06    -52.8322E+06    -280.089E-03     558.239E-03    -278.150E-03     1.87351E-03    -280.631E-03     558.410E-03    -278.082E-03     12.0467E-03
            1328     7.50262E-03     192.247E-03    -66.3454E+06    -19.4021E+06     938.104E+03    -48.7913E+06    -282.518E-03     561.480E-03    -278.962E-03     8.09919E-03    -283.003E-03     561.657E-03    -278.832E-03     18.4522E-03
            1329     8.17696E-03     192.440E-03    -52.6140E+06    -5.42901E+06     21.7414E+06    -43.2946E+06    -285.484E-03     565.355E-03    -279.871E-03     15.6322E-03    -285.903E-03     565.507E-03    -279.678E-03     25.8747E-03
            1330     8.84719E-03     192.649E-03    -41.6593E+06     1.78881E+06     40.4670E+06    -36.7590E+06    -288.742E-03     569.604E-03    -280.862E-03     24.1495E-03    -289.084E-03     569.691E-03    -280.602E-03     33.9748E-03
            1331     9.51726E-03     192.864E-03    -32.1422E+06     11.7659E+06     56.1299E+06    -31.0058E+06    -292.025E-03     573.908E-03    -281.883E-03     34.3928E-03    -292.287E-03     573.940E-03    -281.573E-03     43.2803E-03
            1332     10.1856E-03     193.094E-03    -23.7986E+06     26.8471E+06     71.8942E+06    -25.7765E+06    -294.958E-03     577.863E-03    -282.906E-03     44.9272E-03    -295.167E-03     577.880E-03    -282.551E-03     52.4167E-03
            1333     10.8545E-03     193.317E-03    -17.0652E+06     38.1116E+06     86.2478E+06    -18.9997E+06    -298.216E-03     582.135E-03    -283.919E-03     56.0845E-03    -298.402E-03     582.151E-03    -283.518E-03     61.7112E-03
            1334     11.5208E-03     193.547E-03    -10.9350E+06     47.9647E+06     92.4347E+06    -11.9166E+06    -302.161E-03     587.066E-03    -284.905E-03     67.6609E-03    -302.352E-03     587.126E-03    -284.497E-03     71.0963E-03
            1335     12.1839E-03     193.763E-03    -5.71666E+06     30.5942E+06     94.6454E+06    -8.13615E+06    -305.001E-03     590.908E-03    -285.907E-03     80.0354E-03    -305.217E-03     590.943E-03    -285.470E-03     80.8810E-03
            1336     12.8453E-03     193.975E-03    -3.70235E+06     10.8268E+06     108.849E+06    -4.00729E+06    -304.263E-03     591.122E-03    -286.859E-03     89.4064E-03    -304.514E-03     591.085E-03    -286.325E-03     88.6493E-03
            1337     674.380E-06     192.868E-03    -139.303E+06    -85.7397E+06    -134.955E+06    -12.8578E+06    -291.103E-03     580.224E-03    -289.121E-03    -7.92694E-03    -291.423E-03     580.237E-03    -289.469E-03    -6.79270E-03
            1338     1.34956E-03     192.891E-03    -135.829E+06    -80.2092E+06    -127.013E+06    -22.3055E+06    -290.718E-03     581.250E-03    -290.532E-03    -17.7926E-03    -291.149E-03     581.247E-03    -290.854E-03    -15.9953E-03
            1339     2.02463E-03     192.938E-03    -129.373E+06    -72.0831E+06    -111.198E+06    -31.4619E+06    -291.414E-03     582.659E-03    -291.245E-03    -29.9930E-03    -291.885E-03     582.683E-03    -291.509E-03    -27.2488E-03
            1340     2.69791E-03     193.001E-03    -121.760E+06    -64.1203E+06    -93.6448E+06    -40.0866E+06    -290.495E-03     582.455E-03    -291.959E-03    -44.0745E-03    -291.038E-03     582.556E-03    -292.158E-03    -40.1217E-03
            1341     3.37061E-03     193.085E-03    -113.324E+06    -56.7983E+06    -75.7822E+06    -47.5139E+06    -287.731E-03     580.111E-03    -292.380E-03    -55.2907E-03    -288.336E-03     580.288E-03    -292.513E-03    -50.3473E-03
            1342     4.04412E-03     193.178E-03    -104.867E+06    -50.3156E+06    -58.7491E+06    -53.5998E+06    -285.683E-03     578.252E-03    -292.570E-03    -64.0937E-03    -286.355E-03     578.504E-03    -292.638E-03    -58.2596E-03
            1343     4.71724E-03     193.288E-03    -97.3856E+06    -45.4230E+06    -43.7050E+06    -58.4418E+06    -284.020E-03     576.754E-03    -292.734E-03    -70.8497E-03    -284.765E-03     577.083E-03    -292.746E-03    -64.0972E-03
            1344     5.38960E-03     193.417E-03    -90.6969E+06    -41.4945E+06    -30.1011E+06    -62.0630E+06    -281.070E-03     573.913E-03    -292.844E-03    -75.8085E-03    -281.898E-03     574.331E-03    -292.803E-03    -68.0851E-03
            1345     6.06362E-03     193.560E-03    -85.0448E+06    -38.3198E+06    -17.7671E+06    -64.2207E+06    -278.098E-03     570.926E-03    -292.828E-03    -77.2011E-03    -278.987E-03     571.408E-03    -292.738E-03    -68.6766E-03
            1346     6.73597E-03     193.721E-03    -79.8070E+06    -33.1816E+06    -5.62461E+06    -64.4445E+06    -275.617E-03     568.341E-03    -292.725E-03    -74.8560E-03    -276.541E-03     568.868E-03    -292.589E-03    -65.7167E-03
            1347     7.41066E-03     193.899E-03    -73.9528E+06    -23.8175E+06     8.22426E+06    -61.5065E+06    -273.516E-03     566.087E-03    -292.571E-03    -69.2562E-03    -274.451E-03     566.643E-03    -292.388E-03    -59.6642E-03
            1348     8.08432E-03     194.097E-03    -66.5829E+06    -16.4675E+06     24.1243E+06    -55.7385E+06    -271.865E-03     564.242E-03    -292.377E-03    -61.1865E-03    -272.779E-03     564.791E-03    -292.136E-03    -51.2762E-03
            1349     8.76063E-03     194.305E-03    -56.3796E+06    -9.91222E+06     42.3983E+06    -49.3951E+06    -270.817E-03     562.949E-03    -292.132E-03    -49.9095E-03    -271.663E-03     563.445E-03    -291.824E-03    -39.9540E-03
            1350     9.43494E-03     194.529E-03    -45.5520E+06    -1.20551E+06     59.4265E+06    -43.1062E+06    -270.274E-03     562.075E-03    -291.801E-03    -35.1062E-03    -271.008E-03     562.485E-03    -291.436E-03    -25.5621E-03
            1351     10.1108E-03     194.754E-03    -33.7267E+06     7.91497E+06     75.8535E+06    -34.2252E+06    -269.698E-03     561.051E-03    -291.352E-03    -18.0231E-03    -270.298E-03     561.358E-03    -290.936E-03    -9.21143E-03
            1352     10.7863E-03     194.988E-03    -22.6425E+06     16.7331E+06     90.1124E+06    -23.9414E+06    -270.094E-03     560.863E-03    -290.769E-03     3.80656E-03    -270.523E-03     561.031E-03    -290.309E-03     11.2645E-03
            1353     11.4627E-03     195.218E-03    -13.0777E+06     32.9813E+06     101.706E+06    -16.4790E+06    -271.807E-03     561.885E-03    -290.078E-03     29.5675E-03    -272.085E-03     561.959E-03    -289.598E-03     34.9709E-03
            1354     12.1411E-03     195.448E-03    -4.38177E+06     14.5419E+06     104.370E+06    -5.94203E+06    -273.255E-03     562.587E-03    -289.332E-03     55.4087E-03    -273.414E-03     562.494E-03    -288.825E-03     58.2315E-03
            1355     12.8235E-03     195.656E-03    -1.13154E+06     2.75479E+06     108.720E+06     2.89470E+06    -271.349E-03     559.816E-03    -288.467E-03     77.1109E-03    -271.510E-03     559.674E-03    -287.925E-03     77.7332E-03
            1356     656.755E-06     194.589E-03    -34.7827E+06    -38.3386E+06    -31.6108E+06    -8.13303E+06    -323.797E-03     650.255E-03    -326.458E-03    -35.2700E-03    -323.962E-03     650.179E-03    -326.510E-03    -34.2832E-03
            1357     1.31453E-03     194.626E-03    -33.3708E+06    -35.3546E+06    -24.5081E+06    -15.0645E+06    -323.004E-03     648.680E-03    -325.675E-03    -61.5082E-03    -323.243E-03     648.555E-03    -325.698E-03    -60.2354E-03
            1358     1.96504E-03     194.678E-03    -30.0139E+06    -30.7238E+06    -12.8011E+06    -21.3067E+06    -321.164E-03     647.006E-03    -325.842E-03    -86.5082E-03    -321.398E-03     646.909E-03    -325.818E-03    -85.0803E-03
            1359     2.61408E-03     194.743E-03    -27.6355E+06    -26.5648E+06    -692.099E+03    -26.0030E+06    -316.659E-03     642.451E-03    -325.792E-03    -111.617E-03    -316.950E-03     642.420E-03    -325.717E-03    -109.643E-03
            1360     3.26803E-03     194.809E-03    -25.9456E+06    -22.9819E+06     11.3804E+06    -29.6276E+06    -310.195E-03     635.450E-03    -325.255E-03    -133.042E-03    -310.553E-03     635.466E-03    -325.127E-03    -130.641E-03
            1361     3.92539E-03     194.899E-03    -24.3719E+06    -20.1022E+06     23.2330E+06    -32.2448E+06    -304.073E-03     628.543E-03    -324.471E-03    -151.386E-03    -304.498E-03     628.618E-03    -324.290E-03    -148.610E-03
            1362     4.58128E-03     195.005E-03    -23.6181E+06    -18.4579E+06     34.1134E+06    -33.9507E+06    -297.602E-03     621.221E-03    -323.619E-03    -168.676E-03    -298.112E-03     621.376E-03    -323.387E-03    -165.350E-03
            1363     5.24048E-03     195.120E-03    -23.6940E+06    -17.1504E+06     44.2726E+06    -34.9670E+06    -289.620E-03     612.234E-03    -322.614E-03    -183.790E-03    -290.241E-03     612.483E-03    -322.333E-03    -179.814E-03
            1364     5.90248E-03     195.252E-03    -24.2830E+06    -16.8262E+06     53.7231E+06    -35.5923E+06    -280.786E-03     602.189E-03    -321.402E-03    -194.743E-03    -281.510E-03     602.518E-03    -321.074E-03    -190.228E-03
            1365     6.56936E-03     195.402E-03    -24.8940E+06    -16.2408E+06     62.2923E+06    -35.7677E+06    -271.479E-03     591.482E-03    -320.003E-03    -202.495E-03    -272.307E-03     591.903E-03    -319.632E-03    -197.416E-03
            1366     7.23749E-03     195.569E-03    -25.4962E+06    -14.8391E+06     69.7176E+06    -35.4503E+06    -261.645E-03     580.048E-03    -318.403E-03    -205.607E-03    -262.552E-03     580.546E-03    -317.996E-03    -200.081E-03
            1367     7.91062E-03     195.753E-03    -25.5504E+06    -12.5170E+06     76.8920E+06    -34.3004E+06    -251.231E-03     567.779E-03    -316.548E-03    -204.315E-03    -252.193E-03     568.340E-03    -316.109E-03    -198.400E-03
            1368     8.58679E-03     195.951E-03    -26.4061E+06    -8.45171E+06     83.6039E+06    -32.8442E+06    -240.491E-03     554.843E-03    -314.352E-03    -196.754E-03    -241.466E-03     555.436E-03    -313.884E-03    -190.599E-03
            1369     9.27057E-03     196.163E-03    -27.2477E+06    -5.00149E+06     90.2085E+06    -30.1394E+06    -230.350E-03     542.109E-03    -311.759E-03    -180.750E-03    -231.267E-03     542.661E-03    -311.261E-03    -174.620E-03
            1370     9.95994E-03     196.384E-03    -27.7188E+06    -3.35874E+06     94.3622E+06    -27.0131E+06    -221.731E-03     530.479E-03    -308.748E-03    -157.793E-03    -222.544E-03     530.943E-03    -308.231E-03    -151.790E-03
            1371     10.6587E-03     196.605E-03    -26.6273E+06    -1.08229E+06     97.7824E+06    -21.1487E+06    -214.913E-03     520.266E-03    -305.353E-03    -126.230E-03    -215.564E-03     520.582E-03    -304.824E-03    -120.738E-03
            1372     11.3653E-03     196.838E-03    -22.6536E+06     18.8019E+06     110.013E+06    -15.4929E+06    -209.135E-03     510.743E-03    -301.608E-03    -85.5144E-03    -209.615E-03     510.954E-03    -301.052E-03    -81.1597E-03
            1373     12.0769E-03     197.065E-03    -16.4088E+06    -8.51272E+06     101.879E+06    -6.64471E+06    -203.622E-03     501.016E-03    -297.394E-03    -35.5705E-03    -203.866E-03     500.956E-03    -296.848E-03    -32.9844E-03
            1374     12.7910E-03     197.277E-03    -1.81806E+06    -5.71708E+06     91.6659E+06     81.9524E+03    -195.707E-03     488.268E-03    -292.561E-03     22.7506E-03    -195.810E-03     488.146E-03    -292.092E-03     23.6740E-03
            1375     12.7158E-03     98.4356E-03     673.308E+03     36.0004E+06     66.3590E+06     2.91948E+06    -296.467E-03     592.869E-03    -296.403E-03     79.9778E-03    -296.871E-03     593.212E-03    -296.124E-03     74.9054E-03
            1376     12.0453E-03     98.3042E-03    -5.93632E+06     29.4559E+06     59.2963E+06    -3.58232E+06    -298.284E-03     594.730E-03    -296.446E-03     79.8509E-03    -298.726E-03     595.083E-03    -296.184E-03     74.3751E-03
            1377     11.3794E-03     98.1651E-03    -15.9550E+06     21.1034E+06     52.6713E+06    -2.48974E+06    -299.055E-03     595.475E-03    -296.420E-03     76.7394E-03    -299.536E-03     595.821E-03    -296.164E-03     70.9809E-03
            1378     10.7070E-03     98.0347E-03    -19.8879E+06     18.4791E+06     51.5507E+06     3.08888E+06    -298.743E-03     595.115E-03    -296.372E-03     73.7641E-03    -299.257E-03     595.474E-03    -296.112E-03     67.6059E-03
            1379     10.0407E-03     97.9159E-03    -22.3797E+06     15.9495E+06     50.0594E+06     4.10170E+06    -298.260E-03     594.585E-03    -296.325E-03     70.2008E-03    -298.732E-03     594.889E-03    -296.066E-03     64.7785E-03
            1380     9.37109E-03     97.7984E-03    -21.9952E+06     15.4451E+06     50.7632E+06     4.15520E+06    -297.247E-03     593.566E-03    -296.319E-03     65.2319E-03    -297.652E-03     593.800E-03    -296.055E-03     60.8622E-03
            1381     8.70092E-03     97.6850E-03    -25.8713E+06     11.1571E+06     46.4885E+06     3.47866E+06    -296.169E-03     592.533E-03    -296.365E-03     61.0144E-03    -296.530E-03     592.708E-03    -296.111E-03     57.4852E-03
            1382     8.03102E-03     97.5820E-03    -31.2080E+06     4.79066E+06     36.9315E+06     1.59247E+06    -295.973E-03     592.409E-03    -296.435E-03     56.5714E-03    -296.318E-03     592.553E-03    -296.213E-03     53.2071E-03
            1383     7.36087E-03     97.4937E-03    -38.6366E+06    -4.45864E+06     24.2041E+06     1.62808E+06    -296.962E-03     593.420E-03    -296.458E-03     51.5105E-03    -297.289E-03     593.524E-03    -296.274E-03     48.5392E-03
            1384     6.69295E-03     97.4003E-03    -51.6414E+06    -18.9154E+06     7.02781E+06     3.31231E+06    -297.537E-03     593.924E-03    -296.387E-03     46.2048E-03    -297.850E-03     593.966E-03    -296.249E-03     43.9363E-03
            1385     6.02441E-03     97.3219E-03    -53.6479E+06    -23.8200E+06    -4.77898E+06     1.93387E+06    -297.284E-03     593.553E-03    -296.269E-03     40.4256E-03    -297.570E-03     593.578E-03    -296.181E-03     38.2357E-03
            1386     5.35493E-03     97.2539E-03    -54.2903E+06    -30.5951E+06    -17.6371E+06     1.60600E+06    -297.152E-03     593.287E-03    -296.135E-03     35.9336E-03    -297.393E-03     593.277E-03    -296.100E-03     34.2415E-03
            1387     4.68713E-03     97.1897E-03    -62.0859E+06    -47.8976E+06    -34.3097E+06     2.21371E+06    -296.520E-03     592.546E-03    -296.026E-03     31.4085E-03    -296.732E-03     592.467E-03    -296.038E-03     30.2470E-03
            1388     4.01664E-03     97.1370E-03    -68.4177E+06    -60.3880E+06    -45.9077E+06     657.083E+03    -295.852E-03     591.859E-03    -296.006E-03     26.7817E-03    -296.049E-03     591.731E-03    -296.049E-03     25.9069E-03
            1389     3.34664E-03     97.0912E-03    -69.0492E+06    -62.7732E+06    -51.1223E+06     1.44724E+06    -295.828E-03     591.874E-03    -296.046E-03     22.0445E-03    -296.005E-03     591.732E-03    -296.111E-03     21.5364E-03
            1390     2.67658E-03     97.0557E-03    -71.0066E+06    -68.5314E+06    -60.8340E+06     2.00249E+06    -295.926E-03     591.999E-03    -296.073E-03     17.5182E-03    -296.081E-03     591.837E-03    -296.175E-03     17.2355E-03
            1391     2.00709E-03     97.0260E-03    -73.9917E+06    -74.0100E+06    -68.0421E+06     925.848E+03    -295.960E-03     592.079E-03    -296.119E-03     13.6404E-03    -296.103E-03     591.896E-03    -296.244E-03     13.4041E-03
            1392     1.33843E-03     97.0071E-03    -79.6739E+06    -82.2758E+06    -75.3253E+06     1.35304E+06    -296.214E-03     592.352E-03    -296.138E-03     10.0092E-03    -296.343E-03     592.134E-03    -296.279E-03     9.79665E-03
            1393     668.972E-06     96.9919E-03    -74.8710E+06    -85.9043E+06    -73.7579E+06     1.53889E+06    -295.937E-03     592.405E-03    -296.469E-03     4.99889E-03    -295.965E-03     592.199E-03    -296.604E-03     5.05284E-03
            1394     12.7157E-03     96.7298E-03    -3.81081E+06     32.0063E+06     61.8123E+06     1.89336E+06    -297.714E-03     594.095E-03    -296.380E-03     77.0353E-03    -298.092E-03     594.393E-03    -296.112E-03     72.4648E-03
            1395     12.0473E-03     96.5812E-03    -9.56000E+06     25.3900E+06     55.3692E+06     1.65208E+06    -298.863E-03     595.227E-03    -296.365E-03     76.7895E-03    -299.301E-03     595.561E-03    -296.111E-03     71.3809E-03
            1396     11.3778E-03     96.4499E-03    -9.53252E+06     26.7356E+06     58.6618E+06    -290.197E+03    -298.141E-03     594.496E-03    -296.355E-03     74.5630E-03    -298.615E-03     594.861E-03    -296.087E-03     68.5464E-03
            1397     10.7112E-03     96.3219E-03    -20.3778E+06     16.5311E+06     49.0489E+06     1.34292E+06    -297.320E-03     593.669E-03    -296.349E-03     73.1285E-03    -297.816E-03     594.008E-03    -296.098E-03     67.1939E-03
            1398     10.0398E-03     96.1983E-03    -24.2325E+06     12.4320E+06     44.9841E+06     3.72487E+06    -297.759E-03     594.117E-03    -296.358E-03     70.8492E-03    -298.216E-03     594.401E-03    -296.116E-03     65.6893E-03
            1399     9.37277E-03     96.0817E-03    -19.0713E+06     17.6690E+06     49.5407E+06     2.79286E+06    -297.759E-03     594.123E-03    -296.364E-03     67.5528E-03    -298.165E-03     594.380E-03    -296.114E-03     62.9552E-03
            1400     8.70285E-03     95.9767E-03    -22.2026E+06     13.6168E+06     45.1560E+06    -928.984E+03    -297.000E-03     593.367E-03    -296.367E-03     62.0525E-03    -297.362E-03     593.567E-03    -296.129E-03     58.1558E-03
            1401     8.03008E-03     95.8714E-03    -32.7981E+06     3.20589E+06     35.0963E+06     1.12752E+06    -297.040E-03     593.410E-03    -296.370E-03     55.4526E-03    -297.380E-03     593.543E-03    -296.151E-03     52.2867E-03
            1402     7.36191E-03     95.7736E-03    -43.1681E+06    -8.05710E+06     22.9256E+06     5.21142E+06    -297.701E-03     594.010E-03    -296.309E-03     50.4045E-03    -298.042E-03     594.103E-03    -296.120E-03     47.4927E-03
            1403     6.69381E-03     95.6851E-03    -46.1174E+06    -14.5698E+06     10.7434E+06     3.48158E+06    -297.308E-03     593.503E-03    -296.194E-03     45.7659E-03    -297.611E-03     593.559E-03    -296.053E-03     43.3276E-03
            1404     6.02375E-03     95.6085E-03    -50.1251E+06    -22.5212E+06    -5.96587E+06     587.838E+03    -296.744E-03     592.828E-03    -296.083E-03     40.8964E-03    -297.008E-03     592.851E-03    -296.008E-03     38.8675E-03
            1405     5.35571E-03     95.5364E-03    -52.8641E+06    -30.7282E+06    -18.1756E+06       3.255E+06    -296.587E-03     592.597E-03    -296.010E-03     36.9087E-03    -296.823E-03     592.589E-03    -295.980E-03     35.1493E-03
            1406     4.68562E-03     95.4777E-03    -57.9454E+06    -44.1211E+06    -28.8036E+06     4.48476E+06    -296.248E-03     592.217E-03    -295.969E-03     32.3852E-03    -296.456E-03     592.147E-03    -295.965E-03     31.1673E-03
            1407     4.01653E-03     95.4241E-03    -63.0213E+06    -56.0891E+06    -40.6253E+06     2.98871E+06    -296.032E-03     591.975E-03    -295.944E-03     27.5198E-03    -296.215E-03     591.854E-03    -295.974E-03     26.7567E-03
            1408     3.34699E-03     95.3789E-03    -67.1009E+06    -62.6189E+06    -50.7786E+06     1.94941E+06    -295.985E-03     591.911E-03    -295.926E-03     22.2760E-03    -296.154E-03     591.767E-03    -295.992E-03     21.7534E-03
            1409     2.67809E-03     95.3414E-03    -67.7029E+06    -65.4501E+06    -56.4473E+06     1.55402E+06    -295.933E-03     591.852E-03    -295.918E-03     16.9697E-03    -296.083E-03     591.693E-03    -296.007E-03     16.6989E-03
            1410     2.00820E-03     95.3144E-03    -69.0057E+06    -70.9085E+06    -65.5582E+06     58.8757E+03    -295.941E-03     591.836E-03    -295.895E-03     12.3931E-03    -296.065E-03     591.657E-03    -296.020E-03     12.1874E-03
            1411     1.33786E-03     95.2911E-03    -73.6883E+06    -79.8053E+06    -75.9140E+06    -1.52179E+06    -295.907E-03     591.793E-03    -295.886E-03     8.32471E-03    -296.007E-03     591.578E-03    -296.043E-03     8.10068E-03
            1412     669.138E-06     95.2783E-03    -77.2093E+06    -88.8630E+06    -77.8046E+06    -1.87076E+06    -295.599E-03     591.953E-03    -296.353E-03     4.34590E-03    -295.629E-03     591.745E-03    -296.501E-03     4.30136E-03
            1413     12.7210E-03     95.0136E-03    -6.48828E+06     30.7271E+06     63.0897E+06    -2.34438E+06    -299.151E-03     595.414E-03    -296.263E-03     76.8427E-03    -299.528E-03     595.695E-03    -295.983E-03     72.4219E-03
            1414     12.0516E-03     94.8677E-03    -3.17606E+06     33.5035E+06     66.7004E+06     4.49696E+06    -297.895E-03     594.152E-03    -296.257E-03     78.7615E-03    -298.331E-03     594.503E-03    -295.967E-03     73.4525E-03
            1415     11.3819E-03     94.7371E-03    -8.90355E+06     26.4207E+06     57.8669E+06     3.28512E+06    -296.861E-03     593.133E-03    -296.272E-03     75.4190E-03    -297.333E-03     593.499E-03    -296.008E-03     69.4835E-03
            1416     10.7084E-03     94.6096E-03    -15.2945E+06     19.2625E+06     48.8699E+06    -2.95456E+06    -296.586E-03     592.906E-03    -296.320E-03     73.8071E-03    -297.048E-03     593.240E-03    -296.081E-03     68.1379E-03
            1417     10.0392E-03     94.4853E-03    -13.1545E+06     21.0658E+06     50.9089E+06     1.19892E+06    -296.613E-03     593.022E-03    -296.408E-03     70.6235E-03    -297.029E-03     593.318E-03    -296.165E-03     65.6126E-03
            1418     9.36622E-03     94.3673E-03    -23.5855E+06     11.1663E+06     41.2256E+06     2.34874E+06    -297.559E-03     593.996E-03    -296.437E-03     66.3269E-03    -297.967E-03     594.240E-03    -296.213E-03     61.6848E-03
            1419     8.69863E-03     94.2572E-03    -35.4950E+06    -1.15469E+06     29.9381E+06     3.17419E+06    -298.801E-03     595.166E-03    -296.365E-03     61.2085E-03    -299.198E-03     595.347E-03    -296.163E-03     56.9965E-03
            1420     8.03469E-03     94.1566E-03    -36.0285E+06    -2.63741E+06     26.7449E+06     7.37346E+06    -298.586E-03     594.822E-03    -296.236E-03     56.1401E-03    -298.926E-03     594.947E-03    -296.046E-03     52.9873E-03
            1421     7.36539E-03     94.0582E-03    -38.6902E+06    -7.58172E+06     16.4352E+06     3.57782E+06    -297.481E-03     593.586E-03    -296.105E-03     51.6135E-03    -297.784E-03     593.676E-03    -295.955E-03     48.8862E-03
            1422     6.69496E-03     93.9723E-03    -42.4273E+06    -13.9009E+06     5.62898E+06    -1.25868E+06    -296.907E-03     592.927E-03    -296.020E-03     46.4247E-03    -297.190E-03     592.994E-03    -295.910E-03     43.7983E-03
            1423     6.02652E-03     93.8934E-03    -46.0417E+06    -18.0249E+06    -598.149E+03     588.318E+03    -296.387E-03     592.371E-03    -295.984E-03     40.8166E-03    -296.640E-03     592.399E-03    -295.894E-03     38.9415E-03
            1424     5.35531E-03     93.8254E-03    -51.6675E+06    -28.3074E+06    -10.2568E+06     2.02911E+06    -295.926E-03     591.907E-03    -295.981E-03     36.4938E-03    -296.170E-03     591.897E-03    -295.917E-03     34.7430E-03
            1425     4.68590E-03     93.7629E-03    -54.2642E+06    -40.9512E+06    -22.1697E+06     3.08585E+06    -296.217E-03     592.181E-03    -295.964E-03     31.6009E-03    -296.423E-03     592.113E-03    -295.936E-03     30.3261E-03
            1426     4.01653E-03     93.7108E-03    -59.1122E+06    -52.0181E+06    -34.4267E+06     3.54856E+06    -296.454E-03     592.344E-03    -295.890E-03     26.4555E-03    -296.631E-03     592.227E-03    -295.901E-03     25.7769E-03
            1427     3.34761E-03     93.6646E-03    -63.0794E+06    -58.1687E+06    -43.4873E+06     1.25637E+06    -296.160E-03     591.961E-03    -295.801E-03     21.9524E-03    -296.327E-03     591.824E-03    -295.842E-03     21.3165E-03
            1428     2.67775E-03     93.6290E-03    -67.4965E+06    -64.8129E+06    -53.2469E+06     266.918E+03    -296.001E-03     591.715E-03    -295.714E-03     17.4606E-03    -296.158E-03     591.557E-03    -295.789E-03     16.9442E-03
            1429     2.00917E-03     93.5996E-03    -73.3497E+06    -72.6880E+06    -63.2707E+06     2.71366E+06    -296.034E-03     591.623E-03    -295.589E-03     13.3245E-03    -296.183E-03     591.439E-03    -295.693E-03     13.0329E-03
            1430     1.34103E-03     93.5798E-03    -71.0477E+06    -74.6656E+06    -65.9601E+06     3.82030E+06    -295.759E-03     591.200E-03    -295.441E-03     8.87820E-03    -295.866E-03     590.989E-03    -295.559E-03     8.77189E-03
            1431     669.991E-06     93.5667E-03    -73.2306E+06    -86.0119E+06    -74.6006E+06     2.20042E+06    -294.900E-03     590.842E-03    -295.942E-03     5.42542E-03    -294.915E-03     590.635E-03    -296.084E-03     5.30113E-03
            1432     12.7190E-03     93.2982E-03    -3.88099E+06     32.4748E+06     63.6504E+06     1.04753E+06    -297.866E-03     594.101E-03    -296.235E-03     78.8099E-03    -298.256E-03     594.407E-03    -295.958E-03     74.2015E-03
            1433     12.0493E-03     93.1551E-03    -7.96129E+06     27.4540E+06     57.0540E+06    -126.355E+03    -297.078E-03     593.343E-03    -296.266E-03     82.2125E-03    -297.533E-03     593.703E-03    -296.009E-03     76.7843E-03
            1434     11.3780E-03     93.0251E-03    -9.35497E+06     25.3740E+06     54.3471E+06     321.915E+03    -297.680E-03     593.992E-03    -296.311E-03     77.8372E-03    -298.138E-03     594.349E-03    -296.063E-03     72.1860E-03
            1435     10.7109E-03     92.8975E-03    -14.7550E+06     19.8858E+06     49.5289E+06    -591.220E+03    -298.073E-03     594.384E-03    -296.311E-03     73.2201E-03    -298.544E-03     594.730E-03    -296.071E-03     67.3207E-03
            1436     10.0395E-03     92.7736E-03    -17.7847E+06     15.8328E+06     45.9021E+06     1.06854E+06    -297.734E-03     594.026E-03    -296.292E-03     68.0325E-03    -298.165E-03     594.317E-03    -296.060E-03     62.7135E-03
            1437     9.37242E-03     92.6537E-03    -23.9542E+06     8.69671E+06     38.7136E+06     5.23753E+06    -297.482E-03     593.747E-03    -296.265E-03     62.8046E-03    -297.871E-03     593.970E-03    -296.049E-03     58.3099E-03
            1438     8.70271E-03     92.5395E-03    -31.3283E+06     462.457E+03     29.1869E+06     5.40586E+06    -297.551E-03     593.772E-03    -296.221E-03     59.0843E-03    -297.916E-03     593.942E-03    -296.030E-03     55.1265E-03
            1439     8.03137E-03     92.4373E-03    -31.6006E+06    -1.20744E+06     23.7957E+06     2.80433E+06    -297.828E-03     593.977E-03    -296.148E-03     55.7034E-03    -298.148E-03     594.111E-03    -295.982E-03     52.3291E-03
            1440     7.36304E-03     92.3455E-03    -32.5006E+06    -3.66180E+06     17.4078E+06     610.946E+03    -297.310E-03     593.376E-03    -296.066E-03     51.9783E-03    -297.596E-03     593.484E-03    -295.927E-03     48.9995E-03
            1441     6.69501E-03     92.2566E-03    -37.2386E+06    -9.46225E+06     8.79166E+06    -921.723E+03    -296.705E-03     592.719E-03    -296.014E-03     47.8026E-03    -296.976E-03     592.799E-03    -295.902E-03     45.1340E-03
            1442     6.02493E-03     92.1809E-03    -44.3415E+06    -17.8211E+06    -1.60971E+06     1.50700E+06    -296.690E-03     592.657E-03    -295.967E-03     41.9100E-03    -296.939E-03     592.690E-03    -295.885E-03     39.9148E-03
            1443     5.35654E-03     92.1128E-03    -55.0612E+06    -33.6297E+06    -16.1438E+06    -2.10077E+06    -296.610E-03     592.504E-03    -295.894E-03     36.7503E-03    -296.856E-03     592.482E-03    -295.846E-03     34.9384E-03
            1444     4.68672E-03     92.0498E-03    -58.7667E+06    -45.5727E+06    -24.1897E+06    -2.64730E+06    -296.445E-03     592.266E-03    -295.821E-03     31.7911E-03    -296.667E-03     592.188E-03    -295.791E-03     30.2785E-03
            1445     4.01781E-03     91.9959E-03    -54.1910E+06    -46.7033E+06    -26.5578E+06     2.13205E+06    -296.214E-03     591.960E-03    -295.746E-03     26.2418E-03    -296.389E-03     591.855E-03    -295.733E-03     25.3666E-03
            1446     3.34825E-03     91.9524E-03    -58.7381E+06    -54.5374E+06    -39.3128E+06     1.66293E+06    -295.789E-03     591.459E-03    -295.671E-03     21.8573E-03    -295.946E-03     591.329E-03    -295.703E-03     21.2427E-03
            1447     2.67908E-03     91.9157E-03    -68.7166E+06    -67.1612E+06    -55.3282E+06     2.43008E+06    -295.642E-03     591.272E-03    -295.630E-03     18.1773E-03    -295.801E-03     591.110E-03    -295.710E-03     17.6944E-03
            1448     2.00873E-03     91.8877E-03    -69.5576E+06    -70.1554E+06    -60.4968E+06     2.24738E+06    -295.687E-03     591.302E-03    -295.615E-03     13.9575E-03    -295.827E-03     591.124E-03    -295.715E-03     13.6676E-03
            1449     1.33799E-03     91.8665E-03    -71.8571E+06    -73.8277E+06    -64.6868E+06     2.00865E+06    -295.750E-03     591.313E-03    -295.562E-03     9.53275E-03    -295.868E-03     591.109E-03    -295.675E-03     9.37965E-03
            1450     669.946E-06     91.8563E-03    -69.9042E+06    -76.5222E+06    -65.5237E+06     3.36390E+06    -295.592E-03     591.150E-03    -295.558E-03     5.84689E-03    -295.619E-03     590.972E-03    -295.674E-03     5.64767E-03
            1451     12.7195E-03     91.5857E-03    -671.997E+03     34.2766E+06     63.4319E+06     1.31259E+06    -298.318E-03     594.626E-03    -296.307E-03     78.2301E-03    -298.735E-03     594.977E-03    -296.039E-03     72.8590E-03
            1452     12.0468E-03     91.4473E-03    -8.10706E+06     25.4971E+06     50.9495E+06    -3.05145E+06    -297.424E-03     593.714E-03    -296.291E-03     79.4186E-03    -297.893E-03     594.097E-03    -296.061E-03     73.4262E-03
            1453     11.3779E-03     91.3067E-03    -11.1819E+06     21.3890E+06     45.5388E+06     1.02181E+06    -297.815E-03     594.123E-03    -296.308E-03     76.0848E-03    -298.239E-03     594.451E-03    -296.095E-03     70.8370E-03
            1454     10.7091E-03     91.1788E-03    -12.0770E+06     20.9827E+06     47.2685E+06     3.27588E+06    -299.205E-03     595.494E-03    -296.289E-03     73.8362E-03    -299.650E-03     595.834E-03    -296.066E-03     68.2160E-03
            1455     10.0439E-03     91.0582E-03    -23.8571E+06     10.1949E+06     40.4379E+06     509.475E+03    -299.483E-03     595.670E-03    -296.187E-03     70.6702E-03    -299.935E-03     595.957E-03    -295.965E-03     65.3232E-03
            1456     9.37404E-03     90.9375E-03    -25.3701E+06     8.04281E+06     39.5498E+06     2.88430E+06    -298.254E-03     594.348E-03    -296.094E-03     65.8283E-03    -298.657E-03     594.574E-03    -295.871E-03     61.2881E-03
            1457     8.70378E-03     90.8314E-03    -20.7174E+06     10.9520E+06     38.9642E+06     3.09081E+06    -297.236E-03     593.277E-03    -296.042E-03     60.4806E-03    -297.572E-03     593.466E-03    -295.833E-03     56.6817E-03
            1458     8.03460E-03     90.7220E-03    -27.2574E+06     3.16284E+06     27.9832E+06     1.13726E+06    -296.743E-03     592.748E-03    -296.005E-03     54.1983E-03    -297.048E-03     592.886E-03    -295.830E-03     50.8678E-03
            1459     7.36529E-03     90.6309E-03    -32.1760E+06    -2.41597E+06     20.4404E+06     364.928E+03    -296.458E-03     592.451E-03    -295.993E-03     49.8702E-03    -296.756E-03     592.567E-03    -295.840E-03     46.6206E-03
            1460     6.69391E-03     90.5447E-03    -37.4280E+06    -9.60178E+06     10.0262E+06     3.47493E+06    -296.475E-03     592.442E-03    -295.967E-03     45.8255E-03    -296.747E-03     592.518E-03    -295.849E-03     43.1663E-03
            1461     6.02490E-03     90.4656E-03    -45.7474E+06    -21.0443E+06    -6.18076E+06     3.85298E+06    -296.611E-03     592.511E-03    -295.900E-03     40.2856E-03    -296.855E-03     592.536E-03    -295.834E-03     38.2597E-03
            1462     5.35600E-03     90.3968E-03    -48.7746E+06    -30.7098E+06    -16.6471E+06    -1.52241E+06    -296.690E-03     592.507E-03    -295.817E-03     36.2646E-03    -296.906E-03     592.489E-03    -295.785E-03     34.5182E-03
            1463     4.68800E-03     90.3371E-03    -54.1014E+06    -44.6257E+06    -26.2205E+06    -4.23808E+06    -296.332E-03     592.073E-03    -295.741E-03     32.7195E-03    -296.528E-03     591.995E-03    -295.729E-03     31.2566E-03
            1464     4.01810E-03     90.2825E-03    -56.7293E+06    -51.4451E+06    -32.9386E+06    -1.50797E+06    -295.806E-03     591.513E-03    -295.707E-03     27.7671E-03    -295.981E-03     591.400E-03    -295.715E-03     26.7423E-03
            1465     3.34830E-03     90.2411E-03    -59.9880E+06    -56.6343E+06    -41.4051E+06     2.39491E+06    -295.702E-03     591.399E-03    -295.697E-03     22.8152E-03    -295.859E-03     591.262E-03    -295.735E-03     22.2683E-03
            1466     2.67759E-03     90.2040E-03    -63.8465E+06    -63.1981E+06    -51.0534E+06     1.86211E+06    -295.762E-03     591.438E-03    -295.676E-03     18.3402E-03    -295.906E-03     591.280E-03    -295.747E-03     17.9819E-03
            1467     2.00861E-03     90.1746E-03    -65.5272E+06    -68.1127E+06    -59.7545E+06    -234.752E+03    -295.566E-03     591.238E-03    -295.672E-03     13.3222E-03    -295.691E-03     591.064E-03    -295.777E-03     13.0322E-03
            1468     1.33978E-03     90.1553E-03    -66.5429E+06    -71.9600E+06    -66.3071E+06    -605.285E+03    -295.595E-03     591.321E-03    -295.727E-03     9.15876E-03    -295.691E-03     591.127E-03    -295.857E-03     9.00988E-03
            1469     669.148E-06     90.1406E-03    -69.0759E+06    -74.5672E+06    -68.2068E+06    -1.42706E+06    -295.927E-03     591.677E-03    -295.750E-03     5.56556E-03    -295.952E-03     591.509E-03    -295.883E-03     5.40991E-03
            1470     12.7160E-03     89.8653E-03    -1.45560E+06     31.8530E+06     58.6301E+06    -1.54234E+06    -299.024E-03     595.350E-03    -296.325E-03     76.6028E-03    -299.441E-03     595.705E-03    -296.076E-03     70.9827E-03
            1471     12.0520E-03     89.7335E-03    -6.48302E+06     26.2188E+06     51.3401E+06    -1.61865E+06    -299.064E-03     595.322E-03    -296.257E-03     79.3138E-03    -299.550E-03     595.728E-03    -296.029E-03     72.8713E-03
            1472     11.3806E-03     89.5972E-03    -12.2563E+06     19.4523E+06     44.9542E+06     4.80744E+06    -298.012E-03     594.233E-03    -296.221E-03     75.5626E-03    -298.416E-03     594.533E-03    -296.007E-03     70.7243E-03
            1473     10.7091E-03     89.4636E-03    -17.4859E+06     13.9084E+06     40.1404E+06     5.12192E+06    -297.999E-03     594.210E-03    -296.211E-03     72.3786E-03    -298.408E-03     594.490E-03    -296.005E-03     67.5493E-03
            1474     10.0390E-03     89.3352E-03    -19.3386E+06     12.4244E+06     38.4054E+06    -486.476E+03    -298.485E-03     594.659E-03    -296.173E-03     69.8830E-03    -298.920E-03     594.958E-03    -295.971E-03     64.3858E-03
            1475     9.37212E-03     89.2260E-03    -18.8663E+06     13.3550E+06     40.1942E+06    -3.25316E+06    -298.646E-03     594.752E-03    -296.106E-03     66.6183E-03    -299.043E-03     595.013E-03    -295.897E-03     61.6477E-03
            1476     8.70495E-03     89.1111E-03     -21.878E+06     10.9608E+06     39.8446E+06    -1.05757E+06    -298.301E-03     594.324E-03    -296.023E-03     62.5690E-03    -298.658E-03     594.527E-03    -295.808E-03     58.4807E-03
            1477     8.03665E-03     89.0122E-03    -28.4748E+06     3.33163E+06     31.1296E+06     980.237E+03    -297.222E-03     593.162E-03    -295.940E-03     56.6359E-03    -297.548E-03     593.309E-03    -295.748E-03     53.2056E-03
            1478     7.36506E-03     88.9189E-03    -35.3197E+06    -5.58953E+06     18.5562E+06     815.776E+03    -296.666E-03     592.546E-03    -295.880E-03     51.2895E-03    -296.963E-03     592.645E-03    -295.728E-03     48.3607E-03
            1479     6.69739E-03     88.8306E-03    -39.5368E+06    -12.3579E+06     8.56414E+06     3.47828E+06    -296.364E-03     592.210E-03    -295.845E-03     46.4430E-03    -296.637E-03     592.274E-03    -295.727E-03     43.9255E-03
            1480     6.02771E-03     88.7534E-03    -40.2071E+06    -16.5783E+06    -1.55353E+06     5.08529E+06    -295.740E-03     591.577E-03    -295.837E-03     41.7057E-03    -295.969E-03     591.609E-03    -295.762E-03     39.8263E-03
            1481     5.35710E-03     88.6844E-03    -42.7700E+06    -22.6741E+06    -14.2352E+06     5.03454E+06    -295.666E-03     591.523E-03    -295.857E-03     37.7530E-03    -295.861E-03     591.527E-03    -295.833E-03     36.4057E-03
            1482     4.68613E-03     88.6229E-03    -49.5510E+06    -38.8430E+06    -27.8237E+06     1.66215E+06    -295.849E-03     591.739E-03    -295.891E-03     33.5291E-03    -296.022E-03     591.679E-03    -295.902E-03     32.4082E-03
            1483     4.01658E-03     88.5718E-03    -60.5269E+06    -57.5446E+06    -41.5061E+06    -1.85117E+06    -295.979E-03     591.887E-03    -295.909E-03     28.6003E-03    -296.148E-03     591.758E-03    -295.945E-03     27.6629E-03
            1484     3.34670E-03     88.5275E-03    -61.4773E+06    -59.2508E+06    -44.4012E+06    -338.531E+03    -296.249E-03     592.141E-03    -295.892E-03     23.3994E-03    -296.405E-03     591.998E-03    -295.939E-03     22.8495E-03
            1485     2.67901E-03     88.4901E-03    -59.1759E+06    -59.4149E+06    -47.3160E+06     303.629E+03    -296.084E-03     591.920E-03    -295.836E-03     18.4866E-03    -296.213E-03     591.766E-03    -295.901E-03     18.2209E-03
            1486     2.00895E-03     88.4631E-03    -65.2530E+06    -67.4526E+06    -57.6745E+06     524.403E+03    -295.845E-03     591.633E-03    -295.788E-03     13.9612E-03    -295.971E-03     591.457E-03    -295.884E-03     13.7841E-03
            1487     1.33832E-03     88.4425E-03    -67.4404E+06    -70.2018E+06    -61.0778E+06     490.630E+03    -295.914E-03     591.663E-03    -295.749E-03     9.58751E-03    -296.024E-03     591.470E-03    -295.855E-03     9.44918E-03
            1488     669.525E-06     88.4281E-03    -69.5224E+06    -74.9313E+06    -67.6223E+06     401.769E+03    -295.557E-03     591.502E-03    -295.944E-03     5.02141E-03    -295.590E-03     591.323E-03    -296.073E-03     4.92644E-03
            1489     12.7189E-03     88.1512E-03    -3.98568E+06     27.3215E+06     51.7217E+06    -339.514E+03    -297.369E-03     593.644E-03    -296.275E-03     77.0892E-03    -297.735E-03     593.943E-03    -296.051E-03     72.3766E-03
            1490     12.0460E-03     88.0131E-03    -8.68720E+06     23.7406E+06     50.4431E+06    -102.511E+03    -299.602E-03     595.871E-03    -296.269E-03     79.8394E-03    -300.074E-03     596.249E-03    -296.038E-03     73.7677E-03
            1491     11.3808E-03     87.8822E-03    -12.3589E+06     20.4581E+06     48.6989E+06     3.27817E+06    -299.878E-03     596.056E-03    -296.178E-03     76.2318E-03    -300.331E-03     596.396E-03    -295.946E-03     70.6292E-03
            1492     10.7138E-03     87.7506E-03    -10.6865E+06     21.1524E+06     47.4520E+06     3.56337E+06    -297.790E-03     593.901E-03    -296.111E-03     72.6434E-03    -298.195E-03     594.206E-03    -295.889E-03     67.6467E-03
            1493     10.0435E-03     87.6256E-03    -11.0202E+06     19.8543E+06     44.2903E+06     111.696E+03    -296.878E-03     592.997E-03    -296.120E-03     69.5068E-03    -297.273E-03     593.296E-03    -295.911E-03     64.3666E-03
            1494     9.37222E-03     87.5063E-03    -18.9909E+06     12.2582E+06     37.1423E+06    -2.52209E+06    -297.537E-03     593.663E-03    -296.126E-03     66.1829E-03    -297.925E-03     593.919E-03    -295.930E-03     61.3308E-03
            1495     8.70262E-03     87.3973E-03    -24.2634E+06     6.65551E+06     32.4401E+06    -1.59724E+06    -297.456E-03     593.561E-03    -296.105E-03     62.6081E-03    -297.817E-03     593.766E-03    -295.918E-03     58.3114E-03
            1496     8.03245E-03     87.2963E-03    -26.4662E+06     3.65837E+06     29.4628E+06    -528.161E+03    -297.398E-03     593.473E-03    -296.076E-03     58.3110E-03    -297.724E-03     593.633E-03    -295.895E-03     54.6302E-03
            1497     7.36638E-03     87.2043E-03    -32.3335E+06    -3.28399E+06     20.2473E+06     1.71815E+06    -297.275E-03     593.290E-03    -296.014E-03     53.8439E-03    -297.570E-03     593.399E-03    -295.861E-03     50.8750E-03
            1498     6.69532E-03     87.1180E-03    -40.1344E+06    -13.3695E+06     5.98661E+06     1.25396E+06    -296.246E-03     592.216E-03    -295.970E-03     49.1257E-03    -296.521E-03     592.284E-03    -295.863E-03     46.5687E-03
            1499     6.02448E-03     87.0428E-03    -44.1800E+06    -19.7620E+06    -4.33400E+06     2.29349E+06    -295.726E-03     591.726E-03    -296.001E-03     43.7524E-03    -295.967E-03     591.753E-03    -295.930E-03     41.9061E-03
            1500     5.35418E-03     86.9725E-03    -46.8098E+06    -25.4364E+06    -14.4842E+06     6.44530E+06    -295.716E-03     591.774E-03    -296.057E-03     38.2567E-03    -295.926E-03     591.768E-03    -296.025E-03     37.0278E-03
            1501     4.68499E-03     86.9104E-03    -48.5304E+06    -37.0043E+06    -24.5117E+06     5.11553E+06    -295.772E-03     591.896E-03    -296.124E-03     32.8284E-03    -295.947E-03     591.838E-03    -296.122E-03     31.8051E-03
            1502     4.01515E-03     86.8578E-03    -53.2608E+06    -50.7664E+06    -35.4671E+06     835.646E+03    -296.135E-03     592.302E-03    -296.168E-03     28.2626E-03    -296.286E-03     592.187E-03    -296.194E-03     27.3924E-03
            1503     3.34704E-03     86.8119E-03    -60.7112E+06    -60.2243E+06    -47.3141E+06    -1.28231E+06    -296.387E-03     592.538E-03    -296.151E-03     23.8160E-03    -296.536E-03     592.395E-03    -296.212E-03     23.1366E-03
            1504     2.67633E-03     86.7774E-03    -61.9936E+06    -62.8183E+06    -51.1252E+06     529.926E+03    -296.270E-03     592.397E-03    -296.127E-03     18.5382E-03    -296.405E-03     592.238E-03    -296.202E-03     18.2359E-03
            1505     2.00720E-03     86.7496E-03    -60.9631E+06    -63.2385E+06    -53.0913E+06     2.28616E+06    -296.230E-03     592.332E-03    -296.102E-03     14.1855E-03    -296.347E-03     592.165E-03    -296.187E-03     14.1004E-03
            1506     1.33957E-03     86.7274E-03    -65.7386E+06    -69.8656E+06    -61.5027E+06     754.617E+03    -296.372E-03     592.357E-03    -295.985E-03     10.1142E-03    -296.474E-03     592.164E-03    -296.096E-03     9.90269E-03
            1507     670.125E-06     86.7165E-03    -67.9465E+06    -73.0951E+06    -65.2718E+06    -772.093E+03    -296.118E-03     591.884E-03    -295.766E-03     5.23511E-03    -296.154E-03     591.710E-03    -295.888E-03     5.12078E-03
            1508     12.7173E-03     86.4438E-03    -3.29785E+06     29.2565E+06     55.3514E+06     2.60621E+06    -298.443E-03     594.693E-03    -296.250E-03     77.9233E-03    -298.798E-03     594.979E-03    -296.011E-03     73.5470E-03
            1509     12.0499E-03     86.2958E-03    -5.38696E+06     26.5485E+06     52.0487E+06     2.50895E+06    -298.856E-03     595.076E-03    -296.220E-03     78.1423E-03    -299.275E-03     595.419E-03    -295.990E-03     72.7930E-03
            1510     11.3809E-03     86.1595E-03    -10.4291E+06     20.6250E+06     45.2603E+06    -4.16935E+06    -298.543E-03     594.710E-03    -296.167E-03     76.8068E-03    -299.019E-03     595.091E-03    -295.955E-03     70.4442E-03
            1511     10.7117E-03     86.0380E-03    -11.9605E+06     19.5516E+06     43.7185E+06    -3.43481E+06    -297.994E-03     594.137E-03    -296.143E-03     75.7470E-03    -298.444E-03     594.487E-03    -295.935E-03     69.9437E-03
            1512     10.0414E-03     85.9138E-03    -13.4400E+06     18.0483E+06     42.7579E+06     1.79815E+06    -297.448E-03     593.601E-03    -296.153E-03     72.7506E-03    -297.847E-03     593.892E-03    -295.946E-03     67.9237E-03
            1513     9.37244E-03     85.7933E-03    -19.7419E+06     10.7631E+06     35.0256E+06     1.53033E+06    -296.804E-03     592.979E-03    -296.174E-03     67.5940E-03    -297.187E-03     593.228E-03    -295.986E-03     62.9695E-03
            1514     8.70231E-03     85.6844E-03    -26.7153E+06     2.03329E+06     25.1500E+06     2.00423E+06    -296.565E-03     592.772E-03    -296.207E-03     62.4505E-03    -296.915E-03     592.961E-03    -296.046E-03     58.3871E-03
            1515     8.03286E-03     85.5831E-03    -28.1871E+06    -664.985E+03     21.3856E+06     3.52928E+06    -296.772E-03     593.019E-03    -296.247E-03     58.0745E-03    -297.077E-03     593.160E-03    -296.098E-03     54.7087E-03
            1516     7.36071E-03     85.4868E-03    -33.7936E+06    -6.47438E+06     14.3645E+06     2.44907E+06    -296.830E-03     593.092E-03    -296.261E-03     53.3677E-03    -297.126E-03     593.203E-03    -296.131E-03     50.1528E-03
            1517     6.69265E-03     85.4074E-03    -37.7916E+06    -11.1455E+06     7.33062E+06    -277.585E+03    -296.709E-03     592.968E-03    -296.259E-03     48.2456E-03    -296.988E-03     593.052E-03    -296.152E-03     45.2866E-03
            1518     6.02365E-03     85.3278E-03    -39.9757E+06    -14.5193E+06     1.54778E+06     448.739E+03    -296.393E-03     592.662E-03    -296.269E-03     43.1000E-03    -296.636E-03     592.706E-03    -296.182E-03     41.0098E-03
            1519     5.35512E-03     85.2595E-03    -46.9374E+06    -22.9145E+06    -8.69304E+06     4.07701E+06    -296.199E-03     592.491E-03    -296.292E-03     38.3145E-03    -296.423E-03     592.492E-03    -296.234E-03     37.0000E-03
            1520     4.68489E-03     85.1970E-03    -47.2305E+06     -33.866E+06    -18.2241E+06     5.32088E+06    -296.207E-03     592.529E-03    -296.322E-03     33.1603E-03    -296.387E-03     592.473E-03    -296.295E-03     32.2782E-03
            1521     4.01543E-03     85.1443E-03    -49.6855E+06    -47.2369E+06    -31.3076E+06     3.87264E+06    -296.243E-03     592.582E-03    -296.338E-03     28.2148E-03    -296.387E-03     592.472E-03    -296.354E-03     27.5268E-03
            1522     3.34448E-03     85.0975E-03    -58.6219E+06    -58.1640E+06    -45.3941E+06     1.36329E+06    -296.437E-03     592.769E-03    -296.332E-03     23.0518E-03    -296.582E-03     592.631E-03    -296.389E-03     22.3845E-03
            1523     2.67682E-03     85.0623E-03    -61.2416E+06    -62.7563E+06    -52.0824E+06    -319.158E+03    -296.556E-03     592.849E-03    -296.293E-03     17.3713E-03    -296.690E-03     592.695E-03    -296.374E-03     16.8854E-03
            1524     2.00792E-03     85.0343E-03    -60.4576E+06    -64.4271E+06    -55.9151E+06     349.643E+03    -296.306E-03     592.563E-03    -296.258E-03     13.3341E-03    -296.419E-03     592.398E-03    -296.356E-03     13.0719E-03
            1525     1.33708E-03     85.0139E-03    -62.0867E+06    -68.0175E+06    -61.1881E+06     822.659E+03    -296.209E-03     592.487E-03    -296.278E-03     9.70812E-03    -296.300E-03     592.301E-03    -296.395E-03     9.50139E-03
            1526     668.482E-06     84.9997E-03    -64.0424E+06    -70.6393E+06    -64.1559E+06    -1.49201E+06    -296.469E-03     592.718E-03    -296.250E-03     4.70547E-03    -296.500E-03     592.561E-03    -296.375E-03     4.67783E-03
            1527     12.7204E-03     84.7199E-03    -1.59659E+06     31.0418E+06     56.8567E+06     145.680E+03    -299.161E-03     595.370E-03    -296.210E-03     77.8496E-03    -299.540E-03     595.689E-03    -295.968E-03     72.9535E-03
            1528     12.0520E-03     84.5847E-03    -3.70827E+06     26.6687E+06     49.1201E+06     3.16116E+06    -297.244E-03     593.431E-03    -296.187E-03     80.5144E-03    -297.659E-03     593.785E-03    -295.975E-03     75.2044E-03
            1529     11.3794E-03     84.4492E-03    -6.25600E+06     22.1847E+06     43.4567E+06    -369.669E+03    -296.466E-03     592.721E-03    -296.254E-03     79.1550E-03    -296.901E-03     593.085E-03    -296.060E-03     73.4215E-03
            1530     10.7081E-03     84.3232E-03    -14.2221E+06     15.7123E+06     38.1250E+06    -1.66132E+06    -297.917E-03     594.227E-03    -296.310E-03     76.2521E-03    -298.365E-03     594.569E-03    -296.121E-03     70.5272E-03
            1531     10.0405E-03     84.1968E-03    -20.3550E+06     9.80888E+06     32.9829E+06    -662.854E+03    -298.116E-03     594.419E-03    -296.303E-03     72.6147E-03    -298.541E-03     594.711E-03    -296.123E-03     67.3835E-03
            1532     9.37062E-03     84.0815E-03    -21.6726E+06     6.65690E+06     29.7295E+06     1.11711E+06    -297.066E-03     593.378E-03    -296.313E-03     68.2632E-03    -297.456E-03     593.629E-03    -296.142E-03     63.4479E-03
            1533     8.70018E-03     83.9717E-03    -24.4571E+06     3.33983E+06     25.9559E+06     3.79691E+06    -296.763E-03     593.123E-03    -296.359E-03     63.1721E-03    -297.099E-03     593.309E-03    -296.199E-03     59.2853E-03
            1534     8.03011E-03     83.8682E-03    -29.9192E+06    -2.46233E+06     18.7188E+06     3.50522E+06    -296.660E-03     593.065E-03    -296.405E-03     57.8643E-03    -296.962E-03     593.198E-03    -296.264E-03     54.6434E-03
            1535     7.36215E-03     83.7761E-03    -32.1017E+06    -5.81260E+06     13.1099E+06     1.60579E+06    -296.581E-03     593.030E-03    -296.449E-03     52.7180E-03    -296.864E-03     593.141E-03    -296.328E-03     49.5808E-03
            1536     6.69174E-03     83.6883E-03    -34.8802E+06    -9.51898E+06     7.84610E+06    -2.43070E+06    -296.649E-03     593.136E-03    -296.487E-03     48.0962E-03    -296.918E-03     593.224E-03    -296.383E-03     45.0758E-03
            1537     6.02275E-03     83.6154E-03    -39.3236E+06    -15.1780E+06     207.603E+03     647.379E+03    -296.695E-03     593.202E-03    -296.507E-03     43.7568E-03    -296.935E-03     593.248E-03    -296.427E-03     41.5963E-03
            1538     5.35160E-03     83.5448E-03    -39.7711E+06    -17.4658E+06    -5.12510E+06     4.95620E+06    -296.793E-03     593.306E-03    -296.513E-03     38.6411E-03    -296.993E-03     593.318E-03    -296.456E-03     37.4020E-03
            1539     4.68313E-03     83.4820E-03    -46.0330E+06    -31.9753E+06    -15.7661E+06     3.20980E+06    -296.921E-03     593.412E-03    -296.490E-03     32.8685E-03    -297.101E-03     593.360E-03    -296.456E-03     31.9415E-03
            1540     4.01403E-03     83.4295E-03    -52.2377E+06    -47.3776E+06    -27.9041E+06     4.02063E+06    -296.810E-03     593.246E-03    -296.436E-03     27.5794E-03    -296.972E-03     593.136E-03    -296.431E-03     26.8154E-03
            1541     3.34666E-03     83.3825E-03    -51.5430E+06    -50.8940E+06    -36.4770E+06     5.22670E+06    -296.373E-03     592.773E-03    -296.400E-03     22.6885E-03    -296.505E-03     592.648E-03    -296.434E-03     22.2064E-03
            1542     2.67656E-03     83.3463E-03    -56.5052E+06    -58.7922E+06    -48.1390E+06     2.04900E+06    -296.326E-03     592.727E-03    -296.401E-03     18.1222E-03    -296.448E-03     592.580E-03    -296.475E-03     17.7693E-03
            1543     2.00729E-03     83.3208E-03    -62.4515E+06    -65.5336E+06    -55.6763E+06     169.619E+03    -296.668E-03     593.033E-03    -296.365E-03     13.8848E-03    -296.791E-03     592.866E-03    -296.458E-03     13.5822E-03
            1544     1.33932E-03     83.2992E-03    -61.9788E+06    -65.9511E+06    -56.6044E+06     542.048E+03    -296.446E-03     592.737E-03    -296.292E-03     9.18771E-03    -296.549E-03     592.557E-03    -296.389E-03     8.99389E-03
            1545     669.322E-06     83.2851E-03    -64.0567E+06    -70.2303E+06    -63.1664E+06     1.91272E+06    -296.032E-03     592.568E-03    -296.535E-03     4.49909E-03    -296.076E-03     592.416E-03    -296.656E-03     4.43998E-03
            1546     12.7196E-03     83.0093E-03    -3.10024E+06     26.7043E+06     48.3544E+06    -513.195E+03    -296.544E-03     592.753E-03    -296.209E-03     79.3589E-03    -296.905E-03     593.057E-03    -296.001E-03     74.6703E-03
            1547     12.0466E-03     82.8720E-03    -6.25267E+06     22.9899E+06     42.7836E+06    -654.979E+03    -296.747E-03     593.036E-03    -296.290E-03     81.3519E-03    -297.168E-03     593.393E-03    -296.100E-03     75.8515E-03
            1548     11.3765E-03     82.7413E-03    -8.29614E+06     19.5147E+06     39.3949E+06     3.55736E+06    -297.390E-03     593.750E-03    -296.359E-03     77.7935E-03    -297.801E-03     594.086E-03    -296.178E-03     72.4197E-03
            1549     10.7077E-03     82.6040E-03    -10.5586E+06     16.8740E+06     35.8569E+06     3.70104E+06    -297.489E-03     593.890E-03    -296.401E-03     74.9069E-03    -297.896E-03     594.215E-03    -296.230E-03     69.5612E-03
            1550     10.0380E-03     82.4828E-03    -15.1824E+06     13.0978E+06     33.9336E+06    -1.44855E+06    -297.492E-03     593.936E-03    -296.444E-03     71.3773E-03    -297.904E-03     594.242E-03    -296.271E-03     65.9365E-03
            1551     9.36824E-03     82.3677E-03    -18.7267E+06     10.5254E+06     34.2887E+06    -135.632E+03    -297.482E-03     593.968E-03    -296.486E-03     67.2049E-03    -297.863E-03     594.220E-03    -296.302E-03     62.4409E-03
            1552     8.69952E-03     82.2566E-03    -20.8577E+06     8.18295E+06     32.6413E+06     2.54723E+06    -297.177E-03     593.694E-03    -296.517E-03     62.3653E-03    -297.520E-03     593.897E-03    -296.335E-03     58.2184E-03
            1553     8.03010E-03     82.1556E-03    -25.2733E+06      2.3756E+06     24.8764E+06     729.919E+03    -296.407E-03     592.966E-03    -296.560E-03     57.5290E-03    -296.714E-03     593.120E-03    -296.402E-03     53.9702E-03
            1554     7.35910E-03     82.0592E-03    -29.1968E+06    -3.97202E+06     14.0045E+06     1.63252E+06    -296.016E-03     592.652E-03    -296.636E-03     53.5429E-03    -296.282E-03     592.760E-03    -296.518E-03     50.6939E-03
            1555     6.68986E-03     81.9771E-03    -34.7612E+06    -11.7646E+06     2.09395E+06     1.89093E+06    -296.592E-03     593.299E-03    -296.707E-03     48.7947E-03    -296.838E-03     593.374E-03    -296.629E-03     46.2385E-03
            1556     6.01921E-03     81.8988E-03    -39.8692E+06    -17.1774E+06    -4.01318E+06    -236.448E+03    -297.494E-03     594.216E-03    -296.722E-03     43.2986E-03    -297.726E-03     594.257E-03    -296.660E-03     41.1624E-03
            1557     5.35282E-03     81.8281E-03    -43.4324E+06    -21.4121E+06    -9.27485E+06     712.126E+03    -297.514E-03     594.180E-03    -296.666E-03     37.7092E-03    -297.727E-03     594.190E-03    -296.619E-03     36.1210E-03
            1558     4.68354E-03     81.7663E-03    -46.6871E+06    -34.3906E+06    -20.1373E+06     2.13583E+06    -297.035E-03     593.633E-03    -296.598E-03     32.9535E-03    -297.214E-03     593.583E-03    -296.581E-03     31.8054E-03
            1559     4.01555E-03     81.7120E-03    -46.1550E+06    -43.1347E+06    -25.6365E+06     2.39515E+06    -296.779E-03     593.355E-03    -296.576E-03     28.5565E-03    -296.921E-03     593.255E-03    -296.575E-03     27.7781E-03
            1560     3.34489E-03     81.6692E-03    -48.7147E+06    -47.2995E+06    -31.5151E+06     3.56984E+06    -296.417E-03     593.010E-03    -296.593E-03     23.5808E-03    -296.548E-03     592.892E-03    -296.611E-03     23.1175E-03
            1561     2.67520E-03     81.6329E-03    -54.0095E+06      -54.74E+06    -41.6896E+06     4.23543E+06    -296.367E-03     593.006E-03    -296.639E-03     18.6099E-03    -296.492E-03     592.867E-03    -296.690E-03     18.3386E-03
            1562     2.00647E-03     81.6025E-03    -57.9658E+06    -61.1574E+06    -51.1080E+06     2.65784E+06    -296.699E-03     593.357E-03    -296.658E-03     14.1914E-03    -296.814E-03     593.199E-03    -296.740E-03     13.9661E-03
            1563     1.33789E-03     81.5833E-03    -60.1442E+06    -65.0310E+06    -56.8077E+06     1.84396E+06    -296.688E-03     593.333E-03    -296.646E-03     10.0247E-03    -296.784E-03     593.157E-03    -296.748E-03     9.93034E-03
            1564     669.284E-06     81.5733E-03    -59.4400E+06    -64.9806E+06    -57.5944E+06     2.16089E+06    -296.300E-03     593.380E-03    -297.080E-03     7.07577E-03    -296.340E-03     593.234E-03    -297.188E-03     6.93908E-03
            1565     12.7164E-03     81.3033E-03    -3.09335E+06     26.2082E+06     46.4199E+06     2.38654E+06    -297.257E-03     593.563E-03    -296.306E-03     78.9424E-03    -297.595E-03     593.849E-03    -296.107E-03     74.5691E-03
            1566     12.0465E-03     81.1582E-03    -5.92322E+06     23.3369E+06     41.9732E+06     1.94124E+06    -298.018E-03     594.356E-03    -296.338E-03     78.7402E-03    -298.412E-03     594.690E-03    -296.153E-03     73.5393E-03
            1567     11.3791E-03     81.0227E-03    -7.58649E+06     20.3708E+06     39.4918E+06     790.625E+03    -297.629E-03     593.991E-03    -296.361E-03     76.2440E-03    -298.054E-03     594.347E-03    -296.183E-03     70.4308E-03
            1568     10.7085E-03     80.8958E-03    -9.83557E+06     17.9173E+06     37.3677E+06     696.896E+03    -296.824E-03     593.243E-03    -296.418E-03     74.5345E-03    -297.231E-03     593.570E-03    -296.243E-03     69.1437E-03
            1569     10.0371E-03     80.7673E-03    -13.6066E+06     14.2756E+06     34.2831E+06     1.53594E+06    -297.101E-03     593.590E-03    -296.489E-03     70.4322E-03    -297.490E-03     593.882E-03    -296.318E-03     65.3117E-03
            1570     9.36834E-03     80.6524E-03    -17.9009E+06     10.4683E+06     31.9084E+06     1.54096E+06    -297.298E-03     593.838E-03    -296.540E-03     65.6966E-03    -297.668E-03     594.089E-03    -296.370E-03     60.9153E-03
            1571     8.69865E-03     80.5410E-03    -22.7598E+06     5.27115E+06     27.7899E+06    -1.68180E+06    -296.616E-03     593.214E-03    -296.598E-03     62.3075E-03    -296.962E-03     593.417E-03    -296.433E-03     57.9935E-03
            1572     8.02896E-03     80.4419E-03    -24.3645E+06     2.40710E+06     23.6099E+06    -1.21331E+06    -296.259E-03     592.945E-03    -296.686E-03     57.8128E-03    -296.567E-03     593.107E-03    -296.536E-03     54.0599E-03
            1573     7.35831E-03     80.3500E-03    -27.3680E+06    -2.04456E+06     16.7786E+06     3.01497E+06    -296.360E-03     593.138E-03    -296.779E-03     52.1271E-03    -296.620E-03     593.246E-03    -296.652E-03     49.3649E-03
            1574     6.68722E-03     80.2594E-03    -32.6186E+06    -8.81755E+06     7.62364E+06     7.21747E+06    -297.107E-03     593.933E-03    -296.826E-03     46.6169E-03    -297.339E-03     593.996E-03    -296.728E-03     44.5540E-03
            1575     6.02103E-03     80.1804E-03    -35.5912E+06    -13.7813E+06    -1.09006E+06     3.05021E+06    -297.573E-03     594.371E-03    -296.798E-03     41.7920E-03    -297.788E-03     594.414E-03    -296.732E-03     39.8019E-03
            1576     5.35089E-03     80.1104E-03    -43.3750E+06    -28.0606E+06    -15.3592E+06    -2.77768E+06    -297.113E-03     593.859E-03    -296.747E-03     37.5373E-03    -297.312E-03     593.850E-03    -296.720E-03     35.7088E-03
            1577     4.68247E-03     80.0516E-03    -45.6204E+06    -39.2022E+06    -22.5864E+06    -984.401E+03    -296.788E-03     593.543E-03    -296.754E-03     33.5452E-03    -296.956E-03     593.475E-03    -296.744E-03     32.2182E-03
            1578     4.01154E-03     79.9967E-03    -44.9090E+06    -42.8819E+06    -26.5367E+06     958.799E+03    -296.692E-03     593.481E-03    -296.789E-03     28.1255E-03    -296.830E-03     593.384E-03    -296.794E-03     27.2665E-03
            1579     3.34385E-03     79.9531E-03    -49.9259E+06    -49.1392E+06    -35.1258E+06     1.29446E+06    -296.717E-03     593.532E-03    -296.815E-03     22.8243E-03    -296.848E-03     593.413E-03    -296.847E-03     22.3089E-03
            1580     2.67594E-03     79.9161E-03    -51.1160E+06    -52.2573E+06    -40.4106E+06     2.58959E+06    -296.729E-03     593.577E-03    -296.848E-03     18.7661E-03    -296.846E-03     593.445E-03    -296.900E-03     18.4080E-03
            1581     2.00651E-03     79.8880E-03    -51.7649E+06    -55.7653E+06    -47.1081E+06     2.21118E+06    -296.637E-03     593.543E-03    -296.906E-03     14.0207E-03    -296.735E-03     593.398E-03    -296.986E-03     13.7825E-03
            1582     1.33636E-03     79.8669E-03    -55.8653E+06    -61.3221E+06    -54.4359E+06     222.009E+03    -296.981E-03     593.927E-03    -296.946E-03     8.65757E-03    -297.069E-03     593.763E-03    -297.048E-03     8.51202E-03
            1583     667.509E-06     79.8545E-03    -56.8911E+06    -62.5755E+06    -55.9979E+06    -720.071E+03    -297.155E-03     593.976E-03    -296.821E-03     4.81873E-03    -297.190E-03     593.834E-03    -296.928E-03     4.66429E-03
            1584     12.7167E-03     79.5819E-03    -2.73195E+06     27.4147E+06     48.2907E+06     717.254E+03    -299.703E-03     596.064E-03    -296.360E-03     77.3815E-03    -300.070E-03     596.378E-03    -296.155E-03     72.4211E-03
            1585     12.0500E-03     79.4455E-03    -4.60548E+06     25.0938E+06     45.9079E+06     1.63749E+06    -297.794E-03     594.131E-03    -296.338E-03     78.7696E-03    -298.196E-03     594.473E-03    -296.138E-03     73.4639E-03
            1586     11.3774E-03     79.3097E-03    -5.57345E+06     23.5155E+06     44.6539E+06    -145.200E+03    -296.876E-03     593.274E-03    -296.398E-03     78.6183E-03    -297.310E-03     593.642E-03    -296.200E-03     72.8534E-03
            1587     10.7073E-03     79.1835E-03    -9.43859E+06     19.0595E+06     40.5278E+06     1.20754E+06    -297.580E-03     594.035E-03    -296.455E-03     75.3430E-03    -298.004E-03     594.376E-03    -296.267E-03     69.7745E-03
            1588     10.0385E-03     79.0538E-03    -14.1329E+06     13.6181E+06     36.1400E+06     4.72129E+06    -297.020E-03     593.526E-03    -296.506E-03     71.0121E-03    -297.408E-03     593.807E-03    -296.324E-03     66.0889E-03
            1589     9.36851E-03     78.9368E-03    -18.0506E+06     8.21355E+06     28.7370E+06     2.21363E+06    -296.369E-03     592.944E-03    -296.575E-03     66.6618E-03    -296.741E-03     593.197E-03    -296.417E-03     61.7585E-03
            1590     8.69775E-03     78.8312E-03    -21.8865E+06     2.70506E+06     19.7801E+06    -1.19660E+06    -296.427E-03     593.082E-03    -296.655E-03     62.1646E-03    -296.752E-03     593.281E-03    -296.528E-03     57.9005E-03
            1591     8.02636E-03     78.7270E-03    -26.9886E+06    -1.88409E+06     15.6576E+06    -605.332E+03    -297.126E-03     593.856E-03    -296.729E-03     56.7469E-03    -297.416E-03     593.998E-03    -296.609E-03     53.2728E-03
            1592     7.35883E-03     78.6324E-03    -29.9961E+06    -3.81022E+06     15.6375E+06     1.45436E+06    -297.680E-03     594.434E-03    -296.754E-03     51.1114E-03    -297.950E-03     594.539E-03    -296.627E-03     48.2486E-03
            1593     6.69163E-03     78.5456E-03    -32.3757E+06    -7.84263E+06     9.81229E+06     5.29368E+06    -297.060E-03     593.803E-03    -296.743E-03     46.4281E-03    -297.293E-03     593.865E-03    -296.636E-03     44.4355E-03
            1594     6.01989E-03     78.4622E-03    -37.7666E+06    -17.0714E+06    -5.06405E+06     2.63421E+06    -296.385E-03     593.142E-03    -296.756E-03     41.7022E-03    -296.596E-03     593.172E-03    -296.702E-03     39.8743E-03
            1595     5.35139E-03     78.3979E-03    -38.6079E+06    -25.0572E+06    -14.0026E+06    -472.435E+03    -296.651E-03     593.462E-03    -296.811E-03     37.0219E-03    -296.831E-03     593.456E-03    -296.788E-03     35.3145E-03
            1596     4.68103E-03     78.3335E-03    -44.3799E+06    -38.6966E+06    -22.9893E+06    -832.832E+03    -296.987E-03     593.829E-03    -296.842E-03     32.3242E-03    -297.148E-03     593.762E-03    -296.836E-03     30.9637E-03
            1597     4.01444E-03     78.2813E-03    -52.0168E+06    -49.7510E+06    -33.2680E+06    -459.510E+03    -296.786E-03     593.638E-03    -296.852E-03     27.2132E-03    -296.942E-03     593.529E-03    -296.871E-03     26.2224E-03
            1598     3.34411E-03     78.2364E-03    -48.7715E+06    -48.7549E+06    -35.7604E+06     1.73983E+06    -296.706E-03     593.597E-03    -296.891E-03     22.5330E-03    -296.831E-03     593.479E-03    -296.928E-03     22.0293E-03
            1599     2.67393E-03     78.2002E-03    -49.6148E+06    -51.3311E+06    -40.5865E+06     672.558E+03    -296.919E-03     593.837E-03    -296.918E-03     18.1129E-03    -297.029E-03     593.708E-03    -296.975E-03     17.7058E-03
            1600     2.00556E-03     78.1703E-03    -53.0025E+06    -55.2191E+06    -45.1796E+06     1.19717E+06    -297.107E-03     593.998E-03    -296.891E-03     13.2859E-03    -297.213E-03     593.853E-03    -296.960E-03     13.0533E-03
            1601     1.33854E-03     78.1497E-03    -53.4234E+06    -57.2279E+06    -48.8857E+06     1.61776E+06    -297.236E-03     593.966E-03    -296.730E-03     8.85482E-03    -297.326E-03     593.811E-03    -296.814E-03     8.72467E-03
            1602     670.986E-06     78.1359E-03    -55.2829E+06    -61.1016E+06    -54.6161E+06     1.25461E+06    -297.217E-03     593.258E-03    -296.041E-03     4.39714E-03    -297.255E-03     593.120E-03    -296.145E-03     4.35605E-03
            1603     12.7179E-03     77.8604E-03    -3.27183E+06     25.4407E+06     47.5254E+06    -3.13774E+06    -298.046E-03     594.446E-03    -296.400E-03     79.0343E-03    -298.448E-03     594.788E-03    -296.194E-03     73.5153E-03
            1604     12.0465E-03     77.7357E-03    -4.82337E+06     23.6608E+06     45.0304E+06    -1.50471E+06    -297.331E-03     593.768E-03    -296.437E-03     80.0695E-03    -297.768E-03     594.141E-03    -296.239E-03     74.1524E-03
            1605     11.3758E-03     77.6006E-03    -9.54222E+06     19.0792E+06     40.2372E+06     2.48242E+06    -297.605E-03     594.095E-03    -296.490E-03     79.6765E-03    -298.015E-03     594.422E-03    -296.303E-03     74.5981E-03
            1606     10.7074E-03     77.4617E-03    -12.1948E+06     15.6486E+06     37.9531E+06     3.73447E+06    -297.987E-03     594.518E-03    -296.532E-03     75.9635E-03    -298.412E-03     594.846E-03    -296.347E-03     70.5138E-03
            1607     10.0380E-03     77.3445E-03    -12.9246E+06     13.7238E+06     35.4647E+06     4.77550E+06    -297.126E-03     593.697E-03    -296.571E-03     71.5576E-03    -297.529E-03     594.000E-03    -296.395E-03     66.2640E-03
            1608     9.36586E-03     77.2240E-03    -16.2246E+06     10.4094E+06     31.5081E+06     498.554E+03    -296.790E-03     593.429E-03    -296.639E-03     66.6245E-03    -297.159E-03     593.686E-03    -296.473E-03     61.7278E-03
            1609     8.69657E-03     77.1163E-03    -18.3676E+06     8.34416E+06     29.3641E+06     681.689E+03    -297.468E-03     594.158E-03    -296.690E-03     60.7873E-03    -297.800E-03     594.369E-03    -296.528E-03     56.4130E-03
            1610     8.02941E-03     77.0112E-03    -23.0142E+06     2.50187E+06     21.8868E+06     4.42242E+06    -297.540E-03     594.224E-03    -296.683E-03     55.7391E-03    -297.820E-03     594.367E-03    -296.544E-03     52.4503E-03
            1611     7.35950E-03     76.9152E-03    -28.3042E+06    -5.34054E+06     10.7453E+06     2.55546E+06    -297.196E-03     593.860E-03    -296.664E-03     51.4898E-03    -297.447E-03     593.960E-03    -296.561E-03     48.6989E-03
            1612     6.68956E-03     76.8286E-03    -28.7754E+06    -7.88882E+06     4.83523E+06     755.931E+03    -296.688E-03     593.376E-03    -296.688E-03     47.4339E-03    -296.906E-03     593.450E-03    -296.611E-03     45.0912E-03
            1613     6.02105E-03     76.7527E-03    -33.8482E+06    -13.6265E+06    -2.43268E+06     520.479E+03    -296.264E-03     593.027E-03    -296.762E-03     42.3582E-03    -296.463E-03     593.064E-03    -296.706E-03     40.5912E-03
            1614     5.35004E-03     76.6789E-03    -43.0996E+06    -23.7317E+06    -14.1105E+06     2.25469E+06    -296.709E-03     593.534E-03    -296.825E-03     37.3429E-03    -296.906E-03     593.534E-03    -296.798E-03     36.0028E-03
            1615     4.68318E-03     76.6179E-03    -45.9479E+06    -36.1681E+06    -25.1898E+06     2.06251E+06    -297.033E-03     593.867E-03    -296.834E-03     32.3687E-03    -297.200E-03     593.816E-03    -296.841E-03     31.1382E-03
            1616     4.01159E-03     76.5653E-03    -46.0719E+06    -45.6356E+06    -32.1427E+06    -716.044E+03    -296.906E-03     593.743E-03    -296.837E-03     27.2992E-03    -297.040E-03     593.644E-03    -296.864E-03     26.2749E-03
            1617     3.34358E-03     76.5207E-03    -49.3123E+06    -49.2955E+06    -36.2418E+06    -489.338E+03    -297.039E-03     593.874E-03    -296.835E-03     22.4207E-03    -297.165E-03     593.755E-03    -296.873E-03     21.8010E-03
            1618     2.67609E-03     76.4824E-03    -52.0216E+06    -53.3832E+06    -42.1088E+06     351.770E+03    -297.153E-03     593.927E-03    -296.774E-03     17.5357E-03    -297.269E-03     593.791E-03    -296.832E-03     17.1544E-03
            1619     2.00742E-03     76.4535E-03    -50.4321E+06    -53.9271E+06    -45.1633E+06     782.845E+03    -296.924E-03     593.617E-03    -296.694E-03     13.0657E-03    -297.017E-03     593.473E-03    -296.768E-03     12.8278E-03
            1620     1.33721E-03     76.4326E-03    -51.1131E+06    -55.5664E+06    -47.8970E+06     156.731E+03    -296.572E-03     593.270E-03    -296.698E-03     9.21976E-03    -296.655E-03     593.117E-03    -296.783E-03     9.03410E-03
            1621     667.178E-06     76.4207E-03    -53.4109E+06    -58.7763E+06    -51.8107E+06     154.507E+03    -296.463E-03     593.524E-03    -297.060E-03     4.95633E-03    -296.507E-03     593.394E-03    -297.157E-03     4.87502E-03
            1622     12.7132E-03     76.1509E-03    -2.84199E+06     23.2233E+06     42.1135E+06    -679.520E+03    -296.122E-03     592.559E-03    -296.437E-03     78.9084E-03    -296.487E-03     592.874E-03    -296.256E-03     73.8628E-03
            1623     12.0436E-03     76.0195E-03    -5.67343E+06     20.4335E+06     39.4726E+06    -141.960E+03    -298.303E-03     594.805E-03    -296.502E-03     78.0347E-03    -298.730E-03     595.169E-03    -296.326E-03     72.0500E-03
            1624     11.3762E-03     75.8846E-03    -9.48758E+06     17.0063E+06     36.1188E+06     3.34331E+06    -298.446E-03     594.947E-03    -296.501E-03     76.6686E-03    -298.853E-03     595.276E-03    -296.331E-03     71.2824E-03
            1625     10.7051E-03     75.7493E-03    -10.5529E+06     15.0292E+06     34.2537E+06     421.788E+03    -296.755E-03     593.300E-03    -296.545E-03     74.0388E-03    -297.159E-03     593.621E-03    -296.380E-03     68.5690E-03
            1626     10.0351E-03     75.6277E-03    -11.5746E+06     14.5675E+06     34.4893E+06    -1.01966E+06    -297.053E-03     593.688E-03    -296.635E-03     70.7853E-03    -297.451E-03     593.997E-03    -296.467E-03     65.3441E-03
            1627     9.36825E-03     75.5112E-03    -14.7544E+06     12.3890E+06     34.2874E+06     2.44309E+06    -298.050E-03     594.731E-03    -296.681E-03     67.1568E-03    -298.411E-03     594.984E-03    -296.506E-03     62.4732E-03
            1628     8.69943E-03     75.3979E-03    -19.9818E+06     7.85623E+06     31.4693E+06     282.398E+03    -298.249E-03     594.915E-03    -296.666E-03     62.1336E-03    -298.591E-03     595.123E-03    -296.491E-03     57.8334E-03
            1629     8.02922E-03     75.2964E-03    -23.4927E+06     3.26609E+06     25.2047E+06      537.24E+03    -297.637E-03     594.264E-03    -296.627E-03     56.6028E-03    -297.941E-03     594.422E-03    -296.471E-03     52.8999E-03
            1630     7.35965E-03     75.2017E-03    -23.9839E+06    -821.967E+03     16.8268E+06     4.83724E+06    -296.608E-03     593.234E-03    -296.625E-03     51.0546E-03    -296.853E-03     593.341E-03    -296.505E-03     48.2611E-03
            1631     6.68979E-03     75.1145E-03    -27.7364E+06    -7.14669E+06     6.46138E+06     4.14927E+06    -296.321E-03     592.996E-03    -296.676E-03     46.0956E-03    -296.534E-03     593.067E-03    -296.593E-03     43.7929E-03
            1632     6.01964E-03     75.0360E-03    -34.0047E+06    -14.4886E+06    -3.40597E+06     4.95365E+06    -296.661E-03     593.391E-03    -296.731E-03     41.6702E-03    -296.858E-03     593.426E-03    -296.677E-03     39.9546E-03
            1633     5.35190E-03     74.9650E-03    -37.9833E+06    -19.7637E+06    -11.1655E+06     3.95993E+06    -296.823E-03     593.586E-03    -296.763E-03     36.8478E-03    -296.999E-03     593.589E-03    -296.735E-03     35.7116E-03
            1634     4.68037E-03     74.9004E-03    -40.2694E+06    -29.8224E+06    -18.2926E+06     859.300E+03    -296.933E-03     593.711E-03    -296.778E-03     31.3035E-03    -297.089E-03     593.671E-03    -296.768E-03     30.1171E-03
            1635     4.01430E-03     74.8493E-03    -44.4299E+06    -42.6290E+06    -28.3058E+06     114.726E+03    -297.204E-03     593.944E-03    -296.740E-03     26.3341E-03    -297.338E-03     593.851E-03    -296.755E-03     25.2832E-03
            1636     3.34494E-03     74.8028E-03    -48.9151E+06    -50.1866E+06    -39.3609E+06    -380.354E+03    -297.145E-03     593.791E-03    -296.646E-03     22.0296E-03    -297.264E-03     593.672E-03    -296.699E-03     21.2988E-03
            1637     2.67550E-03     74.7658E-03    -49.1518E+06    -52.6618E+06    -44.1816E+06    -1.48031E+06    -296.789E-03     593.371E-03    -296.582E-03     17.7874E-03    -296.889E-03     593.238E-03    -296.655E-03     17.2980E-03
            1638     2.00654E-03     74.7375E-03    -50.4174E+06    -55.1757E+06    -48.0290E+06    -2.62997E+06    -296.552E-03     593.128E-03    -296.576E-03     13.5080E-03    -296.639E-03     592.982E-03    -296.663E-03     13.1327E-03
            1639     1.33838E-03     74.7179E-03    -51.4656E+06    -57.1240E+06    -51.0165E+06    -1.65516E+06    -296.475E-03     593.116E-03    -296.641E-03     8.87617E-03    -296.552E-03     592.960E-03    -296.738E-03     8.66651E-03
            1640     669.598E-06     74.7047E-03    -51.9116E+06    -57.5446E+06    -51.2389E+06    -712.308E+03    -296.251E-03     593.470E-03    -297.219E-03     4.52677E-03    -296.286E-03     593.344E-03    -297.316E-03     4.42314E-03
            1641     12.7166E-03     74.4457E-03    -777.759E+03     25.4355E+06     44.3418E+06     3.85768E+06    -297.767E-03     594.190E-03    -296.423E-03     77.4122E-03    -298.094E-03     594.476E-03    -296.237E-03     72.9334E-03
            1642     12.0462E-03     74.2990E-03    -3.88761E+06     21.5527E+06     40.4953E+06     3.48329E+06    -298.395E-03     594.831E-03    -296.436E-03     77.4584E-03    -298.787E-03     595.168E-03    -296.259E-03     72.0093E-03
            1643     11.3781E-03     74.1679E-03    -6.56498E+06     18.3176E+06     36.1339E+06    -1.98020E+06    -298.160E-03     594.586E-03    -296.426E-03     75.7543E-03    -298.598E-03     594.961E-03    -296.262E-03     69.4255E-03
            1644     10.7088E-03     74.0421E-03    -9.65901E+06     15.3292E+06     32.3188E+06    -2.30039E+06    -296.865E-03     593.322E-03    -296.456E-03     72.8059E-03    -297.277E-03     593.660E-03    -296.303E-03     66.9628E-03
            1645     10.0366E-03     73.9142E-03    -14.7262E+06     11.1753E+06     29.6256E+06    -192.402E+03    -296.700E-03     593.240E-03    -296.540E-03     69.0950E-03    -297.079E-03     593.520E-03    -296.387E-03     64.0307E-03
            1646     9.36510E-03     73.7927E-03    -17.6513E+06     7.99568E+06     27.4129E+06     2.83979E+06    -297.402E-03     594.004E-03    -296.602E-03     65.4166E-03    -297.746E-03     594.235E-03    -296.451E-03     60.9816E-03
            1647     8.69654E-03     73.6816E-03    -21.2327E+06     3.61112E+06     22.1198E+06     1.53554E+06    -297.657E-03     594.270E-03    -296.612E-03     61.5869E-03    -297.978E-03     594.464E-03    -296.476E-03     57.4521E-03
            1648     8.02929E-03     73.5788E-03    -24.4700E+06     357.148E+03     19.2423E+06    -5.01145E+06    -297.460E-03     594.078E-03    -296.618E-03     57.0670E-03    -297.767E-03     594.244E-03    -296.487E-03     52.9974E-03
            1649     7.36084E-03     73.4879E-03    -28.7224E+06    -3.39057E+06     16.1501E+06    -1.41715E+06    -297.191E-03     593.821E-03    -296.630E-03     52.2131E-03    -297.466E-03     593.934E-03    -296.502E-03     49.1017E-03
            1650     6.69108E-03     73.4009E-03    -31.7145E+06    -7.53054E+06     10.1492E+06     5.92161E+06    -297.173E-03     593.798E-03    -296.626E-03     46.6300E-03    -297.407E-03     593.864E-03    -296.518E-03     44.4999E-03
            1651     6.02177E-03     73.3216E-03    -31.8075E+06    -10.4853E+06     3.41773E+06     6.64434E+06    -297.163E-03     593.760E-03    -296.597E-03     40.8531E-03    -297.363E-03     593.800E-03    -296.519E-03     39.1590E-03
            1652     5.35147E-03     73.2476E-03    -33.2734E+06    -14.5791E+06    -4.18462E+06     4.85872E+06    -296.834E-03     593.403E-03    -296.569E-03     35.6568E-03    -297.006E-03     593.417E-03    -296.520E-03     34.3951E-03
            1653     4.68487E-03     73.1861E-03    -38.6601E+06    -28.3856E+06    -16.4114E+06     3.28240E+06    -296.592E-03     593.152E-03    -296.560E-03     30.8440E-03    -296.742E-03     593.111E-03    -296.544E-03     29.7994E-03
            1654     4.01325E-03     73.1311E-03    -43.3539E+06    -41.2241E+06    -27.2602E+06     2.37145E+06    -296.721E-03     593.273E-03    -296.552E-03     26.7167E-03    -296.853E-03     593.184E-03    -296.566E-03     25.7908E-03
            1655     3.34552E-03     73.0874E-03    -43.8645E+06    -43.5184E+06    -31.9557E+06     843.705E+03    -296.617E-03     593.162E-03    -296.545E-03     22.6051E-03    -296.732E-03     593.059E-03    -296.578E-03     21.8329E-03
            1656     2.67663E-03     73.0509E-03    -47.3340E+06    -49.3454E+06    -40.0116E+06     664.737E+03    -296.334E-03     592.905E-03    -296.571E-03     18.3019E-03    -296.435E-03     592.779E-03    -296.631E-03     17.8249E-03
            1657     2.00716E-03     73.0222E-03    -52.8650E+06    -56.9692E+06    -49.7958E+06    -29.9734E+03    -296.417E-03     593.054E-03    -296.637E-03     13.9729E-03    -296.510E-03     592.904E-03    -296.727E-03     13.6783E-03
            1658     1.33743E-03     73.0015E-03    -54.6697E+06    -59.3960E+06    -53.2173E+06     441.211E+03    -296.799E-03     593.458E-03    -296.659E-03     9.70512E-03    -296.884E-03     593.298E-03    -296.759E-03     9.58374E-03
            1659     668.753E-06     72.9886E-03    -52.4715E+06    -58.6502E+06    -53.2245E+06    -619.049E+03    -296.532E-03     593.367E-03    -296.835E-03     5.64246E-03    -296.558E-03     593.235E-03    -296.940E-03     5.59156E-03
            1660     12.7165E-03     72.7270E-03    -2.45297E+06     24.9853E+06     45.7902E+06     997.158E+03    -298.862E-03     595.225E-03    -296.362E-03     76.9020E-03    -299.216E-03     595.526E-03    -296.166E-03     72.0871E-03
            1661     12.0481E-03     72.5886E-03    -4.41007E+06     21.6198E+06     40.7574E+06     1.10952E+06    -297.302E-03     593.668E-03    -296.366E-03     79.2647E-03    -297.703E-03     594.012E-03    -296.187E-03     73.8404E-03
            1662     11.3763E-03     72.4519E-03    -5.57293E+06     19.5272E+06     38.8493E+06     264.224E+03    -297.235E-03     593.663E-03    -296.428E-03     77.7148E-03    -297.668E-03     594.032E-03    -296.254E-03     71.6914E-03
            1663     10.7074E-03     72.3265E-03    -11.3722E+06     14.7742E+06     33.9288E+06     1.38813E+06    -298.328E-03     594.777E-03    -296.449E-03     74.9802E-03    -298.759E-03     595.122E-03    -296.284E-03     69.1439E-03
            1664     10.0400E-03     72.2027E-03    -15.7398E+06     10.1097E+06     26.7731E+06     3.21687E+06    -298.252E-03     594.670E-03    -296.417E-03     70.8914E-03    -298.632E-03     594.952E-03    -296.275E-03     65.9139E-03
            1665     9.37110E-03     72.0808E-03    -18.9496E+06     5.18375E+06     21.1310E+06     2.42357E+06    -297.379E-03     593.788E-03    -296.409E-03     64.9989E-03    -297.709E-03     594.008E-03    -296.283E-03     60.6859E-03
            1666     8.70003E-03     71.9675E-03    -20.0956E+06     3.05421E+06     19.3255E+06     480.760E+03    -296.506E-03     592.965E-03    -296.459E-03     59.5302E-03    -296.811E-03     593.154E-03    -296.338E-03     55.3795E-03
            1667     8.02829E-03     71.8639E-03    -20.7272E+06     1.61224E+06     17.2599E+06    -1.09444E+06    -296.329E-03     592.867E-03    -296.538E-03     55.1156E-03    -296.609E-03     593.029E-03    -296.424E-03     51.2465E-03
            1668     7.35792E-03     71.7721E-03    -27.3571E+06    -4.71934E+06     11.5681E+06    -2.58351E+06    -297.357E-03     593.932E-03    -296.575E-03     51.0648E-03    -297.612E-03     594.040E-03    -296.471E-03     47.9916E-03
            1669     6.69029E-03     71.6827E-03    -34.0302E+06    -10.3095E+06     6.16819E+06    -1.41570E+06    -298.060E-03     594.581E-03    -296.520E-03     46.2671E-03    -298.300E-03     594.646E-03    -296.425E-03     43.8861E-03
            1670     6.02302E-03     71.6047E-03    -34.4248E+06    -11.4240E+06     3.37298E+06     1.33993E+06    -297.459E-03     593.891E-03    -296.432E-03     41.3156E-03    -297.674E-03     593.934E-03    -296.349E-03     39.4204E-03
            1671     5.35534E-03     71.5337E-03    -35.1809E+06    -15.3287E+06    -3.82829E+06     3.65376E+06    -296.548E-03     592.935E-03    -296.387E-03     36.9140E-03    -296.733E-03     592.951E-03    -296.333E-03     35.5199E-03
            1672     4.68306E-03     71.4716E-03    -37.2590E+06    -26.6640E+06    -14.5354E+06     5.31334E+06    -296.353E-03     592.745E-03    -296.393E-03     32.1391E-03    -296.500E-03     592.708E-03    -296.373E-03     31.2489E-03
            1673     4.01573E-03     71.4171E-03    -40.4541E+06    -37.4144E+06    -23.3037E+06     3.50229E+06    -296.330E-03     592.750E-03    -296.420E-03     26.9771E-03    -296.458E-03     592.669E-03    -296.424E-03     26.1145E-03
            1674     3.34472E-03     71.3719E-03    -44.0674E+06    -42.1876E+06    -29.4585E+06     1.67304E+06    -296.145E-03     592.618E-03    -296.473E-03     22.0382E-03    -296.267E-03     592.519E-03    -296.495E-03     21.2403E-03
            1675     2.67514E-03     71.3359E-03    -47.4499E+06    -47.5082E+06    -36.9206E+06     3.12674E+06    -296.242E-03     592.784E-03    -296.542E-03     17.6934E-03    -296.349E-03     592.662E-03    -296.589E-03     17.2382E-03
            1676     2.00604E-03     71.3069E-03    -51.2800E+06    -52.6439E+06    -43.7294E+06     3.73349E+06    -296.439E-03     593.046E-03    -296.607E-03     13.3451E-03    -296.539E-03     592.905E-03    -296.675E-03     13.1163E-03
            1677     1.33761E-03     71.2849E-03    -53.5594E+06    -55.5434E+06    -47.5661E+06     2.58954E+06    -296.724E-03     593.334E-03    -296.611E-03     9.07347E-03    -296.816E-03     593.184E-03    -296.691E-03     8.91845E-03
            1678     669.009E-06     71.2710E-03    -54.4720E+06    -59.9690E+06    -54.9594E+06     185.049E+03    -296.567E-03     593.211E-03    -296.643E-03     3.83983E-03    -296.599E-03     593.079E-03    -296.752E-03     3.78607E-03
            1679     12.7182E-03     71.0110E-03    -2.78993E+06     22.6563E+06     42.1426E+06    -2.16381E+06    -297.841E-03     594.164E-03    -296.322E-03     77.4385E-03    -298.213E-03     594.484E-03    -296.140E-03     72.2105E-03
            1680     12.0470E-03     70.8780E-03    -4.30762E+06     21.8164E+06     40.0163E+06    -495.093E+03    -297.320E-03     593.680E-03    -296.360E-03     79.5239E-03    -297.747E-03     594.053E-03    -296.185E-03     73.6219E-03
            1681     11.3765E-03     70.7416E-03    -8.88158E+06     16.5774E+06     35.4202E+06     3.86148E+06    -297.337E-03     593.750E-03    -296.412E-03     76.5272E-03    -297.754E-03     594.091E-03    -296.246E-03     70.9286E-03
            1682     10.7059E-03     70.6088E-03    -10.5748E+06     14.4166E+06     32.9932E+06     2.70014E+06    -298.235E-03     594.667E-03    -296.432E-03     73.4731E-03    -298.642E-03     594.992E-03    -296.273E-03     67.9113E-03
            1683     10.0372E-03     70.4828E-03    -9.98147E+06     16.4386E+06     34.6724E+06     1.46968E+06    -298.964E-03     595.366E-03    -296.402E-03     70.6254E-03    -299.346E-03     595.670E-03    -296.238E-03     65.3795E-03
            1684     9.36933E-03     70.3657E-03    -10.3482E+06     15.5448E+06     34.0718E+06     2.50740E+06    -297.992E-03     594.352E-03    -296.360E-03     66.5159E-03    -298.329E-03     594.609E-03    -296.197E-03     61.9167E-03
            1685     8.70141E-03     70.2542E-03    -15.0364E+06     8.46722E+06     26.5156E+06     2.24317E+06    -296.665E-03     593.031E-03    -296.367E-03     61.5280E-03    -296.961E-03     593.227E-03    -296.225E-03     57.5496E-03
            1686     8.03170E-03     70.1556E-03    -23.9144E+06    -1.96015E+06     14.7465E+06     4.11138E+06    -296.836E-03     593.231E-03    -296.395E-03     56.1383E-03    -297.105E-03     593.365E-03    -296.283E-03     52.8762E-03
            1687     7.36235E-03     70.0543E-03    -28.2906E+06    -7.67503E+06     7.15829E+06     3.08817E+06    -297.432E-03     593.817E-03    -296.385E-03     50.6539E-03    -297.668E-03     593.905E-03    -296.297E-03     47.9928E-03
            1688     6.69315E-03     69.9670E-03    -31.2264E+06    -11.5167E+06     1.04730E+06    -1.91625E+06    -297.208E-03     593.552E-03    -296.343E-03     45.9217E-03    -297.426E-03     593.615E-03    -296.276E-03     43.4521E-03
            1689     6.02311E-03     69.8878E-03    -36.3300E+06    -17.0155E+06    -6.21334E+06    -2.74122E+06    -296.878E-03     593.187E-03    -296.309E-03     41.5046E-03    -297.084E-03     593.222E-03    -296.263E-03     39.3787E-03
            1690     5.35221E-03     69.8211E-03    -38.0643E+06    -18.7048E+06    -9.61039E+06    -880.946E+03    -296.746E-03     593.037E-03    -296.291E-03     36.7869E-03    -296.934E-03     593.051E-03    -296.256E-03     35.2239E-03
            1691     4.68523E-03     69.7561E-03    -38.3281E+06    -26.1210E+06    -13.8499E+06     2.84330E+06    -296.514E-03     592.796E-03    -296.281E-03     31.7991E-03    -296.670E-03     592.762E-03    -296.257E-03     30.7957E-03
            1692     4.01446E-03     69.7020E-03    -42.0072E+06    -38.6400E+06    -24.2668E+06     2.71086E+06    -296.271E-03     592.545E-03    -296.274E-03     26.6733E-03    -296.403E-03     592.461E-03    -296.279E-03     25.7666E-03
            1693     3.34661E-03     69.6586E-03    -45.6516E+06    -44.2538E+06    -32.8764E+06     686.268E+03    -296.311E-03     592.583E-03    -296.272E-03     21.9325E-03    -296.431E-03     592.479E-03    -296.306E-03     21.1573E-03
            1694     2.67721E-03     69.6209E-03    -46.3779E+06    -45.7327E+06    -35.8304E+06     1.21945E+06    -296.508E-03     592.755E-03    -296.248E-03     17.0596E-03    -296.613E-03     592.638E-03    -296.293E-03     16.5574E-03
            1695     2.00814E-03     69.5912E-03    -46.7691E+06    -47.7295E+06    -39.7337E+06     1.54029E+06    -296.456E-03     592.625E-03    -296.168E-03     12.4283E-03    -296.546E-03     592.496E-03    -296.230E-03     12.0994E-03
            1696     1.33861E-03     69.5695E-03    -46.8195E+06    -49.5468E+06    -43.5606E+06     1.33131E+06    -296.216E-03     592.306E-03    -296.090E-03     8.70551E-03    -296.290E-03     592.169E-03    -296.168E-03     8.48499E-03
            1697     669.492E-06     69.5549E-03    -52.8033E+06    -54.5567E+06    -47.4853E+06     2.23141E+06    -296.154E-03     592.181E-03    -296.028E-03     3.69895E-03    -296.196E-03     592.066E-03    -296.109E-03     3.67217E-03
            1698     12.7156E-03     69.3015E-03    -1.78024E+06     22.2157E+06     40.7447E+06     199.656E+03    -297.556E-03     593.895E-03    -296.338E-03     77.6214E-03    -297.914E-03     594.207E-03    -296.164E-03     72.5386E-03
            1699     12.0465E-03     69.1610E-03    -5.56808E+06     20.0672E+06     37.6304E+06     2.22240E+06    -298.261E-03     594.620E-03    -296.360E-03     79.2831E-03    -298.682E-03     594.984E-03    -296.193E-03     73.5000E-03
            1700     11.3789E-03     69.0281E-03    -7.45763E+06     17.9727E+06     34.5155E+06     954.361E+03    -298.609E-03     594.956E-03    -296.347E-03     77.2705E-03    -299.024E-03     595.308E-03    -296.190E-03     71.5861E-03
            1701     10.7102E-03     68.8957E-03    -8.94657E+06     16.0552E+06     33.0390E+06     1.05266E+06    -298.381E-03     594.709E-03    -296.328E-03     73.8314E-03    -298.771E-03     595.028E-03    -296.173E-03     68.4909E-03
            1702     10.0403E-03     68.7673E-03    -12.6935E+06     11.9944E+06     30.7817E+06    -21.2407E+03    -297.654E-03     593.981E-03    -296.327E-03     69.8868E-03    -298.033E-03     594.269E-03    -296.172E-03     64.6546E-03
            1703     9.37086E-03     68.6490E-03    -13.6451E+06     11.2594E+06     30.8018E+06    -836.263E+03    -297.178E-03     593.534E-03    -296.355E-03     65.7964E-03    -297.532E-03     593.789E-03    -296.198E-03     60.8765E-03
            1704     8.69897E-03     68.5440E-03    -16.4427E+06     9.05662E+06     28.9861E+06     3.47120E+06    -297.624E-03     593.992E-03    -296.368E-03     61.2806E-03    -297.936E-03     594.193E-03    -296.212E-03     57.2599E-03
            1705     8.02998E-03     68.4356E-03    -22.0372E+06     2.37847E+06     21.7747E+06     6.02916E+06    -298.103E-03     594.417E-03    -296.313E-03     56.5104E-03    -298.377E-03     594.557E-03    -296.176E-03     53.3177E-03
            1706     7.36239E-03     68.3406E-03    -24.5052E+06    -3.32064E+06     12.7132E+06     5.05429E+06    -297.490E-03     593.717E-03    -296.228E-03     51.2878E-03    -297.727E-03     593.818E-03    -296.124E-03     48.5027E-03
            1707     6.69261E-03     68.2525E-03    -27.0049E+06    -8.89994E+06     2.59879E+06     2.59508E+06    -296.667E-03     592.845E-03    -296.178E-03     45.7988E-03    -296.871E-03     592.914E-03    -296.113E-03     43.3290E-03
            1708     6.02310E-03     68.1756E-03    -31.2102E+06    -13.9789E+06    -4.34726E+06    -415.294E+03    -296.723E-03     592.885E-03    -296.162E-03     40.5691E-03    -296.909E-03     592.924E-03    -296.119E-03     38.5040E-03
            1709     5.35584E-03     68.1032E-03    -36.5609E+06    -21.9372E+06    -10.7060E+06    -1.29444E+06    -296.916E-03     593.036E-03    -296.120E-03     35.6091E-03    -297.091E-03     593.035E-03    -296.089E-03     33.9093E-03
            1710     4.68525E-03     68.0430E-03    -39.8937E+06    -32.5905E+06    -19.0577E+06    -861.105E+03    -296.328E-03     592.402E-03    -296.074E-03     31.1940E-03    -296.479E-03     592.351E-03    -296.064E-03     29.8385E-03
            1711     4.01674E-03     67.9884E-03    -38.4197E+06    -35.9218E+06    -23.3747E+06     835.451E+03    -295.991E-03     592.074E-03    -296.083E-03     26.6791E-03    -296.108E-03     591.995E-03    -296.092E-03     25.8138E-03
            1712     3.34593E-03     67.9437E-03    -42.5632E+06    -41.0442E+06    -31.0973E+06     1.02026E+06    -296.444E-03     592.506E-03    -296.062E-03     22.2757E-03    -296.551E-03     592.407E-03    -296.096E-03     21.6727E-03
            1713     2.67766E-03     67.9050E-03    -46.5496E+06    -46.9381E+06    -39.3440E+06    -720.345E+03    -296.551E-03     592.504E-03    -295.953E-03     17.8988E-03    -296.650E-03     592.386E-03    -296.014E-03     17.4089E-03
            1714     2.00884E-03     67.8777E-03    -45.3908E+06    -47.5914E+06    -41.9702E+06    -1.35970E+06    -296.285E-03     592.100E-03    -295.815E-03     13.7287E-03    -296.365E-03     591.973E-03    -295.890E-03     13.3220E-03
            1715     1.33965E-03     67.8561E-03    -46.8409E+06    -49.0566E+06    -43.4902E+06    -212.655E+03    -295.876E-03     591.597E-03    -295.721E-03     9.33479E-03    -295.947E-03     591.458E-03    -295.799E-03     9.07707E-03
            1716     669.246E-06     67.8436E-03    -48.5904E+06    -51.2564E+06    -45.9690E+06    -123.337E+03    -295.592E-03     591.452E-03    -295.860E-03     4.70247E-03    -295.613E-03     591.341E-03    -295.945E-03     4.60909E-03
            1717     12.7168E-03     67.5832E-03    -1.13483E+06     22.8186E+06     40.7584E+06     2.92743E+06    -297.730E-03     594.067E-03    -296.337E-03     77.2746E-03    -298.072E-03     594.368E-03    -296.165E-03     72.4621E-03
            1718     12.0476E-03     67.4494E-03    -6.55227E+06     18.3929E+06     34.6004E+06     1.23360E+06    -298.588E-03     594.924E-03    -296.336E-03     79.0644E-03    -298.998E-03     595.275E-03    -296.180E-03     73.4230E-03
            1719     11.3766E-03     67.3096E-03    -7.36934E+06     18.2589E+06     34.6645E+06    -1.21128E+06    -298.920E-03     595.236E-03    -296.316E-03     77.9310E-03    -299.341E-03     595.595E-03    -296.159E-03     72.1486E-03
            1720     10.7087E-03     67.1788E-03    -9.19824E+06     16.3748E+06     32.7864E+06    -346.980E+03    -298.752E-03     595.026E-03    -296.275E-03     74.8462E-03    -299.160E-03     595.365E-03    -296.121E-03     69.2001E-03
            1721     10.0401E-03     67.0540E-03    -12.2968E+06     11.3824E+06     28.2070E+06    -357.208E+03    -297.667E-03     593.915E-03    -296.248E-03     70.0329E-03    -298.051E-03     594.214E-03    -296.105E-03     64.6088E-03
            1722     9.36840E-03     66.9391E-03    -18.6559E+06     4.00667E+06     22.6024E+06     816.929E+03    -297.468E-03     593.715E-03    -296.247E-03     64.5865E-03    -297.812E-03     593.941E-03    -296.113E-03     59.8836E-03
            1723     8.70175E-03     66.8241E-03    -21.6200E+06     2.36405E+06     20.8695E+06     2.04765E+06    -298.049E-03     594.269E-03    -296.220E-03     59.9129E-03    -298.360E-03     594.451E-03    -296.088E-03     55.8859E-03
            1724     8.03415E-03     66.7220E-03    -20.7188E+06     3.21079E+06     21.2794E+06     1.65523E+06    -297.758E-03     593.923E-03    -296.165E-03     55.7309E-03    -298.030E-03     594.072E-03    -296.033E-03     52.2801E-03
            1725     7.36384E-03     66.6241E-03    -22.1209E+06     239.906E+03     18.1317E+06     1.30394E+06    -297.188E-03     593.304E-03    -296.116E-03     51.0170E-03    -297.433E-03     593.419E-03    -295.993E-03     47.9318E-03
            1726     6.69515E-03     66.5405E-03    -24.6059E+06    -4.10654E+06     11.0450E+06     2.60693E+06    -296.943E-03     593.007E-03    -296.064E-03     45.9092E-03    -297.158E-03     593.087E-03    -295.967E-03     43.3297E-03
            1727     6.02605E-03     66.4597E-03    -27.5081E+06    -9.76316E+06     1.22099E+06     3.29933E+06    -296.561E-03     592.575E-03    -296.014E-03     41.4665E-03    -296.742E-03     592.620E-03    -295.953E-03     39.5383E-03
            1728     5.35527E-03     66.3897E-03    -31.3268E+06    -19.2539E+06    -8.78349E+06     1.96551E+06    -296.283E-03     592.275E-03    -295.992E-03     37.2322E-03    -296.439E-03     592.276E-03    -295.963E-03     35.6583E-03
            1729     4.68714E-03     66.3290E-03    -37.0944E+06    -30.9554E+06    -18.2626E+06    -58.6839E+03    -296.410E-03     592.382E-03    -295.972E-03     32.4692E-03    -296.552E-03     592.335E-03    -295.965E-03     31.0805E-03
            1730     4.01616E-03     66.2770E-03    -40.7877E+06    -37.1635E+06    -24.9313E+06     1.21423E+06    -296.409E-03     592.334E-03    -295.925E-03     27.3476E-03    -296.534E-03     592.255E-03    -295.937E-03     26.4961E-03
            1731     3.34793E-03     66.2280E-03    -42.6533E+06    -41.3137E+06    -32.0722E+06     1.50278E+06    -296.107E-03     591.979E-03    -295.871E-03     22.3807E-03    -296.213E-03     591.880E-03    -295.910E-03     21.8061E-03
            1732     2.67798E-03     66.1923E-03    -45.2280E+06    -46.1624E+06     -39.319E+06    -346.521E+03    -295.919E-03     591.764E-03    -295.845E-03     17.9215E-03    -296.014E-03     591.650E-03    -295.909E-03     17.3618E-03
            1733     2.00799E-03     66.1633E-03    -47.7699E+06    -49.2091E+06    -42.8896E+06    -1.11585E+06    -295.959E-03     591.792E-03    -295.833E-03     13.9020E-03    -296.048E-03     591.664E-03    -295.907E-03     13.4792E-03
            1734     1.33881E-03     66.1428E-03    -50.9691E+06    -52.7793E+06    -46.9203E+06    -1.33410E+06    -295.920E-03     591.716E-03    -295.796E-03     9.42816E-03    -296.001E-03     591.569E-03    -295.880E-03     9.15600E-03
            1735     670.026E-06     66.1320E-03    -49.3742E+06    -52.7155E+06    -48.2526E+06    -1.37818E+06    -295.673E-03     591.632E-03    -295.959E-03     5.81928E-03    -295.685E-03     591.513E-03    -296.053E-03     5.62922E-03
            1736     12.7165E-03     65.8725E-03    -2.08435E+06     22.7851E+06     41.4508E+06     2.04649E+06    -297.945E-03     594.219E-03    -296.274E-03     76.7899E-03    -298.290E-03     594.518E-03    -296.097E-03     72.0370E-03
            1737     12.0468E-03     65.7306E-03    -4.32654E+06     20.9055E+06     37.2087E+06     277.298E+03    -298.517E-03     594.781E-03    -296.263E-03     78.2861E-03    -298.931E-03     595.145E-03    -296.101E-03     72.4713E-03
            1738     11.3800E-03     65.5975E-03    -7.34528E+06     15.9014E+06     31.3823E+06     616.011E+03    -298.677E-03     594.901E-03    -296.224E-03     76.5950E-03    -299.099E-03     595.262E-03    -296.079E-03     70.6001E-03
            1739     10.7098E-03     65.4610E-03    -10.1942E+06     12.8464E+06     28.2948E+06    -1.83733E+06    -298.069E-03     594.265E-03    -296.196E-03     73.3180E-03    -298.485E-03     594.608E-03    -296.058E-03     67.3118E-03
            1740     10.0404E-03     65.3411E-03    -11.0694E+06     13.9268E+06     30.2472E+06    -945.126E+03    -298.244E-03     594.425E-03    -296.181E-03     69.2163E-03    -298.629E-03     594.732E-03    -296.034E-03     63.7097E-03
            1741     9.37424E-03     65.2221E-03    -13.9015E+06     10.3070E+06     28.4462E+06     2.59456E+06    -298.404E-03     594.532E-03    -296.128E-03     65.0553E-03    -298.738E-03     594.771E-03    -295.981E-03     60.4771E-03
            1742     8.70342E-03     65.1108E-03    -17.7933E+06     4.20896E+06     22.1819E+06     1.84780E+06    -297.761E-03     593.819E-03    -296.059E-03     60.9530E-03    -298.054E-03     594.000E-03    -295.928E-03     57.0513E-03
            1743     8.03269E-03     65.0061E-03    -20.9167E+06     108.407E+03     16.7732E+06     495.259E+03    -297.138E-03     593.156E-03    -296.018E-03     56.3899E-03    -297.403E-03     593.299E-03    -295.904E-03     52.8920E-03
            1744     7.36414E-03     64.9121E-03    -24.9330E+06    -4.11412E+06     11.9463E+06    -1.04728E+06    -296.653E-03     592.663E-03    -296.010E-03     51.8461E-03    -296.899E-03     592.771E-03    -295.908E-03     48.7259E-03
            1745     6.69435E-03     64.8236E-03    -28.0821E+06    -7.83652E+06     7.38508E+06    -72.8469E+03    -296.493E-03     592.510E-03    -296.017E-03     47.4988E-03    -296.713E-03     592.581E-03    -295.928E-03     44.9823E-03
            1746     6.02495E-03     64.7479E-03    -29.7439E+06    -11.4214E+06     1.16958E+06     2.82135E+06    -296.362E-03     592.379E-03    -296.017E-03     42.7365E-03    -296.553E-03     592.420E-03    -295.951E-03     40.7556E-03
            1747     5.35541E-03     64.6776E-03    -32.1074E+06    -16.2695E+06    -7.32166E+06     3.54479E+06    -296.115E-03     592.134E-03    -296.020E-03     37.5394E-03    -296.279E-03     592.148E-03    -295.986E-03     36.0814E-03
            1748     4.68430E-03     64.6142E-03    -36.4293E+06    -26.6535E+06    -17.5656E+06     2.42068E+06    -296.399E-03     592.409E-03    -296.009E-03     32.7738E-03    -296.540E-03     592.377E-03    -296.006E-03     31.6341E-03
            1749     4.01784E-03     64.5608E-03    -41.7403E+06    -37.9431E+06    -27.2639E+06     1.99050E+06    -296.570E-03     592.524E-03    -295.954E-03     28.4761E-03    -296.697E-03     592.447E-03    -295.975E-03     27.5395E-03
            1750     3.34775E-03     64.5164E-03    -41.8095E+06    -39.4546E+06    -29.2831E+06     836.650E+03    -296.095E-03     592.014E-03    -295.918E-03     23.9674E-03    -296.206E-03     591.921E-03    -295.947E-03     23.2989E-03
            1751     2.67787E-03     64.4796E-03    -42.5336E+06     -41.779E+06    -33.1501E+06     902.391E+03    -295.848E-03     591.778E-03    -295.930E-03     19.0965E-03    -295.945E-03     591.672E-03    -295.973E-03     18.5718E-03
            1752     2.00874E-03     64.4499E-03    -46.4713E+06    -48.0648E+06    -41.8826E+06     1.62224E+06    -295.833E-03     591.794E-03    -295.961E-03     14.1657E-03    -295.919E-03     591.668E-03    -296.034E-03     13.8221E-03
            1753     1.33872E-03     64.4301E-03    -48.3971E+06    -51.2232E+06    -46.3073E+06     57.5750E+03    -295.943E-03     591.958E-03    -296.015E-03     9.45158E-03    -296.015E-03     591.816E-03    -296.102E-03     9.23719E-03
            1754     668.745E-06     64.4170E-03    -51.0136E+06    -54.7507E+06    -50.6505E+06    -921.529E+03    -296.071E-03     592.175E-03    -296.105E-03     5.66782E-03    -296.081E-03     592.053E-03    -296.205E-03     5.47878E-03
            1755     12.7202E-03     64.1573E-03    -3.57769E+06     21.2358E+06     39.2690E+06    -179.204E+03    -298.654E-03     594.811E-03    -296.157E-03     76.0356E-03    -299.010E-03     595.116E-03    -295.986E-03     71.0673E-03
            1756     12.0506E-03     64.0201E-03    -3.44596E+06     21.5414E+06     37.0961E+06     1.45918E+06    -298.097E-03     594.233E-03    -296.136E-03     78.9362E-03    -298.502E-03     594.595E-03    -295.977E-03     73.2710E-03
            1757     11.3799E-03     63.8765E-03    -5.05526E+06     18.5589E+06     34.8208E+06     1.70539E+06    -298.212E-03     594.345E-03    -296.133E-03     77.3557E-03    -298.622E-03     594.701E-03    -295.978E-03     71.5767E-03
            1758     10.7116E-03     63.7533E-03    -6.98062E+06     15.2961E+06     32.9825E+06     2.05383E+06    -298.165E-03     594.284E-03    -296.119E-03     73.6642E-03    -298.561E-03     594.614E-03    -295.966E-03     67.9908E-03
            1759     10.0415E-03     63.6224E-03    -11.7785E+06     11.3734E+06     28.7092E+06     613.803E+03    -297.993E-03     594.083E-03    -296.090E-03     69.7774E-03    -298.362E-03     594.367E-03    -295.946E-03     64.5872E-03
            1760     9.37095E-03     63.5066E-03    -14.1667E+06     9.20943E+06     26.4909E+06    -1.06862E+06    -297.764E-03     593.827E-03    -296.063E-03     66.2739E-03    -298.107E-03     594.076E-03    -295.923E-03     61.4500E-03
            1761     8.70350E-03     63.3964E-03    -15.7827E+06     6.65161E+06     25.1781E+06     1.12427E+06    -297.452E-03     593.498E-03    -296.046E-03     62.5201E-03    -297.751E-03     593.692E-03    -295.907E-03     58.5273E-03
            1762     8.03538E-03     63.2932E-03    -19.6604E+06     1.69407E+06     19.0757E+06     1.91397E+06    -296.952E-03     592.982E-03    -296.029E-03     57.7467E-03    -297.221E-03     593.131E-03    -295.908E-03     54.2405E-03
            1763     7.36475E-03     63.1986E-03    -23.5593E+06    -4.39649E+06     9.78913E+06     1.41472E+06    -296.376E-03     592.405E-03    -296.029E-03     52.8214E-03    -296.614E-03     592.515E-03    -295.939E-03     49.7149E-03
            1764     6.69428E-03     63.1133E-03    -28.1886E+06    -10.3303E+06     1.70100E+06     974.245E+03    -296.212E-03     592.271E-03    -296.059E-03     47.8820E-03    -296.415E-03     592.333E-03    -295.995E-03     45.5602E-03
            1765     6.02409E-03     63.0321E-03    -33.5058E+06    -15.6759E+06    -3.87734E+06     1.08913E+06    -296.450E-03     592.540E-03    -296.090E-03     42.6285E-03    -296.645E-03     592.571E-03    -296.038E-03     40.6765E-03
            1766     5.35529E-03     62.9642E-03    -36.5674E+06    -19.5551E+06    -8.80690E+06     1.89025E+06    -296.542E-03     592.628E-03    -296.086E-03     37.8383E-03    -296.724E-03     592.636E-03    -296.048E-03     36.2614E-03
            1767     4.68705E-03     62.9013E-03    -34.7752E+06    -24.4060E+06    -14.4110E+06     2.10204E+06    -296.220E-03     592.296E-03    -296.076E-03     32.9805E-03    -296.360E-03     592.267E-03    -296.062E-03     31.8697E-03
            1768     4.01449E-03     62.8464E-03    -36.4788E+06    -32.8299E+06    -23.2032E+06     1.65704E+06    -295.964E-03     592.058E-03    -296.094E-03     27.9916E-03    -296.076E-03     591.992E-03    -296.110E-03     27.0521E-03
            1769     3.34580E-03     62.8028E-03    -40.6247E+06    -39.1140E+06    -31.0924E+06     1.35412E+06    -296.076E-03     592.204E-03    -296.128E-03     23.6143E-03    -296.178E-03     592.114E-03    -296.168E-03     22.8810E-03
            1770     2.67701E-03     62.7649E-03    -41.4291E+06    -41.9220E+06    -35.4819E+06     381.083E+03    -296.159E-03     592.313E-03    -296.154E-03     19.2728E-03    -296.246E-03     592.208E-03    -296.211E-03     18.7534E-03
            1771     2.00729E-03     62.7370E-03    -42.3626E+06    -44.1317E+06    -38.8736E+06     988.483E+03    -296.140E-03     592.322E-03    -296.182E-03     14.3593E-03    -296.215E-03     592.204E-03    -296.251E-03     14.0268E-03
            1772     1.33825E-03     62.7157E-03    -44.3526E+06    -45.8912E+06    -40.2369E+06     2.26934E+06    -296.217E-03     592.432E-03    -296.215E-03     9.69557E-03    -296.285E-03     592.301E-03    -296.286E-03     9.56345E-03
            1773     669.808E-06     62.7023E-03    -47.7703E+06    -50.3314E+06    -45.2322E+06     2.75311E+06    -296.605E-03     592.520E-03    -295.915E-03     5.23286E-03    -296.613E-03     592.408E-03    -295.999E-03     5.20251E-03
            1774     12.7198E-03     62.4451E-03    -2.75996E+06     19.6182E+06     36.3188E+06     -952.93E+03    -298.802E-03     594.902E-03    -296.100E-03     77.7867E-03    -299.159E-03     595.213E-03    -295.942E-03     72.6971E-03
            1775     12.0505E-03     62.3040E-03    -3.41704E+06     20.5343E+06     37.0064E+06    -413.621E+03    -298.271E-03     594.360E-03    -296.088E-03     80.7477E-03    -298.692E-03     594.734E-03    -295.928E-03     74.8496E-03
            1776     11.3808E-03     62.1688E-03    -5.18049E+06     18.9227E+06     36.2679E+06     971.327E+03    -297.643E-03     593.749E-03    -296.106E-03     78.4847E-03    -298.047E-03     594.097E-03    -295.944E-03     72.9174E-03
            1777     10.7106E-03     62.0314E-03    -7.92489E+06     15.0159E+06     33.9726E+06     2.74647E+06    -297.997E-03     594.117E-03    -296.120E-03     75.1977E-03    -298.384E-03     594.431E-03    -295.960E-03     69.8901E-03
            1778     10.0433E-03     61.9129E-03    -9.89948E+06     12.2381E+06     30.9993E+06     1.47848E+06    -297.980E-03     594.086E-03    -296.106E-03     71.6016E-03    -298.349E-03     594.373E-03    -295.954E-03     66.4147E-03
            1779     9.37369E-03     61.7923E-03    -13.8213E+06     8.04671E+06     26.3185E+06    -144.389E+03    -297.366E-03     593.459E-03    -296.093E-03     67.0292E-03    -297.711E-03     593.707E-03    -295.953E-03     62.1514E-03
            1780     8.70220E-03     61.6831E-03    -17.5571E+06     3.75738E+06     20.8298E+06     1.32905E+06    -296.714E-03     592.823E-03    -296.109E-03     62.5660E-03    -297.013E-03     593.013E-03    -295.985E-03     58.5125E-03
            1781     8.03137E-03     61.5779E-03    -19.6391E+06     850.965E+03     16.7727E+06     2.27003E+06    -296.466E-03     592.623E-03    -296.157E-03     58.6015E-03    -296.721E-03     592.762E-03    -296.046E-03     55.3571E-03
            1782     7.36240E-03     61.4870E-03    -21.9465E+06    -1.84261E+06     13.7505E+06     2.95095E+06    -296.999E-03     593.190E-03    -296.191E-03     53.6443E-03    -297.228E-03     593.294E-03    -296.088E-03     50.8658E-03
            1783     6.69337E-03     61.3980E-03    -25.6671E+06    -6.61692E+06     7.42144E+06     3.22515E+06    -297.051E-03     593.222E-03    -296.172E-03     47.9980E-03    -297.258E-03     593.293E-03    -296.088E-03     45.6360E-03
            1784     6.02434E-03     61.3203E-03    -29.8490E+06    -12.7407E+06    -1.70199E+06     1.92454E+06    -296.518E-03     592.663E-03    -296.146E-03     42.4411E-03    -296.702E-03     592.702E-03    -296.093E-03     40.5143E-03
            1785     5.35405E-03     61.2485E-03    -32.5123E+06    -17.2206E+06    -8.73789E+06    -773.425E+03    -296.341E-03     592.491E-03    -296.149E-03     37.8966E-03    -296.508E-03     592.506E-03    -296.121E-03     36.2045E-03
            1786     4.68418E-03     61.1869E-03    -36.8547E+06    -26.7270E+06    -17.1084E+06    -41.7684E+03    -296.263E-03     592.426E-03    -296.162E-03     33.2884E-03    -296.411E-03     592.397E-03    -296.155E-03     31.9957E-03
            1787     4.01716E-03     61.1347E-03    -37.5974E+06    -33.6935E+06    -24.0028E+06     1.70463E+06    -296.059E-03     592.249E-03    -296.191E-03     28.0636E-03    -296.174E-03     592.181E-03    -296.207E-03     27.2043E-03
            1788     3.34642E-03     61.0880E-03    -38.2119E+06    -37.6088E+06    -31.4222E+06     1.51815E+06    -296.020E-03     592.256E-03    -296.236E-03     23.2520E-03    -296.111E-03     592.170E-03    -296.284E-03     22.5877E-03
            1789     2.67641E-03     61.0514E-03    -42.1518E+06    -42.9735E+06    -37.9271E+06     1.76225E+06    -296.175E-03     592.468E-03    -296.293E-03     18.6335E-03    -296.261E-03     592.362E-03    -296.360E-03     18.1987E-03
            1790     2.00756E-03     61.0211E-03    -43.9681E+06    -44.8325E+06    -39.5445E+06     717.831E+03    -296.386E-03     592.714E-03    -296.328E-03     13.9442E-03    -296.467E-03     592.597E-03    -296.397E-03     13.6505E-03
            1791     1.33841E-03     61.0014E-03    -44.4666E+06    -45.9945E+06    -41.3323E+06    -103.046E+03    -296.505E-03     592.789E-03    -296.284E-03     9.50194E-03    -296.571E-03     592.659E-03    -296.359E-03     9.25716E-03
            1792     668.520E-06     60.9867E-03    -43.7056E+06    -46.1294E+06    -41.8104E+06     1.07018E+06    -296.352E-03     592.572E-03    -296.219E-03     5.43623E-03    -296.354E-03     592.466E-03    -296.298E-03     5.38091E-03
            1793     12.7182E-03     60.7257E-03    -2.58909E+06     20.0404E+06     37.4206E+06    -134.687E+03    -298.054E-03     594.202E-03    -296.148E-03     78.5577E-03    -298.404E-03     594.506E-03    -295.986E-03     73.6421E-03
            1794     12.0501E-03     60.5910E-03    -4.19076E+06     18.5816E+06     35.8512E+06    -1.68544E+06    -298.524E-03     594.672E-03    -296.148E-03     81.3987E-03    -298.949E-03     595.044E-03    -295.990E-03     75.4013E-03
            1795     11.3807E-03     60.4539E-03    -6.76902E+06     15.1057E+06     31.7345E+06    -579.863E+03    -297.828E-03     593.975E-03    -296.147E-03     79.8971E-03    -298.245E-03     594.329E-03    -296.000E-03     74.0934E-03
            1796     10.7105E-03     60.3223E-03    -9.83151E+06     11.5022E+06     27.7178E+06     1.08576E+06    -297.310E-03     593.488E-03    -296.178E-03     76.5945E-03    -297.688E-03     593.792E-03    -296.042E-03     71.4634E-03
            1797     10.0387E-03     60.1934E-03    -12.0784E+06     9.76656E+06     27.1128E+06     774.667E+03    -297.722E-03     593.939E-03    -296.217E-03     72.6134E-03    -298.092E-03     594.223E-03    -296.078E-03     67.4951E-03
            1798     9.37050E-03     60.0792E-03    -13.2741E+06     8.89535E+06     26.9693E+06     562.016E+03    -297.845E-03     594.069E-03    -296.224E-03     68.1936E-03    -298.191E-03     594.322E-03    -296.083E-03     63.3502E-03
            1799     8.70238E-03     59.9695E-03    -15.3972E+06     6.21427E+06     23.7917E+06     275.009E+03    -297.311E-03     593.528E-03    -296.217E-03     62.4827E-03    -297.616E-03     593.731E-03    -296.085E-03     58.1735E-03
            1800     8.03175E-03     59.8699E-03    -17.8676E+06     2.69339E+06     19.2059E+06     2.74405E+06    -296.747E-03     592.977E-03    -296.230E-03     56.4616E-03    -297.004E-03     593.124E-03    -296.112E-03     53.0321E-03
            1801     7.36117E-03     59.7678E-03    -20.0943E+06    -484.712E+03     14.6584E+06     3.66894E+06    -296.587E-03     592.849E-03    -296.261E-03     51.7411E-03    -296.803E-03     592.948E-03    -296.158E-03     49.1091E-03
            1802     6.69327E-03     59.6836E-03    -23.6353E+06    -4.71480E+06     9.21618E+06     2.36858E+06    -296.655E-03     592.944E-03    -296.289E-03     47.9576E-03    -296.860E-03     593.021E-03    -296.202E-03     45.5398E-03
            1803     6.02386E-03     59.6053E-03    -25.4130E+06    -7.86110E+06     3.98365E+06     1.47687E+06    -296.579E-03     592.888E-03    -296.309E-03     43.9927E-03    -296.758E-03     592.937E-03    -296.241E-03     42.0609E-03
            1804     5.35501E-03     59.5361E-03    -29.3965E+06    -14.3478E+06    -5.65424E+06     1.18190E+06    -296.345E-03     592.671E-03    -296.326E-03     39.1540E-03    -296.502E-03     592.690E-03    -296.291E-03     37.6448E-03
            1805     4.68519E-03     59.4732E-03    -35.4651E+06    -26.7091E+06    -18.5828E+06     2.38230E+06    -296.293E-03     592.645E-03    -296.352E-03     34.0802E-03    -296.429E-03     592.615E-03    -296.355E-03     32.9398E-03
            1806     4.01378E-03     59.4190E-03    -38.2381E+06    -34.3954E+06    -25.3798E+06     1.39678E+06    -296.562E-03     592.939E-03    -296.377E-03     29.0326E-03    -296.678E-03     592.871E-03    -296.398E-03     28.2116E-03
            1807     3.34565E-03     59.3751E-03    -40.2513E+06    -36.6975E+06    -27.7715E+06     1.52364E+06    -296.724E-03     593.088E-03    -296.364E-03     23.8495E-03    -296.833E-03     593.004E-03    -296.391E-03     23.2455E-03
            1808     2.67675E-03     59.3359E-03    -42.0635E+06    -40.0828E+06    -32.4949E+06     2.12993E+06    -296.587E-03     592.896E-03    -296.309E-03     18.4398E-03    -296.687E-03     592.799E-03    -296.352E-03     17.9447E-03
            1809     2.00711E-03     59.3072E-03    -44.4187E+06    -44.8233E+06    -39.6213E+06     774.786E+03    -296.373E-03     592.627E-03    -296.254E-03     13.5429E-03    -296.458E-03     592.513E-03    -296.323E-03     13.1540E-03
            1810     1.33822E-03     59.2845E-03    -45.9538E+06    -47.1818E+06    -42.7589E+06    -1.07999E+06    -296.343E-03     592.562E-03    -296.218E-03     9.39639E-03    -296.412E-03     592.430E-03    -296.297E-03     9.04145E-03
            1811     670.219E-06     59.2734E-03    -48.0257E+06    -50.6097E+06    -47.3420E+06    -2.16408E+06    -296.070E-03     592.467E-03    -296.397E-03     5.01212E-03    -296.082E-03     592.346E-03    -296.491E-03     4.78441E-03
            1812     12.7190E-03     59.0159E-03    -2.04506E+06     20.0947E+06     36.8813E+06    -104.097E+03    -297.575E-03     593.778E-03    -296.203E-03     79.0403E-03    -297.915E-03     594.075E-03    -296.045E-03     74.2301E-03
            1813     12.0472E-03     58.8740E-03    -3.36461E+06     18.2233E+06     33.5201E+06     1.04354E+06    -297.826E-03     594.060E-03    -296.234E-03     81.0126E-03    -298.211E-03     594.400E-03    -296.088E-03     75.5571E-03
            1814     11.3783E-03     58.7400E-03    -5.93834E+06     15.4886E+06     30.8660E+06    -13.0729E+03    -298.202E-03     594.456E-03    -296.254E-03     79.5790E-03    -298.612E-03     594.810E-03    -296.113E-03     73.7601E-03
            1815     10.7086E-03     58.6096E-03    -8.13909E+06     13.0750E+06     28.6458E+06     907.874E+03    -298.063E-03     594.323E-03    -296.261E-03     75.7597E-03    -298.436E-03     594.631E-03    -296.125E-03     70.5350E-03
            1816     10.0401E-03     58.4809E-03    -11.1149E+06     9.49491E+06     24.6459E+06     155.008E+03    -297.236E-03     593.515E-03    -296.279E-03     70.7569E-03    -297.590E-03     593.791E-03    -296.154E-03     65.6659E-03
            1817     9.36924E-03     58.3636E-03    -13.9365E+06     6.71207E+06     22.2381E+06    -753.505E+03    -296.925E-03     593.255E-03    -296.330E-03     66.6429E-03    -297.255E-03     593.495E-03    -296.208E-03     61.9090E-03
            1818     8.69956E-03     58.2528E-03    -16.5229E+06     5.17972E+06     22.7206E+06     1.12882E+06    -297.769E-03     594.135E-03    -296.366E-03     63.5451E-03    -298.068E-03     594.327E-03    -296.236E-03     59.5065E-03
            1819     8.03341E-03     58.1526E-03    -18.7340E+06     3.20884E+06     21.8807E+06     428.329E+03    -297.953E-03     594.297E-03    -296.344E-03     59.2363E-03    -298.236E-03     594.461E-03    -296.212E-03     55.4551E-03
            1820     7.36439E-03     58.0594E-03    -23.2779E+06    -3.43612E+06     12.3795E+06     1.23375E+06    -296.528E-03     592.853E-03    -296.326E-03     53.7909E-03    -296.767E-03     592.962E-03    -296.225E-03     50.8492E-03
            1821     6.69096E-03     57.9697E-03    -25.0035E+06    -8.13994E+06     2.90306E+06     1.85231E+06    -295.824E-03     592.214E-03    -296.390E-03     48.3544E-03    -296.014E-03     592.278E-03    -296.327E-03     46.1748E-03
            1822     6.02089E-03     57.8912E-03    -27.5409E+06    -12.2626E+06    -3.65511E+06     395.458E+03    -296.257E-03     592.740E-03    -296.483E-03     43.4530E-03    -296.428E-03     592.781E-03    -296.444E-03     41.4967E-03
            1823     5.35091E-03     57.8201E-03    -29.7240E+06    -14.4600E+06    -5.49418E+06     2.45439E+06    -296.516E-03     593.078E-03    -296.562E-03     38.6939E-03    -296.677E-03     593.098E-03    -296.526E-03     37.1441E-03
            1824     4.68205E-03     57.7590E-03    -28.4100E+06    -17.5282E+06    -7.09096E+06     3.32677E+06    -296.708E-03     593.317E-03    -296.610E-03     33.7557E-03    -296.838E-03     593.305E-03    -296.578E-03     32.6530E-03
            1825     4.01439E-03     57.7041E-03    -34.2346E+06    -28.4788E+06    -17.6023E+06     1.86740E+06    -296.934E-03     593.529E-03    -296.594E-03     28.5396E-03    -297.051E-03     593.474E-03    -296.591E-03     27.6819E-03
            1826     3.34513E-03     57.6571E-03    -39.4711E+06    -35.1217E+06    -25.4049E+06     1.30190E+06    -296.945E-03     593.488E-03    -296.544E-03     23.7372E-03    -297.057E-03     593.410E-03    -296.562E-03     23.0616E-03
            1827     2.67696E-03     57.6206E-03    -40.8107E+06    -38.5046E+06    -30.6852E+06     887.815E+03    -296.690E-03     593.181E-03    -296.492E-03     19.6508E-03    -296.789E-03     593.089E-03    -296.530E-03     19.1170E-03
            1828     2.00861E-03     57.5921E-03    -42.7278E+06    -42.5726E+06    -36.9187E+06     1.42329E+06    -296.491E-03     592.962E-03    -296.471E-03     15.3245E-03    -296.575E-03     592.852E-03    -296.532E-03     14.9989E-03
            1829     1.33872E-03     57.5717E-03    -43.0539E+06    -44.9342E+06    -41.2425E+06     1.34372E+06    -296.368E-03     592.890E-03    -296.522E-03     10.6882E-03    -296.425E-03     592.762E-03    -296.601E-03     10.4875E-03
            1830     668.136E-06     57.5570E-03    -47.7303E+06    -49.9258E+06    -46.5214E+06     890.431E+03    -296.687E-03     593.232E-03    -296.545E-03     6.07926E-03    -296.701E-03     593.107E-03    -296.636E-03     5.99766E-03
            1831     12.7168E-03     57.3002E-03    -1.47804E+06     19.2413E+06     33.4568E+06    -176.117E+03    -297.937E-03     594.181E-03    -296.244E-03     78.9876E-03    -298.272E-03     594.482E-03    -296.102E-03     74.0632E-03
            1832     12.0483E-03     57.1641E-03    -4.74875E+06     16.2820E+06     30.6524E+06     995.094E+03    -297.854E-03     594.126E-03    -296.272E-03     79.7362E-03    -298.227E-03     594.451E-03    -296.135E-03     74.3647E-03
            1833     11.3769E-03     57.0244E-03    -6.15794E+06     14.9383E+06     29.7034E+06     885.917E+03    -298.019E-03     594.320E-03    -296.301E-03     78.1563E-03    -298.404E-03     594.650E-03    -296.165E-03     72.6631E-03
            1834     10.7095E-03     56.8918E-03    -7.26833E+06     13.7372E+06     28.7203E+06    -213.796E+03    -297.924E-03     594.245E-03    -296.321E-03     75.6122E-03    -298.302E-03     594.562E-03    -296.187E-03     70.1895E-03
            1835     10.0398E-03     56.7681E-03    -8.46576E+06     12.5410E+06     28.1915E+06    -448.694E+03    -297.091E-03     593.458E-03    -296.366E-03     72.5974E-03    -297.456E-03     593.755E-03    -296.231E-03     67.3365E-03
            1836     9.36988E-03     56.6525E-03    -12.0446E+06     8.86039E+06     25.0026E+06     2.13752E+06    -296.662E-03     593.105E-03    -296.442E-03     68.0972E-03    -296.992E-03     593.351E-03    -296.313E-03     63.4702E-03
            1837     8.69853E-03     56.5403E-03    -17.3093E+06     2.67306E+06     17.8920E+06     4.24855E+06    -296.595E-03     593.117E-03    -296.521E-03     63.6019E-03    -296.873E-03     593.291E-03    -296.411E-03     59.9855E-03
            1838     8.02667E-03     56.4322E-03    -22.4705E+06    -3.15548E+06     11.1164E+06     338.872E+03    -297.124E-03     593.706E-03    -296.582E-03     59.7791E-03    -297.394E-03     593.853E-03    -296.489E-03     56.1794E-03
            1839     7.35862E-03     56.3444E-03    -24.1272E+06    -4.60164E+06     10.1306E+06    -3.18453E+06    -297.929E-03     594.521E-03    -296.592E-03     55.0971E-03    -298.185E-03     594.646E-03    -296.500E-03     51.6505E-03
            1840     6.69203E-03     56.2582E-03    -23.8894E+06    -5.53970E+06     7.76019E+06    -359.462E+03    -297.512E-03     594.068E-03    -296.556E-03     48.8457E-03    -297.720E-03     594.149E-03    -296.474E-03     46.2569E-03
            1841     6.02207E-03     56.1764E-03    -27.3618E+06    -10.9562E+06    -255.756E+03     2.59027E+06    -296.668E-03     593.213E-03    -296.545E-03     42.2232E-03    -296.849E-03     593.258E-03    -296.490E-03     40.1858E-03
            1842     5.35285E-03     56.1067E-03    -27.2272E+06    -11.6793E+06    -2.24251E+06     949.858E+03    -296.460E-03     593.055E-03    -296.595E-03     36.8617E-03    -296.618E-03     593.081E-03    -296.550E-03     35.1821E-03
            1843     4.68310E-03     56.0416E-03    -32.5841E+06    -22.1157E+06    -12.4049E+06    -1.71335E+06    -296.442E-03     593.081E-03    -296.639E-03     32.5549E-03    -296.582E-03     593.062E-03    -296.621E-03     31.2347E-03
            1844     4.01349E-03     55.9875E-03    -30.4046E+06    -26.1591E+06    -16.7932E+06     479.914E+03    -296.251E-03     592.971E-03    -296.720E-03     28.7867E-03    -296.353E-03     592.921E-03    -296.722E-03     27.9286E-03
            1845     3.34478E-03     55.9415E-03    -30.6162E+06    -29.1129E+06    -22.2407E+06     2.08949E+06    -296.142E-03     592.998E-03    -296.856E-03     24.9534E-03    -296.224E-03     592.932E-03    -296.880E-03     24.3219E-03
            1846     2.67435E-03     55.9057E-03    -40.9570E+06    -41.2626E+06    -36.2152E+06     1.84005E+06    -296.413E-03     593.423E-03    -297.010E-03     20.6316E-03    -296.500E-03     593.324E-03    -297.072E-03     20.2104E-03
            1847     2.00436E-03     55.8754E-03    -39.9083E+06    -41.0975E+06    -36.9938E+06     2.06418E+06    -296.856E-03     594.030E-03    -297.174E-03     15.9799E-03    -296.927E-03     593.923E-03    -297.242E-03     15.7929E-03
            1848     1.33656E-03     55.8550E-03    -41.2096E+06    -42.7647E+06    -38.9001E+06     2.29199E+06    -297.265E-03     594.525E-03    -297.261E-03     10.8911E-03    -297.319E-03     594.402E-03    -297.333E-03     10.8252E-03
            1849     668.907E-06     55.8414E-03    -40.9875E+06    -42.8555E+06    -39.2565E+06     2.48321E+06    -297.563E-03     594.645E-03    -297.082E-03     6.03605E-03    -297.567E-03     594.536E-03    -297.157E-03     6.06765E-03
            1850     12.7173E-03     55.5850E-03    -1.60848E+06     19.5214E+06     34.5935E+06     9.80392E+03    -298.124E-03     594.429E-03    -296.305E-03     78.9403E-03    -298.459E-03     594.727E-03    -296.158E-03     74.0350E-03
            1851     12.0472E-03     55.4495E-03    -3.99571E+06     17.0389E+06     31.2910E+06    -146.026E+03    -298.273E-03     594.590E-03    -296.317E-03     81.2128E-03    -298.662E-03     594.935E-03    -296.179E-03     75.6019E-03
            1852     11.3796E-03     55.3111E-03    -6.48964E+06     13.8148E+06     27.4268E+06     46.9880E+03    -297.723E-03     594.063E-03    -296.340E-03     79.7814E-03    -298.114E-03     594.401E-03    -296.214E-03     74.2339E-03
            1853     10.7071E-03     55.1788E-03    -9.01494E+06     11.0638E+06     24.7835E+06    -681.382E+03    -296.761E-03     593.172E-03    -296.411E-03     76.5104E-03    -297.152E-03     593.498E-03    -296.290E-03     70.9204E-03
            1854     10.0359E-03     55.0558E-03    -11.5596E+06     9.07819E+06     24.2941E+06     1.76569E+06    -297.037E-03     593.543E-03    -296.507E-03     72.5357E-03    -297.408E-03     593.836E-03    -296.381E-03     67.3179E-03
            1855     9.36612E-03     54.9361E-03    -13.3017E+06     7.70244E+06     24.3308E+06     1.47527E+06    -297.569E-03     594.139E-03    -296.570E-03     67.8115E-03    -297.910E-03     594.390E-03    -296.440E-03     62.9826E-03
            1856     8.69839E-03     54.8268E-03    -13.6936E+06     6.25737E+06     21.5516E+06     439.224E+03    -296.893E-03     593.507E-03    -296.614E-03     62.2991E-03    -297.191E-03     593.716E-03    -296.496E-03     57.9356E-03
            1857     8.02822E-03     54.7242E-03    -15.3058E+06     2.62165E+06     14.8612E+06     3.27176E+06    -296.295E-03     592.983E-03    -296.688E-03     56.8212E-03    -296.531E-03     593.131E-03    -296.595E-03     53.4911E-03
            1858     7.35721E-03     54.6225E-03    -19.4775E+06    -2.32017E+06     8.81360E+06    -748.612E+03    -297.260E-03     594.012E-03    -296.752E-03     52.5532E-03    -297.480E-03     594.129E-03    -296.676E-03     49.4029E-03
            1859     6.68931E-03     54.5379E-03    -24.4565E+06    -5.71553E+06     7.84568E+06    -2.19587E+06    -297.860E-03     594.620E-03    -296.759E-03     49.0520E-03    -298.089E-03     594.718E-03    -296.676E-03     45.9433E-03
            1860     6.02203E-03     54.4628E-03    -26.3375E+06    -6.99943E+06     7.78908E+06     1.48995E+06    -297.394E-03     594.139E-03    -296.745E-03     45.2142E-03    -297.593E-03     594.197E-03    -296.657E-03     43.0957E-03
            1861     5.35267E-03     54.3899E-03    -31.0451E+06    -14.4830E+06    -3.61826E+06     633.352E+03    -296.933E-03     593.657E-03    -296.724E-03     40.2074E-03    -297.101E-03     593.675E-03    -296.676E-03     38.7194E-03
            1862     4.68353E-03     54.3292E-03    -34.0763E+06    -25.5824E+06    -17.9406E+06     245.879E+03    -296.334E-03     593.088E-03    -296.754E-03     34.8731E-03    -296.468E-03     593.062E-03    -296.757E-03     33.6526E-03
            1863     4.01316E-03     54.2734E-03    -29.4458E+06    -27.8966E+06    -21.5094E+06     237.264E+03    -295.926E-03     592.830E-03    -296.904E-03     29.5284E-03    -296.014E-03     592.777E-03    -296.928E-03     28.7090E-03
            1864     3.34164E-03     54.2277E-03    -32.8247E+06    -32.4466E+06    -27.1836E+06     1.26803E+06    -296.321E-03     593.420E-03    -297.099E-03     23.9851E-03    -296.401E-03     593.347E-03    -297.140E-03     23.4333E-03
            1865     2.67323E-03     54.1876E-03    -37.9231E+06    -38.1912E+06    -33.4129E+06     878.933E+03    -297.022E-03     594.250E-03    -297.228E-03     18.2910E-03    -297.103E-03     594.158E-03    -297.284E-03     17.8518E-03
            1866     2.00534E-03     54.1584E-03    -37.1311E+06    -38.2668E+06    -34.3185E+06    -546.673E+03    -297.310E-03     594.581E-03    -297.271E-03     13.0011E-03    -297.379E-03     594.483E-03    -297.333E-03     12.6242E-03
            1867     1.33607E-03     54.1337E-03    -40.1095E+06    -41.9742E+06    -38.4031E+06    -230.603E+03    -297.474E-03     594.687E-03    -297.213E-03     8.51514E-03    -297.530E-03     594.571E-03    -297.286E-03     8.23301E-03
            1868     668.191E-06     54.1214E-03    -39.9413E+06    -42.9062E+06    -40.0750E+06    -1.98882E+06    -297.532E-03     594.396E-03    -296.864E-03     4.83315E-03    -297.533E-03     594.289E-03    -296.945E-03     4.52608E-03
            1869     12.7158E-03     53.8761E-03    -1.54219E+06     19.3583E+06     34.2669E+06     35.3305E+03    -298.083E-03     594.477E-03    -296.394E-03     79.9333E-03    -298.417E-03     594.775E-03    -296.249E-03     75.0588E-03
            1870     12.0457E-03     53.7319E-03    -3.14421E+06     17.5551E+06     31.4349E+06     687.194E+03    -298.253E-03     594.670E-03    -296.417E-03     81.9444E-03    -298.643E-03     595.019E-03    -296.280E-03     76.3144E-03
            1871     11.3749E-03     53.5972E-03    -5.57916E+06     15.0128E+06     29.0588E+06     751.166E+03    -297.816E-03     594.265E-03    -296.450E-03     79.0217E-03    -298.217E-03     594.616E-03    -296.318E-03     73.2361E-03
            1872     10.7062E-03     53.4684E-03    -8.49889E+06     12.2943E+06     27.0428E+06     846.278E+03    -297.408E-03     593.909E-03    -296.500E-03     75.2234E-03    -297.806E-03     594.241E-03    -296.371E-03     69.5064E-03
            1873     10.0369E-03     53.3408E-03    -11.0274E+06     9.38303E+06     24.1793E+06     2.40378E+06    -297.243E-03     593.800E-03    -296.557E-03     70.8288E-03    -297.604E-03     594.085E-03    -296.434E-03     65.6829E-03
            1874     9.36800E-03     53.2212E-03    -13.7686E+06     5.80174E+06     19.9143E+06    -568.999E+03    -297.139E-03     593.751E-03    -296.612E-03     67.1994E-03    -297.469E-03     593.994E-03    -296.501E-03     62.4075E-03
            1875     8.69760E-03     53.1103E-03    -15.3366E+06     4.42343E+06     18.9737E+06    -3.54746E+06    -297.307E-03     593.978E-03    -296.671E-03     63.3030E-03    -297.623E-03     594.200E-03    -296.560E-03     58.5821E-03
            1876     8.02917E-03     53.0100E-03    -14.9850E+06     4.70193E+06     19.5952E+06     392.144E+03    -297.065E-03     593.797E-03    -296.732E-03     58.9343E-03    -297.319E-03     593.958E-03    -296.619E-03     55.4673E-03
            1877     7.35982E-03     52.9108E-03    -17.7766E+06     395.411E+03     13.8113E+06     3.62388E+06    -296.187E-03     593.010E-03    -296.823E-03     53.8703E-03    -296.395E-03     593.116E-03    -296.729E-03     51.2968E-03
            1878     6.68778E-03     52.8224E-03    -23.4148E+06    -7.34380E+06     2.96213E+06     537.640E+03    -296.087E-03     593.032E-03    -296.945E-03     48.7929E-03    -296.291E-03     593.118E-03    -296.886E-03     46.0213E-03
            1879     6.01703E-03     52.7446E-03    -26.6639E+06    -12.6446E+06    -5.49498E+06    -2.52250E+06    -296.869E-03     593.916E-03    -297.047E-03     45.1733E-03    -297.046E-03     593.969E-03    -297.017E-03     42.9068E-03
            1880     5.34856E-03     52.6737E-03    -28.5044E+06    -14.9276E+06    -8.52980E+06    -1.09961E+06    -297.330E-03     594.438E-03    -297.109E-03     40.4927E-03    -297.482E-03     594.461E-03    -297.088E-03     38.8635E-03
            1881     4.67963E-03     52.6121E-03    -29.3124E+06    -19.4317E+06    -10.6027E+06     971.877E+03    -297.481E-03     594.614E-03    -297.132E-03     34.7646E-03    -297.614E-03     594.604E-03    -297.115E-03     33.4094E-03
            1882     4.01118E-03     52.5587E-03    -40.3924E+06    -35.1795E+06    -24.6768E+06     1.85759E+06    -297.666E-03     594.745E-03    -297.079E-03     28.8699E-03    -297.795E-03     594.678E-03    -297.093E-03     27.9409E-03
            1883     3.34435E-03     52.5100E-03    -39.5069E+06    -35.6134E+06    -26.3700E+06     1.80716E+06    -297.668E-03     594.661E-03    -296.993E-03     22.8263E-03    -297.776E-03     594.579E-03    -297.016E-03     22.3054E-03
            1884     2.67560E-03     52.4696E-03    -32.4189E+06    -30.4925E+06    -23.2209E+06     1.01629E+06    -297.476E-03     594.353E-03    -296.877E-03     17.4816E-03    -297.554E-03     594.275E-03    -296.902E-03     17.0735E-03
            1885     2.00714E-03     52.4390E-03    -38.9869E+06    -38.9125E+06    -33.3160E+06    -186.134E+03    -297.246E-03     593.949E-03    -296.703E-03     13.0643E-03    -297.326E-03     593.851E-03    -296.757E-03     12.6249E-03
            1886     1.33937E-03     52.4185E-03    -39.8637E+06    -41.9956E+06    -38.1358E+06     18.4821E+03    -296.815E-03     593.365E-03    -296.551E-03     9.01068E-03    -296.871E-03     593.249E-03    -296.623E-03     8.70048E-03
            1887     669.628E-06     52.4032E-03    -39.1898E+06    -43.3625E+06    -41.0708E+06    -92.0583E+03    -296.305E-03     593.073E-03    -296.768E-03     4.85681E-03    -296.299E-03     592.961E-03    -296.853E-03     4.61281E-03
            1888     12.7134E-03     52.1577E-03    -1.55912E+06     18.5296E+06     32.1247E+06     470.520E+03    -298.222E-03     594.684E-03    -296.462E-03     79.0502E-03    -298.542E-03     594.971E-03    -296.326E-03     74.2909E-03
            1889     12.0452E-03     52.0186E-03    -5.21257E+06     15.5419E+06     29.3653E+06     331.371E+03    -298.524E-03     595.002E-03    -296.477E-03     80.0364E-03    -298.908E-03     595.336E-03    -296.346E-03     74.4490E-03
            1890     11.3763E-03     51.8833E-03    -5.78023E+06     15.1553E+06     29.7984E+06     255.611E+03    -297.818E-03     594.325E-03    -296.507E-03     77.4916E-03    -298.222E-03     594.676E-03    -296.372E-03     71.6119E-03
            1891     10.7067E-03     51.7514E-03    -6.42802E+06     14.3239E+06     29.0614E+06     838.410E+03    -297.475E-03     594.033E-03    -296.557E-03     75.7859E-03    -297.866E-03     594.368E-03    -296.424E-03     70.1402E-03
            1892     10.0375E-03     51.6273E-03    -8.83365E+06     11.5145E+06     26.0193E+06     360.935E+03    -297.148E-03     593.772E-03    -296.624E-03     73.1762E-03    -297.509E-03     594.067E-03    -296.498E-03     68.0103E-03
            1893     9.36590E-03     51.5091E-03    -11.3705E+06     8.70902E+06     23.2687E+06     835.642E+03    -296.807E-03     593.522E-03    -296.715E-03     68.9071E-03    -297.128E-03     593.767E-03    -296.595E-03     64.3791E-03
            1894     8.69584E-03     51.3956E-03    -14.9770E+06     5.12957E+06     20.1707E+06     636.404E+03    -296.976E-03     593.787E-03    -296.811E-03     63.8440E-03    -297.265E-03     593.983E-03    -296.696E-03     59.8503E-03
            1895     8.02573E-03     51.2929E-03    -21.9410E+06    -1.85487E+06     13.2225E+06    -1.61346E+06    -297.373E-03     594.244E-03    -296.871E-03     59.3257E-03    -297.650E-03     594.398E-03    -296.770E-03     55.5982E-03
            1896     7.35619E-03     51.1965E-03    -21.9757E+06    -3.72817E+06     9.30892E+06     1.29976E+06    -296.838E-03     593.767E-03    -296.929E-03     53.7780E-03    -297.071E-03     593.882E-03    -296.846E-03     50.6726E-03
            1897     6.68725E-03     51.1103E-03    -19.9769E+06    -5.30019E+06     2.95876E+06     150.727E+03    -296.263E-03     593.285E-03    -297.022E-03     47.6958E-03    -296.444E-03     593.367E-03    -296.971E-03     45.1414E-03
            1898     6.01763E-03     51.0290E-03    -24.2818E+06    -11.9032E+06    -7.13936E+06    -1.80558E+06    -296.682E-03     593.807E-03    -297.125E-03     42.4146E-03    -296.838E-03     593.855E-03    -297.108E-03     40.2511E-03
            1899     5.34778E-03     50.9558E-03    -25.8294E+06    -12.8577E+06    -7.43676E+06    -766.420E+03    -297.267E-03     594.478E-03    -297.211E-03     36.9190E-03    -297.411E-03     594.507E-03    -297.192E-03     35.0727E-03
            1900     4.67956E-03     50.8930E-03    -31.8597E+06    -22.1373E+06    -13.3965E+06    -2.38295E+06    -297.840E-03     595.045E-03    -297.205E-03     32.0823E-03    -297.978E-03     595.031E-03    -297.194E-03     30.5083E-03
            1901     4.01244E-03     50.8378E-03    -37.2044E+06    -32.4794E+06    -21.8415E+06    -988.889E+03    -298.190E-03     595.282E-03    -297.093E-03     28.2660E-03    -298.314E-03     595.222E-03    -297.101E-03     27.1515E-03
            1902     3.34426E-03     50.7906E-03    -36.6988E+06    -33.1653E+06    -23.2429E+06     34.4293E+03    -297.882E-03     594.823E-03    -296.941E-03     24.4794E-03    -297.987E-03     594.748E-03    -296.956E-03     23.8144E-03
            1903     2.67644E-03     50.7531E-03    -35.2450E+06    -33.5581E+06    -25.3103E+06     1.73117E+06    -297.236E-03     594.055E-03    -296.819E-03     20.0586E-03    -297.321E-03     593.969E-03    -296.846E-03     19.6645E-03
            1904     2.00724E-03     50.7232E-03    -35.2226E+06    -35.8534E+06    -29.8436E+06     3.30395E+06    -296.860E-03     593.624E-03    -296.764E-03     15.5242E-03    -296.928E-03     593.528E-03    -296.810E-03     15.2465E-03
            1905     1.33745E-03     50.7022E-03    -38.3888E+06    -39.6579E+06    -34.1981E+06     1.83529E+06    -296.812E-03     593.564E-03    -296.751E-03     10.7835E-03    -296.870E-03     593.450E-03    -296.809E-03     10.5689E-03
            1906     668.610E-06     50.6908E-03    -38.9730E+06    -40.4161E+06    -34.8889E+06     2.14317E+06    -296.835E-03     593.571E-03    -296.736E-03     5.73652E-03    -296.840E-03     593.467E-03    -296.795E-03     5.60816E-03
            1907     12.7150E-03     50.4429E-03    -2.91578E+06     17.6916E+06     32.3346E+06     1.31004E+06    -298.250E-03     594.712E-03    -296.462E-03     78.1765E-03    -298.565E-03     594.987E-03    -296.322E-03     73.5163E-03
            1908     12.0451E-03     50.3022E-03    -3.97434E+06     16.8760E+06     31.3579E+06     148.970E+03    -297.661E-03     594.162E-03    -296.501E-03     79.8963E-03    -298.051E-03     594.507E-03    -296.363E-03     74.1684E-03
            1909     11.3756E-03     50.1688E-03    -6.37825E+06     13.6736E+06     27.1405E+06    -947.353E+03    -297.136E-03     593.698E-03    -296.563E-03     79.1178E-03    -297.552E-03     594.062E-03    -296.437E-03     73.0857E-03
            1910     10.7047E-03     50.0402E-03    -8.48351E+06     10.9232E+06     23.7016E+06    -1.39162E+06    -297.015E-03     593.665E-03    -296.649E-03     76.7744E-03    -297.400E-03     593.989E-03    -296.534E-03     71.2442E-03
            1911     10.0328E-03     49.9126E-03     -9.2781E+06     10.5059E+06     24.0498E+06    -714.434E+03    -297.284E-03     594.030E-03    -296.746E-03     72.6003E-03    -297.636E-03     594.317E-03    -296.628E-03     67.5219E-03
            1912     9.36491E-03     49.7938E-03    -11.1109E+06     9.30439E+06     24.2605E+06     1.96833E+06    -297.450E-03     594.276E-03    -296.826E-03     67.4830E-03    -297.769E-03     594.518E-03    -296.702E-03     62.9338E-03
            1913     8.69520E-03     49.6822E-03    -13.5047E+06     6.78490E+06     22.0120E+06     2.63003E+06    -297.335E-03     594.223E-03    -296.887E-03     62.2596E-03    -297.612E-03     594.412E-03    -296.767E-03     58.4041E-03
            1914     8.02604E-03     49.5760E-03    -15.0991E+06     4.03545E+06     17.4819E+06     76.2517E+03    -297.221E-03     594.158E-03    -296.937E-03     57.4722E-03    -297.477E-03     594.324E-03    -296.833E-03     53.7287E-03
            1915     7.35761E-03     49.4805E-03    -17.8824E+06    -570.595E+03     10.1585E+06    -1.42139E+06    -297.178E-03     594.154E-03    -296.975E-03     52.5850E-03    -297.413E-03     594.293E-03    -296.897E-03     48.9740E-03
            1916     6.68799E-03     49.3949E-03    -22.6834E+06    -6.07785E+06     4.18307E+06     216.264E+03    -297.429E-03     594.437E-03    -297.008E-03     47.7722E-03    -297.625E-03     594.518E-03    -296.945E-03     45.2172E-03
            1917     6.01922E-03     49.3122E-03    -27.3690E+06    -10.2587E+06     960.226E+03     1.28291E+06    -297.521E-03     594.548E-03    -297.027E-03     42.6216E-03    -297.699E-03     594.590E-03    -296.968E-03     40.7448E-03
            1918     5.35105E-03     49.2396E-03    -28.6175E+06    -12.8862E+06    -3.88187E+06     475.528E+03    -297.275E-03     594.300E-03    -297.025E-03     37.2987E-03    -297.437E-03     594.326E-03    -296.984E-03     35.5230E-03
            1919     4.68174E-03     49.1748E-03    -31.1627E+06    -23.3802E+06    -15.6584E+06    -582.224E+03    -297.251E-03     594.255E-03    -297.003E-03     32.4642E-03    -297.380E-03     594.235E-03    -297.003E-03     31.0141E-03
            1920     4.01193E-03     49.1199E-03    -29.4125E+06    -29.3937E+06    -22.0011E+06    -2.69144E+06    -297.157E-03     594.154E-03    -296.996E-03     28.0762E-03    -297.248E-03     594.099E-03    -297.021E-03     26.8641E-03
            1921     3.34276E-03     49.0731E-03    -31.9931E+06    -34.1542E+06    -28.7356E+06    -3.54765E+06    -296.821E-03     593.849E-03    -297.029E-03     23.9060E-03    -296.898E-03     593.775E-03    -297.076E-03     22.8881E-03
            1922     2.67337E-03     49.0355E-03    -38.0932E+06    -40.5469E+06    -34.9460E+06    -2.66095E+06    -296.728E-03     593.858E-03    -297.130E-03     19.8322E-03    -296.808E-03     593.761E-03    -297.191E-03     19.1362E-03
            1923     2.00478E-03     49.0067E-03    -34.8987E+06    -37.1143E+06    -31.2352E+06    -910.058E+03    -296.834E-03     594.139E-03    -297.305E-03     15.4029E-03    -296.898E-03     594.040E-03    -297.357E-03     15.0095E-03
            1924     1.33666E-03     48.9845E-03    -33.3071E+06    -36.2830E+06    -31.6935E+06     65.4098E+03    -297.125E-03     594.634E-03    -297.508E-03     10.8094E-03    -297.170E-03     594.529E-03    -297.566E-03     10.6037E-03
            1925     668.641E-06     48.9714E-03    -36.3561E+06    -39.9101E+06    -35.9690E+06    -704.167E+03    -297.813E-03     595.321E-03    -297.509E-03     6.73181E-03    -297.805E-03     595.223E-03    -297.578E-03     6.60248E-03
            1926     12.7157E-03     48.7307E-03    -1.98815E+06     18.4038E+06     32.5652E+06     1.10365E+06    -297.495E-03     593.977E-03    -296.482E-03     79.1599E-03    -297.812E-03     594.257E-03    -296.343E-03     74.4662E-03
            1927     12.0449E-03     48.5897E-03    -2.22139E+06     17.2973E+06     29.9232E+06     610.081E+03    -296.776E-03     593.340E-03    -296.564E-03     81.5568E-03    -297.159E-03     593.690E-03    -296.436E-03     75.8905E-03
            1928     11.3727E-03     48.4582E-03    -5.03825E+06     14.2909E+06     26.8166E+06    -439.093E+03    -297.270E-03     593.931E-03    -296.661E-03     78.9593E-03    -297.676E-03     594.291E-03    -296.540E-03     72.9910E-03
            1929     10.7031E-03     48.3237E-03    -7.35297E+06     12.4796E+06     25.7440E+06    -610.028E+03    -298.018E-03     594.743E-03    -296.725E-03     75.2278E-03    -298.401E-03     595.070E-03    -296.604E-03     69.6203E-03
            1930     10.0358E-03     48.1998E-03    -10.3388E+06     9.75351E+06     23.7851E+06     933.910E+03    -298.180E-03     594.930E-03    -296.750E-03     70.5065E-03    -298.536E-03     595.215E-03    -296.630E-03     65.3285E-03
            1931     9.36478E-03     48.0766E-03    -13.1358E+06     6.46918E+06     20.0625E+06     1.00325E+06    -297.886E-03     594.642E-03    -296.757E-03     65.5612E-03    -298.222E-03     594.896E-03    -296.647E-03     60.5254E-03
            1932     8.69632E-03     47.9671E-03    -13.4950E+06     4.72466E+06     16.5901E+06    -1.28287E+06    -297.139E-03     593.923E-03    -296.784E-03     61.2015E-03    -297.432E-03     594.136E-03    -296.688E-03     56.6612E-03
            1933     8.02696E-03     47.8599E-03    -13.5821E+06     4.03416E+06     15.1909E+06    -1.23075E+06    -296.429E-03     593.304E-03    -296.875E-03     57.5942E-03    -296.676E-03     593.474E-03    -296.786E-03     53.8044E-03
            1934     7.35607E-03     47.7664E-03    -17.7417E+06     888.239E+03     13.6195E+06    -657.523E+03    -296.947E-03     593.934E-03    -296.987E-03     53.3851E-03    -297.177E-03     594.064E-03    -296.894E-03     50.1605E-03
            1935     6.68742E-03     47.6758E-03    -23.2582E+06    -4.20093E+06     9.47909E+06     2.63288E+06    -297.946E-03     594.963E-03    -297.018E-03     48.5556E-03    -298.152E-03     595.045E-03    -296.930E-03     46.1409E-03
            1936     6.01940E-03     47.5950E-03    -22.1991E+06    -4.93070E+06     6.28769E+06     1.89508E+06    -297.835E-03     594.815E-03    -296.980E-03     43.4323E-03    -298.009E-03     594.874E-03    -296.909E-03     41.4061E-03
            1937     5.35016E-03     47.5221E-03    -27.8736E+06    -13.1569E+06    -5.62942E+06    -1.26998E+06    -297.233E-03     594.172E-03    -296.939E-03     38.7819E-03    -297.392E-03     594.202E-03    -296.908E-03     36.9655E-03
            1938     4.68147E-03     47.4591E-03    -31.1079E+06    -23.8659E+06    -15.8350E+06     596.295E+03    -296.924E-03     593.875E-03    -296.952E-03     34.0185E-03    -297.051E-03     593.854E-03    -296.951E-03     32.6793E-03
            1939     4.01329E-03     47.4029E-03    -34.0376E+06    -33.8709E+06    -24.6449E+06     203.065E+03    -296.728E-03     593.735E-03    -297.007E-03     29.1119E-03    -296.831E-03     593.668E-03    -297.031E-03     27.9615E-03
            1940     3.34420E-03     47.3580E-03    -36.5624E+06    -38.0227E+06    -30.4724E+06    -862.357E+03    -296.612E-03     593.720E-03    -297.108E-03     24.1476E-03    -296.704E-03     593.636E-03    -297.153E-03     23.1632E-03
            1941     2.67455E-03     47.3196E-03    -35.1462E+06    -38.5287E+06    -32.7287E+06    -1.89159E+06    -296.730E-03     593.982E-03    -297.253E-03     19.1886E-03    -296.801E-03     593.888E-03    -297.310E-03     18.5290E-03
            1942     2.00527E-03     47.2877E-03    -37.7820E+06    -42.1750E+06    -37.5886E+06    -3.97921E+06    -297.152E-03     594.530E-03    -297.378E-03     14.1355E-03    -297.215E-03     594.420E-03    -297.450E-03     13.6921E-03
            1943     1.33590E-03     47.2668E-03    -37.3805E+06    -41.1703E+06    -36.2944E+06    -3.09199E+06    -297.499E-03     594.935E-03    -297.436E-03     9.13990E-03    -297.550E-03     594.819E-03    -297.504E-03     8.83674E-03
            1944     666.869E-06     47.2493E-03    -38.5679E+06    -42.9807E+06    -38.7353E+06    -1.37642E+06    -297.291E-03     594.946E-03    -297.655E-03     4.64284E-03    -297.283E-03     594.839E-03    -297.731E-03     4.42267E-03
            1945     12.7124E-03     47.0177E-03    -536.629E+03     19.0222E+06     31.7615E+06    -302.848E+03    -297.048E-03     593.603E-03    -296.555E-03     79.1326E-03    -297.366E-03     593.894E-03    -296.423E-03     74.2380E-03
            1946     12.0414E-03     46.8790E-03    -3.34384E+06     17.1238E+06     27.9920E+06     796.898E+03    -297.880E-03     594.498E-03    -296.618E-03     79.9482E-03    -298.252E-03     594.837E-03    -296.498E-03     74.3898E-03
            1947     11.3735E-03     46.7411E-03    -4.48987E+06     16.0262E+06     27.3404E+06     1.25606E+06    -298.313E-03     594.969E-03    -296.656E-03     77.0938E-03    -298.712E-03     595.329E-03    -296.536E-03     71.1479E-03
            1948     10.7049E-03     46.6091E-03    -6.48606E+06     13.2713E+06     26.4533E+06     1.26691E+06    -298.295E-03     594.970E-03    -296.675E-03     74.2551E-03    -298.681E-03     595.303E-03    -296.552E-03     68.5241E-03
            1949     10.0347E-03     46.4805E-03    -8.81725E+06     10.9637E+06     24.6535E+06     1.83941E+06    -298.036E-03     594.727E-03    -296.691E-03     71.3986E-03    -298.390E-03     595.017E-03    -296.571E-03     66.2445E-03
            1950     9.36830E-03     46.3627E-03    -11.7088E+06     7.60692E+06     21.0190E+06    -831.734E+03    -297.653E-03     594.368E-03    -296.715E-03     68.0491E-03    -297.992E-03     594.632E-03    -296.604E-03     62.9988E-03
            1951     8.69816E-03     46.2512E-03    -14.3993E+06     4.59525E+06     17.6112E+06    -2.59503E+06    -297.290E-03     594.046E-03    -296.757E-03     63.3700E-03    -297.600E-03     594.271E-03    -296.654E-03     58.6640E-03
            1952     8.02667E-03     46.1508E-03    -18.3232E+06     646.398E+03     13.7543E+06    -924.509E+03    -297.042E-03     593.855E-03    -296.813E-03     57.4337E-03    -297.314E-03     594.024E-03    -296.718E-03     53.4590E-03
            1953     7.35689E-03     46.0493E-03    -23.6423E+06    -5.43629E+06     6.81707E+06     1.23253E+06    -297.065E-03     593.925E-03    -296.860E-03     51.9379E-03    -297.296E-03     594.033E-03    -296.784E-03     48.9363E-03
            1954     6.68811E-03     45.9583E-03    -23.7680E+06    -7.50079E+06     2.32408E+06     305.001E+03    -297.216E-03     594.109E-03    -296.893E-03     47.2988E-03    -297.409E-03     594.184E-03    -296.836E-03     44.8313E-03
            1955     6.01918E-03     45.8764E-03    -21.3465E+06    -6.98195E+06      81.198E+03    -1.63026E+06    -296.927E-03     593.860E-03    -296.933E-03     42.9643E-03    -297.091E-03     593.924E-03    -296.892E-03     40.6015E-03
            1956     5.35047E-03     45.8072E-03    -25.7790E+06    -12.2088E+06    -6.22454E+06    -485.994E+03    -296.601E-03     593.609E-03    -297.008E-03     39.0753E-03    -296.751E-03     593.642E-03    -296.984E-03     37.2350E-03
            1957     4.68105E-03     45.7415E-03    -29.4013E+06    -21.3945E+06    -11.9667E+06     669.353E+03    -296.527E-03     593.656E-03    -297.129E-03     35.0413E-03    -296.655E-03     593.638E-03    -297.115E-03     33.7164E-03
            1958     4.01084E-03     45.6878E-03    -33.1699E+06    -31.2297E+06    -19.2556E+06     799.542E+03    -296.788E-03     594.039E-03    -297.250E-03     30.3105E-03    -296.899E-03     593.977E-03    -297.253E-03     29.2255E-03
            1959     3.34165E-03     45.6400E-03    -37.2296E+06    -36.5660E+06    -26.1741E+06     397.131E+03    -297.373E-03     594.683E-03    -297.310E-03     25.1012E-03    -297.475E-03     594.599E-03    -297.334E-03     24.2824E-03
            1960     2.67393E-03     45.6019E-03    -35.6548E+06    -36.6734E+06    -28.0986E+06     555.265E+03    -297.743E-03     595.015E-03    -297.272E-03     19.6142E-03    -297.825E-03     594.922E-03    -297.308E-03     19.0820E-03
            1961     2.00559E-03     45.5705E-03    -38.4460E+06    -41.1579E+06    -34.0427E+06      871.93E+03    -297.692E-03     594.824E-03    -297.132E-03     14.3093E-03    -297.764E-03     594.714E-03    -297.187E-03     13.9810E-03
            1962     1.33866E-03     45.5457E-03    -40.9973E+06    -44.6551E+06    -38.2626E+06    -186.774E+03    -297.483E-03     594.392E-03    -296.910E-03     9.56691E-03    -297.542E-03     594.265E-03    -296.977E-03     9.29565E-03
            1963     671.348E-06     45.5344E-03    -42.7406E+06    -46.6746E+06    -40.6252E+06    -345.457E+03    -296.866E-03     593.625E-03    -296.760E-03     5.38823E-03    -296.870E-03     593.509E-03    -296.833E-03     5.18109E-03
            1964     12.7125E-03     45.3013E-03    -1.10197E+06     18.5463E+06     31.9477E+06    -31.0901E+03    -298.405E-03     594.950E-03    -296.545E-03     77.3403E-03    -298.733E-03     595.248E-03    -296.411E-03     72.1518E-03
            1965     12.0452E-03     45.1645E-03    -4.20499E+06     17.3192E+06     29.6500E+06     249.963E+03    -298.736E-03     595.279E-03    -296.543E-03     77.6411E-03    -299.121E-03     595.624E-03    -296.414E-03     71.8474E-03
            1966     11.3754E-03     45.0240E-03    -5.33693E+06     15.3943E+06     27.2322E+06     268.277E+03    -298.305E-03     594.842E-03    -296.537E-03     76.5698E-03    -298.712E-03     595.206E-03    -296.415E-03     70.5372E-03
            1967     10.7058E-03     44.8951E-03    -6.07999E+06     12.5958E+06     24.5507E+06     1.20316E+06    -297.605E-03     594.162E-03    -296.557E-03     73.6300E-03    -297.988E-03     594.496E-03    -296.444E-03     67.8242E-03
            1968     10.0363E-03     44.7668E-03    -8.25602E+06     10.5376E+06     21.9388E+06     772.598E+03    -296.416E-03     593.053E-03    -296.637E-03     70.8053E-03    -296.762E-03     593.344E-03    -296.530E-03     65.6151E-03
            1969     9.36314E-03     44.6473E-03    -10.7315E+06     9.02412E+06     21.8407E+06    -5.24547E+03    -296.208E-03     592.991E-03    -296.782E-03     68.0535E-03    -296.524E-03     593.237E-03    -296.671E-03     63.4696E-03
            1970     8.69382E-03     44.5359E-03    -14.9254E+06     5.74872E+06     20.9673E+06     605.887E+03    -297.703E-03     594.591E-03    -296.888E-03     64.8411E-03    -298.008E-03     594.802E-03    -296.770E-03     60.6155E-03
            1971     8.02836E-03     44.4302E-03    -18.8522E+06     1.75905E+06     16.5642E+06     561.708E+03    -298.799E-03     595.667E-03    -296.868E-03     59.7313E-03    -299.085E-03     595.844E-03    -296.760E-03     55.7404E-03
            1972     7.36076E-03     44.3367E-03    -20.0446E+06    -1.97522E+06     9.42644E+06     540.057E+03    -297.960E-03     594.759E-03    -296.799E-03     54.6822E-03    -298.197E-03     594.890E-03    -296.720E-03     51.4101E-03
            1973     6.69030E-03     44.2424E-03    -19.4743E+06    -4.69817E+06     2.87049E+06    -923.087E+03    -296.455E-03     593.279E-03    -296.823E-03     49.4811E-03    -296.639E-03     593.368E-03    -296.774E-03     46.9025E-03
            1974     6.01975E-03     44.1638E-03    -24.7532E+06    -11.2231E+06    -4.67973E+06    -1.67786E+06    -296.004E-03     592.959E-03    -296.955E-03     44.3870E-03    -296.173E-03     593.014E-03    -296.926E-03     42.0932E-03
            1975     5.34903E-03     44.0903E-03    -29.6755E+06    -16.0135E+06    -9.29958E+06     187.983E+03    -296.285E-03     593.408E-03    -297.122E-03     39.5500E-03    -296.446E-03     593.433E-03    -297.103E-03     37.7225E-03
            1976     4.67901E-03     44.0277E-03    -29.7063E+06    -22.4930E+06    -13.4476E+06     453.630E+03    -296.576E-03     593.852E-03    -297.276E-03     34.4505E-03    -296.703E-03     593.833E-03    -297.267E-03     33.0678E-03
            1977     4.01037E-03     43.9692E-03    -30.7331E+06    -30.5032E+06    -19.4170E+06     404.342E+03    -297.130E-03     594.516E-03    -297.385E-03     29.2722E-03    -297.229E-03     594.454E-03    -297.394E-03     28.2301E-03
            1978     3.34234E-03     43.9217E-03    -33.2805E+06    -34.3488E+06    -24.8489E+06     698.196E+03    -297.680E-03     595.089E-03    -297.409E-03     24.1831E-03    -297.766E-03     595.007E-03    -297.435E-03     23.3844E-03
            1979     2.67397E-03     43.8808E-03    -35.7423E+06    -37.7840E+06    -29.1991E+06     643.266E+03    -297.821E-03     595.170E-03    -297.349E-03     19.7539E-03    -297.901E-03     595.074E-03    -297.389E-03     19.1209E-03
            1980     2.00690E-03     43.8513E-03    -37.2674E+06    -40.4453E+06    -32.6389E+06     1.87816E+06    -297.556E-03     594.821E-03    -297.265E-03     15.6676E-03    -297.625E-03     594.711E-03    -297.315E-03     15.2660E-03
            1981     1.33678E-03     43.8301E-03     -36.338E+06    -40.6812E+06    -33.9104E+06     2.36388E+06    -297.185E-03     594.447E-03    -297.262E-03     11.1856E-03    -297.234E-03     594.326E-03    -297.320E-03     11.0197E-03
            1982     666.536E-06     43.8163E-03    -39.4821E+06    -44.6486E+06    -38.9231E+06     1.00161E+06    -297.351E-03     594.663E-03    -297.312E-03     6.32727E-03    -297.347E-03     594.555E-03    -297.385E-03     6.23017E-03
            1983     12.7159E-03     43.5841E-03    -2.40158E+06     17.5341E+06     31.2815E+06     231.675E+03    -298.706E-03     595.150E-03    -296.444E-03     77.6106E-03    -299.040E-03     595.447E-03    -296.309E-03     72.3991E-03
            1984     12.0461E-03     43.4487E-03    -3.41765E+06     17.1532E+06     28.5835E+06    -773.461E+03    -298.064E-03     594.509E-03    -296.445E-03     79.5096E-03    -298.451E-03     594.861E-03    -296.322E-03     73.6721E-03
            1985     11.3767E-03     43.3114E-03    -5.52252E+06     14.7559E+06     25.8960E+06    -896.463E+03    -297.482E-03     593.970E-03    -296.488E-03     79.2898E-03    -297.883E-03     594.329E-03    -296.372E-03     73.4779E-03
            1986     10.7074E-03     43.1788E-03    -8.08852E+06     10.9999E+06     23.7088E+06    -468.734E+03    -296.969E-03     593.540E-03    -296.571E-03     76.7796E-03    -297.370E-03     593.882E-03    -296.456E-03     70.9529E-03
            1987     10.0367E-03     43.0571E-03    -8.70843E+06     10.8909E+06     23.4521E+06     703.383E+03    -296.672E-03     593.351E-03    -296.679E-03     73.0338E-03    -297.050E-03     593.669E-03    -296.565E-03     67.5084E-03
            1988     9.36662E-03     42.9388E-03    -10.2690E+06     9.82647E+06     21.6639E+06     3.04531E+06    -296.647E-03     593.441E-03    -296.794E-03     67.6627E-03    -296.962E-03     593.692E-03    -296.685E-03     63.1350E-03
            1989     8.69515E-03     42.8191E-03    -15.0019E+06     3.47674E+06     15.3379E+06     2.95598E+06    -296.849E-03     593.744E-03    -296.894E-03     63.2186E-03    -297.127E-03     593.936E-03    -296.801E-03     59.3116E-03
            1990     8.02352E-03     42.7106E-03    -17.8076E+06    -179.514E+03     11.4545E+06    -397.832E+03    -297.433E-03     594.403E-03    -296.969E-03     59.5567E-03    -297.697E-03     594.570E-03    -296.886E-03     55.7250E-03
            1991     7.35550E-03     42.6157E-03    -18.0487E+06     112.463E+03     11.4235E+06    -3.22384E+06    -297.683E-03     594.699E-03    -297.016E-03     56.0712E-03    -297.931E-03     594.851E-03    -296.933E-03     52.3644E-03
            1992     6.68765E-03     42.5304E-03    -17.5405E+06     195.772E+03     11.3765E+06    -1.29350E+06    -297.050E-03     594.126E-03    -297.077E-03     51.5862E-03    -297.259E-03     594.241E-03    -296.995E-03     48.6273E-03
            1993     6.01751E-03     42.4488E-03    -21.0887E+06    -5.00139E+06     4.78592E+06     1.78314E+06    -296.805E-03     593.967E-03    -297.161E-03     45.6917E-03    -296.980E-03     594.035E-03    -297.099E-03     43.4907E-03
            1994     5.34880E-03     42.3750E-03    -28.7491E+06    -15.1551E+06    -8.47705E+06     1.82701E+06    -297.146E-03     594.363E-03    -297.217E-03     39.4808E-03    -297.303E-03     594.390E-03    -297.196E-03     37.6971E-03
            1995     4.68045E-03     42.3101E-03    -30.5922E+06    -25.1644E+06    -17.6386E+06     1.82946E+06    -297.427E-03     594.670E-03    -297.243E-03     33.8784E-03    -297.548E-03     594.645E-03    -297.250E-03     32.5051E-03
            1996     4.01132E-03     42.2519E-03    -31.3200E+06    -33.4068E+06    -23.5673E+06     1.64526E+06    -297.370E-03     594.631E-03    -297.260E-03     28.7973E-03    -297.460E-03     594.559E-03    -297.284E-03     27.8338E-03
            1997     3.34235E-03     42.2021E-03    -30.8892E+06    -34.0018E+06    -24.9485E+06     389.773E+03    -297.085E-03     594.402E-03    -297.318E-03     24.1182E-03    -297.161E-03     594.321E-03    -297.348E-03     23.3255E-03
            1998     2.67374E-03     42.1634E-03    -32.0147E+06    -36.6925E+06    -29.1116E+06    -356.089E+03    -297.006E-03     594.427E-03    -297.421E-03     19.7664E-03    -297.069E-03     594.331E-03    -297.467E-03     19.0506E-03
            1999     2.00321E-03     42.1329E-03    -35.2996E+06    -40.9394E+06    -34.4682E+06    -1.41201E+06    -297.279E-03     594.818E-03    -297.539E-03     14.9696E-03    -297.336E-03     594.706E-03    -297.601E-03     14.3788E-03
            2000     1.33619E-03     42.1110E-03    -37.2445E+06    -42.2417E+06    -35.2298E+06    -1.05390E+06    -297.608E-03     595.226E-03    -297.618E-03     9.74901E-03    -297.659E-03     595.102E-03    -297.679E-03     9.36329E-03
            2001     669.182E-06     42.0973E-03    -35.6680E+06    -40.8479E+06    -34.1086E+06     548.442E+03    -297.677E-03     595.354E-03    -297.676E-03     5.10050E-03    -297.669E-03     595.254E-03    -297.736E-03     4.98777E-03
            2002     12.7155E-03     41.8718E-03    -1.36917E+06     17.5309E+06     29.4851E+06    -314.585E+03    -297.239E-03     593.645E-03    -296.406E-03     79.1722E-03    -297.560E-03     593.938E-03    -296.282E-03     74.1594E-03
            2003     12.0451E-03     41.7350E-03    -2.48440E+06     17.1612E+06     27.4314E+06     98.3071E+03    -296.719E-03     593.215E-03    -296.495E-03     81.6642E-03    -297.104E-03     593.572E-03    -296.380E-03     75.9271E-03
            2004     11.3744E-03     41.5978E-03    -4.49157E+06     15.9019E+06     26.1794E+06     778.157E+03    -296.758E-03     593.375E-03    -296.617E-03     81.3791E-03    -297.170E-03     593.751E-03    -296.502E-03     75.5097E-03
            2005     10.7022E-03     41.4679E-03    -7.83842E+06     11.9748E+06     24.7481E+06     90.9009E+03    -297.161E-03     593.895E-03    -296.734E-03     77.6024E-03    -297.563E-03     594.240E-03    -296.616E-03     71.8572E-03
            2006     10.0322E-03     41.3407E-03    -10.7178E+06     9.44079E+06     22.8839E+06     294.586E+03    -298.091E-03     594.891E-03    -296.800E-03     73.1980E-03    -298.471E-03     595.200E-03    -296.683E-03     67.7470E-03
            2007     9.36466E-03     41.2201E-03    -12.1112E+06     8.21162E+06     19.7578E+06     1.60158E+06    -298.329E-03     595.136E-03    -296.807E-03     68.8346E-03    -298.666E-03     595.402E-03    -296.703E-03     63.9612E-03
            2008     8.69706E-03     41.1078E-03    -12.4855E+06     5.54339E+06     16.4310E+06     873.154E+03    -296.946E-03     593.793E-03    -296.847E-03     64.0341E-03    -297.232E-03     594.007E-03    -296.755E-03     59.8091E-03
            2009     8.02703E-03     40.9992E-03    -12.4884E+06     3.30265E+06     13.8271E+06    -805.182E+03    -295.637E-03     592.631E-03    -296.994E-03     59.1400E-03    -295.882E-03     592.803E-03    -296.912E-03     55.3497E-03
            2010     7.35499E-03     40.8989E-03    -15.8487E+06    -486.793E+03     9.36599E+06    -1.75173E+06    -296.029E-03     593.215E-03    -297.186E-03     54.3097E-03    -296.257E-03     593.358E-03    -297.116E-03     50.7034E-03
            2011     6.68462E-03     40.8131E-03    -23.4069E+06    -8.04903E+06     1.96441E+06    -332.431E+03    -297.319E-03     594.629E-03    -297.309E-03     50.2043E-03    -297.534E-03     594.726E-03    -297.254E-03     47.1214E-03
            2012     6.01716E-03     40.7302E-03    -26.4908E+06    -11.0077E+06    -1.69817E+06     1.58296E+06    -297.977E-03     595.322E-03    -297.345E-03     45.5796E-03    -298.164E-03     595.380E-03    -297.299E-03     43.2455E-03
            2013     5.34854E-03     40.6575E-03    -24.5738E+06    -9.79616E+06    -2.27059E+06     2.00591E+06    -297.978E-03     595.314E-03    -297.336E-03     40.1718E-03    -298.131E-03     595.351E-03    -297.297E-03     38.4587E-03
            2014     4.67993E-03     40.5906E-03    -28.9594E+06    -21.8202E+06    -11.6198E+06     2.43825E+06    -297.935E-03     595.227E-03    -297.292E-03     35.3019E-03    -298.063E-03     595.208E-03    -297.276E-03     33.9480E-03
            2015     4.01234E-03     40.5346E-03    -31.4189E+06    -32.0754E+06    -19.1712E+06     1.56843E+06    -297.619E-03     594.873E-03    -297.254E-03     30.2139E-03    -297.722E-03     594.806E-03    -297.258E-03     29.0666E-03
            2016     3.34326E-03     40.4860E-03    -28.5845E+06    -31.4263E+06    -20.7784E+06    -312.191E+03    -297.167E-03     594.437E-03    -297.270E-03     24.7343E-03    -297.243E-03     594.361E-03    -297.287E-03     23.7867E-03
            2017     2.67338E-03     40.4462E-03    -31.7331E+06    -35.9172E+06    -26.8584E+06    -805.511E+03    -297.187E-03     594.505E-03    -297.318E-03     19.2373E-03    -297.253E-03     594.410E-03    -297.354E-03     18.4727E-03
            2018     2.00646E-03     40.4137E-03    -35.5457E+06    -40.4191E+06    -32.1485E+06    -542.785E+03    -297.365E-03     594.713E-03    -297.348E-03     13.9032E-03    -297.428E-03     594.601E-03    -297.399E-03     13.3537E-03
            2019     1.33700E-03     40.3911E-03    -38.1925E+06    -43.7050E+06    -36.2732E+06    -908.976E+03    -297.471E-03     594.793E-03    -297.322E-03     9.45948E-03    -297.523E-03     594.666E-03    -297.385E-03     9.07337E-03
            2020     668.241E-06     40.3771E-03    -35.1700E+06    -42.1761E+06    -36.1301E+06    -1.57252E+06    -297.133E-03     594.686E-03    -297.553E-03     5.58706E-03    -297.117E-03     594.579E-03    -297.622E-03     5.37416E-03
            2021     12.7146E-03     40.1602E-03    -1.50069E+06     16.8709E+06     28.2941E+06    -282.769E+03    -296.705E-03     593.186E-03    -296.481E-03     80.0725E-03    -297.024E-03     593.477E-03    -296.361E-03     75.1381E-03
            2022     12.0431E-03     40.0241E-03    -2.95165E+06     16.8259E+06     27.5859E+06     449.187E+03    -296.922E-03     593.512E-03    -296.589E-03     80.7730E-03    -297.316E-03     593.875E-03    -296.472E-03     74.8862E-03
            2023     11.3713E-03     39.8865E-03    -5.01731E+06     15.1834E+06     25.6057E+06     629.696E+03    -297.119E-03     593.806E-03    -296.687E-03     78.4715E-03    -297.537E-03     594.185E-03    -296.574E-03     72.3413E-03
            2024     10.7033E-03     39.7514E-03    -6.57487E+06     12.4759E+06     23.4051E+06     845.116E+03    -297.423E-03     594.192E-03    -296.768E-03     74.6658E-03    -297.807E-03     594.528E-03    -296.660E-03     68.9644E-03
            2025     10.0351E-03     39.6254E-03    -8.77391E+06     10.7083E+06     21.2689E+06    -174.605E+03    -297.648E-03     594.481E-03    -296.833E-03     72.1893E-03    -298.006E-03     594.784E-03    -296.730E-03     66.9063E-03
            2026     9.36494E-03     39.5024E-03    -9.47119E+06     10.8233E+06     21.7842E+06    -1.12737E+06    -297.743E-03     594.639E-03    -296.896E-03     69.5085E-03    -298.087E-03     594.924E-03    -296.789E-03     64.3726E-03
            2027     8.69502E-03     39.3912E-03    -10.3414E+06     9.35182E+06     21.1055E+06    -1.00084E+06    -297.242E-03     594.208E-03    -296.966E-03     65.4415E-03    -297.556E-03     594.458E-03    -296.860E-03     60.6739E-03
            2028     8.02509E-03     39.2870E-03    -13.3643E+06     4.22648E+06     15.4607E+06     264.787E+03    -296.299E-03     593.378E-03    -297.079E-03     61.1449E-03    -296.563E-03     593.565E-03    -296.989E-03     57.2272E-03
            2029     7.35477E-03     39.1883E-03    -17.9207E+06    -3.12164E+06     6.51849E+06     3.19511E+06    -296.245E-03     593.477E-03    -297.231E-03     55.2677E-03    -296.461E-03     593.598E-03    -297.168E-03     52.2120E-03
            2030     6.68505E-03     39.0944E-03    -22.4244E+06    -9.14887E+06    -1.27228E+06     2.38336E+06    -297.014E-03     594.376E-03    -297.362E-03     49.6348E-03    -297.205E-03     594.459E-03    -297.323E-03     46.9184E-03
            2031     6.01544E-03     39.0118E-03    -25.4754E+06    -12.1202E+06    -5.33174E+06    -470.862E+03    -297.547E-03     594.992E-03    -297.445E-03     45.2783E-03    -297.725E-03     595.052E-03    -297.417E-03     42.8080E-03
            2032     5.34736E-03     38.9375E-03    -26.6596E+06    -16.2361E+06    -6.07759E+06    -783.098E+03    -297.783E-03     595.284E-03    -297.501E-03     40.9498E-03    -297.938E-03     595.305E-03    -297.469E-03     38.9700E-03
            2033     4.67914E-03     38.8728E-03    -27.5990E+06    -23.5692E+06    -8.63380E+06    -336.894E+03    -297.813E-03     595.343E-03    -297.530E-03     36.3916E-03    -297.942E-03     595.315E-03    -297.499E-03     34.7937E-03
            2034     4.00993E-03     38.8146E-03    -29.0321E+06    -28.9608E+06    -14.1207E+06    -757.327E+03    -297.791E-03     595.320E-03    -297.530E-03     31.5806E-03    -297.898E-03     595.263E-03    -297.516E-03     30.1774E-03
            2035     3.34226E-03     38.7682E-03    -31.9923E+06    -33.0707E+06    -19.8949E+06     776.793E+03    -297.872E-03     595.376E-03    -297.504E-03     26.5989E-03    -297.965E-03     595.296E-03    -297.509E-03     25.5913E-03
            2036     2.67529E-03     38.7271E-03    -32.9080E+06    -35.2064E+06    -23.5141E+06     3.40475E+06    -297.781E-03     595.238E-03    -297.457E-03     21.5949E-03    -297.858E-03     595.142E-03    -297.476E-03     21.0454E-03
            2037     2.00551E-03     38.6959E-03    -32.0939E+06    -36.1425E+06    -26.5594E+06     2.98280E+06    -297.593E-03     595.002E-03    -297.408E-03     16.2828E-03    -297.653E-03     594.897E-03    -297.442E-03     15.9145E-03
            2038     1.33749E-03     38.6742E-03    -34.9570E+06    -40.1463E+06    -31.8600E+06     1.34362E+06    -297.485E-03     594.849E-03    -297.363E-03     10.8809E-03    -297.530E-03     594.726E-03    -297.414E-03     10.6163E-03
            2039     668.640E-06     38.6591E-03    -37.2455E+06    -43.9786E+06    -37.0331E+06    -217.056E+03    -297.241E-03     594.761E-03    -297.520E-03     5.45411E-03    -297.230E-03     594.641E-03    -297.587E-03     5.22750E-03
            2040     12.7119E-03     38.4485E-03    -2.52765E+06     16.8536E+06     28.6928E+06     390.060E+03    -297.184E-03     593.712E-03    -296.528E-03     78.6701E-03    -297.506E-03     594.002E-03    -296.405E-03     73.7345E-03
            2041     12.0433E-03     38.3083E-03    -3.95416E+06     16.4010E+06     26.6139E+06    -427.541E+03    -297.980E-03     594.564E-03    -296.584E-03     79.2561E-03    -298.370E-03     594.921E-03    -296.469E-03     73.3653E-03
            2042     11.3764E-03     38.1730E-03    -5.67205E+06     13.5493E+06     22.9790E+06    -295.133E+03    -297.491E-03     594.120E-03    -296.629E-03     78.4931E-03    -297.912E-03     594.502E-03    -296.526E-03     72.2494E-03
            2043     10.7048E-03     38.0379E-03    -7.33906E+06     10.7856E+06     20.0542E+06    -192.077E+03    -296.740E-03     593.458E-03    -296.718E-03     76.4740E-03    -297.132E-03     593.804E-03    -296.623E-03     70.6945E-03
            2044     10.0327E-03     37.9120E-03    -8.93835E+06     9.65343E+06     18.5624E+06    -390.314E+03    -296.475E-03     593.326E-03    -296.852E-03     73.8592E-03    -296.838E-03     593.638E-03    -296.760E-03     68.5176E-03
            2045     9.36262E-03     37.7875E-03    -11.3506E+06     6.97568E+06     16.4335E+06    -648.819E+03    -296.360E-03     593.367E-03    -297.007E-03     70.6880E-03    -296.710E-03     593.654E-03    -296.919E-03     65.4875E-03
            2046     8.69290E-03     37.6759E-03    -14.5092E+06     3.74511E+06     13.1472E+06    -825.432E+03    -296.872E-03     594.023E-03    -297.150E-03     65.9854E-03    -297.195E-03     594.268E-03    -297.069E-03     61.1130E-03
            2047     8.02323E-03     37.5721E-03    -14.6867E+06     4.02679E+06     13.8482E+06     146.178E+03    -297.642E-03     594.898E-03    -297.256E-03     61.0879E-03    -297.918E-03     595.096E-03    -297.172E-03     56.9617E-03
            2048     7.35452E-03     37.4713E-03    -14.7982E+06     2.90550E+06     14.2297E+06     1.65463E+06    -297.502E-03     594.840E-03    -297.337E-03     56.0278E-03    -297.732E-03     594.986E-03    -297.249E-03     52.7337E-03
            2049     6.68565E-03     37.3786E-03    -16.5124E+06    -622.215E+03     9.73433E+06     1.30067E+06    -296.904E-03     594.339E-03    -297.434E-03     50.9712E-03    -297.100E-03     594.445E-03    -297.361E-03     48.1948E-03
            2050     6.01631E-03     37.2952E-03    -19.1278E+06    -5.17538E+06     2.73861E+06     759.762E+03    -296.785E-03     594.351E-03    -297.565E-03     46.2164E-03    -296.953E-03     594.424E-03    -297.516E-03     43.8556E-03
            2051     5.34617E-03     37.2194E-03    -23.5748E+06    -15.3412E+06    -7.33063E+06     1.00082E+06    -297.079E-03     594.777E-03    -297.698E-03     41.6321E-03    -297.223E-03     594.804E-03    -297.678E-03     39.5764E-03
            2052     4.67719E-03     37.1531E-03    -25.7172E+06    -25.5046E+06    -14.4654E+06    -936.772E+03    -297.374E-03     595.200E-03    -297.826E-03     37.0688E-03    -297.487E-03     595.173E-03    -297.824E-03     35.3221E-03
            2053     4.00914E-03     37.0966E-03    -28.6582E+06    -31.4016E+06    -18.6447E+06    -1.89559E+06    -297.657E-03     595.599E-03    -297.942E-03     32.3650E-03    -297.754E-03     595.537E-03    -297.948E-03     30.9421E-03
            2054     3.34007E-03     37.0471E-03    -32.2961E+06    -35.1285E+06    -22.9551E+06    -501.969E+03    -297.924E-03     595.948E-03    -298.024E-03     27.4701E-03    -298.014E-03     595.866E-03    -298.041E-03     26.4064E-03
            2055     2.67088E-03     37.0076E-03    -31.8689E+06    -35.6160E+06    -24.8358E+06     779.535E+03    -297.988E-03     596.077E-03    -298.089E-03     22.4759E-03    -298.060E-03     595.982E-03    -298.115E-03     21.7934E-03
            2056     2.00386E-03     36.9763E-03    -29.7617E+06    -34.5312E+06    -25.2336E+06     2.15343E+06    -298.029E-03     596.190E-03    -298.161E-03     17.3534E-03    -298.082E-03     596.089E-03    -298.194E-03     16.9128E-03
            2057     1.33575E-03     36.9532E-03    -30.3882E+06    -36.0576E+06    -27.8236E+06     2.71916E+06    -298.240E-03     596.445E-03    -298.205E-03     12.0656E-03    -298.272E-03     596.329E-03    -298.248E-03     11.8434E-03
            2058     668.424E-06     36.9409E-03    -33.5666E+06    -39.1203E+06    -30.7452E+06     3.30939E+06    -298.273E-03     596.508E-03    -298.235E-03     6.68753E-03    -298.259E-03     596.391E-03    -298.283E-03     6.66083E-03
            2059     12.7152E-03     36.7335E-03    -1.18238E+06     17.4370E+06     29.1397E+06     516.448E+03    -297.192E-03     593.651E-03    -296.459E-03     77.7409E-03    -297.513E-03     593.946E-03    -296.337E-03     72.7037E-03
            2060     12.0449E-03     36.5944E-03    -3.23098E+06     15.7788E+06     25.2571E+06     683.347E+03    -296.757E-03     593.296E-03    -296.540E-03     80.0991E-03    -297.141E-03     593.652E-03    -296.432E-03     74.3129E-03
            2061     11.3725E-03     36.4576E-03    -4.85756E+06     14.1404E+06     23.2293E+06    -637.644E+03    -296.694E-03     593.348E-03    -296.654E-03     80.0373E-03    -297.112E-03     593.732E-03    -296.551E-03     73.8893E-03
            2062     10.7028E-03     36.3282E-03    -5.77285E+06     12.4656E+06     21.7443E+06    -146.578E+03    -296.732E-03     593.511E-03    -296.780E-03     77.9014E-03    -297.135E-03     593.875E-03    -296.681E-03     71.9387E-03
            2063     10.0335E-03     36.1969E-03    -8.17303E+06     9.52603E+06     18.6095E+06     929.628E+03    -296.413E-03     593.329E-03    -296.916E-03     73.5833E-03    -296.779E-03     593.646E-03    -296.825E-03     68.1161E-03
            2064     9.36229E-03     36.0780E-03    -12.0063E+06     5.33266E+06     14.4547E+06    -139.754E+03    -296.013E-03     593.095E-03    -297.082E-03     69.2848E-03    -296.354E-03     593.371E-03    -297.000E-03     64.1333E-03
            2065     8.69041E-03     35.9600E-03    -12.7183E+06     5.21705E+06     14.3825E+06    -1.54412E+06    -296.534E-03     593.795E-03    -297.261E-03     64.9766E-03    -296.842E-03     594.035E-03    -297.178E-03     60.2701E-03
            2066     8.02212E-03     35.8526E-03    -13.9515E+06     3.75662E+06     13.7252E+06    -656.347E+03    -297.164E-03     594.570E-03    -297.406E-03     61.1174E-03    -297.441E-03     594.772E-03    -297.323E-03     56.8689E-03
            2067     7.35379E-03     35.7532E-03    -16.6936E+06    -958.386E+03     9.78599E+06    -1.47697E+06    -296.990E-03     594.527E-03    -297.537E-03     58.2027E-03    -297.239E-03     594.685E-03    -297.462E-03     54.4363E-03
            2068     6.68390E-03     35.6634E-03    -18.9937E+06    -4.23031E+06     5.53423E+06    -845.269E+03    -296.828E-03     594.524E-03    -297.696E-03     54.2627E-03    -297.035E-03     594.632E-03    -297.634E-03     51.3803E-03
            2069     6.01397E-03     35.5779E-03    -21.7790E+06    -7.54270E+06     266.787E+03     2.67918E+06    -296.934E-03     594.808E-03    -297.875E-03     49.2227E-03    -297.108E-03     594.877E-03    -297.831E-03     47.0475E-03
            2070     5.34525E-03     35.5025E-03    -23.2238E+06    -10.8086E+06    -5.88817E+06     2.32287E+06    -297.007E-03     595.069E-03    -298.062E-03     43.8991E-03    -297.157E-03     595.115E-03    -298.042E-03     42.0008E-03
            2071     4.67561E-03     35.4349E-03    -25.1477E+06    -21.8972E+06    -15.0688E+06     1.29881E+06    -297.299E-03     595.553E-03    -298.254E-03     38.5567E-03    -297.414E-03     595.544E-03    -298.261E-03     36.9102E-03
            2072     4.00612E-03     35.3763E-03    -26.4441E+06    -31.5028E+06    -21.2825E+06     1.12971E+06    -297.723E-03     596.168E-03    -298.444E-03     33.2542E-03    -297.807E-03     596.108E-03    -298.467E-03     31.9134E-03
            2073     3.33829E-03     35.3267E-03    -28.0349E+06    -33.6729E+06    -24.1465E+06    -489.721E+03    -298.069E-03     596.689E-03    -298.620E-03     27.9216E-03    -298.140E-03     596.611E-03    -298.651E-03     26.8447E-03
            2074     2.67092E-03     35.2862E-03    -28.5410E+06    -34.5669E+06    -25.6885E+06    -1.76950E+06    -298.412E-03     597.185E-03    -298.773E-03     22.4559E-03    -298.471E-03     597.094E-03    -298.810E-03     21.5959E-03
            2075     2.00196E-03     35.2540E-03    -30.3181E+06    -36.8008E+06    -28.3084E+06    -1.51145E+06    -298.708E-03     597.596E-03    -298.889E-03     16.8798E-03    -298.757E-03     597.491E-03    -298.933E-03     16.2701E-03
            2076     1.33410E-03     35.2310E-03    -29.5848E+06    -36.1225E+06    -27.7212E+06    -948.093E+03    -298.907E-03     597.885E-03    -298.979E-03     11.0877E-03    -298.933E-03     597.767E-03    -299.022E-03     10.6795E-03
            2077     666.202E-06     35.2154E-03    -29.7327E+06    -36.3273E+06    -28.0487E+06    -703.300E+03    -299.045E-03     598.113E-03    -299.068E-03     5.51190E-03    -299.022E-03     597.995E-03    -299.113E-03     5.25734E-03
            2078     12.7163E-03     35.0254E-03    -1.56946E+06     16.7662E+06     27.8148E+06    -61.9464E+03    -296.815E-03     593.231E-03    -296.416E-03     78.7970E-03    -297.144E-03     593.534E-03    -296.299E-03     73.7117E-03
            2079     12.0436E-03     34.8835E-03    -2.61867E+06     16.3807E+06     25.6768E+06     186.815E+03    -296.114E-03     592.647E-03    -296.533E-03     81.1925E-03    -296.509E-03     593.016E-03    -296.424E-03     75.2693E-03
            2080     11.3733E-03     34.7482E-03    -3.66946E+06     15.3529E+06     23.7629E+06    -146.173E+03    -296.212E-03     592.889E-03    -296.677E-03     77.9388E-03    -296.596E-03     593.246E-03    -296.575E-03     72.1672E-03
            2081     10.7025E-03     34.6113E-03    -5.43111E+06     13.1655E+06      22.591E+06    -91.2884E+03    -296.050E-03     592.890E-03    -296.840E-03     77.0679E-03    -296.447E-03     593.249E-03    -296.739E-03     71.1581E-03
            2082     10.0320E-03     34.4850E-03    -5.74937E+06     12.1158E+06     23.1700E+06    -733.057E+03    -296.273E-03     593.295E-03    -297.021E-03     75.0429E-03    -296.658E-03     593.634E-03    -296.914E-03     69.2805E-03
            2083     9.36227E-03     34.3634E-03    -4.86124E+06     13.4472E+06     24.4278E+06    -508.333E+03    -296.385E-03     593.588E-03    -297.203E-03     71.3775E-03    -296.725E-03     593.887E-03    -297.093E-03     66.2089E-03
            2084     8.69375E-03     34.2472E-03    -8.60396E+06     9.26391E+06     20.2148E+06     1.42273E+06    -295.883E-03     593.288E-03    -297.404E-03     67.9300E-03    -296.184E-03     593.533E-03    -297.304E-03     63.4721E-03
            2085     8.02157E-03     34.1374E-03    -16.0254E+06    -735.245E+03     10.1086E+06     2.14772E+06    -295.709E-03     593.348E-03    -297.639E-03     64.0118E-03    -295.987E-03     593.537E-03    -297.564E-03     59.9494E-03
            2086     7.34922E-03     34.0394E-03    -20.3107E+06    -7.11341E+06     1.57063E+06     1.37964E+06    -296.259E-03     594.142E-03    -297.882E-03     59.5125E-03    -296.508E-03     594.288E-03    -297.835E-03     55.8444E-03
            2087     6.67909E-03     33.9450E-03    -24.5672E+06    -11.4168E+06    -4.81006E+06     477.066E+03    -296.789E-03     594.903E-03    -298.114E-03     54.7069E-03    -297.002E-03     595.002E-03    -298.086E-03     51.8035E-03
            2088     6.01036E-03     33.8601E-03    -24.7140E+06    -11.6627E+06    -6.10359E+06     535.622E+03    -296.968E-03     595.325E-03    -298.357E-03     49.9326E-03    -297.152E-03     595.397E-03    -298.334E-03     47.4785E-03
            2089     5.34066E-03     33.7831E-03    -23.6257E+06    -11.7459E+06    -6.46081E+06    -26.8090E+03    -297.257E-03     595.869E-03    -298.612E-03     45.2164E-03    -297.413E-03     595.919E-03    -298.593E-03     43.1503E-03
            2090     4.67244E-03     33.7149E-03    -25.4457E+06    -20.9150E+06    -11.8554E+06     82.7935E+03    -297.759E-03     596.612E-03    -298.853E-03     40.0097E-03    -297.885E-03     596.608E-03    -298.845E-03     38.2917E-03
            2091     4.00464E-03     33.6551E-03    -26.7464E+06    -30.6469E+06    -19.2432E+06     1.39816E+06    -298.231E-03     597.291E-03    -299.060E-03     34.3995E-03    -298.323E-03     597.235E-03    -299.073E-03     32.9985E-03
            2092     3.33590E-03     33.6043E-03    -26.8591E+06    -32.8890E+06    -23.5328E+06     927.540E+03    -298.686E-03     597.925E-03    -299.239E-03     28.6028E-03    -298.753E-03     597.849E-03    -299.271E-03     27.5162E-03
            2093     2.66754E-03     33.5622E-03    -27.8211E+06    -34.6050E+06    -25.8643E+06    -771.644E+03    -299.137E-03     598.517E-03    -299.380E-03     22.9150E-03    -299.191E-03     598.425E-03    -299.419E-03     22.0654E-03
            2094     2.00148E-03     33.5295E-03    -30.1181E+06    -37.1214E+06    -28.2345E+06    -1.74703E+06    -299.530E-03     598.973E-03    -299.443E-03     17.2836E-03    -299.577E-03     598.865E-03    -299.486E-03     16.6324E-03
            2095     1.33507E-03     33.5053E-03    -31.3331E+06    -38.8130E+06    -30.2953E+06    -2.18854E+06    -299.571E-03     599.002E-03    -299.431E-03     11.5891E-03    -299.599E-03     598.876E-03    -299.481E-03     11.0875E-03
            2096     668.512E-06     33.4919E-03    -31.7216E+06    -39.3483E+06    -30.9705E+06    -2.14549E+06    -299.530E-03     598.921E-03    -299.391E-03     6.52395E-03    -299.513E-03     598.795E-03    -299.442E-03     6.18995E-03
            2097     12.7136E-03     33.3165E-03    -1.27975E+06     17.0449E+06     27.9560E+06    -243.830E+03    -296.595E-03     593.065E-03    -296.471E-03     78.6195E-03    -296.914E-03     593.359E-03    -296.354E-03     73.7425E-03
            2098     12.0444E-03     33.1701E-03    -2.42673E+06     17.3337E+06     26.6461E+06    -1.54516E+06    -297.013E-03     593.589E-03    -296.576E-03     82.7675E-03    -297.426E-03     593.978E-03    -296.465E-03     76.6340E-03
            2099     11.3746E-03     33.0350E-03    -3.13674E+06     16.9940E+06     25.2515E+06    -662.036E+03    -296.055E-03     592.763E-03    -296.708E-03     79.6299E-03    -296.464E-03     593.148E-03    -296.602E-03     73.5850E-03
            2100     10.7029E-03     32.9041E-03    -4.54231E+06     13.8244E+06     23.8775E+06    -758.280E+03    -294.965E-03     591.883E-03    -296.918E-03     78.8467E-03    -295.379E-03     592.261E-03    -296.812E-03     72.7775E-03
            2101     10.0300E-03     32.7720E-03    -7.10631E+06     10.0479E+06     21.9376E+06    -1.44370E+06    -294.738E-03     591.932E-03    -297.194E-03     77.2096E-03    -295.136E-03     592.277E-03    -297.089E-03     71.4150E-03
            2102     9.35930E-03     32.6474E-03    -9.35938E+06     8.56071E+06     19.2169E+06     1.06486E+06    -295.153E-03     592.641E-03    -297.488E-03     74.5596E-03    -295.506E-03     592.936E-03    -297.391E-03     69.5342E-03
            2103     8.68653E-03     32.5349E-03    -13.2765E+06     3.38012E+06     13.3718E+06     3.58676E+06    -295.572E-03     593.351E-03    -297.779E-03     71.3208E-03    -295.888E-03     593.593E-03    -297.698E-03     66.8719E-03
            2104     8.01591E-03     32.4242E-03    -15.5473E+06    -597.488E+03     9.36435E+06     3.61407E+06    -295.999E-03     594.074E-03    -298.075E-03     66.5605E-03    -296.281E-03     594.271E-03    -298.005E-03     62.5098E-03
            2105     7.34733E-03     32.3220E-03    -16.8159E+06    -1.45539E+06     7.37945E+06     2.97416E+06    -296.540E-03     594.903E-03    -298.364E-03     61.1295E-03    -296.789E-03     595.066E-03    -298.300E-03     57.5609E-03
            2106     6.67829E-03     32.2274E-03    -19.0650E+06    -4.89713E+06     2.67550E+06     1.51218E+06    -296.814E-03     595.453E-03    -298.640E-03     56.3989E-03    -297.031E-03     595.578E-03    -298.592E-03     53.2960E-03
            2107     6.00787E-03     32.1419E-03    -20.4708E+06    -8.50882E+06    -2.12040E+06    -473.612E+03    -297.162E-03     596.085E-03    -298.923E-03     51.5626E-03    -297.345E-03     596.171E-03    -298.892E-03     48.9294E-03
            2108     5.33873E-03     32.0633E-03    -23.2423E+06    -12.3973E+06    -6.83996E+06    -513.117E+03    -297.783E-03     596.982E-03    -299.199E-03     46.0559E-03    -297.941E-03     597.033E-03    -299.181E-03     43.8955E-03
            2109     4.66943E-03     31.9925E-03    -26.7535E+06    -22.7263E+06    -13.3490E+06    -1.26795E+06    -298.366E-03     597.809E-03    -299.443E-03     40.2248E-03    -298.498E-03     597.804E-03    -299.438E-03     38.3999E-03
            2110     4.00085E-03     31.9316E-03    -28.0396E+06    -30.7625E+06    -17.2507E+06    -1.15966E+06    -298.904E-03     598.560E-03    -299.656E-03     34.4763E-03    -299.006E-03     598.504E-03    -299.657E-03     32.9774E-03
            2111     3.33410E-03     31.8791E-03    -28.6576E+06    -32.6838E+06    -20.3840E+06     489.634E+03    -299.385E-03     599.203E-03    -299.818E-03     28.7001E-03    -299.467E-03     599.127E-03    -299.831E-03     27.5468E-03
            2112     2.66768E-03     31.8366E-03    -30.4576E+06    -36.7593E+06    -26.7430E+06     716.176E+03    -299.696E-03     599.622E-03    -299.926E-03     22.9207E-03    -299.759E-03     599.524E-03    -299.962E-03     22.0578E-03
            2113     1.99978E-03     31.8020E-03    -28.3424E+06    -36.7255E+06    -28.6187E+06     136.849E+03    -299.667E-03     599.728E-03    -300.061E-03     17.6205E-03    -299.705E-03     599.619E-03    -300.110E-03     16.9946E-03
            2114     1.33254E-03     31.7788E-03    -30.7801E+06    -39.7093E+06    -32.2060E+06    -561.323E+03    -299.867E-03     600.138E-03    -300.272E-03     12.4652E-03    -299.889E-03     600.010E-03    -300.331E-03     12.0617E-03
            2115     665.088E-06     31.7654E-03    -33.9131E+06    -42.5313E+06    -34.8787E+06    -264.762E+03    -300.474E-03     600.895E-03    -300.421E-03     7.41690E-03    -300.461E-03     600.767E-03    -300.484E-03     7.24786E-03
            2116     12.7132E-03     31.6010E-03    -844.097E+03     17.9285E+06     28.0914E+06    -1.08556E+06    -295.636E-03     592.144E-03    -296.508E-03     78.2297E-03    -295.965E-03     592.453E-03    -296.393E-03     73.1499E-03
            2117     12.0427E-03     31.4571E-03    -1.30973E+06     19.2137E+06     27.2204E+06    -1.62749E+06    -295.308E-03     592.000E-03    -296.691E-03     83.7623E-03    -295.722E-03     592.398E-03    -296.581E-03     77.7157E-03
            2118     11.3708E-03     31.3238E-03    -3.57954E+06     16.3179E+06     25.2214E+06    -1.27259E+06    -295.177E-03     592.094E-03    -296.917E-03     83.0766E-03    -295.617E-03     592.506E-03    -296.809E-03     76.7849E-03
            2119     10.6998E-03     31.1930E-03    -6.39285E+06     11.9664E+06     21.2200E+06    -818.760E+03    -295.099E-03     592.262E-03    -297.163E-03     82.0733E-03    -295.556E-03     592.678E-03    -297.065E-03     75.5487E-03
            2120     10.0288E-03     31.0634E-03    -9.85294E+06     6.69305E+06     16.2189E+06     1.21696E+06    -294.021E-03     591.495E-03    -297.473E-03     79.2966E-03    -294.435E-03     591.850E-03    -297.388E-03     73.4465E-03
            2121     9.35369E-03     30.9396E-03    -14.0131E+06     2.51489E+06     12.0873E+06     2.46127E+06    -293.988E-03     591.851E-03    -297.863E-03     75.4901E-03    -294.348E-03     592.135E-03    -297.786E-03     70.5338E-03
            2122     8.68328E-03     30.8180E-03    -13.7246E+06     3.28515E+06     13.4886E+06     2.08024E+06    -295.355E-03     593.615E-03    -298.261E-03     71.4205E-03    -295.679E-03     593.864E-03    -298.178E-03     66.8741E-03
            2123     8.01352E-03     30.7087E-03    -14.0753E+06     2.73838E+06     13.7316E+06     2.23830E+06    -296.286E-03     594.894E-03    -298.608E-03     67.3065E-03    -296.580E-03     595.108E-03    -298.523E-03     63.1392E-03
            2124     7.34211E-03     30.6029E-03    -15.8537E+06     71.5378E+03     9.83853E+06     342.779E+03    -296.561E-03     595.490E-03    -298.930E-03     62.9529E-03    -296.822E-03     595.667E-03    -298.858E-03     59.1911E-03
            2125     6.67143E-03     30.5096E-03    -16.5883E+06    -2.65345E+06     6.09942E+06     357.299E+03    -297.249E-03     596.496E-03    -299.247E-03     57.9438E-03    -297.471E-03     596.632E-03    -299.189E-03     54.6936E-03
            2126     6.00265E-03     30.4204E-03    -21.1917E+06    -8.66822E+06    -508.382E+03     986.273E+03    -298.137E-03     597.658E-03    -299.521E-03     52.2436E-03    -298.330E-03     597.746E-03    -299.480E-03     49.5587E-03
            2127     5.33458E-03     30.3401E-03    -23.8179E+06    -12.1337E+06    -5.64511E+06     898.411E+03    -298.666E-03     598.418E-03    -299.752E-03     46.4042E-03    -298.833E-03     598.474E-03    -299.728E-03     44.1596E-03
            2128     4.66745E-03     30.2687E-03    -22.5265E+06    -18.3390E+06    -8.80795E+06     1.09780E+06    -299.183E-03     599.143E-03    -299.959E-03     40.6409E-03    -299.309E-03     599.149E-03    -299.944E-03     38.7995E-03
            2129     4.00054E-03     30.2059E-03    -25.0468E+06    -28.0481E+06    -14.7565E+06    -606.953E+03    -299.643E-03     599.767E-03    -300.124E-03     34.6253E-03    -299.742E-03     599.720E-03    -300.121E-03     33.0203E-03
            2130     3.33255E-03     30.1526E-03    -29.2510E+06    -33.0241E+06    -20.2321E+06    -559.772E+03    -299.805E-03     600.068E-03    -300.263E-03     28.8631E-03    -299.893E-03     599.995E-03    -300.274E-03     27.5605E-03
            2131     2.66522E-03     30.1079E-03    -30.2414E+06    -35.1681E+06    -23.4368E+06     279.860E+03    -299.952E-03     600.363E-03    -300.411E-03     23.3150E-03    -300.022E-03     600.270E-03    -300.434E-03     22.2901E-03
            2132     1.99914E-03     30.0760E-03    -30.9778E+06    -37.2454E+06    -26.8391E+06     442.708E+03    -300.271E-03     600.819E-03    -300.548E-03     17.2208E-03    -300.323E-03     600.708E-03    -300.583E-03     16.4751E-03
            2133     1.33172E-03     30.0504E-03    -33.2241E+06    -40.2889E+06    -30.9111E+06     910.472E+03    -300.684E-03     601.284E-03    -300.600E-03     10.8862E-03    -300.716E-03     601.151E-03    -300.647E-03     10.4497E-03
            2134     666.611E-06     30.0321E-03    -35.7285E+06    -43.1822E+06    -34.2358E+06     1.15830E+06    -300.853E-03     601.257E-03    -300.405E-03     5.18008E-03    -300.844E-03     601.123E-03    -300.461E-03     4.91570E-03
            2135     12.7153E-03     29.8921E-03     1.78403E+06     18.8879E+06     28.6699E+06    -1.75009E+06    -294.189E-03     590.764E-03    -296.575E-03     80.4106E-03    -294.527E-03     591.092E-03    -296.462E-03     75.0755E-03
            2136     12.0404E-03     29.7528E-03    -2.80707E+06     16.0704E+06     22.7117E+06     633.659E+03    -293.294E-03     590.144E-03    -296.849E-03     83.8831E-03    -293.698E-03     590.528E-03    -296.755E-03     78.0309E-03
            2137     11.3663E-03     29.6135E-03    -7.38431E+06     11.0053E+06     17.0622E+06     1.44887E+06    -293.050E-03     590.249E-03    -297.199E-03     83.8957E-03    -293.480E-03     590.643E-03    -297.119E-03     77.9038E-03
            2138     10.6949E-03     29.4786E-03    -7.83802E+06     9.92430E+06     17.8973E+06     801.248E+03    -294.065E-03     591.652E-03    -297.587E-03     84.1946E-03    -294.524E-03     592.067E-03    -297.501E-03     77.8328E-03
            2139     10.0222E-03     29.3547E-03    -8.19219E+06     9.02982E+06     20.0302E+06     688.405E+03    -295.277E-03     593.229E-03    -297.952E-03     81.7965E-03    -295.712E-03     593.609E-03    -297.853E-03     75.7547E-03
            2140     9.35269E-03     29.2275E-03    -11.0341E+06     6.04028E+06     18.1564E+06     281.043E+03    -295.707E-03     593.989E-03    -298.282E-03     77.1655E-03    -296.093E-03     594.305E-03    -298.184E-03     71.7797E-03
            2141     8.67946E-03     29.1057E-03    -10.3276E+06     6.24980E+06     18.5247E+06     961.189E+03    -295.448E-03     594.089E-03    -298.640E-03     71.5309E-03    -295.779E-03     594.351E-03    -298.542E-03     66.7892E-03
            2142     8.00760E-03     28.9892E-03    -12.5175E+06     2.61674E+06     14.4167E+06     968.018E+03    -295.792E-03     594.811E-03    -299.019E-03     66.4681E-03    -296.082E-03     595.024E-03    -298.933E-03     62.2066E-03
            2143     7.33830E-03     28.8874E-03    -16.5739E+06    -1.90618E+06     8.52609E+06    -158.349E+03    -297.052E-03     596.418E-03    -299.366E-03     61.4138E-03    -297.318E-03     596.594E-03    -299.296E-03     57.4497E-03
            2144     6.66928E-03     28.7869E-03    -17.9230E+06    -3.32538E+06     5.94883E+06    -249.866E+03    -298.166E-03     597.816E-03    -299.649E-03     55.5523E-03    -298.399E-03     597.955E-03    -299.589E-03     52.0454E-03
            2145     6.00139E-03     28.6967E-03    -20.1481E+06    -7.01664E+06     1.09321E+06    -365.462E+03    -298.529E-03     598.413E-03    -299.884E-03     50.1169E-03    -298.731E-03     598.515E-03    -299.839E-03     47.0020E-03
            2146     5.33323E-03     28.6156E-03    -21.5462E+06    -9.75363E+06    -3.06859E+06     434.887E+03    -298.853E-03     598.970E-03    -300.116E-03     45.3474E-03    -299.022E-03     599.036E-03    -300.086E-03     42.8381E-03
            2147     4.66494E-03     28.5420E-03    -23.5127E+06    -19.2863E+06    -9.60328E+06     1.79266E+06    -299.399E-03     599.733E-03    -300.334E-03     40.3065E-03    -299.529E-03     599.739E-03    -300.320E-03     38.3754E-03
            2148     3.99760E-03     28.4776E-03    -25.7219E+06    -29.2798E+06    -16.7337E+06     1.13214E+06    -299.836E-03     600.357E-03    -300.521E-03     35.0650E-03    -299.934E-03     600.309E-03    -300.525E-03     33.4496E-03
            2149     3.33186E-03     28.4249E-03    -26.5048E+06    -30.7613E+06    -19.1444E+06    -97.8400E+03    -300.155E-03     600.851E-03    -300.696E-03     29.6014E-03    -300.236E-03     600.784E-03    -300.709E-03     28.2444E-03
            2150     2.66492E-03     28.3806E-03    -28.9717E+06    -33.5985E+06    -22.3871E+06    -379.012E+03    -300.551E-03     601.389E-03    -300.838E-03     23.7343E-03    -300.619E-03     601.300E-03    -300.859E-03     22.6884E-03
            2151     1.99789E-03     28.3443E-03    -35.0530E+06    -40.0695E+06    -29.3003E+06     690.377E+03    -301.134E-03     601.993E-03    -300.859E-03     17.7279E-03    -301.196E-03     601.875E-03    -300.897E-03     17.0360E-03
            2152     1.33414E-03     28.3189E-03    -31.8420E+06    -37.4265E+06    -27.2925E+06     1.99265E+06    -301.188E-03     601.932E-03    -300.744E-03     12.3247E-03    -301.219E-03     601.803E-03    -300.780E-03     11.8603E-03
            2153     667.256E-06     28.3046E-03    -32.9702E+06    -40.0913E+06    -31.2815E+06     1.19005E+06    -300.609E-03     601.371E-03    -300.763E-03     7.14238E-03    -300.587E-03     601.238E-03    -300.813E-03     6.84379E-03
            2154     12.7086E-03     28.1836E-03     3.03997E+06     19.5538E+06     26.7764E+06     1.58249E+06    -292.938E-03     589.684E-03    -296.747E-03     82.2496E-03    -293.268E-03     590.017E-03    -296.645E-03     77.1052E-03
            2155     12.0385E-03     28.0444E-03    -4.01147E+06     15.7695E+06     19.5219E+06     149.469E+03    -293.130E-03     590.203E-03    -297.073E-03     85.2141E-03    -293.568E-03     590.626E-03    -296.993E-03     78.9135E-03
            2156     11.3653E-03     27.9113E-03    -5.80872E+06     11.8551E+06     17.7044E+06    -585.096E+03    -292.415E-03     589.889E-03    -297.474E-03     84.0172E-03    -292.860E-03     590.305E-03    -297.395E-03     77.7040E-03
            2157     10.6877E-03     27.7717E-03    -6.47543E+06     8.93399E+06     18.8314E+06     410.885E+03    -293.110E-03     591.041E-03    -297.931E-03     81.7853E-03    -293.524E-03     591.409E-03    -297.841E-03     75.9715E-03
            2158     10.0164E-03     27.6369E-03    -7.47223E+06     8.21979E+06     20.5281E+06    -550.099E+03    -295.249E-03     593.591E-03    -298.342E-03     79.3123E-03    -295.657E-03     593.942E-03    -298.240E-03     73.5209E-03
            2159     9.34618E-03     27.5089E-03    -7.67953E+06     9.58716E+06     22.0594E+06    -688.575E+03    -296.724E-03     595.388E-03    -298.664E-03     76.7477E-03    -297.119E-03     595.726E-03    -298.557E-03     71.0607E-03
            2160     8.67898E-03     27.3903E-03    -12.8175E+06     3.89639E+06     16.0875E+06    -1.10454E+06    -296.902E-03     595.839E-03    -298.937E-03     72.0254E-03    -297.267E-03     596.126E-03    -298.844E-03     66.7075E-03
            2161     8.00825E-03     27.2761E-03    -15.1529E+06    -423.804E+03     11.3735E+06    -516.217E+03    -296.880E-03     596.109E-03    -299.230E-03     65.9790E-03    -297.186E-03     596.328E-03    -299.150E-03     61.4267E-03
            2162     7.33737E-03     27.1644E-03    -14.1646E+06     1.01058E+06     10.8737E+06     1.89233E+06    -297.519E-03     597.054E-03    -299.535E-03     60.8190E-03    -297.775E-03     597.231E-03    -299.461E-03     57.0077E-03
            2163     6.66997E-03     27.0632E-03    -16.9626E+06    -1.92221E+06     6.54800E+06    -209.341E+03    -298.051E-03     597.866E-03    -299.815E-03     56.2328E-03    -298.285E-03     598.014E-03    -299.755E-03     52.6568E-03
            2164     6.00096E-03     26.9744E-03    -20.3793E+06    -6.77994E+06     1.33501E+06     239.115E+03    -298.592E-03     598.670E-03    -300.079E-03     51.4983E-03    -298.793E-03     598.771E-03    -300.033E-03     48.5280E-03
            2165     5.33235E-03     26.8905E-03    -22.5224E+06    -9.72803E+06    -2.94725E+06     918.543E+03    -299.301E-03     599.610E-03    -300.309E-03     45.9758E-03    -299.473E-03     599.676E-03    -300.277E-03     43.5107E-03
            2166     4.66505E-03     26.8158E-03    -26.9053E+06    -22.3167E+06    -13.0320E+06    -328.056E+03    -299.376E-03     599.891E-03    -300.515E-03     39.8625E-03    -299.516E-03     599.894E-03    -300.509E-03     37.7529E-03
            2167     3.99731E-03     26.7509E-03    -27.4078E+06    -31.1916E+06    -19.3307E+06     1.20849E+06    -299.471E-03     600.236E-03    -300.766E-03     34.3417E-03    -299.569E-03     600.183E-03    -300.777E-03     32.7725E-03
            2168     3.32886E-03     26.6948E-03    -28.2187E+06    -33.1485E+06    -23.0042E+06     1.61726E+06    -300.265E-03     601.270E-03    -301.005E-03     29.1408E-03    -300.343E-03     601.198E-03    -301.031E-03     27.8676E-03
            2169     2.66322E-03     26.6493E-03    -31.0341E+06    -37.0543E+06    -28.3747E+06     326.541E+03    -300.936E-03     602.090E-03    -301.154E-03     23.7401E-03    -300.999E-03     601.994E-03    -301.197E-03     22.7220E-03
            2170     1.99822E-03     26.6130E-03    -25.3716E+06    -32.5859E+06    -25.1735E+06    -158.110E+03    -300.897E-03     602.207E-03    -301.310E-03     18.4167E-03    -300.926E-03     602.105E-03    -301.352E-03     17.7364E-03
            2171     1.32997E-03     26.5877E-03    -26.7827E+06    -34.4271E+06    -27.4475E+06    -73.4749E+03    -300.992E-03     602.569E-03    -301.576E-03     12.8811E-03    -301.002E-03     602.448E-03    -301.625E-03     12.4355E-03
            2172     664.254E-06     26.5739E-03    -29.4068E+06    -38.3970E+06    -32.8731E+06    -796.185E+03    -301.436E-03     603.607E-03    -302.171E-03     7.37284E-03    -301.389E-03     603.477E-03    -302.237E-03     7.17164E-03
            2173     12.7093E-03     26.4769E-03     2.49743E+06     16.8047E+06     25.3480E+06     3.31361E+06    -291.086E-03     588.008E-03    -296.922E-03     81.1765E-03    -291.396E-03     588.313E-03    -296.823E-03     76.3434E-03
            2174     12.0329E-03     26.3382E-03     7.16002E+06     25.0642E+06     30.9435E+06     53.3656E+03    -292.573E-03     589.929E-03    -297.356E-03     85.8918E-03    -292.989E-03     590.369E-03    -297.248E-03     79.5994E-03
            2175     11.3601E-03     26.2003E-03     1.50671E+06     18.1992E+06     27.9100E+06    -2.26517E+06    -294.784E-03     592.506E-03    -297.722E-03     83.9035E-03    -295.238E-03     592.948E-03    -297.611E-03     77.2104E-03
            2176     10.6920E-03     26.0660E-03    -6.32840E+06     8.51032E+06     19.9122E+06     129.942E+03    -295.263E-03     593.282E-03    -298.019E-03     79.9991E-03    -295.680E-03     593.649E-03    -297.923E-03     73.9919E-03
            2177     10.0183E-03     25.9240E-03    -8.20666E+06     5.88824E+06     16.0894E+06     1.21844E+06    -294.715E-03     593.064E-03    -298.349E-03     75.8223E-03    -295.101E-03     593.395E-03    -298.265E-03     70.1399E-03
            2178     9.34573E-03     25.7951E-03    -10.6331E+06     4.08510E+06     13.2301E+06     638.734E+03    -295.012E-03     593.737E-03    -298.725E-03     72.6371E-03    -295.381E-03     594.044E-03    -298.649E-03     67.1133E-03
            2179     8.67316E-03     25.6669E-03    -13.8122E+06     2.23119E+06     12.2953E+06    -2.35519E+06    -296.502E-03     595.590E-03    -299.089E-03     70.4090E-03    -296.857E-03     595.869E-03    -299.010E-03     65.0861E-03
            2180     8.00636E-03     25.5563E-03    -14.2732E+06     2.67945E+06     13.8589E+06    -1.84413E+06    -297.745E-03     597.139E-03    -299.393E-03     67.2417E-03    -298.064E-03     597.376E-03    -299.307E-03     62.5400E-03
            2181     7.33855E-03     25.4440E-03    -16.9763E+06    -528.979E+03     8.32726E+06     799.410E+03    -297.597E-03     597.263E-03    -299.666E-03     62.8335E-03    -297.863E-03     597.443E-03    -299.599E-03     59.0288E-03
            2182     6.66677E-03     25.3435E-03    -19.3869E+06    -4.74165E+06     1.95121E+06     995.783E+03    -297.844E-03     597.811E-03    -299.967E-03     57.3631E-03    -298.074E-03     597.950E-03    -299.922E-03     53.9819E-03
            2183     5.99782E-03     25.2492E-03    -20.6389E+06    -7.17291E+06    -522.888E+03     1.93132E+06    -299.076E-03     599.320E-03    -300.244E-03     51.6018E-03    -299.268E-03     599.415E-03    -300.206E-03     48.8495E-03
            2184     5.33143E-03     25.1625E-03    -23.6784E+06    -10.7817E+06    -4.85912E+06     249.557E+03    -299.642E-03     600.090E-03    -300.448E-03     45.9773E-03    -299.815E-03     600.155E-03    -300.422E-03     43.5414E-03
            2185     4.66431E-03     25.0891E-03    -24.1129E+06    -18.4789E+06    -9.14109E+06    -1.08959E+06    -299.869E-03     600.501E-03    -300.632E-03     40.3440E-03    -300.009E-03     600.516E-03    -300.616E-03     38.1322E-03
            2186     3.99684E-03     25.0243E-03    -25.5969E+06    -27.8818E+06    -15.6027E+06     1.10186E+06    -300.144E-03     600.946E-03    -300.802E-03     34.2362E-03    -300.245E-03     600.903E-03    -300.803E-03     32.6013E-03
            2187     3.33069E-03     24.9657E-03    -28.2555E+06    -32.7044E+06    -22.8233E+06     1.75842E+06    -300.206E-03     601.183E-03    -300.978E-03     28.2337E-03    -300.281E-03     601.109E-03    -301.003E-03     27.0609E-03
            2188     2.66355E-03     24.9174E-03    -28.8905E+06    -34.7097E+06    -26.4475E+06    -122.868E+03    -300.458E-03     601.650E-03    -301.192E-03     22.7257E-03    -300.514E-03     601.558E-03    -301.232E-03     21.6810E-03
            2189     1.99598E-03     24.8826E-03    -27.0819E+06    -33.3169E+06    -25.4930E+06    -1.21182E+06    -300.915E-03     602.334E-03    -301.419E-03     16.9186E-03    -300.953E-03     602.233E-03    -301.459E-03     16.0458E-03
            2190     1.33103E-03     24.8553E-03    -31.0656E+06    -37.1707E+06    -29.1504E+06    -508.438E+03    -301.415E-03     602.993E-03    -301.578E-03     10.6713E-03    -301.441E-03     602.868E-03    -301.625E-03     10.2328E-03
            2191     665.580E-06     24.8369E-03    -31.8656E+06    -37.8305E+06    -29.7247E+06     71.3449E+03    -301.848E-03     603.367E-03    -301.519E-03     5.35979E-03    -301.817E-03     603.245E-03    -301.566E-03     5.20730E-03
            2192     12.7065E-03     24.7816E-03     3.86603E+06     20.4701E+06     32.3213E+06    -2.89391E+06    -291.405E-03     588.417E-03    -297.012E-03     79.0221E-03    -291.674E-03     588.666E-03    -296.885E-03     74.5044E-03
            2193     12.0313E-03     24.6320E-03     5.69331E+06     20.6223E+06     32.1775E+06     370.783E+03    -292.671E-03     590.090E-03    -297.420E-03     82.8538E-03    -293.017E-03     590.434E-03    -297.297E-03     77.3787E-03
            2194     11.3599E-03     24.4854E-03    -6.85475E+06     10.3615E+06     21.6388E+06     2.67347E+06    -295.090E-03     592.835E-03    -297.745E-03     81.2522E-03    -295.535E-03     593.230E-03    -297.642E-03     74.9509E-03
            2195     10.6887E-03     24.3468E-03    -4.83498E+06     12.2849E+06     23.1510E+06     2.36626E+06    -296.260E-03     594.273E-03    -298.014E-03     80.5330E-03    -296.715E-03     594.688E-03    -297.909E-03     73.9515E-03
            2196     10.0210E-03     24.2146E-03    -8.26164E+06     9.15981E+06     19.7247E+06     2.27525E+06    -295.849E-03     594.127E-03    -298.278E-03     78.0682E-03    -296.273E-03     594.497E-03    -298.181E-03     72.0132E-03
            2197     9.34959E-03     24.0824E-03    -11.0429E+06     5.81748E+06     15.3920E+06     1.26717E+06    -295.091E-03     593.698E-03    -298.607E-03     73.5953E-03    -295.462E-03     594.006E-03    -298.523E-03     68.2152E-03
            2198     8.67813E-03     23.9571E-03    -10.4395E+06     5.37005E+06     13.7598E+06     1.58164E+06    -295.333E-03     594.330E-03    -298.997E-03     69.1333E-03    -295.643E-03     594.582E-03    -298.921E-03     64.5088E-03
            2199     8.00433E-03     23.8315E-03    -15.3907E+06    -3.27706E+03     7.37420E+06    -1.45366E+06    -296.647E-03     596.007E-03    -299.360E-03     64.8279E-03    -296.940E-03     596.224E-03    -299.301E-03     60.3291E-03
            2200     7.33431E-03     23.7250E-03    -19.3655E+06    -3.57485E+06     3.95425E+06    -2.12901E+06    -297.917E-03     597.580E-03    -299.663E-03     59.8052E-03    -298.188E-03     597.758E-03    -299.610E-03     55.6851E-03
            2201     6.66719E-03     23.6209E-03    -19.3730E+06    -3.26349E+06     4.28435E+06     396.163E+03    -298.778E-03     598.686E-03    -299.908E-03     54.5671E-03    -299.002E-03     598.816E-03    -299.853E-03     51.3029E-03
            2202     6.00024E-03     23.5221E-03    -20.4605E+06    -6.84160E+06    -1.06379E+06    -1.29799E+06    -299.096E-03     599.193E-03    -300.097E-03     48.8707E-03    -299.287E-03     599.291E-03    -300.063E-03     45.8821E-03
            2203     5.33131E-03     23.4381E-03    -21.7290E+06    -10.5516E+06    -7.02423E+06    -847.944E+03    -299.119E-03     599.410E-03    -300.291E-03     43.2215E-03    -299.277E-03     599.473E-03    -300.279E-03     40.7182E-03
            2204     4.66321E-03     23.3604E-03    -23.3683E+06    -18.7552E+06    -11.2174E+06    -561.799E+03    -299.796E-03     600.281E-03    -300.485E-03     38.3187E-03    -299.923E-03     600.291E-03    -300.480E-03     36.2306E-03
            2205     3.99778E-03     23.2935E-03    -25.3860E+06    -26.8961E+06    -14.6024E+06    -1.06634E+06    -300.559E-03     601.166E-03    -300.606E-03     33.3367E-03    -300.664E-03     601.127E-03    -300.603E-03     31.5144E-03
            2206     3.33119E-03     23.2369E-03    -25.8261E+06    -27.8779E+06    -15.9360E+06    -247.752E+03    -300.664E-03     601.329E-03    -300.665E-03     27.6440E-03    -300.746E-03     601.267E-03    -300.667E-03     26.3461E-03
            2207     2.66407E-03     23.1896E-03    -26.8467E+06    -30.1799E+06    -19.4614E+06     1.17747E+06    -300.661E-03     601.367E-03    -300.706E-03     21.2831E-03    -300.722E-03     601.283E-03    -300.720E-03     20.3875E-03
            2208     1.99882E-03     23.1490E-03    -36.5194E+06    -40.9146E+06    -31.1923E+06     771.511E+03    -300.960E-03     601.627E-03    -300.668E-03     15.1489E-03    -301.024E-03     601.509E-03    -300.711E-03     14.4462E-03
            2209     1.33285E-03     23.1233E-03    -35.9875E+06    -40.5000E+06    -30.7268E+06    -269.270E+03    -301.075E-03     601.576E-03    -300.501E-03     10.2105E-03    -301.122E-03     601.446E-03    -300.543E-03     9.77997E-03
            2210     667.082E-06     23.1044E-03    -31.3545E+06    -36.0559E+06    -26.2636E+06     738.310E+03    -300.611E-03     600.824E-03    -300.213E-03     5.52693E-03    -300.591E-03     600.717E-03    -300.247E-03     5.33264E-03
            2211     12.7086E-03     23.0773E-03    -13.6506E+06     18.7843E+06     24.9882E+06    -5.22133E+06    -295.235E-03     592.199E-03    -296.964E-03     77.8444E-03    -295.363E-03     592.206E-03    -296.846E-03     72.9562E-03
            2212     12.0376E-03     22.9244E-03    -20.9451E+06     6.08466E+06     15.5621E+06    -2.13519E+06    -294.807E-03     591.994E-03    -297.187E-03     81.2406E-03    -295.140E-03     592.211E-03    -297.087E-03     75.4718E-03
            2213     11.3638E-03     22.7788E-03    -8.53877E+06     9.44916E+06     20.8609E+06     1.76772E+06    -293.292E-03     590.801E-03    -297.509E-03     79.3591E-03    -293.731E-03     591.183E-03    -297.406E-03     73.1832E-03
            2214     10.6910E-03     22.6333E-03    -9.09994E+06     10.7123E+06     20.8233E+06     525.557E+03    -293.781E-03     591.666E-03    -297.886E-03     78.9866E-03    -294.244E-03     592.075E-03    -297.784E-03     72.4629E-03
            2215     10.0175E-03     22.4986E-03    -9.36812E+06     10.4862E+06     20.8005E+06     162.739E+03    -295.241E-03     593.486E-03    -298.245E-03     77.7805E-03    -295.679E-03     593.868E-03    -298.143E-03     71.5700E-03
            2216     9.34795E-03     22.3668E-03    -9.25612E+06     10.3887E+06     20.9351E+06    -83.4072E+03    -296.557E-03     595.111E-03    -298.554E-03     75.1858E-03    -296.939E-03     595.436E-03    -298.451E-03     69.7569E-03
            2217     8.67784E-03     22.2418E-03    -13.1347E+06     5.27409E+06     14.8485E+06     2.23639E+06    -297.369E-03     596.167E-03    -298.799E-03     69.9879E-03    -297.688E-03     596.416E-03    -298.713E-03     65.5003E-03
            2218     8.00961E-03     22.1175E-03    -14.8183E+06     1.54975E+06     9.59256E+06     1.72354E+06    -297.681E-03     596.696E-03    -299.015E-03     62.8112E-03    -297.955E-03     596.895E-03    -298.948E-03     58.7130E-03
            2219     7.34014E-03     22.0028E-03    -14.3764E+06     1.06511E+06     8.57000E+06    -41.9694E+03    -298.446E-03     597.650E-03    -299.204E-03     55.8596E-03    -298.684E-03     597.816E-03    -299.142E-03     52.0363E-03
            2220     6.67168E-03     21.8956E-03    -18.5411E+06    -4.19949E+06     2.68924E+06    -1.21578E+06    -298.881E-03     598.216E-03    -299.335E-03     50.9180E-03    -299.090E-03     598.336E-03    -299.288E-03     47.5693E-03
            2221     6.00280E-03     21.7999E-03    -22.3670E+06    -8.69000E+06    -2.28173E+06    -3.09726E+06    -298.827E-03     598.286E-03    -299.459E-03     45.8083E-03    -299.018E-03     598.374E-03    -299.426E-03     42.7737E-03
            2222     5.33546E-03     21.7129E-03    -23.4730E+06    -10.4013E+06    -5.07873E+06    -1.69984E+06    -299.231E-03     598.804E-03    -299.572E-03     39.5292E-03    -299.394E-03     598.861E-03    -299.548E-03     37.0180E-03
            2223     4.66820E-03     21.6355E-03    -25.7020E+06    -21.1377E+06    -13.3001E+06    -948.202E+03    -299.439E-03     599.079E-03    -299.639E-03     33.6945E-03    -299.562E-03     599.074E-03    -299.638E-03     31.6832E-03
            2224     3.99932E-03     21.5647E-03    -26.3760E+06    -29.6174E+06    -18.3818E+06    -1.94093E+06    -299.673E-03     599.360E-03    -299.687E-03     28.4122E-03    -299.764E-03     599.306E-03    -299.698E-03     26.6713E-03
            2225     3.33285E-03     21.5079E-03    -28.5436E+06    -32.1448E+06    -21.3230E+06    -1.72097E+06    -300.195E-03     599.858E-03    -299.663E-03     23.4793E-03    -300.275E-03     599.784E-03    -299.681E-03     22.0303E-03
            2226     2.66823E-03     21.4579E-03    -31.3088E+06    -35.4687E+06    -25.0341E+06    -339.299E+03    -300.165E-03     599.717E-03    -299.552E-03     18.9999E-03    -300.232E-03     599.620E-03    -299.580E-03     17.9718E-03
            2227     2.00114E-03     21.4226E-03    -29.8311E+06    -35.3593E+06    -26.1468E+06     864.591E+03    -299.756E-03     599.200E-03    -299.443E-03     14.7242E-03    -299.800E-03     599.090E-03    -299.480E-03     14.0693E-03
            2228     1.33422E-03     21.3931E-03    -30.6431E+06    -37.2179E+06    -29.0368E+06    -551.675E+03    -299.496E-03     598.881E-03    -299.385E-03     10.1763E-03    -299.519E-03     598.753E-03    -299.432E-03     9.70640E-03
            2229     666.855E-06     21.3798E-03    -31.1226E+06    -39.0879E+06    -32.1179E+06    -1.30195E+06    -299.117E-03     598.835E-03    -299.718E-03     5.64914E-03    -299.083E-03     598.719E-03    -299.777E-03     5.34340E-03
            2230     12.7077E-03     21.3567E-03    -11.7500E+06     20.5082E+06     26.4541E+06     3.12736E+06    -295.860E-03     592.734E-03    -296.874E-03     79.3561E-03    -295.991E-03     592.759E-03    -296.754E-03     73.8383E-03
            2231     12.0399E-03     21.2152E-03    -12.1057E+06     10.1459E+06     21.4660E+06     427.337E+03    -295.747E-03     592.811E-03    -297.064E-03     84.9893E-03    -296.111E-03     593.087E-03    -296.954E-03     78.2478E-03
            2232     11.3690E-03     21.0728E-03    -6.08139E+06     10.6835E+06     21.6927E+06    -2.51242E+06    -294.069E-03     591.400E-03    -297.331E-03     84.4351E-03    -294.542E-03     591.827E-03    -297.229E-03     77.8195E-03
            2233     10.6942E-03     20.9301E-03    -10.4997E+06     6.61376E+06     16.4796E+06    -1.38753E+06    -294.139E-03     591.805E-03    -297.666E-03     81.3897E-03    -294.588E-03     592.192E-03    -297.578E-03     75.1743E-03
            2234     10.0219E-03     20.7865E-03    -7.79724E+06      9.1774E+06     19.1730E+06    -1.21732E+06    -295.597E-03     593.593E-03    -297.996E-03     75.4701E-03    -295.995E-03     593.941E-03    -297.903E-03     69.5936E-03
            2235     9.34886E-03     20.6529E-03    -9.62951E+06     8.18906E+06     17.8539E+06    -1.60162E+06    -297.597E-03     595.813E-03    -298.217E-03     69.9176E-03    -297.948E-03     596.108E-03    -298.125E-03     64.6092E-03
            2236     8.68086E-03     20.5176E-03    -14.3266E+06     3.79262E+06     14.7764E+06    -2.53023E+06    -299.073E-03     597.390E-03    -298.316E-03     64.7934E-03    -299.392E-03     597.628E-03    -298.227E-03     59.9595E-03
            2237     8.01314E-03     20.3981E-03    -13.8345E+06     3.86369E+06     15.3592E+06    -351.174E+03    -299.349E-03     597.694E-03    -298.345E-03     59.4282E-03    -299.628E-03     597.893E-03    -298.254E-03     55.1028E-03
            2238     7.34610E-03     20.2801E-03    -16.4156E+06    -812.235E+03     8.71785E+06     115.027E+03    -299.046E-03     597.381E-03    -298.335E-03     54.0273E-03    -299.282E-03     597.530E-03    -298.266E-03     50.2969E-03
            2239     6.67814E-03     20.1764E-03    -16.8201E+06    -3.48243E+06     3.69519E+06    -44.4555E+03    -298.981E-03     597.306E-03    -298.325E-03     47.9955E-03    -299.180E-03     597.422E-03    -298.277E-03     44.6075E-03
            2240     6.01022E-03     20.0778E-03    -19.1500E+06    -6.33540E+06     293.890E+03     448.486E+03    -299.048E-03     597.350E-03    -298.302E-03     41.8457E-03    -299.217E-03     597.428E-03    -298.264E-03     39.0227E-03
            2241     5.34257E-03     19.9887E-03    -24.7311E+06    -11.2582E+06    -4.53662E+06    -1.72544E+06    -299.237E-03     597.472E-03    -298.235E-03     36.3872E-03    -299.399E-03     597.519E-03    -298.206E-03     33.9429E-03
            2242     4.67581E-03     19.9108E-03    -27.4912E+06    -21.3848E+06    -10.8923E+06    -640.261E+03    -299.466E-03     597.562E-03    -298.095E-03     30.7940E-03    -299.598E-03     597.551E-03    -298.079E-03     28.7710E-03
            2243     4.00967E-03     19.8437E-03    -28.8723E+06    -31.5721E+06    -18.4254E+06    -87.7897E+03    -299.080E-03     596.982E-03    -297.903E-03     25.1542E-03    -299.173E-03     596.915E-03    -297.907E-03     23.5795E-03
            2244     3.34167E-03     19.7815E-03    -29.6359E+06    -34.4916E+06    -23.5824E+06    -1.40345E+06    -298.354E-03     596.094E-03    -297.740E-03     20.2281E-03    -298.426E-03     596.007E-03    -297.765E-03     18.8968E-03
            2245     2.67197E-03     19.7364E-03    -29.7252E+06    -36.6062E+06    -27.7435E+06    -2.37010E+06    -297.944E-03     595.582E-03    -297.638E-03     16.0293E-03    -297.995E-03     595.478E-03    -297.681E-03     14.9212E-03
            2246     2.00403E-03     19.6974E-03    -28.7692E+06    -36.6247E+06    -28.5615E+06    -2.92751E+06    -297.658E-03     595.261E-03    -297.603E-03     12.1581E-03    -297.688E-03     595.144E-03    -297.651E-03     11.3374E-03
            2247     1.33575E-03     19.6718E-03    -31.2800E+06    -38.6724E+06    -30.1152E+06    -2.34065E+06    -297.507E-03     595.159E-03    -297.652E-03     8.15322E-03    -297.521E-03     595.020E-03    -297.702E-03     7.57600E-03
            2248     667.619E-06     19.6546E-03    -34.0220E+06    -42.0429E+06    -34.1745E+06    -2.03603E+06    -297.617E-03     595.484E-03    -297.868E-03     4.23527E-03    -297.579E-03     595.340E-03    -297.928E-03     3.87489E-03
            2249     12.7116E-03     19.6498E-03     1.69263E+06     20.9833E+06     30.5734E+06     3.53530E+06    -293.340E-03     590.161E-03    -296.821E-03     82.1654E-03    -293.639E-03     590.446E-03    -296.701E-03     76.8658E-03
            2250     12.0356E-03     19.5026E-03     2.26526E+06     16.4197E+06     27.8161E+06     1.39918E+06    -294.538E-03     591.652E-03    -297.114E-03     86.3670E-03    -294.967E-03     592.065E-03    -297.002E-03     79.6245E-03
            2251     11.3629E-03     19.3635E-03    -3.62728E+06     11.2432E+06     22.0956E+06     79.5657E+03    -296.890E-03     594.222E-03    -297.332E-03     85.2855E-03    -297.369E-03     594.664E-03    -297.232E-03     78.4321E-03
            2252     10.6946E-03     19.2162E-03    -2.30692E+06     12.9109E+06     23.5280E+06    -537.217E+03    -298.524E-03     595.980E-03    -297.456E-03     80.7182E-03    -298.956E-03     596.382E-03    -297.354E-03     74.2999E-03
            2253     10.0255E-03     19.0737E-03    -8.16793E+06     7.79599E+06     18.4608E+06    -826.130E+03    -299.309E-03     596.790E-03    -297.481E-03     73.7663E-03    -299.696E-03     597.122E-03    -297.388E-03     67.9161E-03
            2254     9.36019E-03     18.9332E-03    -10.6982E+06     6.23082E+06     16.6339E+06    -600.938E+03    -299.891E-03     597.330E-03    -297.439E-03     67.3844E-03    -300.237E-03     597.612E-03    -297.350E-03     62.0376E-03
            2255     8.69149E-03     18.8016E-03    -8.77761E+06     7.17559E+06     18.2763E+06    -219.249E+03    -299.835E-03     597.188E-03    -297.353E-03     61.0327E-03    -300.131E-03     597.425E-03    -297.259E-03     56.1492E-03
            2256     8.02351E-03     18.6753E-03    -12.6206E+06     2.16841E+06     13.3720E+06    -2.07001E+06    -299.653E-03     596.873E-03    -297.220E-03     55.0533E-03    -299.919E-03     597.063E-03    -297.138E-03     50.4776E-03
            2257     7.35500E-03     18.5637E-03    -16.4348E+06    -1.54291E+06     9.03613E+06    -2.40819E+06    -299.747E-03     596.793E-03    -297.046E-03     49.1971E-03    -299.981E-03     596.937E-03    -296.974E-03     45.2001E-03
            2258     6.68724E-03     18.4537E-03    -19.1802E+06    -4.34434E+06     5.57640E+06    -18.8016E+03    -299.700E-03     596.515E-03    -296.814E-03     42.6919E-03    -299.899E-03     596.614E-03    -296.752E-03     39.3804E-03
            2259     6.02085E-03     18.3581E-03    -20.6317E+06    -7.77250E+06    -200.465E+03     924.444E+03    -299.170E-03     595.702E-03    -296.532E-03     36.5581E-03    -299.334E-03     595.766E-03    -296.492E-03     33.7748E-03
            2260     5.35286E-03     18.2701E-03    -21.3861E+06    -10.5798E+06    -5.46414E+06     704.526E+03    -298.380E-03     594.631E-03    -296.251E-03     31.5100E-03    -298.513E-03     594.666E-03    -296.232E-03     29.2947E-03
            2261     4.68448E-03     18.1897E-03    -24.5566E+06    -20.2706E+06    -10.4328E+06     236.586E+03    -297.932E-03     593.917E-03    -295.985E-03     27.1733E-03    -298.043E-03     593.899E-03    -295.972E-03     25.3305E-03
            2262     4.01693E-03     18.1221E-03    -28.4702E+06    -30.7227E+06    -15.8378E+06    -1.04234E+06    -297.486E-03     593.186E-03    -295.700E-03     23.4503E-03    -297.582E-03     593.117E-03    -295.693E-03     21.8213E-03
            2263     3.34869E-03     18.0679E-03    -28.9784E+06    -32.7617E+06    -19.2207E+06    -1.23184E+06    -296.668E-03     592.088E-03    -295.420E-03     19.4039E-03    -296.744E-03     592.001E-03    -295.427E-03     18.0777E-03
            2264     2.68048E-03     18.0192E-03    -28.2666E+06    -33.7968E+06    -21.9248E+06     142.064E+03    -295.958E-03     591.150E-03    -295.192E-03     14.7850E-03    -296.011E-03     591.047E-03    -295.211E-03     13.8621E-03
            2265     2.01072E-03     17.9834E-03    -34.0658E+06    -40.9547E+06    -30.2659E+06    -553.328E+03    -295.492E-03     590.485E-03    -294.994E-03     10.4941E-03    -295.538E-03     590.355E-03    -295.036E-03     9.78659E-03
            2266     1.34045E-03     17.9566E-03    -36.3203E+06    -43.9493E+06     -34.023E+06    -692.259E+03    -295.150E-03     589.980E-03    -294.829E-03     6.81751E-03    -295.174E-03     589.826E-03    -294.883E-03     6.32757E-03
            2267     670.581E-06     17.9385E-03    -36.7337E+06      -44.02E+06    -33.7064E+06     926.834E+03    -295.047E-03     589.600E-03    -294.552E-03     3.67260E-03    -295.017E-03     589.441E-03    -294.604E-03     3.39203E-03
            2268     12.7088E-03     17.9472E-03    -1.10103E+06     14.8670E+06     22.7122E+06    -280.518E+03    -294.028E-03     590.826E-03    -296.798E-03     83.2901E-03    -294.383E-03     591.164E-03    -296.704E-03     77.9841E-03
            2269     12.0366E-03     17.7975E-03    -3.06819E+06     16.3700E+06     21.9587E+06     739.537E+03    -296.585E-03     593.601E-03    -297.015E-03     84.1208E-03    -297.031E-03     594.030E-03    -296.925E-03     77.7449E-03
            2270     11.3673E-03     17.6451E-03    -2.42316E+06     16.4217E+06     24.2646E+06     1.58890E+06    -299.835E-03     596.922E-03    -297.087E-03     80.2102E-03    -300.292E-03     597.359E-03    -296.986E-03     73.4626E-03
            2271     10.7001E-03     17.4952E-03    -4.45772E+06     13.6356E+06     23.7666E+06    -502.962E+03    -301.807E-03     598.786E-03    -296.978E-03     76.0395E-03    -302.255E-03     599.197E-03    -296.873E-03     69.2187E-03
            2272     10.0350E-03     17.3534E-03    -8.02055E+06     9.82053E+06     20.0448E+06    -666.581E+03    -302.603E-03     599.334E-03    -296.732E-03     71.1409E-03    -303.005E-03     599.685E-03    -296.634E-03     64.9160E-03
            2273     9.36659E-03     17.2123E-03    -8.99603E+06     8.00257E+06     18.1307E+06     567.002E+03    -302.632E-03     599.035E-03    -296.403E-03     64.8409E-03    -302.980E-03     599.327E-03    -296.311E-03     59.1757E-03
            2274     8.70163E-03     17.0816E-03    -11.1007E+06     4.17957E+06     14.7941E+06     784.057E+03    -301.851E-03     597.875E-03    -296.024E-03     57.1636E-03    -302.149E-03     598.107E-03    -295.940E-03     52.0224E-03
            2275     8.03460E-03     16.9593E-03    -11.6439E+06     2.95822E+06     13.4803E+06     258.064E+03    -301.204E-03     596.820E-03    -295.616E-03     49.7500E-03    -301.450E-03     596.997E-03    -295.536E-03     45.2733E-03
            2276     7.36886E-03     16.8427E-03    -13.2810E+06     1.46433E+06     11.8915E+06    -331.062E+03    -300.657E-03     595.818E-03    -295.161E-03     42.8816E-03    -300.867E-03     595.952E-03    -295.084E-03     38.9491E-03
            2277     6.70340E-03     16.7369E-03    -18.8345E+06    -5.20772E+06     4.68142E+06    -1.19866E+06    -299.581E-03     594.241E-03    -294.660E-03     36.8824E-03    -299.766E-03     594.326E-03    -294.601E-03     33.5032E-03
            2278     6.03526E-03     16.6416E-03    -19.7908E+06    -7.24856E+06     1.47070E+06    -1.36985E+06    -298.475E-03     592.639E-03    -294.163E-03     31.7114E-03    -298.633E-03     592.696E-03    -294.117E-03     28.8566E-03
            2279     5.36809E-03     16.5556E-03    -21.1241E+06    -9.88034E+06    -2.48090E+06     580.511E+03    -297.291E-03     590.968E-03    -293.677E-03     27.0032E-03    -297.422E-03     590.996E-03    -293.644E-03     24.7685E-03
            2280     4.69912E-03     16.4800E-03    -23.5738E+06    -21.5130E+06    -12.1878E+06     278.547E+03    -295.660E-03     588.898E-03    -293.238E-03     22.4557E-03    -295.756E-03     588.869E-03    -293.233E-03     20.6520E-03
            2281     4.02750E-03     16.4121E-03    -22.9731E+06    -29.4983E+06    -17.3892E+06    -981.462E+03    -294.537E-03     587.436E-03    -292.900E-03     18.2861E-03    -294.599E-03     587.362E-03    -292.910E-03     16.7357E-03
            2282     3.35722E-03     16.3566E-03    -26.1803E+06    -32.5487E+06    -20.0753E+06    -759.782E+03    -294.046E-03     586.647E-03    -292.600E-03     14.9959E-03    -294.104E-03     586.554E-03    -292.615E-03     13.7360E-03
            2283     2.68627E-03     16.3115E-03    -30.6003E+06    -37.1320E+06    -24.6893E+06     1.59819E+06    -293.404E-03     585.699E-03    -292.295E-03     12.0517E-03    -293.459E-03     585.585E-03    -292.320E-03     11.2456E-03
            2284     2.01536E-03     16.2766E-03    -30.6765E+06    -38.5732E+06    -27.3385E+06     3.24469E+06    -292.786E-03     584.796E-03    -292.010E-03     9.22464E-03    -292.823E-03     584.668E-03    -292.046E-03     8.72880E-03
            2285     1.34472E-03     16.2505E-03    -32.0270E+06    -40.3521E+06    -29.3854E+06     3.42683E+06    -292.317E-03     584.051E-03    -291.734E-03     6.39907E-03    -292.337E-03     583.907E-03    -291.776E-03     6.09963E-03
            2286     672.329E-06     16.2364E-03    -34.8456E+06    -42.9776E+06    -31.5563E+06     1.65020E+06    -291.797E-03     583.257E-03    -291.460E-03     3.71614E-03    -291.769E-03     583.109E-03    -291.505E-03     3.44980E-03
            2287     12.7092E-03     16.2357E-03    -22.8224E+03     17.6385E+06     26.0613E+06    -113.241E+03    -298.315E-03     594.985E-03    -296.670E-03     79.8467E-03    -298.829E-03     595.486E-03    -296.565E-03     74.2994E-03
            2288     12.0416E-03     16.0814E-03    -1.46467E+06     17.9703E+06     24.1797E+06     1.23725E+06    -301.130E-03     597.739E-03    -296.610E-03     81.0779E-03    -301.588E-03     598.186E-03    -296.513E-03     74.5373E-03
            2289     11.3752E-03     15.9249E-03    -6.09422E+06     13.3943E+06     19.0458E+06     621.749E+03    -302.714E-03     599.114E-03    -296.400E-03     76.5251E-03    -303.164E-03     599.535E-03    -296.316E-03     69.7768E-03
            2290     10.7090E-03     15.7746E-03    -7.87228E+06     9.93092E+06     16.4997E+06    -33.1264E+03    -303.754E-03     599.824E-03    -296.069E-03     71.5483E-03    -304.185E-03     600.214E-03    -295.990E-03     64.7897E-03
            2291     10.0427E-03     15.6288E-03    -6.27396E+06     11.4966E+06     18.9269E+06    -374.964E+03    -304.961E-03     600.571E-03    -295.610E-03     65.6756E-03    -305.343E-03     600.917E-03    -295.523E-03     59.2941E-03
            2292     9.38170E-03     15.4892E-03    -8.44823E+06     8.51114E+06     17.7069E+06    -714.407E+03    -304.953E-03     599.963E-03    -295.010E-03     58.4252E-03    -305.291E-03     600.250E-03    -294.922E-03     52.4227E-03
            2293     8.71674E-03     15.3611E-03    -11.5702E+06     4.56652E+06     14.6555E+06    -1.57626E+06    -304.211E-03     598.524E-03    -294.313E-03     51.1418E-03    -304.509E-03     598.755E-03    -294.230E-03     45.5820E-03
            2294     8.05356E-03     15.2395E-03    -14.0989E+06     1.42007E+06     11.0056E+06    -115.802E+03    -302.983E-03     596.537E-03    -293.554E-03     44.4483E-03    -303.230E-03     596.707E-03    -293.480E-03     39.7573E-03
            2295     7.38830E-03     15.1265E-03    -14.9740E+06    -1.50842E+06     7.22985E+06     1.22490E+03    -300.952E-03     593.737E-03    -292.785E-03     38.5104E-03    -301.154E-03     593.859E-03    -292.725E-03     34.4824E-03
            2296     6.72032E-03     15.0250E-03    -14.9083E+06    -3.05768E+06     5.21367E+06    -357.636E+03    -299.057E-03     591.109E-03    -292.052E-03     32.9274E-03    -299.220E-03     591.193E-03    -292.000E-03     29.5909E-03
            2297     6.05295E-03     14.9318E-03    -18.8885E+06    -7.63399E+06     611.968E+03     343.301E+03    -297.496E-03     588.830E-03    -291.334E-03     27.6495E-03    -297.638E-03     588.876E-03    -291.292E-03     24.9756E-03
            2298     5.38327E-03     14.8485E-03    -22.0736E+06    -12.0345E+06    -4.59323E+06     381.440E+03    -296.003E-03     586.618E-03    -290.615E-03     22.7385E-03    -296.129E-03     586.637E-03    -290.589E-03     20.4454E-03
            2299     4.71357E-03     14.7760E-03    -23.4037E+06    -21.7690E+06    -11.6107E+06     800.236E+03    -294.455E-03     584.357E-03    -289.902E-03     17.7523E-03    -294.549E-03     584.324E-03    -289.894E-03     15.8569E-03
            2300     4.04379E-03     14.7137E-03    -20.9702E+06    -28.0913E+06    -15.3912E+06     1.94946E+06    -292.553E-03     581.804E-03    -289.251E-03     12.9885E-03    -292.605E-03     581.727E-03    -289.257E-03     11.5109E-03
            2301     3.37053E-03     14.6582E-03    -22.8621E+06    -31.9975E+06    -20.8523E+06     1.78197E+06    -290.750E-03     579.463E-03    -288.713E-03     8.77845E-03    -290.786E-03     579.364E-03    -288.737E-03     7.67216E-03
            2302     2.69741E-03     14.6150E-03    -28.4597E+06    -38.6296E+06    -28.2018E+06    -322.542E+03    -289.568E-03     577.860E-03    -288.292E-03     5.98764E-03    -289.603E-03     577.737E-03    -288.336E-03     5.07739E-03
            2303     2.02341E-03     14.5805E-03    -27.0657E+06    -37.5898E+06    -27.1093E+06     186.522E+03    -288.689E-03     576.676E-03    -287.987E-03     4.15076E-03    -288.709E-03     576.545E-03    -288.029E-03     3.51415E-03
            2304     1.34826E-03     14.5564E-03    -26.4312E+06    -37.0128E+06    -26.2858E+06     995.241E+03    -288.098E-03     575.877E-03    -287.779E-03     2.78743E-03    -288.095E-03     575.730E-03    -287.818E-03     2.35814E-03
            2305     674.664E-06     14.5410E-03    -26.3580E+06    -37.5460E+06    -27.2837E+06     106.579E+03    -287.763E-03     575.469E-03    -287.706E-03     1.48131E-03    -287.711E-03     575.327E-03    -287.749E-03     1.14010E-03
            2306     12.7173E-03     14.5222E-03    -1.93841E+06     17.1553E+06     25.2635E+06    -694.791E+03    -303.882E-03     600.194E-03    -296.313E-03     77.9653E-03    -304.408E-03     600.700E-03    -296.208E-03     72.3088E-03
            2307     12.0508E-03     14.3573E-03    -3.49957E+06     15.8685E+06     22.7098E+06     1.01635E+06    -304.995E-03     600.961E-03    -295.966E-03     80.8273E-03    -305.476E-03     601.420E-03    -295.870E-03     74.0039E-03
            2308     11.3870E-03     14.2031E-03    -2.83249E+06     15.3717E+06     21.3046E+06     1.07777E+06    -306.441E-03     601.938E-03    -295.497E-03     75.3892E-03    -306.888E-03     602.368E-03    -295.409E-03     68.4468E-03
            2309     10.7229E-03     14.0527E-03    -3.87864E+06     14.0434E+06     18.7048E+06    -369.552E+03    -307.650E-03     602.508E-03    -294.858E-03     68.3553E-03    -308.062E-03     602.902E-03    -294.779E-03     61.4910E-03
            2310     10.0621E-03     13.9022E-03    -7.30126E+06      9.7668E+06     14.9220E+06    -751.288E+03    -307.426E-03     601.500E-03    -294.073E-03     60.6284E-03    -307.792E-03     601.832E-03    -294.002E-03     54.1596E-03
            2311     9.39719E-03     13.7665E-03    -8.22913E+06     7.82209E+06     14.3614E+06    -792.567E+03    -306.667E-03     599.861E-03    -293.193E-03     53.3341E-03    -306.986E-03     600.136E-03    -293.121E-03     47.2866E-03
            2312     8.73558E-03     13.6385E-03    -8.75362E+06     6.52398E+06     14.1033E+06    -197.160E+03    -305.778E-03     597.995E-03    -292.217E-03     46.6165E-03    -306.054E-03     598.222E-03    -292.143E-03     41.0568E-03
            2313     8.07155E-03     13.5213E-03    -12.1658E+06     1.96613E+06     9.44284E+06    -814.202E+03    -304.119E-03     595.269E-03    -291.151E-03     39.5991E-03    -304.352E-03     595.440E-03    -291.089E-03     34.5979E-03
            2314     7.40607E-03     13.4161E-03    -15.0567E+06    -2.89398E+06      4.2354E+06    -933.251E+03    -301.816E-03     591.864E-03    -290.049E-03     32.2234E-03    -302.008E-03     591.982E-03    -290.002E-03     27.8605E-03
            2315     6.74016E-03     13.3173E-03    -17.1301E+06    -6.90814E+06    -347.580E+03     1.33582E+06    -299.397E-03     588.342E-03    -288.945E-03     24.9014E-03    -299.544E-03     588.406E-03    -288.912E-03     21.5180E-03
            2316     6.07180E-03     13.2288E-03    -16.9994E+06    -8.46646E+06    -3.07604E+06     1.55410E+06    -297.005E-03     584.858E-03    -287.853E-03     18.5329E-03    -297.119E-03     584.891E-03    -287.831E-03     15.7107E-03
            2317     5.40316E-03     13.1498E-03    -17.3198E+06    -10.2268E+06    -5.28535E+06     398.399E+03    -294.580E-03     581.365E-03    -286.785E-03     13.2625E-03    -294.674E-03     581.377E-03    -286.772E-03     10.8005E-03
            2318     4.73267E-03     13.0800E-03    -17.8511E+06    -17.7063E+06    -8.17419E+06     417.250E+03    -292.189E-03     577.953E-03    -285.764E-03     9.17432E-03    -292.258E-03     577.919E-03    -285.753E-03     7.08461E-03
            2319     4.06051E-03     13.0217E-03    -25.2334E+06    -31.8784E+06    -17.7932E+06     1.71544E+06    -289.842E-03     574.638E-03    -284.797E-03     6.62253E-03    -289.903E-03     574.547E-03    -284.803E-03     4.91410E-03
            2320     3.38821E-03     12.9737E-03    -26.7581E+06    -34.9701E+06    -21.3489E+06     3.09892E+06    -287.522E-03     571.465E-03    -283.942E-03     4.57402E-03    -287.571E-03     571.354E-03    -283.959E-03     3.34060E-03
            2321     2.71228E-03     12.9333E-03    -22.7911E+06    -32.4057E+06    -19.2158E+06     2.43722E+06    -285.519E-03     568.763E-03    -283.243E-03     2.73855E-03    -285.546E-03     568.648E-03    -283.259E-03     1.78440E-03
            2322     2.03551E-03     12.9013E-03    -26.6597E+06    -36.8143E+06    -23.7695E+06     1.21101E+06    -284.118E-03     566.774E-03    -282.656E-03     1.22074E-03    -284.138E-03     566.639E-03    -282.683E-03     475.661E-06
            2323     1.35820E-03     12.8793E-03    -25.7551E+06    -36.6324E+06    -24.1600E+06    -396.820E+03    -283.019E-03     565.187E-03    -282.168E-03    -140.622E-06    -283.003E-03     565.025E-03    -282.198E-03    -656.241E-06
            2324     678.490E-06     12.8636E-03    -24.8272E+06    -36.1369E+06    -23.4151E+06    -2.47404E+06    -281.920E-03     563.956E-03    -282.035E-03    -765.808E-06    -281.864E-03     563.796E-03    -282.064E-03    -1.11341E-03
            2325     12.7199E-03     12.7888E-03    -1.93000E+06     15.8381E+06     20.6188E+06     130.402E+03    -308.516E-03     604.508E-03    -295.992E-03     83.0034E-03    -309.059E-03     605.040E-03    -295.909E-03     76.6180E-03
            2326     12.0593E-03     12.6355E-03    -1.55003E+06     16.2191E+06     21.0201E+06    -244.018E+03    -310.805E-03     606.171E-03    -295.366E-03     84.2356E-03    -311.318E-03     606.675E-03    -295.282E-03     76.7561E-03
            2327     11.3956E-03     12.4739E-03    -2.88434E+06     15.3623E+06     20.1494E+06    -93.5781E+03    -312.320E-03     606.858E-03    -294.538E-03     76.6011E-03    -312.778E-03     607.302E-03    -294.455E-03     69.4615E-03
            2328     10.7385E-03     12.3180E-03    -3.77554E+06     14.4127E+06     19.5013E+06    -903.156E+03    -313.000E-03     606.501E-03    -293.502E-03     66.9187E-03    -313.425E-03     606.908E-03    -293.420E-03     59.6721E-03
            2329     10.0778E-03     12.1790E-03    -5.05666E+06     11.4315E+06     16.9058E+06    -1.72900E+06    -311.676E-03     603.977E-03    -292.301E-03     56.7034E-03    -312.044E-03     604.321E-03    -292.226E-03     49.7089E-03
            2330     9.41848E-03     12.0427E-03    -7.20773E+06     7.41384E+06     12.0398E+06     511.093E+03    -309.666E-03     600.666E-03    -291.000E-03     46.3758E-03    -309.960E-03     600.927E-03    -290.940E-03     40.1910E-03
            2331     8.75583E-03     11.9193E-03    -8.91790E+06     3.71633E+06     7.99334E+06     1.36611E+06    -307.716E-03     597.336E-03    -289.620E-03     36.6604E-03    -307.951E-03     597.530E-03    -289.572E-03     31.0939E-03
            2332     8.09371E-03     11.8062E-03    -10.0793E+06     1.36078E+06     5.69204E+06     330.981E+03    -305.643E-03     593.796E-03    -288.154E-03     27.7904E-03    -305.835E-03     593.943E-03    -288.113E-03     22.5534E-03
            2333     7.43156E-03     11.7048E-03    -11.2518E+06    -753.168E+03     4.34501E+06     888.833E+03    -303.160E-03     589.772E-03    -286.611E-03     19.8563E-03    -303.316E-03     589.873E-03    -286.572E-03     15.1576E-03
            2334     6.76696E-03     11.6146E-03    -12.5719E+06    -3.79060E+06     1.31661E+06     1.21140E+06    -299.941E-03     584.967E-03    -285.027E-03     13.4234E-03    -300.060E-03     585.025E-03    -284.996E-03     9.45268E-03
            2335     6.10071E-03     11.5323E-03    -13.7861E+06    -7.24554E+06    -2.79499E+06     1.42141E+06    -296.180E-03     579.650E-03    -283.470E-03     8.37170E-03    -296.274E-03     579.677E-03    -283.453E-03     4.95313E-03
            2336     5.43108E-03     11.4602E-03    -16.0295E+06    -10.9318E+06    -6.34285E+06     1.64940E+06    -292.225E-03     574.243E-03    -282.019E-03     4.65396E-03    -292.305E-03     574.245E-03    -282.011E-03     1.72314E-03
            2337     4.75861E-03     11.3986E-03    -17.8848E+06    -20.1298E+06    -11.2061E+06     1.32194E+06    -288.488E-03     569.208E-03    -280.720E-03     2.11055E-03    -288.545E-03     569.162E-03    -280.721E-03    -374.575E-06
            2338     4.08297E-03     11.3466E-03    -20.9176E+06    -30.1271E+06    -16.7422E+06     2.13628E+06    -285.474E-03     565.048E-03    -279.573E-03     290.535E-06    -285.513E-03     564.952E-03    -279.583E-03    -1.71421E-03
            2339     3.40455E-03     11.3023E-03    -24.1422E+06    -33.2541E+06    -18.7502E+06     2.22608E+06    -283.114E-03     561.655E-03    -278.541E-03    -687.846E-06    -283.152E-03     561.542E-03    -278.552E-03    -2.26387E-03
            2340     2.72672E-03     11.2672E-03    -22.2848E+06    -31.9351E+06    -17.1861E+06     2.51481E+06    -280.886E-03     558.491E-03    -277.605E-03    -1.37370E-03    -280.912E-03     558.372E-03    -277.612E-03    -2.56514E-03
            2341     2.04663E-03     11.2398E-03    -20.8537E+06    -32.0026E+06    -18.1424E+06     2.32760E+06    -278.711E-03     555.527E-03    -276.816E-03    -1.16269E-03    -278.716E-03     555.398E-03    -276.830E-03    -2.00975E-03
            2342     1.36560E-03     11.2186E-03    -20.1645E+06    -32.5028E+06    -19.3316E+06     1.37932E+06    -277.111E-03     553.365E-03    -276.254E-03    -503.670E-06    -277.079E-03     553.210E-03    -276.275E-03    -1.05341E-03
            2343     684.480E-06     11.2111E-03    -22.4881E+06    -36.0420E+06    -22.9078E+06     660.578E+03    -276.338E-03     552.140E-03    -275.802E-03    -101.629E-06    -276.265E-03     551.970E-03    -275.832E-03    -345.717E-06
            2344     12.7202E-03     11.0535E-03    -545.880E+03     16.6414E+06     19.8856E+06     316.908E+03    -314.090E-03     609.867E-03    -295.777E-03     84.7550E-03    -314.648E-03     610.424E-03    -295.701E-03     78.0163E-03
            2345     12.0612E-03     10.8946E-03    -2.55267E+06     15.4453E+06     17.5530E+06    -1.19858E+06    -318.746E-03     613.501E-03    -294.755E-03     81.1306E-03    -319.264E-03     614.014E-03    -294.686E-03     73.2653E-03
            2346     11.4096E-03     10.7337E-03    -3.64456E+06     13.1068E+06     14.8939E+06    -1.29470E+06    -319.661E-03     613.084E-03    -293.423E-03     70.9852E-03    -320.112E-03     613.527E-03    -293.362E-03     63.3609E-03
            2347     10.7521E-03     10.5824E-03    -4.38418E+06     10.8806E+06     12.9554E+06    -658.923E+03    -318.737E-03     610.621E-03    -291.885E-03     59.4610E-03    -319.135E-03     611.006E-03    -291.829E-03     51.9119E-03
            2348     10.0990E-03     10.4420E-03    -5.31720E+06     9.56158E+06     12.1702E+06    -2.30006E+06    -317.678E-03     607.841E-03    -290.163E-03     47.2639E-03    -318.029E-03     608.173E-03    -290.108E-03     39.5374E-03
            2349     9.44298E-03     10.3180E-03    -5.71151E+06     8.09230E+06     11.5615E+06    -1.20870E+06    -315.077E-03     603.360E-03    -288.282E-03     35.2628E-03    -315.353E-03     603.612E-03    -288.228E-03     28.2629E-03
            2350     8.78665E-03     10.1990E-03    -5.60725E+06     6.04235E+06     9.59321E+06     898.986E+03    -311.218E-03     597.535E-03    -286.317E-03     24.2675E-03    -311.414E-03     597.707E-03    -286.270E-03     18.2769E-03
            2351     8.12738E-03     10.0940E-03    -6.10341E+06     3.10191E+06     6.23865E+06     2.15094E+06    -307.024E-03     591.353E-03    -284.329E-03     15.5890E-03    -307.172E-03     591.474E-03    -284.294E-03     10.1737E-03
            2352     7.46458E-03     9.99932E-03    -7.33323E+06    -205.876E+03     2.78031E+06     3.14641E+06    -302.985E-03     585.328E-03    -282.343E-03     9.33873E-03    -303.096E-03     585.405E-03    -282.318E-03     4.53797E-03
            2353     6.79995E-03     9.91795E-03     -9.6788E+06    -3.78170E+06    -90.0551E+03     2.53924E+06    -298.696E-03     579.080E-03    -280.384E-03     4.79577E-03    -298.789E-03     579.126E-03    -280.365E-03     311.472E-06
            2354     6.13145E-03     9.84609E-03    -14.5456E+06    -9.62089E+06    -4.80315E+06     3.46608E+06    -293.733E-03     572.246E-03    -278.513E-03     1.56225E-03    -293.818E-03     572.259E-03    -278.502E-03    -2.27085E-03
            2355     5.45946E-03     9.78536E-03    -14.6398E+06    -11.4831E+06    -6.66773E+06     3.51022E+06    -288.829E-03     565.638E-03    -276.809E-03    -838.350E-06    -288.895E-03     565.631E-03    -276.805E-03    -4.07046E-03
            2356     4.78382E-03     9.73228E-03    -15.5780E+06    -19.8621E+06    -10.5643E+06     3.89180E+06    -284.663E-03     559.950E-03    -275.286E-03    -2.53218E-03    -284.706E-03     559.896E-03    -275.288E-03    -5.26255E-03
            2357     4.10646E-03     9.68744E-03    -17.0988E+06     -27.759E+06    -13.6588E+06     4.11020E+06    -281.122E-03     555.048E-03    -273.926E-03    -3.76826E-03    -281.146E-03     554.951E-03    -273.929E-03    -5.94989E-03
            2358     3.42744E-03     9.64957E-03    -15.2114E+06    -27.0121E+06    -13.6138E+06     3.09926E+06    -277.850E-03     550.581E-03    -272.731E-03    -4.10330E-03    -277.857E-03     550.476E-03    -272.738E-03    -5.91803E-03
            2359     2.74469E-03     9.61906E-03    -17.0820E+06    -30.3029E+06    -17.4714E+06     1.41927E+06    -275.043E-03     546.772E-03    -271.729E-03    -3.52279E-03    -275.044E-03     546.654E-03    -271.748E-03    -5.03612E-03
            2360     2.06065E-03     9.59787E-03    -15.8065E+06    -30.2710E+06    -17.6146E+06     772.204E+03    -272.693E-03     543.677E-03    -270.984E-03    -2.65744E-03    -272.676E-03     543.548E-03    -271.006E-03    -3.79048E-03
            2361     1.37315E-03     9.58258E-03    -13.4267E+06    -28.9341E+06    -16.5035E+06     1.73279E+06    -271.030E-03     541.603E-03    -270.573E-03    -1.77989E-03    -270.975E-03     541.456E-03    -270.594E-03    -2.51318E-03
            2362     684.726E-06     9.57054E-03    -17.7282E+06    -33.3846E+06    -20.3258E+06     3.84842E+06    -270.695E-03     541.015E-03    -270.320E-03    -892.408E-06    -270.596E-03     540.836E-03    -270.347E-03    -1.19570E-03
            2363     12.7254E-03     9.31137E-03    -791.908E+03     17.4836E+06     18.9325E+06    -59.7191E+03    -323.833E-03     619.237E-03    -295.404E-03     82.7995E-03    -324.276E-03     619.684E-03    -295.333E-03     75.8454E-03
            2364     12.0758E-03     9.13716E-03    -1.67072E+06     16.5208E+06     15.4896E+06    -494.772E+03    -327.140E-03     620.990E-03    -293.850E-03     76.2440E-03    -327.646E-03     621.505E-03    -293.794E-03     67.8962E-03
            2365     11.4246E-03     8.98378E-03    -1.97419E+06     14.6106E+06     12.8535E+06    -1.23586E+06    -328.082E-03     620.035E-03    -291.953E-03     62.4945E-03    -328.523E-03     620.485E-03    -291.907E-03     54.1107E-03
            2366     10.7773E-03     8.83824E-03    -2.78421E+06     11.2800E+06     10.4047E+06     152.206E+03    -326.457E-03     616.250E-03    -289.792E-03     48.5215E-03    -326.811E-03     616.606E-03    -289.753E-03     40.6828E-03
            2367     10.1256E-03     8.70088E-03    -4.50739E+06     8.32917E+06     8.12183E+06    -453.225E+03    -323.529E-03     610.977E-03    -287.448E-03     35.0356E-03    -323.821E-03     611.262E-03    -287.413E-03     27.2386E-03
            2368     9.47573E-03     8.58389E-03    -4.72793E+06     6.85485E+06     7.84980E+06    -1.75885E+06    -319.617E-03     604.596E-03    -284.979E-03     23.6535E-03    -319.850E-03     604.817E-03    -284.943E-03     16.1234E-03
            2369     8.82172E-03     8.47823E-03    -6.37470E+06     3.27452E+06     5.77471E+06    -121.386E+03    -314.097E-03     596.562E-03    -282.465E-03     14.4259E-03    -314.265E-03     596.705E-03    -282.432E-03     8.01274E-03
            2370     8.16300E-03     8.38704E-03    -6.71599E+06     899.863E+03      4.2613E+06     2.47255E+06    -307.642E-03     587.659E-03    -280.017E-03     6.90192E-03    -307.762E-03     587.748E-03    -279.987E-03     1.46445E-03
            2371     7.50035E-03     8.30421E-03    -7.10420E+06    -1.70529E+06     1.96134E+06     4.40748E+06    -301.273E-03     578.969E-03    -277.696E-03     1.88571E-03    -301.360E-03     579.020E-03    -277.674E-03    -2.82649E-03
            2372     6.83344E-03     8.23272E-03    -11.1335E+06    -7.81919E+06    -4.20403E+06     4.31191E+06    -295.345E-03     570.868E-03    -275.522E-03    -1.32330E-03    -295.420E-03     570.887E-03    -275.516E-03    -5.77782E-03
            2373     6.16295E-03     8.17514E-03    -11.7277E+06    -9.98158E+06    -6.12631E+06     3.93902E+06    -289.979E-03     563.499E-03    -273.520E-03    -3.19135E-03    -290.038E-03     563.498E-03    -273.520E-03    -7.13865E-03
            2374     5.48845E-03     8.12386E-03    -12.9332E+06    -11.5957E+06    -6.48901E+06     3.62517E+06    -285.058E-03     556.746E-03    -271.687E-03    -4.39868E-03    -285.110E-03     556.728E-03    -271.684E-03    -7.75385E-03
            2375     4.81117E-03     8.08164E-03    -13.8462E+06    -15.4274E+06    -8.32360E+06     4.41423E+06    -280.433E-03     550.459E-03    -270.026E-03    -4.86156E-03    -280.473E-03     550.419E-03    -270.025E-03    -7.72405E-03
            2376     4.13003E-03     8.04408E-03    -12.7685E+06    -21.5512E+06    -11.3558E+06     4.13738E+06    -276.179E-03     544.751E-03    -268.571E-03    -4.36540E-03    -276.193E-03     544.675E-03    -268.578E-03    -6.70057E-03
            2377     3.44541E-03     8.01524E-03    -10.6112E+06    -24.4787E+06    -11.9305E+06     2.64642E+06    -272.467E-03     539.839E-03    -267.372E-03    -3.59065E-03    -272.459E-03     539.739E-03    -267.381E-03    -5.55118E-03
            2378     2.75856E-03     7.99235E-03    -11.0744E+06    -26.6435E+06    -13.8647E+06     2.11958E+06    -269.526E-03     535.958E-03    -266.431E-03    -2.92257E-03    -269.507E-03     535.844E-03    -266.446E-03    -4.48986E-03
            2379     2.06955E-03     7.97401E-03    -13.3970E+06    -29.0751E+06    -15.2983E+06     1.91692E+06    -267.663E-03     533.356E-03    -265.693E-03    -2.71045E-03    -267.634E-03     533.223E-03    -265.708E-03    -3.85676E-03
            2380     1.38182E-03     7.96257E-03    -15.7802E+06    -30.1118E+06    -14.1747E+06     1.47756E+06    -266.302E-03     531.361E-03    -265.059E-03    -2.11109E-03    -266.246E-03     531.196E-03    -265.064E-03    -2.87762E-03
            2381     692.897E-06     7.95273E-03    -11.8275E+06    -25.9585E+06    -9.18117E+06     1.67824E+06    -264.729E-03     529.619E-03    -264.890E-03    -1.26201E-03    -264.610E-03     529.433E-03    -264.881E-03    -1.67390E-03
            2382     12.7342E-03     7.54356E-03     161.596E+03     17.8166E+06     15.1723E+06    -1.27643E+06    -337.188E-03     632.142E-03    -294.954E-03     84.8581E-03    -337.663E-03     632.637E-03    -294.905E-03     77.1910E-03
            2383     12.0876E-03     7.37539E-03     402.425E+03     17.6324E+06     13.6668E+06    -1.03248E+06    -339.084E-03     631.790E-03    -292.706E-03     73.8964E-03    -339.608E-03     632.340E-03    -292.664E-03     64.7216E-03
            2384     11.4461E-03     7.21585E-03     271.072E+03     15.8246E+06     12.3256E+06    -1.21762E+06    -338.612E-03     628.705E-03    -290.093E-03     53.4532E-03    -339.025E-03     629.143E-03    -290.055E-03     44.4520E-03
            2385     10.8037E-03     7.07963E-03    -269.667E+03     12.6451E+06     10.7825E+06     72.2442E+03    -334.733E-03     621.958E-03    -287.226E-03     35.9973E-03    -335.031E-03     622.273E-03    -287.190E-03     27.8541E-03
            2386     10.1609E-03     6.95708E-03    -1.05169E+06     9.27343E+06     8.76136E+06     2.33968E+06    -328.285E-03     612.554E-03    -284.270E-03     23.1589E-03    -328.499E-03     612.776E-03    -284.238E-03     15.8657E-03
            2387     9.51051E-03     6.84998E-03    -4.69209E+06     3.72469E+06     4.42138E+06     1.36951E+06    -321.338E-03     602.671E-03    -281.333E-03     13.0745E-03    -321.505E-03     602.825E-03    -281.310E-03     6.18556E-03
            2388     8.85723E-03     6.76156E-03    -6.86409E+06     55.0809E+03     1.99384E+06     2.10858E+06    -314.113E-03     592.593E-03    -278.480E-03     5.92267E-03    -314.240E-03     592.692E-03    -278.460E-03    -201.232E-06
            2389     8.19968E-03     6.68471E-03    -9.21984E+06    -3.47629E+06     91.6816E+03     4.16758E+06    -306.453E-03     582.224E-03    -275.771E-03     1.42711E-03    -306.552E-03     582.279E-03    -275.752E-03    -3.82314E-03
            2390     7.53628E-03     6.62065E-03    -9.78324E+06    -5.05749E+06     142.515E+03     5.00342E+06    -298.597E-03     571.877E-03    -273.280E-03    -1.18283E-03    -298.677E-03     571.905E-03    -273.258E-03    -5.74584E-03
            2391     6.86623E-03     6.56432E-03    -8.68259E+06    -5.37786E+06     564.870E+03     3.83073E+06    -291.446E-03     562.490E-03    -271.044E-03    -2.94510E-03    -291.508E-03     562.501E-03    -271.021E-03    -7.00299E-03
            2392     6.19161E-03     6.51731E-03    -8.49009E+06    -6.93442E+06    -1.02223E+06     3.15916E+06    -285.594E-03     554.629E-03    -269.035E-03    -3.74636E-03    -285.643E-03     554.625E-03    -269.018E-03    -7.43188E-03
            2393     5.51414E-03     6.47763E-03    -9.99363E+06    -9.98399E+06    -4.02876E+06     4.02679E+06    -280.419E-03     547.645E-03    -267.226E-03    -3.52810E-03    -280.460E-03     547.626E-03    -267.217E-03    -6.71957E-03
            2394     4.83271E-03     6.44543E-03    -12.0028E+06    -15.0848E+06    -8.04374E+06     3.15585E+06    -275.677E-03     541.304E-03    -265.627E-03    -2.76498E-03    -275.710E-03     541.263E-03    -265.628E-03    -5.50383E-03
            2395     4.14791E-03     6.41946E-03    -9.09740E+06    -18.6991E+06    -8.35410E+06     2.38043E+06    -271.480E-03     535.751E-03    -264.270E-03    -2.16584E-03    -271.486E-03     535.681E-03    -264.272E-03    -4.46452E-03
            2396     3.46038E-03     6.39708E-03    -9.74056E+06    -23.7926E+06    -10.2847E+06     1.45851E+06    -268.086E-03     531.232E-03    -263.146E-03    -2.15160E-03    -268.077E-03     531.133E-03    -263.148E-03    -4.00928E-03
            2397     2.77119E-03     6.38010E-03    -10.7207E+06    -25.1562E+06     -9.9071E+06     1.43906E+06    -265.474E-03     527.703E-03    -262.229E-03    -1.96750E-03    -265.461E-03     527.591E-03    -262.226E-03    -3.39074E-03
            2398     2.08073E-03     6.36614E-03    -10.8496E+06    -25.4221E+06    -9.14561E+06     1.59137E+06    -263.418E-03     524.909E-03    -261.490E-03    -1.44801E-03    -263.390E-03     524.782E-03    -261.484E-03    -2.45962E-03
            2399     1.38736E-03     6.35613E-03    -11.3460E+06    -26.8346E+06    -10.6284E+06    -69.1599E+03    -262.007E-03     522.898E-03    -260.891E-03    -650.847E-06    -261.938E-03     522.735E-03    -260.889E-03    -1.33858E-03
            2400     693.206E-06     6.35278E-03    -7.26432E+06    -23.7718E+06    -7.95629E+06    -1.14159E+06    -260.922E-03     521.385E-03    -260.463E-03     118.890E-06    -260.780E-03     521.214E-03    -260.458E-03    -272.993E-06
            2401     12.7334E-03     5.75191E-03     2.61349E+06     20.6692E+06     12.4021E+06    -2.82787E+06    -354.329E-03     648.985E-03    -294.656E-03     87.2075E-03    -354.825E-03     649.527E-03    -294.628E-03     78.8689E-03
            2402     12.1043E-03     5.58221E-03     2.01949E+06     17.7278E+06     10.2221E+06    -2.95591E+06    -356.176E-03     647.668E-03    -291.492E-03     69.2097E-03    -356.683E-03     648.218E-03    -291.470E-03     59.4158E-03
            2403     11.4729E-03     5.43288E-03     986.286E+03     13.2154E+06     7.57314E+06    -670.960E+03    -350.878E-03     638.858E-03    -287.980E-03     43.5916E-03    -351.227E-03     639.241E-03    -287.963E-03     34.5539E-03
            2404     10.8381E-03     5.31189E-03    -1.62661E+06     8.06292E+06     4.61998E+06     1.38265E+06    -341.650E-03     626.055E-03    -284.405E-03     24.5138E-03    -341.875E-03     626.296E-03    -284.392E-03     16.7207E-03
            2405     10.1948E-03     5.21024E-03    -3.50209E+06     4.24479E+06     3.13427E+06     3.49493E+06    -331.504E-03     612.456E-03    -280.952E-03     12.6987E-03    -331.653E-03     612.602E-03    -280.937E-03     6.19660E-03
            2406     9.54753E-03     5.12335E-03    -3.62139E+06     2.85141E+06     4.09460E+06     4.50615E+06    -320.898E-03     598.619E-03    -277.721E-03     4.27920E-03    -321.002E-03     598.712E-03    -277.700E-03    -1.45463E-03
            2407     8.89224E-03     5.05247E-03    -4.82986E+06     1.20287E+06     4.90145E+06     4.36886E+06    -310.848E-03     585.621E-03    -274.773E-03     408.966E-06    -310.935E-03     585.682E-03    -274.743E-03    -4.84496E-03
            2408     8.23006E-03     4.99505E-03    -7.07320E+06    -1.65969E+06     3.80235E+06     4.92868E+06    -302.297E-03     574.394E-03    -272.096E-03    -549.329E-06    -302.375E-03     574.430E-03    -272.065E-03    -5.17300E-03
            2409     7.56247E-03     4.94755E-03    -8.16367E+06    -3.85160E+06     2.54971E+06     3.74572E+06    -294.674E-03     564.343E-03    -269.669E-03    -1.10163E-03    -294.741E-03     564.361E-03    -269.639E-03    -5.16642E-03
            2410     6.89076E-03     4.90850E-03    -6.68056E+06    -3.34628E+06     4.15993E+06     2.91373E+06    -287.488E-03     554.998E-03    -267.510E-03    -1.05121E-03    -287.543E-03     555.005E-03    -267.474E-03    -4.48026E-03
            2411     6.21412E-03     4.87376E-03    -7.69005E+06    -5.11036E+06     3.62595E+06     2.24963E+06    -281.033E-03     546.660E-03    -265.627E-03    -733.619E-06    -281.082E-03     546.653E-03    -265.590E-03    -3.69216E-03
            2412     5.53227E-03     4.84670E-03    -7.38843E+06    -6.61311E+06     1.93633E+06     2.36402E+06    -275.637E-03     539.648E-03    -264.011E-03    -142.552E-06    -275.674E-03     539.630E-03    -263.981E-03    -2.72414E-03
            2413     4.84702E-03     4.82391E-03    -6.76416E+06    -13.5831E+06    -2.47572E+06     2.78147E+06    -271.417E-03     534.040E-03    -262.623E-03     447.926E-06    -271.430E-03     533.988E-03    -262.605E-03    -1.69180E-03
            2414     4.15982E-03     4.80542E-03    -9.89679E+06    -22.9825E+06    -7.86088E+06     2.01534E+06    -267.984E-03     529.409E-03    -261.425E-03     908.973E-06    -267.984E-03     529.315E-03    -261.417E-03    -894.817E-06
            2415     3.47045E-03     4.79085E-03    -10.2805E+06    -23.3651E+06    -7.18837E+06     2.57788E+06    -264.981E-03     525.397E-03    -260.416E-03     1.31359E-03    -264.975E-03     525.293E-03    -260.404E-03    -87.4292E-06
            2416     2.77863E-03     4.77852E-03    -9.08277E+06    -22.7506E+06    -6.41806E+06     2.51922E+06    -262.485E-03     522.078E-03    -259.592E-03     1.52259E-03    -262.471E-03     521.969E-03    -259.578E-03     472.389E-06
            2417     2.08481E-03     4.77005E-03    -7.99904E+06    -23.2402E+06    -7.64123E+06     970.845E+03    -260.501E-03     519.470E-03    -258.969E-03     1.53982E-03    -260.464E-03     519.348E-03    -258.962E-03     747.931E-06
            2418     1.39054E-03     4.76404E-03    -6.67849E+06    -22.8409E+06    -7.37566E+06     663.632E+03    -259.186E-03     517.765E-03    -258.579E-03     933.392E-06    -259.114E-03     517.618E-03    -258.573E-03     422.193E-06
            2419     695.797E-06     4.75960E-03    -10.5803E+06    -25.6977E+06    -8.82605E+06    -143.016E+03    -258.602E-03     517.011E-03    -258.409E-03     463.792E-06    -258.471E-03     516.871E-03    -258.401E-03     199.595E-06
            2420     12.7375E-03     3.92129E-03     2.41197E+06     23.4108E+06     10.4806E+06    -4.66477E+06    -382.119E-03     676.677E-03    -294.557E-03     86.6839E-03    -382.721E-03     677.341E-03    -294.542E-03     76.5166E-03
            2421     12.1179E-03     3.75347E-03     524.068E+03     14.4349E+06     5.09020E+06    -1.84547E+06    -374.738E-03     664.914E-03    -290.177E-03     53.2221E-03    -375.107E-03     665.330E-03    -290.173E-03     45.0148E-03
            2422     11.4975E-03     3.62929E-03    -2.53109E+06     7.75318E+06     1.07040E+06     2.21232E+06    -361.331E-03     647.110E-03    -285.779E-03     25.7312E-03    -361.543E-03     647.346E-03    -285.782E-03     18.9716E-03
            2423     10.8662E-03     3.53946E-03    -3.77866E+06     4.61039E+06     1.00711E+06     3.87039E+06    -346.177E-03     627.825E-03    -281.648E-03     9.45405E-03    -346.305E-03     627.960E-03    -281.644E-03     3.68766E-03
            2424     10.2282E-03     3.46280E-03    -3.99780E+06     3.75863E+06     2.95499E+06     4.41281E+06    -331.208E-03     609.126E-03    -277.918E-03     2.68532E-03    -331.293E-03     609.206E-03    -277.903E-03    -2.20086E-03
            2425     9.57878E-03     3.40336E-03    -5.23843E+06     2.06813E+06     4.37955E+06     5.34634E+06    -317.721E-03     592.356E-03    -274.636E-03    -511.762E-06    -317.793E-03     592.408E-03    -274.609E-03    -4.89220E-03
            2426     8.91987E-03     3.36021E-03    -5.27006E+06     1.30020E+06     6.48356E+06     3.39945E+06    -306.386E-03     578.169E-03    -271.783E-03    -1.19215E-03    -306.451E-03     578.203E-03    -271.745E-03    -5.08641E-03
            2427     8.25384E-03     3.31893E-03    -4.94814E+06     749.817E+03     7.57590E+06     1.99615E+06    -297.224E-03     566.514E-03    -269.290E-03    -1.05772E-03    -297.280E-03     566.534E-03    -269.246E-03    -4.44054E-03
            2428     7.58311E-03     3.28776E-03    -5.50409E+06    -987.946E+03     6.79492E+06     1.04644E+06    -289.557E-03     556.654E-03    -267.097E-03    -810.976E-06    -289.606E-03     556.661E-03    -267.053E-03    -3.77644E-03
            2429     6.90682E-03     3.26281E-03    -5.01125E+06    -1.89509E+06     6.43113E+06     1.27597E+06    -282.766E-03     547.954E-03    -265.188E-03     687.822E-06    -282.808E-03     547.953E-03    -265.146E-03    -1.80649E-03
            2430     6.22592E-03     3.24298E-03    -5.34401E+06    -3.45081E+06     5.42438E+06     898.483E+03    -276.961E-03     540.515E-03    -263.554E-03     2.19468E-03    -276.998E-03     540.505E-03    -263.514E-03     124.329E-06
            2431     5.54174E-03     3.22635E-03    -7.09733E+06    -8.98570E+06     3.04489E+06     359.504E+03    -272.336E-03     534.500E-03    -262.164E-03     2.75322E-03    -272.366E-03     534.465E-03    -262.126E-03     1.00963E-03
            2432     4.85487E-03     3.21168E-03    -7.06465E+06    -15.3110E+06     387.570E+03     1.90647E+06    -268.460E-03     529.443E-03    -260.983E-03     2.83644E-03    -268.472E-03     529.375E-03    -260.949E-03     1.45364E-03
            2433     4.16508E-03     3.20020E-03    -6.73088E+06     -18.689E+06    -2.22854E+06     2.50022E+06    -265.263E-03     525.259E-03    -259.997E-03     3.01942E-03    -265.257E-03     525.170E-03    -259.971E-03     1.91975E-03
            2434     3.47335E-03     3.19124E-03    -7.32008E+06    -20.7676E+06    -4.88899E+06     2.44951E+06    -262.793E-03     521.980E-03    -259.186E-03     3.25558E-03    -262.779E-03     521.880E-03    -259.170E-03     2.36979E-03
            2435     2.78044E-03     3.18436E-03    -7.26499E+06    -22.1716E+06    -7.41231E+06     1.72734E+06    -260.839E-03     519.368E-03    -258.529E-03     2.94696E-03    -260.813E-03     519.260E-03    -258.524E-03     2.24781E-03
            2436     2.08655E-03     3.17917E-03    -6.45516E+06    -21.6510E+06    -6.95275E+06     876.283E+03    -259.369E-03     517.395E-03    -258.026E-03     2.31901E-03    -259.328E-03     517.277E-03    -258.020E-03     1.78511E-03
            2437     1.39150E-03     3.17485E-03    -8.12128E+06    -22.1520E+06     -5.8685E+06     1.86579E+06    -258.367E-03     516.015E-03    -257.648E-03     1.60047E-03    -258.311E-03     515.879E-03    -257.633E-03     1.27509E-03
            2438     695.636E-06     3.17305E-03    -9.71258E+06    -24.3820E+06    -8.46756E+06     1.89591E+06    -257.337E-03     515.087E-03    -257.750E-03     850.201E-06    -257.185E-03     514.962E-03    -257.743E-03     733.067E-06
            2439     12.7380E-03     2.01584E-03    -3.41443E+06     19.4249E+06     4.86132E+06    -4.56649E+06    -431.521E-03     726.700E-03    -295.179E-03     81.7598E-03    -432.181E-03     727.417E-03    -295.177E-03     70.6205E-03
            2440     12.1424E-03     1.90309E-03    -4.54774E+06     11.6685E+06     4.86096E+06     1.67180E+06    -397.477E-03     686.530E-03    -289.053E-03     30.6779E-03    -397.630E-03     686.715E-03    -289.039E-03     27.2672E-03
            2441     11.5254E-03     1.81324E-03    -4.76370E+06     9.12130E+06     6.13685E+06     3.42166E+06    -368.241E-03     652.066E-03    -283.824E-03     6.79132E-03    -368.321E-03     652.155E-03    -283.800E-03     4.14634E-03
            2442     10.8983E-03     1.76459E-03    -3.37705E+06     8.72770E+06     8.12948E+06     3.26939E+06    -345.836E-03     625.249E-03    -279.413E-03    -1.63812E-03    -345.892E-03     625.308E-03    -279.380E-03    -4.33874E-03
            2443     10.2540E-03     1.72697E-03    -3.32047E+06     7.87094E+06     8.91751E+06     3.32507E+06    -327.874E-03     603.557E-03    -275.684E-03    -2.21746E-03    -327.920E-03     603.599E-03    -275.646E-03    -4.69868E-03
            2444     9.59867E-03     1.69877E-03    -3.47525E+06     5.83927E+06     9.21553E+06     2.96605E+06    -313.578E-03     586.110E-03    -272.532E-03    -2.43564E-03    -313.622E-03     586.138E-03    -272.489E-03    -4.89500E-03
            2445     8.93693E-03     1.67468E-03    -2.95656E+06     3.88716E+06     9.30561E+06     966.879E+03    -302.411E-03     572.256E-03    -269.845E-03    -1.81589E-03    -302.447E-03     572.271E-03    -269.800E-03    -3.80526E-03
            2446     8.26917E-03     1.65604E-03    -2.67346E+06     2.50286E+06     9.07005E+06     12.5412E+03    -292.947E-03     560.499E-03    -267.552E-03    -191.082E-06    -292.977E-03     560.504E-03    -267.506E-03    -1.95505E-03
            2447     7.59384E-03     1.63960E-03    -3.71156E+06     226.577E+03     7.96063E+06    -110.172E+03    -285.138E-03     550.752E-03    -265.614E-03     606.996E-06    -285.165E-03     550.745E-03    -265.570E-03    -941.160E-06
            2448     6.91425E-03     1.62965E-03    -4.81695E+06    -1.97499E+06     6.58882E+06    -517.337E+03    -279.067E-03     543.041E-03    -263.974E-03     1.18595E-03    -279.092E-03     543.024E-03    -263.931E-03    -109.371E-06
            2449     6.23099E-03     1.61972E-03    -4.64112E+06    -2.87540E+06     6.19218E+06     160.191E+03    -274.222E-03     536.793E-03    -262.572E-03     2.06414E-03    -274.244E-03     536.772E-03    -262.530E-03     974.004E-06
            2450     5.54536E-03     1.61084E-03    -5.32589E+06    -10.4061E+06     3.06931E+06     570.239E+03    -270.217E-03     531.583E-03    -261.366E-03     2.48678E-03    -270.226E-03     531.528E-03    -261.328E-03     1.64150E-03
            2451     4.85711E-03     1.60495E-03    -6.66755E+06    -17.9673E+06    -374.510E+03     416.855E+03    -266.803E-03     527.149E-03    -260.346E-03     2.68598E-03    -266.799E-03     527.060E-03    -260.313E-03     1.99800E-03
            2452     4.16653E-03     1.59999E-03    -7.06697E+06    -18.4281E+06    -1.37797E+06     1.24345E+06    -264.014E-03     523.519E-03    -259.504E-03     2.53524E-03    -264.003E-03     523.422E-03    -259.474E-03     2.01774E-03
            2453     3.47432E-03     1.59526E-03    -6.91679E+06    -19.4637E+06    -3.54058E+06     762.416E+03    -261.871E-03     520.684E-03    -258.814E-03     2.12842E-03    -261.849E-03     520.580E-03    -258.793E-03     1.70576E-03
            2454     2.78086E-03     1.59172E-03    -6.91006E+06    -20.2875E+06    -4.85513E+06     574.614E+03    -260.242E-03     518.499E-03    -258.257E-03     1.73648E-03    -260.211E-03     518.388E-03    -258.242E-03     1.38348E-03
            2455     2.08649E-03     1.58919E-03    -7.95647E+06    -21.1927E+06    -5.56194E+06     969.237E+03    -259.000E-03     516.819E-03    -257.819E-03     1.44488E-03    -258.959E-03     516.694E-03    -257.804E-03     1.19058E-03
            2456     1.39151E-03     1.58770E-03    -8.01498E+06    -21.2672E+06    -5.54546E+06     207.605E+03    -258.129E-03     515.610E-03    -257.481E-03     1.14625E-03    -258.052E-03     515.461E-03    -257.466E-03     979.951E-06
            2457     696.380E-06     1.58607E-03    -8.10514E+06    -22.5086E+06    -7.77402E+06    -212.150E+03    -257.714E-03     514.847E-03    -257.133E-03     326.480E-06    -257.512E-03     514.683E-03    -257.128E-03     204.321E-06


