********************************************************************************
Field Output Report, written Tue May 28 22:37:21 2024

Source 1
---------

   ODB: G:/Abaqus_calc_2019/1740/Vel_10/odb/zeides_2a_40_red_500_cal_30_vel_10_fric_050.odb
   Step: Step-1
   Frame: Increment   7763155: Step Time =   0.9280

Loc 1 : Nodal values from source 1

Output sorted by column "Nodal Label".

Field Output reported at nodes for region: DIE_2A_40_D0_36-1.Region_1
   Computation algorithm: EXTRAPOLATE_COMPUTE_AVERAGE
   Averaged at nodes
   Averaging regions: ODB_REGIONS

      Node Label     COORD.COOR1     COORD.COOR2
                          @Loc 1          @Loc 1
-------------------------------------------------
               1     22.9485E-03     118.659E-03


Field Output reported at nodes for region: DIE_2A_40_D0_36-1.Region_2
   Computation algorithm: EXTRAPOLATE_COMPUTE_AVERAGE
   Averaged at nodes
   Averaging regions: ODB_REGIONS

      Node Label     COORD.COOR1     COORD.COOR2
                          @Loc 1          @Loc 1
-------------------------------------------------
               1     22.9485E-03     118.659E-03


Field Output reported at nodes for part: WIRE-1
   Computation algorithm: EXTRAPOLATE_COMPUTE_AVERAGE
   Averaged at nodes
   Averaging regions: ODB_REGIONS

      Node Label     COORD.COOR1     COORD.COOR2           S.S11           S.S22           S.S33           S.S12         PE.PE11         PE.PE22         PE.PE33         PE.PE12         LE.LE11         LE.LE22         LE.LE33         LE.LE12
                          @Loc 1          @Loc 1          @Loc 1          @Loc 1          @Loc 1          @Loc 1          @Loc 1          @Loc 1          @Loc 1          @Loc 1          @Loc 1          @Loc 1          @Loc 1          @Loc 1
-------------------------------------------------------------------------------------------------------------------------------------------------------------------------------------------------------------------------------------------------
               1     257.794E-09     60.5189E-03    -47.9886E+06    -166.161E+06    -48.0641E+06    -88.4126E+03    -55.3641E-03     110.542E-03    -55.1778E-03     5.82374E-03    -55.2937E-03     109.851E-03    -55.1076E-03     5.80309E-03
               2     17.0374E-03     62.8225E-03    -4.08412E+06     160.166E+06     109.026E+06    -429.394E+03    -53.2835E-03     108.612E-03    -55.3280E-03     143.758E-03    -59.7910E-03     115.357E-03    -55.0092E-03     152.180E-03
               3     16.3015E-03     124.648E-03    -10.5737E+06    -10.5569E+06    -18.4827E+06    -23.8768E+06     45.2435E-03     44.6322E-03    -89.8756E-03     2.19850E-03     45.3660E-03     44.7548E-03    -89.9374E-03     1.89046E-03
               4     715.744E-09     121.181E-03     47.4584E+06    -1.77087E+06     46.2876E+06    -2.14593E+06    -57.4382E-03     114.965E-03    -57.5270E-03    -4.01076E-03    -57.2763E-03     114.809E-03    -57.3618E-03    -4.05005E-03
               5     120.802E-09     388.578E-18    -26.6660E+06    -141.810E+06    -26.7593E+06     140.082E+03    -50.1180E-03     100.124E-03    -50.0061E-03     508.792E-06    -50.0066E-03     99.4928E-03    -49.8956E-03     509.678E-06
               6     16.7532E-03     388.578E-18     15.4933E+06     123.832E+06     105.125E+06     5.27511E+06    -161.732E-03     227.722E-03    -65.9896E-03     213.384E-03    -164.201E-03     230.441E-03    -65.6660E-03     207.978E-03
               7     851.660E-06     60.5252E-03    -47.5052E+06    -165.331E+06    -46.7329E+06    -116.564E+03    -55.3519E-03     110.583E-03    -55.2309E-03     9.72858E-03    -55.2832E-03     109.894E-03    -55.1559E-03     9.69424E-03
               8     1.70333E-03     60.5387E-03    -46.2481E+06    -163.020E+06    -42.9371E+06    -44.7198E+03    -55.3644E-03     110.658E-03    -55.2936E-03     17.9153E-03    -55.3014E-03     109.977E-03    -55.2049E-03     17.8527E-03
               9     2.55497E-03     60.5612E-03    -44.2907E+06    -159.402E+06    -37.0576E+06     231.297E+03    -55.4340E-03     110.746E-03    -55.3119E-03     26.4952E-03    -55.3804E-03     110.077E-03    -55.2018E-03     26.4027E-03
              10     3.40669E-03     60.5920E-03    -41.4999E+06    -155.705E+06    -31.3658E+06     309.228E+03    -55.5444E-03     110.867E-03    -55.3224E-03     34.9860E-03    -55.4989E-03     110.212E-03    -55.1933E-03     34.8560E-03
              11     4.25842E-03     60.6315E-03    -38.3627E+06    -149.118E+06    -24.6481E+06     603.812E+03    -55.6915E-03     111.024E-03    -55.3320E-03     43.3749E-03    -55.6617E-03     110.400E-03    -55.1834E-03     43.2043E-03
              12     5.11014E-03     60.6792E-03    -35.7453E+06    -145.105E+06    -17.8015E+06     927.715E+03    -55.8988E-03     111.248E-03    -55.3492E-03     51.5736E-03    -55.8889E-03     110.648E-03    -55.1760E-03     51.3545E-03
              13     5.96179E-03     60.7352E-03    -33.1298E+06    -143.929E+06    -12.1297E+06     352.947E+03    -56.1396E-03     111.508E-03    -55.3686E-03     59.6059E-03    -56.1502E-03     110.925E-03    -55.1726E-03     59.3172E-03
              14     6.81360E-03     60.7990E-03    -29.7564E+06    -135.797E+06    -8.34178E+06    -275.312E+03    -56.3541E-03     111.722E-03    -55.3674E-03     67.5606E-03    -56.3970E-03     111.201E-03    -55.1691E-03     67.1924E-03
              15     7.66521E-03     60.8709E-03    -27.1669E+06    -126.003E+06    -8.41404E+06    -90.3755E+03    -56.5953E-03     111.939E-03    -55.3433E-03     75.3801E-03    -56.6825E-03     111.506E-03    -55.1632E-03     74.9299E-03
              16     8.51706E-03     60.9504E-03    -25.2911E+06    -115.267E+06    -7.90047E+06     406.224E+03    -56.8298E-03     112.150E-03    -55.3199E-03     83.0999E-03    -56.9825E-03     111.826E-03    -55.1556E-03     82.5566E-03
              17     9.36876E-03     61.0378E-03    -23.1874E+06    -100.845E+06    -7.02944E+06     471.244E+03    -57.0698E-03     112.360E-03    -55.2902E-03     91.0454E-03    -57.3152E-03     112.185E-03    -55.1455E-03     90.3848E-03
              18     10.2206E-03     61.1332E-03    -21.7695E+06    -83.4321E+06    -7.71607E+06     408.593E+03    -57.2584E-03     112.503E-03    -55.2451E-03     99.0509E-03    -57.6323E-03     112.526E-03    -55.1311E-03     98.2511E-03
              19     11.0727E-03     61.2360E-03    -20.9787E+06    -59.4739E+06    -7.21125E+06     642.739E+03    -57.3461E-03     112.534E-03    -55.1883E-03     107.428E-03    -57.9107E-03     112.834E-03    -55.1077E-03     106.469E-03
              20     11.9253E-03     61.3481E-03    -19.7935E+06    -28.5521E+06    -7.64516E+06     856.771E+03    -57.7607E-03     112.875E-03    -55.1145E-03     117.803E-03    -58.6173E-03     113.582E-03    -55.0826E-03     116.636E-03
              21     12.7764E-03     61.4725E-03    -18.5924E+06     21.1069E+06    -11.9074E+06    -28.8513E+03    -58.4790E-03     113.480E-03    -55.0012E-03     135.392E-03    -59.9061E-03     114.951E-03    -55.0644E-03     133.907E-03
              22     13.6288E-03     61.6191E-03    -19.1409E+06     69.5903E+06     2.93225E+06    -741.341E+03    -61.5025E-03     116.492E-03    -54.9898E-03     183.491E-03    -64.4428E-03     119.603E-03    -55.0483E-03     181.498E-03
              23     14.4804E-03     61.8423E-03    -18.6400E+06     106.996E+06     45.4560E+06    -152.892E+03    -70.4860E-03     125.630E-03    -55.1443E-03     283.997E-03    -78.9555E-03     134.282E-03    -55.0452E-03     281.063E-03
              24     15.3297E-03     62.1985E-03    -13.8265E+06     148.998E+06     92.5925E+06    -106.291E+03    -79.6943E-03     135.016E-03    -55.3220E-03     399.341E-03    -102.054E-03     157.587E-03    -55.0550E-03     398.002E-03
              25     16.1846E-03     62.6727E-03    -7.25362E+06     164.711E+06     111.973E+06    -431.392E+03    -67.9379E-03     123.304E-03    -55.3660E-03     297.166E-03    -87.1118E-03     142.712E-03    -55.0344E-03     301.819E-03
              26     17.0367E-03     63.8824E-03    -3.59881E+06     158.068E+06     108.338E+06    -726.928E+03    -55.4929E-03     110.776E-03    -55.2833E-03     141.043E-03    -61.8548E-03     117.372E-03    -54.9656E-03     149.057E-03
              27     17.0374E-03     64.9436E-03    -3.64423E+06     157.807E+06     108.323E+06     813.189E+03    -55.9829E-03     111.262E-03    -55.2791E-03     144.116E-03    -62.4486E-03     117.961E-03    -54.9610E-03     152.150E-03
              28     17.0364E-03     66.0081E-03    -3.83989E+06     159.532E+06     108.969E+06     1.42802E+06    -54.9633E-03     110.290E-03    -55.3271E-03     148.416E-03    -61.6623E-03     117.226E-03    -55.0080E-03     156.689E-03
              29     17.0365E-03     67.0670E-03    -2.26638E+06     162.550E+06     110.855E+06     1.04369E+06    -52.3733E-03     107.748E-03    -55.3751E-03     150.952E-03    -59.1919E-03     114.815E-03    -55.0532E-03     159.490E-03
              30     17.0389E-03     68.1157E-03    -1.69579E+06     163.186E+06     111.409E+06    -1.08018E+06    -53.0073E-03     108.299E-03    -55.2920E-03     148.780E-03    -59.7031E-03     115.245E-03    -54.9691E-03     157.246E-03
              31     17.0384E-03     69.1755E-03    -1.11306E+06     161.828E+06     111.181E+06    -1.73131E+06    -56.1656E-03     111.375E-03    -55.2095E-03     146.188E-03    -62.7365E-03     118.194E-03    -54.8867E-03     154.269E-03
              32     17.0369E-03     70.2434E-03    -2.03201E+06     160.816E+06     110.183E+06     390.138E+03    -54.5636E-03     109.842E-03    -55.2785E-03     146.123E-03    -61.1584E-03     116.681E-03    -54.9578E-03     154.350E-03
              33     17.0384E-03     71.2886E-03    -2.83132E+06     161.768E+06     110.058E+06     296.268E+03    -53.0118E-03     108.323E-03    -55.3116E-03     142.068E-03    -59.4203E-03     114.977E-03    -54.9917E-03     150.402E-03
              34     17.0370E-03     72.3451E-03    -3.52155E+06     161.207E+06     109.508E+06    -166.461E+03    -55.9773E-03     111.228E-03    -55.2511E-03     136.148E-03    -62.0893E-03     117.583E-03    -54.9322E-03     144.025E-03
              35     17.0368E-03     73.4114E-03    -3.86000E+06     160.757E+06     109.311E+06     1.03638E+06    -57.0972E-03     112.334E-03    -55.2367E-03     137.607E-03    -63.2685E-03     118.745E-03    -54.9176E-03     145.364E-03
              36     17.0378E-03     74.4719E-03    -2.59574E+06     162.321E+06     110.572E+06    -240.036E+03    -55.9691E-03     111.239E-03    -55.2699E-03     144.472E-03    -62.4791E-03     117.995E-03    -54.9486E-03     152.464E-03
              37     17.0364E-03     75.5420E-03    -2.52648E+06     162.597E+06     110.598E+06    -336.109E+03    -54.0509E-03     109.387E-03    -55.3357E-03     153.137E-03    -61.0286E-03     116.612E-03    -55.0148E-03     161.663E-03
              38     17.0377E-03     76.5959E-03    -3.31058E+06     163.621E+06     111.017E+06     909.168E+03    -52.1186E-03     107.504E-03    -55.3857E-03     156.647E-03    -59.2761E-03     114.909E-03    -55.0631E-03     165.547E-03
              39     17.0368E-03     77.6481E-03    -2.37314E+06     164.796E+06     111.593E+06     273.832E+03    -52.3568E-03     107.709E-03    -55.3525E-03     152.071E-03    -59.2657E-03     114.871E-03    -55.0301E-03     160.776E-03
              40     17.0387E-03     78.7011E-03    -2.69006E+06     164.540E+06     110.787E+06    -420.101E+03    -54.3848E-03     109.660E-03    -55.2757E-03     147.949E-03    -61.0852E-03     116.614E-03    -54.9564E-03     156.319E-03
              41     17.0369E-03     79.7639E-03    -4.47970E+06     164.256E+06     110.301E+06    -13.8756E+03    -57.2339E-03     112.487E-03    -55.2528E-03     149.277E-03    -64.0264E-03     119.527E-03    -54.9329E-03     157.392E-03
              42     17.0354E-03     80.8316E-03    -2.95471E+06     165.660E+06     111.206E+06     1.13658E+06    -54.9538E-03     110.265E-03    -55.3117E-03     152.705E-03    -61.9244E-03     117.491E-03    -54.9916E-03     161.129E-03
              43     17.0405E-03     81.8814E-03    -2.60248E+06     166.597E+06     111.440E+06    -932.530E+03    -52.7628E-03     108.075E-03    -55.3121E-03     152.547E-03    -59.7259E-03     115.297E-03    -54.9927E-03     161.311E-03
              44     17.0355E-03     82.9377E-03    -3.08635E+06     166.244E+06     111.565E+06    -57.2963E+03    -55.3086E-03     110.589E-03    -55.2804E-03     148.502E-03    -62.0481E-03     117.585E-03    -54.9592E-03     156.900E-03
              45     17.0380E-03     84.0029E-03    -2.92420E+06     165.695E+06     110.462E+06     1.62998E+06    -54.3413E-03     109.653E-03    -55.3112E-03     148.485E-03    -61.0255E-03     116.595E-03    -54.9949E-03     156.767E-03
              46     17.0373E-03     85.0513E-03    -3.19255E+06     166.525E+06     110.215E+06    -15.7029E+03    -54.7508E-03     110.045E-03    -55.2943E-03     149.040E-03    -61.5018E-03     117.057E-03    -54.9800E-03     157.376E-03
              47     17.0365E-03     86.1197E-03    -4.34772E+06     167.379E+06     110.740E+06     344.372E+03    -55.7907E-03     111.083E-03    -55.2922E-03     149.207E-03    -62.5936E-03     118.143E-03    -54.9749E-03     157.517E-03
              48     17.0373E-03     87.1776E-03    -2.41901E+06     169.116E+06     111.828E+06     901.093E+03    -52.8042E-03     108.122E-03    -55.3180E-03     151.536E-03    -59.6429E-03     115.229E-03    -55.0006E-03     160.094E-03
              49     17.0401E-03     88.2261E-03    -1.64718E+06     170.675E+06     112.799E+06     53.3035E+03    -53.4578E-03     108.725E-03    -55.2671E-03     147.788E-03    -60.1207E-03     115.661E-03    -54.9482E-03     156.225E-03
              50     17.0358E-03     89.2895E-03    -4.19656E+06     170.022E+06     111.933E+06     19.8719E+03    -56.1872E-03     111.421E-03    -55.2337E-03     146.230E-03    -62.8114E-03     118.309E-03    -54.9145E-03     154.390E-03
              51     17.0391E-03     90.3506E-03    -1.06795E+06     171.836E+06     113.607E+06     923.344E+03    -53.4017E-03     108.678E-03    -55.2765E-03     147.019E-03    -60.0134E-03     115.567E-03    -54.9561E-03     155.347E-03
              52     17.0389E-03     91.4022E-03    -867.652E+03     173.719E+06     114.357E+06     413.640E+03    -51.3464E-03     106.627E-03    -55.2810E-03     145.328E-03    -57.8659E-03     113.429E-03    -54.9599E-03     153.818E-03
              53     17.0391E-03     92.4544E-03    -2.78935E+06     173.141E+06     113.225E+06     11.3705E+03    -55.4114E-03     110.594E-03    -55.1831E-03     142.303E-03    -61.8339E-03     117.294E-03    -54.8640E-03     150.372E-03
              54     17.0381E-03     93.5207E-03    -3.52396E+06     174.030E+06     113.549E+06     334.163E+03    -56.2821E-03     111.400E-03    -55.1182E-03     139.632E-03    -62.5842E-03     117.978E-03    -54.7977E-03     147.470E-03
              55     17.0426E-03     94.5760E-03    -2.50597E+06     175.263E+06     115.100E+06    -262.983E+03    -53.9149E-03     109.011E-03    -55.0957E-03     138.278E-03    -60.1252E-03     115.501E-03    -54.7707E-03     146.318E-03
              56     17.0404E-03     95.6312E-03    -2.20880E+06     174.770E+06     115.050E+06     448.039E+03    -55.2985E-03     110.304E-03    -55.0057E-03     139.994E-03    -61.5673E-03     116.852E-03    -54.6806E-03     147.940E-03
              57     17.0441E-03     96.7021E-03    -3.42639E+06     175.407E+06     115.472E+06     907.285E+03    -55.3581E-03     110.284E-03    -54.9258E-03     148.098E-03    -62.0183E-03     117.220E-03    -54.5978E-03     156.186E-03
              58     17.0448E-03     97.7622E-03    -3.52950E+06     176.509E+06     116.935E+06    -166.872E+03    -52.3957E-03     107.256E-03    -54.8603E-03     154.698E-03    -59.4144E-03     114.550E-03    -54.5264E-03     163.372E-03
              59     17.0499E-03     98.8119E-03    -2.08553E+06     176.048E+06     117.084E+06     400.830E+03    -51.5518E-03     106.256E-03    -54.7046E-03     153.480E-03    -58.4994E-03     113.482E-03    -54.3715E-03     162.287E-03
              60     17.0507E-03     99.8678E-03    -4.36697E+06     175.449E+06     116.246E+06     1.08829E+06    -53.5071E-03     107.978E-03    -54.4714E-03     152.046E-03    -60.3597E-03     115.101E-03    -54.1382E-03     160.538E-03
              61     17.0561E-03     100.926E-03    -4.80158E+06     177.097E+06     117.514E+06     1.73728E+06    -55.0748E-03     109.275E-03    -54.1999E-03     153.627E-03    -61.9843E-03     116.455E-03    -53.8622E-03     161.992E-03
              62     17.0603E-03     101.987E-03    -3.73621E+06     178.185E+06     118.227E+06     422.805E+03    -54.5578E-03     108.457E-03    -53.8992E-03     154.712E-03    -61.5340E-03     115.710E-03    -53.5610E-03     163.219E-03
              63     17.0675E-03     103.040E-03    -2.06543E+06     176.454E+06     118.348E+06    -341.029E+03    -54.9736E-03     108.513E-03    -53.5390E-03     153.997E-03    -61.8842E-03     115.699E-03    -53.2001E-03     162.494E-03
              64     17.0722E-03     104.099E-03    -3.19254E+06     172.988E+06     118.303E+06    -212.242E+03    -58.8491E-03     111.956E-03    -53.1073E-03     152.453E-03    -65.6861E-03     119.053E-03    -52.7620E-03     160.593E-03
              65     17.0780E-03     105.164E-03    -2.71580E+06     171.032E+06     119.992E+06     264.767E+03    -62.9495E-03     115.644E-03    -52.6946E-03     150.699E-03    -69.7588E-03     122.703E-03    -52.3387E-03     158.498E-03
              66     17.0828E-03     106.230E-03    -4.33112E+06     169.114E+06     120.561E+06    -806.694E+03    -65.9441E-03     118.300E-03    -52.3556E-03     148.958E-03    -72.7574E-03     125.348E-03    -51.9917E-03     156.534E-03
              67     17.0853E-03     107.300E-03    -2.52240E+06     165.539E+06     119.789E+06    -1.06307E+06    -70.3403E-03     122.387E-03    -52.0468E-03     147.982E-03    -77.1499E-03     129.428E-03    -51.6842E-03     155.186E-03
              68     17.0885E-03     108.375E-03    -2.58717E+06     162.530E+06     119.543E+06    -389.264E+03    -75.4677E-03     127.217E-03    -51.7494E-03     148.090E-03    -82.2800E-03     134.251E-03    -51.3836E-03     154.815E-03
              69     17.0911E-03     109.458E-03    -1.28664E+06     158.710E+06     119.849E+06    -1.46574E+06    -81.9558E-03     133.391E-03    -51.4354E-03     147.446E-03    -88.7405E-03     140.387E-03    -51.0644E-03     153.499E-03
              70     17.0931E-03     110.541E-03    -4.56013E+06     150.979E+06     117.249E+06    -4.02684E+06    -92.3348E-03     143.391E-03    -51.0559E-03     147.543E-03    -99.0818E-03     150.319E-03    -50.6819E-03     152.490E-03
              71     17.0949E-03     111.651E-03    -2.36083E+06     143.618E+06     117.055E+06    -1.79998E+06    -102.767E-03     153.453E-03    -50.6863E-03     153.095E-03    -109.711E-03     160.563E-03    -50.3059E-03     157.006E-03
              72     17.0979E-03     112.769E-03    -5.31773E+06     135.499E+06     114.331E+06    -3.62052E+06    -110.743E-03     161.104E-03    -50.3603E-03     165.167E-03    -118.276E-03     168.770E-03    -49.9774E-03     168.225E-03
              73     17.1002E-03     113.892E-03    -1.61295E+06     125.802E+06     113.862E+06    -2.61147E+06    -119.934E-03     169.933E-03    -49.9988E-03     179.088E-03    -128.173E-03     178.287E-03    -49.6095E-03     181.075E-03
              74     17.1037E-03     115.032E-03    -7.08564E+06     110.173E+06     113.875E+06    -6.00819E+06    -131.536E-03     181.185E-03    -49.6491E-03     195.492E-03    -140.744E-03     190.436E-03    -49.2292E-03     195.794E-03
              75     17.1028E-03     116.185E-03     3.74597E+06     104.598E+06     121.668E+06     1.61667E+06    -142.136E-03     191.535E-03    -49.3993E-03     216.648E-03    -152.571E-03     202.012E-03    -48.9480E-03     215.095E-03
              76     17.1054E-03     117.352E-03    -11.5318E+06     80.2715E+06     115.371E+06    -11.1711E+06    -151.431E-03     200.644E-03    -49.2129E-03     245.950E-03    -163.727E-03     212.862E-03    -48.7357E-03     242.092E-03
              77     17.1045E-03     118.524E-03     2.19555E+06     56.6168E+06     117.776E+06    -4.96017E+06    -167.570E-03     216.490E-03    -48.9203E-03     291.006E-03    -182.524E-03     231.338E-03    -48.4167E-03     283.587E-03
              78     17.1081E-03     119.747E-03    -1.49967E+06     64.4579E+06     133.576E+06     5.02640E+06    -172.280E-03     221.286E-03    -49.0059E-03     347.871E-03    -190.756E-03     239.634E-03    -48.4293E-03     336.485E-03
              79     17.1049E-03     120.936E-03    -20.4806E+06     41.8149E+06     85.8975E+06    -19.8889E+06    -139.781E-03     189.573E-03    -49.7916E-03     417.785E-03    -159.342E-03     208.982E-03    -49.3930E-03     408.107E-03
              80     17.1165E-03     122.002E-03     947.916E+03    -7.57099E+06     13.0288E+06    -25.5618E+06    -53.9818E-03     106.389E-03    -52.4072E-03     421.403E-03    -65.1845E-03     117.596E-03    -52.3324E-03     418.998E-03
              81     17.0500E-03     122.858E-03     5.09202E+06    -6.40976E+06     38.8828E+06     11.6155E+06     27.7503E-03     33.6535E-03    -61.4038E-03     240.198E-03     25.7047E-03     35.4860E-03    -61.2074E-03     241.167E-03
              82     16.6438E-03     123.702E-03     15.0446E+06     5.20890E+06     39.5921E+06     16.8859E+06     47.4901E-03     31.5888E-03    -79.0789E-03     48.6433E-03     47.4932E-03     31.5201E-03    -78.9103E-03     48.8590E-03
              83     15.3849E-03     124.236E-03    -13.6776E+06    -6.51582E+06    -4.30765E+06     10.4744E+06     41.1848E-03     49.7309E-03    -90.9157E-03     10.5091E-03     41.1697E-03     49.7623E-03    -90.9079E-03     10.6440E-03
              84     14.5615E-03     123.824E-03    -13.5894E+06     36.6956E+06     55.1424E+06    -535.278E+03     10.9451E-03     80.9484E-03    -91.8935E-03     7.83185E-03     10.7085E-03     81.0378E-03    -91.6513E-03     7.80264E-03
              85     13.7614E-03     123.401E-03    -23.4516E+06    -9.36496E+06     73.6726E+06    -12.7111E+06    -31.7858E-03     121.918E-03    -90.1326E-03    -39.8647E-03    -32.0252E-03     121.731E-03    -89.7167E-03    -40.1773E-03
              86     13.0172E-03     123.022E-03    -23.7788E+06    -12.4936E+06     52.6856E+06    -9.61743E+06    -54.4500E-03     140.540E-03    -86.0896E-03    -87.9913E-03    -54.6635E-03     140.290E-03    -85.7736E-03    -88.4217E-03
              87     12.2762E-03     122.699E-03    -9.59588E+06    -6.12998E+06     55.9326E+06    -20.6093E+06    -64.0023E-03     145.885E-03    -81.8824E-03    -98.4176E-03    -64.1352E-03     145.636E-03    -81.5799E-03    -99.0547E-03
              88     11.5109E-03     122.437E-03     323.678E+03    -15.3185E+06     72.8125E+06    -11.1398E+06    -70.1776E-03     148.516E-03    -78.3382E-03    -92.9963E-03    -70.2584E-03     148.210E-03    -77.9524E-03    -93.4988E-03
              89     10.7352E-03     122.212E-03     15.2355E+06     454.936E+03     83.0552E+06    -13.3126E+06    -74.5047E-03     149.690E-03    -75.1849E-03    -83.1967E-03    -74.5495E-03     149.454E-03    -74.7924E-03    -83.6815E-03
              90     9.94639E-03     122.024E-03     26.3149E+06    -13.2371E+06     85.7198E+06    -5.67773E+06    -76.5520E-03     148.914E-03    -72.3623E-03    -72.5521E-03    -76.5257E-03     148.614E-03    -71.9526E-03    -72.8926E-03
              91     9.14862E-03     121.863E-03     33.8131E+06      820.51E+03     88.9571E+06    -3.47472E+06    -76.6760E-03     146.441E-03    -69.7647E-03    -62.1029E-03    -76.6394E-03     146.213E-03    -69.3701E-03    -62.3702E-03
              92     8.34231E-03     121.728E-03     38.6427E+06    -4.42060E+06     83.5042E+06    -1.12201E+06    -75.3163E-03     142.702E-03    -67.3861E-03    -52.1312E-03    -75.2416E-03     142.463E-03    -67.0182E-03    -52.3269E-03
              93     7.52816E-03     121.611E-03     41.4382E+06     700.961E+03     79.6970E+06     217.194E+03    -72.8978E-03     138.137E-03    -65.2397E-03    -43.2905E-03    -72.8123E-03     137.936E-03    -64.9023E-03    -43.4337E-03
              94     6.70766E-03     121.514E-03     42.2379E+06    -437.413E+03     74.0949E+06     904.304E+03    -70.0343E-03     133.377E-03    -63.3422E-03    -35.5774E-03    -69.9360E-03     133.183E-03    -63.0323E-03    -35.6823E-03
              95     5.88078E-03     121.430E-03     42.4943E+06     2.02736E+06     70.7089E+06    -15.2171E+03    -67.0588E-03     128.761E-03    -61.7020E-03    -28.9613E-03    -66.9581E-03     128.590E-03    -61.4130E-03    -29.0527E-03
              96     5.04905E-03     121.362E-03     43.3943E+06    -713.253E+03     64.4087E+06    -587.708E+03    -64.2494E-03     124.557E-03    -60.3071E-03    -23.4690E-03    -64.1314E-03     124.383E-03    -60.0470E-03    -23.5484E-03
              97     4.21307E-03     121.305E-03     44.4935E+06     820.834E+03     59.5561E+06    -765.805E+03    -61.8147E-03     120.979E-03    -59.1641E-03    -18.6824E-03    -61.6865E-03     120.821E-03    -58.9320E-03    -18.7480E-03
              98     3.37381E-03     121.260E-03     45.4618E+06    -243.387E+03     56.2711E+06    -993.332E+03    -59.8015E-03     118.083E-03    -58.2811E-03    -14.6128E-03    -59.6622E-03     117.924E-03    -58.0653E-03    -14.6677E-03
              99     2.53190E-03     121.225E-03     46.3298E+06     410.320E+03     53.3706E+06    -1.42143E+06    -58.2540E-03     115.909E-03    -57.6549E-03    -11.1401E-03    -58.1072E-03     115.758E-03    -57.4558E-03    -11.1891E-03
             100     1.68822E-03     121.200E-03     47.4623E+06    -814.408E+03     49.3357E+06    -1.60192E+06    -57.1212E-03     114.476E-03    -57.3545E-03    -8.09175E-03    -56.9613E-03     114.323E-03    -57.1755E-03    -8.13327E-03
             101     842.746E-06     121.184E-03     47.8324E+06    -370.724E+03     47.2350E+06    -1.76372E+06    -57.0452E-03     114.460E-03    -57.4151E-03    -5.34909E-03    -56.8829E-03     114.311E-03    -57.2477E-03    -5.38573E-03
             102    -749.641E-09     120.114E-03     38.8119E+06    -2.15442E+06     38.4379E+06    -847.955E+03    -50.6171E-03     101.608E-03    -50.9907E-03    -1.70994E-03    -50.4830E-03     101.478E-03    -50.8517E-03    -1.72973E-03
             103     207.230E-09     119.080E-03     18.2833E+06    -7.99738E+06     18.2780E+06    -1.39447E+06    -39.5257E-03     79.3622E-03    -39.8365E-03     892.065E-06    -39.4522E-03     79.2663E-03    -39.7601E-03     867.904E-06
             104    -166.406E-09     118.063E-03    -6.36123E+06    -16.1798E+06    -6.04356E+06    -2.25351E+06    -32.0557E-03     64.1185E-03    -32.0628E-03     1.80933E-03    -32.0568E-03     64.0543E-03    -32.0604E-03     1.77512E-03
             105     131.733E-09     117.059E-03    -33.4874E+06    -26.4444E+06    -32.6204E+06    -3.43025E+06    -26.7263E-03     53.5246E-03    -26.7983E-03     2.89153E-03    -26.8087E-03     53.4878E-03    -26.8745E-03     2.84415E-03
             106    -209.984E-09     116.062E-03    -60.5359E+06    -39.3644E+06    -60.3929E+06    -3.93489E+06    -23.5064E-03     46.9656E-03    -23.4592E-03     3.86713E-03    -23.6646E-03     46.9441E-03    -23.6163E-03     3.81484E-03
             107     368.820E-09     115.071E-03    -92.9161E+06    -53.5052E+06    -91.7356E+06    -4.97331E+06    -21.9863E-03     43.8177E-03    -21.8314E-03     4.66283E-03    -22.2402E-03     43.8182E-03    -22.0778E-03     4.59820E-03
             108    -251.222E-09     114.081E-03    -124.013E+06    -69.3196E+06    -125.016E+06    -4.34873E+06    -21.7944E-03     43.4986E-03    -21.7042E-03     5.21155E-03    -22.1326E-03     43.5132E-03    -22.0490E-03     5.15569E-03
             109     268.870E-09     113.091E-03    -119.701E+06    -71.1523E+06    -122.130E+06     3.07881E+06    -22.9821E-03     45.9100E-03    -22.9278E-03     5.62590E-03    -23.3004E-03     45.9049E-03    -23.2618E-03     5.66642E-03
             110    -232.207E-09     112.096E-03    -79.6592E+06    -47.0574E+06    -81.2126E+06     11.3170E+06    -25.4473E-03     50.8230E-03    -25.3757E-03     6.01634E-03    -25.6598E-03     50.8208E-03    -25.5981E-03     6.16351E-03
             111     289.313E-09     111.095E-03    -49.4564E+06    -14.2716E+06    -45.6492E+06     8.03566E+06    -28.8103E-03     57.5541E-03    -28.7438E-03     6.40248E-03    -28.9711E-03     57.6202E-03    -28.8796E-03     6.50705E-03
             112    -201.281E-09     110.087E-03    -32.9532E+06    -3.25755E+06    -31.4874E+06    -1.26680E+06    -32.5652E-03     65.0901E-03    -32.5249E-03     6.66729E-03    -32.6801E-03     65.1669E-03    -32.6298E-03     6.65101E-03
             113     185.375E-09     109.070E-03    -22.1299E+06    -9.71347E+06    -22.8040E+06    -2.60884E+06    -36.3303E-03     72.5744E-03    -36.2441E-03     6.81365E-03    -36.3943E-03     72.5907E-03    -36.3119E-03     6.77903E-03
             114    -43.7890E-09     108.047E-03    -12.2595E+06    -19.1632E+06    -11.7689E+06    -2.61215E+06    -39.9122E-03     79.6941E-03    -39.7819E-03     6.84809E-03    -39.9291E-03     79.6329E-03    -39.7952E-03     6.81182E-03
             115     116.112E-09     107.016E-03    -10.1882E+06    -29.9422E+06    -10.2713E+06    -3.48137E+06    -43.1069E-03     86.1287E-03    -43.0218E-03     6.77209E-03    -43.0999E-03     86.0086E-03    -43.0150E-03     6.72259E-03
             116    -60.0899E-09     105.980E-03    -14.2719E+06    -44.2069E+06    -14.0769E+06    -4.18076E+06    -45.8595E-03     91.6655E-03    -45.8060E-03     6.72897E-03    -45.8466E-03     91.4857E-03    -45.7916E-03     6.66818E-03
             117     79.9259E-09     104.938E-03    -14.8294E+06    -58.1207E+06    -15.7922E+06    -3.42295E+06    -48.1979E-03     96.3397E-03    -48.1418E-03     6.57279E-03    -48.1652E-03     96.0938E-03    -48.1150E-03     6.51921E-03
             118    -32.1065E-09     103.892E-03    -18.8181E+06    -69.0131E+06    -18.4820E+06    -2.83044E+06    -50.1347E-03     100.178E-03    -50.0430E-03     6.37096E-03    -50.1022E-03     99.8870E-03    -50.0080E-03     6.32266E-03
             119     127.519E-09     102.842E-03    -21.1353E+06    -79.1708E+06    -21.4334E+06    -2.97199E+06    -51.6208E-03     103.154E-03    -51.5331E-03     6.34306E-03    -51.5809E-03     102.820E-03    -51.4948E-03     6.29113E-03
             120    -93.8898E-09     101.790E-03    -25.3679E+06    -90.4083E+06    -25.2493E+06    -3.05511E+06    -52.7149E-03     105.386E-03    -52.6707E-03     6.27163E-03    -52.6744E-03     105.007E-03    -52.6290E-03     6.21711E-03
             121     119.619E-09     100.735E-03    -28.2827E+06    -101.931E+06    -28.5801E+06    -3.06417E+06    -53.6245E-03     107.135E-03    -53.5102E-03     6.13431E-03    -53.5770E-03     106.708E-03    -53.4643E-03     6.07846E-03
             122     29.4111E-09     99.6801E-03    -32.7664E+06    -112.282E+06    -32.8272E+06    -2.57616E+06    -54.2536E-03     108.383E-03    -54.1291E-03     5.97415E-03    -54.2073E-03     107.917E-03    -54.0830E-03     5.92347E-03
             123     16.9363E-09     98.6225E-03    -37.3123E+06    -121.042E+06    -37.4197E+06    -2.25928E+06    -54.6499E-03     109.241E-03    -54.5914E-03     5.84945E-03    -54.6070E-03     108.745E-03    -54.5488E-03     5.80197E-03
             124     19.8242E-09     97.5657E-03    -41.1366E+06    -128.471E+06    -41.2947E+06    -1.84287E+06    -54.9792E-03     109.864E-03    -54.8849E-03     5.81818E-03    -54.9390E-03     109.342E-03    -54.8455E-03     5.77553E-03
             125     86.9729E-09     96.5065E-03    -45.2885E+06    -134.755E+06    -45.3931E+06    -1.42721E+06    -55.1767E-03     110.230E-03    -55.0536E-03     5.96942E-03    -55.1422E-03     109.689E-03    -55.0195E-03     5.93162E-03
             126    -1.53783E-09     95.4491E-03    -49.0004E+06    -140.285E+06    -48.8315E+06    -1.64453E+06    -55.2221E-03     110.411E-03    -55.1886E-03     6.07562E-03    -55.1932E-03     109.852E-03    -55.1583E-03     6.03473E-03
             127    -41.7882E-09     94.3897E-03    -51.6903E+06    -146.349E+06    -51.8786E+06    -1.42195E+06    -55.3047E-03     110.523E-03    -55.2179E-03     6.00501E-03    -55.2760E-03     109.942E-03    -55.1902E-03     5.96726E-03
             128     214.349E-09     93.3322E-03    -53.0287E+06    -151.257E+06    -53.0769E+06    -1.06923E+06    -55.3609E-03     110.570E-03    -55.2090E-03     5.82887E-03    -55.3301E-03     109.968E-03    -55.1782E-03     5.79569E-03
             129    -144.271E-09     92.2731E-03    -53.2440E+06    -154.955E+06    -53.5707E+06    -725.399E+03    -55.3128E-03     110.624E-03    -55.3110E-03     5.82691E-03    -55.2770E-03     110.005E-03    -55.2770E-03     5.79815E-03
             130     58.2150E-09     91.2149E-03    -53.5479E+06    -157.727E+06    -53.3672E+06    -803.961E+03    -55.3583E-03     110.734E-03    -55.3760E-03     5.81306E-03    -55.3202E-03     110.101E-03    -55.3365E-03     5.78354E-03
             131    -15.7591E-09     90.1559E-03    -54.4663E+06    -161.110E+06    -54.5744E+06    -848.520E+03    -55.4169E-03     110.763E-03    -55.3463E-03     5.86050E-03    -55.3767E-03     110.116E-03    -55.3066E-03     5.83058E-03
             132     76.5118E-09     89.0974E-03    -53.9620E+06    -164.166E+06    -53.9295E+06    -821.998E+03    -55.4093E-03     110.739E-03    -55.3295E-03     5.87948E-03    -55.3632E-03     110.075E-03    -55.2829E-03     5.84945E-03
             133    -16.7705E-09     88.0388E-03    -52.8607E+06    -167.105E+06    -53.1102E+06    -652.470E+03    -55.4112E-03     110.706E-03    -55.2952E-03     5.75963E-03    -55.3565E-03     110.025E-03    -55.2418E-03     5.73129E-03
             134     136.697E-09     86.9804E-03    -53.0043E+06    -168.445E+06    -52.8749E+06    -428.881E+03    -55.4242E-03     110.733E-03    -55.3085E-03     5.75689E-03    -55.3686E-03     110.045E-03    -55.2517E-03     5.73148E-03
             135    -73.2922E-09     85.9217E-03    -52.8439E+06    -169.448E+06    -53.0736E+06    -293.776E+03    -55.4035E-03     110.763E-03    -55.3597E-03     5.81548E-03    -55.3454E-03     110.070E-03    -55.3028E-03     5.79223E-03
             136     66.4854E-09     84.8629E-03    -52.5981E+06    -170.043E+06    -52.5708E+06     68.9024E+03    -55.3657E-03     110.709E-03    -55.3431E-03     5.88723E-03    -55.3062E-03     110.012E-03    -55.2832E-03     5.86900E-03
             137    -36.8556E-09     83.8047E-03    -52.8669E+06    -170.887E+06    -52.8829E+06    -107.107E+03    -55.3352E-03     110.666E-03    -55.3311E-03     5.85275E-03    -55.2754E-03     109.966E-03    -55.2711E-03     5.83197E-03
             138    -1.70597E-09     82.7461E-03    -52.2727E+06    -170.722E+06    -52.4986E+06     86.1501E+03    -55.3706E-03     110.712E-03    -55.3415E-03     5.75052E-03    -55.3086E-03     110.011E-03    -55.2807E-03     5.73171E-03
             139     72.1244E-09     81.6876E-03    -51.3937E+06    -169.669E+06    -51.2633E+06     168.837E+03    -55.4366E-03     110.750E-03    -55.3130E-03     5.80309E-03    -55.3735E-03     110.051E-03    -55.2488E-03     5.78572E-03
             140     53.7995E-09     80.6286E-03    -50.7914E+06    -169.196E+06    -50.8336E+06     192.572E+03    -55.3926E-03     110.695E-03    -55.3020E-03     5.92999E-03    -55.3278E-03     109.997E-03    -55.2372E-03     5.91386E-03
             141    -42.1746E-09     79.5705E-03    -50.4773E+06    -169.006E+06    -50.3517E+06     182.423E+03    -55.3086E-03     110.638E-03    -55.3296E-03     5.92090E-03    -55.2432E-03     109.940E-03    -55.2631E-03     5.90442E-03
             142    -20.0248E-09     78.5118E-03    -49.8851E+06    -168.653E+06    -49.9440E+06     84.2238E+03    -55.3548E-03     110.633E-03    -55.2785E-03     5.83271E-03    -55.2875E-03     109.935E-03    -55.2114E-03     5.81443E-03
             143     195.846E-09     77.4536E-03    -49.5178E+06    -168.240E+06    -49.5977E+06     84.7664E+03    -55.4050E-03     110.598E-03    -55.1928E-03     5.80508E-03    -55.3370E-03     109.901E-03    -55.1250E-03     5.78649E-03
             144    -26.5892E-09     76.3951E-03    -48.8107E+06    -167.367E+06    -48.8874E+06     136.900E+03    -55.3556E-03     110.566E-03    -55.2101E-03     5.77117E-03    -55.2864E-03     109.871E-03    -55.1411E-03     5.75311E-03
             145     88.9660E-09     75.3369E-03    -48.3905E+06    -166.849E+06    -48.3870E+06    -32.3299E+03    -55.3281E-03     110.595E-03    -55.2665E-03     5.73577E-03    -55.2583E-03     109.901E-03    -55.1964E-03     5.71568E-03
             146    -61.4713E-09     74.2782E-03    -48.3454E+06    -166.758E+06    -48.4177E+06     32.5318E+03    -55.3077E-03     110.587E-03    -55.2794E-03     5.76396E-03    -55.2378E-03     109.894E-03    -55.2096E-03     5.74453E-03
             147     66.3115E-09     73.2200E-03    -49.1023E+06    -167.150E+06    -48.7331E+06    -280.602E+03    -55.2810E-03     110.492E-03    -55.2106E-03     5.85602E-03    -55.2138E-03     109.798E-03    -55.1407E-03     5.83295E-03
             148     37.1670E-09     72.1614E-03    -49.2622E+06    -167.790E+06    -49.6095E+06     56.4817E+03    -55.2833E-03     110.452E-03    -55.1685E-03     5.91982E-03    -55.2147E-03     109.757E-03    -55.1018E-03     5.90136E-03
             149     35.0448E-09     71.1037E-03    -48.7424E+06    -167.113E+06    -48.5476E+06     283.565E+03    -55.2881E-03     110.536E-03    -55.2478E-03     5.81982E-03    -55.2194E-03     109.842E-03    -55.1776E-03     5.80393E-03
             150    -52.1452E-09     70.0447E-03    -47.9900E+06    -166.511E+06    -48.1468E+06    -3.01739E+03    -55.3046E-03     110.591E-03    -55.2863E-03     5.78321E-03    -55.2336E-03     109.898E-03    -55.2160E-03     5.76365E-03
             151     83.3645E-09     68.9867E-03    -47.9496E+06    -166.347E+06    -47.8575E+06     88.2303E+03    -55.2995E-03     110.567E-03    -55.2676E-03     5.83559E-03    -55.2290E-03     109.875E-03    -55.1962E-03     5.81726E-03
             152    -74.8402E-09     67.9279E-03    -47.8187E+06    -166.214E+06    -47.7857E+06     86.3952E+03    -55.3209E-03     110.566E-03    -55.2453E-03     5.88275E-03    -55.2500E-03     109.874E-03    -55.1739E-03     5.86497E-03
             153     179.488E-09     66.8698E-03    -47.8418E+06    -166.150E+06    -47.9454E+06     12.7424E+03    -55.3596E-03     110.582E-03    -55.2224E-03     5.81963E-03    -55.2887E-03     109.891E-03    -55.1518E-03     5.80028E-03
             154    -67.0603E-09     65.8114E-03    -48.1001E+06    -166.287E+06    -47.9804E+06    -77.6774E+03    -55.3565E-03     110.617E-03    -55.2609E-03     5.89028E-03    -55.2866E-03     109.926E-03    -55.1900E-03     5.86944E-03
             155     102.762E-09     64.7526E-03    -47.5839E+06    -165.991E+06    -47.7003E+06     21.3308E+03    -55.3636E-03     110.640E-03    -55.2769E-03     5.97723E-03    -55.2920E-03     109.949E-03    -55.2057E-03     5.95822E-03
             156    -8.46246E-09     63.6943E-03    -47.8498E+06    -166.129E+06    -47.8614E+06     174.261E+03    -55.3346E-03     110.563E-03    -55.2282E-03     5.92613E-03    -55.2639E-03     109.872E-03    -55.1573E-03     5.90910E-03
             157     79.1391E-09     62.6360E-03    -47.9321E+06    -166.037E+06    -47.9016E+06     72.7232E+03    -55.2970E-03     110.541E-03    -55.2439E-03     5.85200E-03    -55.2268E-03     109.850E-03    -55.1731E-03     5.83377E-03
             158    -74.6915E-09     61.5778E-03    -47.8106E+06    -165.847E+06    -47.7420E+06    -59.4795E+03    -55.3450E-03     110.571E-03    -55.2262E-03     5.81479E-03    -55.2746E-03     109.881E-03    -55.1551E-03     5.79468E-03
             159    -139.869E-09     59.4613E-03    -48.0912E+06    -166.331E+06    -48.0930E+06    -8.88387E+03    -55.2883E-03     110.580E-03    -55.2921E-03     5.81483E-03    -55.2181E-03     109.889E-03    -55.2217E-03     5.79489E-03
             160    -133.345E-12     58.4020E-03    -48.0277E+06    -166.362E+06    -48.0018E+06    -56.7722E+03    -55.2891E-03     110.626E-03    -55.3372E-03     5.87562E-03    -55.2187E-03     109.934E-03    -55.2663E-03     5.85530E-03
             161     42.6509E-09     57.3439E-03    -47.9965E+06    -166.384E+06    -48.2005E+06      91.095E+03    -55.3108E-03     110.525E-03    -55.2143E-03     5.92600E-03    -55.2400E-03     109.833E-03    -55.1444E-03     5.90795E-03
             162     60.9297E-09     56.2856E-03    -47.9136E+06    -166.105E+06    -47.8507E+06     104.265E+03    -55.2777E-03     110.489E-03    -55.2114E-03     5.84658E-03    -55.2073E-03     109.798E-03    -55.1404E-03     5.82854E-03
             163    -66.6201E-09     55.2276E-03    -47.4638E+06    -165.695E+06    -47.6348E+06     254.436E+03    -55.3116E-03     110.579E-03    -55.2676E-03     5.79134E-03    -55.2399E-03     109.889E-03    -55.1967E-03     5.77577E-03
             164     129.870E-09     54.1686E-03    -47.3850E+06    -165.332E+06    -47.2831E+06     311.201E+03    -55.2986E-03     110.560E-03    -55.2618E-03     5.83632E-03    -55.2275E-03     109.872E-03    -55.1898E-03     5.82188E-03
             165    -145.116E-09     53.1108E-03    -47.5235E+06    -165.445E+06    -47.4046E+06    -282.912E+03    -55.2247E-03     110.484E-03    -55.2592E-03     5.78396E-03    -55.1539E-03     109.795E-03    -55.1874E-03     5.76115E-03
             166     87.4835E-09     52.0522E-03    -47.9302E+06    -165.984E+06    -48.1061E+06    -223.124E+03    -55.2593E-03     110.486E-03    -55.2269E-03     5.77538E-03    -55.1888E-03     109.796E-03    -55.1573E-03     5.75305E-03
             167     8.06828E-09     50.9939E-03     -48.785E+06    -166.717E+06    -48.6220E+06    -240.388E+03    -55.2980E-03     110.450E-03    -55.1523E-03     5.81144E-03    -55.2299E-03     109.759E-03    -55.0830E-03     5.78881E-03
             168     130.757E-09     49.9358E-03    -49.0767E+06    -167.377E+06    -49.3421E+06    -8.18267E+03    -55.2407E-03     110.362E-03    -55.1215E-03     5.81151E-03    -55.1721E-03     109.669E-03    -55.0544E-03     5.79164E-03
             169    -84.9829E-09     48.8775E-03    -48.6671E+06    -166.884E+06    -48.6475E+06     220.053E+03    -55.1260E-03     110.273E-03    -55.1471E-03     5.85055E-03    -55.0571E-03     109.580E-03    -55.0778E-03     5.83415E-03
             170    -12.2996E-09     47.8195E-03    -48.0706E+06    -166.361E+06    -48.1512E+06     25.8384E+03    -55.1051E-03     110.181E-03    -55.0756E-03     5.76252E-03    -55.0347E-03     109.489E-03    -55.0054E-03     5.74357E-03
             171     143.678E-09     46.7617E-03    -48.4240E+06    -166.544E+06    -48.2564E+06    -216.312E+03    -55.0918E-03     110.094E-03    -55.0025E-03     5.71812E-03    -55.0227E-03     109.402E-03    -54.9320E-03     5.69575E-03
             172    -136.063E-09     45.7038E-03    -48.5403E+06    -166.702E+06    -48.6766E+06    -113.891E+03    -55.0355E-03     110.014E-03    -54.9784E-03     5.73675E-03    -54.9661E-03     109.322E-03    -54.9097E-03     5.71597E-03
             173     209.068E-09     44.6459E-03    -48.7301E+06    -166.767E+06    -48.6923E+06     229.891E+03    -55.0269E-03     109.897E-03    -54.8701E-03     5.77660E-03    -54.9584E-03     109.205E-03    -54.8011E-03     5.76102E-03
             174    -29.9276E-09     43.5884E-03    -48.1613E+06    -166.153E+06    -48.1052E+06     306.280E+03    -54.9278E-03     109.698E-03    -54.7702E-03     5.74399E-03    -54.8581E-03     109.007E-03    -54.7000E-03     5.72955E-03
             175     104.662E-09     42.5311E-03    -47.4966E+06    -165.488E+06    -47.3104E+06     88.7753E+03    -54.8053E-03     109.498E-03    -54.6930E-03     5.67565E-03    -54.7345E-03     108.809E-03    -54.6207E-03     5.65767E-03
             176    -747.419E-12     41.4738E-03    -47.3016E+06    -165.397E+06    -47.2944E+06    -165.521E+03    -54.6394E-03     109.279E-03    -54.6400E-03     5.74147E-03    -54.5678E-03     108.590E-03    -54.5680E-03     5.72047E-03
             177    -119.141E-09     40.4169E-03    -47.7143E+06    -165.679E+06    -47.9942E+06     29.4692E+03    -54.4492E-03     108.963E-03    -54.5141E-03     5.68861E-03    -54.3782E-03     108.274E-03    -54.4447E-03     5.67066E-03
             178     110.322E-09     39.3604E-03    -48.4945E+06    -166.150E+06    -48.3214E+06    -58.5125E+03    -54.3672E-03     108.618E-03    -54.2508E-03     5.58373E-03    -54.2989E-03     107.928E-03    -54.1812E-03     5.56481E-03
             179     84.5846E-09     38.3045E-03    -48.3870E+06    -166.363E+06    -48.6022E+06    -42.1711E+03    -54.1960E-03     108.288E-03    -54.0923E-03     5.52577E-03    -54.1264E-03     107.598E-03    -54.0240E-03     5.50701E-03
             180    -119.188E-09     37.2486E-03    -48.2510E+06    -165.987E+06    -48.1512E+06     83.0904E+03    -53.9486E-03     107.915E-03    -53.9661E-03     5.44248E-03    -53.8795E-03     107.225E-03    -53.8962E-03     5.42541E-03
             181     111.417E-09     36.1932E-03    -48.0066E+06    -165.662E+06    -47.9723E+06    -46.1673E+03    -53.7792E-03     107.471E-03    -53.6915E-03     5.42321E-03    -53.7097E-03     106.782E-03    -53.6216E-03     5.40461E-03
             182     32.7737E-09     35.1383E-03    -48.0997E+06    -165.544E+06    -48.1712E+06     64.7549E+03    -53.5369E-03     106.947E-03    -53.4098E-03     5.44014E-03    -53.4677E-03     106.259E-03    -53.3408E-03     5.42307E-03
             183     25.5780E-09     34.0840E-03     -48.909E+06    -165.957E+06    -48.8381E+06    -11.4695E+03    -53.2160E-03     106.369E-03    -53.1533E-03     5.38822E-03    -53.1494E-03     105.682E-03    -53.0859E-03     5.37062E-03
             184     10.6932E-09     33.0306E-03    -49.3729E+06    -166.478E+06    -49.3855E+06    -232.836E+03    -52.9049E-03     105.754E-03    -52.8487E-03     5.24922E-03    -52.8389E-03     105.065E-03    -52.7826E-03     5.22883E-03
             185     36.1735E-09     31.9775E-03    -49.3982E+06    -166.656E+06    -49.5996E+06    -34.8209E+03    -52.5516E-03     105.027E-03    -52.4753E-03     5.15386E-03    -52.4852E-03     104.338E-03    -52.4100E-03     5.13631E-03
             186     32.9338E-09     30.9254E-03    -48.8403E+06    -165.760E+06    -48.8259E+06     485.187E+03    -52.1578E-03     104.207E-03    -52.0496E-03     5.09501E-03    -52.0911E-03     103.521E-03    -51.9826E-03     5.08471E-03
             187     71.1472E-09     29.8743E-03    -47.9987E+06    -164.291E+06    -47.6873E+06     163.085E+03    -51.7072E-03     103.320E-03    -51.6133E-03     4.99808E-03    -51.6400E-03     102.638E-03    -51.5439E-03     4.98387E-03
             188    -22.6295E-09     28.8240E-03    -48.1414E+06    -164.198E+06    -48.3207E+06    -118.907E+03    -51.1915E-03     102.312E-03    -51.1207E-03     4.87833E-03    -51.1242E-03     101.632E-03    -51.0544E-03     4.86099E-03
             189     82.5046E-09     27.7750E-03    -48.5932E+06    -164.212E+06    -48.5432E+06     176.349E+03    -50.6532E-03     101.217E-03    -50.5637E-03     4.79096E-03    -50.5878E-03     100.537E-03    -50.4979E-03     4.77817E-03
             190     859.433E-12     26.7270E-03    -48.3393E+06    -163.665E+06    -48.3781E+06     293.523E+03    -50.0649E-03     100.039E-03    -49.9741E-03     4.67777E-03    -49.9993E-03     99.3614E-03    -49.9086E-03     4.66688E-03
             191     60.8879E-09     25.6804E-03    -48.0661E+06    -162.873E+06    -48.0462E+06     246.514E+03    -49.4429E-03     98.7754E-03    -49.3325E-03     4.48419E-03    -49.3775E-03     98.1009E-03    -49.2669E-03     4.47290E-03
             192     57.6624E-09     24.6353E-03    -48.2877E+06    -162.487E+06    -48.1623E+06    -119.995E+03    -48.7816E-03     97.4476E-03    -48.6660E-03     4.30040E-03    -48.7178E-03     96.7755E-03    -48.6012E-03     4.28473E-03
             193     15.1551E-09     23.5913E-03    -48.7503E+06    -162.470E+06    -48.8165E+06    -71.2483E+03    -48.0697E-03     96.0412E-03    -47.9715E-03     4.12852E-03    -48.0072E-03     95.3708E-03    -47.9093E-03     4.11413E-03
             194     72.3000E-09     22.5492E-03    -49.4354E+06    -162.432E+06    -49.3654E+06     32.0069E+03    -47.3233E-03     94.5866E-03    -47.2633E-03     3.96236E-03    -47.2634E-03     93.9181E-03    -47.2029E-03     3.94998E-03
             195    -63.0268E-09     21.5083E-03    -49.3080E+06    -161.697E+06    -49.4884E+06     187.060E+03    -46.5308E-03     93.0188E-03    -46.4880E-03     3.75984E-03    -46.4712E-03     92.3540E-03    -46.4295E-03     3.75018E-03
             196     119.119E-09     20.4692E-03    -49.1018E+06    -160.446E+06    -49.0690E+06     601.092E+03    -45.6920E-03     91.2907E-03    -45.5987E-03     3.59610E-03    -45.6338E-03     90.6312E-03    -45.5402E-03     3.59278E-03
             197    -20.0620E-09     19.4321E-03    -48.0600E+06    -158.381E+06    -48.1082E+06     646.587E+03    -44.7663E-03     89.4437E-03    -44.6775E-03     3.35312E-03    -44.7072E-03     88.7916E-03    -44.6187E-03     3.35115E-03
             198     68.3499E-09     18.3969E-03    -46.9084E+06    -156.183E+06    -46.9476E+06     614.722E+03    -43.7662E-03     87.4338E-03    -43.6676E-03     3.05106E-03    -43.7063E-03     86.7893E-03    -43.6079E-03     3.04937E-03
             199     48.9067E-09     17.3639E-03    -45.8374E+06    -153.924E+06    -46.0425E+06     716.942E+03    -42.6987E-03     85.2291E-03    -42.5304E-03     2.71401E-03    -42.6380E-03     84.5930E-03    -42.4709E-03     2.71444E-03
             200     118.998E-09     16.3335E-03    -44.4005E+06    -150.886E+06    -44.4058E+06     840.580E+03    -41.4899E-03     82.7725E-03    -41.2827E-03     2.33333E-03    -41.4287E-03     82.1471E-03    -41.2215E-03     2.33602E-03
             201     68.9597E-09     15.3052E-03    -42.6440E+06    -147.610E+06    -42.7262E+06     1.05615E+06    -40.0079E-03     79.8549E-03    -39.8470E-03     2.00441E-03    -39.9452E-03     79.2409E-03    -39.7847E-03     2.01090E-03
             202     19.5408E-09     14.2807E-03    -39.9180E+06    -143.178E+06    -40.1560E+06     1.33166E+06    -38.2253E-03     76.3613E-03    -38.1360E-03     1.57934E-03    -38.1591E-03     75.7616E-03    -38.0713E-03     1.59037E-03
             203     44.1198E-09     13.2598E-03    -37.3790E+06    -138.632E+06    -37.2828E+06     1.28381E+06    -36.2637E-03     72.4057E-03    -36.1420E-03     1.16333E-03    -36.1956E-03     71.8209E-03    -36.0732E-03     1.17444E-03
             204     105.807E-09     12.2432E-03    -34.5935E+06    -134.281E+06    -34.6366E+06     1.20374E+06    -34.2182E-03     68.2637E-03    -34.0456E-03     946.789E-06    -34.1463E-03     67.6928E-03    -33.9739E-03     957.423E-06
             205     45.3443E-09     11.2308E-03    -32.2253E+06    -130.196E+06    -31.9286E+06     1.01369E+06    -32.2702E-03     64.4042E-03    -32.1341E-03     901.994E-06    -32.1962E-03     63.8464E-03    -32.0582E-03     910.448E-06
             206     44.8104E-09     10.2219E-03    -30.6282E+06    -127.378E+06    -30.4671E+06     632.892E+03    -30.7140E-03     61.3105E-03    -30.5965E-03     992.256E-06    -30.6382E-03     60.7624E-03    -30.5197E-03     995.989E-06
             207     72.1357E-09     9.21567E-03    -30.3047E+06    -125.968E+06    -29.8340E+06     167.365E+03    -29.7618E-03     59.4010E-03    -29.6392E-03     1.16125E-03    -29.6874E-03     58.8586E-03    -29.5618E-03     1.15909E-03
             208     29.9073E-09     8.21089E-03    -31.4071E+06    -126.969E+06    -30.8671E+06    -620.388E+03    -29.6741E-03     59.2806E-03    -29.6065E-03     1.51038E-03    -29.6023E-03     58.7363E-03    -29.5312E-03     1.49825E-03
             209    -8.46831E-09     7.20480E-03    -32.4453E+06    -129.475E+06    -32.4034E+06    -800.689E+03    -30.7057E-03     61.4216E-03    -30.7159E-03     2.01694E-03    -30.6332E-03     60.8684E-03    -30.6432E-03     2.00273E-03
             210    -31.0676E-09     6.19548E-03    -33.2057E+06    -132.264E+06    -32.8159E+06    -721.134E+03    -32.8940E-03     65.7906E-03    -32.8966E-03     2.42031E-03    -32.8209E-03     65.2250E-03    -32.8208E-03     2.40735E-03
             211     70.5771E-09     5.18083E-03    -33.1086E+06    -135.315E+06    -33.0096E+06    -789.131E+03    -36.0090E-03     72.0243E-03    -36.0153E-03     2.69595E-03    -35.9309E-03     71.4434E-03    -35.9361E-03     2.68229E-03
             212    -117.856E-09     4.15872E-03    -31.7994E+06    -137.695E+06    -31.9800E+06    -556.115E+03    -39.6412E-03     79.3670E-03    -39.7258E-03     2.72682E-03    -39.5546E-03     78.7707E-03    -39.6399E-03     2.71627E-03
             213     19.2412E-09     3.12893E-03    -29.8695E+06    -139.442E+06    -29.9850E+06    -479.172E+03    -43.4239E-03     86.9169E-03    -43.4931E-03     2.49432E-03    -43.3280E-03     86.3062E-03    -43.3975E-03     2.48484E-03
             214    -38.8107E-09     2.09147E-03    -28.2277E+06    -140.982E+06    -28.6128E+06    -376.570E+03    -46.8253E-03     93.6980E-03    -46.8728E-03     1.95836E-03    -46.7206E-03     93.0755E-03    -46.7705E-03     1.95068E-03
             215    -25.7606E-09     1.04744E-03    -27.2068E+06    -141.800E+06    -27.5361E+06    -24.4901E+03    -49.2282E-03     98.4366E-03    -49.2084E-03     1.04681E-03    -49.1185E-03     97.8071E-03    -49.1010E-03     1.04484E-03
             216     855.786E-06     388.578E-18    -26.6794E+06    -141.850E+06    -26.8310E+06     27.7900E+03    -50.0988E-03     100.135E-03    -50.0365E-03     906.891E-06    -49.9874E-03     99.5037E-03    -49.9263E-03     905.707E-06
             217     1.71151E-03     388.578E-18    -26.4151E+06    -141.936E+06    -27.2523E+06    -459.448E+03    -50.0976E-03     100.168E-03    -50.0704E-03     1.72387E-03    -49.9844E-03     99.5362E-03    -49.9626E-03     1.71498E-03
             218     2.56729E-03     388.578E-18    -25.7108E+06    -141.858E+06    -27.7487E+06    -900.811E+03    -50.1780E-03     100.264E-03    -50.0858E-03     2.55170E-03    -50.0607E-03     99.6321E-03    -49.9816E-03     2.53565E-03
             219     3.42294E-03     388.578E-18    -24.8209E+06    -141.642E+06    -28.1505E+06    -1.07278E+06    -50.3662E-03     100.490E-03    -50.1235E-03     3.40693E-03    -50.2442E-03     99.8584E-03    -50.0229E-03     3.38729E-03
             220     4.27835E-03     388.578E-18    -23.5829E+06    -141.272E+06    -28.6584E+06    -1.50899E+06    -50.6847E-03     100.877E-03    -50.1928E-03     4.26735E-03    -50.5563E-03     100.247E-03    -50.0970E-03     4.24035E-03
             221     5.13353E-03     388.578E-18    -21.6538E+06    -140.981E+06    -30.4668E+06    -2.23670E+06    -51.1607E-03     101.455E-03    -50.2945E-03     5.12741E-03    -51.0206E-03     100.826E-03    -50.2110E-03     5.08902E-03
             222     5.98814E-03     388.578E-18    -18.8324E+06    -141.112E+06    -35.1884E+06    -3.44330E+06    -51.8257E-03     102.253E-03    -50.4275E-03     6.05851E-03    -51.6645E-03     101.626E-03    -50.3715E-03     6.00235E-03
             223     6.84214E-03     388.578E-18    -14.7163E+06    -136.297E+06    -42.2076E+06    -5.10244E+06    -52.6972E-03     103.290E-03    -50.5929E-03     7.08279E-03    -52.5123E-03     102.691E-03    -50.5849E-03     7.00204E-03
             224     7.69529E-03     388.578E-18    -9.72549E+06    -122.428E+06    -49.5193E+06    -5.76620E+06    -53.8004E-03     104.603E-03    -50.8023E-03     8.22714E-03    -53.6003E-03     104.077E-03    -50.8583E-03     8.13403E-03
             225     8.54724E-03     388.578E-18    -4.65595E+06    -100.876E+06    -53.8128E+06    -6.10538E+06    -55.1916E-03     106.276E-03    -51.0845E-03     9.63122E-03    -54.9914E-03     105.857E-03    -51.2006E-03     9.52902E-03
             226     9.39783E-03     388.578E-18     237.371E+03    -71.1491E+06    -53.0551E+06    -5.99827E+06    -56.9305E-03     108.391E-03    -51.4609E-03     11.3160E-03    -56.7504E-03     108.113E-03    -51.6234E-03     11.2084E-03
             227     10.2465E-03     388.578E-18     3.46903E+06    -33.3555E+06    -46.2362E+06    -3.42632E+06    -59.0665E-03     111.018E-03    -51.9516E-03     13.5753E-03    -58.9356E-03     110.915E-03    -52.1395E-03     13.4919E-03
             228     11.0927E-03     388.578E-18     3.94864E+06     7.33604E+06    -31.1444E+06    -1.33289E+06    -61.7481E-03     114.342E-03    -52.5935E-03     17.0249E-03    -61.6971E-03     114.421E-03    -52.7656E-03     16.9523E-03
             229     11.9355E-03     388.578E-18     2.81739E+06     36.9501E+06    -7.96828E+06    -373.304E+03    -65.0696E-03     118.493E-03    -53.4236E-03     18.4770E-03    -65.1021E-03     118.690E-03    -53.5211E-03     18.3920E-03
             230     12.7805E-03     388.578E-18     2.35483E+06     54.6966E+06      22.943E+06     1.25699E+06    -69.9310E-03     124.413E-03    -54.4821E-03     23.6785E-03    -70.0389E-03     124.656E-03    -54.4501E-03     23.6015E-03
             231     13.6059E-03     388.578E-18     2.23509E+06     68.1720E+06     56.8014E+06     2.72530E+06    -79.6957E-03     135.591E-03    -55.8956E-03     39.0965E-03    -79.8857E-03     135.867E-03    -55.7137E-03     38.9566E-03
             232     14.4306E-03     388.578E-18     501.523E+03     77.3490E+06     79.0237E+06     2.68136E+06    -96.1118E-03     153.977E-03    -57.8653E-03     61.8791E-03    -96.3756E-03     154.285E-03    -57.5831E-03     61.6439E-03
             233     15.2198E-03     388.578E-18    -1.46209E+06     85.4390E+06     84.7590E+06     3.73260E+06    -112.661E-03     173.138E-03    -60.4775E-03     105.678E-03    -113.078E-03     173.580E-03    -60.1755E-03     105.091E-03
             234     15.9809E-03     388.578E-18     6.69948E+06     106.773E+06     94.8274E+06     5.37346E+06    -140.622E-03     204.587E-03    -63.9654E-03     174.835E-03    -142.127E-03     206.228E-03    -63.6557E-03     171.673E-03
             235     16.8799E-03     1.25440E-03     1.02246E+06     123.741E+06     93.5325E+06     6.34562E+06    -171.903E-03     234.882E-03    -62.9793E-03     211.187E-03    -175.638E-03     238.838E-03    -62.6926E-03     204.031E-03
             236     16.9397E-03     2.51217E-03    -10.0124E+06     125.305E+06     81.6625E+06     7.94708E+06    -174.443E-03     233.137E-03    -58.6945E-03     203.713E-03    -179.792E-03     238.673E-03    -58.4534E-03     195.176E-03
             237     16.9756E-03     3.69260E-03    -865.466E+03     132.853E+06     87.8974E+06     7.71517E+06    -157.030E-03     213.815E-03    -56.7845E-03     187.952E-03    -162.660E-03     219.648E-03    -56.5364E-03     180.969E-03
             238     16.9962E-03     4.83884E-03     13.0135E+03     138.715E+06     94.0020E+06     4.54093E+06    -147.959E-03     203.615E-03    -55.6558E-03     163.527E-03    -153.296E-03     209.166E-03    -55.3869E-03     157.957E-03
             239     17.0059E-03     5.99841E-03    -2.75603E+06     140.219E+06     96.5340E+06     365.138E+03    -146.643E-03     201.608E-03    -54.9647E-03     143.184E-03    -151.674E-03     206.848E-03    -54.6814E-03     138.171E-03
             240     17.0125E-03     7.16085E-03    -2.39675E+06     141.847E+06     99.4435E+06    -290.233E+03    -138.124E-03     192.919E-03    -54.7947E-03     140.417E-03    -143.291E-03     198.296E-03    -54.4997E-03     136.514E-03
             241     17.0145E-03     8.30941E-03    -2.54101E+06     143.336E+06     100.399E+06     348.218E+03    -124.073E-03     179.012E-03    -54.9396E-03     143.472E-03    -129.536E-03     184.685E-03    -54.6418E-03     141.214E-03
             242     17.0166E-03     9.42710E-03    -3.13617E+06     143.905E+06     100.017E+06     435.437E+03    -112.199E-03     167.347E-03    -55.1479E-03     140.414E-03    -117.690E-03     173.046E-03    -54.8519E-03     139.658E-03
             243     17.0150E-03     10.5397E-03    -4.58452E+06     143.061E+06     98.7966E+06     1.00302E+06    -103.155E-03     158.454E-03    -55.2985E-03     135.771E-03    -108.519E-03     164.022E-03    -55.0054E-03     136.182E-03
             244     17.0202E-03     11.6451E-03    -1.79979E+06     143.887E+06     99.9101E+06     922.297E+03    -96.0817E-03     151.393E-03    -55.3111E-03     135.613E-03    -101.385E-03     156.910E-03    -55.0176E-03     136.899E-03
             245     17.0222E-03     12.7407E-03    -428.511E+03     146.743E+06     101.948E+06     738.138E+03    -91.8816E-03     147.127E-03    -55.2452E-03     126.905E-03    -96.9004E-03     152.368E-03    -54.9476E-03     128.796E-03
             246     17.0239E-03     13.8328E-03    -2.52959E+06     148.082E+06     101.914E+06     291.222E+03    -89.5793E-03     144.775E-03    -55.1954E-03     122.544E-03    -94.5365E-03     149.954E-03    -54.8969E-03     125.003E-03
             247     17.0252E-03     14.9356E-03    -3.26512E+06     148.772E+06     102.131E+06     1.35442E+06    -87.8437E-03     143.032E-03    -55.1884E-03     137.967E-03    -93.4756E-03     148.889E-03    -54.8888E-03     140.996E-03
             248     17.0253E-03     16.0557E-03    -3.27780E+06     150.966E+06     102.879E+06     2.27066E+06    -78.9237E-03     134.271E-03    -55.3478E-03     153.298E-03    -85.3893E-03     140.965E-03    -55.0475E-03     157.619E-03
             249     17.0291E-03     17.1072E-03    -1.38856E+06     153.117E+06     104.150E+06     543.762E+03    -71.4887E-03     126.882E-03    -55.3933E-03     148.077E-03    -77.7943E-03     133.422E-03    -55.0926E-03     153.317E-03
             250     17.0303E-03     18.1745E-03    -2.14644E+06     151.886E+06     104.032E+06    -642.027E+03    -75.8058E-03     131.007E-03    -55.2016E-03     128.788E-03    -81.2628E-03     136.694E-03    -54.8986E-03     133.455E-03
             251     17.0284E-03     19.2662E-03    -4.40201E+06     150.006E+06     102.925E+06     347.808E+03    -78.5090E-03     133.626E-03    -55.1171E-03     126.810E-03    -83.8917E-03     139.228E-03    -54.8136E-03     131.257E-03
             252     17.0321E-03     20.3537E-03    -2.34308E+06     151.109E+06     104.474E+06     49.2672E+03    -73.1528E-03     128.333E-03    -55.1798E-03     135.039E-03    -78.9042E-03     134.310E-03    -54.8731E-03     140.186E-03
             253     17.0321E-03     21.4311E-03    -1.00786E+06     150.937E+06     105.165E+06    -443.809E+03    -68.1821E-03     123.424E-03    -55.2420E-03     139.419E-03    -74.1969E-03     129.666E-03    -54.9336E-03     145.346E-03
             254     17.0328E-03     22.4980E-03    -2.75593E+06     151.160E+06     104.832E+06     1.14556E+06    -67.4083E-03     122.649E-03    -55.2402E-03     136.326E-03    -73.3516E-03     128.814E-03    -54.9312E-03     142.471E-03
             255     17.0325E-03     23.5689E-03    -3.83448E+06     153.015E+06     105.399E+06     1.22526E+06    -68.7259E-03     123.915E-03    -55.1889E-03     134.977E-03    -74.6011E-03     130.014E-03    -54.8783E-03     140.976E-03
             256     17.0337E-03     24.6494E-03    -1.40658E+06     155.106E+06     107.161E+06     511.299E+03    -66.1331E-03     121.328E-03    -55.1953E-03     138.306E-03    -72.1232E-03     127.554E-03    -54.8824E-03     144.571E-03
             257     17.0360E-03     25.7187E-03    -2.02054E+06     154.334E+06     106.621E+06    -795.995E+03    -62.4890E-03     117.727E-03    -55.2384E-03     140.432E-03    -68.6571E-03     124.127E-03    -54.9261E-03     147.288E-03
             258     17.0334E-03     26.7768E-03    -2.77445E+06     152.975E+06     106.356E+06     128.217E+03    -64.3592E-03     119.583E-03    -55.2237E-03     139.745E-03    -70.5413E-03     125.990E-03    -54.9097E-03     146.524E-03
             259     17.0341E-03     27.8606E-03    -2.51864E+06     153.963E+06     106.938E+06     985.758E+03    -62.2689E-03     117.541E-03    -55.2717E-03     141.082E-03    -68.5170E-03     124.017E-03    -54.9566E-03     148.034E-03
             260     17.0358E-03     28.9151E-03    -2.45818E+06     154.359E+06     106.759E+06     332.839E+03    -58.6622E-03     113.959E-03    -55.2966E-03     141.926E-03    -64.9319E-03     120.458E-03    -54.9831E-03     149.356E-03
             261     17.0361E-03     29.9748E-03    -2.44053E+06     155.042E+06     107.301E+06     917.967E+03    -60.9936E-03     116.198E-03    -55.2045E-03     138.049E-03    -67.0720E-03     122.507E-03    -54.8892E-03     145.193E-03
             262     17.0358E-03     31.0504E-03    -2.83097E+06     156.009E+06     107.644E+06     371.733E+03    -61.5584E-03     116.741E-03    -55.1830E-03     142.128E-03    -67.8693E-03     123.284E-03    -54.8669E-03     149.289E-03
             263     17.0369E-03     32.1171E-03    -2.75745E+06     156.349E+06     108.026E+06    -437.746E+03    -58.6434E-03     113.905E-03    -55.2615E-03     146.381E-03    -65.2258E-03     120.719E-03    -54.9440E-03     154.077E-03
             264     17.0351E-03     33.1748E-03    -3.43366E+06     155.791E+06     107.669E+06    -316.618E+03    -56.6044E-03     111.914E-03    -55.3100E-03     146.018E-03    -63.1712E-03     118.710E-03    -54.9926E-03     153.998E-03
             265     17.0378E-03     34.2347E-03    -1.79543E+06     154.772E+06     107.811E+06    -498.556E+03    -56.2657E-03     111.545E-03    -55.2797E-03     146.916E-03    -62.8152E-03     118.325E-03    -54.9625E-03     154.867E-03
             266     17.0369E-03     35.2986E-03    -2.15553E+06     154.469E+06     107.846E+06    -512.230E+03    -57.0189E-03     112.285E-03    -55.2657E-03     148.190E-03    -63.6897E-03     119.183E-03    -54.9473E-03     156.175E-03
             267     17.0357E-03     36.3597E-03    -3.88462E+06     154.080E+06     106.947E+06     212.690E+03    -56.5090E-03     111.796E-03    -55.2867E-03     148.348E-03    -63.2037E-03     118.713E-03    -54.9698E-03     156.441E-03
             268     17.0383E-03     37.4158E-03    -3.13800E+06     153.872E+06     106.850E+06    -68.2747E+03    -56.5987E-03     111.867E-03    -55.2687E-03     148.123E-03    -63.2602E-03     118.754E-03    -54.9531E-03     156.182E-03
             269     17.0353E-03     38.4820E-03    -2.76881E+06     154.768E+06     107.121E+06     851.553E+03    -56.6890E-03     111.957E-03    -55.2685E-03     148.813E-03    -63.4175E-03     118.915E-03    -54.9533E-03     156.926E-03
             270     17.0386E-03     39.5408E-03    -4.99468E+06     155.108E+06     106.748E+06    -215.468E+03    -56.2349E-03     111.533E-03    -55.2979E-03     151.279E-03    -63.1090E-03     118.630E-03    -54.9818E-03     159.586E-03
             271     17.0340E-03     40.6019E-03    -2.90089E+06     156.005E+06     108.242E+06     622.905E+03    -56.2172E-03     111.529E-03    -55.3122E-03     153.400E-03    -63.1457E-03     118.688E-03    -54.9930E-03     161.742E-03
             272     17.0394E-03     41.6652E-03    -1.13321E+06     157.447E+06     109.162E+06     1.36664E+06    -53.2195E-03     108.572E-03    -55.3523E-03     153.421E-03    -60.1069E-03     115.698E-03    -55.0331E-03     161.913E-03
             273     17.0357E-03     42.7118E-03    -3.15959E+06     156.834E+06     107.948E+06    -182.453E+03    -53.1533E-03     108.492E-03    -55.3391E-03     149.500E-03    -59.9016E-03     115.473E-03    -55.0222E-03     157.985E-03
             274     17.0382E-03     43.7692E-03    -2.89512E+06     156.621E+06     108.097E+06    -539.271E+03    -56.1912E-03     111.445E-03    -55.2536E-03     144.830E-03    -62.7244E-03     118.210E-03    -54.9360E-03     152.933E-03
             275     17.0371E-03     44.8343E-03    -2.17045E+06     156.811E+06     108.595E+06    -423.744E+03    -54.7072E-03     109.969E-03    -55.2618E-03     141.195E-03    -61.0677E-03     116.564E-03    -54.9430E-03     149.281E-03
             276     17.0386E-03     45.8835E-03    -3.08025E+06     155.544E+06     107.830E+06    -225.299E+03    -55.3030E-03     110.577E-03    -55.2742E-03     140.359E-03    -61.6181E-03     117.121E-03    -54.9561E-03     148.420E-03
             277     17.0348E-03     46.9488E-03    -3.59740E+06     154.714E+06     106.924E+06     588.865E+03    -58.2792E-03     113.513E-03    -55.2333E-03     144.379E-03    -64.7667E-03     120.227E-03    -54.9178E-03     152.212E-03
             278     17.0387E-03     48.0243E-03    -2.74626E+06     157.677E+06     108.376E+06     923.803E+03    -54.6658E-03     109.981E-03    -55.3149E-03     153.630E-03    -61.6081E-03     117.159E-03    -54.9977E-03     162.009E-03
             279     17.0363E-03     49.0732E-03    -2.51043E+06     159.582E+06     109.562E+06     172.739E+03    -50.9599E-03     106.364E-03    -55.4039E-03     156.610E-03    -58.0685E-03     113.712E-03    -55.0838E-03     165.553E-03
             280     17.0380E-03     50.1242E-03    -2.46909E+06     157.939E+06      108.76E+06    -420.874E+03    -52.6738E-03     108.015E-03    -55.3410E-03     149.979E-03    -59.4746E-03     115.052E-03    -55.0226E-03     158.631E-03
             281     17.0375E-03     51.1774E-03    -2.42817E+06     157.313E+06     108.712E+06    -1.07519E+06    -55.6663E-03     110.903E-03    -55.2370E-03     144.007E-03    -62.1383E-03     117.610E-03    -54.9180E-03     152.084E-03
             282     17.0383E-03     52.2431E-03    -1.52190E+06     157.444E+06     109.164E+06     368.636E+03    -56.4184E-03     111.650E-03    -55.2313E-03     140.905E-03    -62.7407E-03     118.209E-03    -54.9116E-03     148.819E-03
             283     17.0362E-03     53.2983E-03    -4.06769E+06     157.027E+06     107.839E+06     192.854E+03    -56.8778E-03     112.145E-03    -55.2676E-03     143.293E-03    -63.3600E-03     118.858E-03    -54.9502E-03     151.283E-03
             284     17.0363E-03     54.3682E-03    -3.39065E+06     157.585E+06     108.170E+06     342.810E+03    -54.7683E-03     110.078E-03    -55.3093E-03     146.949E-03    -61.4196E-03     116.963E-03    -54.9920E-03     155.203E-03
             285     17.0393E-03     55.4218E-03    -2.19557E+06     158.985E+06     109.028E+06     152.689E+03    -53.0263E-03     108.355E-03    -55.3291E-03     150.189E-03    -59.8281E-03     115.398E-03    -55.0113E-03     158.802E-03
             286     17.0352E-03     56.4782E-03    -4.91807E+06     158.663E+06     108.218E+06    -487.041E+03    -55.4222E-03     110.733E-03    -55.3113E-03     151.898E-03    -62.3215E-03     117.865E-03    -54.9931E-03     160.339E-03
             287     17.0376E-03     57.5493E-03    -2.37918E+06     157.940E+06     109.002E+06     704.749E+03    -52.5308E-03     107.904E-03    -55.3731E-03     154.310E-03    -59.4831E-03     115.093E-03    -55.0537E-03     162.912E-03
             288     17.0381E-03     58.5891E-03    -1.58875E+06     157.880E+06     109.259E+06     612.257E+03    -51.4050E-03     106.773E-03    -55.3680E-03     150.946E-03    -58.1968E-03     113.803E-03    -55.0483E-03     159.644E-03
             289     17.0368E-03     59.6443E-03    -3.94827E+06     157.510E+06     108.368E+06    -367.979E+03    -57.0098E-03     112.241E-03    -55.2311E-03     144.518E-03    -63.5299E-03     118.992E-03    -54.9119E-03     152.543E-03
             290     17.0379E-03     60.7153E-03    -1.67847E+06     159.342E+06     109.883E+06    -52.5579E+03    -56.9768E-03     112.199E-03    -55.2220E-03     144.878E-03    -63.4922E-03     118.956E-03    -54.9012E-03     152.795E-03
             291     17.0378E-03     61.7724E-03    -852.158E+03     161.769E+06     111.061E+06     723.752E+03    -52.7448E-03     108.070E-03    -55.3249E-03     146.212E-03    -59.3370E-03     114.911E-03    -55.0029E-03     154.674E-03
             292     851.659E-06     61.5834E-03    -47.4367E+06    -165.128E+06    -46.5196E+06    -84.9069E+03    -55.3290E-03     110.585E-03    -55.2557E-03     9.74385E-03    -55.2607E-03     109.897E-03    -55.1801E-03     9.71004E-03
             293     1.70331E-03     61.5973E-03    -46.2642E+06    -163.182E+06    -43.2466E+06    -30.9783E+03    -55.3533E-03     110.644E-03    -55.2905E-03     17.9425E-03    -55.2897E-03     109.962E-03    -55.2030E-03     17.8802E-03
             294     2.55501E-03     61.6195E-03    -44.0959E+06    -159.538E+06    -37.3988E+06    -49.7826E+03    -55.4339E-03     110.740E-03    -55.3061E-03     26.4986E-03    -55.3786E-03     110.070E-03    -55.1978E-03     26.4024E-03
             295     3.40671E-03     61.6505E-03    -41.2744E+06    -155.390E+06    -30.9152E+06    -313.346E+03    -55.5514E-03     110.873E-03    -55.3215E-03     34.9647E-03    -55.5058E-03     110.219E-03    -55.1909E-03     34.8264E-03
             296     4.25841E-03     61.6898E-03    -38.0635E+06    -150.295E+06    -23.1421E+06     120.177E+03    -55.7059E-03     111.047E-03    -55.3411E-03     43.3457E-03    -55.6751E-03     110.415E-03    -55.1837E-03     43.1685E-03
             297     5.11012E-03     61.7378E-03    -34.3674E+06    -145.674E+06    -16.0340E+06     960.165E+03    -55.9065E-03     111.265E-03    -55.3586E-03     51.5848E-03    -55.8915E-03     110.657E-03    -55.1777E-03     51.3659E-03
             298     5.96186E-03     61.7936E-03    -31.0604E+06    -142.493E+06    -11.0654E+06     547.091E+03    -56.1300E-03     111.499E-03    -55.3694E-03     59.6137E-03    -56.1339E-03     110.919E-03    -55.1731E-03     59.3275E-03
             299     6.81346E-03     61.8576E-03    -29.1111E+06    -135.828E+06    -8.47952E+06     76.6814E+03    -56.3494E-03     111.714E-03    -55.3647E-03     67.5594E-03    -56.3889E-03     111.193E-03    -55.1679E-03     67.1954E-03
             300     7.66537E-03     61.9292E-03    -27.5455E+06    -126.326E+06    -8.97249E+06     255.546E+03    -56.5893E-03     111.929E-03    -55.3396E-03     75.4120E-03    -56.6771E-03     111.496E-03    -55.1614E-03     74.9664E-03
             301     8.51698E-03     62.0091E-03    -25.5790E+06    -115.224E+06    -8.71566E+06    -72.3457E+03    -56.8074E-03     112.120E-03    -55.3130E-03     83.1446E-03    -56.9605E-03     111.799E-03    -55.1525E-03     82.5954E-03
             302     9.36888E-03     62.0960E-03    -23.8217E+06    -101.280E+06    -8.01507E+06    -38.6587E+03    -56.9860E-03     112.265E-03    -55.2792E-03     91.0895E-03    -57.2321E-03     112.090E-03    -55.1378E-03     90.4239E-03
             303     10.2210E-03     62.1916E-03    -22.4090E+06    -83.5422E+06    -8.07507E+06     468.639E+03    -57.2964E-03     112.532E-03    -55.2355E-03     98.9365E-03    -57.6733E-03     112.556E-03    -55.1222E-03     98.1362E-03
             304     11.0727E-03     62.2942E-03    -21.1554E+06    -59.4225E+06    -7.29861E+06     711.477E+03    -57.6236E-03     112.817E-03    -55.1932E-03     106.945E-03    -58.1910E-03     113.119E-03    -55.1128E-03     105.978E-03
             305     11.9240E-03     62.4065E-03    -20.1448E+06    -28.6618E+06    -7.89660E+06     258.012E+03    -57.7436E-03     112.874E-03    -55.1302E-03     117.518E-03    -58.6009E-03     113.581E-03    -55.0989E-03     116.342E-03
             306     12.7770E-03     62.5307E-03    -20.2276E+06     21.5359E+06    -12.5911E+06    -18.4615E+03    -58.2795E-03     113.288E-03    -55.0083E-03     135.481E-03    -59.7104E-03     114.760E-03    -55.0732E-03     134.003E-03
             307     13.6283E-03     62.6782E-03    -19.8687E+06     70.0340E+06      1.4533E+06     1.15157E+06    -61.6897E-03     116.676E-03    -54.9867E-03     184.567E-03    -64.6501E-03     119.811E-03    -55.0522E-03     182.585E-03
             308     14.4802E-03     62.9010E-03    -17.7947E+06     107.591E+06     44.6437E+06     1.33729E+06    -70.1153E-03     125.244E-03    -55.1282E-03     285.564E-03    -78.6195E-03     133.937E-03    -55.0352E-03     282.683E-03
             309     15.3353E-03     63.2591E-03    -12.8817E+06     150.255E+06     93.4645E+06    -379.504E+03    -78.6077E-03     133.876E-03    -55.2683E-03     399.600E-03    -100.964E-03     156.449E-03    -55.0002E-03     398.449E-03
             310     16.1864E-03     63.7318E-03    -6.40371E+06     164.255E+06     112.213E+06    -1.05408E+06    -68.5318E-03     123.835E-03    -55.3029E-03     295.553E-03    -87.6109E-03     143.149E-03    -54.9707E-03     300.138E-03
             311     851.652E-06     62.6419E-03    -47.4866E+06    -165.203E+06    -46.5076E+06     94.8260E+03    -55.3109E-03     110.573E-03    -55.2619E-03     9.77345E-03    -55.2427E-03     109.885E-03    -55.1860E-03     9.74206E-03
             312     1.70337E-03     62.6556E-03    -46.1737E+06    -162.952E+06    -42.8190E+06    -92.5969E+03    -55.3601E-03     110.649E-03    -55.2888E-03     17.9360E-03    -55.2970E-03     109.968E-03    -55.1997E-03     17.8727E-03
             313     2.55500E-03     62.6780E-03    -44.0818E+06    -159.214E+06    -36.8482E+06    -393.224E+03    -55.4436E-03     110.753E-03    -55.3094E-03     26.4657E-03    -55.3896E-03     110.084E-03    -55.1989E-03     26.3648E-03
             314     3.40669E-03     62.7088E-03    -41.6279E+06    -155.265E+06    -30.4981E+06    -315.871E+03    -55.5595E-03     110.887E-03    -55.3276E-03     34.9579E-03    -55.5166E-03     110.234E-03    -55.1946E-03     34.8195E-03
             315     4.25834E-03     62.7484E-03    -39.1738E+06    -151.317E+06    -24.1019E+06     70.6259E+03    -55.7066E-03     111.050E-03    -55.3438E-03     43.3652E-03    -55.6786E-03     110.416E-03    -55.1881E-03     43.1872E-03
             316     5.11009E-03     62.7960E-03    -36.1950E+06    -145.796E+06    -18.8744E+06    -11.8550E+03    -55.8801E-03     111.229E-03    -55.3494E-03     51.6444E-03    -55.8698E-03     110.628E-03    -55.1798E-03     51.4134E-03
             317     5.96177E-03     62.8522E-03    -32.8328E+06    -142.303E+06    -13.4647E+06     149.065E+03    -56.1001E-03     111.458E-03    -55.3581E-03     59.6588E-03    -56.1096E-03     110.885E-03    -55.1714E-03     59.3680E-03
             318     6.81367E-03     62.9158E-03    -29.7786E+06    -136.293E+06    -8.79986E+06     765.371E+03    -56.3461E-03     111.708E-03    -55.3615E-03     67.5724E-03    -56.3878E-03     111.185E-03    -55.1647E-03     67.2174E-03
             319     7.66521E-03     62.9880E-03    -27.3888E+06    -125.806E+06    -8.49361E+06     465.447E+03    -56.5647E-03     111.902E-03    -55.3368E-03     75.3898E-03    -56.6533E-03     111.471E-03    -55.1572E-03     74.9469E-03
             320     8.51720E-03     63.0672E-03    -25.7153E+06    -114.859E+06    -8.35443E+06    -79.6785E+03    -56.7697E-03     112.078E-03    -55.3080E-03     83.0725E-03    -56.9245E-03     111.758E-03    -55.1459E-03     82.5233E-03
             321     9.36901E-03     63.1546E-03    -24.5192E+06    -101.578E+06    -7.97917E+06     61.1801E+03    -57.1058E-03     112.385E-03    -55.2791E-03     90.8894E-03    -57.3557E-03     112.210E-03    -55.1361E-03     90.2221E-03
             322     10.2208E-03     63.2495E-03    -23.6334E+06    -83.8912E+06    -8.22500E+06     481.161E+03    -57.4396E-03     112.687E-03    -55.2477E-03     98.7241E-03    -57.8229E-03     112.713E-03    -55.1329E-03     97.9199E-03
             323     11.0722E-03     63.3537E-03    -22.3615E+06    -59.5442E+06    -7.64818E+06     294.728E+03    -57.5421E-03     112.749E-03    -55.2068E-03     106.980E-03    -58.1148E-03     113.053E-03    -55.1263E-03     106.009E-03
             324     11.9244E-03     63.4642E-03    -21.4444E+06    -28.6159E+06    -8.46552E+06     146.426E+03    -57.6977E-03     112.834E-03    -55.1368E-03     117.803E-03    -58.5628E-03     113.546E-03    -55.1065E-03     116.625E-03
             325     12.7761E-03     63.5886E-03    -20.6254E+06     21.5525E+06    -12.9600E+06     697.988E+03    -58.3213E-03     113.334E-03    -55.0132E-03     135.658E-03    -59.7534E-03     114.807E-03    -55.0793E-03     134.187E-03
             326     13.6295E-03     63.7362E-03    -19.6993E+06     68.7677E+06     393.179E+03     1.30201E+06    -61.6541E-03     116.644E-03    -54.9898E-03     184.235E-03    -64.6091E-03     119.772E-03    -55.0590E-03     182.251E-03
             327     14.4815E-03     63.9609E-03    -16.7771E+06     108.341E+06     44.4165E+06     960.498E+03    -69.8567E-03     124.990E-03    -55.1330E-03     283.462E-03    -78.3002E-03     133.629E-03    -55.0437E-03     280.612E-03
             328     15.3316E-03     64.3142E-03    -10.6077E+06     151.926E+06     94.4990E+06    -427.624E+03    -78.1724E-03     133.445E-03    -55.2728E-03     397.496E-03    -100.331E-03     155.831E-03    -55.0053E-03     396.405E-03
             329     16.1856E-03     64.7907E-03    -5.41630E+06     163.978E+06     112.653E+06    -190.834E+03    -68.5672E-03     123.869E-03    -55.3018E-03     296.782E-03    -87.5609E-03     143.099E-03    -54.9684E-03     301.400E-03
             330     851.718E-06     63.7002E-03    -47.3078E+06    -165.189E+06    -46.3921E+06     99.2064E+03    -55.3388E-03     110.600E-03    -55.2607E-03     9.77489E-03    -55.2699E-03     109.911E-03    -55.1846E-03     9.74334E-03
             331     1.70327E-03     63.7141E-03    -46.0474E+06    -162.733E+06    -42.4286E+06     48.5014E+03    -55.3661E-03     110.668E-03    -55.3019E-03     17.9025E-03    -55.3033E-03     109.987E-03    -55.2113E-03     17.8409E-03
             332     2.55498E-03     63.7363E-03    -44.3112E+06    -158.934E+06    -36.2601E+06     5.17227E+03    -55.4333E-03     110.753E-03    -55.3200E-03     26.4690E-03    -55.3816E-03     110.085E-03    -55.2066E-03     26.3734E-03
             333     3.40664E-03     63.7674E-03    -41.9846E+06    -155.465E+06    -30.7240E+06    -9.49842E+03    -55.5486E-03     110.879E-03    -55.3307E-03     34.9713E-03    -55.5068E-03     110.226E-03    -55.1980E-03     34.8368E-03
             334     4.25841E-03     63.8067E-03    -38.7492E+06    -151.386E+06    -24.5017E+06    -141.826E+03    -55.7038E-03     111.046E-03    -55.3423E-03     43.3929E-03    -55.6730E-03     110.411E-03    -55.1891E-03     43.2122E-03
             335     5.11008E-03     63.8546E-03    -35.5902E+06    -145.496E+06    -18.6035E+06    -203.647E+03    -55.8840E-03     111.234E-03    -55.3498E-03     51.6285E-03    -55.8716E-03     110.633E-03    -55.1803E-03     51.3950E-03
             336     5.96195E-03     63.9104E-03    -32.9027E+06    -142.763E+06    -13.8448E+06    -178.703E+03    -56.0958E-03     111.453E-03    -55.3572E-03     59.6269E-03    -56.1044E-03     110.878E-03    -55.1717E-03     59.3318E-03
             337     6.81348E-03     63.9746E-03    -29.8149E+06    -137.052E+06    -9.24328E+06     96.3427E+03    -56.3293E-03     111.689E-03    -55.3594E-03     67.5494E-03    -56.3694E-03     111.163E-03    -55.1637E-03     67.1858E-03
             338     7.66546E-03     64.0461E-03    -27.1205E+06    -125.549E+06    -7.66559E+06     680.680E+03    -56.5776E-03     111.917E-03    -55.3392E-03     75.2997E-03    -56.6665E-03     111.486E-03    -55.1561E-03     74.8589E-03
             339     8.51707E-03     64.1258E-03    -25.7805E+06    -114.709E+06     -7.2516E+06     858.351E+03    -56.8621E-03     112.180E-03    -55.3183E-03     82.8604E-03    -57.0195E-03     111.860E-03    -55.1508E-03     82.3211E-03
             340     9.36895E-03     64.2127E-03    -25.1370E+06    -101.895E+06    -7.49065E+06     899.341E+03    -57.2225E-03     112.520E-03    -55.2975E-03     90.9044E-03    -57.4765E-03     112.345E-03    -55.1508E-03     90.2456E-03
             341     10.2201E-03     64.3090E-03    -23.8139E+06    -83.8030E+06    -8.01273E+06     467.816E+03    -57.3377E-03     112.601E-03    -55.2634E-03     98.7774E-03    -57.7218E-03     112.626E-03    -55.1474E-03     97.9751E-03
             342     11.0725E-03     64.4108E-03    -22.6733E+06    -59.5989E+06    -7.80947E+06     142.037E+03    -57.3458E-03     112.554E-03    -55.2085E-03     106.988E-03    -57.9188E-03     112.858E-03    -55.1282E-03     106.019E-03
             343     11.9248E-03     64.5231E-03    -21.2328E+06    -28.3755E+06    -8.31023E+06     335.774E+03    -57.7446E-03     112.878E-03    -55.1334E-03     117.613E-03    -58.6074E-03     113.589E-03    -55.1030E-03     116.438E-03
             344     12.7770E-03     64.6469E-03    -20.2784E+06     20.5309E+06    -13.1722E+06     595.369E+03    -58.7634E-03     113.790E-03    -55.0262E-03     135.620E-03    -60.2015E-03     115.267E-03    -55.0924E-03     134.131E-03
             345     13.6273E-03     64.7950E-03    -19.1376E+06     67.8545E+06     810.047E+03     718.377E+03    -61.9093E-03     116.937E-03    -55.0274E-03     184.239E-03    -64.8732E-03     120.071E-03    -55.0939E-03     182.238E-03
             346     14.4786E-03     65.0188E-03    -14.6600E+06     109.800E+06     46.1580E+06     18.6248E+03    -69.9678E-03     125.147E-03    -55.1795E-03     283.632E-03    -78.4140E-03     133.797E-03    -55.0866E-03     280.754E-03
             347     15.3326E-03     65.3731E-03    -9.17557E+06     152.221E+06     95.0623E+06     180.886E+03    -78.4897E-03     133.817E-03    -55.3270E-03     396.623E-03    -100.511E-03     156.070E-03    -55.0591E-03     395.469E-03
             348     16.1863E-03     65.8462E-03    -5.28233E+06     164.127E+06     112.831E+06     1.17414E+06    -68.1718E-03     123.530E-03    -55.3579E-03     297.629E-03    -87.1413E-03     142.736E-03    -55.0240E-03     302.331E-03
             349     851.558E-06     64.7588E-03    -47.2566E+06    -165.209E+06    -46.3938E+06     55.5594E+03    -55.3422E-03     110.636E-03    -55.2940E-03     9.80095E-03    -55.2729E-03     109.947E-03    -55.2179E-03     9.76885E-03
             350     1.70331E-03     64.7724E-03    -46.0571E+06    -162.935E+06    -42.7447E+06     245.852E+03    -55.3509E-03     110.663E-03    -55.3119E-03     17.9236E-03    -55.2873E-03     109.981E-03    -55.2226E-03     17.8647E-03
             351     2.55496E-03     64.7948E-03    -43.9897E+06    -159.052E+06    -36.6223E+06     455.684E+03    -55.4279E-03     110.748E-03    -55.3205E-03     26.4860E-03    -55.3740E-03     110.080E-03    -55.2092E-03     26.3963E-03
             352     3.40671E-03     64.8257E-03    -41.4181E+06    -155.070E+06    -30.3603E+06     161.749E+03    -55.5548E-03     110.887E-03    -55.3324E-03     34.9685E-03    -55.5113E-03     110.234E-03    -55.1993E-03     34.8362E-03
             353     4.25833E-03     64.8652E-03    -38.7235E+06    -150.690E+06    -23.4229E+06    -523.422E+03    -55.7078E-03     111.057E-03    -55.3488E-03     43.3689E-03    -55.6794E-03     110.424E-03    -55.1913E-03     43.1832E-03
             354     5.11013E-03     64.9129E-03    -35.2867E+06    -145.812E+06    -16.5153E+06    -608.096E+03    -55.8924E-03     111.256E-03    -55.3635E-03     51.6220E-03    -55.8811E-03     110.650E-03    -55.1835E-03     51.3831E-03
             355     5.96165E-03     64.9690E-03    -31.8943E+06    -143.061E+06    -12.1848E+06    -89.3924E+03    -56.1069E-03     111.475E-03    -55.3686E-03     59.6156E-03    -56.1125E-03     110.895E-03    -55.1758E-03     59.3215E-03
             356     6.81368E-03     65.0327E-03    -29.8955E+06    -137.498E+06    -9.41889E+06     296.350E+03    -56.3458E-03     111.710E-03    -55.3644E-03     67.5233E-03    -56.3855E-03     111.183E-03    -55.1688E-03     67.1620E-03
             357     7.66521E-03     65.1048E-03    -28.1455E+06    -126.454E+06    -8.08918E+06     796.503E+03    -56.6157E-03     111.963E-03    -55.3477E-03     75.2429E-03    -56.7078E-03     111.530E-03    -55.1640E-03     74.8032E-03
             358     8.51702E-03     65.1841E-03    -26.1315E+06    -115.155E+06    -6.76030E+06     1.57623E+06    -56.9395E-03     112.274E-03    -55.3347E-03     82.9845E-03    -57.0991E-03     111.952E-03    -55.1637E-03     82.4534E-03
             359     9.36832E-03     65.2717E-03    -24.2128E+06    -101.536E+06    -6.66483E+06     1.41786E+06    -57.1126E-03     112.422E-03    -55.3097E-03     91.0629E-03    -57.3632E-03     112.246E-03    -55.1607E-03     90.4131E-03
             360     10.2208E-03     65.3670E-03    -22.8264E+06    -83.3254E+06    -7.79477E+06     577.131E+03    -57.2357E-03     112.498E-03    -55.2620E-03     98.7298E-03    -57.6153E-03     112.523E-03    -55.1470E-03     97.9310E-03
             361     11.0726E-03     65.4693E-03    -21.6181E+06    -59.2186E+06    -7.06619E+06     435.276E+03    -57.5798E-03     112.794E-03    -55.2147E-03     106.757E-03    -58.1503E-03     113.098E-03    -55.1328E-03     105.787E-03
             362     11.9241E-03     65.5813E-03    -20.8647E+06    -28.8462E+06    -8.13674E+06     451.655E+03    -57.9583E-03     113.114E-03    -55.1559E-03     117.239E-03    -58.8202E-03     113.823E-03    -55.1245E-03     116.059E-03
             363     12.7758E-03     65.7052E-03    -20.6410E+06     19.7332E+06    -13.6160E+06     262.509E+03    -58.8029E-03     113.857E-03    -55.0543E-03     135.935E-03    -60.2435E-03     115.334E-03    -55.1210E-03     134.440E-03
             364     13.6280E-03     65.8554E-03    -18.6402E+06     69.2151E+06     793.384E+03    -579.976E+03    -61.8217E-03     116.871E-03    -55.0495E-03     184.333E-03    -64.7837E-03     120.010E-03    -55.1188E-03     182.322E-03
             365     14.4809E-03     66.0762E-03    -15.6066E+06     109.620E+06     45.3925E+06    -1.19493E+06    -70.2100E-03     125.415E-03    -55.2048E-03     283.633E-03    -78.6778E-03     134.085E-03    -55.1142E-03     280.703E-03
             366     15.3313E-03     66.4334E-03    -11.9686E+06     149.729E+06     93.4503E+06     151.784E+03    -79.1893E-03     134.574E-03    -55.3851E-03     395.576E-03    -101.196E-03     156.799E-03    -55.1176E-03     394.299E-03
             367     16.1806E-03     66.9015E-03    -5.92595E+06     164.450E+06     112.758E+06     1.18954E+06    -67.2510E-03     122.673E-03    -55.4223E-03     297.463E-03    -86.2397E-03     141.898E-03    -55.0883E-03     302.219E-03
             368     851.682E-06     65.8171E-03    -47.5404E+06    -165.418E+06    -46.6644E+06    -6.28270E+03    -55.3411E-03     110.624E-03    -55.2827E-03     9.78451E-03    -55.2726E-03     109.935E-03    -55.2072E-03     9.75142E-03
             369     1.70328E-03     65.8309E-03    -46.0929E+06    -163.166E+06    -43.1165E+06     67.9216E+03    -55.3562E-03     110.663E-03    -55.3069E-03     17.9227E-03    -55.2920E-03     109.981E-03    -55.2191E-03     17.8615E-03
             370     2.55501E-03     65.8532E-03    -43.7738E+06    -159.250E+06    -36.9475E+06     103.237E+03    -55.4392E-03     110.758E-03    -55.3190E-03     26.4804E-03    -55.3835E-03     110.089E-03    -55.2094E-03     26.3860E-03
             371     3.40662E-03     65.8842E-03    -41.0207E+06    -154.835E+06    -30.0386E+06     235.266E+03    -55.5624E-03     110.898E-03    -55.3353E-03     34.9822E-03    -55.5177E-03     110.245E-03    -55.2015E-03     34.8509E-03
             372     4.25838E-03     65.9236E-03    -38.2732E+06    -149.739E+06    -22.2119E+06         446.967    -55.7160E-03     111.072E-03    -55.3560E-03     43.3899E-03    -55.6885E-03     110.441E-03    -55.1945E-03     43.2109E-03
             373     5.10999E-03     65.9714E-03    -35.9637E+06    -145.815E+06    -16.3073E+06    -411.652E+03    -55.8835E-03     111.252E-03    -55.3685E-03     51.6349E-03    -55.8758E-03     110.646E-03    -55.1865E-03     51.3987E-03
             374     5.96196E-03     66.0274E-03    -33.7976E+06    -144.271E+06    -12.9677E+06     217.862E+03    -56.1225E-03     111.495E-03    -55.3727E-03     59.6423E-03    -56.1347E-03     110.913E-03    -55.1793E-03     59.3521E-03
             375     6.81336E-03     66.0913E-03    -31.1753E+06    -137.613E+06    -9.47067E+06     901.679E+03    -56.3778E-03     111.751E-03    -55.3728E-03     67.5486E-03    -56.4236E-03     111.225E-03    -55.1754E-03     67.1951E-03
             376     7.66523E-03     66.1633E-03    -28.6658E+06    -127.129E+06    -8.54384E+06     855.547E+03    -56.6161E-03     111.971E-03    -55.3551E-03     75.3616E-03    -56.7092E-03     111.536E-03    -55.1719E-03     74.9230E-03
             377     8.51685E-03     66.2427E-03    -26.1071E+06    -115.935E+06    -7.63509E+06     930.484E+03    -56.8586E-03     112.192E-03    -55.3339E-03     83.2045E-03    -57.0153E-03     111.867E-03    -55.1661E-03     82.6672E-03
             378     9.36892E-03     66.3304E-03    -23.6036E+06    -100.949E+06    -6.81129E+06     913.373E+03    -57.0943E-03     112.399E-03    -55.3043E-03     90.9477E-03    -57.3421E-03     112.224E-03    -55.1578E-03     90.2920E-03
             379     10.2205E-03     66.4247E-03    -21.8798E+06    -82.9958E+06    -7.36927E+06     808.180E+03    -57.3625E-03     112.627E-03    -55.2642E-03     98.5894E-03    -57.7389E-03     112.652E-03    -55.1490E-03     97.7911E-03
             380     11.0721E-03     66.5287E-03    -20.9448E+06    -59.3266E+06    -6.80324E+06     888.126E+03    -57.6893E-03     112.915E-03    -55.2256E-03     106.988E-03    -58.2570E-03     113.217E-03    -55.1432E-03     106.022E-03
             381     11.9238E-03     66.6394E-03    -20.3536E+06    -28.6760E+06    -7.65852E+06     826.726E+03    -58.1912E-03     113.368E-03    -55.1772E-03     117.770E-03    -59.0561E-03     114.082E-03    -55.1444E-03     116.588E-03
             382     12.7756E-03     66.7644E-03    -19.2737E+06     21.0917E+06    -12.3180E+06     412.607E+03    -58.8443E-03     113.927E-03    -55.0830E-03     136.221E-03    -60.2812E-03     115.406E-03    -55.1472E-03     134.729E-03
             383     13.6275E-03     66.9130E-03    -19.1183E+06     70.6582E+06     1.88736E+06    -563.716E+03    -61.8049E-03     116.884E-03    -55.0790E-03     183.982E-03    -64.7582E-03     120.015E-03    -55.1443E-03     181.972E-03
             384     14.4781E-03     67.1355E-03    -18.6182E+06     108.792E+06     44.6242E+06    -1.05677E+06    -70.1408E-03     125.368E-03    -55.2268E-03     284.051E-03    -78.6338E-03     134.051E-03    -55.1344E-03     281.152E-03
             385     15.3300E-03     67.4924E-03    -14.2370E+06     147.888E+06     91.7458E+06     53.5081E+03    -78.5825E-03     133.945E-03    -55.3629E-03     398.992E-03    -100.731E-03     156.303E-03    -55.0979E-03     397.861E-03
             386     16.1836E-03     67.9631E-03    -6.35535E+06     164.159E+06     112.395E+06     -58.676E+03    -67.1578E-03     122.510E-03    -55.3521E-03     299.094E-03    -86.2012E-03     141.788E-03    -55.0189E-03     303.923E-03
             387     851.629E-06     66.8755E-03    -47.4623E+06    -165.384E+06    -46.6188E+06    -53.0925E+03    -55.3467E-03     110.606E-03    -55.2591E-03     9.74125E-03    -55.2779E-03     109.917E-03    -55.1836E-03     9.70768E-03
             388     1.70332E-03     66.8894E-03    -46.1795E+06    -163.080E+06    -42.8195E+06    -174.900E+03    -55.3684E-03     110.672E-03    -55.3038E-03     17.9208E-03    -55.3051E-03     109.990E-03    -55.2145E-03     17.8564E-03
             389     2.55493E-03     66.9116E-03    -44.0687E+06    -159.235E+06    -36.7009E+06    -262.123E+03    -55.4434E-03     110.765E-03    -55.3214E-03     26.4979E-03    -55.3895E-03     110.096E-03    -55.2101E-03     26.3988E-03
             390     3.40669E-03     66.9426E-03    -41.1597E+06    -155.117E+06    -30.4826E+06    -146.197E+03    -55.5605E-03     110.895E-03    -55.3347E-03     35.0088E-03    -55.5154E-03     110.242E-03    -55.2025E-03     34.8726E-03
             391     4.25833E-03     66.9820E-03    -38.0272E+06    -149.810E+06    -22.3565E+06     365.270E+03    -55.7107E-03     111.066E-03    -55.3550E-03     43.4101E-03    -55.6817E-03     110.435E-03    -55.1944E-03     43.2360E-03
             392     5.11012E-03     67.0300E-03    -35.4146E+06    -146.154E+06    -16.0349E+06     1.11277E+06    -55.9044E-03     111.275E-03    -55.3703E-03     51.6037E-03    -55.8939E-03     110.666E-03    -55.1872E-03     51.3868E-03
             393     5.96164E-03     67.0857E-03    -33.2037E+06    -144.649E+06    -13.0415E+06     1.06184E+06    -56.1303E-03     111.505E-03    -55.3742E-03     59.6792E-03    -56.1389E-03     110.920E-03    -55.1815E-03     59.4001E-03
             394     6.81355E-03     67.1501E-03    -30.4588E+06    -137.572E+06    -9.81834E+06     473.695E+03    -56.3576E-03     111.728E-03    -55.3705E-03     67.6380E-03    -56.3993E-03     111.202E-03    -55.1759E-03     67.2797E-03
             395     7.66518E-03     67.2214E-03    -27.4237E+06    -127.297E+06    -8.69192E+06     495.872E+03    -56.5987E-03     111.949E-03    -55.3501E-03     75.4627E-03    -56.6851E-03     111.511E-03    -55.1692E-03     75.0200E-03
             396     8.51703E-03     67.3016E-03    -25.2747E+06    -115.925E+06    -7.97059E+06     444.046E+03    -56.8396E-03     112.166E-03    -55.3260E-03     83.1750E-03    -56.9913E-03     111.839E-03    -55.1612E-03     82.6322E-03
             397     9.36874E-03     67.3882E-03    -23.6685E+06    -101.182E+06    -7.19923E+06     490.036E+03    -57.1214E-03     112.420E-03    -55.2983E-03     90.9924E-03    -57.3684E-03     112.244E-03    -55.1533E-03     90.3318E-03
             398     10.2203E-03     67.4844E-03    -22.3331E+06    -83.1927E+06    -7.49674E+06     844.204E+03    -57.3809E-03     112.642E-03    -55.2615E-03     98.8829E-03    -57.7590E-03     112.668E-03    -55.1460E-03     98.0860E-03
             399     11.0724E-03     67.5859E-03    -21.3835E+06    -59.7829E+06    -7.35476E+06     999.433E+03    -57.6624E-03     112.882E-03    -55.2197E-03     107.397E-03    -58.2313E-03     113.184E-03    -55.1388E-03     106.433E-03
             400     11.9243E-03     67.6994E-03    -20.0316E+06    -28.0718E+06    -7.46611E+06     978.213E+03    -58.1315E-03     113.299E-03    -55.1675E-03     118.345E-03    -58.9949E-03     114.013E-03    -55.1350E-03     117.170E-03
             401     12.7754E-03     67.8229E-03    -19.7175E+06     22.1580E+06    -11.8047E+06     685.624E+03    -58.8908E-03     113.963E-03    -55.0724E-03     136.956E-03    -60.3373E-03     115.453E-03    -55.1350E-03     135.467E-03
             402     13.6270E-03     67.9722E-03    -19.4768E+06     70.7772E+06     1.82236E+06     607.479E+03    -61.6631E-03     116.721E-03    -55.0578E-03     185.747E-03    -64.6326E-03     119.867E-03    -55.1231E-03     183.763E-03
             403     14.4795E-03     68.1949E-03    -16.9210E+06     109.602E+06     45.8138E+06     967.677E+03    -69.4410E-03     124.611E-03    -55.1705E-03     286.210E-03    -77.9393E-03     133.306E-03    -55.0758E-03     283.424E-03
             404     15.3341E-03     68.5499E-03    -12.6942E+06     148.720E+06     92.9510E+06     481.764E+03    -77.4668E-03     132.716E-03    -55.2494E-03     399.400E-03    -99.5558E-03     155.019E-03    -54.9819E-03     398.394E-03
             405     16.1900E-03     69.0222E-03    -5.62436E+06     163.802E+06     112.257E+06    -988.745E+03    -68.0897E-03     123.327E-03    -55.2369E-03     297.380E-03    -87.0104E-03     142.483E-03    -54.9050E-03     302.057E-03
             406     851.672E-06     67.9341E-03    -47.3517E+06    -165.294E+06    -46.3092E+06     35.1049E+03    -55.3268E-03     110.595E-03    -55.2685E-03     9.77340E-03    -55.2581E-03     109.906E-03    -55.1917E-03     9.74124E-03
             407     1.70330E-03     67.9476E-03    -46.1267E+06    -162.914E+06    -42.4613E+06    -37.8706E+03    -55.3661E-03     110.666E-03    -55.3002E-03     17.9390E-03    -55.3034E-03     109.985E-03    -55.2094E-03     17.8763E-03
             408     2.55500E-03     67.9701E-03    -44.1684E+06    -158.988E+06    -36.2326E+06    -113.352E+03    -55.4475E-03     110.768E-03    -55.3206E-03     26.5049E-03    -55.3951E-03     110.100E-03    -55.2072E-03     26.4078E-03
             409     3.40663E-03     68.0009E-03    -41.8685E+06    -155.231E+06    -30.2088E+06    -182.782E+03    -55.5613E-03     110.898E-03    -55.3364E-03     35.0123E-03    -55.5200E-03     110.244E-03    -55.2017E-03     34.8756E-03
             410     4.25837E-03     68.0406E-03    -39.1866E+06    -151.093E+06    -23.5018E+06     427.771E+03    -55.7040E-03     111.056E-03    -55.3522E-03     43.4077E-03    -55.6772E-03     110.422E-03    -55.1938E-03     43.2345E-03
             411     5.11004E-03     68.0882E-03     -35.679E+06    -147.118E+06    -17.2595E+06     1.22026E+06    -55.8934E-03     111.257E-03    -55.3639E-03     51.6571E-03    -55.8810E-03     110.646E-03    -55.1851E-03     51.4420E-03
             412     5.96184E-03     68.1445E-03    -31.8201E+06    -143.764E+06    -12.6312E+06     921.153E+03    -56.1060E-03     111.474E-03    -55.3680E-03     59.7478E-03    -56.1095E-03     110.891E-03    -55.1765E-03     59.4674E-03
             413     6.81352E-03     68.2080E-03    -28.8087E+06    -137.172E+06    -9.53685E+06     282.019E+03    -56.3294E-03     111.690E-03    -55.3602E-03     67.7208E-03    -56.3637E-03     111.162E-03    -55.1672E-03     67.3607E-03
             414     7.66530E-03     68.2804E-03    -26.9139E+06    -127.745E+06    -8.95096E+06     337.298E+03    -56.5801E-03     111.917E-03    -55.3374E-03     75.5175E-03    -56.6627E-03     111.477E-03    -55.1579E-03     75.0736E-03
             415     8.51706E-03     68.3594E-03    -25.3299E+06    -115.746E+06    -7.78951E+06     689.401E+03    -56.8170E-03     112.131E-03    -55.3139E-03     83.3289E-03    -56.9694E-03     111.805E-03    -55.1483E-03     82.7904E-03
             416     9.36870E-03     68.4475E-03    -24.0312E+06    -101.537E+06    -7.34242E+06     703.416E+03    -57.0004E-03     112.280E-03    -55.2796E-03     91.2803E-03    -57.2478E-03     112.103E-03    -55.1343E-03     90.6258E-03
             417     10.2211E-03     68.5417E-03    -22.9207E+06    -83.6987E+06    -7.68612E+06     806.453E+03    -57.3452E-03     112.582E-03    -55.2367E-03     99.2612E-03    -57.7255E-03     112.606E-03    -55.1205E-03     98.4653E-03
             418     11.0724E-03     68.6458E-03    -21.5651E+06    -59.3672E+06    -6.94320E+06     851.904E+03    -57.7037E-03     112.901E-03    -55.1969E-03     107.636E-03    -58.2762E-03     113.206E-03    -55.1142E-03     106.669E-03
             419     11.9240E-03     68.7568E-03    -20.8134E+06    -28.8653E+06    -8.08470E+06     936.588E+03    -57.8143E-03     112.948E-03    -55.1335E-03     118.630E-03    -58.6778E-03     113.658E-03    -55.1019E-03     117.463E-03
             420     12.7769E-03     68.8825E-03    -20.4734E+06     22.0275E+06    -12.3650E+06     1.12093E+06    -58.4961E-03     113.510E-03    -55.0139E-03     137.705E-03    -59.9448E-03     115.000E-03    -55.0779E-03     136.237E-03
             421     13.6289E-03     69.0307E-03    -19.2451E+06     71.8381E+06     2.31189E+06     786.859E+03    -61.1198E-03     116.096E-03    -54.9760E-03     185.292E-03    -64.0776E-03     119.234E-03    -55.0407E-03     183.341E-03
             422     14.4826E-03     69.2522E-03    -16.2399E+06     109.376E+06     45.3465E+06     426.941E+03    -69.0933E-03     124.162E-03    -55.0683E-03     285.158E-03    -77.5392E-03     132.807E-03    -54.9766E-03     282.360E-03
             423     15.3345E-03     69.6085E-03    -11.1993E+06     149.637E+06     93.4584E+06    -36.8621E+03    -78.8818E-03     134.085E-03    -55.2028E-03     396.541E-03    -100.935E-03     156.358E-03    -54.9362E-03     395.271E-03
             424     16.1853E-03     70.0756E-03    -5.16637E+06     164.415E+06     112.872E+06    -8.82763E+03    -68.6126E-03     123.893E-03    -55.2801E-03     294.655E-03    -87.5474E-03     143.066E-03    -54.9466E-03     299.177E-03
             425     851.668E-06     68.9923E-03    -47.4375E+06    -165.398E+06    -46.3717E+06     128.699E+03    -55.3103E-03     110.588E-03    -55.2778E-03     9.76485E-03    -55.2417E-03     109.899E-03    -55.2011E-03     9.73382E-03
             426     1.70333E-03     69.0063E-03    -46.1242E+06    -162.974E+06    -42.4946E+06     235.142E+03    -55.3608E-03     110.657E-03    -55.2962E-03     17.9391E-03    -55.2979E-03     109.975E-03    -55.2055E-03     17.8802E-03
             427     2.55497E-03     69.0284E-03    -44.3190E+06    -159.152E+06    -36.2554E+06     467.114E+03    -55.4399E-03     110.756E-03    -55.3162E-03     26.5019E-03    -55.3880E-03     110.087E-03    -55.2025E-03     26.4123E-03
             428     3.40667E-03     69.0596E-03    -42.2247E+06    -155.347E+06    -29.9748E+06     739.119E+03    -55.5487E-03     110.881E-03    -55.3325E-03     35.0320E-03    -55.5094E-03     110.227E-03    -55.1959E-03     34.9075E-03
             429     4.25835E-03     69.0987E-03    -39.5829E+06    -151.511E+06    -24.0130E+06     486.340E+03    -55.6896E-03     111.033E-03    -55.3435E-03     43.4667E-03    -55.6634E-03     110.398E-03    -55.1865E-03     43.2946E-03
             430     5.11010E-03     69.1469E-03    -35.8995E+06    -147.202E+06    -17.9561E+06    -106.071E+03    -55.8548E-03     111.205E-03    -55.3503E-03     51.7408E-03    -55.8423E-03     110.595E-03    -55.1746E-03     51.5093E-03
             431     5.96188E-03     69.2025E-03    -32.2820E+06    -143.848E+06    -12.6591E+06     101.808E+03    -56.0638E-03     111.417E-03    -55.3537E-03     59.8047E-03    -56.0693E-03     110.834E-03    -55.1616E-03     59.5145E-03
             432     6.81364E-03     69.2669E-03    -29.8473E+06    -137.379E+06    -9.42915E+06     724.886E+03    -56.2905E-03     111.635E-03    -55.3444E-03     67.7915E-03    -56.3297E-03     111.108E-03    -55.1491E-03     67.4380E-03
             433     7.66549E-03     69.3383E-03    -28.0225E+06    -127.863E+06    -8.87752E+06     766.962E+03    -56.5161E-03     111.834E-03    -55.3179E-03     75.6377E-03    -56.6040E-03     111.394E-03    -55.1363E-03     75.2007E-03
             434     8.51723E-03     69.4185E-03    -26.2144E+06    -116.030E+06    -7.97887E+06     667.809E+03    -56.6886E-03     111.974E-03    -55.2857E-03     83.3990E-03    -56.8442E-03     111.648E-03    -55.1194E-03     82.8625E-03
             435     9.36954E-03     69.5049E-03    -24.2751E+06    -101.475E+06    -7.11184E+06     762.302E+03    -56.9624E-03     112.209E-03    -55.2470E-03     91.3045E-03    -57.2114E-03     112.033E-03    -55.1002E-03     90.6513E-03
             436     10.2210E-03     69.6008E-03    -22.7148E+06    -83.7214E+06    -7.21405E+06     766.381E+03    -57.3469E-03     112.553E-03    -55.2057E-03     99.4162E-03    -57.7272E-03     112.576E-03    -55.0875E-03     98.6198E-03
             437     11.0731E-03     69.7039E-03    -21.7281E+06    -59.5515E+06    -6.73474E+06     905.724E+03    -57.5328E-03     112.694E-03    -55.1612E-03     107.675E-03    -58.1051E-03     112.997E-03    -55.0770E-03     106.713E-03
             438     11.9252E-03     69.8157E-03    -20.9463E+06    -29.1219E+06    -7.99592E+06     1.01977E+06    -57.7181E-03     112.809E-03    -55.0910E-03     118.331E-03    -58.5827E-03     113.519E-03    -55.0584E-03     117.165E-03
             439     12.7773E-03     69.9393E-03    -19.8826E+06     21.8662E+06    -12.2315E+06     1.08515E+06    -58.3668E-03     113.334E-03    -54.9676E-03     137.196E-03    -59.8087E-03     114.819E-03    -55.0317E-03     135.730E-03
             440     13.6297E-03     70.0904E-03    -18.5973E+06     72.3560E+06     3.03368E+06     869.302E+03    -61.0816E-03     116.017E-03    -54.9359E-03     183.406E-03    -64.0084E-03     119.126E-03    -54.9986E-03     181.460E-03
             441     14.4814E-03     70.3076E-03    -16.4202E+06     110.332E+06     46.5237E+06    -200.539E+03    -69.6738E-03     124.736E-03    -55.0621E-03     283.156E-03    -78.1199E-03     133.380E-03    -54.9657E-03     280.282E-03
             442     15.3354E-03     70.6680E-03    -12.3154E+06     149.118E+06     93.2853E+06    -467.253E+03    -80.0380E-03     135.279E-03    -55.2406E-03     398.407E-03    -102.321E-03     157.776E-03    -54.9725E-03     396.968E-03
             443     16.1809E-03     71.1416E-03    -6.32453E+06     164.010E+06     112.106E+06     137.776E+03    -68.5283E-03     123.853E-03    -55.3247E-03     294.907E-03    -87.5757E-03     143.135E-03    -54.9928E-03     299.387E-03
             444     851.631E-06     70.0509E-03    -47.6271E+06    -165.708E+06    -46.7948E+06     181.660E+03    -55.3033E-03     110.591E-03    -55.2873E-03     9.73889E-03    -55.2347E-03     109.901E-03    -55.2120E-03     9.70849E-03
             445     1.70333E-03     70.0645E-03    -46.5320E+06    -163.512E+06    -43.1126E+06     486.926E+03    -55.3345E-03     110.625E-03    -55.2908E-03     17.9645E-03    -55.2719E-03     109.942E-03    -55.2018E-03     17.9089E-03
             446     2.55499E-03     70.0870E-03    -44.5267E+06    -159.855E+06    -37.2434E+06     806.000E+03    -55.4130E-03     110.714E-03    -55.3005E-03     26.5354E-03    -55.3597E-03     110.043E-03    -55.1903E-03     26.4505E-03
             447     3.40673E-03     70.1177E-03    -41.6509E+06    -155.736E+06    -31.0097E+06     1.02633E+06    -55.5256E-03     110.836E-03    -55.3106E-03     35.0697E-03    -55.4813E-03     110.181E-03    -55.1794E-03     34.9493E-03
             448     4.25846E-03     70.1574E-03    -38.5142E+06    -150.548E+06    -23.2212E+06     521.703E+03    -55.6687E-03     110.995E-03    -55.3259E-03     43.4962E-03    -55.6396E-03     110.362E-03    -55.1679E-03     43.3249E-03
             449     5.11026E-03     70.2049E-03    -35.9745E+06    -146.624E+06    -16.9680E+06    -174.149E+03    -55.8351E-03     111.171E-03    -55.3355E-03     51.7427E-03    -55.8253E-03     110.562E-03    -55.1555E-03     51.5103E-03
             450     5.96199E-03     70.2613E-03    -33.8104E+06    -145.027E+06    -13.4127E+06     210.613E+03    -56.0217E-03     111.355E-03    -55.3337E-03     59.8033E-03    -56.0320E-03     110.770E-03    -55.1415E-03     59.5148E-03
             451     6.81390E-03     70.3248E-03    -31.1561E+06    -137.908E+06    -9.38851E+06     913.977E+03    -56.2337E-03     111.558E-03    -55.3243E-03     67.7890E-03    -56.2787E-03     111.030E-03    -55.1261E-03     67.4383E-03
             452     7.66564E-03     70.3972E-03    -28.3457E+06    -127.544E+06    -7.99542E+06     704.139E+03    -56.4449E-03     111.740E-03    -55.2954E-03     75.5653E-03    -56.5360E-03     111.301E-03    -55.1094E-03     75.1280E-03
             453     8.51777E-03     70.4760E-03    -25.9122E+06    -115.952E+06    -7.55491E+06     440.688E+03    -56.6881E-03     111.948E-03    -55.2601E-03     83.1766E-03    -56.8428E-03     111.621E-03    -55.0922E-03     82.6367E-03
             454     9.36941E-03     70.5637E-03    -23.9474E+06    -101.627E+06    -6.85045E+06     492.486E+03    -56.9784E-03     112.203E-03    -55.2248E-03     91.1556E-03    -57.2263E-03     112.025E-03    -55.0770E-03     90.4977E-03
             455     10.2215E-03     70.6589E-03    -22.3356E+06    -83.7888E+06    -6.87010E+06     770.890E+03    -57.2461E-03     112.429E-03    -55.1827E-03     99.3503E-03    -57.6242E-03     112.450E-03    -55.0631E-03     98.5559E-03
             456     11.0734E-03     70.7624E-03    -21.0315E+06    -59.7140E+06    -6.23177E+06     915.135E+03    -57.4922E-03     112.628E-03    -55.1358E-03     107.260E-03    -58.0604E-03     112.928E-03    -55.0499E-03     106.298E-03
             457     11.9255E-03     70.8734E-03    -19.5908E+06    -28.1978E+06    -6.73912E+06     924.140E+03    -57.9423E-03     113.019E-03    -55.0772E-03     117.690E-03    -58.8050E-03     113.732E-03    -55.0416E-03     116.515E-03
             458     12.7771E-03     70.9986E-03    -19.0954E+06     21.7307E+06    -11.5955E+06     922.756E+03    -58.2606E-03     113.222E-03    -54.9615E-03     136.396E-03    -59.6915E-03     114.696E-03    -55.0233E-03     134.932E-03
             459     13.6292E-03     71.1471E-03    -18.1179E+06     71.6685E+06     3.02924E+06     759.345E+03    -61.2114E-03     116.139E-03    -54.9274E-03     184.105E-03    -64.1441E-03     119.253E-03    -54.9899E-03     182.143E-03
             460     14.4817E-03     71.3675E-03    -15.9428E+06     111.280E+06     47.2635E+06     1.08282E+06    -70.2952E-03     125.365E-03    -55.0696E-03     284.677E-03    -78.8069E-03     134.078E-03    -54.9715E-03     281.780E-03
             461     15.3304E-03     71.7253E-03    -11.7605E+06     150.110E+06     94.2956E+06     935.638E+03    -79.1447E-03     134.368E-03    -55.2228E-03     401.800E-03    -101.696E-03     157.137E-03    -54.9519E-03     400.595E-03
             462     16.1898E-03     72.2032E-03    -5.94493E+06     164.420E+06     112.445E+06     161.731E+03    -68.9245E-03     124.190E-03    -55.2652E-03     295.026E-03    -88.0439E-03     143.546E-03    -54.9328E-03     299.512E-03
             463     851.667E-06     71.1091E-03    -48.3122E+06    -166.361E+06    -47.3721E+06     323.881E+03    -55.2923E-03     110.550E-03    -55.2576E-03     9.76899E-03    -55.2253E-03     109.858E-03    -55.1832E-03     9.74038E-03
             464     1.70333E-03     71.1230E-03    -46.9756E+06    -164.107E+06    -43.8537E+06     461.922E+03    -55.3157E-03     110.585E-03    -55.2695E-03     17.9753E-03    -55.2534E-03     109.901E-03    -55.1827E-03     17.9195E-03
             465     2.55512E-03     71.1451E-03    -44.6488E+06    -160.203E+06    -37.8694E+06     423.050E+03    -55.3925E-03     110.671E-03    -55.2787E-03     26.5448E-03    -55.3384E-03     110.000E-03    -55.1710E-03     26.4550E-03
             466     3.40679E-03     71.1763E-03    -41.5855E+06    -155.893E+06    -31.4287E+06     205.891E+03    -55.5118E-03     110.801E-03    -55.2896E-03     35.0420E-03    -55.4664E-03     110.146E-03    -55.1604E-03     34.9108E-03
             467     4.25859E-03     71.2154E-03    -38.4026E+06    -150.489E+06    -23.0099E+06     525.438E+03    -55.6479E-03     110.956E-03    -55.3082E-03     43.4644E-03    -55.6187E-03     110.323E-03    -55.1493E-03     43.2930E-03
             468     5.11026E-03     71.2636E-03    -35.7905E+06    -146.791E+06    -16.5800E+06     1.13977E+06    -55.8227E-03     111.142E-03    -55.3192E-03     51.6640E-03    -55.8123E-03     110.531E-03    -55.1374E-03     51.4482E-03
             469     5.96218E-03     71.3191E-03    -33.4343E+06    -145.063E+06    -13.2337E+06     885.037E+03    -56.0261E-03     111.344E-03    -55.3182E-03     59.6860E-03    -56.0348E-03     110.758E-03    -55.1255E-03     59.4053E-03
             470     6.81388E-03     71.3835E-03    -30.3971E+06    -137.988E+06    -9.29986E+06     248.901E+03    -56.2087E-03     111.518E-03    -55.3089E-03     67.6418E-03    -56.2500E-03     110.988E-03    -55.1112E-03     67.2821E-03
             471     7.66595E-03     71.4549E-03    -27.3043E+06    -127.434E+06    -7.62329E+06     273.215E+03    -56.4588E-03     111.741E-03    -55.2820E-03     75.3810E-03    -56.5455E-03     111.300E-03    -55.0958E-03     74.9373E-03
             472     8.51759E-03     71.5348E-03    -25.0874E+06    -115.877E+06    -7.14395E+06     326.611E+03    -56.7504E-03     112.003E-03    -55.2528E-03     83.0107E-03    -56.9021E-03     111.675E-03    -55.0841E-03     82.4676E-03
             473     9.36956E-03     71.6217E-03    -23.4693E+06    -101.870E+06    -6.80285E+06     389.543E+03    -57.0064E-03     112.229E-03    -55.2221E-03     90.9456E-03    -57.2520E-03     112.049E-03    -55.0744E-03     90.2846E-03
             474     10.2215E-03     71.7172E-03    -22.0779E+06    -84.1330E+06    -6.84363E+06     633.738E+03    -57.2401E-03     112.423E-03    -55.1828E-03     98.9194E-03    -57.6161E-03     112.442E-03    -55.0630E-03     98.1220E-03
             475     11.0736E-03     71.8207E-03    -20.4096E+06    -59.6259E+06    -5.80294E+06     765.402E+03    -57.5273E-03     112.667E-03    -55.1392E-03     107.015E-03    -58.0928E-03     112.965E-03    -55.0522E-03     106.051E-03
             476     11.9248E-03     71.9322E-03    -19.3882E+06    -28.7929E+06    -6.71997E+06     885.108E+03    -57.8521E-03     112.930E-03    -55.0777E-03     117.990E-03    -58.7123E-03     113.639E-03    -55.0415E-03     116.818E-03
             477     12.7767E-03     72.0569E-03    -18.7147E+06     22.1237E+06    -11.0064E+06     873.982E+03    -58.1731E-03     113.131E-03    -54.9578E-03     135.930E-03    -59.6006E-03     114.602E-03    -55.0178E-03     134.468E-03
             478     13.6308E-03     72.2031E-03    -19.0527E+06     72.0430E+06     2.62053E+06     1.10802E+06    -61.3468E-03     116.269E-03    -54.9220E-03     184.476E-03    -64.3040E-03     119.407E-03    -54.9857E-03     182.504E-03
             479     14.4818E-03     72.4295E-03    -17.4831E+06     109.998E+06     45.0872E+06     1.21909E+06    -69.5686E-03     124.612E-03    -55.0432E-03     284.410E-03    -78.0125E-03     133.253E-03    -54.9519E-03     281.580E-03
             480     15.3378E-03     72.7830E-03    -11.6557E+06     151.074E+06     94.3254E+06     444.255E+03    -78.5839E-03     133.758E-03    -55.1742E-03     400.589E-03    -101.073E-03     156.468E-03    -54.9047E-03     399.420E-03
             481     16.1858E-03     73.2609E-03    -6.13298E+06     165.280E+06     113.091E+06     435.552E+03    -69.7318E-03     124.964E-03    -55.2320E-03     295.875E-03    -88.9129E-03     144.382E-03    -54.8973E-03     300.263E-03
             482     851.722E-06     72.1677E-03    -48.6850E+06    -166.788E+06    -48.0071E+06     61.2351E+03    -55.2888E-03     110.493E-03    -55.2041E-03     9.78370E-03    -55.2221E-03     109.801E-03    -55.1317E-03     9.75184E-03
             483     1.70343E-03     72.1811E-03    -47.0920E+06    -164.227E+06    -44.0173E+06     42.5914E+03    -55.3274E-03     110.577E-03    -55.2497E-03     17.9274E-03    -55.2653E-03     109.893E-03    -55.1634E-03     17.8660E-03
             484     2.55506E-03     72.2036E-03    -44.8028E+06    -160.054E+06    -37.4960E+06    -48.8631E+03    -55.3932E-03     110.664E-03    -55.2713E-03     26.4948E-03    -55.3406E-03     109.993E-03    -55.1617E-03     26.3986E-03
             485     3.40687E-03     72.2344E-03    -42.2982E+06    -155.911E+06    -30.8777E+06    -38.9780E+03    -55.4990E-03     110.785E-03    -55.2861E-03     34.9809E-03    -55.4579E-03     110.130E-03    -55.1531E-03     34.8462E-03
             486     4.25853E-03     72.2740E-03    -39.5959E+06    -151.639E+06    -23.9639E+06     497.506E+03    -55.6336E-03     110.933E-03    -55.2994E-03     43.3820E-03    -55.6074E-03     110.297E-03    -55.1419E-03     43.2099E-03
             487     5.11048E-03     72.3216E-03    -35.9550E+06    -147.503E+06    -17.5532E+06     1.11036E+06    -55.8251E-03     111.134E-03    -55.3088E-03     51.5914E-03    -55.8131E-03     110.522E-03    -55.1306E-03     51.3749E-03
             488     5.96207E-03     72.3778E-03    -32.0734E+06    -143.981E+06    -12.4459E+06     722.669E+03    -56.0459E-03     111.360E-03    -55.3143E-03     59.5765E-03    -56.0507E-03     110.776E-03    -55.1212E-03     59.2930E-03
             489     6.81400E-03     72.4414E-03    -29.2662E+06    -137.517E+06    -9.09986E+06    -5.76863E+03    -56.2539E-03     111.562E-03    -55.3079E-03     67.4875E-03    -56.2907E-03     111.033E-03    -55.1115E-03     67.1234E-03
             490     7.66572E-03     72.5134E-03    -27.1614E+06    -127.944E+06    -8.39660E+06     61.5428E+03    -56.5050E-03     111.789E-03    -55.2842E-03     75.3027E-03    -56.5892E-03     111.347E-03    -55.1013E-03     74.8554E-03
             491     8.51764E-03     72.5930E-03    -25.3098E+06    -116.168E+06    -7.49425E+06     378.764E+03    -56.7720E-03     112.033E-03    -55.2605E-03     82.8915E-03    -56.9241E-03     111.704E-03    -55.0928E-03     82.3481E-03
             492     9.36947E-03     72.6799E-03    -23.7537E+06    -102.052E+06    -7.00535E+06     492.810E+03    -57.1227E-03     112.359E-03    -55.2364E-03     90.8341E-03    -57.3698E-03     112.180E-03    -55.0890E-03     90.1719E-03
             493     10.2210E-03     72.7758E-03    -22.3706E+06    -84.1976E+06    -6.99613E+06     516.773E+03    -57.3713E-03     112.579E-03    -55.2072E-03     98.6593E-03    -57.7495E-03     112.599E-03    -55.0877E-03     97.8567E-03
             494     11.0728E-03     72.8784E-03    -21.3970E+06    -60.6544E+06    -6.69752E+06     673.278E+03    -57.3384E-03     112.498E-03    -55.1598E-03     106.802E-03    -57.9041E-03     112.792E-03    -55.0743E-03     105.841E-03
             495     11.9255E-03     72.9909E-03    -20.5307E+06    -29.3221E+06    -7.50220E+06     837.554E+03    -57.5531E-03     112.634E-03    -55.0807E-03     117.681E-03    -58.4102E-03     113.336E-03    -55.0459E-03     116.518E-03
             496     12.7784E-03     73.1142E-03    -19.7337E+06     21.7795E+06    -11.3813E+06     1.15970E+06    -58.5402E-03     113.506E-03    -54.9659E-03     135.282E-03    -59.9748E-03     114.981E-03    -55.0258E-03     133.809E-03
             497     13.6280E-03     73.2627E-03    -18.9122E+06     71.3517E+06     1.61189E+06     1.84408E+06    -61.5814E-03     116.530E-03    -54.9482E-03     183.828E-03    -64.5440E-03     119.674E-03    -55.0161E-03     181.855E-03
             498     14.4815E-03     73.4856E-03    -16.2733E+06     111.471E+06     46.1419E+06     1.69557E+06    -69.6107E-03     124.703E-03    -55.0925E-03     282.290E-03    -77.9840E-03     133.281E-03    -54.9999E-03     279.456E-03
             499     15.3324E-03     73.8383E-03    -12.8049E+06     151.588E+06     94.6951E+06     524.223E+03    -78.5273E-03     133.771E-03    -55.2433E-03     397.447E-03    -100.765E-03     156.227E-03    -54.9710E-03     396.283E-03
             500     16.1876E-03     74.3221E-03    -6.99231E+06     165.221E+06     112.499E+06    -197.621E+03    -68.8583E-03     124.142E-03    -55.2837E-03     297.941E-03    -88.0245E-03     143.544E-03    -54.9507E-03     302.468E-03
             501     851.713E-06     73.2257E-03    -48.5316E+06    -166.401E+06    -47.6086E+06    -352.499E+03    -55.2860E-03     110.516E-03    -55.2304E-03     9.73991E-03    -55.2197E-03     109.825E-03    -55.1568E-03     9.70247E-03
             502     1.70337E-03     73.2396E-03    -47.0863E+06    -164.120E+06    -43.9291E+06    -386.962E+03    -55.3236E-03     110.582E-03    -55.2585E-03     17.8907E-03    -55.2618E-03     109.898E-03    -55.1719E-03     17.8235E-03
             503     2.55510E-03     73.2618E-03    -44.9964E+06    -160.222E+06    -37.5500E+06    -87.7263E+03    -55.3932E-03     110.670E-03    -55.2765E-03     26.4528E-03    -55.3413E-03     109.998E-03    -55.1667E-03     26.3559E-03
             504     3.40677E-03     73.2929E-03    -42.5874E+06    -156.366E+06    -31.2799E+06     439.870E+03    -55.5005E-03     110.790E-03    -55.2894E-03     34.9481E-03    -55.4597E-03     110.133E-03    -55.1573E-03     34.8194E-03
             505     4.25863E-03     73.3322E-03    -39.7732E+06    -152.034E+06    -24.5523E+06     520.556E+03    -55.6545E-03     110.957E-03    -55.3029E-03     43.3114E-03    -55.6278E-03     110.321E-03    -55.1475E-03     43.1392E-03
             506     5.11022E-03     73.3800E-03    -36.3054E+06    -147.336E+06    -17.8791E+06    -89.3900E+03    -55.8287E-03     111.143E-03    -55.3147E-03     51.5524E-03    -55.8182E-03     110.533E-03    -55.1378E-03     51.3203E-03
             507     5.96217E-03     73.4360E-03    -32.6732E+06    -143.929E+06    -12.5823E+06    -151.615E+03    -56.0545E-03     111.377E-03    -55.3220E-03     59.5231E-03    -56.0621E-03     110.794E-03    -55.1288E-03     59.2283E-03
             508     6.81384E-03     73.4998E-03    -29.7813E+06    -137.318E+06    -9.05407E+06     345.614E+03    -56.3269E-03     111.648E-03    -55.3207E-03     67.4171E-03    -56.3668E-03     111.121E-03    -55.1237E-03     67.0564E-03
             509     7.66563E-03     73.5717E-03    -27.8176E+06    -127.953E+06    -8.44432E+06     244.957E+03    -56.5605E-03     111.864E-03    -55.3037E-03     75.1793E-03    -56.6480E-03     111.423E-03    -55.1201E-03     74.7333E-03
             510     8.51745E-03     73.6511E-03    -25.8679E+06    -116.644E+06    -7.73310E+06     255.535E+03    -56.8264E-03     112.110E-03    -55.2840E-03     82.8051E-03    -56.9803E-03     111.781E-03    -55.1160E-03     82.2590E-03
             511     9.36908E-03     73.7386E-03    -24.1269E+06    -102.208E+06    -7.15351E+06     594.144E+03    -57.1551E-03     112.417E-03    -55.2617E-03     90.8751E-03    -57.4037E-03     112.238E-03    -55.1143E-03     90.2138E-03
             512     10.2209E-03     73.8342E-03    -22.9976E+06    -84.6143E+06    -7.27732E+06     827.742E+03    -57.3747E-03     112.607E-03    -55.2320E-03     98.7027E-03    -57.7549E-03     112.626E-03    -55.1123E-03     97.9044E-03
             513     11.0726E-03     73.9370E-03    -22.1369E+06    -60.8021E+06    -7.00092E+06     787.175E+03    -57.4781E-03     112.667E-03    -55.1886E-03     106.431E-03    -58.0479E-03     112.962E-03    -55.1034E-03     105.467E-03
             514     11.9249E-03     74.0476E-03    -21.2044E+06    -29.3927E+06    -7.90847E+06     929.969E+03    -57.7529E-03     112.874E-03    -55.1211E-03     117.056E-03    -58.6117E-03     113.576E-03    -55.0873E-03     115.890E-03
             515     12.7759E-03     74.1738E-03    -20.1286E+06     20.3364E+06    -12.3435E+06     1.01256E+06    -58.5311E-03     113.541E-03    -55.0101E-03     135.328E-03    -59.9603E-03     115.007E-03    -55.0721E-03     133.857E-03
             516     13.6292E-03     74.3209E-03    -18.3690E+06     70.0489E+06     2.26421E+06     1.23071E+06    -61.9116E-03     116.918E-03    -55.0065E-03     183.550E-03    -64.8756E-03     120.059E-03    -55.0701E-03     181.553E-03
             517     14.4804E-03     74.5437E-03    -15.4737E+06     112.188E+06     47.2543E+06     2.27944E+06    -70.7825E-03     125.973E-03    -55.1905E-03     282.326E-03    -79.1984E-03     134.595E-03    -55.0944E-03     279.406E-03
             518     15.3306E-03     74.9002E-03    -10.7109E+06     153.890E+06     95.7474E+06     2.44370E+06    -78.7174E-03     134.093E-03    -55.3760E-03     395.634E-03    -100.704E-03     156.310E-03    -55.1049E-03     394.526E-03
             519     16.1836E-03     75.3698E-03    -5.06625E+06     166.895E+06     113.864E+06     841.441E+03    -67.3331E-03     122.723E-03    -55.3896E-03     299.884E-03    -86.4446E-03     142.079E-03    -55.0549E-03     304.798E-03
             520     851.610E-06     74.2842E-03    -48.0547E+06    -165.879E+06    -46.8927E+06    -63.7354E+03    -55.2961E-03     110.578E-03    -55.2816E-03     9.72351E-03    -55.2292E-03     109.887E-03    -55.2059E-03     9.68969E-03
             521     1.70335E-03     74.2979E-03    -47.0901E+06    -163.883E+06    -43.4840E+06    -213.548E+03    -55.3152E-03     110.598E-03    -55.2824E-03     17.8944E-03    -55.2544E-03     109.914E-03    -55.1939E-03     17.8294E-03
             522     2.55504E-03     74.3202E-03    -45.2727E+06    -160.716E+06    -38.2530E+06    -27.5947E+03    -55.3986E-03     110.686E-03    -55.2875E-03     26.4190E-03    -55.3463E-03     110.013E-03    -55.1801E-03     26.3227E-03
             523     3.40683E-03     74.3511E-03    -42.3912E+06    -156.759E+06    -32.1470E+06     165.169E+03    -55.5286E-03     110.828E-03    -55.2989E-03     34.9119E-03    -55.4849E-03     110.170E-03    -55.1709E-03     34.7795E-03
             524     4.25843E-03     74.3906E-03    -38.6941E+06    -151.556E+06    -24.4981E+06    -158.091E+03    -55.6822E-03     110.999E-03    -55.3168E-03     43.2865E-03    -55.6509E-03     110.363E-03    -55.1634E-03     43.1053E-03
             525     5.11031E-03     74.4384E-03    -35.3994E+06    -146.814E+06    -17.5086E+06    -351.730E+03    -55.8594E-03     111.192E-03    -55.3322E-03     51.4883E-03    -55.8458E-03     110.582E-03    -55.1555E-03     51.2524E-03
             526     5.96197E-03     74.4943E-03    -32.8868E+06    -144.443E+06    -13.1088E+06    -197.489E+03    -56.0906E-03     111.431E-03    -55.3403E-03     59.4732E-03    -56.0978E-03     110.847E-03    -55.1488E-03     59.1772E-03
             527     6.81375E-03     74.5583E-03    -30.2066E+06    -138.038E+06    -9.48442E+06     230.556E+03    -56.3614E-03     111.704E-03    -55.3423E-03     67.3955E-03    -56.4018E-03     111.174E-03    -55.1457E-03     67.0330E-03
             528     7.66540E-03     74.6301E-03    -27.7289E+06    -127.764E+06    -7.93679E+06     700.327E+03    -56.6260E-03     111.957E-03    -55.3311E-03     75.1290E-03    -56.7144E-03     111.517E-03    -55.1454E-03     74.6878E-03
             529     8.51703E-03     74.7096E-03    -26.2487E+06    -116.554E+06    -7.63646E+06     497.679E+03    -56.8742E-03     112.188E-03    -55.3134E-03     82.8804E-03    -57.0306E-03     111.859E-03    -55.1445E-03     82.3368E-03
             530     9.36891E-03     74.7970E-03    -25.0209E+06    -102.900E+06    -7.55706E+06     686.796E+03    -57.1247E-03     112.414E-03    -55.2889E-03     90.9138E-03    -57.3760E-03     112.233E-03    -55.1412E-03     90.2544E-03
             531     10.2206E-03     74.8927E-03    -23.6927E+06    -84.9014E+06    -7.64092E+06     996.307E+03    -57.3466E-03     112.601E-03    -55.2542E-03     98.5483E-03    -57.7283E-03     112.619E-03    -55.1350E-03     97.7534E-03
             532     11.0727E-03     74.9952E-03    -22.1797E+06    -59.9623E+06    -6.66955E+06     809.450E+03    -57.7780E-03     112.998E-03    -55.2202E-03     106.545E-03    -58.3515E-03     113.299E-03    -55.1344E-03     105.575E-03
             533     11.9234E-03     75.1071E-03    -20.9140E+06    -29.9282E+06    -7.88203E+06     799.335E+03    -58.0438E-03     113.215E-03    -55.1713E-03     117.160E-03    -58.9061E-03     113.920E-03    -55.1370E-03     115.982E-03
             534     12.7765E-03     75.2308E-03    -20.5222E+06     19.8004E+06    -12.9265E+06     688.189E+03    -58.5740E-03     113.639E-03    -55.0653E-03     135.668E-03    -60.0047E-03     115.105E-03    -55.1289E-03     134.189E-03
             535     13.6277E-03     75.3801E-03    -19.8109E+06     69.9341E+06     1.85042E+06     486.053E+03    -62.3296E-03     117.401E-03    -55.0716E-03     184.161E-03    -65.3054E-03     120.550E-03    -55.1350E-03     182.135E-03
             536     14.4777E-03     75.6042E-03    -17.3892E+06     110.288E+06     45.4456E+06     1.21225E+06    -70.9194E-03     126.180E-03    -55.2606E-03     282.964E-03    -79.3546E-03     134.813E-03    -55.1681E-03     280.035E-03
             537     15.3298E-03     75.9581E-03    -11.3069E+06     153.956E+06     94.8804E+06     2.03355E+06    -78.8575E-03     134.306E-03    -55.4487E-03     395.141E-03    -100.735E-03     156.415E-03    -55.1811E-03     393.919E-03
             538     16.1816E-03     76.4278E-03    -5.13938E+06     168.576E+06     114.644E+06     1.46412E+06    -66.7397E-03     122.195E-03    -55.4552E-03     300.665E-03    -85.8238E-03     141.527E-03    -55.1189E-03     305.630E-03
             539     851.667E-06     75.3425E-03    -47.9547E+06    -166.059E+06    -47.1026E+06     217.538E+03    -55.3169E-03     110.595E-03    -55.2785E-03     9.69454E-03    -55.2489E-03     109.904E-03    -55.2037E-03     9.66435E-03
             540     1.70331E-03     75.3563E-03    -46.9296E+06    -163.906E+06    -43.4523E+06     429.020E+03    -55.3423E-03     110.637E-03    -55.2946E-03     17.8901E-03    -55.2807E-03     109.953E-03    -55.2062E-03     17.8334E-03
             541     2.55502E-03     75.3785E-03    -45.2448E+06    -160.647E+06    -38.1420E+06     118.312E+03    -55.4306E-03     110.737E-03    -55.3060E-03     26.4141E-03    -55.3784E-03     110.064E-03    -55.1982E-03     26.3196E-03
             542     3.40664E-03     75.4096E-03    -42.6118E+06    -156.224E+06    -31.3707E+06    -522.555E+03    -55.5481E-03     110.871E-03    -55.3230E-03     34.9247E-03    -55.5074E-03     110.216E-03    -55.1916E-03     34.7834E-03
             543     4.25844E-03     75.4489E-03    -39.5500E+06    -151.189E+06    -23.5036E+06    -828.696E+03    -55.6999E-03     111.044E-03    -55.3437E-03     43.2942E-03    -55.6749E-03     110.410E-03    -55.1846E-03     43.1044E-03
             544     5.11005E-03     75.4968E-03    -36.2431E+06    -147.213E+06    -17.5213E+06    -435.570E+03    -55.8959E-03     111.253E-03    -55.3568E-03     51.4867E-03    -55.8859E-03     110.642E-03    -55.1784E-03     51.2495E-03
             545     5.96179E-03     75.5527E-03    -33.0653E+06    -144.613E+06    -13.3062E+06     31.5387E+03    -56.1370E-03     111.503E-03    -55.3656E-03     59.5161E-03    -56.1447E-03     110.918E-03    -55.1745E-03     59.2230E-03
             546     6.81350E-03     75.6166E-03    -30.7098E+06    -138.732E+06    -9.88196E+06     393.565E+03    -56.3737E-03     111.742E-03    -55.3682E-03     67.4276E-03    -56.4150E-03     111.210E-03    -55.1719E-03     67.0673E-03
             547     7.66522E-03     75.6887E-03    -28.5726E+06    -128.319E+06    -8.46584E+06     777.684E+03    -56.6263E-03     111.981E-03    -55.3545E-03     75.2016E-03    -56.7172E-03     111.539E-03    -55.1693E-03     74.7616E-03
             548     8.51700E-03     75.7680E-03    -26.6538E+06    -116.438E+06    -7.37649E+06     1.15995E+06    -56.9058E-03     112.244E-03    -55.3382E-03     82.9372E-03    -57.0649E-03     111.917E-03    -55.1676E-03     82.4015E-03
             549     9.36859E-03     75.8556E-03    -25.2372E+06    -103.111E+06    -7.37599E+06     955.731E+03    -57.1697E-03     112.485E-03    -55.3148E-03     90.9032E-03    -57.4220E-03     112.303E-03    -55.1656E-03     90.2466E-03
             550     10.2204E-03     75.9510E-03    -23.4656E+06    -84.8088E+06    -7.92958E+06     600.173E+03    -57.4332E-03     112.713E-03    -55.2801E-03     98.5626E-03    -57.8139E-03     112.733E-03    -55.1628E-03     97.7606E-03
             551     11.0719E-03     76.0539E-03    -21.8700E+06    -60.1989E+06    -6.96560E+06     707.027E+03    -57.6616E-03     112.904E-03    -55.2423E-03     106.958E-03    -58.2317E-03     113.203E-03    -55.1581E-03     105.990E-03
             552     11.9241E-03     76.1663E-03    -21.0033E+06    -29.6510E+06    -7.94826E+06      607.99E+03    -58.1332E-03     113.323E-03    -55.1898E-03     117.489E-03    -58.9976E-03     114.031E-03    -55.1561E-03     116.305E-03
             553     12.7749E-03     76.2886E-03    -20.5072E+06     20.2656E+06    -12.8529E+06     930.513E+03    -59.1174E-03     114.219E-03    -55.1017E-03     136.195E-03    -60.5630E-03     115.701E-03    -55.1657E-03     134.697E-03
             554     13.6265E-03     76.4403E-03    -20.1364E+06     69.9904E+06     1.52613E+06     1.34928E+06    -62.2217E-03     117.335E-03    -55.1132E-03     185.731E-03    -65.2026E-03     120.488E-03    -55.1778E-03     183.724E-03
             555     14.4788E-03     76.6637E-03    -18.1907E+06     109.698E+06     44.8037E+06     669.852E+03    -70.2106E-03     125.476E-03    -55.2655E-03     284.675E-03    -78.6923E-03     134.153E-03    -55.1741E-03     281.801E-03
             556     15.3299E-03     77.0180E-03    -13.3464E+06     152.664E+06     93.3171E+06     655.336E+03    -78.6737E-03     134.087E-03    -55.4132E-03     397.004E-03    -100.712E-03     156.349E-03    -55.1486E-03     395.774E-03
             557     16.1828E-03     77.4862E-03    -6.28909E+06     168.828E+06     113.877E+06     778.440E+03    -67.0001E-03     122.414E-03    -55.4141E-03     299.504E-03    -86.0687E-03     141.730E-03    -55.0804E-03     304.337E-03
             558     851.644E-06     76.4010E-03    -48.4636E+06    -166.673E+06    -47.6930E+06     224.743E+03    -55.3506E-03     110.603E-03    -55.2519E-03     9.69236E-03    -55.2834E-03     109.910E-03    -55.1784E-03     9.66217E-03
             559     1.70333E-03     76.4146E-03    -47.0981E+06    -164.360E+06    -44.0160E+06     462.329E+03    -55.3764E-03     110.679E-03    -55.3031E-03     17.8814E-03    -55.3141E-03     109.994E-03    -55.2166E-03     17.8251E-03
             560     2.55493E-03     76.4371E-03    -44.8572E+06    -160.066E+06    -37.3239E+06     288.122E+03    -55.4555E-03     110.782E-03    -55.3261E-03     26.4355E-03    -55.4034E-03     110.110E-03    -55.2155E-03     26.3432E-03
             561     3.40667E-03     76.4679E-03    -42.5958E+06    -155.512E+06    -30.0621E+06    -81.8538E+03    -55.5691E-03     110.917E-03    -55.3476E-03     34.9364E-03    -55.5313E-03     110.263E-03    -55.2107E-03     34.8008E-03
             562     4.25828E-03     76.5074E-03    -40.2399E+06    -150.995E+06    -22.8464E+06    -196.574E+03    -55.7187E-03     111.086E-03    -55.3676E-03     43.3214E-03    -55.6983E-03     110.453E-03    -55.2045E-03     43.1398E-03
             563     5.11002E-03     76.5552E-03    -37.5394E+06    -147.362E+06    -17.1925E+06    -413.789E+03    -55.9184E-03     111.300E-03    -55.3813E-03     51.5348E-03    -55.9151E-03     110.690E-03    -55.1992E-03     51.2979E-03
             564     5.96174E-03     76.6112E-03    -34.7164E+06    -145.399E+06    -13.6191E+06     24.3272E+03    -56.1605E-03     111.550E-03    -55.3893E-03     59.5855E-03    -56.1749E-03     110.964E-03    -55.1963E-03     59.2922E-03
             565     6.81331E-03     76.6753E-03    -31.8244E+06    -139.128E+06    -10.1487E+06     600.900E+03    -56.3880E-03     111.779E-03    -55.3910E-03     67.4591E-03    -56.4339E-03     111.248E-03    -55.1939E-03     67.1013E-03
             566     7.66511E-03     76.7469E-03    -29.3323E+06    -128.677E+06    -8.83945E+06     727.379E+03    -56.6262E-03     112.001E-03    -55.3748E-03     75.2572E-03    -56.7198E-03     111.559E-03    -55.1899E-03     74.8165E-03
             567     8.51672E-03     76.8269E-03    -26.9111E+06    -116.955E+06    -7.94610E+06     900.090E+03    -56.9280E-03     112.284E-03    -55.3558E-03     83.0021E-03    -57.0869E-03     111.955E-03    -55.1870E-03     82.4629E-03
             568     9.36849E-03     76.9139E-03    -24.4619E+06    -102.276E+06    -7.19934E+06     741.637E+03    -57.1966E-03     112.529E-03    -55.3329E-03     90.9413E-03    -57.4466E-03     112.351E-03    -55.1851E-03     90.2814E-03
             569     10.2200E-03     77.0098E-03    -22.8021E+06    -84.8675E+06    -8.01264E+06     434.760E+03    -57.3651E-03     112.659E-03    -55.2942E-03     98.8656E-03    -57.7421E-03     112.677E-03    -55.1781E-03     98.0634E-03
             570     11.0720E-03     77.1125E-03    -21.9591E+06    -61.2192E+06    -7.79376E+06     723.099E+03    -57.5274E-03     112.772E-03    -55.2449E-03     107.175E-03    -58.0957E-03     113.068E-03    -55.1633E-03     106.209E-03
             571     11.9240E-03     77.2240E-03    -21.0763E+06    -29.5856E+06    -8.08444E+06     1.14030E+06    -58.0595E-03     113.244E-03    -55.1842E-03     118.218E-03    -58.9248E-03     113.953E-03    -55.1511E-03     117.044E-03
             572     12.7755E-03     77.3499E-03    -20.6835E+06     20.1602E+06    -13.2469E+06     1.18193E+06    -59.1091E-03     114.198E-03    -55.0885E-03     137.438E-03    -60.5679E-03     115.693E-03    -55.1539E-03     135.942E-03
             573     13.6268E-03     77.4977E-03    -20.0308E+06     70.0126E+06    -173.421E+03     1.56866E+06    -61.7051E-03     116.778E-03    -55.0726E-03     186.605E-03    -64.6864E-03     119.937E-03    -55.1459E-03     184.627E-03
             574     14.4792E-03     77.7231E-03    -17.4420E+06     110.733E+06     45.0184E+06     1.55001E+06    -69.4142E-03     124.601E-03    -55.1864E-03     286.161E-03    -77.9100E-03     133.297E-03    -55.0966E-03     283.356E-03
             575     15.3332E-03     78.0765E-03    -13.2691E+06     153.262E+06     94.3211E+06     534.118E+03    -78.3348E-03     133.634E-03    -55.2991E-03     398.427E-03    -100.432E-03     155.954E-03    -55.0305E-03     397.276E-03
             576     16.1853E-03     78.5477E-03    -6.74141E+06     168.503E+06     113.178E+06    -260.753E+03    -67.9557E-03     123.265E-03    -55.3095E-03     297.783E-03    -86.9522E-03     142.508E-03    -54.9782E-03     302.493E-03
             577     851.679E-06     77.4593E-03    -48.9805E+06    -167.232E+06    -48.0758E+06     205.777E+03    -55.3801E-03     110.631E-03    -55.2510E-03     9.71212E-03    -55.3141E-03     109.937E-03    -55.1779E-03     9.68181E-03
             578     1.70324E-03     77.4732E-03    -47.5505E+06    -164.538E+06    -43.9400E+06     175.389E+03    -55.3869E-03     110.706E-03    -55.3190E-03     17.8951E-03    -55.3268E-03     110.020E-03    -55.2311E-03     17.8352E-03
             579     2.55495E-03     77.4954E-03    -45.2826E+06    -160.106E+06    -37.0059E+06     285.062E+03    -55.4684E-03     110.811E-03    -55.3425E-03     26.4571E-03    -55.4189E-03     110.140E-03    -55.2298E-03     26.3648E-03
             580     3.40654E-03     77.5265E-03    -42.4831E+06    -155.686E+06    -30.1849E+06     694.736E+03    -55.5946E-03     110.957E-03    -55.3626E-03     34.9442E-03    -55.5558E-03     110.302E-03    -55.2261E-03     34.8185E-03
             581     4.25824E-03     77.5658E-03    -39.5258E+06    -150.632E+06    -22.5996E+06     577.585E+03    -55.7483E-03     111.133E-03    -55.3847E-03     43.3246E-03    -55.7252E-03     110.500E-03    -55.2220E-03     43.1528E-03
             582     5.10993E-03     77.6138E-03    -36.7279E+06    -147.250E+06    -16.9697E+06     490.937E+03    -55.9475E-03     111.347E-03    -55.4000E-03     51.5369E-03    -55.9407E-03     110.737E-03    -55.2181E-03     51.3112E-03
             583     5.96148E-03     77.6697E-03    -34.3941E+06    -146.060E+06    -14.2862E+06     597.087E+03    -56.1573E-03     111.561E-03    -55.4041E-03     59.5849E-03    -56.1681E-03     110.973E-03    -55.2139E-03     59.2988E-03
             584     6.81333E-03     77.7337E-03    -31.9874E+06    -139.152E+06    -10.8834E+06     502.037E+03    -56.3892E-03     111.792E-03    -55.4025E-03     67.5422E-03    -56.4349E-03     111.261E-03    -55.2087E-03     67.1833E-03
             585     7.66486E-03     77.8056E-03    -29.2636E+06    -128.796E+06    -9.60453E+06     415.547E+03    -56.6505E-03     112.036E-03    -55.3851E-03     75.3534E-03    -56.7427E-03     111.595E-03    -55.2039E-03     74.9085E-03
             586     8.51671E-03     77.8852E-03    -26.8125E+06    -116.924E+06    -8.87782E+06     251.317E+03    -56.9038E-03     112.267E-03    -55.3629E-03     83.2092E-03    -57.0609E-03     111.939E-03    -55.1989E-03     82.6624E-03
             587     9.36823E-03     77.9729E-03    -24.9105E+06    -102.355E+06    -8.08996E+06     198.395E+03    -57.1028E-03     112.437E-03    -55.3340E-03     91.0963E-03    -57.3534E-03     112.259E-03    -55.1899E-03     90.4314E-03
             588     10.2203E-03     78.0679E-03    -23.5876E+06    -85.1464E+06    -8.58182E+06     437.787E+03    -57.2688E-03     112.558E-03    -55.2890E-03     98.9340E-03    -57.6484E-03     112.576E-03    -55.1742E-03     98.1334E-03
             589     11.0724E-03     78.1709E-03    -22.0847E+06    -61.2936E+06    -7.99023E+06     613.519E+03    -57.5773E-03     112.816E-03    -55.2385E-03     107.236E-03    -58.1472E-03     113.113E-03    -55.1576E-03     106.267E-03
             590     11.9238E-03     78.2830E-03    -21.0057E+06    -30.7263E+06    -8.74802E+06     1.17146E+06    -57.8374E-03     113.009E-03    -55.1711E-03     118.241E-03    -58.7000E-03     113.713E-03    -55.1399E-03     117.072E-03
             591     12.7765E-03     78.4075E-03    -20.4592E+06     19.2029E+06    -13.6042E+06     1.95341E+06    -58.5061E-03     113.555E-03    -55.0490E-03     137.677E-03    -59.9520E-03     115.036E-03    -55.1152E-03     136.214E-03
             592     13.6283E-03     78.5586E-03    -19.5780E+06     70.3646E+06     781.221E+03     1.46619E+06    -61.2695E-03     116.280E-03    -55.0101E-03     185.508E-03    -64.2340E-03     119.422E-03    -55.0798E-03     183.552E-03
             593     14.4820E-03     78.7780E-03    -17.0854E+06     111.336E+06     45.0516E+06     1.23030E+06    -69.3006E-03     124.414E-03    -55.1131E-03     284.985E-03    -77.7508E-03     133.068E-03    -55.0246E-03     282.174E-03
             594     15.3344E-03     79.1378E-03    -11.7196E+06     154.620E+06     94.9859E+06     956.601E+03    -77.7548E-03     132.976E-03    -55.2207E-03     397.062E-03    -99.7247E-03     155.177E-03    -54.9530E-03     396.032E-03
             595     16.1878E-03     79.6044E-03    -6.46458E+06     169.506E+06     114.138E+06     105.216E+03    -68.7806E-03     124.039E-03    -55.2584E-03     296.989E-03    -87.7357E-03     143.242E-03    -54.9241E-03     301.697E-03
             596     851.573E-06     78.5179E-03    -49.3889E+06    -167.591E+06    -48.2959E+06     129.258E+03    -55.3559E-03     110.657E-03    -55.3009E-03     9.73849E-03    -55.2911E-03     109.962E-03    -55.2277E-03     9.70736E-03
             597     1.70330E-03     78.5315E-03    -48.0443E+06    -164.794E+06    -43.8845E+06     394.863E+03    -55.3927E-03     110.725E-03    -55.3325E-03     17.9115E-03    -55.3347E-03     110.039E-03    -55.2434E-03     17.8545E-03
             598     2.55485E-03     78.5540E-03    -46.0213E+06    -160.617E+06    -37.3227E+06     632.311E+03    -55.4827E-03     110.837E-03    -55.3546E-03     26.4805E-03    -55.4356E-03     110.165E-03    -55.2416E-03     26.3927E-03
             599     3.40657E-03     78.5848E-03    -43.4964E+06    -156.559E+06    -31.0596E+06     1.02313E+06    -55.6119E-03     110.986E-03    -55.3743E-03     34.9622E-03    -55.5756E-03     110.330E-03    -55.2395E-03     34.8406E-03
             600     4.25816E-03     78.6245E-03    -40.9514E+06    -150.388E+06    -24.6915E+06     1.25227E+06    -55.7658E-03     111.157E-03    -55.3907E-03     43.3554E-03    -55.7472E-03     110.530E-03    -55.2367E-03     43.1921E-03
             601     5.10976E-03     78.6722E-03    -38.1361E+06    -147.137E+06    -19.3488E+06     833.905E+03    -55.9324E-03     111.336E-03    -55.4031E-03     51.5994E-03    -55.9294E-03     110.731E-03    -55.2312E-03     51.3784E-03
             602     5.96157E-03     78.7283E-03    -34.8237E+06    -146.268E+06    -14.6972E+06     660.655E+03    -56.1438E-03     111.556E-03    -55.4122E-03     59.6657E-03    -56.1559E-03     110.968E-03    -55.2231E-03     59.3808E-03
             603     6.81315E-03     78.7921E-03    -31.7133E+06    -138.746E+06    -11.0781E+06     400.668E+03    -56.3761E-03     111.783E-03    -55.4065E-03     67.6479E-03    -56.4207E-03     111.254E-03    -55.2147E-03     67.2881E-03
             604     7.66501E-03     78.8643E-03    -29.1321E+06    -128.594E+06    -10.3606E+06    -91.8684E+03    -56.6338E-03     112.018E-03    -55.3839E-03     75.4768E-03    -56.7246E-03     111.579E-03    -55.2070E-03     75.0256E-03
             605     8.51655E-03     78.9436E-03    -26.9715E+06    -116.958E+06    -9.38664E+06    -126.595E+03    -56.8348E-03     112.194E-03    -55.3588E-03     83.2821E-03    -56.9918E-03     111.867E-03    -55.1970E-03     82.7313E-03
             606     9.36862E-03     79.0314E-03    -25.2602E+06    -102.692E+06    -8.68656E+06     102.747E+03    -57.0425E-03     112.367E-03    -55.3243E-03     91.0904E-03    -57.2932E-03     112.188E-03    -55.1822E-03     90.4252E-03
             607     10.2204E-03     79.1261E-03    -23.7342E+06    -85.2649E+06    -8.78459E+06     315.051E+03    -57.3287E-03     112.610E-03    -55.2813E-03     98.8477E-03    -57.7094E-03     112.629E-03    -55.1671E-03     98.0434E-03
             608     11.0719E-03     79.2297E-03    -22.7529E+06    -61.7485E+06    -8.70366E+06     520.058E+03    -57.5679E-03     112.800E-03    -55.2323E-03     107.284E-03    -58.1395E-03     113.097E-03    -55.1533E-03     106.314E-03
             609     11.9243E-03     79.3411E-03    -21.5608E+06    -31.4801E+06    -9.68863E+06     593.319E+03    -57.8250E-03     112.989E-03    -55.1644E-03     117.907E-03    -58.6895E-03     113.694E-03    -55.1359E-03     116.729E-03
             610     12.7758E-03     79.4657E-03    -19.9419E+06     18.3969E+06    -13.9389E+06     1.38178E+06    -58.3458E-03     113.387E-03    -55.0410E-03     136.907E-03    -59.7809E-03     114.857E-03    -55.1084E-03     135.441E-03
             611     13.6292E-03     79.6160E-03    -19.0883E+06     70.7311E+06     1.68106E+06     2.20122E+06    -61.2501E-03     116.258E-03    -55.0077E-03     183.900E-03    -64.1963E-03     119.382E-03    -55.0742E-03     181.954E-03
             612     14.4800E-03     79.8369E-03    -17.0932E+06     112.000E+06     45.2342E+06     839.356E+03    -69.5943E-03     124.724E-03    -55.1294E-03     282.849E-03    -78.0331E-03     133.368E-03    -55.0408E-03     279.999E-03
             613     15.3331E-03     80.1933E-03    -12.2619E+06     153.989E+06     93.4368E+06     -264.75E+03    -78.2599E-03     133.535E-03    -55.2747E-03     394.231E-03    -100.089E-03     155.596E-03    -55.0131E-03     393.109E-03
             614     16.1867E-03     80.6616E-03    -6.06127E+06     169.788E+06     113.981E+06     554.658E+03    -68.0335E-03     123.363E-03    -55.3293E-03     296.712E-03    -86.9418E-03     142.522E-03    -54.9968E-03     301.522E-03
             615     851.687E-06     79.5763E-03    -49.9477E+06    -168.007E+06    -48.7407E+06     271.906E+03    -55.3429E-03     110.674E-03    -55.3307E-03     9.78816E-03    -55.2797E-03     109.978E-03    -55.2584E-03     9.75919E-03
             616     1.70319E-03     79.5902E-03    -48.4920E+06    -165.523E+06    -44.8366E+06     581.348E+03    -55.4105E-03     110.751E-03    -55.3406E-03     17.9154E-03    -55.3524E-03     110.063E-03    -55.2545E-03     17.8607E-03
             617     2.55491E-03     79.6124E-03    -46.4111E+06    -161.425E+06    -38.4280E+06     1.16451E+06    -55.4937E-03     110.857E-03    -55.3632E-03     26.4853E-03    -55.4458E-03     110.183E-03    -55.2539E-03     26.4044E-03
             618     3.40645E-03     79.6436E-03    -43.9448E+06    -157.356E+06    -32.0945E+06     1.50643E+06    -55.6136E-03     110.995E-03    -55.3816E-03     34.9820E-03    -55.5770E-03     110.337E-03    -55.2502E-03     34.8669E-03
             619     4.25811E-03     79.6828E-03    -40.7798E+06    -150.502E+06    -25.4560E+06     1.40910E+06    -55.7375E-03     111.130E-03    -55.3925E-03     43.4136E-03    -55.7167E-03     110.504E-03    -55.2424E-03     43.2527E-03
             620     5.10986E-03     79.7309E-03    -37.5427E+06    -146.552E+06    -19.2921E+06     946.405E+03    -55.9191E-03     111.321E-03    -55.4022E-03     51.6537E-03    -55.9141E-03     110.719E-03    -55.2317E-03     51.4342E-03
             621     5.96150E-03     79.7865E-03    -34.6336E+06    -146.114E+06    -14.5748E+06     301.290E+03    -56.1461E-03     111.558E-03    -55.4115E-03     59.7093E-03    -56.1576E-03     110.970E-03    -55.2223E-03     59.4196E-03
             622     6.81326E-03     79.8510E-03    -31.6208E+06    -138.311E+06    -11.0692E+06     -58.647E+03    -56.3699E-03     111.774E-03    -55.4046E-03     67.6876E-03    -56.4147E-03     111.248E-03    -55.2136E-03     67.3216E-03
             623     7.66492E-03     79.9224E-03    -29.0087E+06    -128.155E+06    -10.3834E+06    -306.051E+03    -56.5997E-03     111.979E-03    -55.3797E-03     75.4947E-03    -56.6907E-03     111.542E-03    -55.2037E-03     75.0408E-03
             624     8.51681E-03     80.0027E-03    -26.9366E+06    -117.097E+06    -9.72192E+06    -425.620E+03    -56.8140E-03     112.166E-03    -55.3518E-03     83.1365E-03    -56.9701E-03     111.839E-03    -55.1916E-03     82.5814E-03
             625     9.36855E-03     80.0891E-03    -24.9297E+06    -102.991E+06    -9.04739E+06    -160.816E+03    -57.0521E-03     112.369E-03    -55.3172E-03     91.0154E-03    -57.3003E-03     112.190E-03    -55.1770E-03     90.3462E-03
             626     10.2202E-03     80.1855E-03    -23.4119E+06    -85.7466E+06    -9.15117E+06     190.454E+03    -57.3390E-03     112.615E-03    -55.2756E-03     98.9170E-03    -57.7173E-03     112.632E-03    -55.1631E-03     98.1107E-03
             627     11.0725E-03     80.2872E-03    -22.1975E+06    -61.9424E+06    -8.64915E+06     591.138E+03    -57.6251E-03     112.856E-03    -55.2306E-03     107.207E-03    -58.1947E-03     113.152E-03    -55.1519E-03     106.236E-03
             628     11.9239E-03     80.4004E-03    -21.3180E+06    -31.2917E+06    -9.54206E+06     627.192E+03    -57.9721E-03     113.143E-03    -55.1710E-03     117.718E-03    -58.8379E-03     113.850E-03    -55.1424E-03     116.535E-03
             629     12.7761E-03     80.5235E-03    -21.4754E+06     17.8406E+06    -15.0631E+06     721.868E+03    -58.6639E-03     113.725E-03    -55.0616E-03     136.493E-03    -60.1094E-03     115.202E-03    -55.1316E-03     135.007E-03
             630     13.6270E-03     80.6743E-03    -19.7008E+06     69.6439E+06    -2.03444E+06     1.43179E+06    -61.4057E-03     116.434E-03    -55.0284E-03     184.144E-03    -64.3486E-03     119.560E-03    -55.1110E-03     182.182E-03
             631     14.4802E-03     80.8954E-03    -15.9485E+06     113.134E+06     44.2631E+06     1.59194E+06    -69.8381E-03     125.002E-03    -55.1641E-03     283.513E-03    -78.3113E-03     133.692E-03    -55.0838E-03     280.659E-03
             632     15.3316E-03     81.2512E-03    -12.2082E+06     154.814E+06     94.6853E+06     1.12016E+06    -79.2350E-03     134.568E-03    -55.3333E-03     397.117E-03    -101.137E-03     156.702E-03    -55.0666E-03     395.851E-03
             633     16.1784E-03     81.7208E-03    -6.38360E+06     169.539E+06     113.567E+06    -40.4148E+03    -67.6154E-03     122.974E-03    -55.3588E-03     299.386E-03    -86.5476E-03     142.156E-03    -55.0275E-03     304.228E-03
             634     851.553E-06     80.6349E-03    -50.3123E+06    -168.495E+06    -49.6688E+06     238.202E+03    -55.3851E-03     110.709E-03    -55.3240E-03     9.78610E-03    -55.3216E-03     110.013E-03    -55.2551E-03     9.75669E-03
             635     1.70327E-03     80.6485E-03    -49.0484E+06    -166.362E+06    -46.0925E+06     497.400E+03    -55.4157E-03     110.768E-03    -55.3528E-03     17.9197E-03    -55.3573E-03     110.079E-03    -55.2709E-03     17.8639E-03
             636     2.55476E-03     80.6710E-03    -46.8181E+06    -162.557E+06    -40.1053E+06     967.382E+03    -55.4890E-03     110.857E-03    -55.3676E-03     26.5071E-03    -55.4391E-03     110.180E-03    -55.2645E-03     26.4238E-03
             637     3.40650E-03     80.7019E-03    -43.6951E+06    -157.914E+06    -33.2375E+06     1.29402E+06    -55.5817E-03     110.961E-03    -55.3791E-03     35.0237E-03    -55.5413E-03     110.301E-03    -55.2530E-03     34.9060E-03
             638     4.25816E-03     80.7415E-03    -40.5501E+06    -150.368E+06    -25.4208E+06     1.04356E+06    -55.7224E-03     111.111E-03    -55.3887E-03     43.4327E-03    -55.7008E-03     110.485E-03    -55.2390E-03     43.2671E-03
             639     5.10990E-03     80.7892E-03    -37.2207E+06    -146.197E+06    -18.9607E+06     723.520E+03    -55.9267E-03     111.326E-03    -55.3991E-03     51.6621E-03    -55.9211E-03     110.724E-03    -55.2279E-03     51.4395E-03
             640     5.96152E-03     80.8455E-03    -34.1581E+06    -145.506E+06    -14.0624E+06     459.316E+03    -56.1493E-03     111.559E-03    -55.4100E-03     59.6718E-03    -56.1602E-03     110.973E-03    -55.2198E-03     59.3838E-03
             641     6.81328E-03     80.9090E-03    -31.7023E+06    -137.574E+06    -10.9472E+06    -214.784E+03    -56.3684E-03     111.771E-03    -55.4024E-03     67.6791E-03    -56.4150E-03     111.248E-03    -55.2117E-03     67.3107E-03
             642     7.66497E-03     80.9816E-03    -29.1344E+06    -127.720E+06    -10.6837E+06    -828.496E+03    -56.5981E-03     111.974E-03    -55.3762E-03     75.4230E-03    -56.6899E-03     111.540E-03    -55.2022E-03     74.9619E-03
             643     8.51674E-03     81.0603E-03    -26.5692E+06    -117.087E+06    -10.0469E+06    -919.116E+03    -56.8260E-03     112.175E-03    -55.3490E-03     83.0796E-03    -56.9800E-03     111.848E-03    -55.1910E-03     82.5177E-03
             644     9.36843E-03     81.1485E-03    -24.6221E+06    -103.771E+06    -9.65721E+06    -664.215E+03    -57.0505E-03     112.365E-03    -55.3149E-03     90.9605E-03    -57.2955E-03     112.183E-03    -55.1770E-03     90.2843E-03
             645     10.2207E-03     81.2427E-03    -23.0340E+06    -86.3330E+06    -9.68626E+06    -34.0531E+03    -57.3735E-03     112.648E-03    -55.2744E-03     98.9312E-03    -57.7483E-03     112.662E-03    -55.1642E-03     98.1216E-03
             646     11.0719E-03     81.3472E-03    -21.6607E+06    -62.4307E+06    -8.83159E+06     475.020E+03    -57.6639E-03     112.897E-03    -55.2334E-03     107.105E-03    -58.2297E-03     113.190E-03    -55.1557E-03     106.132E-03
             647     11.9240E-03     81.4577E-03    -20.7671E+06    -31.8247E+06    -9.67925E+06     1.09661E+06    -58.0334E-03     113.210E-03    -55.1766E-03     117.976E-03    -58.8953E-03     113.913E-03    -55.1488E-03     116.799E-03
             648     12.7753E-03     81.5834E-03    -20.0295E+06     18.2311E+06    -13.9822E+06     1.39802E+06    -58.6435E-03     113.713E-03    -55.0697E-03     136.941E-03    -60.0847E-03     115.189E-03    -55.1370E-03     135.468E-03
             649     13.6279E-03     81.7321E-03    -19.8242E+06     69.1547E+06    -1.11781E+06     643.811E+03    -61.3907E-03     116.425E-03    -55.0344E-03     184.822E-03    -64.3421E-03     119.555E-03    -55.1115E-03     182.849E-03
             650     14.4801E-03     81.9534E-03    -17.7363E+06     112.426E+06     42.2186E+06     661.686E+03    -69.8469E-03     124.996E-03    -55.1492E-03     284.915E-03    -78.3159E-03     133.679E-03    -55.0754E-03     282.059E-03
             651     15.3320E-03     82.3118E-03    -11.6175E+06     155.980E+06     93.9564E+06     1.04734E+06    -78.3489E-03     133.635E-03    -55.2866E-03     398.064E-03    -100.308E-03     155.834E-03    -55.0262E-03     396.878E-03
             652     16.1923E-03     82.7823E-03    -5.39572E+06     170.559E+06     114.747E+06     451.915E+03    -68.0667E-03     123.378E-03    -55.3117E-03     297.631E-03    -86.9589E-03     142.524E-03    -54.9775E-03     302.357E-03
             653     851.608E-06     81.6933E-03    -51.0694E+06    -168.951E+06    -50.0525E+06     254.608E+03    -55.4026E-03     110.741E-03    -55.3383E-03     9.74160E-03    -55.3417E-03     110.044E-03    -55.2695E-03     9.71197E-03
             654     1.70313E-03     81.7072E-03    -49.8316E+06    -166.901E+06    -46.7036E+06     336.442E+03    -55.4010E-03     110.764E-03    -55.3630E-03     17.9546E-03    -55.3449E-03     110.074E-03    -55.2822E-03     17.8968E-03
             655     2.55487E-03     81.7294E-03    -47.4763E+06    -162.992E+06    -40.6652E+06     202.425E+03    -55.4669E-03     110.835E-03    -55.3681E-03     26.5199E-03    -55.4189E-03     110.158E-03    -55.2662E-03     26.4267E-03
             656     3.40647E-03     81.7605E-03    -44.4828E+06    -158.689E+06    -34.2372E+06     403.608E+03    -55.5746E-03     110.949E-03    -55.3740E-03     35.0076E-03    -55.5356E-03     110.288E-03    -55.2506E-03     34.8783E-03
             657     4.25824E-03     81.7998E-03    -41.2657E+06    -150.172E+06    -27.7524E+06     685.654E+03    -55.7330E-03     111.109E-03    -55.3764E-03     43.4290E-03    -55.7119E-03     110.489E-03    -55.2376E-03     43.2586E-03
             658     5.10979E-03     81.8480E-03    -38.4811E+06    -146.119E+06    -21.1002E+06     587.450E+03    -55.9250E-03     111.315E-03    -55.3901E-03     51.6473E-03    -55.9227E-03     110.719E-03    -55.2279E-03     51.4228E-03
             659     5.96161E-03     81.9036E-03    -35.3990E+06    -144.687E+06    -15.5972E+06     41.8702E+03    -56.1581E-03     111.562E-03    -55.4041E-03     59.6604E-03    -56.1743E-03     110.984E-03    -55.2210E-03     59.3665E-03
             660     6.81317E-03     81.9680E-03    -31.5774E+06    -136.297E+06    -11.8850E+06    -987.500E+03    -56.3715E-03     111.770E-03    -55.3980E-03     67.6135E-03    -56.4181E-03     111.255E-03    -55.2140E-03     67.2347E-03
             661     7.66503E-03     82.0395E-03    -28.4925E+06    -127.616E+06    -11.1044E+06    -1.37515E+06    -56.5908E-03     111.966E-03    -55.3750E-03     75.4048E-03    -56.6788E-03     111.532E-03    -55.2041E-03     74.9368E-03
             662     8.51663E-03     82.1195E-03    -26.6416E+06    -117.032E+06    -10.8632E+06    -1.37004E+06    -56.8194E-03     112.165E-03    -55.3459E-03     83.0507E-03    -56.9726E-03     111.840E-03    -55.1919E-03     82.4832E-03
             663     9.36873E-03     82.2060E-03    -24.9684E+06    -104.228E+06    -10.4101E+06    -1.12272E+06    -57.1257E-03     112.442E-03    -55.3162E-03     90.9269E-03    -57.3710E-03     112.259E-03    -55.1809E-03     90.2433E-03
             664     10.2200E-03     82.3021E-03    -23.3375E+06    -87.0062E+06    -10.5089E+06    -525.368E+03    -57.4025E-03     112.682E-03    -55.2797E-03     98.9473E-03    -57.7766E-03     112.695E-03    -55.1723E-03     98.1311E-03
             665     11.0723E-03     82.4049E-03    -21.8546E+06    -63.1847E+06    -9.68380E+06    -56.5839E+03    -57.5063E-03     112.739E-03    -55.2331E-03     107.154E-03    -58.0691E-03     113.028E-03    -55.1582E-03     106.178E-03
             666     11.9239E-03     82.5168E-03    -20.1660E+06    -32.7630E+06    -10.0468E+06     755.982E+03    -57.8484E-03     113.012E-03    -55.1638E-03     118.474E-03    -58.7034E-03     113.708E-03    -55.1373E-03     117.300E-03
             667     12.7762E-03     82.6418E-03    -19.0347E+06     17.1960E+06    -13.8316E+06     1.41325E+06    -58.4939E-03     113.541E-03    -55.0472E-03     136.950E-03    -59.9278E-03     115.009E-03    -55.1137E-03     135.480E-03
             668     13.6285E-03     82.7899E-03    -18.9068E+06     69.5648E+06    -286.347E+03     1.85907E+06    -61.4267E-03     116.438E-03    -55.0111E-03     184.700E-03    -64.3855E-03     119.577E-03    -55.0860E-03     182.734E-03
             669     14.4802E-03     83.0132E-03    -17.4370E+06     113.939E+06     43.4928E+06     896.937E+03    -69.7421E-03     124.871E-03    -55.1288E-03     284.660E-03    -78.1889E-03     133.534E-03    -55.0512E-03     281.805E-03
             670     15.3342E-03     83.3683E-03    -12.5690E+06     156.207E+06     93.6280E+06    -1.13516E+06    -78.4902E-03     133.772E-03    -55.2823E-03     396.017E-03    -100.623E-03     156.144E-03    -55.0224E-03     394.841E-03
             671     16.1796E-03     83.8359E-03    -6.15531E+06     169.675E+06     113.200E+06    -116.400E+03    -67.9289E-03     123.262E-03    -55.3329E-03     296.110E-03    -86.9997E-03     142.585E-03    -55.0040E-03     300.791E-03
             672     851.534E-06     82.7520E-03    -51.7538E+06    -169.651E+06    -50.8760E+06     297.098E+03    -55.3761E-03     110.725E-03    -55.3490E-03     9.72432E-03    -55.3164E-03     110.027E-03    -55.2824E-03     9.69511E-03
             673     1.70325E-03     82.7656E-03    -50.3538E+06    -166.847E+06    -46.5738E+06     277.774E+03    -55.4012E-03     110.761E-03    -55.3600E-03     17.9531E-03    -55.3479E-03     110.072E-03    -55.2779E-03     17.8945E-03
             674     2.55479E-03     82.7880E-03    -48.2359E+06    -162.728E+06    -40.2624E+06    -75.8184E+03    -55.4703E-03     110.840E-03    -55.3699E-03     26.4853E-03    -55.4270E-03     110.165E-03    -55.2653E-03     26.3882E-03
             675     3.40654E-03     82.8189E-03    -45.1934E+06    -158.762E+06    -34.3657E+06    -458.021E+03    -55.5978E-03     110.976E-03    -55.3782E-03     34.9880E-03    -55.5621E-03     110.316E-03    -55.2543E-03     34.8472E-03
             676     4.25806E-03     82.8585E-03    -41.6800E+06    -150.684E+06    -28.5500E+06    -297.401E+03    -55.7366E-03     111.117E-03    -55.3801E-03     43.4178E-03    -55.7157E-03     110.496E-03    -55.2440E-03     43.2346E-03
             677     5.10995E-03     82.9062E-03    -37.7979E+06    -146.114E+06    -21.5713E+06     78.0676E+03    -55.9345E-03     111.327E-03    -55.3929E-03     51.6305E-03    -55.9282E-03     110.731E-03    -55.2341E-03     51.3993E-03
             678     5.96142E-03     82.9624E-03    -34.0659E+06    -142.851E+06    -16.8188E+06    -960.807E+03    -56.1627E-03     111.562E-03    -55.3991E-03     59.6573E-03    -56.1731E-03     110.993E-03    -55.2267E-03     59.3505E-03
             679     6.81325E-03     83.0262E-03    -31.1870E+06    -135.261E+06    -13.8035E+06    -2.03012E+06    -56.3688E-03     111.760E-03    -55.3911E-03     67.5965E-03    -56.4122E-03     111.252E-03    -55.2187E-03     67.2042E-03
             680     7.66484E-03     83.0982E-03    -28.7921E+06    -127.792E+06    -12.1455E+06    -1.99164E+06    -56.5822E-03     111.956E-03    -55.3739E-03     75.3708E-03    -56.6698E-03     111.523E-03    -55.2076E-03     74.8952E-03
             681     8.51687E-03     83.1776E-03    -26.5569E+06    -117.067E+06    -11.1725E+06    -1.63907E+06    -56.8441E-03     112.192E-03    -55.3483E-03     82.9980E-03    -56.9965E-03     111.867E-03    -55.1959E-03     82.4264E-03
             682     9.36825E-03     83.2650E-03    -24.7858E+06    -104.274E+06    -10.5990E+06    -1.43219E+06    -57.1576E-03     112.479E-03    -55.3211E-03     91.0224E-03    -57.4018E-03     112.296E-03    -55.1870E-03     90.3344E-03
             683     10.2204E-03     83.3604E-03    -23.0857E+06    -87.5543E+06    -11.1639E+06    -1.41537E+06    -57.3287E-03     112.609E-03    -55.2805E-03     98.9696E-03    -57.6995E-03     112.620E-03    -55.1758E-03     98.1432E-03
             684     11.0719E-03     83.4633E-03    -21.2835E+06    -64.1555E+06    -10.3281E+06    -756.469E+03    -57.4245E-03     112.652E-03    -55.2277E-03     107.047E-03    -57.9811E-03     112.935E-03    -55.1554E-03     106.064E-03
             685     11.9245E-03     83.5748E-03    -20.2832E+06    -33.8561E+06    -11.0198E+06     47.3702E+03    -57.6737E-03     112.823E-03    -55.1496E-03     118.180E-03    -58.5229E-03     113.512E-03    -55.1262E-03     117.003E-03
             686     12.7765E-03     83.7002E-03    -19.6288E+06     15.0385E+06    -15.7319E+06     1.00344E+06    -58.4591E-03     113.484E-03    -55.0250E-03     136.699E-03    -59.8853E-03     114.940E-03    -55.0970E-03     135.226E-03
             687     13.6280E-03     83.8486E-03    -17.7406E+06     69.2397E+06    -1.25014E+06     1.94912E+06    -61.7167E-03     116.715E-03    -54.9986E-03     184.337E-03    -64.6727E-03     119.858E-03    -55.0796E-03     182.359E-03
             688     14.4811E-03     84.0706E-03    -14.3310E+06     116.469E+06     45.4254E+06     1.99916E+06    -69.9915E-03     125.139E-03    -55.1479E-03     283.255E-03    -78.4296E-03     133.808E-03    -55.0688E-03     280.399E-03
             689     15.3313E-03     84.4273E-03    -10.6411E+06     157.800E+06     95.3328E+06     1.28238E+06    -78.4713E-03     133.777E-03    -55.3053E-03     397.215E-03    -100.622E-03     156.173E-03    -55.0420E-03     396.174E-03
             690     16.1870E-03     84.9010E-03    -6.01521E+06     170.111E+06     113.157E+06     341.984E+03    -68.0371E-03     123.366E-03    -55.3285E-03     298.583E-03    -87.1697E-03     142.753E-03    -55.0007E-03     303.417E-03
             691     851.683E-06     83.8104E-03    -52.1692E+06    -169.873E+06    -51.4262E+06    -155.579E+03    -55.3659E-03     110.704E-03    -55.3378E-03     9.75109E-03    -55.3072E-03     110.006E-03    -55.2729E-03     9.71615E-03
             692     1.70315E-03     83.8242E-03    -50.4596E+06    -166.987E+06    -47.1752E+06     40.8524E+03    -55.4210E-03     110.775E-03    -55.3538E-03     17.9100E-03    -55.3672E-03     110.086E-03    -55.2744E-03     17.8481E-03
             693     2.55487E-03     83.8464E-03    -47.9912E+06    -162.025E+06    -40.2800E+06    -122.942E+03    -55.4964E-03     110.871E-03    -55.3741E-03     26.4768E-03    -55.4529E-03     110.198E-03    -55.2710E-03     26.3790E-03
             694     3.40637E-03     83.8775E-03    -45.3074E+06    -157.901E+06    -33.8167E+06    -791.378E+03    -55.6112E-03     111.001E-03    -55.3897E-03     34.9785E-03    -55.5781E-03     110.345E-03    -55.2642E-03     34.8332E-03
             695     4.25819E-03     83.9168E-03    -42.4745E+06    -150.972E+06    -28.8431E+06    -1.08370E+06    -55.7445E-03     111.136E-03    -55.3910E-03     43.4023E-03    -55.7267E-03     110.515E-03    -55.2547E-03     43.2087E-03
             696     5.10965E-03     83.9649E-03    -38.8979E+06    -145.174E+06    -23.5298E+06    -1.85831E+06    -55.9210E-03     111.314E-03    -55.3925E-03     51.6966E-03    -55.9186E-03     110.726E-03    -55.2433E-03     51.4409E-03
             697     5.96152E-03     84.0209E-03    -34.9864E+06    -141.598E+06    -18.2698E+06    -2.40429E+06    -56.1357E-03     111.533E-03    -55.3968E-03     59.7023E-03    -56.1503E-03     110.973E-03    -55.2321E-03     59.3774E-03
             698     6.81312E-03     84.0848E-03    -31.9812E+06    -134.782E+06    -14.4691E+06    -2.34263E+06    -56.3601E-03     111.751E-03    -55.3910E-03     67.6048E-03    -56.4071E-03     111.248E-03    -55.2216E-03     67.2086E-03
             699     7.66500E-03     84.1566E-03    -29.6082E+06    -127.245E+06    -12.9507E+06    -2.71050E+06    -56.6011E-03     111.975E-03    -55.3738E-03     75.3597E-03    -56.6925E-03     111.547E-03    -55.2111E-03     74.8744E-03
             700     8.51647E-03     84.2362E-03    -27.0624E+06    -117.381E+06    -12.1198E+06    -2.74062E+06    -56.8654E-03     112.215E-03    -55.3500E-03     83.0994E-03    -57.0186E-03     111.891E-03    -55.2011E-03     82.5135E-03
             701     9.36856E-03     84.3235E-03    -24.3710E+06    -104.385E+06    -11.4579E+06    -2.47761E+06    -57.0928E-03     112.412E-03    -55.3189E-03     91.0566E-03    -57.3334E-03     112.228E-03    -55.1895E-03     90.3560E-03
             702     10.2201E-03     84.4188E-03    -22.3471E+06    -87.9252E+06    -11.6611E+06    -2.12406E+06    -57.2562E-03     112.530E-03    -55.2739E-03     98.8686E-03    -57.6215E-03     112.538E-03    -55.1723E-03     98.0344E-03
             703     11.0724E-03     84.5216E-03    -21.2063E+06    -65.3639E+06    -11.1580E+06    -1.48891E+06    -57.5752E-03     112.800E-03    -55.2245E-03     107.037E-03    -58.1289E-03     113.078E-03    -55.1548E-03     106.042E-03
             704     11.9238E-03     84.6331E-03    -19.8755E+06    -35.1594E+06    -11.6356E+06    -572.578E+03    -57.9240E-03     113.087E-03    -55.1627E-03     117.597E-03    -58.7707E-03     113.772E-03    -55.1411E-03     116.402E-03
             705     12.7762E-03     84.7579E-03    -18.7681E+06     13.7060E+06    -16.2905E+06     360.571E+03    -58.4569E-03     113.505E-03    -55.0478E-03     136.016E-03    -59.8700E-03     114.947E-03    -55.1220E-03     134.535E-03
             706     13.6290E-03     84.9077E-03    -17.7624E+06     68.7904E+06    -1.69784E+06     855.080E+03    -61.6964E-03     116.716E-03    -55.0201E-03     184.467E-03    -64.6445E-03     119.851E-03    -55.1026E-03     182.480E-03
             707     14.4782E-03     85.1304E-03    -15.5838E+06     115.653E+06     43.4138E+06     1.71830E+06    -69.9353E-03     125.093E-03    -55.1576E-03     283.924E-03    -78.4240E-03     133.811E-03    -55.0856E-03     281.090E-03
             708     15.3322E-03     85.4843E-03    -10.5701E+06     158.686E+06     94.7580E+06     2.50412E+06    -77.9396E-03     133.239E-03    -55.2996E-03     396.697E-03    -99.8920E-03     155.443E-03    -55.0406E-03     395.636E-03
             709     16.1866E-03     85.9547E-03    -5.71224E+06     172.515E+06     114.844E+06     1.45377E+06    -68.1541E-03     123.477E-03    -55.3226E-03     297.723E-03    -87.0668E-03     142.649E-03    -54.9903E-03     302.493E-03
             710     851.533E-06     84.8690E-03    -52.2695E+06    -169.232E+06    -51.2633E+06    -254.899E+03    -55.3768E-03     110.727E-03    -55.3500E-03     9.74718E-03    -55.3197E-03     110.032E-03    -55.2852E-03     9.71101E-03
             711     1.70325E-03     84.8827E-03    -50.9112E+06    -167.113E+06    -47.8996E+06    -511.301E+03    -55.4254E-03     110.788E-03    -55.3621E-03     17.8967E-03    -55.3727E-03     110.100E-03    -55.2855E-03     17.8276E-03
             712     2.55473E-03     84.9051E-03    -48.6678E+06    -161.296E+06    -42.4745E+06    -639.302E+03    -55.5047E-03     110.877E-03    -55.3727E-03     26.4951E-03    -55.4624E-03     110.213E-03    -55.2807E-03     26.3906E-03
             713     3.40648E-03     84.9360E-03    -45.4896E+06    -156.545E+06    -35.2228E+06    -1.33702E+06    -55.6205E-03     111.011E-03    -55.3906E-03     34.9927E-03    -55.5883E-03     110.364E-03    -55.2738E-03     34.8404E-03
             714     4.25794E-03     84.9755E-03    -41.3554E+06    -149.885E+06    -28.3126E+06    -2.39766E+06    -55.7538E-03     111.154E-03    -55.3998E-03     43.4200E-03    -55.7327E-03     110.536E-03    -55.2641E-03     43.2093E-03
             715     5.10986E-03     85.0233E-03    -37.6643E+06    -143.762E+06    -22.4803E+06    -2.98904E+06    -55.9068E-03     111.308E-03    -55.4010E-03     51.7046E-03    -55.9018E-03     110.724E-03    -55.2503E-03     51.4344E-03
             716     5.96141E-03     85.0794E-03    -35.0345E+06    -141.282E+06    -18.0234E+06    -3.15061E+06    -56.1179E-03     111.519E-03    -55.4013E-03     59.7114E-03    -56.1335E-03     110.961E-03    -55.2358E-03     59.3771E-03
             717     6.81323E-03     85.1433E-03    -32.2380E+06    -134.475E+06    -14.9007E+06    -3.10710E+06    -56.3435E-03     111.734E-03    -55.3900E-03     67.6075E-03    -56.3916E-03     111.233E-03    -55.2227E-03     67.2017E-03
             718     7.66480E-03     85.2152E-03    -29.6050E+06    -126.328E+06    -13.7129E+06    -3.18569E+06    -56.5932E-03     111.961E-03    -55.3682E-03     75.4310E-03    -56.6849E-03     111.539E-03    -55.2107E-03     74.9398E-03
             719     8.51680E-03     85.2947E-03    -27.4452E+06    -116.463E+06    -13.2184E+06    -4.00831E+06    -56.8620E-03     112.204E-03    -55.3425E-03     83.2021E-03    -57.0167E-03     111.887E-03    -55.1999E-03     82.6004E-03
             720     9.36824E-03     85.3820E-03    -25.3867E+06    -104.766E+06    -12.8195E+06    -4.03913E+06    -57.0888E-03     112.402E-03    -55.3129E-03     91.0070E-03    -57.3319E-03     112.220E-03    -55.1883E-03     90.2864E-03
             721     10.2205E-03     85.4771E-03    -23.4339E+06    -88.7054E+06    -13.0309E+06    -3.25020E+06    -57.3206E-03     112.592E-03    -55.2718E-03     98.6874E-03    -57.6885E-03     112.600E-03    -55.1744E-03     97.8364E-03
             722     11.0721E-03     85.5799E-03    -21.2404E+06    -65.7451E+06    -11.8236E+06    -2.66369E+06    -57.6369E-03     112.866E-03    -55.2289E-03     107.104E-03    -58.1897E-03     113.144E-03    -55.1619E-03     106.093E-03
             723     11.9239E-03     85.6925E-03    -19.4170E+06    -36.3427E+06    -12.1259E+06    -1.70659E+06    -58.1304E-03     113.307E-03    -55.1762E-03     117.981E-03    -58.9763E-03     113.990E-03    -55.1560E-03     116.766E-03
             724     12.7748E-03     85.8159E-03    -18.4026E+06     12.7028E+06    -16.3283E+06    -122.559E+03    -58.7618E-03     113.840E-03    -55.0780E-03     136.406E-03    -60.1862E-03     115.291E-03    -55.1514E-03     134.903E-03
             725     13.6265E-03     85.9656E-03    -18.3462E+06     67.8198E+06    -3.29637E+06     1.45345E+06    -61.3093E-03     116.347E-03    -55.0376E-03     184.960E-03    -64.2454E-03     119.468E-03    -55.1258E-03     183.003E-03
             726     14.4818E-03     86.1893E-03    -17.0303E+06     114.506E+06     41.0833E+06     1.47674E+06    -69.4008E-03     124.544E-03    -55.1432E-03     283.931E-03    -77.8764E-03     133.246E-03    -55.0791E-03     281.129E-03
             727     15.3331E-03     86.5432E-03    -12.4984E+06     157.907E+06     93.1433E+06     1.40376E+06    -78.9340E-03     134.242E-03    -55.3080E-03     395.741E-03    -100.936E-03     156.490E-03    -55.0531E-03     394.451E-03
             728     16.1821E-03     87.0126E-03    -5.96023E+06     173.183E+06     114.272E+06     1.40944E+06    -67.7028E-03     123.058E-03    -55.3553E-03     298.233E-03    -86.6740E-03     142.292E-03    -55.0264E-03     302.902E-03
             729     851.611E-06     85.9275E-03    -52.2824E+06    -168.497E+06    -51.5000E+06    -312.588E+03    -55.3925E-03     110.759E-03    -55.3664E-03     9.72988E-03    -55.3362E-03     110.068E-03    -55.3037E-03     9.69288E-03
             730     1.70310E-03     85.9413E-03    -51.0902E+06    -166.503E+06    -47.7212E+06    -562.713E+03    -55.4268E-03     110.804E-03    -55.3770E-03     17.9206E-03    -55.3761E-03     110.119E-03    -55.3001E-03     17.8509E-03
             731     2.55482E-03     85.9635E-03    -49.2488E+06    -160.210E+06    -43.7995E+06    -1.25086E+06    -55.4984E-03     110.873E-03    -55.3750E-03     26.4923E-03    -55.4587E-03     110.217E-03    -55.2903E-03     26.3800E-03
             732     3.40632E-03     85.9946E-03    -46.4318E+06    -154.052E+06    -37.6103E+06    -2.77948E+06    -55.5996E-03     110.981E-03    -55.3812E-03     35.0474E-03    -55.5722E-03     110.351E-03    -55.2785E-03     34.8768E-03
             733     4.25813E-03     86.0340E-03    -43.0647E+06    -148.084E+06    -28.8520E+06    -4.03725E+06    -55.7520E-03     111.152E-03    -55.3995E-03     43.4748E-03    -55.7414E-03     110.546E-03    -55.2666E-03     43.2431E-03
             734     5.10958E-03     86.0819E-03    -39.2989E+06    -143.187E+06    -22.2815E+06    -4.12008E+06    -55.9107E-03     111.318E-03    -55.4075E-03     51.6918E-03    -55.9150E-03     110.739E-03    -55.2543E-03     51.4067E-03
             735     5.96147E-03     86.1379E-03    -35.4433E+06    -140.784E+06    -18.2589E+06    -3.82666E+06    -56.0939E-03     111.497E-03    -55.4030E-03     59.7309E-03    -56.1118E-03     110.942E-03    -55.2387E-03     59.3884E-03
             736     6.81309E-03     86.2019E-03    -32.6039E+06    -134.004E+06    -15.6733E+06    -3.81230E+06    -56.3232E-03     111.709E-03    -55.3859E-03     67.6250E-03    -56.3725E-03     111.212E-03    -55.2227E-03     67.2106E-03
             737     7.66508E-03     86.2736E-03    -29.7694E+06    -124.877E+06    -14.2551E+06    -4.47369E+06    -56.5922E-03     111.955E-03    -55.3626E-03     75.4247E-03    -56.6860E-03     111.541E-03    -55.2096E-03     74.9168E-03
             738     8.51657E-03     86.3533E-03    -27.0683E+06    -115.546E+06    -13.1146E+06    -4.82957E+06    -56.8349E-03     112.174E-03    -55.3392E-03     83.1229E-03    -56.9890E-03     111.860E-03    -55.1979E-03     82.5108E-03
             739     9.36865E-03     86.4404E-03    -25.1369E+06    -104.725E+06    -12.9910E+06    -4.93995E+06    -57.1287E-03     112.439E-03    -55.3104E-03     90.9950E-03    -57.3703E-03     112.257E-03    -55.1871E-03     90.2625E-03
             740     10.2200E-03     86.5356E-03    -23.0948E+06    -88.8508E+06    -13.7457E+06    -4.84158E+06    -57.4591E-03     112.733E-03    -55.2738E-03     98.7995E-03    -57.8250E-03     112.741E-03    -55.1802E-03     97.9257E-03
             741     11.0718E-03     86.6386E-03    -21.3958E+06    -66.9087E+06    -13.0393E+06    -3.91888E+06    -57.5503E-03     112.782E-03    -55.2321E-03     107.116E-03    -58.1006E-03     113.057E-03    -55.1693E-03     106.089E-03
             742     11.9241E-03     86.7503E-03    -20.1027E+06    -38.3273E+06    -13.8673E+06    -2.52466E+06    -57.8342E-03     112.998E-03    -55.1633E-03     118.530E-03    -58.6740E-03     113.670E-03    -55.1479E-03     117.316E-03
             743     12.7762E-03     86.8760E-03    -19.3814E+06     10.2186E+06    -18.5130E+06    -562.724E+03    -58.8289E-03     113.882E-03    -55.0532E-03     137.233E-03    -60.2576E-03     115.332E-03    -55.1324E-03     135.724E-03
             744     13.6281E-03     87.0236E-03    -18.4890E+06     66.3211E+06    -4.84031E+06     1.70373E+06    -61.5786E-03     116.603E-03    -55.0245E-03     184.631E-03    -64.5146E-03     119.723E-03    -55.1180E-03     182.663E-03
             745     14.4789E-03     87.2457E-03    -16.2587E+06     114.689E+06     40.8871E+06     2.55332E+06    -69.6018E-03     124.747E-03    -55.1456E-03     284.121E-03    -78.0474E-03     133.424E-03    -55.0839E-03     281.307E-03
             746     15.3316E-03     87.6026E-03    -12.4669E+06     158.397E+06     92.9467E+06     1.87905E+06    -78.5873E-03     133.879E-03    -55.2918E-03     398.123E-03    -100.706E-03     156.246E-03    -55.0387E-03     396.969E-03
             747     16.1843E-03     88.0745E-03    -5.91081E+06     174.041E+06     114.277E+06     761.428E+03    -67.5466E-03     122.856E-03    -55.3098E-03     297.976E-03    -86.5675E-03     142.143E-03    -54.9822E-03     302.734E-03
             748     851.503E-06     86.9861E-03    -52.5134E+06    -167.685E+06    -51.6784E+06    -563.975E+03    -55.4189E-03     110.759E-03    -55.3401E-03     9.72751E-03    -55.3647E-03     110.073E-03    -55.2792E-03     9.68715E-03
             749     1.70322E-03     86.9998E-03    -50.7167E+06    -165.394E+06    -47.7540E+06    -984.808E+03    -55.4402E-03     110.819E-03    -55.3788E-03     17.9584E-03    -55.3891E-03     110.139E-03    -55.3042E-03     17.8834E-03
             750     2.55465E-03     87.0222E-03    -47.8520E+06    -157.818E+06    -41.9970E+06    -2.25071E+06    -55.4931E-03     110.876E-03    -55.3830E-03     26.4994E-03    -55.4525E-03     110.227E-03    -55.2948E-03     26.3742E-03
             751     3.40648E-03     87.0530E-03    -45.2220E+06    -151.648E+06    -35.3554E+06    -3.28006E+06    -55.5913E-03     110.980E-03    -55.3888E-03     35.0477E-03    -55.5646E-03     110.357E-03    -55.2801E-03     34.8707E-03
             752     4.25799E-03     87.0927E-03    -42.9384E+06    -146.016E+06    -28.2644E+06    -4.02885E+06    -55.7394E-03     111.138E-03    -55.3988E-03     43.4785E-03    -55.7320E-03     110.542E-03    -55.2662E-03     43.2472E-03
             753     5.10981E-03     87.1404E-03    -40.0344E+06    -141.701E+06    -22.1919E+06    -5.18119E+06    -55.9143E-03     111.321E-03    -55.4063E-03     51.6887E-03    -55.9246E-03     110.750E-03    -55.2538E-03     51.3899E-03
             754     5.96137E-03     87.1963E-03    -36.8270E+06    -141.057E+06    -18.4954E+06    -4.99043E+06    -56.0942E-03     111.499E-03    -55.4051E-03     59.6948E-03    -56.1183E-03     110.946E-03    -55.2396E-03     59.3370E-03
             755     6.81330E-03     87.2603E-03    -33.2191E+06    -132.344E+06    -15.8700E+06    -4.97778E+06    -56.3289E-03     111.714E-03    -55.3854E-03     67.6441E-03    -56.3834E-03     111.227E-03    -55.2247E-03     67.2147E-03
             756     7.66475E-03     87.3322E-03    -29.9681E+06    -122.989E+06    -14.7817E+06    -6.13939E+06    -56.5828E-03     111.942E-03    -55.3596E-03     75.4212E-03    -56.6795E-03     111.539E-03    -55.2117E-03     74.8920E-03
             757     8.51673E-03     87.4117E-03    -26.9929E+06    -115.434E+06    -14.1829E+06    -6.47455E+06    -56.7979E-03     112.131E-03    -55.3333E-03     83.1260E-03    -56.9500E-03     111.819E-03    -55.1977E-03     82.4934E-03
             758     9.36833E-03     87.4988E-03    -24.0649E+06    -104.174E+06    -13.7914E+06    -6.32519E+06    -57.0937E-03     112.394E-03    -55.2998E-03     91.1994E-03    -57.3291E-03     112.214E-03    -55.1828E-03     90.4506E-03
             759     10.2204E-03     87.5946E-03    -22.1087E+06    -89.0406E+06    -14.3833E+06    -5.82175E+06    -57.4174E-03     112.678E-03    -55.2607E-03     99.1590E-03    -57.7765E-03     112.684E-03    -55.1714E-03     98.2756E-03
             760     11.0720E-03     87.6969E-03    -20.9897E+06    -68.3866E+06    -14.0338E+06    -4.69121E+06    -57.5995E-03     112.819E-03    -55.2195E-03     107.140E-03    -58.1456E-03     113.089E-03    -55.1601E-03     106.101E-03
             761     11.9240E-03     87.8084E-03    -20.0478E+06    -40.7414E+06    -15.3075E+06    -3.05695E+06    -57.7161E-03     112.865E-03    -55.1489E-03     118.257E-03    -58.5474E-03     113.525E-03    -55.1373E-03     117.039E-03
             762     12.7765E-03     87.9338E-03    -19.2522E+06     6.92446E+06    -20.2899E+06    -1.03206E+06    -58.5453E-03     113.570E-03    -55.0252E-03     137.305E-03    -59.9528E-03     114.993E-03    -55.1088E-03     135.806E-03
             763     13.6277E-03     88.0838E-03    -18.6421E+06     63.8887E+06    -6.77945E+06     1.20690E+06    -61.6724E-03     116.663E-03    -54.9903E-03     184.319E-03    -64.6035E-03     119.774E-03    -55.0898E-03     182.343E-03
             764     14.4806E-03     88.3035E-03    -16.4452E+06     113.780E+06     38.2268E+06     2.98562E+06    -69.5352E-03     124.639E-03    -55.1039E-03     284.999E-03    -77.9834E-03     133.322E-03    -55.0539E-03     282.197E-03
             765     15.3334E-03     88.6620E-03    -11.4591E+06     160.849E+06     93.2320E+06     2.43367E+06    -77.7555E-03     132.982E-03    -55.2261E-03     399.231E-03    -99.9091E-03     155.395E-03    -54.9766E-03     398.210E-03
             766     16.1892E-03     89.1310E-03    -6.19235E+06     176.646E+06     116.042E+06     695.168E+03    -68.3374E-03     123.592E-03    -55.2547E-03     296.960E-03    -87.3803E-03     142.904E-03    -54.9216E-03     301.687E-03
             767     851.688E-06     88.0447E-03    -52.1596E+06    -166.037E+06    -51.4599E+06    -996.731E+03    -55.4162E-03     110.747E-03    -55.3311E-03     9.74071E-03    -55.3629E-03     110.069E-03    -55.2720E-03     9.69476E-03
             768     1.70306E-03     88.0585E-03    -50.2348E+06    -163.197E+06    -47.0618E+06    -2.13863E+06    -55.4390E-03     110.814E-03    -55.3749E-03     17.9642E-03    -55.3897E-03     110.143E-03    -55.3007E-03     17.8742E-03
             769     2.55486E-03     88.0807E-03    -47.4989E+06    -154.837E+06    -40.5830E+06    -3.46233E+06    -55.5012E-03     110.886E-03    -55.3850E-03     26.5081E-03    -55.4652E-03     110.250E-03    -55.2945E-03     26.3671E-03
             770     3.40629E-03     88.1117E-03    -44.0463E+06    -150.522E+06    -33.0593E+06    -3.75395E+06    -55.6105E-03     111.011E-03    -55.4008E-03     35.0179E-03    -55.5829E-03     110.389E-03    -55.2839E-03     34.8344E-03
             771     4.25809E-03     88.1511E-03    -40.4373E+06    -143.834E+06    -26.4617E+06    -3.94770E+06    -55.7274E-03     111.132E-03    -55.4047E-03     43.4406E-03    -55.7132E-03     110.540E-03    -55.2698E-03     43.2103E-03
             772     5.10967E-03     88.1990E-03    -37.8764E+06    -139.746E+06    -20.7063E+06    -4.58281E+06    -55.8952E-03     111.302E-03    -55.4073E-03     51.6410E-03    -55.8996E-03     110.736E-03    -55.2533E-03     51.3499E-03
             773     5.96145E-03     88.2549E-03    -35.2692E+06    -139.958E+06    -17.1585E+06    -5.60531E+06    -56.1234E-03     111.531E-03    -55.4074E-03     59.6709E-03    -56.1433E-03     110.978E-03    -55.2391E-03     59.3047E-03
             774     6.81301E-03     88.3187E-03    -31.9618E+06    -130.103E+06    -16.5955E+06    -6.91218E+06    -56.3201E-03     111.697E-03    -55.3771E-03     67.7375E-03    -56.3704E-03     111.220E-03    -55.2250E-03     67.2836E-03
             775     7.66500E-03     88.3909E-03    -28.8209E+06    -121.588E+06    -16.0045E+06    -7.48808E+06    -56.5194E-03     111.865E-03    -55.3454E-03     75.5188E-03    -56.6102E-03     111.468E-03    -55.2073E-03     74.9737E-03
             776     8.51666E-03     88.4698E-03    -26.5622E+06    -114.215E+06    -15.4624E+06    -8.10138E+06    -56.7708E-03     112.086E-03    -55.3151E-03     83.2621E-03    -56.9206E-03     111.781E-03    -55.1883E-03     82.6092E-03
             777     9.36869E-03     88.5576E-03    -24.7080E+06    -103.963E+06    -15.3199E+06    -8.08728E+06    -57.0257E-03     112.305E-03    -55.2794E-03     91.3343E-03    -57.2619E-03     112.129E-03    -55.1694E-03     90.5647E-03
             778     10.2205E-03     88.6525E-03    -22.7900E+06    -89.7564E+06    -15.7255E+06    -7.10573E+06    -57.2454E-03     112.479E-03    -55.2335E-03     99.2482E-03    -57.6033E-03     112.483E-03    -55.1489E-03     98.3530E-03
             779     11.0725E-03     88.7560E-03    -20.8588E+06    -69.6511E+06    -15.2496E+06    -5.83060E+06    -57.5875E-03     112.773E-03    -55.1860E-03     107.423E-03    -58.1286E-03     113.037E-03    -55.1310E-03     106.372E-03
             780     11.9240E-03     88.8665E-03    -19.4679E+06    -42.2217E+06    -15.9951E+06    -3.83229E+06    -57.9989E-03     113.127E-03    -55.1281E-03     118.363E-03    -58.8297E-03     113.785E-03    -55.1186E-03     117.125E-03
             781     12.7759E-03     88.9918E-03    -19.6470E+06     3.56527E+06    -21.1707E+06    -993.130E+03    -58.4828E-03     113.498E-03    -55.0153E-03     137.614E-03    -59.8848E-03     114.904E-03    -55.0978E-03     136.119E-03
             782     13.6291E-03     89.1424E-03    -19.3738E+06     60.7189E+06    -10.6402E+06     1.20295E+06    -61.0876E-03     116.033E-03    -54.9449E-03     184.561E-03    -64.0026E-03     119.125E-03    -55.0581E-03     182.614E-03
             783     14.4805E-03     89.3620E-03    -16.7585E+06     113.019E+06     34.5409E+06     1.48259E+06    -69.5514E-03     124.598E-03    -55.0462E-03     283.647E-03    -77.9983E-03     133.286E-03    -55.0131E-03     280.803E-03
             784     15.3353E-03     89.7173E-03    -12.2472E+06     161.179E+06     92.4135E+06     1.55056E+06    -78.8195E-03     134.057E-03    -55.2372E-03     395.839E-03    -100.832E-03     156.330E-03    -54.9911E-03     394.635E-03
             785     16.1843E-03     90.1906E-03    -5.36668E+06     177.786E+06     116.283E+06     1.39056E+06    -67.6585E-03     122.963E-03    -55.3043E-03     295.125E-03    -86.5476E-03     142.127E-03    -54.9729E-03     299.808E-03
             786     851.464E-06     89.1033E-03    -53.3293E+06    -163.150E+06    -52.2886E+06    -1.49672E+06    -55.3990E-03     110.748E-03    -55.3490E-03     9.77014E-03    -55.3546E-03     110.087E-03    -55.2966E-03     9.71788E-03
             787     1.70327E-03     89.1171E-03    -51.6622E+06    -160.027E+06    -47.6434E+06    -2.75367E+06    -55.4238E-03     110.799E-03    -55.3752E-03     17.9281E-03    -55.3854E-03     110.147E-03    -55.3065E-03     17.8300E-03
             788     2.55465E-03     89.1393E-03    -49.5847E+06    -152.154E+06    -41.9017E+06    -3.73162E+06    -55.4903E-03     110.871E-03    -55.3806E-03     26.5049E-03    -55.4668E-03     110.253E-03    -55.2976E-03     26.3604E-03
             789     3.40643E-03     89.1703E-03    -46.8439E+06    -148.649E+06    -35.3048E+06    -4.79578E+06    -55.5947E-03     110.988E-03    -55.3932E-03     35.0337E-03    -55.5805E-03     110.382E-03    -55.2862E-03     34.8368E-03
             790     4.25793E-03     89.2096E-03    -43.2660E+06    -142.753E+06    -28.8615E+06    -5.04250E+06    -55.7084E-03     111.104E-03    -55.3961E-03     43.4599E-03    -55.7064E-03     110.526E-03    -55.2707E-03     43.2155E-03
             791     5.10977E-03     89.2576E-03    -39.0166E+06    -137.946E+06    -22.9231E+06    -5.18124E+06    -55.8577E-03     111.251E-03    -55.3928E-03     51.6799E-03    -55.8672E-03     110.698E-03    -55.2508E-03     51.3817E-03
             792     5.96144E-03     89.3133E-03    -34.7646E+06    -136.466E+06    -18.3343E+06    -6.94767E+06    -56.0846E-03     111.473E-03    -55.3883E-03     59.7835E-03    -56.1053E-03     110.939E-03    -55.2317E-03     59.4008E-03
             793     6.81325E-03     89.3774E-03    -31.3462E+06    -127.808E+06    -17.4274E+06    -8.54817E+06    -56.2722E-03     111.629E-03    -55.3564E-03     67.7845E-03    -56.3214E-03     111.163E-03    -55.2128E-03     67.3103E-03
             794     7.66500E-03     89.4488E-03    -28.6565E+06    -120.300E+06    -17.2042E+06    -9.07143E+06    -56.4780E-03     111.799E-03    -55.3211E-03     75.6006E-03    -56.5679E-03     111.410E-03    -55.1911E-03     75.0360E-03
             795     8.51700E-03     89.5288E-03    -26.3488E+06    -112.644E+06    -15.6124E+06    -9.12583E+06    -56.7521E-03     112.046E-03    -55.2939E-03     83.2924E-03    -56.9029E-03     111.749E-03    -55.1705E-03     82.6267E-03
             796     9.36870E-03     89.6154E-03    -24.6181E+06    -103.503E+06    -15.6102E+06    -9.06580E+06    -56.9640E-03     112.222E-03    -55.2576E-03     91.2672E-03    -57.1997E-03     112.048E-03    -55.1498E-03     90.4858E-03
             797     10.2207E-03     89.7114E-03    -23.0389E+06    -90.4623E+06    -16.8166E+06    -8.80703E+06    -57.1167E-03     112.320E-03    -55.2038E-03     99.2441E-03    -57.4727E-03     112.322E-03    -55.1233E-03     98.3290E-03
             798     11.0729E-03     89.8134E-03    -21.3625E+06    -71.2671E+06    -16.6385E+06    -7.48058E+06    -57.4153E-03     112.562E-03    -55.1463E-03     107.646E-03    -57.9520E-03     112.818E-03    -55.0952E-03     106.581E-03
             799     11.9251E-03     89.9263E-03    -20.4947E+06    -45.1243E+06    -17.9664E+06    -4.86639E+06    -58.1019E-03     113.188E-03    -55.0865E-03     118.685E-03    -58.9320E-03     113.838E-03    -55.0812E-03     117.433E-03
             800     12.7765E-03     90.0497E-03    -19.5901E+06    -401.799E+03    -22.6410E+06    -1.40697E+06    -58.6296E-03     113.617E-03    -54.9872E-03     137.166E-03    -60.0222E-03     115.004E-03    -55.0714E-03     135.663E-03
             801     13.6284E-03     90.1999E-03    -18.4743E+06     58.7085E+06    -10.9232E+06     989.727E+03    -61.1243E-03     116.052E-03    -54.9280E-03     184.074E-03    -64.0266E-03     119.129E-03    -55.0409E-03     182.122E-03
             802     14.4828E-03     90.4196E-03    -17.5015E+06     113.895E+06     34.6050E+06     1.38214E+06    -70.4288E-03     125.486E-03    -55.0576E-03     283.622E-03    -78.9122E-03     134.212E-03    -55.0244E-03     280.704E-03
             803     15.3297E-03     90.7787E-03    -14.4929E+06     160.402E+06     90.4210E+06     689.929E+03    -79.6489E-03     134.933E-03    -55.2845E-03     397.138E-03    -101.805E-03     157.345E-03    -55.0440E-03     395.834E-03
             804     16.1817E-03     91.2466E-03    -6.46004E+06     177.329E+06     114.892E+06     258.494E+03    -66.6721E-03     122.008E-03    -55.3358E-03     295.642E-03    -85.6210E-03     141.230E-03    -55.0091E-03     300.373E-03
             805     851.646E-06     90.1620E-03    -53.9856E+06    -159.788E+06    -52.7623E+06    -1.43462E+06    -55.4027E-03     110.765E-03    -55.3623E-03     9.74703E-03    -55.3657E-03     110.122E-03    -55.3161E-03     9.69574E-03
             806     1.70301E-03     90.1755E-03    -52.6817E+06    -156.943E+06    -48.4799E+06    -2.53788E+06    -55.4047E-03     110.783E-03    -55.3782E-03     17.9290E-03    -55.3746E-03     110.149E-03    -55.3166E-03     17.8338E-03
             807     2.55481E-03     90.1980E-03    -50.5114E+06    -149.438E+06    -43.1283E+06    -3.59512E+06    -55.4571E-03     110.829E-03    -55.3723E-03     26.5268E-03    -55.4403E-03     110.228E-03    -55.2980E-03     26.3843E-03
             808     3.40633E-03     90.2288E-03    -48.0875E+06    -145.635E+06    -36.5831E+06    -4.71989E+06    -55.5627E-03     110.941E-03    -55.3779E-03     35.0478E-03    -55.5572E-03     110.353E-03    -55.2799E-03     34.8522E-03
             809     4.25811E-03     90.2683E-03    -45.1169E+06    -140.781E+06    -31.0796E+06    -6.18568E+06    -55.6721E-03     111.047E-03    -55.3747E-03     43.4630E-03    -55.6790E-03     110.484E-03    -55.2605E-03     43.2042E-03
             810     5.10974E-03     90.3158E-03    -40.7934E+06    -134.839E+06    -26.2250E+06    -8.09770E+06    -55.8206E-03     111.182E-03    -55.3611E-03     51.7665E-03    -55.8385E-03     110.652E-03    -55.2375E-03     51.4313E-03
             811     5.96157E-03     90.3720E-03    -36.2734E+06    -133.401E+06    -20.4329E+06    -9.22027E+06    -56.0159E-03     111.374E-03    -55.3578E-03     59.8500E-03    -56.0453E-03     110.860E-03    -55.2139E-03     59.4390E-03
             812     6.81337E-03     90.4356E-03    -32.9405E+06    -125.462E+06    -17.6007E+06    -9.80925E+06    -56.2205E-03     111.553E-03    -55.3326E-03     67.7587E-03    -56.2807E-03     111.102E-03    -55.1909E-03     67.2686E-03
             813     7.66528E-03     90.5075E-03    -30.2950E+06    -118.097E+06    -17.7598E+06    -10.7723E+06    -56.4604E-03     111.756E-03    -55.2953E-03     75.6237E-03    -56.5609E-03     111.381E-03    -55.1690E-03     75.0373E-03
             814     8.51701E-03     90.5867E-03    -27.5208E+06    -111.956E+06    -16.9391E+06    -10.9681E+06    -56.6873E-03     111.952E-03    -55.2647E-03     83.3909E-03    -56.8425E-03     111.661E-03    -55.1471E-03     82.7031E-03
             815     9.36897E-03     90.6742E-03    -24.6590E+06    -102.546E+06    -16.3192E+06    -10.7113E+06    -56.8729E-03     112.097E-03    -55.2245E-03     91.2902E-03    -57.1090E-03     111.929E-03    -55.1217E-03     90.4889E-03
             816     10.2211E-03     90.7687E-03    -22.5917E+06    -90.9939E+06    -17.2982E+06    -10.0856E+06    -57.0752E-03     112.245E-03    -55.1698E-03     99.2938E-03    -57.4273E-03     112.244E-03    -55.0916E-03     98.3630E-03
             817     11.0731E-03     90.8723E-03    -21.6932E+06    -73.2821E+06    -17.8096E+06    -8.56901E+06    -57.4928E-03     112.608E-03    -55.1153E-03     107.739E-03    -58.0267E-03     112.857E-03    -55.0667E-03     106.658E-03
             818     11.9252E-03     90.9834E-03    -20.1531E+06    -48.3997E+06    -19.4369E+06    -6.51712E+06    -57.9822E-03     113.037E-03    -55.0551E-03     118.649E-03    -58.7996E-03     113.668E-03    -55.0529E-03     117.383E-03
             819     12.7769E-03     91.1102E-03    -18.6256E+06    -5.00489E+06    -24.4208E+06    -3.25951E+06    -58.4801E-03     113.429E-03    -54.9486E-03     136.690E-03    -59.8508E-03     114.786E-03    -55.0364E-03     135.172E-03
             820     13.6295E-03     91.2557E-03    -18.4378E+06     55.8568E+06    -11.8288E+06     790.800E+03    -61.7172E-03     116.622E-03    -54.9049E-03     185.041E-03    -64.6450E-03     119.717E-03    -55.0183E-03     183.054E-03
             821     14.4789E-03     91.4804E-03    -17.2882E+06     114.208E+06     32.7076E+06     3.00738E+06    -70.2244E-03     125.247E-03    -55.0224E-03     286.539E-03    -78.7327E-03     134.004E-03    -54.9994E-03     283.692E-03
             822     15.3340E-03     91.8382E-03    -12.3900E+06     162.713E+06     89.9598E+06     1.76785E+06    -78.1381E-03     133.315E-03    -55.1765E-03     401.047E-03    -100.560E-03     156.009E-03    -54.9447E-03     400.050E-03
             823     16.1882E-03     92.3083E-03    -5.77613E+06     178.487E+06     115.898E+06     145.116E+03    -67.9441E-03     123.156E-03    -55.2123E-03     296.538E-03    -87.1200E-03     142.609E-03    -54.8832E-03     301.268E-03
             824     851.442E-06     91.2204E-03    -53.1203E+06    -156.877E+06    -52.1485E+06    -1.19171E+06    -55.3624E-03     110.729E-03    -55.3666E-03     9.74522E-03    -55.3262E-03     110.099E-03    -55.3229E-03     9.69707E-03
             825     1.70323E-03     91.2343E-03    -51.7737E+06    -153.930E+06    -48.2974E+06    -2.27893E+06    -55.3935E-03     110.751E-03    -55.3580E-03     17.9642E-03    -55.3635E-03     110.131E-03    -55.3012E-03     17.8726E-03
             826     2.55471E-03     91.2564E-03    -49.7318E+06    -146.337E+06    -43.1318E+06    -3.68479E+06    -55.4499E-03     110.803E-03    -55.3533E-03     26.5446E-03    -55.4337E-03     110.216E-03    -55.2846E-03     26.4011E-03
             827     3.40648E-03     91.2875E-03    -46.7690E+06    -142.714E+06    -36.4553E+06    -4.91354E+06    -55.5308E-03     110.889E-03    -55.3577E-03     35.0315E-03    -55.5231E-03     110.314E-03    -55.2652E-03     34.8337E-03
             828     4.25808E-03     91.3266E-03    -43.2797E+06    -136.207E+06    -29.8557E+06    -7.05433E+06    -55.6348E-03     110.987E-03    -55.3526E-03     43.4429E-03    -55.6408E-03     110.443E-03    -55.2416E-03     43.1731E-03
             829     5.10997E-03     91.3745E-03    -40.4074E+06    -130.602E+06    -24.7689E+06    -9.52258E+06    -55.7775E-03     111.117E-03    -55.3397E-03     51.7675E-03    -55.8017E-03     110.606E-03    -55.2156E-03     51.4142E-03
             830     5.96170E-03     91.4301E-03    -37.8019E+06    -131.169E+06    -20.6095E+06    -10.7090E+06    -55.9698E-03     111.302E-03    -55.3319E-03     59.8517E-03    -56.0097E-03     110.802E-03    -55.1900E-03     59.4220E-03
             831     6.81358E-03     91.4941E-03    -34.3088E+06    -122.602E+06    -18.0844E+06    -11.6375E+06    -56.1830E-03     111.486E-03    -55.3031E-03     67.7934E-03    -56.2534E-03     111.052E-03    -55.1660E-03     67.2802E-03
             832     7.66537E-03     91.5656E-03    -30.7848E+06    -115.701E+06    -17.7464E+06    -12.5275E+06    -56.3728E-03     111.637E-03    -55.2646E-03     75.6401E-03    -56.4789E-03     111.275E-03    -55.1409E-03     75.0323E-03
             833     8.51738E-03     91.6452E-03    -27.9927E+06    -110.654E+06    -17.8453E+06    -13.1365E+06    -56.5458E-03     111.768E-03    -55.2226E-03     83.5062E-03    -56.7033E-03     111.485E-03    -55.1108E-03     82.7934E-03
             834     9.36950E-03     91.7319E-03    -25.5291E+06    -102.026E+06    -17.5716E+06    -13.0315E+06    -56.7974E-03     111.973E-03    -55.1755E-03     91.4248E-03    -57.0361E-03     111.810E-03    -55.0784E-03     90.5961E-03
             835     10.2214E-03     91.8272E-03    -23.3889E+06    -91.5792E+06    -18.3472E+06    -11.8611E+06    -57.1814E-03     112.309E-03    -55.1277E-03     99.4106E-03    -57.5360E-03     112.309E-03    -55.0527E-03     98.4551E-03
             836     11.0737E-03     91.9297E-03    -20.9768E+06    -74.4460E+06    -18.3646E+06    -10.1542E+06    -57.6345E-03     112.720E-03    -55.0857E-03     108.117E-03    -58.1641E-03     112.964E-03    -55.0392E-03     107.013E-03
             837     11.9248E-03     92.0434E-03    -19.3600E+06    -51.4635E+06    -20.2488E+06    -8.14056E+06    -57.7257E-03     112.749E-03    -55.0237E-03     118.758E-03    -58.5306E-03     113.362E-03    -55.0223E-03     117.479E-03
             838     12.7778E-03     92.1659E-03    -19.4382E+06    -10.5675E+06    -26.6984E+06    -4.48579E+06    -58.2588E-03     113.159E-03    -54.9000E-03     137.091E-03    -59.6214E-03     114.492E-03    -54.9900E-03     135.563E-03
             839     13.6298E-03     92.3161E-03    -18.8935E+06     50.6471E+06    -18.6991E+06     99.2694E+03    -61.5646E-03     116.382E-03    -54.8178E-03     186.267E-03    -64.4746E-03     119.459E-03    -54.9573E-03     184.284E-03
             840     14.4835E-03     92.5394E-03    -15.7817E+06     113.909E+06     26.9069E+06     2.31140E+06    -69.0048E-03     123.897E-03    -54.8925E-03     286.404E-03    -77.4721E-03     132.635E-03    -54.9002E-03     283.662E-03
             841     15.3370E-03     92.8940E-03    -11.1819E+06     164.962E+06     90.2890E+06     2.04826E+06    -77.7712E-03     132.813E-03    -55.0419E-03     399.538E-03    -100.038E-03     155.364E-03    -54.8134E-03     398.523E-03
             842     16.1913E-03     93.3678E-03    -6.16751E+06     179.638E+06     116.853E+06     949.387E+03    -69.0084E-03     124.125E-03    -55.1167E-03     294.498E-03    -87.9938E-03     143.387E-03    -54.7839E-03     299.003E-03
             843     851.713E-06     92.2793E-03    -52.8048E+06    -154.042E+06    -52.2238E+06    -1.33329E+06    -55.3369E-03     110.651E-03    -55.3143E-03     9.73995E-03    -55.3032E-03     110.035E-03    -55.2755E-03     9.68992E-03
             844     1.70317E-03     92.2926E-03    -51.2994E+06    -150.566E+06    -48.5023E+06    -2.76288E+06    -55.3874E-03     110.710E-03    -55.3225E-03     17.9377E-03    -55.3596E-03     110.106E-03    -55.2723E-03     17.8399E-03
             845     2.55487E-03     92.3152E-03    -48.7513E+06    -142.773E+06    -42.9152E+06    -4.33823E+06    -55.4259E-03     110.751E-03    -55.3251E-03     26.5274E-03    -55.4103E-03     110.180E-03    -55.2620E-03     26.3757E-03
             846     3.40645E-03     92.3457E-03    -45.5350E+06    -139.272E+06    -35.5095E+06    -6.10364E+06    -55.4957E-03     110.827E-03    -55.3316E-03     35.0310E-03    -55.4882E-03     110.267E-03    -55.2412E-03     34.8180E-03
             847     4.25831E-03     92.3852E-03    -41.8667E+06    -131.242E+06    -27.7726E+06    -8.02506E+06    -55.6044E-03     110.933E-03    -55.3283E-03     43.4553E-03    -55.6135E-03     110.408E-03    -55.2161E-03     43.1732E-03
             848     5.10997E-03     92.4326E-03    -38.5369E+06    -126.917E+06    -21.5597E+06    -9.33182E+06    -55.7455E-03     111.067E-03    -55.3217E-03     51.7111E-03    -55.7703E-03     110.567E-03    -55.1896E-03     51.3603E-03
             849     5.96191E-03     92.4886E-03    -35.6201E+06    -127.346E+06    -18.4391E+06    -11.0321E+06    -55.9256E-03     111.232E-03    -55.3065E-03     59.8332E-03    -55.9631E-03     110.745E-03    -55.1624E-03     59.3998E-03
             850     6.81371E-03     92.5522E-03    -32.8614E+06    -118.811E+06    -17.7911E+06    -13.2623E+06    -56.0873E-03     111.351E-03    -55.2639E-03     67.8622E-03    -56.1561E-03     110.933E-03    -55.1330E-03     67.3296E-03
             851     7.66570E-03     92.6241E-03    -30.0813E+06    -113.385E+06    -17.3201E+06    -14.3962E+06    -56.2514E-03     111.472E-03    -55.2207E-03     75.6958E-03    -56.3576E-03     111.119E-03    -55.0993E-03     75.0659E-03
             852     8.51785E-03     92.7028E-03    -27.4237E+06    -108.388E+06    -17.3491E+06    -14.8588E+06    -56.4297E-03     111.601E-03    -55.1716E-03     83.5045E-03    -56.5877E-03     111.327E-03    -55.0614E-03     82.7715E-03
             853     9.36994E-03     92.7904E-03    -25.2781E+06    -101.501E+06    -17.8441E+06    -14.8189E+06    -56.7884E-03     111.910E-03    -55.1220E-03     91.5640E-03    -57.0257E-03     111.749E-03    -55.0274E-03     90.7137E-03
             854     10.2222E-03     92.8848E-03    -23.0905E+06    -91.4399E+06    -18.6349E+06    -14.1116E+06    -57.2776E-03     112.359E-03    -55.0814E-03     99.6690E-03    -57.6317E-03     112.361E-03    -55.0085E-03     98.6828E-03
             855     11.0734E-03     92.9890E-03    -21.0600E+06    -76.2708E+06    -19.3190E+06    -12.5095E+06    -57.2997E-03     112.333E-03    -55.0332E-03     108.391E-03    -57.8235E-03     112.567E-03    -54.9886E-03     107.266E-03
             856     11.9265E-03     93.1003E-03    -19.6407E+06    -54.9404E+06    -21.4824E+06    -9.46285E+06    -57.3868E-03     112.337E-03    -54.9498E-03     119.285E-03    -58.1820E-03     112.929E-03    -54.9491E-03     118.002E-03
             857     12.7785E-03     93.2243E-03    -18.5966E+06    -16.1851E+06    -27.6660E+06    -4.85256E+06    -58.5604E-03     113.388E-03    -54.8277E-03     138.079E-03    -59.9209E-03     114.705E-03    -54.9156E-03     136.535E-03
             858     13.6309E-03     93.3739E-03    -18.2622E+06     46.2333E+06    -22.1317E+06    -1.16696E+06    -61.4063E-03     116.147E-03    -54.7409E-03     185.630E-03    -64.2763E-03     119.181E-03    -54.8921E-03     183.649E-03
             859     14.4831E-03     93.5960E-03    -17.4506E+06     113.047E+06     22.1549E+06     246.120E+03    -68.7752E-03     123.589E-03    -54.8135E-03     283.558E-03    -77.1899E-03     132.279E-03    -54.8413E-03     280.805E-03
             860     15.3373E-03     93.9498E-03    -13.6966E+06     164.476E+06     87.6645E+06     1.29250E+06    -78.9397E-03     133.950E-03    -55.0101E-03     399.800E-03    -101.226E-03     156.517E-03    -54.7904E-03     398.461E-03
             861     16.1847E-03     94.4287E-03    -6.71195E+06     180.226E+06     116.813E+06     797.224E+03    -68.8021E-03     123.908E-03    -55.1058E-03     295.638E-03    -87.7715E-03     143.155E-03    -54.7733E-03     299.947E-03
             862     851.550E-06     93.3374E-03    -52.3337E+06    -150.297E+06    -51.6601E+06    -1.89991E+06    -55.3555E-03     110.608E-03    -55.2527E-03     9.74933E-03    -55.3257E-03     110.009E-03    -55.2172E-03     9.69202E-03
             863     1.70325E-03     93.3516E-03    -50.4657E+06    -146.264E+06    -47.7379E+06    -3.81024E+06    -55.3497E-03     110.647E-03    -55.2977E-03     17.9320E-03    -55.3251E-03     110.063E-03    -55.2511E-03     17.8207E-03
             864     2.55485E-03     93.3733E-03    -47.8423E+06    -138.947E+06    -41.9319E+06    -5.54114E+06    -55.3698E-03     110.664E-03    -55.2946E-03     26.5045E-03    -55.3566E-03     110.110E-03    -55.2334E-03     26.3374E-03
             865     3.40671E-03     93.4045E-03    -44.7541E+06    -135.052E+06    -34.0205E+06    -7.03878E+06    -55.4537E-03     110.752E-03    -55.2987E-03     35.0270E-03    -55.4505E-03     110.209E-03    -55.2080E-03     34.8022E-03
             866     4.25831E-03     93.4433E-03    -41.7202E+06    -127.059E+06    -27.3222E+06    -8.61653E+06    -55.5539E-03     110.843E-03    -55.2895E-03     43.4685E-03    -55.5689E-03     110.339E-03    -55.1814E-03     43.1794E-03
             867     5.11028E-03     93.4913E-03    -38.2535E+06    -123.392E+06    -21.6858E+06    -10.1243E+06    -55.6949E-03     110.974E-03    -55.2789E-03     51.7589E-03    -55.7231E-03     110.491E-03    -55.1529E-03     51.3987E-03
             868     5.96200E-03     93.5466E-03    -34.4823E+06    -122.519E+06    -17.2603E+06    -11.9300E+06    -55.8296E-03     111.092E-03    -55.2623E-03     59.8986E-03    -55.8699E-03     110.625E-03    -55.1209E-03     59.4550E-03
             869     6.81408E-03     93.6107E-03    -31.2981E+06    -114.217E+06    -16.2696E+06    -14.1181E+06    -55.9448E-03     111.156E-03    -55.2115E-03     67.9359E-03    -56.0141E-03     110.756E-03    -55.0819E-03     67.3947E-03
             870     7.66625E-03     93.6816E-03    -28.7253E+06    -110.391E+06    -16.4794E+06    -15.8326E+06    -56.1518E-03     111.311E-03    -55.1592E-03     75.7836E-03    -56.2563E-03     110.969E-03    -55.0399E-03     75.1373E-03
             871     8.51823E-03     93.7613E-03    -26.4750E+06    -106.144E+06    -16.7301E+06    -16.3855E+06    -56.4056E-03     111.516E-03    -55.1099E-03     83.5472E-03    -56.5627E-03     111.250E-03    -55.0013E-03     82.7958E-03
             872     9.37062E-03     93.8473E-03    -24.4063E+06    -100.055E+06    -17.2679E+06    -16.3203E+06    -56.7592E-03     111.823E-03    -55.0636E-03     91.8952E-03    -56.9949E-03     111.667E-03    -54.9694E-03     91.0276E-03
             873     10.2221E-03     93.9442E-03    -22.7223E+06    -91.4601E+06    -18.7251E+06    -15.8261E+06    -57.0031E-03     112.016E-03    -55.0131E-03     100.196E-03    -57.3530E-03     112.015E-03    -54.9412E-03     99.1966E-03
             874     11.0749E-03     94.0459E-03    -21.3414E+06    -77.9633E+06    -20.0207E+06    -14.4832E+06    -56.9281E-03     111.873E-03    -54.9445E-03     108.312E-03    -57.4462E-03     112.096E-03    -54.9006E-03     107.171E-03
             875     11.9277E-03     94.1576E-03    -19.5119E+06    -58.8144E+06    -22.6596E+06    -11.4227E+06    -57.4148E-03     112.269E-03    -54.8540E-03     119.524E-03    -58.2003E-03     112.842E-03    -54.8537E-03     118.217E-03
             876     12.7803E-03     94.2827E-03    -17.8514E+06    -22.6375E+06    -28.5873E+06    -6.81597E+06    -58.7201E-03     113.466E-03    -54.7461E-03     138.591E-03    -60.0685E-03     114.754E-03    -54.8303E-03     137.022E-03
             877     13.6311E-03     94.4332E-03    -17.6801E+06     42.1114E+06    -23.6381E+06    -1.76885E+06    -61.6171E-03     116.286E-03    -54.6690E-03     185.508E-03    -64.4866E-03     119.311E-03    -54.8226E-03     183.512E-03
             878     14.4840E-03     94.6522E-03    -16.6429E+06     112.267E+06     18.4568E+06     1.33373E+06    -69.7095E-03     124.468E-03    -54.7583E-03     284.135E-03    -78.0993E-03     133.144E-03    -54.8047E-03     281.303E-03
             879     15.3352E-03     95.0084E-03    -12.1452E+06     164.886E+06     85.2725E+06     1.26035E+06    -78.4569E-03     133.418E-03    -54.9606E-03     402.206E-03    -100.985E-03     156.240E-03    -54.7557E-03     401.065E-03
             880     16.1927E-03     95.4899E-03    -5.57886E+06     181.015E+06     116.865E+06     561.171E+03    -68.2929E-03     123.323E-03    -55.0300E-03     298.210E-03    -87.5625E-03     142.876E-03    -54.7000E-03     302.747E-03
             881     851.683E-06     94.3965E-03    -51.0198E+06    -145.031E+06    -50.3246E+06    -2.61067E+06    -55.2959E-03     110.535E-03    -55.2389E-03     9.83751E-03    -55.2690E-03     109.958E-03    -55.2062E-03     9.77104E-03
             882     1.70326E-03     94.4096E-03    -49.3687E+06    -141.092E+06    -46.4102E+06    -4.73269E+06    -55.2925E-03     110.550E-03    -55.2575E-03     17.9411E-03    -55.2719E-03     109.988E-03    -55.2134E-03     17.8181E-03
             883     2.55505E-03     94.4322E-03    -47.1342E+06    -134.713E+06    -40.9122E+06    -6.34420E+06    -55.3190E-03     110.569E-03    -55.2502E-03     26.5087E-03    -55.3098E-03     110.033E-03    -55.1911E-03     26.3316E-03
             884     3.40669E-03     94.4625E-03    -44.2228E+06    -130.769E+06    -34.0559E+06    -7.84243E+06    -55.3778E-03     110.623E-03    -55.2451E-03     35.0577E-03    -55.3781E-03     110.101E-03    -55.1617E-03     34.8233E-03
             885     4.25865E-03     94.5020E-03    -40.5227E+06    -122.877E+06    -27.4480E+06    -9.44526E+06    -55.4646E-03     110.692E-03    -55.2276E-03     43.5436E-03    -55.4794E-03     110.207E-03    -55.1280E-03     43.2451E-03
             886     5.11044E-03     94.5491E-03    -37.0206E+06    -119.321E+06    -21.1550E+06    -11.0659E+06    -55.5769E-03     110.789E-03    -55.2118E-03     51.8778E-03    -55.6054E-03     110.323E-03    -55.0909E-03     51.5074E-03
             887     5.96250E-03     94.6052E-03    -33.6369E+06    -117.416E+06    -16.1999E+06    -13.2626E+06    -55.6930E-03     110.880E-03    -55.1874E-03     60.0088E-03    -55.7377E-03     110.436E-03    -55.0494E-03     59.5504E-03
             888     6.81463E-03     94.6680E-03    -30.1430E+06    -109.433E+06    -14.5859E+06    -15.4452E+06    -55.8414E-03     110.975E-03    -55.1336E-03     68.0766E-03    -55.9138E-03     110.594E-03    -55.0041E-03     67.5206E-03
             889     7.66669E-03     94.7402E-03    -27.4895E+06    -107.058E+06    -15.1857E+06    -16.6947E+06    -56.0388E-03     111.116E-03    -55.0775E-03     75.9511E-03    -56.1430E-03     110.787E-03    -54.9584E-03     75.2971E-03
             890     8.51913E-03     94.8183E-03    -25.6754E+06    -103.731E+06    -15.8644E+06    -17.4192E+06    -56.3340E-03     111.360E-03    -55.0257E-03     83.9250E-03    -56.4912E-03     111.104E-03    -54.9174E-03     83.1635E-03
             891     9.37088E-03     94.9063E-03    -24.1435E+06    -98.4220E+06    -16.6135E+06    -17.6198E+06    -56.5490E-03     111.523E-03    -54.9736E-03     92.3706E-03    -56.7855E-03     111.372E-03    -54.8789E-03     91.4924E-03
             892     10.2239E-03     95.0007E-03    -22.6293E+06    -91.1445E+06    -18.7061E+06    -17.2832E+06    -56.6474E-03     111.552E-03    -54.9046E-03     100.525E-03    -56.9936E-03     111.549E-03    -54.8331E-03     99.5185E-03
             893     11.0763E-03     95.1042E-03    -21.0324E+06    -78.5639E+06    -19.9735E+06    -16.1904E+06    -57.0911E-03     111.927E-03    -54.8363E-03     108.325E-03    -57.6057E-03     112.146E-03    -54.7918E-03     107.163E-03
             894     11.9285E-03     95.2141E-03    -19.4577E+06    -62.2047E+06    -23.1796E+06    -13.9754E+06    -57.7733E-03     112.547E-03    -54.7732E-03     119.637E-03    -58.5579E-03     113.108E-03    -54.7707E-03     118.289E-03
             895     12.7801E-03     95.3418E-03    -18.1872E+06    -29.9801E+06    -30.4072E+06     -9.3838E+06    -58.3608E-03     113.031E-03    -54.6700E-03     138.752E-03    -59.6805E-03     114.268E-03    -54.7522E-03     137.173E-03
             896     13.6337E-03     95.4900E-03    -16.8882E+06     35.3963E+06    -29.3872E+06    -2.83824E+06    -61.5902E-03     116.149E-03    -54.5592E-03     186.062E-03    -64.4349E-03     119.145E-03    -54.7329E-03     184.055E-03
             897     14.4852E-03     95.7123E-03    -14.8275E+06     110.240E+06     9.89456E+06     1.07488E+06    -70.3752E-03     125.020E-03    -54.6448E-03     284.440E-03    -78.7179E-03     133.673E-03    -54.7337E-03     281.544E-03
             898     15.3380E-03     96.0670E-03    -11.3931E+06     165.964E+06     82.2001E+06     1.18224E+06    -77.7731E-03     132.662E-03    -54.8889E-03     399.086E-03    -100.049E-03     155.248E-03    -54.7020E-03     398.174E-03
             899     16.1915E-03     96.5411E-03    -6.36342E+06     182.014E+06     117.823E+06     799.059E+03    -67.3506E-03     122.315E-03    -54.9649E-03     299.504E-03    -86.6143E-03     141.861E-03    -54.6305E-03     304.378E-03
             900     851.653E-06     95.4544E-03    -48.6534E+06    -138.862E+06    -47.7872E+06    -2.80811E+06    -55.2122E-03     110.402E-03    -55.1903E-03     9.86260E-03    -55.1861E-03     109.849E-03    -55.1573E-03     9.79355E-03
             901     1.70344E-03     95.4684E-03    -47.4486E+06    -135.303E+06    -44.4587E+06    -5.11909E+06    -55.2143E-03     110.402E-03    -55.1880E-03     17.9484E-03    -55.1953E-03     109.863E-03    -55.1453E-03     17.8208E-03
             902     2.55511E-03     95.4901E-03    -45.2706E+06    -130.189E+06    -39.6439E+06    -6.98413E+06    -55.2312E-03     110.405E-03    -55.1743E-03     26.5592E-03    -55.2210E-03     109.887E-03    -55.1181E-03     26.3746E-03
             903     3.40705E-03     95.5211E-03    -42.2912E+06    -125.752E+06    -33.3439E+06    -8.89621E+06    -55.2655E-03     110.424E-03    -55.1585E-03     35.1548E-03    -55.2642E-03     109.923E-03    -55.0816E-03     34.9082E-03
             904     4.25891E-03     95.5597E-03    -39.0115E+06    -118.529E+06    -26.7246E+06    -10.7560E+06    -55.3254E-03     110.458E-03    -55.1329E-03     43.7000E-03    -55.3398E-03     109.991E-03    -55.0381E-03     43.3866E-03
             905     5.11102E-03     95.6077E-03    -35.3093E+06    -115.086E+06    -20.0120E+06    -12.1630E+06    -55.4105E-03     110.518E-03    -55.1079E-03     52.0149E-03    -55.4378E-03     110.070E-03    -54.9899E-03     51.6329E-03
             906     5.96316E-03     95.6624E-03    -31.5779E+06    -111.384E+06    -14.6934E+06    -14.4732E+06    -55.5378E-03     110.611E-03    -55.0728E-03     60.2014E-03    -55.5825E-03     110.190E-03    -54.9390E-03     59.7306E-03
             907     6.81530E-03     95.7265E-03    -28.5485E+06    -105.213E+06    -12.6040E+06    -16.5740E+06    -55.6742E-03     110.692E-03    -55.0174E-03     68.3431E-03    -55.7468E-03     110.326E-03    -54.8865E-03     67.7768E-03
             908     7.66773E-03     95.7970E-03    -26.2615E+06    -104.115E+06    -12.8791E+06    -17.2433E+06    -55.8698E-03     110.828E-03    -54.9583E-03     76.3959E-03    -55.9744E-03     110.507E-03    -54.8337E-03     75.7399E-03
             909     8.51989E-03     95.8767E-03    -24.6669E+06    -100.659E+06    -14.1171E+06    -17.8502E+06    -56.1034E-03     110.998E-03    -54.8942E-03     84.5612E-03    -56.2612E-03     110.751E-03    -54.7831E-03     83.8014E-03
             910     9.37275E-03     95.9631E-03    -23.0605E+06    -96.3451E+06    -15.3326E+06    -18.7346E+06    -56.3120E-03     111.142E-03    -54.8297E-03     92.8029E-03    -56.5461E-03     110.996E-03    -54.7332E-03     91.9179E-03
             911     10.2249E-03     96.0584E-03    -21.5326E+06    -90.0665E+06    -17.7773E+06    -18.6076E+06    -56.6238E-03     111.383E-03    -54.7593E-03     100.927E-03    -56.9654E-03     111.380E-03    -54.6864E-03     99.9084E-03
             912     11.0777E-03     96.1609E-03    -20.1996E+06    -78.5865E+06    -19.2565E+06    -17.5462E+06    -57.2494E-03     111.954E-03    -54.7045E-03     109.466E-03    -57.7607E-03     112.170E-03    -54.6575E-03     108.290E-03
             913     11.9291E-03     96.2737E-03    -19.4043E+06    -63.9043E+06    -22.8845E+06    -15.7695E+06    -58.0102E-03     112.672E-03    -54.6613E-03     120.795E-03    -58.7963E-03     113.228E-03    -54.6550E-03     119.422E-03
             914     12.7819E-03     96.3977E-03    -18.6714E+06    -36.3768E+06    -31.4185E+06    -11.4348E+06    -58.6098E-03     113.190E-03    -54.5804E-03     138.763E-03    -59.9151E-03     114.391E-03    -54.6577E-03     137.156E-03
             915     13.6343E-03     96.5478E-03    -17.4322E+06     27.0518E+06    -36.5793E+06    -5.71135E+06    -61.8740E-03     116.335E-03    -54.4609E-03     186.599E-03    -64.6975E-03     119.299E-03    -54.6577E-03     184.545E-03
             916     14.4859E-03     96.7721E-03    -16.0947E+06     105.433E+06    -2.34116E+06    -1.29961E+06    -70.3305E-03     124.857E-03    -54.5262E-03     284.644E-03    -78.6575E-03     133.508E-03    -54.6674E-03     281.765E-03
             917     15.3365E-03     97.1245E-03    -12.3012E+06     165.548E+06     76.5271E+06     1.44349E+06    -78.3003E-03     133.116E-03    -54.8158E-03     397.340E-03    -100.254E-03     155.392E-03    -54.6553E-03     396.285E-03
             918     16.1909E-03     97.5949E-03    -6.39868E+06     183.683E+06     118.879E+06     1.12674E+06    -66.6071E-03     121.525E-03    -54.9183E-03     301.675E-03    -85.7388E-03     140.942E-03    -54.5809E-03     306.650E-03
             919     851.776E-06     96.5132E-03    -44.9313E+06    -132.677E+06    -44.3135E+06    -2.67360E+06    -55.1239E-03     110.194E-03    -55.0698E-03     9.83324E-03    -55.0933E-03     109.661E-03    -55.0338E-03     9.76639E-03
             920     1.70355E-03     96.5262E-03    -43.8987E+06    -129.089E+06    -41.1662E+06    -5.13198E+06    -55.0763E-03     110.152E-03    -55.0753E-03     18.0147E-03    -55.0533E-03     109.634E-03    -55.0303E-03     17.8878E-03
             921     2.55550E-03     96.5486E-03    -42.0741E+06    -124.727E+06    -36.6015E+06    -7.60167E+06    -55.0864E-03     110.138E-03    -55.0511E-03     26.6399E-03    -55.0725E-03     109.638E-03    -54.9923E-03     26.4485E-03
             922     3.40743E-03     96.5787E-03    -39.6273E+06    -120.342E+06    -30.7685E+06    -9.71082E+06    -55.1058E-03     110.132E-03    -55.0261E-03     35.2718E-03    -55.1026E-03     109.650E-03    -54.9480E-03     35.0164E-03
             923     4.25955E-03     96.6181E-03    -36.6476E+06    -113.405E+06    -24.6854E+06    -11.7286E+06    -55.1271E-03     110.116E-03    -54.9889E-03     43.8636E-03    -55.1396E-03     109.667E-03    -54.8948E-03     43.5403E-03
             924     5.11175E-03     96.6648E-03    -32.9395E+06    -110.297E+06    -18.5277E+06    -13.9639E+06    -55.1963E-03     110.146E-03    -54.9499E-03     52.2698E-03    -55.2202E-03     109.715E-03    -54.8348E-03     51.8683E-03
             925     5.96402E-03     96.7206E-03    -29.0296E+06    -105.745E+06    -12.9133E+06    -15.8529E+06    -55.2894E-03     110.192E-03    -54.9022E-03     60.5857E-03    -55.3312E-03     109.792E-03    -54.7714E-03     60.1023E-03
             926     6.81657E-03     96.7833E-03    -26.0694E+06    -101.736E+06    -9.87322E+06    -16.8644E+06    -55.3999E-03     110.241E-03    -54.8410E-03     68.7914E-03    -55.4680E-03     109.884E-03    -54.7050E-03     68.2276E-03
             927     7.66908E-03     96.8549E-03    -24.2690E+06    -101.320E+06    -10.2609E+06    -17.3042E+06    -55.5931E-03     110.363E-03    -54.7697E-03     77.0346E-03    -55.6941E-03     110.048E-03    -54.6389E-03     76.3856E-03
             928     8.52190E-03     96.9334E-03    -22.3488E+06    -96.5230E+06    -11.5150E+06    -18.5579E+06    -55.8251E-03     110.517E-03    -54.6916E-03     85.2394E-03    -55.9791E-03     110.282E-03    -54.5769E-03     84.4796E-03
             929     9.37437E-03     97.0206E-03    -20.6471E+06    -93.7862E+06    -12.9573E+06    -19.4769E+06    -56.1533E-03     110.777E-03    -54.6234E-03     93.5412E-03    -56.3804E-03     110.635E-03    -54.5222E-03     92.6551E-03
             930     10.2273E-03     97.1152E-03    -19.5797E+06    -88.6844E+06    -15.9653E+06    -19.2663E+06    -56.5716E-03     111.128E-03    -54.5567E-03     102.005E-03    -56.9069E-03     111.126E-03    -54.4795E-03     100.985E-03
             931     11.0795E-03     97.2188E-03    -18.9792E+06    -78.7337E+06    -18.2513E+06    -18.4868E+06    -57.1153E-03     111.619E-03    -54.5037E-03     111.115E-03    -57.6214E-03     111.831E-03    -54.4532E-03     109.937E-03
             932     11.9327E-03     97.3310E-03    -18.3875E+06    -65.1674E+06    -21.7237E+06    -16.6216E+06    -58.0400E-03     112.506E-03    -54.4660E-03     122.529E-03    -58.8188E-03     113.051E-03    -54.4534E-03     121.155E-03
             933     12.7833E-03     97.4572E-03    -17.5254E+06    -41.7210E+06    -30.5997E+06    -13.2160E+06    -59.3305E-03     113.749E-03    -54.4188E-03     140.425E-03    -60.6430E-03     114.940E-03    -54.4859E-03     138.776E-03
             934     13.6345E-03     97.6047E-03    -17.3408E+06     19.8542E+06    -40.2163E+06    -8.11940E+06    -62.2436E-03     116.558E-03    -54.3145E-03     189.205E-03    -65.0787E-03     119.519E-03    -54.5193E-03     187.117E-03
             935     14.4868E-03     97.8314E-03    -16.3921E+06     100.148E+06    -10.9236E+06    -2.64032E+06    -70.2171E-03     124.563E-03    -54.3463E-03     288.151E-03    -78.5868E-03     133.262E-03    -54.5224E-03     285.289E-03
             936     15.3410E-03     98.1830E-03    -12.1838E+06     163.720E+06     70.6484E+06     471.100E+03    -78.6564E-03     133.289E-03    -54.6331E-03     399.581E-03    -100.666E-03     155.632E-03    -54.4996E-03     398.398E-03
             937     16.1925E-03     98.6544E-03    -5.56702E+06     184.349E+06     118.245E+06     702.632E+03    -66.4431E-03     121.202E-03    -54.7593E-03     301.443E-03    -85.5519E-03     140.603E-03    -54.4273E-03     306.345E-03
             938     851.882E-06     97.5707E-03    -40.7072E+06    -126.177E+06    -40.3681E+06    -3.04694E+06    -54.9309E-03     109.822E-03    -54.8916E-03     9.80428E-03    -54.8942E-03     109.311E-03    -54.8514E-03     9.73324E-03
             939     1.70393E-03     97.5846E-03    -39.1802E+06    -122.462E+06    -36.7808E+06    -5.61227E+06    -54.8820E-03     109.770E-03    -54.8876E-03     18.1016E-03    -54.8512E-03     109.272E-03    -54.8371E-03     17.9695E-03
             940     2.55595E-03     97.6060E-03    -37.0625E+06    -118.813E+06    -31.3288E+06    -7.82339E+06    -54.8765E-03     109.739E-03    -54.8625E-03     26.7601E-03    -54.8536E-03     109.254E-03    -54.7931E-03     26.5676E-03
             941     3.40812E-03     97.6368E-03    -34.6822E+06    -114.496E+06    -25.9418E+06    -10.0762E+06    -54.8656E-03     109.692E-03    -54.8263E-03     35.4625E-03    -54.8529E-03     109.225E-03    -54.7397E-03     35.2051E-03
             942     4.26041E-03     97.6750E-03    -31.9796E+06    -107.781E+06    -21.1646E+06    -12.3978E+06    -54.8499E-03     109.620E-03    -54.7705E-03     44.1346E-03    -54.8519E-03     109.188E-03    -54.6737E-03     43.8066E-03
             943     5.11289E-03     97.7226E-03    -29.6748E+06    -104.674E+06    -15.7874E+06    -14.5440E+06    -54.8620E-03     109.575E-03    -54.7129E-03     52.6929E-03    -54.8809E-03     109.163E-03    -54.5970E-03     52.2896E-03
             944     5.96559E-03     97.7772E-03    -27.5357E+06    -100.732E+06    -11.4749E+06    -16.6486E+06    -54.9083E-03     109.551E-03    -54.6428E-03     61.1349E-03    -54.9507E-03     109.171E-03    -54.5142E-03     60.6489E-03
             945     6.81833E-03     97.8408E-03    -25.0822E+06    -99.1568E+06    -8.62257E+06    -17.2334E+06    -55.0467E-03     109.615E-03    -54.5683E-03     69.4880E-03    -55.1137E-03     109.266E-03    -54.4313E-03     68.9283E-03
             946     7.67129E-03     97.9111E-03    -22.1379E+06    -97.1553E+06     -7.7903E+06    -18.0988E+06    -55.2361E-03     109.723E-03    -54.4868E-03     77.8228E-03    -55.3339E-03     109.420E-03    -54.3528E-03     77.1740E-03
             947     8.52418E-03     97.9906E-03    -19.5998E+06    -92.6260E+06    -9.00561E+06    -19.5147E+06    -55.4916E-03     109.890E-03    -54.3983E-03     86.2194E-03    -55.6384E-03     109.664E-03    -54.2806E-03     85.4593E-03
             948     9.37733E-03     98.0768E-03    -18.0925E+06    -91.4729E+06    -10.3999E+06    -19.7497E+06    -55.8813E-03     110.208E-03    -54.3266E-03     94.8230E-03    -56.0997E-03     110.068E-03    -54.2197E-03     93.9468E-03
             949     10.2300E-03     98.1725E-03    -17.3227E+06    -87.0855E+06    -13.9752E+06    -19.5734E+06    -56.3367E-03     110.593E-03    -54.2560E-03     103.478E-03    -56.6637E-03     110.590E-03    -54.1745E-03     102.468E-03
             950     11.0833E-03     98.2751E-03    -16.7409E+06    -78.4550E+06    -16.5500E+06    -18.8428E+06    -56.9589E-03     111.163E-03    -54.2041E-03     112.881E-03    -57.4548E-03     111.369E-03    -54.1488E-03     111.712E-03
             951     11.9350E-03     98.3892E-03    -16.4745E+06    -66.4832E+06    -20.3506E+06    -17.1792E+06    -57.7730E-03     111.937E-03    -54.1645E-03     124.796E-03    -58.5379E-03     112.467E-03    -54.1460E-03     123.436E-03
             952     12.7882E-03     98.5151E-03    -16.2561E+06     -46.321E+06    -29.9010E+06    -14.6596E+06    -59.1256E-03     113.236E-03    -54.1106E-03     143.742E-03    -60.4342E-03     114.409E-03    -54.1693E-03     142.094E-03
             953     13.6395E-03     98.6654E-03    -15.5185E+06     13.1125E+06    -39.3141E+06    -9.82594E+06    -62.4367E-03     116.450E-03    -54.0136E-03     191.773E-03    -65.2761E-03     119.395E-03    -54.2067E-03     189.668E-03
             954     14.4931E-03     98.8868E-03    -13.9858E+06     94.6070E+06    -15.6645E+06    -3.76517E+06    -70.7651E-03     124.800E-03    -54.0347E-03     290.864E-03    -79.1737E-03     133.540E-03    -54.2299E-03     287.946E-03
             955     15.3438E-03     99.2463E-03    -10.5438E+06     162.426E+06     65.4223E+06    -317.432E+03    -78.3958E-03     132.720E-03    -54.3241E-03     400.919E-03    -100.549E-03     155.222E-03    -54.2172E-03     399.879E-03
             956     16.1988E-03     99.7097E-03    -6.33228E+06     184.345E+06     117.762E+06     779.184E+03    -66.8005E-03     121.300E-03    -54.4996E-03     299.896E-03    -85.9659E-03     140.756E-03    -54.1689E-03     304.830E-03
             957     852.189E-06     98.6287E-03    -36.7990E+06    -118.601E+06    -36.5239E+06    -3.74673E+06    -54.6325E-03     109.228E-03    -54.5958E-03     9.87340E-03    -54.5928E-03     108.743E-03    -54.5531E-03     9.79420E-03
             958     1.70436E-03     98.6416E-03    -35.4348E+06    -115.420E+06    -33.1852E+06    -6.43510E+06    -54.5906E-03     109.181E-03    -54.5907E-03     18.2384E-03    -54.5564E-03     108.708E-03    -54.5379E-03     18.0974E-03
             959     2.55669E-03     98.6638E-03    -33.0729E+06    -113.084E+06    -27.9820E+06    -8.62065E+06    -54.5431E-03     109.103E-03    -54.5604E-03     26.9830E-03    -54.5132E-03     108.636E-03    -54.4883E-03     26.7830E-03
             960     3.40918E-03     98.6935E-03    -29.8750E+06    -107.778E+06    -22.1860E+06    -11.0734E+06    -54.4975E-03     109.007E-03    -54.5092E-03     35.7842E-03    -54.4756E-03     108.560E-03    -54.4205E-03     35.5181E-03
             961     4.26180E-03     98.7324E-03    -26.8704E+06    -102.853E+06    -16.8107E+06    -12.9223E+06    -54.4488E-03     108.891E-03    -54.4419E-03     44.5382E-03    -54.4380E-03     108.468E-03    -54.3379E-03     44.2089E-03
             962     5.11470E-03     98.7787E-03    -24.0991E+06    -98.9710E+06    -11.3672E+06    -14.3805E+06    -54.4081E-03     108.772E-03    -54.3636E-03     53.2110E-03    -54.4126E-03     108.372E-03    -54.2420E-03     52.8174E-03
             963     5.96773E-03     98.8340E-03    -21.9671E+06    -95.9786E+06    -7.28643E+06    -15.9029E+06    -54.4456E-03     108.720E-03    -54.2743E-03     61.7969E-03    -54.4716E-03     108.348E-03    -54.1397E-03     61.3300E-03
             964     6.82105E-03     98.8963E-03    -20.2170E+06    -95.7078E+06    -5.22623E+06    -17.2705E+06    -54.5701E-03     108.752E-03    -54.1816E-03     70.3701E-03    -54.6205E-03     108.406E-03    -54.0396E-03     69.8218E-03
             965     7.67424E-03     98.9678E-03    -18.1882E+06    -91.9493E+06    -4.81568E+06    -19.0859E+06    -54.7408E-03     108.821E-03    -54.0806E-03     78.9583E-03    -54.8278E-03     108.531E-03    -53.9449E-03     78.3110E-03
             966     8.52779E-03     99.0457E-03    -16.6380E+06    -90.0555E+06    -6.20780E+06    -19.8052E+06    -54.9874E-03     108.968E-03    -53.9807E-03     87.6927E-03    -55.1235E-03     108.743E-03    -53.8571E-03     86.9460E-03
             967     9.38113E-03     99.1335E-03    -15.6300E+06    -89.2824E+06    -8.20023E+06    -19.7840E+06    -55.3979E-03     109.291E-03    -53.8929E-03     96.6938E-03    -55.6058E-03     109.150E-03    -53.7818E-03     95.8373E-03
             968     10.2348E-03     99.2279E-03    -14.8014E+06    -85.3514E+06    -11.6158E+06    -19.7607E+06    -56.0376E-03     109.855E-03    -53.8177E-03     105.716E-03    -56.3544E-03     109.850E-03    -53.7306E-03     104.722E-03
             969     11.0874E-03     99.3324E-03    -14.4536E+06    -78.1510E+06    -14.8195E+06    -18.8741E+06    -56.7445E-03     110.513E-03    -53.7684E-03     115.362E-03    -57.2294E-03     110.712E-03    -53.7082E-03     114.211E-03
             970     11.9412E-03     99.4455E-03    -14.2209E+06    -67.1883E+06    -18.5003E+06    -17.4505E+06    -57.4504E-03     111.182E-03    -53.7320E-03     127.162E-03    -58.2015E-03     111.698E-03    -53.7064E-03     125.824E-03
             971     12.7935E-03     99.5726E-03    -14.3206E+06    -48.8136E+06    -28.0287E+06    -15.3786E+06    -58.7919E-03     112.469E-03    -53.6767E-03     146.043E-03    -60.0829E-03     113.617E-03    -53.7253E-03     144.415E-03
             972     13.6468E-03     99.7235E-03    -14.8076E+06     6.59793E+06    -36.6177E+06    -11.6046E+06    -62.9530E-03     116.567E-03    -53.6137E-03     193.212E-03    -65.7890E-03     119.480E-03    -53.7849E-03     191.075E-03
             973     14.4963E-03     99.9471E-03    -14.1711E+06     87.9402E+06    -20.9467E+06    -6.35625E+06    -71.6635E-03     125.320E-03    -53.6566E-03     291.285E-03    -80.0836E-03     134.063E-03    -53.8683E-03     288.295E-03
             974     15.3505E-03     100.304E-03    -11.2525E+06     158.798E+06     56.2396E+06    -1.54864E+06    -78.1544E-03     132.119E-03    -53.9642E-03     399.992E-03    -100.203E-03     154.528E-03    -53.8969E-03     399.120E-03
             975     16.2036E-03     100.769E-03    -6.93042E+06     183.724E+06     116.794E+06     1.08128E+06    -67.1029E-03     121.304E-03    -54.2014E-03     299.583E-03    -86.1871E-03     140.677E-03    -53.8738E-03     304.652E-03
             976     852.541E-06     99.6851E-03    -32.5793E+06    -109.973E+06    -32.2946E+06    -4.11220E+06    -54.2075E-03     108.353E-03    -54.1451E-03     9.99931E-03    -54.1653E-03     107.898E-03    -54.0998E-03     9.91677E-03
             977     1.70511E-03     99.6988E-03    -31.7687E+06    -108.096E+06    -29.9232E+06    -6.89885E+06    -54.1283E-03     108.273E-03    -54.1451E-03     18.4257E-03    -54.0911E-03     107.826E-03    -54.0920E-03     18.2812E-03
             978     2.55785E-03     99.7199E-03    -29.9494E+06    -106.069E+06    -25.8072E+06    -9.85402E+06    -54.0576E-03     108.157E-03    -54.0995E-03     27.3051E-03    -54.0251E-03     107.717E-03    -54.0313E-03     27.0932E-03
             979     3.41070E-03     99.7502E-03    -27.4724E+06    -101.122E+06    -20.5414E+06    -12.4618E+06    -53.9709E-03     108.004E-03    -54.0335E-03     36.2173E-03    -53.9483E-03     107.585E-03    -53.9498E-03     35.9389E-03
             980     4.26387E-03     99.7880E-03    -24.5071E+06    -98.2045E+06    -14.5496E+06    -13.9805E+06    -53.8769E-03     107.832E-03    -53.9547E-03     45.0730E-03    -53.8634E-03     107.425E-03    -53.8495E-03     44.7376E-03
             981     5.11716E-03     99.8348E-03    -21.3782E+06    -93.7459E+06    -9.73608E+06    -15.3593E+06    -53.8130E-03     107.666E-03    -53.8530E-03     53.9353E-03    -53.8124E-03     107.285E-03    -53.7347E-03     53.5390E-03
             982     5.97086E-03     99.8889E-03    -18.0905E+06    -92.2577E+06    -5.28203E+06    -16.2731E+06    -53.8217E-03     107.569E-03    -53.7468E-03     62.7776E-03    -53.8344E-03     107.205E-03    -53.6132E-03     62.3186E-03
             983     6.82448E-03     99.9521E-03    -14.9129E+06    -90.5044E+06    -2.07362E+06    -17.6812E+06    -53.8820E-03     107.515E-03    -53.6331E-03     71.6216E-03    -53.9148E-03     107.180E-03    -53.4907E-03     71.0841E-03
             984     7.67869E-03     100.022E-03    -12.9065E+06    -88.1065E+06    -1.57704E+06    -18.9167E+06    -54.0177E-03     107.527E-03    -53.5094E-03     80.5196E-03    -54.0844E-03     107.240E-03    -53.3708E-03     79.8943E-03
             985     8.53267E-03     100.101E-03    -12.3781E+06    -87.9633E+06    -3.09381E+06    -18.8296E+06    -54.2951E-03     107.686E-03    -53.3905E-03     89.5591E-03    -54.4122E-03     107.455E-03    -53.2605E-03     88.8477E-03
             986     9.38708E-03     100.187E-03    -12.1684E+06    -85.8340E+06    -5.08604E+06    -19.5685E+06    -54.7692E-03     108.055E-03    -53.2858E-03     98.9707E-03    -54.9633E-03     107.916E-03    -53.1691E-03     98.1425E-03
             987     10.2409E-03     100.284E-03    -11.6957E+06    -84.3513E+06    -8.95751E+06    -19.5950E+06    -55.5472E-03     108.752E-03    -53.2046E-03     108.498E-03    -55.8476E-03     108.737E-03    -53.1101E-03     107.534E-03
             988     11.0949E-03     100.388E-03    -11.6839E+06    -77.0099E+06    -12.3669E+06    -18.6587E+06    -56.5003E-03     109.661E-03    -53.1605E-03     118.219E-03    -56.9715E-03     109.853E-03    -53.0937E-03     117.096E-03
             989     11.9474E-03     100.502E-03    -11.5115E+06    -67.5512E+06    -15.9226E+06    -17.6065E+06    -57.5111E-03     110.662E-03    -53.1511E-03     129.753E-03    -58.2498E-03     111.166E-03    -53.1161E-03     128.431E-03
             990     12.8008E-03     100.629E-03    -12.2363E+06    -51.4036E+06    -26.2122E+06    -14.9681E+06    -59.3625E-03     112.505E-03    -53.1422E-03     148.965E-03    -60.6472E-03     113.640E-03    -53.1810E-03     147.346E-03
             991     13.6517E-03     100.782E-03    -13.9480E+06     3.86869E+06    -32.1931E+06    -11.4555E+06    -63.8756E-03     117.032E-03    -53.1569E-03     196.435E-03    -66.7267E-03     119.941E-03    -53.3032E-03     194.288E-03
             992     14.5038E-03     101.008E-03    -14.9268E+06     82.1957E+06    -18.3486E+06    -7.65613E+06    -72.3587E-03     125.618E-03    -53.2590E-03     292.846E-03    -80.8251E-03     134.376E-03    -53.4483E-03     289.849E-03
             993     15.3530E-03     101.363E-03    -12.7687E+06     152.125E+06     53.2859E+06    -2.64537E+06    -78.9604E-03     132.561E-03    -53.6006E-03     399.849E-03    -100.927E-03     154.868E-03    -53.5362E-03     398.871E-03
             994     16.2086E-03     101.824E-03    -7.03710E+06     182.274E+06     115.069E+06     378.142E+03    -67.4170E-03     121.297E-03    -53.8796E-03     299.961E-03    -86.4207E-03     140.589E-03    -53.5584E-03     304.991E-03
             995     853.006E-06     100.741E-03    -28.1190E+06    -100.922E+06    -27.9360E+06    -4.25805E+06    -53.5724E-03     107.094E-03    -53.5219E-03     10.1588E-03    -53.5273E-03     106.672E-03    -53.4745E-03     10.0762E-03
             996     1.70621E-03     100.754E-03    -27.1289E+06    -99.8422E+06    -25.4821E+06    -7.38354E+06    -53.4818E-03     106.994E-03    -53.5124E-03     18.6570E-03    -53.4396E-03     106.575E-03    -53.4557E-03     18.5095E-03
             997     2.55945E-03     100.776E-03    -25.5422E+06    -98.1205E+06    -21.8447E+06    -10.5736E+06    -53.3814E-03     106.836E-03    -53.4544E-03     27.6685E-03    -53.3437E-03     106.422E-03    -53.3843E-03     27.4525E-03
             998     3.41298E-03     100.805E-03    -23.8705E+06    -94.6314E+06    -18.0388E+06    -12.9925E+06    -53.2409E-03     106.609E-03    -53.3679E-03     36.7398E-03    -53.2126E-03     106.212E-03    -53.2863E-03     36.4620E-03
             999     4.26665E-03     100.843E-03    -21.9233E+06    -92.8799E+06    -13.6896E+06    -14.9737E+06    -53.1000E-03     106.363E-03    -53.2628E-03     45.8087E-03    -53.0812E-03     105.976E-03    -53.1648E-03     45.4708E-03
            1000     5.12080E-03     100.889E-03    -19.6689E+06    -88.7899E+06    -9.71649E+06    -16.3502E+06    -52.9931E-03     106.129E-03    -53.1358E-03     54.9614E-03    -52.9891E-03     105.768E-03    -53.0271E-03     54.5658E-03
            1001     5.97498E-03     100.943E-03    -17.3942E+06    -88.2229E+06    -5.81354E+06    -17.6431E+06    -52.9327E-03     105.937E-03    -53.0041E-03     64.1075E-03    -52.9439E-03     105.590E-03    -52.8800E-03     63.6480E-03
            1002     6.82984E-03     101.005E-03    -15.0982E+06    -85.5255E+06    -2.56276E+06    -18.9408E+06    -52.9265E-03     105.788E-03    -52.8614E-03     73.2834E-03    -52.9625E-03     105.474E-03    -52.7283E-03     72.7511E-03
            1003     7.68448E-03     101.076E-03    -12.9024E+06    -85.7717E+06    -968.280E+03    -19.3375E+06    -53.0724E-03     105.791E-03    -52.7186E-03     82.5351E-03    -53.1377E-03     105.509E-03    -52.5804E-03     81.9295E-03
            1004     8.53972E-03     101.154E-03    -10.4971E+06    -85.6967E+06    -1.86348E+06    -19.1436E+06    -53.4281E-03     106.007E-03    -52.5790E-03     91.9591E-03    -53.5340E-03     105.777E-03    -52.4489E-03     91.2724E-03
            1005     9.39442E-03     101.242E-03    -8.81929E+06    -82.4102E+06    -2.53962E+06    -19.1978E+06    -54.0175E-03     106.483E-03    -52.4652E-03     101.802E-03    -54.1959E-03     106.344E-03    -52.3456E-03     101.010E-03
            1006     10.2494E-03     101.337E-03    -8.72235E+06    -83.5205E+06      -6.321E+06    -19.0271E+06    -54.9440E-03     107.330E-03    -52.3863E-03     111.860E-03    -55.2262E-03     107.303E-03    -52.2841E-03     110.937E-03
            1007     11.1033E-03     101.443E-03    -8.74214E+06    -75.8861E+06    -10.4143E+06    -18.2830E+06    -56.0945E-03     108.441E-03    -52.3461E-03     121.958E-03    -56.5466E-03     108.622E-03    -52.2755E-03     120.876E-03
            1008     11.9572E-03     101.557E-03    -9.51581E+06    -67.9758E+06    -13.8502E+06    -17.0814E+06    -57.7498E-03     110.123E-03    -52.3737E-03     134.100E-03    -58.4811E-03     110.620E-03    -52.3306E-03     132.806E-03
            1009     12.8092E-03     101.686E-03    -10.5832E+06    -54.0005E+06    -24.6764E+06    -14.2552E+06    -60.6267E-03     113.071E-03    -52.4443E-03     154.020E-03    -61.9256E-03     114.212E-03    -52.4741E-03     152.397E-03
            1010     13.6608E-03     101.842E-03    -11.3551E+06     1.55139E+06    -27.4061E+06    -10.1142E+06    -64.9718E-03     117.539E-03    -52.5671E-03     200.491E-03    -67.8399E-03     120.452E-03    -52.6899E-03     198.353E-03
            1011     14.5099E-03     102.069E-03    -12.5635E+06     78.1970E+06    -12.4234E+06    -5.97239E+06    -73.1145E-03     125.859E-03    -52.7442E-03     295.765E-03    -81.6262E-03     134.639E-03    -52.9014E-03     292.789E-03
            1012     15.3638E-03     102.424E-03    -11.7356E+06     147.758E+06     53.5862E+06    -2.27058E+06    -80.2910E-03     133.420E-03    -53.1286E-03     401.512E-03    -102.377E-03     155.833E-03    -53.0579E-03     400.410E-03
            1013     16.2128E-03     102.885E-03    -6.17737E+06     180.606E+06     113.535E+06    -512.142E+03    -68.4140E-03     121.889E-03    -53.4751E-03     299.805E-03    -87.4643E-03     141.229E-03    -53.1604E-03     304.704E-03
            1014     853.855E-06     101.795E-03    -24.6502E+06    -91.2831E+06    -24.1716E+06    -4.67018E+06    -52.6912E-03     105.363E-03    -52.6716E-03     10.3408E-03    -52.6481E-03     104.978E-03    -52.6243E-03     10.2551E-03
            1015     1.70760E-03     101.809E-03    -23.4595E+06    -90.8234E+06    -21.9261E+06    -7.98135E+06    -52.6040E-03     105.248E-03    -52.6436E-03     18.9642E-03    -52.5614E-03     104.863E-03    -52.5876E-03     18.8134E-03
            1016     2.56168E-03     101.829E-03    -21.9119E+06    -89.8042E+06    -19.0333E+06    -11.3017E+06    -52.4459E-03     105.016E-03    -52.5697E-03     28.1357E-03    -52.4057E-03     104.634E-03    -52.5029E-03     27.9170E-03
            1017     3.41592E-03     101.859E-03    -19.8397E+06    -88.1712E+06    -15.8713E+06    -13.7152E+06    -52.2440E-03     104.702E-03    -52.4582E-03     37.4065E-03    -52.2071E-03     104.328E-03    -52.3809E-03     37.1291E-03
            1018     4.27068E-03     101.896E-03    -17.4904E+06    -86.4183E+06    -11.7567E+06    -15.9028E+06    -52.0576E-03     104.381E-03    -52.3237E-03     46.7618E-03    -52.0270E-03     104.016E-03    -52.2318E-03     46.4249E-03
            1019     5.12551E-03     101.942E-03    -15.1263E+06    -84.7546E+06    -7.64550E+06    -17.1095E+06    -51.8874E-03     104.059E-03    -52.1712E-03     56.2093E-03    -51.8669E-03     103.706E-03    -52.0646E-03     55.8207E-03
            1020     5.98107E-03     101.995E-03    -13.0137E+06    -82.9359E+06    -3.21976E+06    -18.0547E+06    -51.7609E-03     103.769E-03    -52.0081E-03     65.7037E-03    -51.7577E-03     103.434E-03    -51.8851E-03     65.2602E-03
            1021     6.83649E-03     102.057E-03    -11.5924E+06    -82.1165E+06    -453.678E+03    -18.8920E+06    -51.7283E-03     103.563E-03    -51.8348E-03     75.2392E-03    -51.7493E-03     103.253E-03    -51.7012E-03     74.7334E-03
            1022     7.69279E-03     102.127E-03    -10.8025E+06    -82.5594E+06     771.623E+03    -19.2476E+06    -51.8960E-03     103.561E-03    -51.6647E-03     85.0189E-03    -51.9509E-03     103.282E-03    -51.5255E-03     84.4453E-03
            1023     8.54853E-03     102.206E-03    -9.59474E+06    -82.4285E+06    -579.242E+03    -20.5882E+06    -52.3262E-03     103.830E-03    -51.5042E-03     95.0123E-03    -52.4252E-03     103.604E-03    -51.3736E-03     94.3422E-03
            1024     9.40483E-03     102.293E-03    -8.03807E+06    -81.8970E+06    -2.41654E+06    -19.8265E+06    -53.1046E-03     104.485E-03    -51.3801E-03     105.484E-03    -53.2701E-03     104.338E-03    -51.2618E-03     104.721E-03
            1025     10.2602E-03     102.390E-03    -7.11390E+06    -81.8037E+06    -4.42300E+06    -18.4076E+06    -54.2123E-03     105.523E-03    -51.3110E-03     116.105E-03    -54.4809E-03     105.489E-03    -51.2042E-03     115.231E-03
            1026     11.1154E-03     102.496E-03    -8.09256E+06    -75.9985E+06    -9.21550E+06    -17.3750E+06    -55.6970E-03     106.988E-03    -51.2905E-03     126.589E-03    -56.1371E-03     107.156E-03    -51.2147E-03     125.558E-03
            1027     11.9696E-03     102.612E-03    -9.04188E+06    -66.9724E+06    -11.3270E+06    -16.1859E+06    -58.2414E-03     109.620E-03    -51.3785E-03     139.267E-03    -58.9755E-03     110.117E-03    -51.3249E-03     138.005E-03
            1028     12.8219E-03     102.744E-03    -9.84644E+06    -57.0318E+06    -22.9766E+06    -14.2375E+06    -61.6370E-03     113.177E-03    -51.5401E-03     159.736E-03    -62.9460E-03     114.315E-03    -51.5580E-03     158.119E-03
            1029     13.6701E-03     102.904E-03    -11.1810E+06    -3.03381E+06    -24.9315E+06    -9.49815E+06    -66.2021E-03     117.970E-03    -51.7677E-03     205.485E-03    -69.1117E-03     120.901E-03    -51.8717E-03     203.338E-03
            1030     14.5223E-03     103.128E-03    -11.9447E+06     74.8497E+06    -14.0686E+06    -4.74216E+06    -74.8229E-03     126.849E-03    -52.0257E-03     299.482E-03    -83.3980E-03     135.688E-03    -52.1873E-03     296.427E-03
            1031     15.3699E-03     103.488E-03    -10.6953E+06     145.860E+06     47.8628E+06    -1.74116E+06    -81.3642E-03     133.846E-03    -52.4820E-03     403.501E-03    -103.656E-03     156.479E-03    -52.4387E-03     402.446E-03
            1032     16.2241E-03     103.945E-03    -6.13438E+06     180.124E+06     113.320E+06    -394.635E+03    -70.4788E-03     123.445E-03    -52.9660E-03     299.300E-03    -89.6737E-03     142.929E-03    -52.6517E-03     304.136E-03
            1033     854.659E-06     102.848E-03    -21.1592E+06    -80.7904E+06    -20.8778E+06    -4.88761E+06    -51.5463E-03     103.077E-03    -51.5306E-03     10.5241E-03    -51.5058E-03     102.735E-03    -51.4872E-03     10.4383E-03
            1034     1.70962E-03     102.860E-03    -20.3174E+06    -81.1161E+06    -19.6642E+06    -8.77681E+06    -51.3936E-03     102.875E-03    -51.4819E-03     19.3643E-03    -51.3524E-03     102.531E-03    -51.4331E-03     19.2087E-03
            1035     2.56459E-03     102.881E-03    -18.8829E+06    -80.9732E+06    -17.3820E+06    -12.3409E+06    -51.1957E-03     102.575E-03    -51.3795E-03     28.7358E-03    -51.1548E-03     102.230E-03    -51.3216E-03     28.5122E-03
            1036     3.42009E-03     102.910E-03    -17.0850E+06    -81.0154E+06    -14.4214E+06    -15.2650E+06    -50.9431E-03     102.187E-03    -51.2438E-03     38.2620E-03    -50.9036E-03     101.841E-03    -51.1737E-03     37.9764E-03
            1037     4.27575E-03     102.947E-03    -15.1795E+06    -80.0290E+06    -11.2230E+06    -17.1591E+06    -50.6798E-03     101.756E-03    -51.0767E-03     47.9301E-03    -50.6456E-03     101.417E-03    -50.9947E-03     47.5929E-03
            1038     5.13211E-03     102.991E-03    -13.3985E+06    -80.7103E+06    -7.52172E+06    -18.1787E+06    -50.4409E-03     101.333E-03    -50.8922E-03     57.7009E-03    -50.4143E-03     100.994E-03    -50.7934E-03     57.3189E-03
            1039     5.98855E-03     103.045E-03    -11.7536E+06    -78.6870E+06    -4.21503E+06    -18.5086E+06    -50.2390E-03     100.926E-03    -50.6870E-03     67.6116E-03    -50.2290E-03     100.607E-03    -50.5770E-03     67.1882E-03
            1040     6.84590E-03     103.106E-03    -10.4558E+06    -79.2687E+06    -973.178E+03    -18.4899E+06    -50.2185E-03     100.702E-03    -50.4835E-03     77.6792E-03    -50.2302E-03     100.398E-03    -50.3583E-03     77.2097E-03
            1041     7.70288E-03     103.176E-03    -9.22441E+06    -78.7366E+06     645.034E+03    -18.9192E+06    -50.4228E-03     100.708E-03    -50.2855E-03     88.0429E-03    -50.4658E-03     100.437E-03    -50.1547E-03     87.5105E-03
            1042     8.56067E-03     103.255E-03    -9.55955E+06    -78.9134E+06    -147.965E+03    -19.3655E+06    -50.9619E-03     101.074E-03    -50.1116E-03     98.6830E-03    -51.0552E-03     100.853E-03    -49.9841E-03     98.0705E-03
            1043     9.41761E-03     103.342E-03    -10.9137E+06    -80.9679E+06    -3.27480E+06    -19.6918E+06    -51.9866E-03     101.972E-03    -49.9857E-03     109.897E-03    -52.1537E-03     101.823E-03    -49.8688E-03     109.181E-03
            1044     10.2745E-03     103.440E-03    -11.7818E+06    -81.7260E+06    -6.17905E+06    -18.5117E+06    -53.4720E-03     103.407E-03    -49.9352E-03     120.932E-03    -53.7484E-03     103.369E-03    -49.8305E-03     120.101E-03
            1045     11.1304E-03     103.548E-03    -11.7293E+06    -75.8613E+06    -9.09526E+06    -16.5549E+06    -55.7129E-03     105.690E-03    -49.9774E-03     131.938E-03    -56.1638E-03     105.857E-03    -49.8959E-03     130.952E-03
            1046     11.9840E-03     103.667E-03    -12.0932E+06    -65.4727E+06    -10.1918E+06    -16.0568E+06    -58.8369E-03     108.993E-03    -50.1558E-03     145.778E-03    -59.5926E-03     109.503E-03    -50.0943E-03     144.540E-03
            1047     12.8347E-03     103.803E-03    -12.7824E+06    -60.4410E+06    -21.9047E+06    -14.3430E+06    -62.4525E-03     112.874E-03    -50.4220E-03     165.884E-03    -63.7821E-03     114.008E-03    -50.4254E-03     164.282E-03
            1048     13.6876E-03     103.963E-03    -13.8889E+06    -7.43581E+06    -22.8175E+06     -9.7014E+06    -67.9867E-03     118.762E-03    -50.7753E-03     210.619E-03    -70.9530E-03     121.719E-03    -50.8584E-03     208.426E-03
            1049     14.5329E-03     104.194E-03    -13.5631E+06     71.0865E+06    -15.1870E+06    -5.22660E+06    -76.9751E-03     128.139E-03    -51.1642E-03     302.282E-03    -85.6391E-03     137.052E-03    -51.3235E-03     299.119E-03
            1050     15.3843E-03     104.549E-03    -10.7943E+06     143.454E+06     44.3380E+06    -2.48420E+06    -83.4113E-03     135.172E-03    -51.7612E-03     403.553E-03    -105.847E-03     157.951E-03    -51.7318E-03     402.304E-03
            1051     16.2332E-03     105.009E-03    -6.11206E+06     179.126E+06     114.215E+06    -551.863E+03    -73.7393E-03     126.185E-03    -52.4458E-03     298.246E-03    -93.0273E-03     145.756E-03    -52.1256E-03     302.774E-03
            1052     856.008E-06     103.897E-03    -18.1114E+06    -69.4565E+06    -18.1760E+06    -5.28025E+06    -50.0399E-03     100.071E-03    -50.0314E-03     10.7270E-03    -50.0044E-03     99.7775E-03    -49.9953E-03     10.6394E-03
            1053     1.71208E-03     103.910E-03    -17.2793E+06    -70.3066E+06    -17.4758E+06    -9.75489E+06    -49.8285E-03     99.7909E-03    -49.9623E-03     19.8132E-03    -49.7906E-03     99.4925E-03    -49.9227E-03     19.6513E-03
            1054     2.56862E-03     103.930E-03    -16.3573E+06    -71.7192E+06    -15.9704E+06    -13.4930E+06    -49.5797E-03     99.4116E-03    -49.8320E-03     29.4133E-03    -49.5408E-03     99.1062E-03    -49.7841E-03     29.1846E-03
            1055     3.42528E-03     103.958E-03    -15.2924E+06    -72.9045E+06    -14.0034E+06    -16.4760E+06    -49.2754E-03     98.9418E-03    -49.6664E-03     39.2337E-03    -49.2377E-03     98.6313E-03    -49.6086E-03     38.9463E-03
            1056     4.28267E-03     103.994E-03    -14.2897E+06    -74.5227E+06    -12.1240E+06    -18.0882E+06    -48.9333E-03     98.4001E-03    -49.4668E-03     49.2406E-03    -48.8985E-03     98.0849E-03    -49.3986E-03     48.9098E-03
            1057     5.14027E-03     104.039E-03    -13.1321E+06    -75.5990E+06    -9.77207E+06    -19.0831E+06    -48.6005E-03     97.8405E-03    -49.2400E-03     59.4216E-03    -48.5725E-03     97.5255E-03    -49.1602E-03     59.0518E-03
            1058     5.99873E-03     104.091E-03    -12.1638E+06    -76.5021E+06    -7.38800E+06    -18.8486E+06    -48.3616E-03     97.3583E-03    -48.9966E-03     69.7925E-03    -48.3461E-03     97.0491E-03    -48.9050E-03     69.3941E-03
            1059     6.85729E-03     104.152E-03    -11.4462E+06    -76.0079E+06    -4.13195E+06    -18.3404E+06    -48.3432E-03     97.1012E-03    -48.7579E-03     80.5114E-03    -48.3513E-03     96.8104E-03    -48.6518E-03     80.0798E-03
            1060     7.71654E-03     104.222E-03    -11.2199E+06    -75.7781E+06    -1.66413E+06    -18.5500E+06    -48.6573E-03     97.1990E-03    -48.5417E-03     91.4677E-03    -48.7001E-03     96.9375E-03    -48.4239E-03     90.9811E-03
            1061     8.57534E-03     104.300E-03    -11.2711E+06    -77.5754E+06    -970.902E+03    -17.2495E+06    -49.4436E-03     97.8147E-03    -48.3711E-03     102.833E-03    -49.5330E-03     97.5912E-03    -48.2471E-03     102.293E-03
            1062     9.43420E-03     104.389E-03    -13.0081E+06    -78.2435E+06     -2.7357E+06    -16.3279E+06    -50.8210E-03     99.0887E-03    -48.2677E-03     114.615E-03    -50.9889E-03     98.9404E-03    -48.1490E-03     113.990E-03
            1063     10.2920E-03     104.488E-03    -15.8885E+06    -81.5012E+06    -6.22293E+06    -16.2899E+06    -52.9691E-03     101.241E-03    -48.2719E-03     126.320E-03    -53.2537E-03     101.198E-03    -48.1618E-03     125.560E-03
            1064     11.1477E-03     104.599E-03    -17.6759E+06    -74.1378E+06    -10.6410E+06    -16.6582E+06    -56.0006E-03     104.401E-03    -48.4000E-03     138.320E-03    -56.4772E-03     104.582E-03    -48.3201E-03     137.362E-03
            1065     12.0018E-03     104.721E-03    -17.3759E+06    -64.5498E+06    -10.3734E+06    -16.6381E+06    -59.4936E-03     108.195E-03    -48.7019E-03     152.123E-03    -60.2804E-03     108.722E-03    -48.6350E-03     150.898E-03
            1066     12.8548E-03     104.860E-03    -17.0072E+06    -62.9241E+06      -20.27E+06    -14.8582E+06    -63.9771E-03     113.095E-03    -49.1176E-03     172.074E-03    -65.3460E-03     114.239E-03    -49.1031E-03     170.454E-03
            1067     13.6999E-03     105.025E-03    -15.8600E+06    -11.6837E+06    -18.7212E+06    -11.2608E+06    -70.3610E-03     120.012E-03    -49.6510E-03     216.359E-03    -73.4030E-03     123.011E-03    -49.7047E-03     214.079E-03
            1068     14.5491E-03     105.259E-03    -14.9335E+06     67.7290E+06    -13.0535E+06    -6.93912E+06    -79.7461E-03     129.966E-03    -50.2201E-03     304.899E-03    -88.5538E-03     139.000E-03    -50.3619E-03     301.553E-03
            1069     15.3936E-03     105.613E-03    -13.0859E+06     140.725E+06     41.9580E+06    -3.88267E+06    -87.4617E-03     138.494E-03    -51.0320E-03     403.218E-03    -110.115E-03     161.479E-03    -51.0073E-03     401.404E-03
            1070     16.2391E-03     106.076E-03    -7.43931E+06     176.202E+06     113.349E+06    -1.75050E+06    -77.6994E-03     129.679E-03    -51.9799E-03     296.949E-03    -97.1112E-03     149.362E-03    -51.6579E-03     300.924E-03
            1071     857.580E-06     104.943E-03    -15.3750E+06    -57.1024E+06    -16.1906E+06    -5.89003E+06    -48.1113E-03     96.2280E-03    -48.1167E-03     10.9719E-03    -48.0828E-03     95.9889E-03    -48.0926E-03     10.8803E-03
            1072     1.71544E-03     104.955E-03    -15.6323E+06    -58.7386E+06    -16.2113E+06    -10.4508E+06    -47.8844E-03     95.9170E-03    -48.0325E-03     20.2420E-03    -47.8565E-03     95.6717E-03    -48.0058E-03     20.0781E-03
            1073     2.57343E-03     104.975E-03    -15.3719E+06    -61.7890E+06    -16.1231E+06    -14.4351E+06    -47.5649E-03     95.4460E-03    -47.8810E-03     30.1349E-03    -47.5343E-03     95.1878E-03    -47.8498E-03     29.9050E-03
            1074     3.43212E-03     105.002E-03    -15.1798E+06    -65.2051E+06    -15.9323E+06    -17.0422E+06    -47.1878E-03     94.8702E-03    -47.6824E-03     40.2449E-03    -47.1559E-03     94.5988E-03    -47.6455E-03     39.9654E-03
            1075     4.29104E-03     105.038E-03    -15.1804E+06    -68.7442E+06    -15.4772E+06    -18.5092E+06    -46.7588E-03     94.2039E-03    -47.4451E-03     50.6112E-03    -46.7288E-03     93.9204E-03    -47.4008E-03     50.2952E-03
            1076     5.15085E-03     105.081E-03    -15.7647E+06    -71.2232E+06    -14.9407E+06    -18.9701E+06    -46.3495E-03     93.5248E-03    -47.1752E-03     61.2369E-03    -46.3285E-03     93.2378E-03    -47.1238E-03     60.8944E-03
            1077     6.01101E-03     105.134E-03    -16.4900E+06    -74.3226E+06    -13.4590E+06    -18.6280E+06    -46.1189E-03     93.0169E-03    -46.8980E-03     72.1771E-03    -46.1121E-03     92.7263E-03    -46.8336E-03     71.8133E-03
            1078     6.87185E-03     105.194E-03    -17.5243E+06    -74.1570E+06    -11.1566E+06    -17.3259E+06    -46.1694E-03     92.8025E-03    -46.6331E-03     83.5063E-03    -46.1904E-03     92.5299E-03    -46.5559E-03     83.1255E-03
            1079     7.73270E-03     105.264E-03    -20.0441E+06    -73.9467E+06    -7.87824E+06    -15.6102E+06    -46.7000E-03     93.1183E-03    -46.4182E-03     95.1381E-03    -46.7681E-03     92.8751E-03    -46.3213E-03     94.7319E-03
            1080     8.59354E-03     105.343E-03    -22.4128E+06    -75.7262E+06    -6.15144E+06    -16.0013E+06    -47.8875E-03     94.1651E-03    -46.2775E-03     107.183E-03    -48.0136E-03     93.9602E-03    -46.1660E-03     106.704E-03
            1081     9.45344E-03     105.433E-03    -22.6685E+06    -78.8057E+06    -6.94761E+06    -14.4496E+06    -49.8341E-03     96.0703E-03    -46.2362E-03     119.601E-03    -50.0290E-03     95.9250E-03    -46.1238E-03     119.043E-03
            1082     10.3119E-03     105.534E-03    -22.3703E+06    -77.7780E+06    -7.09924E+06    -14.1533E+06    -52.6827E-03     99.0210E-03    -46.3383E-03     132.113E-03    -52.9930E-03     98.9964E-03    -46.2286E-03     131.418E-03
            1083     11.1687E-03     105.647E-03    -21.7701E+06    -70.3656E+06    -9.74421E+06    -16.7510E+06    -56.3906E-03     102.985E-03    -46.5946E-03     144.905E-03    -56.8905E-03     103.186E-03    -46.5097E-03     143.974E-03
            1084     12.0217E-03     105.775E-03    -21.1108E+06    -64.0237E+06    -9.60666E+06    -17.0397E+06    -60.8584E-03     107.916E-03    -47.0575E-03     158.709E-03    -61.6797E-03     108.463E-03    -46.9821E-03     157.478E-03
            1085     12.8710E-03     105.916E-03    -20.0943E+06    -64.1310E+06    -18.1044E+06    -16.2427E+06    -66.2247E-03     113.900E-03    -47.6748E-03     178.848E-03    -67.6527E-03     115.082E-03    -47.6432E-03     177.170E-03
            1086     13.7208E-03     106.090E-03    -18.1577E+06    -15.7480E+06    -15.3374E+06    -14.1072E+06    -73.0758E-03     121.502E-03    -48.4259E-03     221.801E-03    -76.2023E-03     124.553E-03    -48.4534E-03     219.395E-03
            1087     14.5631E-03     106.324E-03    -15.7419E+06     64.2507E+06    -10.4123E+06    -9.58964E+06    -83.8464E-03     133.075E-03    -49.2291E-03     308.180E-03    -92.8544E-03     142.287E-03    -49.3515E-03     304.483E-03
            1088     15.4066E-03     106.687E-03    -11.8242E+06     137.415E+06     42.7003E+06    -4.66832E+06    -92.2527E-03     142.568E-03    -50.3152E-03     403.988E-03    -115.218E-03     165.855E-03    -50.2838E-03     401.574E-03
            1089     16.2466E-03     107.146E-03    -5.91665E+06     173.480E+06     112.600E+06    -1.89638E+06    -82.0677E-03     133.606E-03    -51.5382E-03     295.735E-03    -101.643E-03     153.449E-03    -51.2181E-03     299.189E-03
            1090     859.653E-06     105.985E-03    -14.2376E+06    -44.0729E+06    -14.7664E+06    -6.17028E+06    -45.7518E-03     91.5248E-03    -45.7730E-03     11.1897E-03    -45.7385E-03     91.3469E-03    -45.7623E-03     11.0984E-03
            1091     1.71936E-03     105.997E-03    -14.7617E+06    -46.8848E+06    -16.0401E+06    -10.5830E+06    -45.4981E-03     91.1684E-03    -45.6703E-03     20.6649E-03    -45.4828E-03     90.9802E-03    -45.6611E-03     20.5067E-03
            1092     2.57962E-03     106.016E-03    -15.8660E+06    -51.7033E+06    -17.9322E+06    -14.4480E+06    -45.1340E-03     90.6304E-03    -45.4964E-03     30.8206E-03    -45.1167E-03     90.4247E-03    -45.4881E-03     30.6018E-03
            1093     3.44015E-03     106.043E-03    -17.2219E+06    -58.0195E+06    -20.1395E+06    -16.8904E+06    -44.6630E-03     89.9294E-03    -45.2664E-03     41.2322E-03    -44.6436E-03     89.7007E-03    -45.2580E-03     40.9705E-03
            1094     4.30157E-03     106.077E-03    -19.1409E+06    -63.7347E+06    -21.9358E+06    -17.5688E+06    -44.1584E-03     89.1482E-03    -44.9899E-03     51.9339E-03    -44.1424E-03     88.9011E-03    -44.9794E-03     51.6508E-03
            1095     5.16344E-03     106.120E-03    -21.9236E+06    -68.3244E+06    -22.9871E+06    -16.8684E+06    -43.7437E-03     88.4311E-03    -44.6874E-03     63.0010E-03    -43.7405E-03     88.1735E-03    -44.6714E-03     62.7117E-03
            1096     6.02609E-03     106.171E-03    -25.7758E+06    -72.0634E+06    -22.5771E+06    -15.7660E+06    -43.5817E-03     87.9726E-03    -44.3909E-03     74.4984E-03    -43.6033E-03     87.7118E-03    -44.3620E-03     74.2031E-03
            1097     6.88896E-03     106.231E-03    -30.0521E+06    -74.4522E+06    -20.3958E+06    -13.7031E+06    -43.8682E-03     88.0040E-03    -44.1358E-03     86.4035E-03    -43.9276E-03     87.7511E-03    -44.0862E-03     86.1055E-03
            1098     7.75196E-03     106.301E-03    -32.0659E+06    -71.9952E+06    -15.4177E+06    -12.6279E+06    -44.7786E-03     88.7357E-03    -43.9571E-03     98.7165E-03    -44.8860E-03     88.5179E-03    -43.8833E-03     98.3883E-03
            1099     8.61426E-03     106.381E-03    -32.9596E+06    -72.5913E+06    -10.8086E+06    -12.9357E+06    -46.4686E-03     90.3593E-03    -43.8906E-03     111.410E-03    -46.6312E-03     90.1782E-03    -43.7916E-03     111.011E-03
            1100     9.47532E-03     106.473E-03    -33.4853E+06    -78.7338E+06    -10.6906E+06    -14.2786E+06    -49.1052E-03     93.0631E-03    -43.9579E-03     124.668E-03    -49.3361E-03     92.9266E-03    -43.8486E-03     124.151E-03
            1101     10.3346E-03     106.577E-03    -30.1035E+06    -71.6875E+06    -9.40537E+06    -17.0424E+06    -52.6757E-03     96.8629E-03    -44.1872E-03     138.081E-03    -53.0217E-03     96.8750E-03    -44.0867E-03     137.380E-03
            1102     11.1905E-03     106.695E-03    -25.8270E+06    -69.0684E+06    -9.63647E+06    -18.3470E+06    -56.9801E-03     101.592E-03    -44.6123E-03     151.339E-03    -57.5011E-03     101.805E-03    -44.5229E-03     150.409E-03
            1103     12.0445E-03     106.827E-03    -24.2383E+06    -63.9623E+06    -9.75749E+06    -17.1465E+06    -62.4036E-03     107.655E-03    -45.2519E-03     166.472E-03    -63.2580E-03     108.226E-03    -45.1728E-03     165.236E-03
            1104     12.8936E-03     106.977E-03    -23.1901E+06    -60.9927E+06    -15.9196E+06    -18.1797E+06    -69.0423E-03     115.137E-03    -46.0948E-03     186.916E-03    -70.5589E-03     116.402E-03    -46.0524E-03     185.149E-03
            1105     13.7357E-03     107.152E-03    -19.6946E+06    -18.1913E+06    -12.3530E+06    -18.2368E+06    -77.1297E-03     124.252E-03    -47.1218E-03     228.244E-03    -80.3854E-03     127.410E-03    -47.1286E-03     225.613E-03
            1106     14.5793E-03     107.396E-03    -14.8260E+06     57.4222E+06    -7.67352E+06    -13.5119E+06    -88.9253E-03     137.153E-03    -48.2276E-03     312.817E-03    -98.1548E-03     146.557E-03    -48.3277E-03     308.663E-03
            1107     15.4157E-03     107.761E-03    -10.6597E+06     130.950E+06     44.3542E+06    -6.67945E+06    -97.0349E-03     146.647E-03    -49.6118E-03     404.705E-03    -120.171E-03     170.082E-03    -49.5645E-03     401.671E-03
            1108     16.2537E-03     108.222E-03    -5.62975E+06     170.940E+06     111.750E+06    -1.47234E+06    -86.6918E-03     137.793E-03    -51.1010E-03     294.722E-03    -106.287E-03     157.651E-03    -50.7819E-03     297.632E-03
            1109     861.908E-06     107.022E-03    -11.0149E+06    -31.3008E+06    -11.7257E+06    -5.81458E+06    -42.9784E-03     85.9703E-03    -42.9918E-03     11.3533E-03    -42.9719E-03     85.8469E-03    -42.9891E-03     11.2704E-03
            1110     1.72427E-03     107.033E-03    -12.8553E+06    -35.9077E+06    -14.7761E+06    -9.71031E+06    -42.6834E-03     85.5643E-03    -42.8809E-03     21.0316E-03    -42.6759E-03     85.4258E-03    -42.8841E-03     20.8918E-03
            1111     2.58673E-03     107.051E-03    -15.6255E+06    -42.4478E+06    -19.0432E+06    -12.8456E+06    -42.2689E-03     84.9517E-03    -42.6828E-03     31.3846E-03    -42.2611E-03     84.7922E-03    -42.6938E-03     31.1974E-03
            1112     3.45000E-03     107.077E-03    -19.6039E+06    -51.8174E+06    -23.9160E+06    -14.5148E+06    -41.7472E-03     84.1740E-03    -42.4268E-03     42.0460E-03    -41.7410E-03     83.9828E-03    -42.4428E-03     41.8302E-03
            1113     4.31375E-03     107.111E-03    -24.8819E+06    -61.2623E+06    -28.8233E+06    -13.6705E+06    -41.2478E-03     83.3755E-03    -42.1277E-03     53.0595E-03    -41.2505E-03     83.1552E-03    -42.1469E-03     52.8464E-03
            1114     5.17832E-03     107.152E-03    -31.1114E+06    -66.7658E+06    -31.6892E+06    -11.8237E+06    -40.9316E-03     82.7506E-03    -41.8190E-03     64.5077E-03    -40.9583E-03     82.5210E-03    -41.8355E-03     64.3075E-03
            1115     6.04326E-03     107.203E-03    -37.0217E+06    -71.6281E+06    -29.6198E+06    -9.75373E+06    -41.0092E-03     82.5650E-03    -41.5558E-03     76.4486E-03    -41.0699E-03     82.3253E-03    -41.5464E-03     76.2588E-03
            1116     6.90843E-03     107.263E-03    -39.9981E+06    -72.9100E+06    -24.4026E+06    -9.63926E+06    -41.6759E-03     83.0390E-03    -41.3630E-03     88.9084E-03    -41.7717E-03     82.8042E-03    -41.3213E-03     88.6938E-03
            1117     7.77305E-03     107.334E-03    -40.1311E+06    -69.3418E+06    -18.4207E+06    -10.9993E+06    -43.0476E-03     84.3133E-03    -41.2657E-03     101.896E-03    -43.1832E-03     84.1134E-03    -41.1991E-03     101.622E-03
            1118     8.63674E-03     107.416E-03    -38.6593E+06    -71.1839E+06    -13.2148E+06    -11.2026E+06    -45.3128E-03     86.6224E-03    -41.3096E-03     115.363E-03    -45.4899E-03     86.4477E-03    -41.2164E-03     115.020E-03
            1119     9.49893E-03     107.510E-03    -35.6458E+06    -71.8067E+06    -9.48764E+06    -14.3100E+06    -48.5953E-03     90.1128E-03    -41.5175E-03     129.575E-03    -48.8373E-03     90.0008E-03    -41.4092E-03     129.089E-03
            1120     10.3580E-03     107.619E-03    -33.2734E+06    -65.6066E+06    -9.85872E+06    -19.6879E+06    -52.6818E-03     94.5756E-03    -41.8939E-03     144.060E-03    -53.0431E-03     94.6146E-03    -41.7998E-03     143.355E-03
            1121     11.2150E-03     107.741E-03    -31.4044E+06    -69.5608E+06    -11.9407E+06    -20.5618E+06    -57.8541E-03     100.349E-03    -42.4944E-03     158.466E-03    -58.4024E-03     100.573E-03    -42.4077E-03     157.521E-03
            1122     12.0669E-03     107.878E-03    -28.1832E+06    -62.7403E+06    -10.9324E+06    -19.6789E+06    -64.2298E-03     107.565E-03    -43.3356E-03     174.389E-03    -65.1252E-03     108.171E-03    -43.2585E-03     173.108E-03
            1123     12.9151E-03     108.036E-03    -23.8979E+06    -56.1115E+06    -13.9713E+06    -21.6697E+06    -71.8051E-03     116.216E-03    -44.4107E-03     195.330E-03    -73.3944E-03     117.563E-03    -44.3646E-03     193.455E-03
            1124     13.7585E-03     108.221E-03    -19.7787E+06    -18.1251E+06    -8.63440E+06    -22.7588E+06    -81.7592E-03     127.485E-03    -45.7256E-03     237.151E-03    -85.1939E-03     130.812E-03    -45.7138E-03     234.238E-03
            1125     14.5930E-03     108.470E-03    -16.4215E+06     48.1333E+06    -7.41717E+06    -17.9700E+06    -94.3781E-03     141.518E-03    -47.1397E-03     320.420E-03    -103.855E-03     151.130E-03    -47.2227E-03     315.786E-03
            1126     15.4283E-03     108.842E-03    -13.8185E+06     121.510E+06     41.7006E+06    -9.41049E+06    -102.596E-03     151.412E-03    -48.8166E-03     409.489E-03    -126.093E-03     175.172E-03    -48.7642E-03     405.617E-03
            1127     16.2607E-03     109.301E-03    -6.97449E+06     166.163E+06     109.515E+06    -3.30521E+06    -92.9640E-03     143.577E-03    -50.6134E-03     296.123E-03    -112.786E-03     163.648E-03    -50.2967E-03     298.127E-03
            1128     864.835E-06     108.052E-03    -13.3918E+06    -20.5889E+06    -13.7192E+06    -4.22520E+06    -39.7847E-03     79.5518E-03    -39.7671E-03     11.4677E-03    -39.8026E-03     79.4881E-03    -39.7865E-03     11.4088E-03
            1129     1.72964E-03     108.063E-03    -16.6219E+06    -26.9441E+06    -18.7259E+06    -7.31639E+06    -39.4589E-03     79.1249E-03    -39.6660E-03     21.2517E-03    -39.4770E-03     79.0417E-03    -39.6964E-03     21.1494E-03
            1130     2.59518E-03     108.080E-03    -21.8651E+06    -36.0212E+06    -26.0197E+06    -8.85487E+06    -39.0109E-03     78.4639E-03    -39.4530E-03     31.7239E-03    -39.0324E-03     78.3544E-03    -39.4991E-03     31.5982E-03
            1131     3.46106E-03     108.105E-03    -29.4600E+06    -48.8110E+06    -33.2541E+06    -8.23105E+06    -38.5399E-03     77.7342E-03    -39.1943E-03     42.5492E-03    -38.5715E-03     77.5835E-03    -39.2471E-03     42.4279E-03
            1132     4.32773E-03     108.138E-03    -37.7209E+06    -60.7564E+06    -38.0646E+06    -6.64021E+06    -38.1910E-03     77.1152E-03    -38.9242E-03     53.8203E-03    -38.2417E-03     76.9258E-03    -38.9717E-03     53.7147E-03
            1133     5.19477E-03     108.179E-03    -44.2584E+06    -66.8148E+06    -38.1337E+06    -4.93244E+06    -38.1624E-03     76.8427E-03    -38.6803E-03     65.5978E-03    -38.2404E-03     76.6362E-03    -38.7099E-03     65.5063E-03
            1134     6.06205E-03     108.229E-03    -47.3201E+06    -70.6726E+06    -33.0362E+06    -4.84640E+06    -38.6407E-03     77.1489E-03    -38.5082E-03     77.9560E-03    -38.7425E-03     76.9270E-03    -38.5022E-03     77.8517E-03
            1135     6.92896E-03     108.290E-03    -47.4826E+06    -67.9880E+06    -26.4276E+06    -7.42341E+06    -39.7101E-03     78.1292E-03    -38.4192E-03     90.9724E-03    -39.8390E-03     77.9244E-03    -38.3839E-03     90.8111E-03
            1136     7.79525E-03     108.362E-03    -46.7510E+06    -67.4690E+06    -20.9077E+06    -9.24295E+06    -41.5490E-03     79.9967E-03    -38.4477E-03     104.641E-03    -41.7066E-03     79.8091E-03    -38.3866E-03     104.417E-03
            1137     8.66028E-03     108.446E-03    -44.3573E+06    -66.5604E+06    -16.1180E+06    -12.3016E+06    -44.3387E-03     82.9645E-03    -38.6258E-03     119.115E-03    -44.5354E-03     82.8139E-03    -38.5455E-03     118.787E-03
            1138     9.52274E-03     108.544E-03    -39.5029E+06    -63.4791E+06    -11.3498E+06    -17.6619E+06    -48.0203E-03     87.0000E-03    -38.9797E-03     134.485E-03    -48.2787E-03     86.9257E-03    -38.8872E-03     133.988E-03
            1139     10.3833E-03     108.657E-03    -35.4882E+06    -61.0956E+06    -9.56440E+06    -19.7620E+06    -52.7410E-03     92.2670E-03    -39.5260E-03     149.970E-03    -53.1122E-03     92.3234E-03    -39.4338E-03     149.290E-03
            1140     11.2398E-03     108.785E-03    -32.4626E+06    -66.1547E+06    -11.0040E+06    -22.1145E+06    -58.9172E-03     99.2284E-03    -40.3112E-03     165.771E-03    -59.4808E-03     99.4745E-03    -40.2232E-03     164.816E-03
            1141     12.0918E-03     108.931E-03    -27.5267E+06    -59.5525E+06    -10.9865E+06    -25.2749E+06    -66.0901E-03     107.442E-03    -41.3517E-03     182.997E-03    -67.0112E-03     108.087E-03    -41.2804E-03     181.631E-03
            1142     12.9374E-03     109.095E-03    -22.0226E+06    -53.7812E+06    -12.4565E+06    -26.2353E+06    -74.6147E-03     117.269E-03    -42.6544E-03     205.707E-03    -76.2743E-03     118.697E-03    -42.6067E-03     203.701E-03
            1143     13.7774E-03     109.291E-03    -18.7303E+06    -17.1713E+06    -5.63537E+06    -25.1690E+06    -86.0430E-03     130.271E-03    -44.2283E-03     248.283E-03    -89.6557E-03     133.775E-03    -44.2044E-03     245.128E-03
            1144     14.6129E-03     109.552E-03    -17.2697E+06     39.1702E+06    -7.38981E+06    -20.2063E+06    -99.3683E-03     145.292E-03    -45.9237E-03     327.470E-03    -108.940E-03     154.964E-03    -45.9924E-03     322.423E-03
            1145     15.4444E-03     109.924E-03    -13.6528E+06     111.100E+06     40.0825E+06    -11.1453E+06    -108.240E-03     156.121E-03    -47.8812E-03     415.162E-03    -132.026E-03     180.139E-03    -47.8221E-03     410.387E-03
            1146     16.2718E-03     110.396E-03    -7.68127E+06     161.823E+06     107.925E+06    -4.84791E+06    -101.351E-03     151.373E-03    -50.0225E-03     300.054E-03    -121.475E-03     171.733E-03    -49.7064E-03     300.850E-03
            1147     867.763E-06     109.075E-03    -23.1103E+06    -13.0019E+06    -24.5882E+06    -3.20713E+06    -36.2043E-03     72.4196E-03    -36.2153E-03     11.4371E-03    -36.2660E-03     72.4234E-03    -36.2859E-03     11.3941E-03
            1148     1.73597E-03     109.085E-03    -26.9618E+06    -22.1760E+06    -29.9367E+06    -3.44938E+06    -35.9022E-03     72.0038E-03    -36.1017E-03     21.2047E-03    -35.9622E-03     71.9752E-03    -36.1801E-03     21.1575E-03
            1149     2.60430E-03     109.102E-03    -34.5837E+06    -35.3906E+06    -37.3653E+06    -1.44444E+06    -35.5395E-03     71.4524E-03    -35.9129E-03     31.7036E-03    -35.6080E-03     71.3798E-03    -35.9982E-03     31.6815E-03
            1150     3.47337E-03     109.126E-03    -43.5206E+06    -49.4404E+06    -42.6078E+06     1.00785E+06    -35.2604E-03     70.9721E-03    -35.7117E-03     42.6497E-03    -35.3460E-03     70.8503E-03    -35.7900E-03     42.6580E-03
            1151     4.34261E-03     109.159E-03    -50.5081E+06    -60.5352E+06    -42.5594E+06     1.53472E+06    -35.2548E-03     70.7971E-03    -35.5423E-03     54.1316E-03    -35.3602E-03     70.6309E-03    -35.5941E-03     54.1441E-03
            1152     5.21210E-03     109.199E-03    -53.5938E+06    -66.0738E+06    -38.6234E+06     305.381E+03    -35.6547E-03     71.0824E-03    -35.4277E-03     66.2284E-03    -35.7755E-03     70.8898E-03    -35.4473E-03     66.2190E-03
            1153     6.08125E-03     109.250E-03    -52.9719E+06    -66.3901E+06    -33.5847E+06    -2.99437E+06    -36.5308E-03     71.9128E-03    -35.3820E-03     79.0133E-03    -36.6608E-03     71.7159E-03    -35.3769E-03     78.9495E-03
            1154     6.94993E-03     109.312E-03    -50.9072E+06    -63.5257E+06    -27.5664E+06    -6.12552E+06    -37.9994E-03     73.4332E-03    -35.4338E-03     92.5829E-03    -38.1430E-03     73.2502E-03    -35.4057E-03     92.4575E-03
            1155     7.81761E-03     109.386E-03    -47.3356E+06    -63.7193E+06    -21.4436E+06    -9.29913E+06    -40.2713E-03     75.8870E-03    -35.6157E-03     107.067E-03    -40.4276E-03     75.7110E-03    -35.5619E-03     106.865E-03
            1156     8.68334E-03     109.473E-03    -41.8372E+06    -57.7202E+06    -15.1118E+06    -14.7649E+06    -43.3536E-03     79.2938E-03    -35.9401E-03     122.607E-03    -43.5408E-03     79.1712E-03    -35.8713E-03     122.274E-03
            1157     9.54747E-03     109.575E-03    -37.7513E+06    -57.0648E+06    -10.6101E+06    -19.4762E+06    -47.4324E-03     83.8745E-03    -36.4421E-03     139.021E-03    -47.6805E-03     83.8168E-03    -36.3576E-03     138.530E-03
            1158     10.4082E-03     109.693E-03    -34.1658E+06    -58.7138E+06    -8.44662E+06    -21.1907E+06    -52.9811E-03     90.1360E-03    -37.1549E-03     156.107E-03    -53.3428E-03     90.1928E-03    -37.0624E-03     155.433E-03
            1159     11.2643E-03     109.828E-03    -29.3225E+06    -57.3384E+06    -7.62562E+06    -25.1998E+06    -59.8032E-03     97.9181E-03    -38.1149E-03     173.618E-03    -60.3705E-03     98.2006E-03    -38.0273E-03     172.638E-03
            1160     12.1154E-03     109.981E-03    -24.6660E+06    -54.8456E+06    -9.35117E+06    -30.1348E+06    -67.4399E-03     106.769E-03    -39.3289E-03     191.957E-03    -68.3747E-03     107.449E-03    -39.2604E-03     190.526E-03
            1161     12.9627E-03     110.156E-03    -21.8337E+06    -54.6035E+06    -11.8775E+06    -29.2731E+06    -77.3322E-03     118.162E-03    -40.8299E-03     217.251E-03    -79.0604E-03     119.655E-03    -40.7784E-03     215.140E-03
            1162     13.8010E-03     110.364E-03    -19.5272E+06    -14.1636E+06    -3.78170E+06    -28.1014E+06    -90.5578E-03     133.204E-03    -42.6461E-03     260.972E-03    -94.3567E-03     136.897E-03    -42.6162E-03     257.552E-03
            1163     14.6313E-03     110.635E-03    -15.4138E+06     28.2527E+06    -5.95812E+06    -23.3298E+06    -104.840E-03     149.488E-03    -44.6480E-03     334.384E-03    -114.460E-03     159.173E-03    -44.6964E-03     328.839E-03
            1164     15.4583E-03     111.012E-03    -9.36294E+06     98.0329E+06     40.5539E+06    -11.7593E+06    -114.707E-03     161.633E-03    -46.9254E-03     418.918E-03    -138.436E-03     185.561E-03    -46.8512E-03     413.021E-03
            1165     16.2852E-03     111.490E-03    -3.95704E+06     158.117E+06     107.866E+06    -3.72799E+06    -110.196E-03     159.629E-03    -49.4326E-03     305.552E-03    -130.437E-03     180.107E-03    -49.1168E-03     305.009E-03
            1166     871.140E-06     110.091E-03    -35.5312E+06    -9.45034E+06    -36.1640E+06    -789.159E+03    -32.4560E-03     64.9396E-03    -32.4836E-03     11.2065E-03    -32.5680E-03     64.9958E-03    -32.5992E-03     11.1965E-03
            1167     1.74235E-03     110.101E-03    -41.8454E+06    -24.6165E+06    -43.5799E+06     2.23710E+06    -32.2465E-03     64.6321E-03    -32.3856E-03     20.8102E-03    -32.3573E-03     64.6322E-03    -32.5071E-03     20.8399E-03
            1168     2.61411E-03     110.117E-03    -48.6229E+06    -40.9187E+06    -46.7121E+06     7.10908E+06    -32.1086E-03     64.3883E-03    -32.2797E-03     31.2356E-03    -32.2248E-03     64.3211E-03    -32.3834E-03     31.3290E-03
            1169     3.48582E-03     110.141E-03    -53.7243E+06    -51.8480E+06    -45.5136E+06     9.34380E+06    -32.1825E-03     64.3834E-03    -32.2009E-03     42.2812E-03    -32.3098E-03     64.2671E-03    -32.2754E-03     42.4040E-03
            1170     4.35771E-03     110.173E-03    -56.4557E+06    -59.7467E+06    -41.6455E+06     8.05939E+06    -32.6139E-03     64.7906E-03    -32.1767E-03     53.9870E-03    -32.7493E-03     64.6335E-03    -32.2164E-03     54.0920E-03
            1171     5.22912E-03     110.214E-03    -56.3573E+06    -60.8227E+06    -37.1915E+06     2.97870E+06    -33.4142E-03     65.6261E-03    -32.2120E-03     66.4102E-03    -33.5553E-03     65.4586E-03    -32.2280E-03     66.4451E-03
            1172     6.10013E-03     110.266E-03    -53.7331E+06    -60.5733E+06    -32.8616E+06    -2.98792E+06    -34.6515E-03     66.9744E-03    -32.3228E-03     79.6234E-03    -34.7904E-03     66.8023E-03    -32.3214E-03     79.5716E-03
            1173     6.97031E-03     110.329E-03    -49.8082E+06    -60.0347E+06    -27.2814E+06    -6.46195E+06    -36.4914E-03     69.0276E-03    -32.5361E-03     93.8204E-03    -36.6291E-03     68.8540E-03    -32.5133E-03     93.7056E-03
            1174     7.83905E-03     110.405E-03    -44.9188E+06    -55.0741E+06    -20.8014E+06    -12.0299E+06    -39.0198E-03     71.8857E-03    -32.8658E-03     109.198E-03    -39.1692E-03     71.7402E-03    -32.8249E-03     108.979E-03
            1175     8.70636E-03     110.496E-03    -40.3275E+06    -50.4172E+06    -14.4618E+06    -17.5053E+06    -42.3605E-03     75.6968E-03    -33.3363E-03     125.633E-03    -42.5410E-03     75.5971E-03    -33.2771E-03     125.288E-03
            1176     9.57099E-03     110.602E-03    -36.6996E+06    -52.3064E+06    -10.1082E+06    -19.8045E+06    -46.9311E-03     80.9132E-03    -33.9821E-03     143.356E-03    -47.1696E-03     80.8652E-03    -33.9036E-03     142.886E-03
            1177     10.4323E-03     110.726E-03    -33.1678E+06    -53.0333E+06    -7.89902E+06    -23.7730E+06    -52.8981E-03     87.7321E-03    -34.8340E-03     162.421E-03    -53.2520E-03     87.8032E-03    -34.7485E-03     161.743E-03
            1178     11.2893E-03     110.869E-03    -29.2864E+06    -48.1891E+06    -5.56013E+06    -29.0188E+06    -60.0371E-03     95.9654E-03    -35.9282E-03     181.787E-03    -60.6117E-03     96.2817E-03    -35.8437E-03     180.789E-03
            1179     12.1413E-03     111.031E-03    -26.7302E+06    -50.4883E+06    -7.73149E+06    -31.6796E+06    -68.9419E-03     106.241E-03    -37.2987E-03     201.882E-03    -69.9146E-03     106.963E-03    -37.2254E-03     200.425E-03
            1180     12.9856E-03     111.214E-03    -24.4474E+06    -53.9221E+06    -10.3715E+06    -32.5062E+06    -80.5256E-03     119.535E-03    -39.0096E-03     228.704E-03    -82.3394E-03     121.103E-03    -38.9478E-03     226.467E-03
            1181     13.8235E-03     111.438E-03    -20.6649E+06    -9.90346E+06    -1.56704E+06    -32.6009E+06    -94.9219E-03     135.989E-03    -41.0668E-03     272.816E-03    -98.8641E-03     139.830E-03    -41.0304E-03     269.129E-03
            1182     14.6513E-03     111.724E-03    -18.1162E+06     15.4119E+06    -4.57336E+06    -28.2307E+06    -110.577E-03     153.952E-03    -43.3748E-03     342.307E-03    -120.260E-03     163.641E-03    -43.3938E-03     336.205E-03
            1183     15.4747E-03     112.104E-03    -13.9835E+06     80.1719E+06     34.5715E+06    -16.9032E+06    -123.036E-03     169.021E-03    -45.9851E-03     424.696E-03    -146.790E-03     192.913E-03    -45.9083E-03     417.124E-03
            1184     16.2889E-03     112.593E-03    -7.93305E+06     149.897E+06     99.5652E+06    -6.60930E+06    -119.226E-03     168.101E-03    -48.8748E-03     315.283E-03    -139.809E-03     188.902E-03    -48.5829E-03     313.025E-03
            1185     874.319E-06     111.099E-03    -54.4045E+06    -17.9410E+06    -49.1687E+06     9.79702E+06    -28.7873E-03     57.5441E-03    -28.7568E-03     10.7777E-03    -28.9624E-03     57.6040E-03    -28.8977E-03     10.9056E-03
            1186     1.74891E-03     111.109E-03    -63.0312E+06    -32.6094E+06    -54.4191E+06     12.6125E+06    -28.8122E-03     57.5933E-03    -28.7811E-03     20.1411E-03    -29.0013E-03     57.5997E-03    -28.9145E-03     20.3067E-03
            1187     2.62328E-03     111.125E-03    -66.4250E+06    -46.9780E+06    -54.7886E+06     12.8832E+06    -29.0054E-03     57.8184E-03    -28.8131E-03     30.4427E-03    -29.1895E-03     57.7581E-03    -28.9226E-03     30.6134E-03
            1188     3.49776E-03     111.149E-03    -63.4870E+06      -54.04E+06    -50.2292E+06     11.5321E+06    -29.4648E-03     58.3496E-03    -28.8847E-03     41.5117E-03    -29.6300E-03     58.2426E-03    -28.9654E-03     41.6663E-03
            1189     4.37165E-03     111.181E-03    -57.7148E+06    -57.9473E+06    -43.8647E+06     8.58831E+06    -30.2545E-03     59.2677E-03    -29.0132E-03     53.4104E-03    -30.3940E-03     59.1233E-03    -29.0648E-03     53.5270E-03
            1190     5.24510E-03     111.224E-03    -52.6652E+06    -53.3740E+06    -36.8142E+06     3.27854E+06    -31.3674E-03     60.5698E-03    -29.2024E-03     66.1055E-03    -31.4992E-03     60.4314E-03    -29.2327E-03     66.1508E-03
            1191     6.11776E-03     111.277E-03    -49.8627E+06    -54.2611E+06    -31.0641E+06    -2.66138E+06    -32.9440E-03     62.4202E-03    -29.4762E-03     79.7734E-03    -33.0718E-03     62.2681E-03    -29.4806E-03     79.7345E-03
            1192     6.98921E-03     111.342E-03    -46.5022E+06    -54.1830E+06    -25.7648E+06    -8.39707E+06    -35.0419E-03     64.8813E-03    -29.8394E-03     94.6209E-03    -35.1685E-03     64.7250E-03    -29.8222E-03     94.4928E-03
            1193     7.85946E-03     111.421E-03    -42.4639E+06    -45.1169E+06    -19.1062E+06    -14.1002E+06    -37.7566E-03     68.0586E-03    -30.3020E-03     110.747E-03    -37.9030E-03     67.9494E-03    -30.2706E-03     110.517E-03
            1194     8.72759E-03     111.515E-03     -39.722E+06    -45.5717E+06    -14.1999E+06    -17.9309E+06    -41.4054E-03     72.3077E-03    -30.9024E-03     128.157E-03    -41.5797E-03     72.2204E-03    -30.8497E-03     127.828E-03
            1195     9.59330E-03     111.626E-03    -36.6544E+06    -46.4123E+06    -10.1562E+06    -21.4104E+06    -46.2996E-03     77.9668E-03    -31.6672E-03     147.520E-03    -46.5324E-03     77.9344E-03    -31.5976E-03     147.057E-03
            1196     10.4555E-03     111.756E-03    -31.8883E+06    -43.7198E+06    -5.64072E+06    -26.7636E+06    -52.4477E-03     85.0799E-03    -32.6323E-03     168.107E-03    -52.7947E-03     85.1754E-03    -32.5508E-03     167.425E-03
            1197     11.3134E-03     111.906E-03    -27.9018E+06    -41.6688E+06    -2.77378E+06    -30.6742E+06    -60.1174E-03     93.9529E-03    -33.8355E-03     188.910E-03    -60.6825E-03     94.2800E-03    -33.7485E-03     187.924E-03
            1198     12.1660E-03     112.077E-03    -25.4111E+06    -47.1388E+06    -4.19047E+06    -32.1200E+06    -70.4701E-03     105.818E-03    -35.3483E-03     211.577E-03    -71.4522E-03     106.557E-03    -35.2641E-03     210.117E-03
            1199     13.0100E-03     112.277E-03    -21.7539E+06    -47.3479E+06    -5.16646E+06    -35.4811E+06    -83.8351E-03     121.088E-03    -37.2527E-03     241.227E-03    -85.7237E-03     122.749E-03    -37.1783E-03     238.865E-03
            1200     13.8429E-03     112.512E-03    -18.8841E+06    -11.1345E+06     685.718E+03    -35.0778E+06    -99.1736E-03     138.704E-03    -39.5302E-03     286.314E-03    -103.241E-03     142.665E-03    -39.4832E-03     282.394E-03
            1201     14.6709E-03     112.813E-03    -16.9316E+06     6.37308E+06     560.779E+03    -27.1952E+06    -116.555E-03     158.670E-03    -42.1143E-03     353.795E-03    -126.304E-03     168.383E-03    -42.0962E-03     347.153E-03
            1202     15.4880E-03     113.204E-03    -13.1877E+06     68.6322E+06     37.1573E+06    -20.3673E+06    -131.746E-03     176.789E-03    -45.0423E-03     434.541E-03    -155.618E-03     200.753E-03    -44.9369E-03     425.262E-03
            1203     16.3019E-03     113.707E-03    -6.20077E+06     133.926E+06     96.2189E+06    -10.2674E+06    -128.747E-03     177.050E-03    -48.3033E-03     327.217E-03    -149.792E-03     198.274E-03    -48.0074E-03     323.136E-03
            1204     877.603E-06     112.100E-03    -76.5879E+06    -42.4418E+06    -72.7542E+06     16.0225E+06    -25.5251E-03     50.9705E-03    -25.4454E-03     10.1649E-03    -25.7412E-03     50.9745E-03    -25.6366E-03     10.3735E-03
            1205     1.75465E-03     112.110E-03    -71.0134E+06    -43.1019E+06    -59.7266E+06     19.9023E+06    -25.8427E-03     51.4413E-03    -25.5985E-03     19.2918E-03    -26.0486E-03     51.4145E-03    -25.7317E-03     19.5523E-03
            1206     2.63156E-03     112.126E-03    -67.5099E+06    -48.8121E+06    -54.0155E+06     16.3551E+06    -26.4180E-03     52.1917E-03    -25.7737E-03     29.5915E-03    -26.6056E-03     52.1225E-03    -25.8751E-03     29.8083E-03
            1207     3.50782E-03     112.151E-03    -65.0866E+06    -53.3184E+06    -52.0781E+06     10.6639E+06    -27.2206E-03     53.2085E-03    -25.9880E-03     40.6692E-03    -27.3915E-03     53.1098E-03    -26.0767E-03     40.8143E-03
            1208     4.38380E-03     112.185E-03    -60.7214E+06    -53.4341E+06    -48.2131E+06     4.48814E+06    -28.2296E-03     54.4837E-03    -26.2541E-03     52.5080E-03    -28.3835E-03     54.3719E-03    -26.3297E-03     52.5740E-03
            1209     5.25898E-03     112.228E-03    -54.1870E+06    -48.1347E+06    -41.2319E+06    -487.363E+03    -29.5262E-03     56.1017E-03    -26.5754E-03     65.2663E-03    -29.6653E-03     55.9968E-03    -26.6332E-03     65.2666E-03
            1210     6.13318E-03     112.283E-03    -47.6349E+06    -48.2111E+06    -33.4895E+06    -4.31492E+06    -31.2926E-03     58.2655E-03    -26.9729E-03     79.2939E-03    -31.4118E-03     58.1414E-03    -27.0014E-03     79.2398E-03
            1211     7.00613E-03     112.351E-03    -43.0732E+06    -45.2027E+06    -25.2676E+06    -10.1687E+06    -33.5933E-03     61.0487E-03    -27.4554E-03     94.6913E-03    -33.7121E-03     60.9273E-03    -27.4538E-03     94.5497E-03
            1212     7.87742E-03     112.432E-03    -39.8827E+06    -38.7207E+06    -17.6424E+06    -14.7285E+06    -36.5190E-03     64.5517E-03    -28.0328E-03     111.509E-03    -36.6567E-03     64.4616E-03    -28.0070E-03     111.285E-03
            1213     8.74686E-03     112.530E-03    -36.5964E+06    -39.7944E+06    -12.2320E+06    -18.0475E+06    -40.3914E-03     69.1256E-03    -28.7343E-03     130.014E-03    -40.5503E-03     69.0489E-03    -28.6847E-03     129.703E-03
            1214     9.61350E-03     112.646E-03    -32.4170E+06    -37.7618E+06    -6.50039E+06    -23.3304E+06    -45.4639E-03     75.0539E-03    -29.5900E-03     150.805E-03    -45.6768E-03     75.0368E-03    -29.5208E-03     150.345E-03
            1215     10.4766E-03     112.783E-03    -28.7634E+06    -35.1384E+06    -1.39663E+06    -28.4794E+06    -51.9267E-03     82.5670E-03    -30.6403E-03     172.823E-03    -52.2550E-03     82.6730E-03    -30.5546E-03     172.154E-03
            1216     11.3355E-03     112.940E-03    -26.0523E+06    -36.6526E+06     759.857E+03    -31.3107E+06    -60.5064E-03     92.4488E-03    -31.9423E-03     195.822E-03    -61.0555E-03     92.7741E-03    -31.8476E-03     194.860E-03
            1217     12.1871E-03     113.124E-03    -22.2370E+06    -41.1709E+06     1.27839E+06    -34.2561E+06    -71.7783E-03     105.358E-03    -33.5799E-03     221.570E-03    -72.7532E-03     106.106E-03    -33.4815E-03     220.099E-03
            1218     13.0310E-03     113.335E-03    -18.9955E+06    -39.9833E+06     194.100E+03    -38.2568E+06    -85.8566E-03     121.461E-03    -35.6041E-03     254.090E-03    -87.7647E-03     123.162E-03    -35.5176E-03     251.678E-03
            1219     13.8669E-03     113.590E-03    -15.7282E+06    -16.5088E+06     3.48271E+06    -35.7589E+06    -102.898E-03     140.930E-03    -38.0323E-03     300.235E-03    -107.025E-03     144.936E-03    -37.9681E-03     296.138E-03
            1220     14.6901E-03     113.902E-03    -11.1760E+06    -3.00536E+06     7.32970E+06    -27.8464E+06    -123.020E-03     163.877E-03    -40.8572E-03     367.597E-03    -132.802E-03     173.593E-03    -40.8000E-03     360.334E-03
            1221     15.5065E-03     114.315E-03    -7.05764E+06     62.5910E+06     41.0788E+06    -18.5393E+06    -140.247E-03     184.313E-03    -44.0660E-03     445.788E-03    -164.064E-03     208.213E-03    -43.9411E-03     434.838E-03
            1222     16.3102E-03     114.824E-03    -6.13773E+06     120.802E+06     94.5696E+06    -9.59463E+06    -139.085E-03     186.795E-03    -47.7099E-03     339.721E-03    -160.568E-03     208.417E-03    -47.4033E-03     333.596E-03
            1223     879.401E-06     113.095E-03    -111.587E+06    -63.9174E+06    -112.084E+06     5.61994E+06    -23.0915E-03     46.0828E-03    -22.9913E-03     9.50401E-03    -23.3942E-03     46.0874E-03    -23.2973E-03     9.57794E-03
            1224     1.75912E-03     113.105E-03    -93.9785E+06    -53.3988E+06    -92.2409E+06     9.37373E+06    -23.4883E-03     46.6393E-03    -23.1510E-03     18.0847E-03    -23.7468E-03     46.6418E-03    -23.3985E-03     18.2086E-03
            1225     2.63805E-03     113.123E-03    -76.9063E+06    -49.5889E+06    -73.3818E+06     9.49767E+06    -24.2303E-03     47.6210E-03    -23.3907E-03     28.0710E-03    -24.4356E-03     47.5898E-03    -23.5742E-03     28.1987E-03
            1226     3.51636E-03     113.148E-03    -64.4238E+06    -50.0027E+06    -59.8355E+06     5.99831E+06    -25.2675E-03     48.9693E-03    -23.7018E-03     39.1710E-03    -25.4286E-03     48.8975E-03    -23.8350E-03     39.2558E-03
            1227     4.39345E-03     113.183E-03    -56.7330E+06    -46.4081E+06    -51.1043E+06     96.0868E+03    -26.5189E-03     50.5816E-03    -24.0627E-03     51.1591E-03    -26.6585E-03     50.5030E-03    -24.1686E-03     51.1690E-03
            1228     5.26990E-03     113.229E-03    -51.7013E+06    -43.7188E+06    -43.6258E+06    -5.13012E+06    -28.0298E-03     52.5142E-03    -24.4843E-03     64.0601E-03    -28.1586E-03     52.4306E-03    -24.5641E-03     64.0022E-03
            1229     6.14544E-03     113.286E-03    -46.7999E+06    -43.0800E+06    -36.3912E+06    -8.78871E+06    -29.8983E-03     54.8683E-03    -24.9700E-03     78.1251E-03    -30.0149E-03     54.7713E-03    -25.0217E-03     78.0167E-03
            1230     7.01978E-03     113.355E-03    -41.6167E+06    -37.1321E+06    -27.1690E+06    -12.5350E+06    -32.2421E-03     57.7706E-03    -25.5285E-03     93.7347E-03    -32.3590E-03     57.6867E-03    -25.5502E-03     93.5694E-03
            1231     7.89232E-03     113.441E-03    -36.7852E+06    -33.6390E+06    -17.4057E+06    -16.2859E+06    -35.3067E-03     61.4912E-03    -26.1845E-03     111.090E-03    -35.4301E-03     61.4150E-03    -26.1694E-03     110.858E-03
            1232     8.76280E-03     113.542E-03    -31.8404E+06    -33.2460E+06    -8.91550E+06    -19.7849E+06    -39.3440E-03     66.3028E-03    -26.9588E-03     130.536E-03    -39.4819E-03     66.2357E-03    -26.9090E-03     130.221E-03
            1233     9.63041E-03     113.663E-03    -28.8607E+06    -29.2096E+06    -1.75430E+06    -23.5577E+06    -44.5456E-03     72.4226E-03    -27.8770E-03     152.360E-03    -44.7409E-03     72.4172E-03    -27.8016E-03     151.926E-03
            1234     10.4949E-03     113.805E-03    -27.7788E+06    -26.8633E+06     3.14339E+06    -27.9116E+06    -51.3820E-03     80.3685E-03    -28.9865E-03     175.954E-03    -51.6955E-03     80.4796E-03    -28.8916E-03     175.331E-03
            1235     11.3540E-03     113.973E-03    -24.9360E+06    -30.0023E+06     5.57422E+06    -32.6461E+06    -60.5626E-03     90.9183E-03    -30.3558E-03     201.724E-03    -61.0849E-03     91.2306E-03    -30.2482E-03     200.792E-03
            1236     12.2068E-03     114.166E-03    -20.0182E+06    -33.1641E+06     7.47252E+06    -37.8232E+06    -72.5373E-03     104.604E-03    -32.0664E-03     230.708E-03    -73.4830E-03     105.341E-03    -31.9519E-03     229.236E-03
            1237     13.0512E-03     114.394E-03    -15.4065E+06    -35.3849E+06     6.83833E+06    -39.7636E+06    -87.3629E-03     121.532E-03    -34.1687E-03     265.473E-03    -89.2202E-03     123.192E-03    -34.0609E-03     263.074E-03
            1238     13.8851E-03     114.662E-03    -13.0017E+06    -22.3938E+06     8.53326E+06    -36.1934E+06    -106.273E-03     142.981E-03    -36.7086E-03     313.271E-03    -110.354E-03     146.917E-03    -36.6146E-03     309.058E-03
            1239     14.7096E-03     114.998E-03    -12.1098E+06    -9.43545E+06     13.3940E+06    -31.3141E+06    -129.378E-03     169.114E-03    -39.7359E-03     379.868E-03    -139.040E-03     178.666E-03    -39.6377E-03     372.035E-03
            1240     15.5192E-03     115.424E-03    -10.2613E+06     46.5496E+06     28.2302E+06    -23.0738E+06    -148.872E-03     192.037E-03    -43.1649E-03     454.547E-03    -172.341E-03     215.559E-03    -43.0764E-03     441.814E-03
            1241     16.3228E-03     115.953E-03    -2.47392E+06     104.019E+06     81.6764E+06    -7.58984E+06    -149.099E-03     196.277E-03    -47.1777E-03     353.829E-03    -170.965E-03     218.274E-03    -46.9166E-03     345.430E-03
            1242     880.765E-06     114.086E-03    -121.264E+06    -64.6040E+06    -120.875E+06    -5.60440E+06    -21.9070E-03     43.6787E-03    -21.7716E-03     8.77781E-03    -22.2443E-03     43.7068E-03    -22.1065E-03     8.70601E-03
            1243     1.76087E-03     114.096E-03    -112.591E+06    -55.4141E+06    -110.969E+06    -7.33271E+06    -22.2532E-03     44.1732E-03    -21.9200E-03     16.5948E-03    -22.5748E-03     44.2201E-03    -22.2312E-03     16.5014E-03
            1244     2.64116E-03     114.115E-03     -98.818E+06    -49.4674E+06    -96.7439E+06    -7.58388E+06    -22.8407E-03     44.9630E-03    -22.1223E-03     25.7044E-03    -23.1223E-03     44.9987E-03    -22.3910E-03     25.6090E-03
            1245     3.52083E-03     114.142E-03    -82.8570E+06    -46.0163E+06    -83.4014E+06    -8.82483E+06    -23.7135E-03     46.0906E-03    -22.3772E-03     36.0909E-03    -23.9390E-03     46.1005E-03    -22.6073E-03     35.9814E-03
            1246     4.40007E-03     114.179E-03    -68.0626E+06    -40.5197E+06    -72.6931E+06    -11.1258E+06    -24.9497E-03     47.6379E-03    -22.6882E-03     47.8117E-03    -25.1239E-03     47.6374E-03    -22.8942E-03     47.6743E-03
            1247     5.27781E-03     114.226E-03    -56.0374E+06    -38.9354E+06    -56.7482E+06    -13.3199E+06    -26.6102E-03     49.7309E-03    -23.1206E-03     60.9221E-03    -26.7490E-03     49.6970E-03    -23.2667E-03     60.7574E-03
            1248     6.15406E-03     114.285E-03    -45.6394E+06    -37.7639E+06    -38.9428E+06    -16.1582E+06    -28.6883E-03     52.3461E-03    -23.6578E-03     75.3969E-03    -28.8027E-03     52.2774E-03    -23.7316E-03     75.1942E-03
            1249     7.02890E-03     114.357E-03    -36.7626E+06    -32.9363E+06    -26.0923E+06    -17.8595E+06    -31.1980E-03     55.4567E-03    -24.2587E-03     91.2313E-03    -31.2962E-03     55.3832E-03    -24.2881E-03     91.0011E-03
            1250     7.90260E-03     114.445E-03    -31.1994E+06    -29.3903E+06    -15.4240E+06    -18.0919E+06    -34.3382E-03     59.2907E-03    -24.9525E-03     108.796E-03    -34.4374E-03     59.2197E-03    -24.9418E-03     108.549E-03
            1251     8.77377E-03     114.551E-03    -29.3327E+06    -26.6690E+06    -5.78565E+06    -20.1737E+06    -38.3700E-03     64.1345E-03    -25.7646E-03     128.718E-03    -38.4982E-03     64.0810E-03    -25.7123E-03     128.415E-03
            1252     9.64254E-03     114.676E-03    -26.8267E+06    -22.5612E+06     2.82437E+06    -23.4109E+06    -43.7018E-03     70.4198E-03    -26.7180E-03     151.453E-03    -43.8820E-03     70.4168E-03    -26.6322E-03     151.049E-03
            1253     10.5071E-03     114.825E-03    -22.8433E+06    -19.0065E+06     9.84533E+06    -26.7113E+06    -50.7653E-03     78.6249E-03    -27.8596E-03     176.612E-03    -51.0377E-03     78.7209E-03    -27.7497E-03     176.050E-03
            1254     11.3675E-03     115.000E-03    -20.4328E+06    -19.4905E+06     13.9735E+06    -32.3896E+06    -60.2062E-03     89.4642E-03    -29.2579E-03     204.723E-03    -60.6731E-03     89.7500E-03    -29.1302E-03     203.861E-03
            1255     12.2210E-03     115.207E-03    -18.4763E+06    -22.8199E+06     15.0992E+06    -39.5633E+06    -72.6076E-03     103.596E-03    -30.9881E-03     236.371E-03    -73.4784E-03     104.278E-03    -30.8528E-03     234.967E-03
            1256     13.0659E-03     115.448E-03    -16.8675E+06    -34.7275E+06     11.6049E+06    -41.6253E+06    -88.5332E-03     121.661E-03    -33.1278E-03     273.520E-03    -90.2758E-03     123.190E-03    -32.9949E-03     271.182E-03
            1257     13.9014E-03     115.735E-03    -15.5033E+06    -28.4125E+06     11.6307E+06    -36.4740E+06    -109.457E-03     145.204E-03    -35.7469E-03     324.410E-03    -113.372E-03     148.934E-03    -35.6251E-03     320.178E-03
            1258     14.7217E-03     116.092E-03    -13.8122E+06    -11.9530E+06     18.7941E+06    -30.8099E+06    -135.020E-03     173.934E-03    -38.9144E-03     392.654E-03    -144.353E-03     183.127E-03    -38.7831E-03     384.492E-03
            1259     15.5302E-03     116.540E-03    -14.3847E+06     35.5151E+06     27.5227E+06    -25.3831E+06    -157.465E-03     200.000E-03    -42.5352E-03     466.938E-03    -180.175E-03     222.712E-03    -42.4283E-03     452.749E-03
            1260     16.3224E-03     117.081E-03    -13.6381E+06     81.2585E+06     73.7614E+06    -16.6023E+06    -158.867E-03     205.686E-03    -46.8189E-03     374.632E-03    -181.136E-03     227.990E-03    -46.5482E-03     363.908E-03
            1261     880.425E-06     115.076E-03    -91.9424E+06    -51.7204E+06    -89.6178E+06    -7.73460E+06    -22.0937E-03     44.0160E-03    -21.9223E-03     7.84456E-03    -22.3485E-03     44.0208E-03    -22.1621E-03     7.74397E-03
            1262     1.76104E-03     115.087E-03    -90.2860E+06    -47.1117E+06    -84.8714E+06    -12.2844E+06    -22.4345E-03     44.5338E-03    -22.0993E-03     14.7993E-03    -22.6947E-03     44.5524E-03    -22.3245E-03     14.6394E-03
            1263     2.64080E-03     115.106E-03    -88.0287E+06    -43.0668E+06    -81.4088E+06    -16.2606E+06    -22.9476E-03     45.2289E-03    -22.2814E-03     22.7856E-03    -23.2075E-03     45.2595E-03    -22.4983E-03     22.5741E-03
            1264     3.52055E-03     115.134E-03    -83.9000E+06    -38.6251E+06    -78.7041E+06    -20.3655E+06    -23.5672E-03     46.0524E-03    -22.4853E-03     31.7914E-03    -23.8169E-03     46.0954E-03    -22.7011E-03     31.5270E-03
            1265     4.39968E-03     115.171E-03    -77.2836E+06    -34.5491E+06    -73.2506E+06    -23.7568E+06    -24.4035E-03     47.1320E-03    -22.7285E-03     42.1209E-03    -24.6339E-03     47.1777E-03    -22.9326E-03     41.8136E-03
            1266     5.27860E-03     115.220E-03     -67.604E+06    -33.7398E+06    -61.7210E+06    -25.8684E+06    -25.6413E-03     48.6924E-03    -23.0511E-03     54.2352E-03    -25.8407E-03     48.7109E-03    -23.2127E-03     53.9019E-03
            1267     6.15644E-03     115.282E-03    -56.6207E+06    -32.1114E+06    -48.5322E+06    -27.5664E+06    -27.4626E-03     50.9195E-03    -23.4569E-03     68.4028E-03    -27.6281E-03     50.9108E-03    -23.5709E-03     68.0485E-03
            1268     7.03252E-03     115.357E-03    -45.6833E+06    -30.8659E+06    -35.3013E+06    -27.8918E+06    -30.0410E-03     54.0143E-03    -23.9733E-03     84.6632E-03    -30.1737E-03     53.9778E-03    -24.0388E-03     84.3029E-03
            1269     7.90590E-03     115.448E-03    -34.0276E+06    -29.3842E+06    -18.2188E+06    -25.5841E+06    -33.3743E-03     58.0138E-03    -24.6395E-03     102.889E-03    -33.4804E-03     57.9478E-03    -24.6386E-03     102.550E-03
            1270     8.77779E-03     115.556E-03    -23.8205E+06    -24.3593E+06    -1.53459E+06    -21.8725E+06    -37.5952E-03     63.0417E-03    -25.4464E-03     123.294E-03    -37.6956E-03     62.9758E-03    -25.3843E-03     122.983E-03
            1271     9.64655E-03     115.687E-03    -20.1703E+06    -16.8021E+06     10.0849E+06    -21.4333E+06    -42.9817E-03     69.3807E-03    -26.3990E-03     146.591E-03    -43.1251E-03     69.3640E-03    -26.2950E-03     146.241E-03
            1272     10.5122E-03     115.842E-03    -20.6602E+06    -11.7177E+06     16.8598E+06    -24.6729E+06    -49.9933E-03     77.5282E-03    -27.5349E-03     172.899E-03    -50.2305E-03     77.6022E-03    -27.4036E-03     172.415E-03
            1273     11.3727E-03     116.026E-03    -20.3990E+06    -6.90124E+06     22.2594E+06    -30.2818E+06    -59.5522E-03     88.4729E-03    -28.9207E-03     203.139E-03    -59.9668E-03     88.7272E-03    -28.7698E-03     202.390E-03
            1274     12.2266E-03     116.243E-03    -20.8525E+06    -11.1327E+06     22.6368E+06    -37.0924E+06    -72.2403E-03     102.875E-03    -30.6348E-03     237.098E-03    -73.0052E-03     103.463E-03    -30.4753E-03     235.861E-03
            1275     13.0729E-03     116.498E-03    -21.0605E+06    -32.2944E+06     17.1549E+06    -41.1990E+06    -88.9532E-03     121.723E-03    -32.7699E-03     277.109E-03    -90.4931E-03     123.027E-03    -32.6067E-03     274.954E-03
            1276     13.9062E-03     116.804E-03    -18.1693E+06    -34.5146E+06     15.6239E+06    -39.2152E+06    -111.202E-03     146.597E-03    -35.3955E-03     331.683E-03    -114.723E-03     149.891E-03    -35.2410E-03     327.613E-03
            1277     14.7295E-03     117.183E-03    -14.2391E+06    -19.3276E+06     23.3238E+06    -31.0341E+06    -137.639E-03     176.195E-03    -38.5560E-03     403.539E-03    -146.174E-03     184.549E-03    -38.3907E-03     395.540E-03
            1278     15.5373E-03     117.656E-03    -9.95188E+06     31.9299E+06     38.5765E+06    -23.1313E+06    -161.743E-03     203.871E-03    -42.1279E-03     484.111E-03    -182.636E-03     224.735E-03    -41.9669E-03     469.613E-03
            1279     16.3357E-03     118.223E-03    -2.51610E+06     67.5762E+06     82.7901E+06    -12.5107E+06    -169.828E-03     216.278E-03    -46.4502E-03     407.987E-03    -192.141E-03     238.598E-03    -46.1306E-03     395.094E-03
            1280     879.499E-06     116.067E-03    -60.9801E+06    -37.7089E+06    -59.4682E+06    -6.28903E+06    -23.6442E-03     47.1673E-03    -23.5230E-03     6.55727E-03    -23.8085E-03     47.1534E-03    -23.6773E-03     6.47350E-03
            1281     1.75832E-03     116.079E-03    -60.4317E+06    -35.5429E+06    -56.4427E+06    -10.9623E+06    -24.0510E-03     47.7366E-03    -23.6856E-03     12.3699E-03    -24.2205E-03     47.7286E-03    -23.8287E-03     12.2235E-03
            1282     2.63720E-03     116.099E-03    -58.2209E+06    -31.6692E+06    -50.7302E+06    -15.9588E+06    -24.6500E-03     48.5647E-03    -23.9147E-03     18.9654E-03    -24.8230E-03     48.5652E-03    -24.0380E-03     18.7518E-03
            1283     3.51513E-03     116.127E-03    -55.9664E+06    -27.7511E+06    -44.0546E+06    -21.0604E+06    -25.2943E-03     49.4833E-03    -24.1890E-03     26.3663E-03    -25.4722E-03     49.4912E-03    -24.2878E-03     26.0844E-03
            1284     4.39291E-03     116.165E-03    -54.8182E+06    -25.5612E+06    -38.8411E+06    -25.2537E+06    -25.9269E-03     50.3993E-03    -24.4724E-03     34.8710E-03    -26.1108E-03     50.4098E-03    -24.5501E-03     34.5330E-03
            1285     5.27005E-03     116.215E-03    -54.7932E+06    -25.6429E+06    -36.8397E+06    -29.1964E+06    -26.6497E-03     51.3972E-03    -24.7474E-03     44.8715E-03    -26.8372E-03     51.4052E-03    -24.8150E-03     44.4818E-03
            1286     6.14705E-03     116.277E-03    -53.8162E+06    -25.0613E+06    -36.4618E+06    -32.5779E+06    -27.6944E-03     52.7232E-03    -25.0289E-03     56.9267E-03    -27.8788E-03     52.7329E-03    -25.0968E-03     56.4937E-03
            1287     7.02344E-03     116.354E-03    -50.0461E+06    -26.0949E+06    -30.9544E+06    -35.3222E+06    -29.4270E-03     54.8146E-03    -25.3877E-03     71.7302E-03    -29.5994E-03     54.8061E-03    -25.4320E-03     71.2629E-03
            1288     7.89874E-03     116.448E-03    -43.1118E+06    -29.3007E+06    -21.0992E+06    -35.8476E+06    -32.2310E-03     58.1036E-03    -25.8726E-03     89.5384E-03    -32.3798E-03     58.0565E-03    -25.8731E-03     89.0630E-03
            1289     8.77051E-03     116.561E-03    -32.3390E+06    -27.8022E+06    -10.1141E+06    -32.7162E+06    -36.3617E-03     62.8718E-03    -26.5101E-03     110.620E-03    -36.4810E-03     62.8072E-03    -26.4734E-03     110.177E-03
            1290     9.63932E-03     116.696E-03    -20.1773E+06    -19.6658E+06     6.78391E+06    -24.7820E+06    -41.8388E-03     69.2021E-03    -27.3633E-03     134.747E-03    -41.9520E-03     69.1547E-03    -27.2716E-03     134.380E-03
            1291     10.5043E-03     116.856E-03    -13.9567E+06    -5.45582E+06     23.9394E+06    -20.5211E+06    -48.9896E-03     77.4376E-03    -28.4480E-03     162.068E-03    -49.1651E-03     77.4753E-03    -28.3001E-03     161.692E-03
            1292     11.3651E-03     117.048E-03    -13.6179E+06     4.74524E+06     32.5220E+06    -24.5138E+06    -58.5458E-03     88.3287E-03    -29.7829E-03     193.533E-03    -58.8607E-03     88.5186E-03    -29.6074E-03     192.960E-03
            1293     12.2197E-03     117.275E-03    -15.4780E+06    -840.600E+03     34.1321E+06    -28.4119E+06    -71.0192E-03     102.467E-03    -31.4476E-03     229.147E-03    -71.5985E-03     102.891E-03    -31.2533E-03     228.206E-03
            1294     13.0648E-03     117.544E-03    -18.5318E+06    -20.1384E+06     30.6103E+06    -34.6027E+06    -87.6878E-03     121.203E-03    -33.5153E-03     272.524E-03    -88.8898E-03     122.182E-03    -33.3062E-03     270.770E-03
            1295     13.9017E-03     117.867E-03    -23.6464E+06    -35.8768E+06     25.4257E+06    -37.6353E+06    -110.086E-03     146.134E-03    -36.0477E-03     330.819E-03    -112.945E-03     148.712E-03    -35.8342E-03     327.290E-03
            1296     14.7236E-03     118.267E-03    -20.1200E+06    -21.8075E+06     38.1410E+06    -42.1668E+06    -136.535E-03     175.634E-03    -39.0991E-03     403.722E-03    -143.702E-03     182.546E-03    -38.8476E-03     396.330E-03
            1297     15.5395E-03     118.758E-03    -794.390E+03     3.61484E+06     39.2646E+06    -34.0453E+06    -160.263E-03     202.705E-03    -42.4423E-03     480.728E-03    -177.512E-03     219.853E-03    -42.2501E-03     467.070E-03
            1298     16.3480E-03     119.351E-03     4.92443E+06     37.3223E+06     79.4912E+06    -7.33312E+06    -171.281E-03     217.847E-03    -46.5655E-03     433.203E-03    -192.636E-03     239.140E-03    -46.2293E-03     418.881E-03
            1299     876.476E-06     117.063E-03    -32.8212E+06    -25.9294E+06    -32.0323E+06    -5.38220E+06    -26.9088E-03     53.7482E-03    -26.8394E-03     4.90214E-03    -26.9897E-03     53.7122E-03    -26.9144E-03     4.82734E-03
            1300     1.75307E-03     117.076E-03    -31.7677E+06    -23.9337E+06    -28.3961E+06    -9.99764E+06    -27.3917E-03     54.3918E-03    -27.0001E-03     9.25045E-03    -27.4762E-03     54.3593E-03    -27.0613E-03     9.11123E-03
            1301     2.62862E-03     117.096E-03    -30.8284E+06    -20.8282E+06    -22.1268E+06    -14.3226E+06    -28.0616E-03     55.3389E-03    -27.2774E-03     14.1247E-03    -28.1559E-03     55.3125E-03    -27.3131E-03     13.9241E-03
            1302     3.50393E-03     117.126E-03    -30.2632E+06    -17.3943E+06    -16.4677E+06    -17.7132E+06    -28.8263E-03     56.4394E-03    -27.6131E-03     19.5125E-03    -28.9325E-03     56.4224E-03    -27.6263E-03     19.2620E-03
            1303     4.37821E-03     117.164E-03    -29.8367E+06    -16.2999E+06    -12.4250E+06    -20.9041E+06    -29.5793E-03     57.5564E-03    -27.9771E-03     25.7551E-03    -29.6928E-03     57.5402E-03    -27.9723E-03     25.4572E-03
            1304     5.25220E-03     117.214E-03    -28.9285E+06    -15.6500E+06    -7.95600E+06    -24.3901E+06    -30.2574E-03     58.6076E-03    -28.3502E-03     33.2321E-03    -30.3762E-03     58.5891E-03    -28.3253E-03     32.8836E-03
            1305     6.12546E-03     117.276E-03    -28.6532E+06    -16.3415E+06    -3.93921E+06    -28.2328E+06    -30.9042E-03     59.6207E-03    -28.7165E-03     42.3766E-03    -31.0290E-03     59.5950E-03    -28.6710E-03     41.9746E-03
            1306     6.99847E-03     117.354E-03    -30.7820E+06    -18.0560E+06    -2.90231E+06    -31.2141E+06    -31.6706E-03     60.7372E-03    -29.0666E-03     53.8483E-03    -31.8073E-03     60.7066E-03    -29.0103E-03     53.4066E-03
            1307     7.87084E-03     117.449E-03    -33.9751E+06    -23.0439E+06    -5.10106E+06    -34.6304E+06    -33.0401E-03     62.4676E-03    -29.4274E-03     68.5356E-03    -33.1840E-03     62.4216E-03    -29.3702E-03     68.0511E-03
            1308     8.74306E-03     117.564E-03    -35.2894E+06    -26.1804E+06    -6.42556E+06    -37.5209E+06    -35.6538E-03     65.5210E-03    -29.8672E-03     87.4088E-03    -35.7991E-03     65.4652E-03    -29.8102E-03     86.8889E-03
            1309     9.61237E-03     117.703E-03    -30.5677E+06    -27.8467E+06     52.8916E+03    -35.3444E+06    -40.0575E-03     70.5490E-03    -30.4915E-03     110.682E-03    -40.1914E-03     70.4747E-03    -30.4065E-03     110.185E-03
            1310     10.4777E-03     117.869E-03    -19.3409E+06    -10.9104E+06     18.1548E+06    -26.5939E+06    -46.7277E-03     78.0991E-03    -31.3714E-03     138.624E-03    -46.8750E-03     78.0865E-03    -31.2367E-03     138.215E-03
            1311     11.3370E-03     118.067E-03    -12.7630E+06     9.67025E+06     37.1804E+06    -19.8756E+06    -56.0082E-03     88.5689E-03    -32.5607E-03     171.526E-03    -56.2354E-03     88.6782E-03    -32.3703E-03     171.125E-03
            1312     12.1896E-03     118.303E-03    -15.1148E+06     5.82865E+06     46.2685E+06    -19.0582E+06    -68.2892E-03     102.403E-03    -34.1139E-03     208.518E-03    -68.6883E-03     102.636E-03    -33.8690E-03     207.919E-03
            1313     13.0370E-03     118.582E-03    -19.1222E+06    -876.874E+03     50.1591E+06    -25.1277E+06    -84.3291E-03     120.400E-03    -36.0712E-03     252.298E-03    -85.1552E-03     121.011E-03    -35.7914E-03     251.092E-03
            1314     13.8723E-03     118.920E-03    -14.4003E+06    -28.5064E+06     46.8454E+06    -32.6756E+06    -105.752E-03     144.239E-03    -38.4866E-03     309.418E-03    -107.668E-03     145.868E-03    -38.1902E-03     306.754E-03
            1315     14.7003E-03     119.336E-03    -7.88994E+06    -7.36265E+06     54.9402E+06    -39.3908E+06    -132.955E-03     174.392E-03    -41.4371E-03     377.031E-03    -138.052E-03     179.278E-03    -41.1403E-03     370.974E-03
            1316     15.5092E-03     119.845E-03    -22.0185E+06    -16.2670E+06     26.7875E+06    -41.9338E+06    -154.205E-03     198.907E-03    -44.7020E-03     444.276E-03    -166.183E-03     210.672E-03    -44.5126E-03     433.125E-03
            1317     16.3054E-03     120.435E-03    -28.4319E+06    -14.5254E+06     35.8390E+06    -29.5465E+06    -150.184E-03     198.251E-03    -48.0678E-03     447.196E-03    -168.196E-03     216.018E-03    -47.8263E-03     435.430E-03
            1318     872.209E-06     118.068E-03    -6.46727E+06    -15.4177E+06    -4.73488E+06    -4.54070E+06    -32.2748E-03     64.4243E-03    -32.1495E-03     3.00931E-03    -32.2797E-03     64.3621E-03    -32.1415E-03     2.94180E-03
            1319     1.74368E-03     118.081E-03    -6.38997E+06    -14.0128E+06    -1.41452E+06    -8.12243E+06    -32.8362E-03     65.2217E-03    -32.3855E-03     5.52142E-03    -32.8484E-03     65.1619E-03    -32.3629E-03     5.39942E-03
            1320     2.61500E-03     118.103E-03    -6.09544E+06    -11.9647E+06     2.66746E+06    -11.1105E+06    -33.6071E-03     66.3345E-03    -32.7274E-03     8.20650E-03    -33.6278E-03     66.2795E-03    -32.6878E-03     8.03634E-03
            1321     3.48510E-03     118.133E-03     -5.4253E+06    -9.74360E+06     7.32170E+06    -13.6669E+06    -34.5091E-03     67.6584E-03    -33.1493E-03     11.1847E-03    -34.5379E-03     67.6082E-03    -33.0907E-03     10.9708E-03
            1322     4.35450E-03     118.173E-03    -4.82453E+06    -8.14789E+06     12.8662E+06    -16.1298E+06    -35.4655E-03     69.1007E-03    -33.6352E-03     14.7725E-03    -35.5040E-03     69.0515E-03    -33.5521E-03     14.5150E-03
            1323     5.22262E-03     118.223E-03    -5.53223E+06    -7.95396E+06     17.1786E+06    -18.4853E+06    -36.3615E-03     70.5176E-03    -34.1562E-03     19.2625E-03    -36.4131E-03     70.4668E-03    -34.0507E-03     18.9626E-03
            1324     6.09007E-03     118.286E-03    -7.75987E+06    -8.27197E+06     19.4689E+06    -20.3291E+06    -37.1056E-03     71.7898E-03    -34.6842E-03     25.0290E-03    -37.1749E-03     71.7405E-03    -34.5636E-03     24.6943E-03
            1325     6.95656E-03     118.362E-03    -9.79316E+06    -10.9181E+06     20.2775E+06    -22.2813E+06    -37.7242E-03     72.9298E-03    -35.2057E-03     32.5647E-03    -37.8053E-03     72.8727E-03    -35.0742E-03     32.1956E-03
            1326     7.82285E-03     118.457E-03    -11.6908E+06    -13.3656E+06     21.5720E+06    -25.1264E+06    -38.3118E-03     74.0350E-03    -35.7232E-03     42.5215E-03    -38.4052E-03     73.9702E-03    -35.5790E-03     42.1103E-03
            1327     8.68792E-03     118.571E-03    -15.4251E+06    -18.6339E+06     20.4112E+06    -28.2282E+06    -39.2063E-03     75.4505E-03    -36.2443E-03     55.8452E-03    -39.3128E-03     75.3699E-03    -36.0928E-03     55.3937E-03
            1328     9.55292E-03     118.711E-03    -21.1311E+06    -24.4400E+06     16.6355E+06    -31.6165E+06    -41.1388E-03     77.9504E-03    -36.8116E-03     73.6632E-03    -41.2627E-03     77.8574E-03    -36.6624E-03     73.1722E-03
            1329     10.4159E-03     118.879E-03    -23.3611E+06    -19.3586E+06     19.5300E+06    -32.2613E+06    -44.9640E-03     82.4896E-03    -37.5256E-03     97.2610E-03    -45.1133E-03     82.4248E-03    -37.3660E-03     96.7671E-03
            1330     11.2756E-03     119.083E-03    -18.0857E+06    -1.13249E+06     37.8340E+06    -22.4001E+06    -51.5429E-03     90.0587E-03    -38.5159E-03     127.248E-03    -51.7296E-03     90.0632E-03    -38.2988E-03     126.873E-03
            1331     12.1295E-03     119.325E-03    -9.14502E+06     8.11577E+06     63.7833E+06    -13.1055E+06    -62.2213E-03     102.122E-03    -39.9008E-03     163.310E-03    -62.4659E-03     102.176E-03    -39.5804E-03     162.977E-03
            1332     12.9707E-03     119.614E-03     523.309E+03     15.3808E+06     79.5991E+06    -14.8508E+06    -77.4939E-03     119.208E-03    -41.7138E-03     205.386E-03    -77.9109E-03     119.449E-03    -41.3388E-03     204.744E-03
            1333     13.8050E-03     119.959E-03     5.69505E+06    -5.58694E+06     69.9417E+06    -26.1657E+06    -99.1734E-03     143.241E-03    -44.0678E-03     256.635E-03    -100.145E-03     144.006E-03    -43.7183E-03     254.934E-03
            1334     14.6217E-03     120.386E-03     150.067E+03    -9.72790E+06     61.4688E+06    -23.9759E+06    -126.248E-03     173.424E-03    -47.1765E-03     314.801E-03    -128.983E-03     175.941E-03    -46.8552E-03     310.824E-03
            1335     15.4215E-03     120.908E-03     755.492E+03     2.14461E+06     68.7230E+06    -10.5576E+06    -135.029E-03     185.643E-03    -50.6145E-03     367.428E-03    -141.124E-03     191.540E-03    -50.2751E-03     360.933E-03
            1336     16.2407E-03     121.478E-03     4.05337E+06    -10.7354E+06      41.868E+06    -16.7021E+06    -91.8550E-03     144.202E-03    -52.3474E-03     405.982E-03    -101.509E-03     153.737E-03    -52.1284E-03     401.010E-03
            1337     865.529E-06     119.086E-03     17.7886E+06    -7.43371E+06     19.4434E+06    -2.54380E+06    -39.9967E-03     79.9128E-03    -39.9162E-03     938.006E-06    -39.9286E-03     79.8185E-03    -39.8340E-03     893.060E-06
            1338     1.73074E-03     119.100E-03     17.3017E+06    -6.56918E+06     21.8450E+06    -5.21184E+06    -40.8364E-03     81.0453E-03    -40.2089E-03     971.609E-06    -40.7762E-03     80.9526E-03    -40.1152E-03     879.788E-06
            1339     2.59464E-03     119.122E-03     17.3278E+06    -5.38359E+06     25.0464E+06    -7.49787E+06    -41.6585E-03     82.3247E-03    -40.6662E-03     1.09137E-03    -41.6050E-03     82.2336E-03    -40.5583E-03     956.400E-06
            1340     3.45783E-03     119.154E-03     17.0903E+06    -3.81657E+06     29.5735E+06    -9.36376E+06    -42.6783E-03     83.8784E-03    -41.2001E-03     1.47878E-03    -42.6359E-03     83.7896E-03    -41.0714E-03     1.30462E-03
            1341     4.31957E-03     119.194E-03     16.2213E+06    -3.00213E+06     33.9822E+06    -10.3341E+06    -43.8795E-03     85.7017E-03    -41.8221E-03     2.21181E-03    -43.8505E-03     85.6128E-03    -41.6714E-03     2.00844E-03
            1342     5.18008E-03     119.246E-03     14.7160E+06    -2.69488E+06     37.2754E+06    -10.8578E+06    -45.1648E-03     87.6908E-03    -42.5260E-03     3.40295E-03    -45.1506E-03     87.6022E-03    -42.3571E-03     3.17435E-03
            1343     6.03885E-03     119.309E-03     13.1810E+06    -3.25972E+06     39.9781E+06    -11.7569E+06    -46.4119E-03     89.7139E-03    -43.3020E-03     5.20731E-03    -46.4114E-03     89.6224E-03    -43.1165E-03     4.94712E-03
            1344     6.89635E-03     119.387E-03     11.4109E+06    -4.28910E+06     43.0295E+06    -13.5339E+06    -47.5490E-03     91.6910E-03    -44.1419E-03     7.96386E-03    -47.5641E-03     91.5946E-03    -43.9371E-03     7.66046E-03
            1345     7.75164E-03     119.480E-03     8.73616E+06    -7.19102E+06     44.4379E+06    -14.9145E+06    -48.4729E-03     93.5016E-03    -45.0287E-03     12.0473E-03    -48.5040E-03     93.3951E-03    -44.8087E-03     11.7064E-03
            1346     8.60602E-03     119.593E-03     5.88535E+06    -10.5833E+06     44.9788E+06    -16.5077E+06    -49.0844E-03     95.0377E-03    -45.9533E-03     18.1242E-03    -49.1314E-03     94.9206E-03    -45.7216E-03     17.7463E-03
            1347     9.45836E-03     119.730E-03     5.33899E+06    -15.1966E+06     45.8495E+06    -19.7319E+06    -49.5036E-03     96.4220E-03    -46.9183E-03     27.1298E-03    -49.5542E-03     96.2847E-03    -46.6748E-03     26.6997E-03
            1348     10.3094E-03     119.896E-03     4.54048E+06    -16.4438E+06     49.6310E+06    -22.1036E+06    -50.1788E-03     98.1359E-03    -47.9571E-03     40.2358E-03    -50.2429E-03     97.9913E-03    -47.6917E-03     39.7728E-03
            1349     11.1584E-03     120.096E-03     7.16386E+06    -12.3978E+06     58.0849E+06    -21.6410E+06    -52.0611E-03     101.193E-03    -49.1321E-03     58.9334E-03    -52.1349E-03     101.056E-03    -48.8341E-03     58.4837E-03
            1350     12.0032E-03     120.339E-03     17.7734E+06    -2.01569E+06     83.9196E+06    -13.6773E+06    -56.7292E-03     107.341E-03    -50.6120E-03     84.9728E-03    -56.8098E-03     107.210E-03    -50.2153E-03     84.6347E-03
            1351     12.8443E-03     120.633E-03     28.8430E+06     19.4604E+06     106.801E+06    -7.42784E+06    -66.5046E-03     118.993E-03    -52.4884E-03     118.175E-03    -66.6377E-03     118.965E-03    -52.0245E-03     117.852E-03
            1352     13.6679E-03     120.986E-03     27.1516E+06     17.6357E+06     95.7187E+06    -2.41789E+06    -85.9112E-03     140.919E-03    -55.0081E-03     160.716E-03    -86.2416E-03     141.109E-03    -54.5944E-03     160.056E-03
            1353     14.4697E-03     121.420E-03     20.4469E+06    -7.42772E+06     92.9429E+06     1.90208E+06    -106.810E-03     165.318E-03    -58.5080E-03     209.076E-03    -107.744E-03     166.004E-03    -58.0622E-03     207.407E-03
            1354     15.2550E-03     121.935E-03     29.9014E+06     3.22059E+06     103.960E+06    -3.18323E+06    -95.4919E-03     157.290E-03    -61.7983E-03     250.235E-03    -97.3099E-03     158.915E-03    -61.3265E-03     247.774E-03
            1355     16.0672E-03     122.442E-03     22.4113E+06     9.07210E+06     71.9452E+06     2.19938E+06    -24.2133E-03     86.4572E-03    -62.2438E-03     253.835E-03    -26.3660E-03     88.4682E-03    -61.9297E-03     253.067E-03
            1356     856.942E-06     120.122E-03     38.5913E+06    -2.46458E+06     38.5764E+06    -1.58482E+06    -50.7623E-03     101.715E-03    -50.9524E-03    -2.73796E-03    -50.6284E-03     101.584E-03    -50.8119E-03    -2.77205E-03
            1357     1.71222E-03     120.137E-03     38.1627E+06    -2.03018E+06     40.8148E+06    -2.64424E+06    -51.3260E-03     102.395E-03    -51.0695E-03    -4.84157E-03    -51.1974E-03     102.265E-03    -50.9178E-03    -4.90013E-03
            1358     2.56716E-03     120.161E-03     37.5179E+06    -1.20311E+06     44.8022E+06    -3.58536E+06    -52.2977E-03     103.782E-03    -51.4845E-03    -6.96510E-03    -52.1793E-03     103.650E-03    -51.3131E-03    -7.04840E-03
            1359     3.42075E-03     120.193E-03     36.3961E+06    -618.180E+03     48.1661E+06    -3.88298E+06    -53.6080E-03     105.699E-03    -52.0910E-03    -9.14133E-03    -53.5011E-03     105.566E-03    -51.9020E-03    -9.24258E-03
            1360     4.27282E-03     120.236E-03     35.1418E+06    -456.577E+03     51.2507E+06    -3.92361E+06    -55.2876E-03     108.165E-03    -52.8778E-03    -11.5461E-03    -55.1921E-03     108.030E-03    -52.6718E-03    -11.6641E-03
            1361     5.12267E-03     120.289E-03     34.2598E+06    -583.069E+03     55.4560E+06    -3.72446E+06    -57.2656E-03     111.118E-03    -53.8522E-03    -14.2121E-03    -57.1809E-03     110.976E-03    -53.6238E-03    -14.3463E-03
            1362     5.97012E-03     120.355E-03     33.3541E+06     206.714E+03     60.6412E+06    -3.98032E+06    -59.4825E-03     114.496E-03    -55.0135E-03    -17.1516E-03    -59.4119E-03     114.350E-03    -54.7590E-03    -17.3111E-03
            1363     6.81423E-03     120.433E-03     31.5576E+06    -632.259E+03     64.2582E+06    -3.94477E+06    -61.7338E-03     118.085E-03    -56.3513E-03    -20.3638E-03    -61.6773E-03     117.930E-03    -56.0748E-03    -20.5486E-03
            1364     7.65563E-03     120.528E-03     29.7695E+06    -2.39389E+06     67.1896E+06    -4.74205E+06    -63.8128E-03     121.672E-03    -57.8593E-03    -23.7751E-03    -63.7685E-03     121.503E-03    -57.5630E-03    -23.9989E-03
            1365     8.49278E-03     120.641E-03     28.5399E+06    -5.51833E+06     70.5427E+06    -5.92636E+06    -65.4652E-03     125.000E-03    -59.5348E-03    -27.2362E-03    -65.4293E-03     124.808E-03    -59.2155E-03    -27.5068E-03
            1366     9.32650E-03     120.776E-03     26.4619E+06    -5.26833E+06     74.7604E+06    -9.62832E+06    -66.2494E-03     127.613E-03    -61.3638E-03    -30.2251E-03    -66.2331E-03     127.413E-03    -61.0207E-03    -30.5761E-03
            1367     10.1563E-03     120.937E-03     23.5545E+06    -13.2842E+06     76.7395E+06    -10.4729E+06    -66.0059E-03     129.349E-03    -63.3432E-03    -31.9780E-03    -65.9991E-03     129.104E-03    -62.9744E-03    -32.3707E-03
            1368     10.9815E-03     121.131E-03     22.0155E+06    -6.32533E+06     79.1264E+06    -15.8192E+06    -64.7798E-03     130.257E-03    -65.4771E-03    -31.4722E-03    -64.7995E-03     130.036E-03    -65.1042E-03    -31.9588E-03
            1369     11.8030E-03     121.364E-03     16.4927E+06    -13.9826E+06     82.0417E+06    -14.2044E+06    -62.8449E-03     130.732E-03    -67.8868E-03    -27.5288E-03    -62.8906E-03     130.465E-03    -67.4802E-03    -28.0076E-03
            1370     12.6149E-03     121.648E-03     13.8771E+06     5.95027E+06     86.2248E+06    -12.5068E+06    -62.1411E-03     132.815E-03    -70.6743E-03    -17.8240E-03    -62.2444E-03     132.636E-03    -70.2719E-03    -18.2759E-03
            1371     13.4197E-03     121.994E-03     9.95478E+06     5.36663E+06     83.1663E+06     2.93271E+06    -65.4222E-03     139.552E-03    -74.1300E-03     5.90456E-03    -65.5725E-03     139.407E-03    -73.7364E-03     5.62317E-03
            1372     14.1974E-03     122.429E-03     12.5860E+06    -61.4506E+03     97.8951E+06     6.46105E+06    -61.7985E-03     139.795E-03    -77.9966E-03     51.5454E-03    -62.0406E-03     139.731E-03    -77.5253E-03     51.1546E-03
            1373     14.9754E-03     122.911E-03    -326.983E+03     13.5495E+06     71.5607E+06    -12.5260E+06    -29.8151E-03     110.185E-03    -80.3701E-03     96.4405E-03    -30.1598E-03     110.336E-03    -80.0314E-03     95.8647E-03
            1374     15.8318E-03     123.364E-03    -3.79584E+06    -4.18912E+06     31.2941E+06     2.93502E+06     21.5617E-03     58.4027E-03    -79.9644E-03     80.6618E-03     21.3948E-03     58.4203E-03    -79.7964E-03     80.5805E-03
            1375     16.1805E-03     61.6116E-03    -5.76342E+06     165.123E+06     112.424E+06     676.845E+03    -68.0256E-03     123.374E-03    -55.3484E-03     295.800E-03    -86.9203E-03     142.508E-03    -55.0173E-03     300.335E-03
            1376     15.3335E-03     61.1387E-03    -12.8064E+06     148.989E+06     93.2188E+06     201.964E+03    -79.7388E-03     135.015E-03    -55.2762E-03     395.323E-03    -101.737E-03     157.226E-03    -55.0076E-03     393.898E-03
            1377     14.4820E-03     60.7829E-03    -16.2604E+06     107.475E+06     44.8859E+06    -962.915E+03    -69.6687E-03     124.753E-03    -55.0844E-03     282.079E-03    -78.0786E-03     133.357E-03    -54.9923E-03     279.213E-03
            1378     13.6291E-03     60.5625E-03    -18.5086E+06     68.1368E+06     329.095E+03    -902.575E+03    -60.7905E-03     115.753E-03    -54.9622E-03     184.079E-03    -63.7083E-03     118.846E-03    -55.0325E-03     182.119E-03
            1379     12.7768E-03     60.4131E-03    -20.1723E+06     20.0532E+06    -13.0523E+06     340.248E+03    -58.3233E-03     113.339E-03    -55.0154E-03     136.650E-03    -59.7582E-03     114.811E-03    -55.0805E-03     135.175E-03
            1380     11.9245E-03     60.2902E-03    -21.1272E+06    -28.2104E+06    -8.14770E+06     500.415E+03    -57.9125E-03     113.046E-03    -55.1338E-03     118.102E-03    -58.7825E-03     113.765E-03    -55.1030E-03     116.922E-03
            1381     11.0724E-03     60.1782E-03    -21.7255E+06    -59.2317E+06    -7.35820E+06     253.202E+03    -57.4716E-03     112.672E-03    -55.2001E-03     107.616E-03    -58.0414E-03     112.975E-03    -55.1195E-03     106.648E-03
            1382     10.2205E-03     60.0744E-03    -22.7147E+06    -83.4565E+06    -7.94008E+06     212.285E+03    -57.3016E-03     112.553E-03    -55.2512E-03     99.0000E-03    -57.6799E-03     112.577E-03    -55.1370E-03     98.1968E-03
            1383     9.36895E-03     59.9794E-03    -24.0789E+06    -101.181E+06    -7.21074E+06     478.670E+03    -57.1116E-03     112.405E-03    -55.2930E-03     90.9790E-03    -57.3608E-03     112.230E-03    -55.1474E-03     90.3177E-03
            1384     8.51701E-03     59.8920E-03    -25.4676E+06    -114.514E+06    -7.56095E+06     407.861E+03    -56.8273E-03     112.148E-03    -55.3206E-03     83.1359E-03    -56.9823E-03     111.828E-03    -55.1554E-03     82.5930E-03
            1385     7.66535E-03     59.8124E-03    -27.4580E+06    -125.665E+06    -8.88356E+06    -17.0510E+03    -56.5791E-03     111.921E-03    -55.3417E-03     75.4020E-03    -56.6673E-03     111.491E-03    -55.1641E-03     74.9535E-03
            1386     6.81345E-03     59.7407E-03    -30.0968E+06    -136.321E+06    -9.29400E+06     259.062E+03    -56.3671E-03     111.732E-03    -55.3651E-03     67.5912E-03    -56.4094E-03     111.211E-03    -55.1703E-03     67.2303E-03
            1387     5.96188E-03     59.6766E-03    -32.8657E+06    -144.389E+06    -12.9051E+06     459.860E+03    -56.1320E-03     111.499E-03    -55.3665E-03     59.5962E-03    -56.1394E-03     110.914E-03    -55.1740E-03     59.3092E-03
            1388     5.11011E-03     59.6209E-03    -35.8444E+06    -145.241E+06    -18.2386E+06     470.108E+03    -55.8822E-03     111.234E-03    -55.3514E-03     51.5808E-03    -55.8719E-03     110.633E-03    -55.1800E-03     51.3560E-03
            1389     4.25836E-03     59.5730E-03    -38.8100E+06    -148.769E+06    -24.0546E+06     796.365E+03    -55.6978E-03     111.038E-03    -55.3404E-03     43.3711E-03    -55.6716E-03     110.416E-03    -55.1887E-03     43.2030E-03
            1390     3.40665E-03     59.5338E-03    -41.6437E+06    -155.122E+06    -30.3026E+06     614.858E+03    -55.5626E-03     110.892E-03    -55.3295E-03     34.9599E-03    -55.5202E-03     110.239E-03    -55.1957E-03     34.8338E-03
            1391     2.55501E-03     59.5026E-03    -44.1704E+06    -159.013E+06    -36.4603E+06     80.5568E+03    -55.4386E-03     110.752E-03    -55.3130E-03     26.4686E-03    -55.3858E-03     110.083E-03    -55.2007E-03     26.3741E-03
            1392     1.70331E-03     59.4805E-03    -46.2220E+06    -163.007E+06    -42.8082E+06    -37.9107E+03    -55.3513E-03     110.647E-03    -55.2956E-03     17.9302E-03    -55.2884E-03     109.965E-03    -55.2063E-03     17.8678E-03
            1393     851.700E-06     59.4665E-03    -47.5986E+06    -165.429E+06    -46.6457E+06    -22.2782E+03    -55.3021E-03     110.593E-03    -55.2911E-03     9.75452E-03    -55.2339E-03     109.904E-03    -55.2155E-03     9.72133E-03
            1394     16.1897E-03     60.5543E-03    -5.02722E+06     164.998E+06     113.016E+06     857.919E+03    -69.1212E-03     124.339E-03    -55.2179E-03     295.352E-03    -87.9340E-03     143.392E-03    -54.8848E-03     299.881E-03
            1395     15.3358E-03     60.0809E-03    -10.7246E+06     150.960E+06     93.6684E+06     702.053E+03    -77.7433E-03     132.918E-03    -55.1743E-03     397.737E-03    -99.7206E-03     155.121E-03    -54.9093E-03     396.656E-03
            1396     14.4823E-03     59.7256E-03    -15.5269E+06     107.465E+06     43.2759E+06    -39.4891E+03    -68.7794E-03     123.862E-03    -55.0824E-03     285.282E-03    -77.2377E-03     132.521E-03    -54.9993E-03     282.496E-03
            1397     13.6287E-03     59.5058E-03    -19.2642E+06     68.0863E+06    -753.804E+03     856.370E+03    -61.0957E-03     116.097E-03    -55.0014E-03     185.666E-03    -64.0490E-03     119.226E-03    -55.0759E-03     183.712E-03
            1398     12.7752E-03     59.3547E-03    -21.0667E+06     20.1326E+06    -13.5781E+06     230.580E+03    -58.4276E-03     113.480E-03    -55.0525E-03     137.143E-03    -59.8713E-03     114.960E-03    -55.1190E-03     135.662E-03
            1399     11.9238E-03     59.2311E-03    -21.2749E+06    -28.3129E+06    -8.32692E+06    -362.509E+03    -58.0351E-03     113.202E-03    -55.1668E-03     117.807E-03    -58.9072E-03     113.922E-03    -55.1365E-03     116.610E-03
            1400     11.0727E-03     59.1196E-03    -21.8854E+06    -58.4875E+06    -7.26807E+06     203.276E+03    -57.7900E-03     113.007E-03    -55.2170E-03     107.410E-03    -58.3652E-03     113.318E-03    -55.1368E-03     106.432E-03
            1401     10.2208E-03     59.0163E-03    -23.5309E+06    -83.6994E+06    -8.43529E+06     251.174E+03    -57.3416E-03     112.596E-03    -55.2541E-03     99.1774E-03    -57.7230E-03     112.621E-03    -55.1408E-03     98.3747E-03
            1402     9.36863E-03     58.9208E-03    -24.7128E+06    -101.393E+06    -8.20981E+06     48.2296E+03    -57.0859E-03     112.379E-03    -55.2935E-03     91.1265E-03    -57.3360E-03     112.206E-03    -55.1516E-03     90.4611E-03
            1403     8.51711E-03     58.8336E-03    -26.0025E+06    -114.301E+06    -8.16370E+06    -76.8567E+03    -56.8598E-03     112.182E-03    -55.3225E-03     83.1609E-03    -57.0170E-03     111.865E-03    -55.1599E-03     82.6114E-03
            1404     7.66514E-03     58.7541E-03    -27.6334E+06    -125.777E+06    -9.03971E+06     147.329E+03    -56.5987E-03     111.942E-03    -55.3434E-03     75.4295E-03    -56.6873E-03     111.512E-03    -55.1661E-03     74.9832E-03
            1405     6.81359E-03     58.6820E-03    -29.7365E+06    -136.816E+06    -9.98767E+06     356.366E+03    -56.3519E-03     111.716E-03    -55.3642E-03     67.5855E-03    -56.3905E-03     111.192E-03    -55.1727E-03     67.2264E-03
            1406     5.96176E-03     58.6183E-03    -32.3122E+06    -144.147E+06    -12.8844E+06     422.602E+03    -56.1211E-03     111.492E-03    -55.3705E-03     59.6019E-03    -56.1260E-03     110.907E-03    -55.1791E-03     59.3148E-03
            1407     5.11005E-03     58.5624E-03    -35.2111E+06    -145.436E+06    -15.7453E+06     496.967E+03    -55.9018E-03     111.270E-03    -55.3683E-03     51.5482E-03    -55.8916E-03     110.664E-03    -55.1851E-03     51.3236E-03
            1408     4.25835E-03     58.5147E-03    -38.3274E+06    -148.774E+06    -21.2127E+06     605.605E+03    -55.7164E-03     111.072E-03    -55.3559E-03     43.3455E-03    -55.6919E-03     110.445E-03    -55.1906E-03     43.1747E-03
            1409     3.40672E-03     58.4752E-03    -41.1465E+06    -154.240E+06    -29.2371E+06     341.767E+03    -55.5696E-03     110.901E-03    -55.3318E-03     34.9442E-03    -55.5275E-03     110.250E-03    -55.1946E-03     34.8144E-03
            1410     2.55500E-03     58.4444E-03    -43.8909E+06    -158.843E+06    -36.2797E+06     109.061E+03    -55.4389E-03     110.750E-03    -55.3107E-03     26.4573E-03    -55.3852E-03     110.081E-03    -55.1982E-03     26.3632E-03
            1411     1.70334E-03     58.4219E-03    -46.1997E+06    -163.004E+06    -42.7266E+06     55.1222E+03    -55.3355E-03     110.633E-03    -55.2973E-03     17.8985E-03    -55.2726E-03     109.951E-03    -55.2076E-03     17.8372E-03
            1412     851.553E-06     58.4084E-03    -47.5612E+06    -165.447E+06    -46.5873E+06    -19.3255E+03    -55.2881E-03     110.605E-03    -55.3165E-03     9.75412E-03    -55.2198E-03     109.915E-03    -55.2406E-03     9.72105E-03
            1413     16.1894E-03     59.4971E-03    -6.37813E+06     164.050E+06     112.388E+06    -228.216E+03    -68.6996E-03     123.951E-03    -55.2513E-03     297.824E-03    -87.7842E-03     143.269E-03    -54.9180E-03     302.534E-03
            1414     15.3340E-03     59.0262E-03    -11.7724E+06     151.041E+06     92.7949E+06     343.525E+03    -77.5609E-03     132.812E-03    -55.2511E-03     401.428E-03    -99.8346E-03     155.311E-03    -54.9890E-03     400.455E-03
            1415     14.4775E-03     58.6676E-03    -16.9310E+06     107.646E+06     44.4107E+06     783.130E+03    -69.4082E-03     124.590E-03    -55.1821E-03     286.074E-03    -77.9028E-03     133.278E-03    -55.0916E-03     283.253E-03
            1416     13.6265E-03     58.4454E-03    -19.6411E+06     68.6761E+06     1.44093E+06     478.489E+03    -61.7341E-03     116.806E-03    -55.0719E-03     184.792E-03    -64.7041E-03     119.946E-03    -55.1358E-03     182.797E-03
            1417     12.7766E-03     58.2972E-03    -19.5191E+06     20.6375E+06    -12.8529E+06     114.681E+03    -58.7587E-03     113.840E-03    -55.0808E-03     136.792E-03    -60.2029E-03     115.325E-03    -55.1467E-03     135.295E-03
            1418     11.9239E-03     58.1722E-03    -20.4155E+06    -28.5080E+06    -7.95567E+06     147.299E+03    -58.0132E-03     113.200E-03    -55.1865E-03     118.053E-03    -58.8791E-03     113.915E-03    -55.1553E-03     116.865E-03
            1419     11.0719E-03     58.0605E-03    -22.1174E+06    -58.9179E+06    -7.65906E+06     289.552E+03    -57.7960E-03     113.033E-03    -55.2374E-03     107.278E-03    -58.3714E-03     113.343E-03    -55.1582E-03     106.300E-03
            1420     10.2204E-03     57.9581E-03    -22.8372E+06    -83.2886E+06    -8.00581E+06     170.788E+03    -57.4825E-03     112.754E-03    -55.2710E-03     99.1057E-03    -57.8628E-03     112.780E-03    -55.1572E-03     98.2986E-03
            1421     9.36881E-03     57.8622E-03    -24.1489E+06    -100.876E+06    -7.77563E+06    -108.850E+03    -57.1297E-03     112.434E-03    -55.3039E-03     91.2183E-03    -57.3783E-03     112.261E-03    -55.1615E-03     90.5507E-03
            1422     8.51680E-03     57.7752E-03    -25.8103E+06    -114.720E+06    -8.20297E+06    -138.891E+03    -56.9069E-03     112.236E-03    -55.3292E-03     83.1543E-03    -57.0626E-03     111.917E-03    -55.1665E-03     82.6033E-03
            1423     7.66538E-03     57.6953E-03    -27.9385E+06    -125.986E+06    -8.99000E+06     67.6220E+03    -56.6350E-03     111.982E-03    -55.3469E-03     75.3595E-03    -56.7250E-03     111.552E-03    -55.1687E-03     74.9116E-03
            1424     6.81344E-03     57.6238E-03    -30.1828E+06    -136.917E+06    -10.2137E+06     106.880E+03    -56.3389E-03     111.704E-03    -55.3650E-03     67.5599E-03    -56.3791E-03     111.181E-03    -55.1738E-03     67.1978E-03
            1425     5.96174E-03     57.5596E-03    -32.5338E+06    -144.340E+06    -13.0365E+06     234.913E+03    -56.1246E-03     111.497E-03    -55.3719E-03     59.5595E-03    -56.1301E-03     110.912E-03    -55.1806E-03     59.2699E-03
            1426     5.11008E-03     57.5040E-03    -35.3309E+06    -145.251E+06    -15.3888E+06     223.740E+03    -55.9119E-03     111.282E-03    -55.3702E-03     51.5064E-03    -55.9031E-03     110.677E-03    -55.1853E-03     51.2781E-03
            1427     4.25840E-03     57.4561E-03    -38.2330E+06    -148.643E+06    -21.1357E+06    -26.7629E+03    -55.7147E-03     111.070E-03    -55.3552E-03     43.3390E-03    -55.6901E-03     110.443E-03    -55.1899E-03     43.1600E-03
            1428     3.40664E-03     57.4169E-03    -41.1240E+06    -154.203E+06    -29.2071E+06     151.046E+03    -55.5638E-03     110.896E-03    -55.3319E-03     34.9485E-03    -55.5217E-03     110.245E-03    -55.1947E-03     34.8163E-03
            1429     2.55502E-03     57.3858E-03    -43.8958E+06    -158.602E+06    -35.8815E+06     232.743E+03    -55.4465E-03     110.758E-03    -55.3116E-03     26.4274E-03    -55.3938E-03     110.091E-03    -55.1974E-03     26.3348E-03
            1430     1.70332E-03     57.3637E-03    -46.1112E+06    -162.870E+06    -42.5423E+06     121.125E+03    -55.3595E-03     110.646E-03    -55.2865E-03     17.8600E-03    -55.2966E-03     109.965E-03    -55.1962E-03     17.7997E-03
            1431     851.730E-06     57.3498E-03    -47.5021E+06    -165.447E+06    -46.6637E+06     106.748E+03    -55.3189E-03     110.564E-03    -55.2449E-03     9.75869E-03    -55.2501E-03     109.875E-03    -55.1695E-03     9.72746E-03
            1432     16.1802E-03     58.4345E-03    -5.54597E+06     163.803E+06     111.957E+06     59.3333E+03    -67.0789E-03     122.502E-03    -55.4230E-03     298.310E-03    -86.1302E-03     141.791E-03    -55.0926E-03     303.075E-03
            1433     15.3288E-03     57.9664E-03    -12.6119E+06     150.019E+06     93.0893E+06    -93.1391E+03    -79.5685E-03     134.962E-03    -55.3937E-03     397.137E-03    -101.711E-03     157.322E-03    -55.1275E-03     395.806E-03
            1434     14.4809E-03     57.6095E-03    -17.0042E+06     108.009E+06     45.3354E+06     217.755E+03    -70.1836E-03     125.402E-03    -55.2186E-03     284.140E-03    -78.6946E-03     134.105E-03    -55.1239E-03     281.247E-03
            1435     13.6281E-03     57.3870E-03    -18.2640E+06     68.9110E+06     1.77649E+06    -63.9671E+03    -61.4565E-03     116.536E-03    -55.0797E-03     184.284E-03    -64.3983E-03     119.653E-03    -55.1443E-03     182.295E-03
            1436     12.7745E-03     57.2379E-03    -19.5090E+06     20.0680E+06    -12.8247E+06     297.337E+03    -58.6893E-03     113.791E-03    -55.1013E-03     136.857E-03    -60.1319E-03     115.272E-03    -55.1662E-03     135.365E-03
            1437     11.9237E-03     57.1137E-03    -20.5557E+06    -28.4281E+06    -7.81192E+06     553.730E+03    -58.1798E-03     113.384E-03    -55.2047E-03     118.077E-03    -59.0472E-03     114.101E-03    -55.1727E-03     116.891E-03
            1438     11.0719E-03     57.0020E-03    -21.0969E+06    -58.9024E+06    -7.01381E+06     344.908E+03    -57.7325E-03     112.986E-03    -55.2539E-03     107.005E-03    -58.3026E-03     113.293E-03    -55.1730E-03     106.029E-03
            1439     10.2203E-03     56.8988E-03    -22.6103E+06    -83.0012E+06    -7.94077E+06     270.415E+03    -57.4918E-03     112.780E-03    -55.2879E-03     98.9113E-03    -57.8716E-03     112.808E-03    -55.1744E-03     98.1043E-03
            1440     9.36848E-03     56.8043E-03    -24.2042E+06    -100.527E+06    -7.61503E+06    -18.3768E+03    -57.2766E-03     112.592E-03    -55.3150E-03     91.1590E-03    -57.5271E-03     112.421E-03    -55.1722E-03     90.4896E-03
            1441     8.51700E-03     56.7161E-03    -26.0265E+06    -115.169E+06    -8.45840E+06     92.1674E+03    -56.9472E-03     112.278E-03    -55.3312E-03     83.0700E-03    -57.1029E-03     111.957E-03    -55.1688E-03     82.5216E-03
            1442     7.66514E-03     56.6372E-03    -28.2385E+06    -126.061E+06    -9.01433E+06     366.510E+03    -56.6282E-03     111.976E-03    -55.3476E-03     75.2275E-03    -56.7194E-03     111.545E-03    -55.1689E-03     74.7834E-03
            1443     6.81354E-03     56.5651E-03    -31.1332E+06    -136.649E+06    -9.98485E+06     228.873E+03    -56.3600E-03     111.726E-03    -55.3656E-03     67.5180E-03    -56.4058E-03     111.205E-03    -55.1722E-03     67.1570E-03
            1444     5.96185E-03     56.5015E-03    -33.8590E+06    -143.990E+06    -13.0780E+06    -500.055E+03    -56.1139E-03     111.484E-03    -55.3697E-03     59.5751E-03    -56.1263E-03     110.903E-03    -55.1772E-03     59.2765E-03
            1445     5.11007E-03     56.4453E-03    -35.7765E+06    -145.241E+06    -16.1602E+06    -994.731E+03    -55.8993E-03     111.264E-03    -55.3644E-03     51.5413E-03    -55.8916E-03     110.660E-03    -55.1828E-03     51.2977E-03
            1446     4.25835E-03     56.3978E-03    -38.2105E+06    -149.343E+06    -21.9505E+06    -418.847E+03    -55.7243E-03     111.073E-03    -55.3492E-03     43.2860E-03    -55.6973E-03     110.444E-03    -55.1870E-03     43.1018E-03
            1447     3.40670E-03     56.3583E-03    -41.2120E+06    -154.343E+06    -29.3514E+06     26.2825E+03    -55.5588E-03     110.886E-03    -55.3274E-03     34.8977E-03    -55.5167E-03     110.235E-03    -55.1906E-03     34.7639E-03
            1448     2.55499E-03     56.3275E-03    -43.8191E+06    -158.570E+06    -35.9983E+06     93.9988E+03    -55.4362E-03     110.744E-03    -55.3079E-03     26.4021E-03    -55.3830E-03     110.077E-03    -55.1945E-03     26.3077E-03
            1449     1.70337E-03     56.3052E-03    -45.9647E+06    -162.707E+06    -42.4783E+06     234.604E+03    -55.3684E-03     110.650E-03    -55.2814E-03     17.8817E-03    -55.3051E-03     109.969E-03    -55.1912E-03     17.8227E-03
            1450     851.695E-06     56.2916E-03    -47.4187E+06    -165.207E+06    -46.4138E+06     169.933E+03    -55.3082E-03     110.548E-03    -55.2395E-03     9.75164E-03    -55.2398E-03     109.859E-03    -55.1633E-03     9.72114E-03
            1451     16.1798E-03     57.3701E-03    -5.36662E+06     164.307E+06     112.611E+06     606.245E+03    -67.0262E-03     122.448E-03    -55.4214E-03     297.348E-03    -85.9231E-03     141.582E-03    -55.0888E-03     302.158E-03
            1452     15.3332E-03     56.9069E-03    -11.5861E+06     150.532E+06     93.4975E+06     198.552E+03    -78.8013E-03     134.187E-03    -55.3862E-03     393.886E-03    -100.666E-03     156.275E-03    -55.1201E-03     392.649E-03
            1453     14.4789E-03     56.5501E-03    -16.4106E+06     107.587E+06     43.2930E+06     26.9248E+03    -69.9866E-03     125.199E-03    -55.2125E-03     284.350E-03    -78.4655E-03     133.876E-03    -55.1283E-03     281.458E-03
            1454     13.6270E-03     56.3293E-03    -19.5341E+06     68.4967E+06    -411.005E+03     144.453E+03    -61.5809E-03     116.662E-03    -55.0809E-03     185.152E-03    -64.5398E-03     119.796E-03    -55.1539E-03     183.161E-03
            1455     12.7757E-03     56.1796E-03    -20.5409E+06     20.2126E+06    -13.3309E+06    -4.55579E+03    -58.8120E-03     113.917E-03    -55.1045E-03     136.638E-03    -60.2553E-03     115.397E-03    -55.1707E-03     135.140E-03
            1456     11.9233E-03     56.0542E-03    -20.3689E+06    -28.7896E+06    -8.09323E+06     50.7578E+03    -58.1104E-03     113.316E-03    -55.2051E-03     117.563E-03    -58.9723E-03     114.026E-03    -55.1743E-03     116.373E-03
            1457     11.0722E-03     55.9435E-03    -21.3432E+06    -59.0524E+06    -7.12355E+06     334.193E+03    -57.7046E-03     112.962E-03    -55.2577E-03     106.805E-03    -58.2753E-03     113.268E-03    -55.1767E-03     105.829E-03
            1458     10.2199E-03     55.8407E-03    -22.2267E+06    -82.5015E+06    -7.79129E+06     344.145E+03    -57.5265E-03     112.817E-03    -55.2904E-03     98.8470E-03    -57.9049E-03     112.846E-03    -55.1775E-03     98.0410E-03
            1459     9.36859E-03     55.7447E-03    -23.7039E+06    -100.818E+06    -7.25689E+06     542.724E+03    -57.3297E-03     112.645E-03    -55.3150E-03     90.7994E-03    -57.5781E-03     112.472E-03    -55.1707E-03     90.1350E-03
            1460     8.51698E-03     55.6581E-03    -26.0467E+06    -115.169E+06    -7.94485E+06     600.139E+03    -56.9345E-03     112.263E-03    -55.3289E-03     82.8390E-03    -57.0909E-03     111.942E-03    -55.1639E-03     82.2967E-03
            1461     7.66530E-03     55.5783E-03    -28.0419E+06    -125.963E+06    -8.80459E+06     298.512E+03    -56.6165E-03     111.960E-03    -55.3434E-03     75.1815E-03    -56.7072E-03     111.529E-03    -55.1641E-03     74.7366E-03
            1462     6.81355E-03     55.5069E-03    -29.6123E+06    -136.126E+06    -9.27705E+06     8.94507E+03    -56.3767E-03     111.737E-03    -55.3604E-03     67.4313E-03    -56.4168E-03     111.216E-03    -55.1665E-03     67.0669E-03
            1463     5.96176E-03     55.4428E-03    -31.7734E+06    -142.727E+06    -12.2929E+06    -759.888E+03    -56.1181E-03     111.479E-03    -55.3613E-03     59.5105E-03    -56.1230E-03     110.901E-03    -55.1698E-03     59.2085E-03
            1464     5.11010E-03     55.3871E-03    -35.3590E+06    -145.792E+06    -16.9680E+06    -1.21829E+06    -55.8971E-03     111.250E-03    -55.3524E-03     51.4887E-03    -55.8853E-03     110.644E-03    -55.1746E-03     51.2422E-03
            1465     4.25843E-03     55.3391E-03    -38.7462E+06    -150.441E+06    -23.2636E+06    -867.271E+03    -55.7164E-03     111.053E-03    -55.3364E-03     43.2440E-03    -55.6886E-03     110.421E-03    -55.1784E-03     43.0539E-03
            1466     3.40675E-03     55.3001E-03    -41.2294E+06    -154.710E+06    -30.0812E+06    -256.142E+03    -55.5469E-03     110.863E-03    -55.3162E-03     34.8729E-03    -55.5033E-03     110.211E-03    -55.1825E-03     34.7355E-03
            1467     2.55502E-03     55.2690E-03    -43.8087E+06    -158.774E+06    -36.4568E+06     141.081E+03    -55.4164E-03     110.717E-03    -55.3011E-03     26.4137E-03    -55.3621E-03     110.050E-03    -55.1896E-03     26.3201E-03
            1468     1.70331E-03     55.2469E-03    -45.9092E+06    -162.587E+06    -42.5037E+06     174.960E+03    -55.3375E-03     110.626E-03    -55.2884E-03     17.8669E-03    -55.2740E-03     109.946E-03    -55.1987E-03     17.8071E-03
            1469     851.650E-06     55.2331E-03    -47.0584E+06    -164.853E+06    -46.2636E+06     209.151E+03    -55.3065E-03     110.582E-03    -55.2759E-03     9.70737E-03    -55.2370E-03     109.895E-03    -55.2000E-03     9.67751E-03
            1470     16.1912E-03     56.3227E-03    -6.43222E+06     163.649E+06     112.223E+06    -97.0921E+03    -67.9115E-03     123.270E-03    -55.3587E-03     300.827E-03    -87.0200E-03     142.611E-03    -55.0255E-03     305.645E-03
            1471     15.3299E-03     55.8456E-03    -10.5294E+06     150.153E+06     93.7337E+06     1.00010E+06    -78.1061E-03     133.470E-03    -55.3639E-03     397.957E-03    -100.125E-03     155.713E-03    -55.0977E-03     396.855E-03
            1472     14.4793E-03     55.4937E-03    -15.9399E+06     108.297E+06     44.8642E+06     1.30883E+06    -70.1073E-03     125.341E-03    -55.2339E-03     283.316E-03    -78.5160E-03     133.948E-03    -55.1435E-03     280.456E-03
            1473     13.6266E-03     55.2690E-03    -19.0808E+06     69.4614E+06     1.24405E+06     304.628E+03    -61.9457E-03     117.027E-03    -55.0818E-03     184.178E-03    -64.9076E-03     120.165E-03    -55.1486E-03     182.170E-03
            1474     12.7755E-03     55.1207E-03    -19.7374E+06     20.6730E+06    -13.3734E+06    -45.6286E+03    -58.8281E-03     113.908E-03    -55.0801E-03     136.045E-03    -60.2588E-03     115.381E-03    -55.1483E-03     134.550E-03
            1475     11.9242E-03     54.9960E-03    -20.9754E+06    -29.9729E+06    -9.23557E+06     54.9947E+03    -57.9291E-03     113.112E-03    -55.1829E-03     117.492E-03    -58.7880E-03     113.817E-03    -55.1552E-03     116.308E-03
            1476     11.0714E-03     54.8848E-03    -21.9625E+06    -59.1765E+06    -7.55297E+06     17.5806E+03    -57.7329E-03     112.974E-03    -55.2407E-03     106.466E-03    -58.3048E-03     113.279E-03    -55.1608E-03     105.486E-03
            1477     10.2207E-03     54.7816E-03    -23.1614E+06    -82.5314E+06    -8.03736E+06     236.375E+03    -57.5651E-03     112.834E-03    -55.2685E-03     98.4546E-03    -57.9477E-03     112.864E-03    -55.1554E-03     97.6454E-03
            1478     9.36879E-03     54.6863E-03    -24.5754E+06    -101.451E+06    -7.77342E+06     493.346E+03    -57.1629E-03     112.458E-03    -55.2951E-03     90.5856E-03    -57.4130E-03     112.283E-03    -55.1512E-03     89.9232E-03
            1479     8.51707E-03     54.5993E-03    -25.5494E+06    -114.554E+06    -7.66858E+06     585.790E+03    -56.8661E-03     112.184E-03    -55.3179E-03     82.7248E-03    -57.0211E-03     111.864E-03    -55.1531E-03     82.1831E-03
            1480     7.66530E-03     54.5201E-03    -27.3499E+06    -125.663E+06    -8.84187E+06     256.981E+03    -56.6307E-03     111.963E-03    -55.3325E-03     75.1582E-03    -56.7183E-03     111.533E-03    -55.1548E-03     74.7124E-03
            1481     6.81362E-03     54.4482E-03    -29.9953E+06    -135.306E+06    -10.6683E+06    -351.501E+03    -56.3722E-03     111.714E-03    -55.3417E-03     67.3529E-03    -56.4133E-03     111.199E-03    -55.1553E-03     66.9839E-03
            1482     5.96201E-03     54.3845E-03    -32.8004E+06    -142.105E+06    -13.8150E+06    -819.257E+03    -56.1174E-03     111.459E-03    -55.3412E-03     59.4590E-03    -56.1262E-03     110.886E-03    -55.1566E-03     59.1561E-03
            1483     5.11023E-03     54.3285E-03    -35.3153E+06    -146.263E+06    -17.6104E+06    -821.217E+03    -55.8764E-03     111.213E-03    -55.3361E-03     51.4744E-03    -55.8627E-03     110.605E-03    -55.1608E-03     51.2334E-03
            1484     4.25847E-03     54.2809E-03    -38.3847E+06    -151.059E+06    -24.5058E+06    -631.152E+03    -55.6813E-03     111.002E-03    -55.3205E-03     43.2447E-03    -55.6489E-03     110.368E-03    -55.1683E-03     43.0582E-03
            1485     3.40672E-03     54.2415E-03    -41.6754E+06    -155.467E+06    -31.0824E+06    -343.460E+03    -55.5359E-03     110.842E-03    -55.3064E-03     34.8641E-03    -55.4919E-03     110.189E-03    -55.1760E-03     34.7256E-03
            1486     2.55505E-03     54.2108E-03    -44.0681E+06    -158.926E+06    -36.7155E+06    -47.0117E+03    -55.4140E-03     110.708E-03    -55.2936E-03     26.3984E-03    -55.3604E-03     110.040E-03    -55.1828E-03     26.3023E-03
            1487     1.70335E-03     54.1884E-03    -45.8000E+06    -162.580E+06    -42.7284E+06     55.1766E+03    -55.3288E-03     110.609E-03    -55.2800E-03     17.8331E-03    -55.2645E-03     109.929E-03    -55.1915E-03     17.7719E-03
            1488     851.623E-06     54.1749E-03    -46.9835E+06    -164.633E+06    -46.0948E+06     196.363E+03    -55.2997E-03     110.569E-03    -55.2696E-03     9.69662E-03    -55.2304E-03     109.883E-03    -55.1932E-03     9.66678E-03
            1489     16.1780E-03     55.2609E-03    -5.67101E+06     163.147E+06     111.543E+06    -102.212E+03    -67.5898E-03     122.975E-03    -55.3848E-03     300.405E-03    -86.6651E-03     142.285E-03    -55.0554E-03     305.155E-03
            1490     15.3312E-03     54.7876E-03    -12.5933E+06     148.305E+06     92.7438E+06    -28.4873E+03    -79.0589E-03     134.439E-03    -55.3805E-03     397.887E-03    -101.111E-03     156.704E-03    -55.1136E-03     396.608E-03
            1491     14.4790E-03     54.4329E-03    -16.5011E+06     108.574E+06     45.5855E+06     220.886E+03    -70.5331E-03     125.743E-03    -55.2099E-03     282.474E-03    -78.9676E-03     134.372E-03    -55.1155E-03     279.564E-03
            1492     13.6291E-03     54.2114E-03    -18.0100E+06     70.9003E+06     2.03032E+06     584.348E+03    -62.0399E-03     117.069E-03    -55.0290E-03     183.322E-03    -64.9975E-03     120.208E-03    -55.0956E-03     181.311E-03
            1493     12.7762E-03     54.0618E-03    -20.0712E+06     20.2370E+06    -13.5330E+06     806.361E+03    -58.4304E-03     113.461E-03    -55.0304E-03     135.322E-03    -59.8501E-03     114.920E-03    -55.0983E-03     133.854E-03
            1494     11.9238E-03     53.9380E-03    -20.8714E+06    -29.5825E+06    -8.97176E+06     160.189E+03    -57.8671E-03     113.011E-03    -55.1437E-03     117.269E-03    -58.7266E-03     113.717E-03    -55.1154E-03     116.087E-03
            1495     11.0730E-03     53.8257E-03    -21.8471E+06    -59.4069E+06    -7.72285E+06     88.0608E+03    -57.6851E-03     112.886E-03    -55.2008E-03     106.424E-03    -58.2547E-03     113.189E-03    -55.1216E-03     105.446E-03
            1496     10.2208E-03     53.7232E-03    -23.4328E+06    -83.2094E+06    -8.43953E+06     526.417E+03    -57.3481E-03     112.585E-03    -55.2366E-03     98.4389E-03    -57.7298E-03     112.612E-03    -55.1242E-03     97.6368E-03
            1497     9.36904E-03     53.6279E-03    -24.6533E+06    -100.947E+06    -8.29961E+06     120.912E+03    -57.0435E-03     112.317E-03    -55.2731E-03     90.7147E-03    -57.2934E-03     112.145E-03    -55.1325E-03     90.0501E-03
            1498     8.51710E-03     53.5410E-03    -26.1078E+06    -114.825E+06    -8.80166E+06    -98.5678E+03    -56.8425E-03     112.143E-03    -55.3003E-03     82.8025E-03    -56.9980E-03     111.823E-03    -55.1400E-03     82.2529E-03
            1499     7.66547E-03     53.4614E-03    -27.7623E+06    -125.468E+06    -9.09196E+06     333.189E+03    -56.6274E-03     111.946E-03    -55.3182E-03     75.0798E-03    -56.7170E-03     111.518E-03    -55.1415E-03     74.6350E-03
            1500     6.81375E-03     53.3899E-03    -29.9452E+06    -134.298E+06    -10.4135E+06     7.47525E+03    -56.3448E-03     111.673E-03    -55.3280E-03     67.3161E-03    -56.3873E-03     111.162E-03    -55.1419E-03     66.9522E-03
            1501     5.96193E-03     53.3260E-03    -32.5802E+06    -141.845E+06    -13.8605E+06    -753.490E+03    -56.0936E-03     111.422E-03    -55.3284E-03     59.4648E-03    -56.1015E-03     110.851E-03    -55.1448E-03     59.1631E-03
            1502     5.11026E-03     53.2703E-03    -35.8460E+06    -146.970E+06    -18.4250E+06    -696.736E+03    -55.8612E-03     111.184E-03    -55.3233E-03     51.4729E-03    -55.8479E-03     110.576E-03    -55.1503E-03     51.2338E-03
            1503     4.25849E-03     53.2225E-03    -38.9853E+06    -151.495E+06    -24.7287E+06    -187.979E+03    -55.6706E-03     110.981E-03    -55.3105E-03     43.2283E-03    -55.6403E-03     110.346E-03    -55.1580E-03     43.0477E-03
            1504     3.40679E-03     53.1832E-03    -41.6139E+06    -155.592E+06    -31.3192E+06    -225.208E+03    -55.5267E-03     110.821E-03    -55.2947E-03     34.8359E-03    -55.4819E-03     110.167E-03    -55.1653E-03     34.6991E-03
            1505     2.55506E-03     53.1523E-03    -44.1377E+06    -159.270E+06    -37.2382E+06    -275.167E+03    -55.4099E-03     110.689E-03    -55.2795E-03     26.3661E-03    -55.3554E-03     110.021E-03    -55.1708E-03     26.2671E-03
            1506     1.70337E-03     53.1302E-03    -46.0968E+06    -162.629E+06    -42.6354E+06    -105.682E+03    -55.3314E-03     110.593E-03    -55.2618E-03     17.8462E-03    -55.2686E-03     109.913E-03    -55.1724E-03     17.7829E-03
            1507     851.755E-06     53.1163E-03    -47.1676E+06    -164.655E+06    -46.0741E+06    -191.924E+03    -55.2626E-03     110.519E-03    -55.2563E-03     9.69780E-03    -55.1942E-03     109.832E-03    -55.1796E-03     9.66276E-03
            1508     16.1878E-03     54.2051E-03     -6.2356E+06     163.930E+06     112.098E+06     574.310E+03    -68.1510E-03     123.491E-03    -55.3400E-03     297.572E-03    -87.2535E-03     142.828E-03    -55.0081E-03     302.303E-03
            1509     15.3319E-03     53.7296E-03    -12.1627E+06     149.612E+06     93.0553E+06    -285.456E+03    -78.7168E-03     134.019E-03    -55.3020E-03     396.865E-03    -100.860E-03     156.380E-03    -55.0360E-03     395.704E-03
            1510     14.4805E-03     53.3738E-03    -16.8194E+06     106.988E+06     43.5033E+06    -762.020E+03    -70.1535E-03     125.286E-03    -55.1325E-03     282.518E-03    -78.5565E-03     133.883E-03    -55.0457E-03     279.589E-03
            1511     13.6285E-03     53.1508E-03    -19.5272E+06     69.5315E+06     354.501E+03     520.038E+03    -61.7174E-03     116.690E-03    -54.9728E-03     183.055E-03    -64.6702E-03     119.819E-03    -55.0435E-03     181.062E-03
            1512     12.7774E-03     53.0055E-03    -19.7833E+06     21.5075E+06    -12.5862E+06     702.748E+03    -58.4853E-03     113.470E-03    -54.9850E-03     135.557E-03    -59.9191E-03     114.947E-03    -55.0504E-03     134.082E-03
            1513     11.9253E-03     52.8786E-03    -20.0448E+06    -28.7431E+06    -8.19479E+06     466.562E+03    -57.7029E-03     112.802E-03    -55.0995E-03     117.799E-03    -58.5592E-03     113.509E-03    -55.0697E-03     116.628E-03
            1514     11.0728E-03     52.7678E-03    -21.3374E+06    -60.0333E+06    -7.81311E+06     494.254E+03    -57.3837E-03     112.556E-03    -55.1721E-03     106.870E-03    -57.9479E-03     112.854E-03    -55.0932E-03     105.906E-03
            1515     10.2209E-03     52.6647E-03    -22.0422E+06    -83.2352E+06    -7.92430E+06     333.450E+03    -57.2507E-03     112.476E-03    -55.2251E-03     98.7610E-03    -57.6262E-03     112.501E-03    -55.1121E-03     97.9587E-03
            1516     9.36896E-03     52.5697E-03    -23.3430E+06    -100.438E+06    -7.26231E+06     499.687E+03    -57.1073E-03     112.372E-03    -55.2651E-03     90.7751E-03    -57.3530E-03     112.200E-03    -55.1219E-03     90.1146E-03
            1517     8.51731E-03     52.4823E-03    -25.4773E+06    -114.686E+06    -8.00307E+06     269.253E+03    -56.8639E-03     112.152E-03    -55.2878E-03     82.7833E-03    -57.0175E-03     111.831E-03    -55.1246E-03     82.2384E-03
            1518     7.66556E-03     52.4030E-03    -27.4089E+06    -125.548E+06    -8.75475E+06    -244.508E+03    -56.5795E-03     111.884E-03    -55.3042E-03     75.0615E-03    -56.6673E-03     111.454E-03    -55.1262E-03     74.6102E-03
            1519     6.81380E-03     52.3314E-03    -28.8788E+06    -133.815E+06    -9.73346E+06    -370.087E+03    -56.3261E-03     111.642E-03    -55.3162E-03     67.2940E-03    -56.3648E-03     111.132E-03    -55.1289E-03     66.9255E-03
            1520     5.96210E-03     52.2677E-03    -31.4718E+06    -142.072E+06    -13.7622E+06     100.814E+03    -56.0839E-03     111.399E-03    -55.3153E-03     59.3789E-03    -56.0860E-03     110.825E-03    -55.1324E-03     59.0882E-03
            1521     5.11028E-03     52.2119E-03    -35.1115E+06    -147.294E+06    -18.3127E+06     474.391E+03    -55.8570E-03     111.167E-03    -55.3103E-03     51.3783E-03    -55.8397E-03     110.556E-03    -55.1374E-03     51.1543E-03
            1522     4.25857E-03     52.1642E-03    -38.8195E+06    -151.254E+06    -24.5349E+06     49.1017E+03    -55.6659E-03     110.962E-03    -55.2964E-03     43.1946E-03    -55.6353E-03     110.328E-03    -55.1434E-03     43.0173E-03
            1523     3.40684E-03     52.1249E-03    -41.9383E+06    -155.609E+06    -31.0867E+06    -183.585E+03    -55.5115E-03     110.792E-03    -55.2804E-03     34.8296E-03    -55.4686E-03     110.138E-03    -55.1494E-03     34.6935E-03
            1524     2.55510E-03     52.0940E-03    -44.5279E+06    -159.306E+06    -36.8791E+06    -299.541E+03    -55.3911E-03     110.657E-03    -55.2656E-03     26.3556E-03    -55.3390E-03     109.988E-03    -55.1545E-03     26.2564E-03
            1525     1.70342E-03     52.0717E-03    -46.4255E+06    -162.923E+06    -42.8222E+06    -554.050E+03    -55.3041E-03     110.553E-03    -55.2488E-03     17.8548E-03    -55.2423E-03     109.872E-03    -55.1594E-03     17.7858E-03
            1526     851.647E-06     52.0581E-03    -47.5217E+06    -165.136E+06    -46.6442E+06    -384.486E+03    -55.2630E-03     110.498E-03    -55.2348E-03     9.69949E-03    -55.1948E-03     109.810E-03    -55.1597E-03     9.66182E-03
            1527     16.1860E-03     53.1505E-03    -6.02982E+06     163.347E+06     112.024E+06     316.081E+03    -69.4705E-03     124.733E-03    -55.2628E-03     296.727E-03    -88.6296E-03     144.126E-03    -54.9308E-03     301.254E-03
            1528     15.3342E-03     52.6710E-03    -10.5541E+06     150.808E+06      94.097E+06     554.581E+03    -78.5729E-03     133.771E-03    -55.1981E-03     398.584E-03    -100.869E-03     156.293E-03    -54.9310E-03     397.416E-03
            1529     14.4823E-03     52.3158E-03    -16.5361E+06     107.396E+06     44.9007E+06     560.985E+03    -69.3304E-03     124.399E-03    -55.0687E-03     283.560E-03    -77.7260E-03     132.987E-03    -54.9759E-03     280.730E-03
            1530     13.6294E-03     52.0937E-03    -19.4566E+06     68.5552E+06     1.03605E+06    -169.373E+03    -61.2398E-03     116.192E-03    -54.9518E-03     183.829E-03    -64.1781E-03     119.301E-03    -55.0178E-03     181.853E-03
            1531     12.7768E-03     51.9453E-03    -19.4711E+06     21.3781E+06    -12.8115E+06     155.455E+03    -58.5052E-03     113.480E-03    -54.9746E-03     135.962E-03    -59.9458E-03     114.964E-03    -55.0414E-03     134.474E-03
            1532     11.9252E-03     51.8219E-03    -20.3714E+06    -28.4233E+06    -8.16031E+06     927.884E+03    -57.6596E-03     112.752E-03    -55.0928E-03     118.279E-03    -58.5179E-03     113.461E-03    -55.0629E-03     117.116E-03
            1533     11.0728E-03     51.7092E-03    -21.4558E+06    -59.4552E+06    -7.44959E+06     286.880E+03    -57.3126E-03     112.485E-03    -55.1728E-03     107.475E-03    -57.8792E-03     112.786E-03    -55.0927E-03     106.511E-03
            1534     10.2208E-03     51.6066E-03    -22.6084E+06    -83.4453E+06    -8.00544E+06    -9.42944E+03    -57.3871E-03     112.611E-03    -55.2237E-03     98.8429E-03    -57.7652E-03     112.636E-03    -55.1100E-03     98.0344E-03
            1535     9.36919E-03     51.5109E-03    -23.7399E+06    -100.579E+06    -7.10753E+06     389.148E+03    -57.1822E-03     112.437E-03    -55.2547E-03     90.7177E-03    -57.4298E-03     112.264E-03    -55.1100E-03     90.0551E-03
            1536     8.51752E-03     51.4240E-03    -24.8191E+06    -113.888E+06    -7.33168E+06     322.008E+03    -56.8361E-03     112.110E-03    -55.2735E-03     82.7289E-03    -56.9881E-03     111.790E-03    -55.1090E-03     82.1856E-03
            1537     7.66565E-03     51.3447E-03    -26.6107E+06    -125.031E+06    -8.33462E+06    -299.479E+03    -56.5516E-03     111.842E-03    -55.2904E-03     75.0907E-03    -56.6365E-03     111.413E-03    -55.1122E-03     74.6398E-03
            1538     6.81391E-03     51.2730E-03    -29.6844E+06    -134.514E+06    -9.91483E+06    -166.083E+03    -56.3200E-03     111.624E-03    -55.3037E-03     67.2671E-03    -56.3613E-03     111.111E-03    -55.1152E-03     66.9017E-03
            1539     5.96214E-03     51.2094E-03    -32.8810E+06    -142.803E+06    -13.8753E+06     657.731E+03    -56.0858E-03     111.387E-03    -55.3016E-03     59.3273E-03    -56.0937E-03     110.812E-03    -55.1163E-03     59.0440E-03
            1540     5.11045E-03     51.1535E-03    -35.6451E+06    -146.935E+06    -17.7435E+06     874.834E+03    -55.8404E-03     111.135E-03    -55.2949E-03     51.3420E-03    -55.8270E-03     110.525E-03    -55.1189E-03     51.1235E-03
            1541     4.25864E-03     51.1059E-03    -38.5520E+06    -150.546E+06    -23.7000E+06     637.794E+03    -55.6438E-03     110.924E-03    -55.2802E-03     43.1696E-03    -55.6140E-03     110.292E-03    -55.1245E-03     43.0003E-03
            1542     3.40688E-03     51.0665E-03    -41.7443E+06    -155.238E+06    -30.4350E+06     3.83954E+03    -55.4983E-03     110.761E-03    -55.2632E-03     34.7995E-03    -55.4559E-03     110.108E-03    -55.1297E-03     34.6660E-03
            1543     2.55518E-03     51.0357E-03    -44.4287E+06    -159.129E+06    -36.5546E+06    -583.096E+03    -55.3672E-03     110.614E-03    -55.2468E-03     26.3256E-03    -55.3153E-03     109.945E-03    -55.1344E-03     26.2229E-03
            1544     1.70340E-03     51.0135E-03    -46.6604E+06    -163.424E+06    -43.3875E+06    -520.230E+03    -55.2805E-03     110.509E-03    -55.2288E-03     17.8208E-03    -55.2183E-03     109.827E-03    -55.1412E-03     17.7524E-03
            1545     851.724E-06     50.9998E-03    -48.2651E+06    -165.928E+06    -47.3281E+06    -327.236E+03    -55.2731E-03     110.461E-03    -55.1880E-03     9.69061E-03    -55.2065E-03     109.772E-03    -55.1141E-03     9.65369E-03
            1546     16.1864E-03     52.0860E-03    -5.44449E+06     162.651E+06     111.684E+06    -236.740E+03    -69.3360E-03     124.557E-03    -55.2205E-03     294.182E-03    -88.1878E-03     143.643E-03    -54.8900E-03     298.585E-03
            1547     15.3365E-03     51.6166E-03    -12.3135E+06     149.371E+06     92.8023E+06    -261.064E+03    -78.4592E-03     133.616E-03    -55.1567E-03     398.674E-03    -100.616E-03     155.990E-03    -54.8914E-03     397.458E-03
            1548     14.4812E-03     51.2574E-03    -16.3120E+06     107.892E+06     45.1522E+06     521.800E+03    -68.8993E-03     123.951E-03    -55.0515E-03     285.247E-03    -77.3727E-03     132.618E-03    -54.9585E-03     282.469E-03
            1549     13.6289E-03     51.0360E-03    -18.8335E+06     68.2750E+06     710.640E+03     825.750E+03    -60.9080E-03     115.874E-03    -54.9665E-03     185.302E-03    -63.8344E-03     118.974E-03    -55.0346E-03     183.358E-03
            1550     12.7770E-03     50.8869E-03    -20.7707E+06     20.9993E+06    -13.5199E+06     675.965E+03    -58.4414E-03     113.453E-03    -55.0118E-03     137.043E-03    -59.8889E-03     114.941E-03    -55.0797E-03     135.562E-03
            1551     11.9246E-03     50.7636E-03     -21.635E+06    -27.4898E+06    -8.47939E+06     91.5891E+03    -58.0053E-03     113.130E-03    -55.1244E-03     118.232E-03    -58.8776E-03     113.852E-03    -55.0956E-03     117.046E-03
            1552     11.0726E-03     50.6513E-03    -22.1595E+06    -59.1112E+06    -7.68537E+06    -137.001E+03    -57.6856E-03     112.865E-03    -55.1790E-03     107.592E-03    -58.2579E-03     113.171E-03    -55.0996E-03     106.615E-03
            1553     10.2210E-03     50.5477E-03    -23.0180E+06    -83.4388E+06    -8.13387E+06    -13.3871E+03    -57.4442E-03     112.658E-03    -55.2137E-03     98.7949E-03    -57.8232E-03     112.682E-03    -55.1000E-03     97.9870E-03
            1554     9.36939E-03     50.4525E-03    -24.1988E+06    -100.755E+06    -7.94115E+06    -198.596E+03    -57.1344E-03     112.374E-03    -55.2401E-03     90.6903E-03    -57.3818E-03     112.201E-03    -55.0986E-03     90.0221E-03
            1555     8.51746E-03     50.3657E-03    -25.5090E+06    -113.583E+06    -7.96103E+06    -331.696E+03    -56.8344E-03     112.095E-03    -55.2606E-03     82.7701E-03    -56.9890E-03     111.779E-03    -55.0988E-03     82.2192E-03
            1556     7.66578E-03     50.2863E-03    -27.2395E+06    -124.831E+06    -8.46344E+06    -82.0077E+03    -56.5759E-03     111.853E-03    -55.2773E-03     75.0558E-03    -56.6638E-03     111.426E-03    -55.0991E-03     74.6078E-03
            1557     6.81399E-03     50.2147E-03    -29.4443E+06    -135.554E+06    -8.71585E+06     481.671E+03    -56.3091E-03     111.604E-03    -55.2953E-03     67.2401E-03    -56.3492E-03     111.084E-03    -55.0996E-03     66.8840E-03
            1558     5.96228E-03     50.1509E-03    -32.3908E+06    -143.308E+06    -11.9395E+06     1.05202E+06    -56.0768E-03     111.372E-03    -55.2948E-03     59.2869E-03    -56.0841E-03     110.790E-03    -55.0998E-03     59.0091E-03
            1559     5.11051E-03     50.0953E-03    -35.9890E+06    -146.254E+06    -16.5054E+06     974.708E+03    -55.8384E-03     111.120E-03    -55.2817E-03     51.3021E-03    -55.8294E-03     110.512E-03    -55.0999E-03     51.0851E-03
            1560     4.25872E-03     50.0476E-03    -39.1922E+06    -149.727E+06    -22.1071E+06     228.602E+03    -55.6354E-03     110.900E-03    -55.2649E-03     43.1498E-03    -55.6122E-03     110.271E-03    -55.1015E-03     42.9755E-03
            1561     3.40702E-03     50.0083E-03    -41.5061E+06    -154.632E+06    -29.7097E+06    -313.270E+03    -55.4794E-03     110.719E-03    -55.2393E-03     34.7589E-03    -55.4376E-03     110.067E-03    -55.1035E-03     34.6217E-03
            1562     2.55521E-03     49.9775E-03    -44.2109E+06    -159.436E+06    -37.1416E+06    -176.049E+03    -55.3533E-03     110.568E-03    -55.2142E-03     26.2606E-03    -55.2990E-03     109.898E-03    -55.1047E-03     26.1634E-03
            1563     1.70351E-03     49.9553E-03    -46.8435E+06    -163.669E+06    -43.6069E+06     6.93773E+03    -55.2588E-03     110.451E-03    -55.1925E-03     17.7696E-03    -55.1968E-03     109.769E-03    -55.1053E-03     17.7082E-03
            1564     851.735E-06     49.9415E-03    -48.4723E+06    -166.315E+06    -47.7262E+06    -6.52566E+03    -55.2283E-03     110.381E-03    -55.1528E-03     9.69572E-03    -55.1616E-03     109.690E-03    -55.0800E-03     9.66295E-03
            1565     16.1892E-03     51.0297E-03    -6.04172E+06     162.543E+06     111.632E+06    -470.729E+03    -68.6130E-03     123.864E-03    -55.2512E-03     295.935E-03    -87.4976E-03     142.981E-03    -54.9199E-03     300.490E-03
            1566     15.3332E-03     50.5574E-03     -12.082E+06     149.588E+06     93.1495E+06     165.414E+03    -78.3487E-03     133.571E-03    -55.2228E-03     399.893E-03    -100.500E-03     155.941E-03    -54.9564E-03     398.719E-03
            1567     14.4824E-03     50.2011E-03    -17.3040E+06     107.029E+06     43.3579E+06     891.564E+03    -69.3521E-03     124.470E-03    -55.1178E-03     287.022E-03    -77.8860E-03     133.197E-03    -55.0311E-03     284.207E-03
            1568     13.6279E-03     49.9786E-03    -20.1949E+06     68.7820E+06     134.699E+03     1.60521E+06    -61.2578E-03     116.285E-03    -55.0269E-03     186.239E-03    -64.2119E-03     119.411E-03    -55.0967E-03     184.289E-03
            1569     12.7748E-03     49.8280E-03    -20.7174E+06     21.6829E+06    -12.5660E+06     405.394E+03    -58.6793E-03     113.744E-03    -55.0651E-03     137.122E-03    -60.1292E-03     115.234E-03    -55.1294E-03     135.632E-03
            1570     11.9239E-03     49.7044E-03    -20.8238E+06    -27.8340E+06    -8.31237E+06    -445.570E+03    -58.3735E-03     113.529E-03    -55.1554E-03     117.873E-03    -59.2445E-03     114.251E-03    -55.1264E-03     116.668E-03
            1571     11.0730E-03     49.5925E-03    -21.5279E+06    -58.7156E+06    -7.30451E+06    -98.3563E+03    -58.0107E-03     113.195E-03    -55.1846E-03     107.338E-03    -58.5833E-03     113.504E-03    -55.1047E-03     106.353E-03
            1572     10.2213E-03     49.4893E-03    -22.9376E+06    -83.4808E+06    -8.23201E+06    -159.550E+03    -57.4503E-03     112.655E-03    -55.2049E-03     98.8272E-03    -57.8280E-03     112.679E-03    -55.0917E-03     98.0188E-03
            1573     9.36922E-03     49.3942E-03    -24.1288E+06    -100.617E+06    -7.88952E+06    -339.922E+03    -57.1161E-03     112.348E-03    -55.2318E-03     90.6853E-03    -57.3628E-03     112.175E-03    -55.0904E-03     90.0166E-03
            1574     8.51761E-03     49.3071E-03    -25.8564E+06    -113.808E+06    -8.05527E+06    -373.382E+03    -56.8736E-03     112.124E-03    -55.2505E-03     82.6795E-03    -57.0295E-03     111.808E-03    -55.0882E-03     82.1276E-03
            1575     7.66590E-03     49.2279E-03    -28.0083E+06    -125.230E+06      -8.319E+06    -136.525E+03    -56.5874E-03     111.852E-03    -55.2646E-03     74.9618E-03    -56.6786E-03     111.423E-03    -55.0840E-03     74.5132E-03
            1576     6.81414E-03     49.1563E-03    -30.4707E+06    -136.396E+06    -9.17317E+06     259.055E+03    -56.3082E-03     111.585E-03    -55.2772E-03     67.1851E-03    -56.3513E-03     111.063E-03    -55.0811E-03     66.8263E-03
            1577     5.96234E-03     49.0926E-03    -32.8354E+06    -143.757E+06    -12.2276E+06     822.023E+03    -56.0661E-03     111.340E-03    -55.2738E-03     59.2251E-03    -56.0744E-03     110.757E-03    -55.0789E-03     58.9449E-03
            1578     5.11059E-03     49.0370E-03    -34.9656E+06    -145.103E+06    -15.3101E+06     637.771E+03    -55.8460E-03     111.106E-03    -55.2599E-03     51.2058E-03    -55.8352E-03     110.500E-03    -55.0754E-03     50.9844E-03
            1579     4.25891E-03     48.9893E-03    -37.7377E+06    -148.833E+06    -21.6834E+06    -79.3129E+03    -55.6316E-03     110.866E-03    -55.2340E-03     43.0667E-03    -55.6030E-03     110.238E-03    -55.0719E-03     42.8887E-03
            1580     3.40706E-03     48.9501E-03    -41.5268E+06    -154.978E+06    -30.3593E+06     2.28510E+03    -55.4540E-03     110.658E-03    -55.2039E-03     34.7059E-03    -55.4108E-03     110.005E-03    -55.0707E-03     34.5732E-03
            1581     2.55536E-03     48.9193E-03    -44.7494E+06    -159.682E+06    -37.3007E+06     302.201E+03    -55.3246E-03     110.504E-03    -55.1795E-03     26.2358E-03    -55.2724E-03     109.834E-03    -55.0696E-03     26.1451E-03
            1582     1.70357E-03     48.8971E-03    -46.8218E+06    -163.584E+06    -43.4758E+06     336.558E+03    -55.2285E-03     110.383E-03    -55.1544E-03     17.7531E-03    -55.1667E-03     109.700E-03    -55.0667E-03     17.6961E-03
            1583     851.782E-06     48.8834E-03    -48.1764E+06    -166.021E+06    -47.3008E+06     303.882E+03    -55.1557E-03     110.301E-03    -55.1454E-03     9.69825E-03    -55.0886E-03     109.611E-03    -55.0713E-03     9.66971E-03
            1584     16.1813E-03     49.9651E-03    -5.77779E+06     162.471E+06     111.555E+06    -241.491E+03    -67.3848E-03     122.776E-03    -55.3908E-03     298.472E-03    -86.4551E-03     142.079E-03    -55.0602E-03     303.266E-03
            1585     15.3327E-03     49.5004E-03    -12.8492E+06     148.154E+06     91.6955E+06     658.776E+03    -79.0754E-03     134.449E-03    -55.3732E-03     398.721E-03    -101.204E-03     156.791E-03    -55.1109E-03     397.460E-03
            1586     14.4767E-03     49.1414E-03    -17.9551E+06     107.700E+06     45.1327E+06     1.09873E+06    -70.2930E-03     125.524E-03    -55.2312E-03     286.058E-03    -78.8058E-03     134.225E-03    -55.1357E-03     283.172E-03
            1587     13.6270E-03     48.9195E-03    -19.7173E+06     69.8030E+06     2.67805E+06    -177.070E+03    -62.0805E-03     117.167E-03    -55.0861E-03     185.302E-03    -65.0593E-03     120.315E-03    -55.1454E-03     183.286E-03
            1588     12.7764E-03     48.7699E-03    -19.0550E+06     21.2370E+06    -12.1520E+06    -430.776E+03    -59.0127E-03     114.087E-03    -55.0743E-03     136.451E-03    -60.4530E-03     115.570E-03    -55.1382E-03     134.941E-03
            1589     11.9241E-03     48.6450E-03    -19.3737E+06    -27.9140E+06    -7.44217E+06     423.534E+03    -58.2932E-03     113.450E-03    -55.1570E-03     117.617E-03    -59.1537E-03     114.164E-03    -55.1256E-03     116.427E-03
            1590     11.0725E-03     48.5333E-03    -21.2145E+06    -58.9095E+06    -7.03019E+06     295.086E+03    -57.9854E-03     113.173E-03    -55.1877E-03     106.858E-03    -58.5563E-03     113.480E-03    -55.1067E-03     105.877E-03
            1591     10.2210E-03     48.4311E-03    -22.5836E+06    -83.1683E+06    -7.57660E+06     28.3447E+03    -57.5757E-03     112.779E-03    -55.2031E-03     98.5139E-03    -57.9530E-03     112.803E-03    -55.0876E-03     97.7056E-03
            1592     9.36951E-03     48.3356E-03    -24.3933E+06    -100.233E+06    -7.59371E+06    -186.208E+03    -57.1691E-03     112.388E-03    -55.2194E-03     90.5229E-03    -57.4182E-03     112.217E-03    -55.0767E-03     89.8552E-03
            1593     8.51779E-03     48.2488E-03    -26.2774E+06    -114.287E+06    -8.13367E+06    -220.072E+03    -56.8501E-03     112.084E-03    -55.2342E-03     82.6023E-03    -57.0069E-03     111.766E-03    -55.0711E-03     82.0532E-03
            1594     7.66599E-03     48.1695E-03    -28.4768E+06    -125.610E+06    -8.55187E+06     120.965E+03    -56.5933E-03     111.839E-03    -55.2460E-03     74.8867E-03    -56.6858E-03     111.410E-03    -55.0653E-03     74.4417E-03
            1595     6.81430E-03     48.0981E-03    -31.2917E+06    -136.786E+06    -9.63060E+06     381.269E+03    -56.3260E-03     111.579E-03    -55.2535E-03     67.0788E-03    -56.3719E-03     111.057E-03    -55.0579E-03     66.7216E-03
            1596     5.96256E-03     48.0344E-03    -34.0017E+06    -143.267E+06    -14.0847E+06    -138.941E+03    -56.0648E-03     111.302E-03    -55.2370E-03     59.1702E-03    -56.0768E-03     110.725E-03    -55.0504E-03     58.8781E-03
            1597     5.11085E-03     47.9787E-03    -36.2554E+06    -144.765E+06    -17.8901E+06    -666.248E+03    -55.8181E-03     111.035E-03    -55.2168E-03     51.1793E-03    -55.8104E-03     110.436E-03    -55.0438E-03     50.9420E-03
            1598     4.25900E-03     47.9312E-03    -39.1245E+06    -149.505E+06    -22.5533E+06     180.764E+03    -55.6091E-03     110.808E-03    -55.1987E-03     43.0012E-03    -55.5851E-03     110.180E-03    -55.0379E-03     42.8269E-03
            1599     3.40728E-03     47.8919E-03    -42.1961E+06    -154.790E+06    -30.2079E+06     557.834E+03    -55.4210E-03     110.589E-03    -55.1685E-03     34.6418E-03    -55.3816E-03     109.938E-03    -55.0339E-03     34.5167E-03
            1600     2.55538E-03     47.8612E-03    -44.7814E+06    -159.645E+06    -37.3022E+06     215.184E+03    -55.2765E-03     110.420E-03    -55.1434E-03     26.2046E-03    -55.2245E-03     109.750E-03    -55.0335E-03     26.1130E-03
            1601     1.70360E-03     47.8390E-03    -46.7592E+06    -163.397E+06    -43.2029E+06     215.784E+03    -55.1969E-03     110.317E-03    -55.1201E-03     17.7255E-03    -55.1355E-03     109.635E-03    -55.0314E-03     17.6671E-03
            1602     851.833E-06     47.8254E-03    -47.7934E+06    -165.599E+06    -46.8257E+06     91.3260E+03    -55.1377E-03     110.230E-03    -55.0922E-03     9.62762E-03    -55.0699E-03     109.541E-03    -55.0169E-03     9.59635E-03
            1603     16.1819E-03     48.9065E-03    -6.68105E+06     162.315E+06     111.075E+06     278.583E+03    -66.7768E-03     122.242E-03    -55.4656E-03     299.960E-03    -85.8210E-03     141.517E-03    -55.1359E-03     304.809E-03
            1604     15.3272E-03     48.4370E-03    -13.2903E+06     147.141E+06     92.0091E+06     406.147E+03    -79.6250E-03     135.056E-03    -55.4309E-03     393.697E-03    -101.479E-03     157.118E-03    -55.1649E-03     392.340E-03
            1605     14.4807E-03     48.0844E-03    -16.3259E+06     108.112E+06     45.3344E+06    -248.434E+03    -70.5544E-03     125.778E-03    -55.2232E-03     282.451E-03    -78.9588E-03     134.376E-03    -55.1296E-03     279.544E-03
            1606     13.6273E-03     47.8589E-03    -17.1958E+06     69.8035E+06     2.32940E+06    -656.930E+03    -61.9746E-03     117.025E-03    -55.0501E-03     184.063E-03    -64.9238E-03     120.154E-03    -55.1147E-03     182.043E-03
            1607     12.7756E-03     47.7112E-03    -18.9958E+06     20.9206E+06    -12.2085E+06     183.907E+03    -58.9375E-03     113.981E-03    -55.0430E-03     135.717E-03    -60.3685E-03     115.454E-03    -55.1068E-03     134.220E-03
            1608     11.9245E-03     47.5861E-03    -20.7138E+06    -28.3479E+06    -8.25369E+06     511.176E+03    -58.1598E-03     113.287E-03    -55.1272E-03     117.482E-03    -59.0233E-03     114.000E-03    -55.0973E-03     116.298E-03
            1609     11.0728E-03     47.4748E-03    -21.4906E+06    -59.0070E+06    -7.12294E+06     549.585E+03    -57.8359E-03     113.003E-03    -55.1666E-03     106.335E-03    -58.4045E-03     113.306E-03    -55.0855E-03     105.362E-03
            1610     10.2214E-03     47.3718E-03    -22.6738E+06    -82.6933E+06    -7.59839E+06     300.997E+03    -57.5309E-03     112.716E-03    -55.1851E-03     98.0560E-03    -57.9088E-03     112.742E-03    -55.0703E-03     97.2509E-03
            1611     9.36979E-03     47.2775E-03    -24.1062E+06    -100.193E+06    -7.48832E+06     17.9669E+03    -57.1662E-03     112.368E-03    -55.2014E-03     90.4248E-03    -57.4141E-03     112.196E-03    -55.0586E-03     89.7596E-03
            1612     8.51783E-03     47.1903E-03    -25.9232E+06    -114.230E+06    -8.06612E+06     125.039E+03    -56.8724E-03     112.085E-03    -55.2129E-03     82.5646E-03    -57.0274E-03     111.766E-03    -55.0500E-03     82.0200E-03
            1613     7.66625E-03     47.1112E-03    -27.9642E+06    -126.207E+06    -9.29778E+06     231.874E+03    -56.6014E-03     111.819E-03    -55.2173E-03     74.7495E-03    -56.6891E-03     111.386E-03    -55.0402E-03     74.3062E-03
            1614     6.81445E-03     47.0397E-03    -29.9063E+06    -136.614E+06    -9.92121E+06     390.061E+03    -56.3340E-03     111.555E-03    -55.2206E-03     66.9832E-03    -56.3726E-03     111.031E-03    -55.0288E-03     66.6266E-03
            1615     5.96279E-03     46.9761E-03    -32.4666E+06    -142.180E+06    -13.4694E+06    -61.0423E+03    -56.0630E-03     111.266E-03    -55.2030E-03     59.0796E-03    -56.0696E-03     110.692E-03    -55.0171E-03     58.7889E-03
            1616     5.11090E-03     46.9205E-03    -36.3651E+06    -145.254E+06    -18.1957E+06    -195.650E+03    -55.8005E-03     110.979E-03    -55.1790E-03     51.0871E-03    -55.7920E-03     110.379E-03    -55.0066E-03     50.8563E-03
            1617     4.25919E-03     46.8729E-03    -39.9836E+06    -150.182E+06    -22.7605E+06    -232.044E+03    -55.5753E-03     110.735E-03    -55.1597E-03     42.8878E-03    -55.5542E-03     110.105E-03    -54.9978E-03     42.7083E-03
            1618     3.40734E-03     46.8339E-03    -42.4656E+06    -154.659E+06    -29.9216E+06    -175.489E+03    -55.3859E-03     110.513E-03    -55.1273E-03     34.5559E-03    -55.3484E-03     109.863E-03    -54.9911E-03     34.4214E-03
            1619     2.55556E-03     46.8032E-03    -44.7111E+06    -159.568E+06    -37.2553E+06     49.0191E+03    -55.2468E-03     110.343E-03    -55.0961E-03     26.1349E-03    -55.1946E-03     109.674E-03    -54.9862E-03     26.0413E-03
            1620     1.70369E-03     46.7810E-03    -46.6210E+06    -163.265E+06    -43.0713E+06    -106.704E+03    -55.1463E-03     110.216E-03    -55.0700E-03     17.6617E-03    -55.0845E-03     109.534E-03    -54.9810E-03     17.5993E-03
            1621     851.846E-06     46.7674E-03    -47.8969E+06    -165.612E+06    -46.8430E+06    -192.554E+03    -55.0979E-03     110.128E-03    -55.0304E-03     9.57501E-03    -55.0306E-03     109.439E-03    -54.9550E-03     9.54004E-03
            1622     16.1811E-03     47.8475E-03    -5.31628E+06     162.870E+06     111.867E+06     1.10400E+06    -67.7167E-03     123.069E-03    -55.3524E-03     298.684E-03    -86.6817E-03     142.269E-03    -55.0215E-03     303.521E-03
            1623     15.3349E-03     47.3778E-03    -10.3111E+06     148.916E+06     94.3300E+06     265.846E+03    -78.4002E-03     133.724E-03    -55.3234E-03     393.656E-03    -100.250E-03     155.792E-03    -55.0527E-03     392.569E-03
            1624     14.4800E-03     47.0254E-03    -14.4837E+06     107.990E+06     44.4870E+06    -241.111E+03    -70.3668E-03     125.504E-03    -55.1367E-03     282.364E-03    -78.7662E-03     134.106E-03    -55.0499E-03     279.457E-03
            1625     13.6293E-03     46.8013E-03    -18.0278E+06     69.7245E+06    -94.2138E+03     709.751E+03    -61.7597E-03     116.726E-03    -54.9665E-03     184.127E-03    -64.7081E-03     119.858E-03    -55.0420E-03     182.133E-03
            1626     12.7772E-03     46.6523E-03    -19.9712E+06     20.5554E+06    -13.0367E+06     640.312E+03    -58.5412E-03     113.525E-03    -54.9839E-03     135.535E-03    -59.9668E-03     114.991E-03    -55.0499E-03     134.060E-03
            1627     11.9250E-03     46.5278E-03    -20.5735E+06    -28.7973E+06    -8.35399E+06     391.101E+03    -58.0933E-03     113.175E-03    -55.0817E-03     117.340E-03    -58.9546E-03     113.885E-03    -55.0518E-03     116.157E-03
            1628     11.0735E-03     46.4158E-03    -21.4203E+06    -58.8781E+06    -7.32867E+06     500.554E+03    -57.6473E-03     112.773E-03    -55.1258E-03     106.205E-03    -58.2130E-03     113.075E-03    -55.0461E-03     105.236E-03
            1629     10.2217E-03     46.3138E-03    -22.4654E+06    -82.3630E+06    -7.90008E+06     327.156E+03    -57.3142E-03     112.471E-03    -55.1570E-03     98.0801E-03    -57.6899E-03     112.498E-03    -55.0445E-03     97.2795E-03
            1630     9.36957E-03     46.2189E-03    -23.8008E+06    -100.177E+06    -7.69306E+06     117.324E+03    -57.2022E-03     112.382E-03    -55.1795E-03     90.3744E-03    -57.4484E-03     112.210E-03    -55.0382E-03     89.7097E-03
            1631     8.51829E-03     46.1319E-03    -25.3200E+06    -114.465E+06    -8.21932E+06     233.373E+03    -56.9436E-03     112.127E-03    -55.1833E-03     82.3369E-03    -57.0949E-03     111.806E-03    -55.0217E-03     81.7929E-03
            1632     7.66641E-03     46.0529E-03    -27.1014E+06    -125.981E+06    -8.91229E+06     223.329E+03    -56.5974E-03     111.780E-03    -55.1822E-03     74.5965E-03    -56.6813E-03     111.346E-03    -55.0047E-03     74.1537E-03
            1633     6.81478E-03     45.9814E-03    -28.9789E+06    -136.270E+06    -9.36404E+06    -356.736E+03    -56.3222E-03     111.505E-03    -55.1824E-03     66.8408E-03    -56.3572E-03     110.980E-03    -54.9896E-03     66.4748E-03
            1634     5.96291E-03     45.9179E-03    -31.1760E+06    -142.851E+06    -11.5193E+06     316.225E+03    -56.0613E-03     111.229E-03    -55.1676E-03     58.8820E-03    -56.0632E-03     110.646E-03    -54.9729E-03     58.5960E-03
            1635     5.11131E-03     45.8623E-03    -34.0964E+06    -144.836E+06    -14.9785E+06     848.535E+03    -55.7821E-03     110.923E-03    -55.1413E-03     50.8932E-03    -55.7674E-03     110.317E-03    -54.9567E-03     50.6758E-03
            1636     4.25941E-03     45.8150E-03    -37.7961E+06    -149.446E+06    -22.1551E+06     68.8621E+03    -55.5305E-03     110.636E-03    -55.1059E-03     42.7526E-03    -55.5003E-03     110.006E-03    -54.9452E-03     42.5774E-03
            1637     3.40757E-03     45.7759E-03    -41.6637E+06    -155.178E+06    -30.4664E+06    -219.089E+03    -55.3481E-03     110.418E-03    -55.0697E-03     34.4564E-03    -55.3050E-03     109.764E-03    -54.9366E-03     34.3216E-03
            1638     2.55567E-03     45.7452E-03    -44.6687E+06    -159.454E+06    -37.0398E+06    -188.202E+03    -55.2010E-03     110.240E-03    -55.0386E-03     26.0701E-03    -55.1490E-03     109.570E-03    -54.9278E-03     25.9737E-03
            1639     1.70384E-03     45.7231E-03    -46.7229E+06    -163.421E+06    -43.3621E+06    -190.516E+03    -55.0770E-03     110.088E-03    -55.0110E-03     17.6355E-03    -55.0150E-03     109.406E-03    -54.9231E-03     17.5722E-03
            1640     851.915E-06     45.7096E-03    -48.0686E+06    -165.830E+06    -47.2280E+06    -126.910E+03    -55.0265E-03     110.017E-03    -54.9903E-03     9.58577E-03    -54.9591E-03     109.327E-03    -54.9163E-03     9.55194E-03
            1641     16.1943E-03     46.7999E-03    -5.27451E+06     162.909E+06     112.137E+06     177.965E+03    -69.0011E-03     124.249E-03    -55.2479E-03     298.112E-03    -88.1832E-03     143.666E-03    -54.9158E-03     302.840E-03
            1642     15.3308E-03     46.3197E-03    -10.1602E+06     149.947E+06     93.9527E+06    -4.33966E+03    -77.8184E-03     133.044E-03    -55.2259E-03     399.147E-03    -100.130E-03     155.579E-03    -54.9588E-03     398.208E-03
            1643     14.4814E-03     45.9650E-03    -16.2148E+06     107.206E+06     44.8398E+06     703.615E+03    -70.3532E-03     125.442E-03    -55.0886E-03     282.800E-03    -78.7643E-03     134.046E-03    -54.9963E-03     279.889E-03
            1644     13.6298E-03     45.7431E-03    -19.3851E+06     69.5308E+06     1.01262E+06     821.072E+03    -61.7503E-03     116.670E-03    -54.9195E-03     183.542E-03    -64.6986E-03     119.793E-03    -54.9871E-03     181.554E-03
            1645     12.7773E-03     45.5946E-03    -19.7068E+06     21.1600E+06    -13.2154E+06     536.433E+03    -58.4439E-03     113.370E-03    -54.9258E-03     136.252E-03    -59.8736E-03     114.843E-03    -54.9940E-03     134.778E-03
            1646     11.9257E-03     45.4687E-03    -20.1873E+06    -28.2064E+06    -8.04085E+06     410.073E+03    -57.8582E-03     112.895E-03    -55.0364E-03     117.548E-03    -58.7157E-03     113.604E-03    -55.0064E-03     116.372E-03
            1647     11.0739E-03     45.3578E-03    -21.0674E+06    -58.9244E+06    -7.20284E+06     177.724E+03    -57.4340E-03     112.529E-03    -55.0953E-03     106.320E-03    -57.9968E-03     112.829E-03    -55.0154E-03     105.352E-03
            1648     10.2216E-03     45.2557E-03    -21.9040E+06    -82.2830E+06    -7.61004E+06     203.176E+03    -57.3883E-03     112.519E-03    -55.1304E-03     98.2319E-03    -57.7619E-03     112.544E-03    -55.0174E-03     97.4290E-03
            1649     9.37028E-03     45.1601E-03    -23.2963E+06    -100.099E+06    -7.16279E+06     417.110E+03    -57.2496E-03     112.396E-03    -55.1462E-03     90.1271E-03    -57.4936E-03     112.223E-03    -55.0031E-03     89.4657E-03
            1650     8.51841E-03     45.0736E-03    -25.2939E+06    -114.507E+06    -7.73806E+06     348.308E+03    -56.9094E-03     112.055E-03    -55.1457E-03     82.0932E-03    -57.0605E-03     111.732E-03    -54.9816E-03     81.5516E-03
            1651     7.66691E-03     44.9945E-03    -27.3086E+06    -125.331E+06    -8.28076E+06    -1.65089E+03    -56.6090E-03     111.749E-03    -55.1401E-03     74.4563E-03    -56.6956E-03     111.318E-03    -54.9602E-03     74.0107E-03
            1652     6.81504E-03     44.9233E-03    -30.2719E+06    -136.212E+06    -9.02420E+06     69.8596E+03    -56.3108E-03     111.445E-03    -55.1344E-03     66.6837E-03    -56.3526E-03     110.922E-03    -54.9381E-03     66.3239E-03
            1653     5.96345E-03     44.8597E-03    -33.7050E+06    -143.430E+06    -12.2531E+06    -228.648E+03    -56.0139E-03     111.126E-03    -55.1121E-03     58.7706E-03    -56.0261E-03     110.545E-03    -54.9165E-03     58.4788E-03
            1654     5.11152E-03     44.8044E-03    -36.0054E+06    -144.915E+06    -15.4100E+06    -256.256E+03    -55.7219E-03     110.805E-03    -55.0831E-03     50.8002E-03    -55.7157E-03     110.201E-03    -54.8978E-03     50.5696E-03
            1655     4.25967E-03     44.7570E-03    -38.3183E+06    -149.228E+06    -21.8058E+06     432.479E+03    -55.4862E-03     110.532E-03    -55.0459E-03     42.6437E-03    -55.4594E-03     109.903E-03    -54.8830E-03     42.4738E-03
            1656     3.40777E-03     44.7180E-03    -41.2242E+06    -154.893E+06    -30.1342E+06     377.599E+03    -55.2891E-03     110.294E-03    -55.0049E-03     34.3558E-03    -55.2446E-03     109.641E-03    -54.8712E-03     34.2291E-03
            1657     2.55588E-03     44.6874E-03    -44.1358E+06    -159.437E+06    -37.1997E+06     116.025E+03    -55.1185E-03     110.093E-03    -54.9744E-03     25.9942E-03    -55.0635E-03     109.423E-03    -54.8652E-03     25.9022E-03
            1658     1.70387E-03     44.6654E-03    -46.5673E+06    -163.469E+06    -43.6235E+06     138.529E+03    -55.0104E-03     109.964E-03    -54.9533E-03     17.5858E-03    -54.9472E-03     109.281E-03    -54.8668E-03     17.5270E-03
            1659     851.898E-06     44.6518E-03    -48.1355E+06    -165.858E+06    -47.3561E+06     186.346E+03    -55.0004E-03     109.909E-03    -54.9088E-03     9.58961E-03    -54.9332E-03     109.220E-03    -54.8353E-03     9.56019E-03
            1660     16.1808E-03     45.7388E-03    -6.19156E+06     162.020E+06     111.275E+06    -765.633E+03    -69.2687E-03     124.544E-03    -55.2748E-03     295.635E-03    -88.3147E-03     143.820E-03    -54.9444E-03     299.999E-03
            1661     15.3357E-03     45.2640E-03    -12.5694E+06     148.544E+06     92.8446E+06    -187.506E+03    -79.4492E-03     134.649E-03    -55.1994E-03     399.177E-03    -101.730E-03     157.143E-03    -54.9324E-03     397.800E-03
            1662     14.4817E-03     44.9046E-03    -17.3159E+06     106.580E+06     44.6564E+06     576.407E+03    -69.6977E-03     124.736E-03    -55.0382E-03     283.078E-03    -78.1099E-03     133.335E-03    -54.9443E-03     280.231E-03
            1663     13.6303E-03     44.6855E-03    -19.3143E+06     70.0434E+06     1.63170E+06     385.494E+03    -61.4847E-03     116.382E-03    -54.8973E-03     183.809E-03    -64.4280E-03     119.501E-03    -54.9627E-03     181.833E-03
            1664     12.7784E-03     44.5362E-03    -20.4352E+06     22.1468E+06    -12.9750E+06     353.785E+03    -58.6233E-03     113.528E-03    -54.9045E-03     136.841E-03    -60.0676E-03     115.016E-03    -54.9719E-03     135.357E-03
            1665     11.9263E-03     44.4107E-03    -20.9047E+06    -28.2333E+06    -8.46372E+06    -78.3003E+03    -57.7027E-03     112.716E-03    -55.0130E-03     117.872E-03    -58.5612E-03     113.424E-03    -54.9841E-03     116.696E-03
            1666     11.0735E-03     44.3003E-03    -21.3148E+06    -58.5921E+06    -7.07100E+06    -198.395E+03    -57.5602E-03     112.634E-03    -55.0739E-03     106.604E-03    -58.1252E-03     112.936E-03    -54.9934E-03     105.630E-03
            1667     10.2224E-03     44.1965E-03    -22.5445E+06    -82.4793E+06    -7.74006E+06     46.4727E+03    -57.5690E-03     112.664E-03    -55.0946E-03     98.1750E-03    -57.9456E-03     112.690E-03    -54.9810E-03     97.3676E-03
            1668     9.37061E-03     44.1021E-03    -23.9491E+06    -100.591E+06    -7.24620E+06     492.339E+03    -57.2092E-03     112.310E-03    -55.1012E-03     89.9755E-03    -57.4545E-03     112.135E-03    -54.9568E-03     89.3173E-03
            1669     8.51899E-03     44.0151E-03    -25.4420E+06    -113.855E+06    -7.45860E+06     508.013E+03    -56.8770E-03     111.975E-03    -55.0983E-03     82.0093E-03    -57.0295E-03     111.655E-03    -54.9336E-03     81.4712E-03
            1670     7.66713E-03     43.9364E-03    -27.5757E+06    -125.228E+06    -8.35651E+06     214.030E+03    -56.6165E-03     111.704E-03    -55.0871E-03     74.2977E-03    -56.7040E-03     111.273E-03    -54.9073E-03     73.8557E-03
            1671     6.81560E-03     43.8650E-03    -29.6469E+06    -136.316E+06    -9.29280E+06     209.550E+03    -56.3016E-03     111.374E-03    -55.0724E-03     66.4962E-03    -56.3393E-03     110.849E-03    -54.8782E-03     66.1390E-03
            1672     5.96364E-03     43.8018E-03    -31.8438E+06    -142.602E+06    -11.8241E+06    -109.850E+03    -55.9647E-03     111.011E-03    -55.0461E-03     58.5994E-03    -55.9691E-03     110.430E-03    -54.8522E-03     58.3102E-03
            1673     5.11187E-03     43.7464E-03    -35.4464E+06    -145.362E+06    -16.1620E+06    -629.757E+03    -55.6800E-03     110.692E-03    -55.0119E-03     50.6321E-03    -55.6691E-03     110.086E-03    -54.8305E-03     50.3973E-03
            1674     4.25999E-03     43.6992E-03    -38.7479E+06    -150.109E+06    -22.8256E+06    -375.439E+03    -55.4343E-03     110.405E-03    -54.9710E-03     42.4966E-03    -55.4067E-03     109.773E-03    -54.8113E-03     42.3167E-03
            1675     3.40805E-03     43.6603E-03    -41.2800E+06    -154.853E+06    -30.2607E+06     448.758E+03    -55.2092E-03     110.140E-03    -54.9308E-03     34.2303E-03    -55.1648E-03     109.487E-03    -54.7977E-03     34.1051E-03
            1676     2.55601E-03     43.6298E-03    -43.9842E+06    -159.193E+06    -37.0348E+06     759.451E+03    -55.0434E-03     109.945E-03    -54.9017E-03     25.8973E-03    -54.9882E-03     109.276E-03    -54.7923E-03     25.8140E-03
            1677     1.70401E-03     43.6078E-03    -46.2583E+06    -163.095E+06    -43.1461E+06     598.584E+03    -54.9545E-03     109.831E-03    -54.8762E-03     17.5074E-03    -54.8910E-03     109.149E-03    -54.7884E-03     17.4547E-03
            1678     852.060E-06     43.5942E-03    -47.6691E+06    -165.342E+06    -46.7831E+06     395.104E+03    -54.9252E-03     109.743E-03    -54.8176E-03     9.53429E-03    -54.8572E-03     109.054E-03    -54.7426E-03     9.50770E-03
            1679     16.1873E-03     44.6755E-03    -5.48967E+06     161.988E+06     111.527E+06    -63.9064E+03    -69.0078E-03     124.268E-03    -55.2599E-03     293.650E-03    -87.7860E-03     143.278E-03    -54.9292E-03     298.032E-03
            1680     15.3349E-03     44.2047E-03    -12.0836E+06     147.912E+06     92.6350E+06     308.426E+03    -79.2667E-03     134.447E-03    -55.1801E-03     397.753E-03    -101.318E-03     156.711E-03    -54.9139E-03     396.406E-03
            1681     14.4834E-03     43.8491E-03    -17.8644E+06     106.195E+06     44.3539E+06     444.061E+03    -69.3718E-03     124.407E-03    -55.0350E-03     285.162E-03    -77.8555E-03     133.075E-03    -54.9413E-03     282.344E-03
            1682     13.6289E-03     43.6265E-03    -20.4754E+06     70.1416E+06     898.324E+03     349.576E+03    -61.4409E-03     116.356E-03    -54.9156E-03     185.263E-03    -64.3978E-03     119.487E-03    -54.9831E-03     183.290E-03
            1683     12.7778E-03     43.4770E-03    -20.2672E+06     22.8224E+06    -12.8692E+06    -223.415E+03    -58.8247E-03     113.750E-03    -54.9257E-03     137.139E-03    -60.2729E-03     115.245E-03    -54.9937E-03     135.641E-03
            1684     11.9255E-03     43.3538E-03    -20.4124E+06    -28.0699E+06    -8.15559E+06    -377.539E+03    -58.1371E-03     113.152E-03    -55.0149E-03     118.013E-03    -58.9992E-03     113.866E-03    -54.9854E-03     116.821E-03
            1685     11.0744E-03     43.2407E-03    -21.6223E+06    -58.5388E+06    -7.29099E+06    -104.847E+03    -57.8708E-03     112.917E-03    -55.0465E-03     106.708E-03    -58.4382E-03     113.221E-03    -54.9667E-03     105.731E-03
            1686     10.2227E-03     43.1386E-03    -23.1613E+06    -82.8612E+06    -8.08384E+06     185.546E+03    -57.5642E-03     112.617E-03    -55.0530E-03     98.0586E-03    -57.9414E-03     112.641E-03    -54.9397E-03     97.2551E-03
            1687     9.37100E-03     43.0433E-03    -24.4189E+06    -100.644E+06    -7.88310E+06     67.8071E+03    -57.2251E-03     112.278E-03    -55.0526E-03     89.8797E-03    -57.4709E-03     112.102E-03    -54.9107E-03     89.2173E-03
            1688     8.51932E-03     42.9572E-03    -25.6564E+06    -114.013E+06    -8.10374E+06     191.229E+03    -56.9293E-03     111.970E-03    -55.0407E-03     81.8535E-03    -57.0812E-03     111.650E-03    -54.8787E-03     81.3117E-03
            1689     7.66776E-03     42.8779E-03    -27.3071E+06    -125.000E+06    -8.48608E+06     464.364E+03    -56.6042E-03     111.626E-03    -55.0219E-03     74.0831E-03    -56.6898E-03     111.196E-03    -54.8435E-03     73.6455E-03
            1690     6.81593E-03     42.8071E-03    -29.8950E+06    -136.030E+06    -9.26162E+06    -17.7272E+03    -56.2671E-03     111.270E-03    -55.0025E-03     66.2423E-03    -56.3060E-03     110.746E-03    -54.8082E-03     65.8830E-03
            1691     5.96426E-03     42.7438E-03    -32.8729E+06    -142.279E+06    -13.2979E+06    -230.013E+03    -55.9327E-03     110.896E-03    -54.9629E-03     58.3667E-03    -55.9403E-03     110.320E-03    -54.7754E-03     58.0765E-03
            1692     5.11231E-03     42.6887E-03    -35.3173E+06    -145.037E+06    -18.2646E+06    -307.592E+03    -55.6153E-03     110.534E-03    -54.9182E-03     50.4384E-03    -55.6009E-03     109.932E-03    -54.7480E-03     50.2087E-03
            1693     4.26034E-03     42.6415E-03    -38.4563E+06    -151.161E+06    -24.5810E+06    -135.273E+03    -55.3555E-03     110.234E-03    -54.8788E-03     42.3262E-03    -55.3222E-03     109.599E-03    -54.7267E-03     42.1501E-03
            1694     3.40831E-03     42.6028E-03    -41.8446E+06    -155.362E+06    -30.9094E+06     414.283E+03    -55.1406E-03     109.982E-03    -54.8412E-03     34.0749E-03    -55.0972E-03     109.328E-03    -54.7098E-03     33.9497E-03
            1695     2.55626E-03     42.5723E-03    -44.2853E+06    -158.812E+06    -36.4237E+06     642.801E+03    -54.9774E-03     109.785E-03    -54.8080E-03     25.7645E-03    -54.9251E-03     109.118E-03    -54.6956E-03     25.6800E-03
            1696     1.70422E-03     42.5503E-03    -46.0092E+06    -162.465E+06    -42.3171E+06     491.350E+03    -54.8570E-03     109.631E-03    -54.7742E-03     17.4307E-03    -54.7943E-03     108.951E-03    -54.6835E-03     17.3770E-03
            1697     852.096E-06     42.5368E-03    -47.1048E+06    -164.693E+06    -45.9687E+06     208.490E+03    -54.8045E-03     109.531E-03    -54.7266E-03     9.48274E-03    -54.7358E-03     108.844E-03    -54.6494E-03     9.45356E-03
            1698     16.1876E-03     43.6189E-03    -5.96741E+06     162.025E+06     111.435E+06    -66.3111E+03    -68.7066E-03     123.974E-03    -55.2676E-03     296.764E-03    -87.7152E-03     143.214E-03    -54.9367E-03     301.409E-03
            1699     15.3340E-03     43.1459E-03    -12.8462E+06     147.779E+06     92.3166E+06     871.494E+03    -78.5300E-03     133.760E-03    -55.2300E-03     399.214E-03    -100.713E-03     156.154E-03    -54.9640E-03     398.098E-03
            1700     14.4797E-03     42.7908E-03    -18.1473E+06     107.144E+06     45.1857E+06     563.354E+03    -70.0945E-03     125.192E-03    -55.0976E-03     285.114E-03    -78.5770E-03     133.859E-03    -55.0007E-03     282.245E-03
            1701     13.6296E-03     42.5678E-03    -19.7524E+06     70.7398E+06     2.06206E+06    -592.418E+03    -61.7369E-03     116.688E-03    -54.9508E-03     184.959E-03    -64.6956E-03     119.821E-03    -55.0144E-03     182.955E-03
            1702     12.7766E-03     42.4190E-03    -19.7439E+06     21.8830E+06    -13.2152E+06    -568.285E+03    -58.9767E-03     113.918E-03    -54.9412E-03     136.632E-03    -60.4167E-03     115.404E-03    -55.0103E-03     135.125E-03
            1703     11.9261E-03     42.2936E-03    -20.5246E+06    -28.3614E+06    -8.65524E+06    -83.1942E+03    -58.5673E-03     113.575E-03    -55.0073E-03     117.464E-03    -59.4326E-03     114.291E-03    -54.9797E-03     116.262E-03
            1704     11.0746E-03     42.1829E-03    -21.9956E+06    -58.9820E+06    -7.78903E+06     117.699E+03    -58.0369E-03     113.051E-03    -55.0144E-03     106.506E-03    -58.6054E-03     113.355E-03    -54.9359E-03     105.527E-03
            1705     10.2230E-03     42.0796E-03    -22.8694E+06    -82.8197E+06    -8.16517E+06     109.368E+03    -57.6155E-03     112.625E-03    -55.0090E-03     97.8403E-03    -57.9898E-03     112.647E-03    -54.8966E-03     97.0366E-03
            1706     9.37152E-03     41.9854E-03    -24.1068E+06    -100.284E+06    -7.93217E+06    -49.8501E+03    -57.3108E-03     112.308E-03    -54.9971E-03     89.6322E-03    -57.5547E-03     112.133E-03    -54.8564E-03     88.9682E-03
            1707     8.51997E-03     41.8985E-03    -25.7311E+06    -114.397E+06    -8.48765E+06    -189.172E+03    -56.9767E-03     111.949E-03    -54.9720E-03     81.5713E-03    -57.1273E-03     111.626E-03    -54.8113E-03     81.0248E-03
            1708     7.66831E-03     41.8202E-03    -27.3626E+06    -125.341E+06    -9.22775E+06     179.442E+03    -56.5897E-03     111.531E-03    -54.9410E-03     73.7834E-03    -56.6733E-03     111.099E-03    -54.7657E-03     73.3431E-03
            1709     6.81657E-03     41.7489E-03    -29.5250E+06    -135.452E+06    -9.30379E+06     535.572E+03    -56.2222E-03     111.138E-03    -54.9160E-03     65.9698E-03    -56.2594E-03     110.617E-03    -54.7233E-03     65.6189E-03
            1710     5.96470E-03     41.6862E-03    -32.3489E+06    -141.781E+06    -13.2833E+06    -115.250E+03    -55.8808E-03     110.751E-03    -54.8702E-03     58.1012E-03    -55.8861E-03     110.177E-03    -54.6842E-03     57.8134E-03
            1711     5.11279E-03     41.6310E-03    -35.8128E+06    -145.646E+06    -19.0987E+06    -17.6853E+03    -55.5459E-03     110.364E-03    -54.8183E-03     50.2114E-03    -55.5316E-03     109.761E-03    -54.6506E-03     49.9864E-03
            1712     4.26076E-03     41.5841E-03    -39.1667E+06    -151.437E+06    -24.6221E+06     574.900E+03    -55.2791E-03     110.055E-03    -54.7762E-03     42.0992E-03    -55.2487E-03     109.420E-03    -54.6229E-03     41.9330E-03
            1713     3.40868E-03     41.5453E-03    -41.9082E+06    -155.159E+06    -30.5066E+06     242.241E+03    -55.0672E-03     109.797E-03    -54.7301E-03     33.8782E-03    -55.0249E-03     109.144E-03    -54.5969E-03     33.7511E-03
            1714     2.55663E-03     41.5150E-03    -44.2162E+06    -158.637E+06    -36.1810E+06    -108.318E+03    -54.8742E-03     109.561E-03    -54.6868E-03     25.6220E-03    -54.8221E-03     108.894E-03    -54.5735E-03     25.5281E-03
            1715     1.70441E-03     41.4931E-03    -45.9215E+06    -162.218E+06    -42.0956E+06    -144.141E+03    -54.7226E-03     109.374E-03    -54.6517E-03     17.3428E-03    -54.6601E-03     108.695E-03    -54.5604E-03     17.2811E-03
            1716     852.208E-06     41.4797E-03    -46.9340E+06    -164.512E+06    -45.9029E+06    -147.713E+03    -54.6502E-03     109.290E-03    -54.6398E-03     9.48258E-03    -54.5810E-03     108.604E-03    -54.5627E-03     9.44902E-03
            1717     16.1832E-03     42.5560E-03    -6.99440E+06     161.314E+06     110.590E+06     362.177E+03    -67.8731E-03     123.245E-03    -55.3722E-03     297.660E-03    -86.9310E-03     142.530E-03    -55.0430E-03     302.380E-03
            1718     15.3311E-03     42.0891E-03    -13.0908E+06     147.462E+06     92.4983E+06     563.486E+03    -79.6662E-03     134.986E-03    -55.3200E-03     397.405E-03    -101.778E-03     157.307E-03    -55.0523E-03     396.120E-03
            1719     14.4815E-03     41.7293E-03    -15.5269E+06     108.818E+06     46.8565E+06    -358.335E+03    -70.6466E-03     125.776E-03    -55.1297E-03     283.740E-03    -79.1114E-03     134.436E-03    -55.0307E-03     280.803E-03
            1720     13.6288E-03     41.5109E-03    -17.1618E+06     71.2516E+06     3.04469E+06    -344.786E+03    -62.0988E-03     117.045E-03    -54.9459E-03     183.898E-03    -65.0504E-03     120.179E-03    -55.0091E-03     181.879E-03
            1721     12.7780E-03     41.3589E-03    -19.7141E+06     20.9679E+06    -13.4001E+06     279.476E+03    -59.1247E-03     114.040E-03    -54.9149E-03     136.454E-03    -60.5623E-03     115.520E-03    -54.9837E-03     134.954E-03
            1722     11.9261E-03     41.2354E-03    -21.1442E+06    -28.9990E+06    -9.25949E+06     241.954E+03    -58.4936E-03     113.468E-03    -54.9741E-03     117.153E-03    -59.3575E-03     114.181E-03    -54.9477E-03     115.958E-03
            1723     11.0749E-03     41.1234E-03    -21.7563E+06    -59.0644E+06    -7.84318E+06     71.6566E+03    -58.1781E-03     113.153E-03    -54.9748E-03     105.981E-03    -58.7447E-03     113.455E-03    -54.8968E-03     104.999E-03
            1724     10.2238E-03     41.0217E-03    -22.8353E+06    -82.6012E+06    -8.11432E+06    -38.9363E+03    -57.7599E-03     112.712E-03    -54.9524E-03     97.3918E-03    -58.1337E-03     112.735E-03    -54.8401E-03     96.5843E-03
            1725     9.37212E-03     40.9266E-03    -24.0931E+06    -100.267E+06    -7.98350E+06    -157.892E+03    -57.3675E-03     112.292E-03    -54.9244E-03     89.3131E-03    -57.6104E-03     112.116E-03    -54.7840E-03     88.6479E-03
            1726     8.52068E-03     40.8406E-03    -25.4168E+06    -114.158E+06    -8.31620E+06    -331.616E+03    -56.9823E-03     111.870E-03    -54.8878E-03     81.1922E-03    -57.1310E-03     111.547E-03    -54.7270E-03     80.6447E-03
            1727     7.66902E-03     40.7619E-03    -27.1059E+06    -126.422E+06    -9.59439E+06    -74.7128E+03    -56.5714E-03     111.417E-03    -54.8459E-03     73.4120E-03    -56.6509E-03     110.980E-03    -54.6713E-03     72.9695E-03
            1728     6.81728E-03     40.6914E-03    -28.8971E+06    -135.143E+06    -10.9663E+06     306.578E+03    -56.1645E-03     110.968E-03    -54.8039E-03     65.6569E-03    -56.1960E-03     110.449E-03    -54.6208E-03     65.3045E-03
            1729     5.96538E-03     40.6284E-03    -31.5407E+06    -141.687E+06    -13.1919E+06     766.250E+03    -55.8075E-03     110.568E-03    -54.7609E-03     57.7949E-03    -55.8087E-03     109.993E-03    -54.5756E-03     57.5196E-03
            1730     5.11340E-03     40.5737E-03    -35.3153E+06    -146.256E+06    -16.6966E+06     1.22980E+06    -55.4902E-03     110.203E-03    -54.7132E-03     49.8884E-03    -55.4757E-03     109.593E-03    -54.5334E-03     49.6798E-03
            1731     4.26131E-03     40.5267E-03    -38.9509E+06    -150.349E+06    -23.1045E+06     544.011E+03    -55.1959E-03     109.849E-03    -54.6534E-03     41.8646E-03    -55.1679E-03     109.216E-03    -54.4945E-03     41.6988E-03
            1732     3.40923E-03     40.4882E-03    -41.6333E+06    -154.730E+06    -29.9792E+06    -322.710E+03    -54.9406E-03     109.537E-03    -54.5964E-03     33.7050E-03    -54.8982E-03     108.884E-03    -54.4616E-03     33.5714E-03
            1733     2.55692E-03     40.4580E-03    -43.9710E+06    -158.653E+06    -36.3629E+06    -538.022E+03    -54.7352E-03     109.284E-03    -54.5490E-03     25.4935E-03    -54.6816E-03     108.617E-03    -54.4370E-03     25.3947E-03
            1734     1.70468E-03     40.4362E-03    -46.0129E+06    -162.618E+06    -42.7875E+06    -477.501E+03    -54.5982E-03     109.107E-03    -54.5089E-03     17.2534E-03    -54.5345E-03     108.427E-03    -54.4203E-03     17.1878E-03
            1735     852.322E-06     40.4228E-03    -47.2911E+06    -164.871E+06    -46.5658E+06    -144.830E+03    -54.4953E-03     108.999E-03    -54.5039E-03     9.42443E-03    -54.4264E-03     108.312E-03    -54.4291E-03     9.39131E-03
            1736     16.1804E-03     41.4939E-03    -5.31325E+06     160.927E+06     110.950E+06     1.24171E+06    -67.7926E-03     123.172E-03    -55.3797E-03     297.408E-03    -86.6505E-03     142.261E-03    -55.0506E-03     302.097E-03
            1737     15.3331E-03     41.0270E-03    -11.1703E+06     147.915E+06     92.6725E+06    -96.7858E+03    -79.5514E-03     134.862E-03    -55.3109E-03     394.384E-03    -101.404E-03     156.931E-03    -55.0458E-03     393.036E-03
            1738     14.4803E-03     40.6721E-03    -15.2789E+06     108.410E+06     44.6450E+06    -926.477E+03    -70.6987E-03     125.793E-03    -55.0944E-03     282.828E-03    -79.1606E-03     134.456E-03    -55.0062E-03     279.866E-03
            1739     13.6299E-03     40.4498E-03    -18.5274E+06     70.1108E+06     677.544E+03     385.980E+03    -62.1906E-03     117.091E-03    -54.9006E-03     183.341E-03    -65.1316E-03     120.213E-03    -54.9721E-03     181.330E-03
            1740     12.7783E-03     40.3015E-03    -19.5676E+06     21.7048E+06    -12.5699E+06     914.281E+03    -59.2093E-03     114.080E-03    -54.8704E-03     136.219E-03    -60.6466E-03     115.561E-03    -54.9364E-03     134.726E-03
            1741     11.9268E-03     40.1759E-03    -20.0711E+06    -28.2702E+06    -8.17308E+06     244.046E+03    -58.5634E-03     113.483E-03    -54.9198E-03     116.941E-03    -59.4219E-03     114.194E-03    -54.8906E-03     115.746E-03
            1742     11.0757E-03     40.0648E-03    -21.0616E+06    -59.0414E+06    -7.42863E+06     71.5256E+03    -58.2030E-03     113.112E-03    -54.9089E-03     105.255E-03    -58.7643E-03     113.410E-03    -54.8299E-03     104.273E-03
            1743     10.2243E-03     39.9627E-03    -22.2303E+06    -82.5219E+06    -7.78861E+06     66.1255E+03    -57.8153E-03     112.690E-03    -54.8746E-03     96.8873E-03    -58.1857E-03     112.711E-03    -54.7616E-03     96.0806E-03
            1744     9.37315E-03     39.8685E-03    -23.6190E+06    -99.8762E+06    -7.46540E+06    -182.372E+03    -57.4034E-03     112.237E-03    -54.8340E-03     88.8927E-03    -57.6442E-03     112.061E-03    -54.6923E-03     88.2277E-03
            1745     8.52152E-03     39.7823E-03    -25.6282E+06    -114.472E+06    -8.22161E+06    -68.7240E+03    -56.9486E-03     111.735E-03    -54.7864E-03     80.7826E-03    -57.0968E-03     111.410E-03    -54.6243E-03     80.2405E-03
            1746     7.66994E-03     39.7042E-03    -27.9304E+06    -126.503E+06    -9.04224E+06    -151.838E+03    -56.5158E-03     111.255E-03    -54.7387E-03     73.0230E-03    -56.5993E-03     110.816E-03    -54.5600E-03     72.5809E-03
            1747     6.81807E-03     39.6337E-03    -30.3295E+06    -135.807E+06    -11.0961E+06    -2.08541E+03    -56.0982E-03     110.785E-03    -54.6863E-03     65.3191E-03    -56.1351E-03     110.264E-03    -54.5009E-03     64.9643E-03
            1748     5.96612E-03     39.5711E-03    -32.8835E+06    -142.722E+06    -13.8840E+06     1.13537E+06    -55.7402E-03     110.371E-03    -54.6310E-03     57.4930E-03    -55.7450E-03     109.793E-03    -54.4458E-03     57.2240E-03
            1749     5.11410E-03     39.5164E-03    -35.3940E+06    -145.337E+06    -15.2617E+06     1.20689E+06    -55.3952E-03     109.974E-03    -54.5791E-03     49.5895E-03    -55.3842E-03     109.366E-03    -54.3933E-03     49.3819E-03
            1750     4.26201E-03     39.4698E-03    -37.9294E+06    -148.899E+06    -21.5640E+06     243.663E+03    -55.0652E-03     109.576E-03    -54.5106E-03     41.6143E-03    -55.0363E-03     108.946E-03    -54.3475E-03     41.4458E-03
            1751     3.40965E-03     39.4314E-03    -40.9158E+06    -154.540E+06    -30.2569E+06    -328.813E+03    -54.7892E-03     109.234E-03    -54.4449E-03     33.5176E-03    -54.7429E-03     108.582E-03    -54.3128E-03     33.3850E-03
            1752     2.55735E-03     39.4013E-03    -43.9235E+06    -158.952E+06    -36.9431E+06    -319.155E+03    -54.5882E-03     108.986E-03    -54.3977E-03     25.3496E-03    -54.5329E-03     108.318E-03    -54.2882E-03     25.2544E-03
            1753     1.70489E-03     39.3796E-03    -46.3550E+06    -162.970E+06    -43.1732E+06    -131.456E+03    -54.4597E-03     108.814E-03    -54.3548E-03     17.1580E-03    -54.3967E-03     108.134E-03    -54.2671E-03     17.0972E-03
            1754     852.515E-06     39.3662E-03    -47.9283E+06    -165.293E+06    -46.8986E+06    -97.4701E+03    -54.3887E-03     108.682E-03    -54.2934E-03     9.33772E-03    -54.3219E-03     107.995E-03    -54.2187E-03     9.30544E-03
            1755     16.1895E-03     40.4395E-03    -5.10771E+06     161.189E+06     111.945E+06     871.065E+03    -69.1014E-03     124.419E-03    -55.3179E-03     298.954E-03    -87.9473E-03     143.495E-03    -54.9845E-03     303.569E-03
            1756     15.3325E-03     39.9686E-03    -10.8274E+06     148.856E+06     92.6554E+06     537.217E+03    -79.1876E-03     134.420E-03    -55.2326E-03     395.141E-03    -100.967E-03     156.421E-03    -54.9694E-03     393.815E-03
            1757     14.4826E-03     39.6121E-03    -16.3990E+06     108.351E+06     43.6805E+06     3.42234E+03    -70.4330E-03     125.467E-03    -55.0341E-03     282.195E-03    -78.8445E-03     134.078E-03    -54.9491E-03     279.269E-03
            1758     13.6305E-03     39.3917E-03    -19.1857E+06     69.7353E+06     413.164E+03     63.3370E+03    -62.1857E-03     117.032E-03    -54.8458E-03     183.236E-03    -65.1178E-03     120.142E-03    -54.9170E-03     181.225E-03
            1759     12.7788E-03     39.2423E-03    -19.6377E+06     21.8891E+06    -12.9285E+06     73.9492E+03    -59.4657E-03     114.265E-03    -54.7997E-03     135.625E-03    -60.9039E-03     115.749E-03    -54.8676E-03     134.110E-03
            1760     11.9282E-03     39.1168E-03    -19.8847E+06    -27.9790E+06    -7.70428E+06     107.737E+03    -58.6198E-03     113.454E-03    -54.8339E-03     116.355E-03    -59.4749E-03     114.161E-03    -54.8030E-03     115.160E-03
            1761     11.0768E-03     39.0062E-03    -20.7261E+06    -58.9963E+06    -6.96992E+06     55.7941E+03    -58.0944E-03     112.911E-03    -54.8166E-03     104.908E-03    -58.6513E-03     113.205E-03    -54.7359E-03     103.931E-03
            1762     10.2255E-03     38.9042E-03    -21.6803E+06    -82.2659E+06    -7.24996E+06    -4.40190E+03    -57.8151E-03     112.592E-03    -54.7771E-03     96.5050E-03    -58.1823E-03     112.612E-03    -54.6627E-03     95.6987E-03
            1763     9.37404E-03     38.8101E-03    -23.3010E+06    -100.050E+06    -6.57573E+06     405.989E+03    -57.3908E-03     112.120E-03    -54.7291E-03     88.4011E-03    -57.6295E-03     111.940E-03    -54.5831E-03     87.7452E-03
            1764     8.52262E-03     38.7244E-03    -25.6584E+06    -114.623E+06    -7.26753E+06     678.565E+03    -56.8936E-03     111.566E-03    -54.6727E-03     80.3709E-03    -57.0417E-03     111.237E-03    -54.5057E-03     79.8408E-03
            1765     7.67082E-03     38.6465E-03    -28.3425E+06    -125.715E+06    -8.00503E+06     283.889E+03    -56.4435E-03     111.060E-03    -54.6165E-03     72.6320E-03    -56.5306E-03     110.623E-03    -54.4332E-03     72.1978E-03
            1766     6.81903E-03     38.5764E-03    -31.3718E+06    -136.811E+06    -9.39474E+06     303.864E+03    -56.0462E-03     110.606E-03    -54.5602E-03     64.9432E-03    -56.0886E-03     110.079E-03    -54.3633E-03     64.5938E-03
            1767     5.96707E-03     38.5139E-03    -33.9404E+06    -142.955E+06    -14.0777E+06     345.030E+03    -55.6495E-03     110.132E-03    -54.4825E-03     57.1772E-03    -55.6583E-03     109.554E-03    -54.2964E-03     56.9000E-03
            1768     5.11497E-03     38.4595E-03    -35.6161E+06    -144.153E+06    -16.9059E+06    -365.375E+03    -55.2540E-03     109.667E-03    -54.4129E-03     49.3323E-03    -55.2429E-03     109.067E-03    -54.2368E-03     49.1065E-03
            1769     4.26262E-03     38.4130E-03    -37.8120E+06    -149.116E+06    -21.9332E+06    -260.007E+03    -54.9140E-03     109.263E-03    -54.3491E-03     41.3497E-03    -54.8833E-03     108.632E-03    -54.1878E-03     41.1759E-03
            1770     3.41029E-03     38.3749E-03    -40.8761E+06    -154.444E+06    -30.1877E+06     427.299E+03    -54.6393E-03     108.921E-03    -54.2819E-03     33.2952E-03    -54.5928E-03     108.269E-03    -54.1496E-03     33.1735E-03
            1771     2.55772E-03     38.3449E-03    -44.1131E+06    -158.938E+06    -36.8653E+06     376.040E+03    -54.4311E-03     108.662E-03    -54.2306E-03     25.1757E-03    -54.3768E-03     107.994E-03    -54.1205E-03     25.0903E-03
            1772     1.70523E-03     38.3233E-03    -46.5479E+06    -162.872E+06    -42.9660E+06     128.123E+03    -54.2874E-03     108.473E-03    -54.1857E-03     17.0353E-03    -54.2257E-03     107.793E-03    -54.0969E-03     16.9785E-03
            1773     852.599E-06     38.3100E-03    -47.9127E+06    -165.395E+06    -47.0574E+06     11.5611E+03    -54.2118E-03     108.341E-03    -54.1289E-03     9.25988E-03    -54.1445E-03     107.653E-03    -54.0549E-03     9.22917E-03
            1774     16.1820E-03     39.3788E-03    -6.89324E+06     160.070E+06     110.652E+06    -254.673E+03    -69.5486E-03     124.840E-03    -55.2916E-03     298.348E-03    -88.4564E-03     143.971E-03    -54.9605E-03     302.891E-03
            1775     15.3355E-03     38.9085E-03    -11.0848E+06     148.839E+06     93.5825E+06     515.249E+03    -79.5405E-03     134.734E-03    -55.1934E-03     395.893E-03    -101.385E-03     156.796E-03    -54.9252E-03     394.535E-03
            1776     14.4827E-03     38.5546E-03    -15.8021E+06     109.103E+06     46.1036E+06     1.02417E+06    -70.5321E-03     125.523E-03    -54.9910E-03     282.654E-03    -78.9314E-03     134.120E-03    -54.8957E-03     279.742E-03
            1777     13.6308E-03     38.3323E-03    -18.7776E+06     70.5214E+06     1.50673E+06     156.012E+03    -62.5623E-03     117.343E-03    -54.7806E-03     183.310E-03    -65.5063E-03     120.466E-03    -54.8481E-03     181.283E-03
            1778     12.7809E-03     38.1826E-03    -19.7040E+06     21.8342E+06    -13.3462E+06    -388.292E+03    -59.5729E-03     114.280E-03    -54.7075E-03     135.195E-03    -61.0093E-03     115.763E-03    -54.7773E-03     133.672E-03
            1779     11.9294E-03     38.0587E-03    -20.4497E+06    -28.1413E+06    -8.08849E+06    -114.595E+03    -58.5188E-03     113.254E-03    -54.7348E-03     116.150E-03    -59.3728E-03     113.959E-03    -54.7048E-03     114.957E-03
            1780     11.0778E-03     37.9476E-03    -21.5925E+06    -58.4982E+06    -7.03666E+06    -58.2297E+03    -58.0961E-03     112.810E-03    -54.7140E-03     104.892E-03    -58.6555E-03     113.106E-03    -54.6331E-03     103.917E-03
            1781     10.2266E-03     37.8458E-03    -23.1330E+06    -82.8138E+06    -7.82149E+06     2.14817E+03    -57.8133E-03     112.478E-03    -54.6648E-03     96.1692E-03    -58.1840E-03     112.495E-03    -54.5502E-03     95.3654E-03
            1782     9.37532E-03     37.7521E-03    -24.6814E+06    -100.753E+06    -6.99880E+06     559.263E+03    -57.3421E-03     111.950E-03    -54.6076E-03     87.9611E-03    -57.5840E-03     111.767E-03    -54.4607E-03     87.3102E-03
            1783     8.52367E-03     37.6666E-03    -26.0507E+06    -114.232E+06    -7.03945E+06     762.108E+03    -56.8373E-03     111.379E-03    -54.5422E-03     79.9292E-03    -56.9867E-03     111.051E-03    -54.3739E-03     79.4028E-03
            1784     7.67199E-03     37.5891E-03    -28.0827E+06    -125.441E+06    -7.91841E+06     898.226E+03    -56.3954E-03     110.869E-03    -54.4736E-03     72.2500E-03    -56.4805E-03     110.432E-03    -54.2906E-03     71.8263E-03
            1785     6.82007E-03     37.5191E-03    -30.8628E+06    -136.577E+06    -8.99236E+06     736.316E+03    -55.9761E-03     110.383E-03    -54.4066E-03     64.5409E-03    -56.0159E-03     109.854E-03    -54.2088E-03     64.1992E-03
            1786     5.96805E-03     37.4571E-03    -33.3513E+06    -141.383E+06    -12.9135E+06    -732.286E+03    -55.5220E-03     109.843E-03    -54.3211E-03     56.8232E-03    -55.5311E-03     109.269E-03    -54.1323E-03     56.5343E-03
            1787     5.11576E-03     37.4028E-03    -35.7538E+06    -144.424E+06    -18.3300E+06    -1.47190E+06    -55.1011E-03     109.338E-03    -54.2369E-03     49.0299E-03    -55.0877E-03     108.738E-03    -54.0673E-03     48.7919E-03
            1788     4.26342E-03     37.3567E-03    -38.6857E+06    -150.860E+06    -24.2973E+06    -260.354E+03    -54.7663E-03     108.933E-03    -54.1665E-03     41.0642E-03    -54.7337E-03     108.298E-03    -54.0131E-03     40.8920E-03
            1789     3.41082E-03     37.3187E-03    -41.7103E+06    -154.469E+06    -29.7808E+06     657.449E+03    -54.4834E-03     108.586E-03    -54.1029E-03     33.0486E-03    -54.4415E-03     107.934E-03    -53.9674E-03     32.9309E-03
            1790     2.55827E-03     37.2889E-03    -44.1875E+06    -158.297E+06    -35.9922E+06     503.172E+03    -54.2557E-03     108.300E-03    -54.0442E-03     24.9858E-03    -54.2038E-03     107.634E-03    -53.9305E-03     24.9028E-03
            1791     1.70553E-03     37.2674E-03    -46.2966E+06    -162.641E+06    -42.9032E+06     250.418E+03    -54.0928E-03     108.085E-03    -53.9923E-03     16.8944E-03    -54.0302E-03     107.405E-03    -53.9039E-03     16.8397E-03
            1792     852.800E-06     37.2542E-03    -47.7618E+06    -165.153E+06    -46.8209E+06     136.018E+03    -53.9861E-03     107.955E-03    -53.9693E-03     9.15204E-03    -53.9188E-03     107.268E-03    -53.8947E-03     9.12315E-03
            1793     16.1888E-03     38.3192E-03    -5.68378E+06     160.084E+06     110.356E+06    -39.3303E+03    -69.3337E-03     124.594E-03    -55.2600E-03     296.783E-03    -88.2076E-03     143.696E-03    -54.9321E-03     301.303E-03
            1794     15.3337E-03     37.8503E-03    -11.8036E+06     147.928E+06     93.2266E+06    -604.346E+03    -79.3442E-03     134.511E-03    -55.1668E-03     395.630E-03    -101.242E-03     156.622E-03    -54.8981E-03     394.312E-03
            1795     14.4827E-03     37.4945E-03    -16.1461E+06     108.758E+06     47.0427E+06     268.754E+03    -71.0853E-03     126.037E-03    -54.9522E-03     282.466E-03    -79.5006E-03     134.645E-03    -54.8512E-03     279.504E-03
            1796     13.6333E-03     37.2730E-03    -18.1889E+06     71.1665E+06     2.65516E+06     778.064E+03    -62.7575E-03     117.470E-03    -54.7130E-03     183.203E-03    -65.7000E-03     120.593E-03    -54.7765E-03     181.174E-03
            1797     12.7812E-03     37.1236E-03    -19.5711E+06     22.0494E+06    -12.9264E+06     449.915E+03    -59.4722E-03     114.102E-03    -54.6298E-03     135.251E-03    -60.9051E-03     115.581E-03    -54.6980E-03     133.744E-03
            1798     11.9302E-03     37.0002E-03    -20.8068E+06    -27.8301E+06    -8.26981E+06     39.2299E+03    -58.6727E-03     113.320E-03    -54.6469E-03     116.046E-03    -59.5269E-03     114.025E-03    -54.6177E-03     114.853E-03
            1799     11.0792E-03     36.8890E-03    -22.2143E+06    -58.5302E+06    -7.40021E+06     115.671E+03    -58.2555E-03     112.862E-03    -54.6066E-03     104.692E-03    -58.8156E-03     113.157E-03    -54.5266E-03     103.719E-03
            1800     10.2279E-03     36.7876E-03    -23.7764E+06    -83.3016E+06    -8.23279E+06     415.126E+03    -57.8160E-03     112.357E-03    -54.5409E-03     95.7068E-03    -58.1859E-03     112.371E-03    -54.4268E-03     94.9113E-03
            1801     9.37646E-03     36.6940E-03    -25.3525E+06    -100.813E+06    -7.85562E+06     325.509E+03    -57.2920E-03     111.762E-03    -54.4697E-03     87.4507E-03    -57.5336E-03     111.578E-03    -54.3261E-03     86.8003E-03
            1802     8.52495E-03     36.6092E-03    -26.9531E+06    -114.223E+06    -8.04671E+06     256.176E+03    -56.7921E-03     111.185E-03    -54.3927E-03     79.4815E-03    -56.9428E-03     110.858E-03    -54.2282E-03     78.9515E-03
            1803     7.67314E-03     36.5317E-03    -28.5743E+06    -126.044E+06    -9.06250E+06     703.355E+03    -56.3438E-03     110.655E-03    -54.3108E-03     71.8265E-03    -56.4275E-03     110.216E-03    -54.1320E-03     71.4029E-03
            1804     6.82128E-03     36.4622E-03    -30.2259E+06    -135.156E+06    -10.8603E+06     452.334E+03    -55.8717E-03     110.096E-03    -54.2240E-03     64.1024E-03    -55.9066E-03     109.575E-03    -54.0385E-03     63.7596E-03
            1805     5.96910E-03     36.4004E-03    -32.9213E+06    -139.772E+06    -14.1436E+06    -561.345E+03    -55.3877E-03     109.521E-03    -54.1328E-03     56.3728E-03    -55.3944E-03     108.955E-03    -53.9532E-03     56.0882E-03
            1806     5.11678E-03     36.3466E-03    -37.0343E+06    -145.435E+06    -19.4109E+06    -679.102E+03    -54.9520E-03     108.999E-03    -54.0472E-03     48.6239E-03    -54.9415E-03     108.397E-03    -53.8797E-03     48.3980E-03
            1807     4.26417E-03     36.3007E-03    -40.6504E+06    -151.838E+06    -25.2146E+06    -496.660E+03    -54.6026E-03     108.572E-03    -53.9694E-03     40.7385E-03    -54.5767E-03     107.936E-03    -53.8164E-03     40.5649E-03
            1808     3.41161E-03     36.2629E-03    -42.6458E+06    -154.623E+06    -29.9896E+06    -564.216E+03    -54.3061E-03     108.203E-03    -53.8971E-03     32.7739E-03    -54.2681E-03     107.552E-03    -53.7610E-03     32.6417E-03
            1809     2.55876E-03     36.2333E-03    -44.4616E+06    -158.431E+06    -36.2889E+06    -115.473E+03    -54.0606E-03     107.889E-03    -53.8281E-03     24.7519E-03    -54.0093E-03     107.222E-03    -53.7153E-03     24.6617E-03
            1810     1.70592E-03     36.2119E-03    -46.3038E+06    -162.415E+06    -42.7234E+06     242.759E+03    -53.8762E-03     107.648E-03    -53.7720E-03     16.7179E-03    -53.8143E-03     106.969E-03    -53.6830E-03     16.6637E-03
            1811     852.952E-06     36.1988E-03    -47.5510E+06    -164.800E+06    -46.5845E+06     88.3237E+03    -53.7892E-03     107.510E-03    -53.7211E-03     9.07160E-03    -53.7216E-03     106.824E-03    -53.6461E-03     9.04241E-03
            1812     16.1855E-03     37.2620E-03    -5.98206E+06     160.744E+06     110.877E+06     237.705E+03    -69.7367E-03     124.989E-03    -55.2524E-03     296.760E-03    -88.6241E-03     144.104E-03    -54.9224E-03     301.172E-03
            1813     15.3350E-03     36.7908E-03    -11.8101E+06     149.445E+06     93.7200E+06    -220.825E+03    -79.9354E-03     135.066E-03    -55.1305E-03     395.671E-03    -101.887E-03     157.235E-03    -54.8615E-03     394.256E-03
            1814     14.4849E-03     36.4347E-03    -16.9553E+06     108.049E+06     45.8354E+06    -513.242E+03    -71.0754E-03     125.967E-03    -54.8920E-03     282.346E-03    -79.4859E-03     134.568E-03    -54.7949E-03     279.375E-03
            1815     13.6327E-03     36.2137E-03    -19.5815E+06     69.6451E+06     1.46234E+06      383.09E+03    -62.6767E-03     117.331E-03    -54.6540E-03     183.239E-03    -65.6081E-03     120.436E-03    -54.7193E-03     181.214E-03
            1816     12.7822E-03     36.0650E-03    -20.1517E+06     22.2956E+06    -12.7949E+06     578.521E+03    -59.7196E-03     114.284E-03    -54.5639E-03     134.959E-03    -61.1533E-03     115.762E-03    -54.6309E-03     133.449E-03
            1817     11.9313E-03     35.9411E-03    -20.6036E+06    -27.4368E+06    -8.06343E+06     399.688E+03    -58.9760E-03     113.529E-03    -54.5535E-03     115.484E-03    -59.8280E-03     114.234E-03    -54.5242E-03     114.292E-03
            1818     11.0803E-03     35.8306E-03    -21.7149E+06    -58.9809E+06    -7.40238E+06     525.198E+03    -58.3944E-03     112.881E-03    -54.4865E-03     104.035E-03    -58.9489E-03     113.170E-03    -54.4065E-03     103.067E-03
            1819     10.2293E-03     35.7292E-03    -22.8474E+06    -83.1703E+06    -7.84916E+06     568.766E+03    -57.7946E-03     112.199E-03    -54.4043E-03     95.1434E-03    -58.1574E-03     112.208E-03    -54.2898E-03     94.3537E-03
            1820     9.37799E-03     35.6365E-03    -24.1888E+06    -100.414E+06    -7.49740E+06     489.820E+03    -57.2601E-03     111.580E-03    -54.3203E-03     86.9279E-03    -57.4946E-03     111.394E-03    -54.1771E-03     86.2829E-03
            1821     8.52626E-03     35.5517E-03    -26.0830E+06    -114.214E+06    -7.88133E+06     390.652E+03    -56.7702E-03     110.999E-03    -54.2293E-03     78.9725E-03    -56.9151E-03     110.669E-03    -54.0652E-03     78.4470E-03
            1822     7.67459E-03     35.4748E-03    -27.8444E+06    -126.044E+06    -9.34318E+06    -17.6974E+03    -56.2714E-03     110.402E-03    -54.1307E-03     71.2860E-03    -56.3496E-03     109.961E-03    -53.9543E-03     70.8558E-03
            1823     6.82250E-03     35.4055E-03    -29.4981E+06    -134.794E+06    -11.2291E+06    -130.030E+03    -55.7582E-03     109.789E-03    -54.0304E-03     63.5683E-03    -55.7883E-03     109.268E-03    -53.8483E-03     63.2209E-03
            1824     5.97031E-03     35.3442E-03    -32.2444E+06    -139.990E+06    -14.2167E+06     789.506E+03    -55.2626E-03     109.192E-03    -53.9295E-03     55.8132E-03    -55.2648E-03     108.624E-03    -53.7509E-03     55.5481E-03
            1825     5.11778E-03     35.2907E-03    -35.9440E+06    -144.854E+06    -18.1376E+06     841.888E+03    -54.8131E-03     108.648E-03    -53.8351E-03     48.1105E-03    -54.7993E-03     108.045E-03    -53.6636E-03     47.9058E-03
            1826     4.26523E-03     35.2450E-03    -39.3598E+06    -150.736E+06    -24.3172E+06    -694.171E+03    -54.4239E-03     108.165E-03    -53.7415E-03     40.3104E-03    -54.3941E-03     107.531E-03    -53.5874E-03     40.1358E-03
            1827     3.41232E-03     35.2075E-03    -42.5583E+06    -155.415E+06    -31.7087E+06    -1.33182E+06    -54.0933E-03     107.745E-03    -53.6515E-03     32.4311E-03    -54.0510E-03     107.092E-03    -53.5229E-03     32.2902E-03
            1828     2.55945E-03     35.1781E-03    -45.1373E+06    -159.445E+06    -37.7939E+06    -750.531E+03    -53.8328E-03     107.411E-03    -53.5780E-03     24.4884E-03    -53.7812E-03     106.743E-03    -53.4703E-03     24.3910E-03
            1829     1.70635E-03     35.1570E-03    -46.7661E+06    -162.601E+06    -43.0577E+06    -276.362E+03    -53.6358E-03     107.155E-03    -53.5190E-03     16.5354E-03    -53.5753E-03     106.476E-03    -53.4307E-03     16.4751E-03
            1830     853.205E-06     35.1439E-03    -47.7323E+06    -164.710E+06    -46.7518E+06    -21.8210E+03    -53.5442E-03     106.996E-03    -53.4520E-03     9.01133E-03    -53.4774E-03     106.311E-03    -53.3777E-03     8.98106E-03
            1831     16.1853E-03     36.1988E-03    -6.00039E+06     161.172E+06     111.320E+06    -22.9534E+03    -70.0648E-03     125.320E-03    -55.2557E-03     295.601E-03    -88.8863E-03     144.370E-03    -54.9241E-03     299.919E-03
            1832     15.3367E-03     35.7308E-03    -11.1476E+06     149.837E+06     93.9007E+06     138.240E+03    -80.3173E-03     135.419E-03    -55.1017E-03     394.972E-03    -102.182E-03     157.504E-03    -54.8333E-03     393.465E-03
            1833     14.4843E-03     35.3760E-03    -16.7189E+06     107.429E+06     45.2491E+06     594.281E+03    -71.2913E-03     126.133E-03    -54.8417E-03     282.664E-03    -79.6944E-03     134.727E-03    -54.7470E-03     279.702E-03
            1834     13.6340E-03     35.1542E-03    -19.8269E+06     69.2214E+06     1.32728E+06     7.17937E+03    -62.9984E-03     117.585E-03    -54.5870E-03     182.373E-03    -65.9224E-03     120.681E-03    -54.6519E-03     180.327E-03
            1835     12.7831E-03     35.0055E-03    -20.2454E+06     22.3819E+06    -12.8808E+06    -186.841E+03    -59.9440E-03     114.413E-03    -54.4692E-03     134.119E-03    -61.3696E-03     115.884E-03    -54.5367E-03     132.597E-03
            1836     11.9328E-03     34.8820E-03    -20.7148E+06    -27.5887E+06    -8.44627E+06     493.548E+03    -59.1099E-03     113.545E-03    -54.4350E-03     114.840E-03    -59.9576E-03     114.246E-03    -54.4071E-03     113.648E-03
            1837     11.0821E-03     34.7720E-03    -21.6739E+06    -58.9759E+06    -7.59477E+06     616.439E+03    -58.3979E-03     112.750E-03    -54.3516E-03     103.373E-03    -58.9484E-03     113.036E-03    -54.2727E-03     102.409E-03
            1838     10.2309E-03     34.6714E-03    -22.7888E+06    -83.1190E+06    -8.07935E+06     494.586E+03    -57.7880E-03     112.044E-03    -54.2558E-03     94.6695E-03    -58.1472E-03     112.050E-03    -54.1426E-03     93.8827E-03
            1839     9.37932E-03     34.5788E-03    -24.0781E+06    -100.229E+06    -7.53893E+06     473.078E+03    -57.2896E-03     111.445E-03    -54.1559E-03     86.4067E-03    -57.5214E-03     111.258E-03    -54.0134E-03     85.7643E-03
            1840     8.52795E-03     34.4945E-03    -25.4123E+06    -113.928E+06    -7.70784E+06     323.549E+03    -56.7633E-03     110.809E-03    -54.0452E-03     78.3642E-03    -56.9037E-03     110.477E-03    -53.8817E-03     77.8405E-03
            1841     7.67603E-03     34.4180E-03    -27.2139E+06    -125.142E+06    -8.57722E+06    -151.092E+03    -56.1981E-03     110.128E-03    -53.9304E-03     70.6237E-03    -56.2739E-03     109.688E-03    -53.7523E-03     70.1949E-03
            1842     6.82406E-03     34.3492E-03    -29.9137E+06    -135.900E+06    -9.76289E+06    -4.56243E+03    -55.6329E-03     109.455E-03    -53.8222E-03     62.9160E-03    -55.6643E-03     108.926E-03    -53.6306E-03     62.5732E-03
            1843     5.97167E-03     34.2883E-03    -32.5494E+06    -141.077E+06    -12.5096E+06     947.800E+03    -55.1184E-03     108.826E-03    -53.7072E-03     55.2354E-03    -55.1220E-03     108.249E-03    -53.5180E-03     54.9750E-03
            1844     5.11919E-03     34.2352E-03    -34.6589E+06    -143.099E+06    -16.2136E+06     807.786E+03    -54.6498E-03     108.241E-03    -53.5916E-03     47.5843E-03    -54.6342E-03     107.642E-03    -53.4149E-03     47.3813E-03
            1845     4.26631E-03     34.1899E-03    -37.7402E+06    -149.751E+06    -23.5287E+06     220.237E+03    -54.2188E-03     107.697E-03    -53.4784E-03     39.8277E-03    -54.1830E-03     107.064E-03    -53.3242E-03     39.6666E-03
            1846     3.41337E-03     34.1527E-03    -41.6330E+06    -155.535E+06    -32.3362E+06    -79.4091E+03    -53.8468E-03     107.221E-03    -53.3741E-03     32.0308E-03    -53.7984E-03     106.566E-03    -53.2499E-03     31.9077E-03
            1847     2.56009E-03     34.1235E-03    -45.0416E+06    -159.910E+06    -38.8885E+06    -575.251E+03    -53.5575E-03     106.854E-03    -53.2961E-03     24.2000E-03    -53.5030E-03     106.184E-03    -53.1934E-03     24.1060E-03
            1848     1.70683E-03     34.1025E-03    -47.2417E+06    -163.235E+06    -44.1435E+06    -615.908E+03    -53.3606E-03     106.597E-03    -53.2365E-03     16.3527E-03    -53.2999E-03     105.917E-03    -53.1520E-03     16.2887E-03
            1849     853.439E-06     34.0897E-03    -48.4726E+06    -165.183E+06    -47.4575E+06    -250.080E+03    -53.2491E-03     106.432E-03    -53.1827E-03     8.91970E-03    -53.1842E-03     105.746E-03    -53.1102E-03     8.88691E-03
            1850     16.1878E-03     35.1374E-03    -5.37662E+06     161.076E+06     111.272E+06    -210.868E+03    -69.8802E-03     125.120E-03    -55.2399E-03     295.918E-03    -88.6639E-03     144.134E-03    -54.9093E-03     300.303E-03
            1851     15.3349E-03     34.6720E-03    -11.8197E+06     148.440E+06     93.4562E+06     397.844E+03    -80.4988E-03     135.591E-03    -55.0926E-03     395.145E-03    -102.335E-03     157.641E-03    -54.8234E-03     393.682E-03
            1852     14.4855E-03     34.3149E-03    -16.1682E+06     107.691E+06     46.3026E+06     691.491E+03    -72.2769E-03     127.077E-03    -54.8002E-03     281.856E-03    -80.6751E-03     135.666E-03    -54.7014E-03     278.798E-03
            1853     13.6357E-03     34.0948E-03    -18.1155E+06     70.8189E+06     2.86709E+06     404.308E+03    -63.4542E-03     117.945E-03    -54.4911E-03     181.323E-03    -66.3686E-03     121.038E-03    -54.5532E-03     179.265E-03
            1854     12.7852E-03     33.9466E-03    -19.7601E+06     22.2693E+06    -12.8175E+06     383.867E+03    -59.9314E-03     114.277E-03    -54.3453E-03     133.575E-03    -61.3442E-03     115.736E-03    -54.4130E-03     132.068E-03
            1855     11.9344E-03     33.8228E-03    -20.8661E+06    -28.2094E+06    -9.00587E+06     511.507E+03    -58.9674E-03     113.272E-03    -54.3051E-03     114.562E-03    -59.8071E-03     113.964E-03    -54.2789E-03     113.380E-03
            1856     11.0834E-03     33.7138E-03    -21.9163E+06    -58.9167E+06    -7.81940E+06     563.447E+03    -58.4512E-03     112.666E-03    -54.2145E-03     102.888E-03    -58.9997E-03     112.950E-03    -54.1363E-03     101.924E-03
            1857     10.2323E-03     33.6135E-03    -23.1039E+06    -82.6954E+06    -8.23222E+06     553.439E+03    -57.9393E-03     112.035E-03    -54.0960E-03     94.0173E-03    -58.2980E-03     112.042E-03    -53.9837E-03     93.2318E-03
            1858     9.38125E-03     33.5213E-03    -24.4218E+06    -100.068E+06    -7.75802E+06     263.656E+03    -57.3489E-03     111.318E-03    -53.9692E-03     85.6529E-03    -57.5798E-03     111.130E-03    -53.8275E-03     85.0102E-03
            1859     8.52957E-03     33.4376E-03    -26.1414E+06    -113.664E+06    -7.84174E+06     89.3538E+03    -56.7354E-03     110.571E-03    -53.8357E-03     77.5902E-03    -56.8773E-03     110.239E-03    -53.6722E-03     77.0666E-03
            1860     7.67793E-03     33.3615E-03    -28.5305E+06    -124.976E+06    -8.52287E+06     272.155E+03    -56.1002E-03     109.803E-03    -53.7026E-03     69.8514E-03    -56.1810E-03     109.363E-03    -53.5227E-03     69.4316E-03
            1861     6.82569E-03     33.2934E-03    -31.5812E+06    -136.575E+06    -10.3565E+06     613.466E+03    -55.4908E-03     109.066E-03    -53.5752E-03     62.2246E-03    -55.5272E-03     108.536E-03    -53.3832E-03     61.8933E-03
            1862     5.97329E-03     33.2328E-03    -34.4585E+06    -140.755E+06    -14.6434E+06     105.987E+03    -54.9398E-03     108.375E-03    -53.4352E-03     54.6586E-03    -54.9492E-03     107.805E-03    -53.2544E-03     54.3909E-03
            1863     5.12050E-03     33.1801E-03    -36.9514E+06    -142.748E+06    -18.4048E+06    -259.158E+03    -54.4281E-03     107.733E-03    -53.3054E-03     47.0447E-03    -54.4205E-03     107.141E-03    -53.1369E-03     46.8309E-03
            1864     4.26761E-03     33.1353E-03    -39.3912E+06    -150.228E+06    -23.6456E+06     455.586E+03    -53.9728E-03     107.163E-03    -53.1899E-03     39.3303E-03    -53.9439E-03     106.529E-03    -53.0332E-03     39.1746E-03
            1865     3.41432E-03     33.0985E-03    -42.0023E+06    -154.827E+06    -31.0304E+06     834.628E+03    -53.5757E-03     106.653E-03    -53.0775E-03     31.6215E-03    -53.5318E-03     106.001E-03    -52.9472E-03     31.5121E-03
            1866     2.56097E-03     33.0695E-03    -44.7675E+06    -159.313E+06    -38.1762E+06     373.348E+03    -53.2599E-03     106.247E-03    -52.9873E-03     23.8668E-03    -53.2057E-03     105.579E-03    -52.8822E-03     23.7865E-03
            1867     1.70734E-03     33.0488E-03    -47.3581E+06    -163.514E+06    -44.6830E+06    -136.561E+03    -53.0415E-03     105.963E-03    -52.9212E-03     16.1264E-03    -52.9802E-03     105.282E-03    -52.8388E-03     16.0696E-03
            1868     853.696E-06     33.0359E-03    -48.9132E+06    -165.758E+06    -48.1926E+06    -262.374E+03    -52.9316E-03     105.804E-03    -52.8729E-03     8.77781E-03    -52.8670E-03     105.118E-03    -52.8025E-03     8.74529E-03
            1869     16.1853E-03     34.0805E-03    -6.15039E+06     160.297E+06     110.342E+06    -478.496E+03    -70.1216E-03     125.373E-03    -55.2515E-03     296.462E-03    -88.9717E-03     144.450E-03    -54.9233E-03     300.657E-03
            1870     15.3353E-03     33.6086E-03    -12.5505E+06     147.969E+06     93.0178E+06    -305.999E+03    -81.5058E-03     136.582E-03    -55.0760E-03     395.060E-03    -103.441E-03     158.728E-03    -54.8072E-03     393.369E-03
            1871     14.4867E-03     33.2546E-03    -16.4484E+06     107.563E+06     45.9502E+06     35.1151E+03    -72.7100E-03     127.443E-03    -54.7330E-03     280.486E-03    -81.0702E-03     135.993E-03    -54.6353E-03     277.376E-03
            1872     13.6369E-03     33.0341E-03    -19.2201E+06     70.6149E+06     1.64777E+06     532.682E+03    -63.6325E-03     118.023E-03    -54.3905E-03     180.881E-03    -66.5392E-03     121.107E-03    -54.4568E-03     178.823E-03
            1873     12.7868E-03     32.8879E-03    -20.1713E+06     22.7155E+06    -13.1102E+06     860.231E+03    -60.0971E-03     114.325E-03    -54.2274E-03     133.124E-03    -61.5095E-03     115.784E-03    -54.2967E-03     131.620E-03
            1874     11.9356E-03     32.7644E-03    -20.9175E+06    -28.3259E+06    -9.30619E+06     808.693E+03    -59.0483E-03     113.217E-03    -54.1686E-03     114.168E-03    -59.8828E-03     113.904E-03    -54.1437E-03     112.992E-03
            1875     11.0849E-03     32.6552E-03    -22.0249E+06    -58.8040E+06    -7.92372E+06     624.986E+03    -58.6101E-03     112.667E-03    -54.0565E-03     102.011E-03    -59.1549E-03     112.947E-03    -53.9789E-03     101.049E-03
            1876     10.2344E-03     32.5555E-03    -23.1650E+06    -82.2675E+06    -8.14937E+06     507.983E+03    -58.0808E-03     111.989E-03    -53.9086E-03     92.9549E-03    -58.4371E-03     111.995E-03    -53.7965E-03     92.1695E-03
            1877     9.38312E-03     32.4642E-03    -24.7115E+06    -99.6652E+06    -7.86420E+06     414.305E+03    -57.3699E-03     111.123E-03    -53.7526E-03     84.7522E-03    -57.5997E-03     110.934E-03    -53.6116E-03     84.1146E-03
            1878     8.53182E-03     32.3807E-03    -26.8107E+06    -113.601E+06    -8.07312E+06     422.369E+03    -56.6596E-03     110.257E-03    -53.5969E-03     76.7318E-03    -56.8019E-03     109.924E-03    -53.4337E-03     76.2169E-03
            1879     7.67979E-03     32.3055E-03    -29.0229E+06    -125.339E+06    -9.13474E+06     521.765E+03    -55.9795E-03     109.422E-03    -53.4429E-03     69.0401E-03    -56.0592E-03     108.981E-03    -53.2648E-03     68.6278E-03
            1880     6.82762E-03     32.2378E-03    -30.8651E+06    -136.278E+06    -10.4526E+06     421.011E+03    -55.3567E-03     108.652E-03    -53.2957E-03     61.4610E-03    -55.3883E-03     108.121E-03    -53.1056E-03     61.1309E-03
            1881     5.97502E-03     32.1779E-03    -33.1538E+06    -139.878E+06    -14.2221E+06     170.781E+03    -54.7476E-03     107.885E-03    -53.1376E-03     53.9333E-03    -54.7512E-03     107.316E-03    -52.9578E-03     53.6700E-03
            1882     5.12218E-03     32.1256E-03    -36.5164E+06    -142.994E+06    -19.2156E+06    -72.5986E+03    -54.1795E-03     107.169E-03    -52.9895E-03     46.3714E-03    -54.1673E-03     106.575E-03    -52.8253E-03     46.1630E-03
            1883     4.26891E-03     32.0813E-03    -39.9557E+06    -151.004E+06    -24.9101E+06     25.2980E+03    -53.6940E-03     106.556E-03    -52.8618E-03     38.7384E-03    -53.6643E-03     105.921E-03    -52.7095E-03     38.5794E-03
            1884     3.41552E-03     32.0448E-03    -42.6436E+06    -154.733E+06    -30.8741E+06     444.323E+03    -53.2707E-03     106.015E-03    -52.7444E-03     31.1425E-03    -53.2301E-03     105.363E-03    -52.6125E-03     31.0299E-03
            1885     2.56179E-03     32.0162E-03    -45.0414E+06    -158.740E+06    -37.2590E+06     705.787E+03    -52.9352E-03     105.582E-03    -52.6467E-03     23.5117E-03    -52.8844E-03     104.916E-03    -52.5375E-03     23.4371E-03
            1886     1.70799E-03     31.9957E-03    -47.1887E+06    -162.970E+06    -43.9630E+06     586.629E+03    -52.7024E-03     105.272E-03    -52.5699E-03     15.8948E-03    -52.6420E-03     104.593E-03    -52.4850E-03     15.8484E-03
            1887     853.995E-06     31.9830E-03    -48.7942E+06    -165.673E+06    -48.1306E+06     198.633E+03    -52.5801E-03     105.088E-03    -52.5074E-03     8.64081E-03    -52.5151E-03     104.401E-03    -52.4371E-03     8.61481E-03
            1888     16.1855E-03     33.0197E-03    -5.95771E+06     160.736E+06     111.010E+06    -14.2407E+03    -71.3982E-03     126.649E-03    -55.2513E-03     295.995E-03    -90.1914E-03     145.670E-03    -54.9207E-03     299.935E-03
            1889     15.3370E-03     32.5458E-03    -11.6308E+06     147.852E+06     92.8314E+06     148.954E+03    -82.4549E-03     137.462E-03    -55.0069E-03     393.705E-03    -104.263E-03     159.485E-03    -54.7403E-03     391.777E-03
            1890     14.4878E-03     32.1938E-03    -17.2084E+06     106.882E+06     44.3860E+06     262.029E+03    -72.3599E-03     126.988E-03    -54.6283E-03     278.419E-03    -80.6362E-03     135.454E-03    -54.5364E-03     275.355E-03
            1891     13.6379E-03     31.9741E-03    -20.0001E+06     69.5620E+06     117.779E+03     456.869E+03    -63.4018E-03     117.690E-03    -54.2879E-03     179.970E-03    -66.2777E-03     120.741E-03    -54.3591E-03     177.930E-03
            1892     12.7877E-03     31.8282E-03    -20.7673E+06     22.8584E+06    -14.1261E+06     716.191E+03    -60.4440E-03     114.554E-03    -54.1101E-03     132.326E-03    -61.8537E-03     116.012E-03    -54.1838E-03     130.811E-03
            1893     11.9379E-03     31.7061E-03    -21.5370E+06    -27.1728E+06    -9.48243E+06     763.453E+03    -59.5795E-03     113.590E-03    -54.0102E-03     113.185E-03    -60.4176E-03     114.282E-03    -53.9870E-03     111.997E-03
            1894     11.0874E-03     31.5964E-03    -22.2842E+06    -58.4622E+06    -8.28004E+06     517.600E+03    -58.7197E-03     112.577E-03    -53.8574E-03     101.128E-03    -59.2593E-03     112.854E-03    -53.7818E-03     100.169E-03
            1895     10.2365E-03     31.4979E-03    -23.3451E+06    -82.3262E+06    -8.55559E+06     529.334E+03    -58.0515E-03     111.738E-03    -53.6864E-03     91.9951E-03    -58.4035E-03     111.740E-03    -53.5760E-03     91.2149E-03
            1896     9.38561E-03     31.4069E-03    -24.8602E+06    -99.5982E+06    -8.19768E+06     666.287E+03    -57.3449E-03     110.854E-03    -53.5091E-03     83.8408E-03    -57.5716E-03     110.663E-03    -53.3696E-03     83.2107E-03
            1897     8.53392E-03     31.3246E-03    -26.4814E+06    -113.466E+06    -8.24813E+06     676.103E+03    -56.5904E-03     109.921E-03    -53.3302E-03     75.8125E-03    -56.7281E-03     109.585E-03    -53.1685E-03     75.3055E-03
            1898     7.68207E-03     31.2497E-03    -28.2720E+06    -124.994E+06    -9.09172E+06     341.561E+03    -55.8833E-03     109.036E-03    -53.1525E-03     68.1329E-03    -55.9576E-03     108.592E-03    -52.9757E-03     67.7224E-03
            1899     6.82973E-03     31.1828E-03    -30.7155E+06    -136.135E+06    -10.4741E+06     188.749E+03    -55.1983E-03     108.181E-03    -52.9822E-03     60.5643E-03    -55.2276E-03     107.648E-03    -52.7926E-03     60.2352E-03
            1900     5.97707E-03     31.1234E-03    -33.6851E+06    -139.809E+06    -14.1509E+06     334.569E+03    -54.5195E-03     107.324E-03    -52.8048E-03     53.1132E-03    -54.5246E-03     106.754E-03    -52.6240E-03     52.8557E-03
            1901     5.12392E-03     31.0718E-03    -36.5072E+06    -142.771E+06    -19.1415E+06     418.006E+03    -53.9039E-03     106.542E-03    -52.6383E-03     45.6321E-03    -53.8912E-03     105.949E-03    -52.4740E-03     45.4334E-03
            1902     4.27055E-03     31.0279E-03    -39.4375E+06    -151.033E+06    -25.5990E+06     266.885E+03    -53.3808E-03     105.873E-03    -52.4923E-03     38.0895E-03    -53.3469E-03     105.237E-03    -52.3442E-03     37.9363E-03
            1903     3.41676E-03     30.9919E-03    -42.4393E+06    -155.056E+06    -31.9355E+06     240.623E+03    -52.9251E-03     105.288E-03    -52.3630E-03     30.6050E-03    -52.8810E-03     104.636E-03    -52.2363E-03     30.4918E-03
            1904     2.56280E-03     30.9637E-03    -45.0147E+06    -158.694E+06    -37.6474E+06     484.609E+03    -52.5697E-03     104.830E-03    -52.2598E-03     23.1021E-03    -52.5180E-03     104.164E-03    -52.1527E-03     23.0262E-03
            1905     1.70860E-03     30.9433E-03    -46.9641E+06    -162.369E+06    -43.5128E+06     703.203E+03    -52.3267E-03     104.503E-03    -52.1767E-03     15.6134E-03    -52.2666E-03     103.826E-03    -52.0907E-03     15.5694E-03
            1906     854.380E-06     30.9308E-03    -48.2702E+06    -164.751E+06    -47.2822E+06     634.088E+03    -52.1935E-03     104.290E-03    -52.0960E-03     8.49338E-03    -52.1285E-03     103.606E-03    -52.0235E-03     8.47363E-03
            1907     16.1863E-03     31.9553E-03    -5.60819E+06     160.957E+06     111.310E+06     213.349E+03    -72.4405E-03     127.610E-03    -55.1690E-03     294.913E-03    -91.1265E-03     146.524E-03    -54.8377E-03     298.798E-03
            1908     15.3390E-03     31.4842E-03    -11.4166E+06     147.013E+06     93.2411E+06     950.939E+03    -82.1842E-03     137.075E-03    -54.8908E-03     392.095E-03    -103.826E-03     158.927E-03    -54.6212E-03     390.288E-03
            1909     14.4904E-03     31.1331E-03    -16.3540E+06     106.959E+06     44.5759E+06     847.217E+03    -71.9973E-03     126.509E-03    -54.5118E-03     277.498E-03    -80.2098E-03     134.914E-03    -54.4203E-03     274.473E-03
            1910     13.6399E-03     30.9159E-03    -19.5385E+06     69.9742E+06    -316.856E+03     931.481E+03    -63.5319E-03     117.696E-03    -54.1639E-03     179.471E-03    -66.3900E-03     120.734E-03    -54.2386E-03     177.437E-03
            1911     12.7894E-03     30.7679E-03    -20.7673E+06     22.7335E+06    -14.3638E+06     730.743E+03    -60.8426E-03     114.802E-03    -53.9597E-03     131.540E-03    -62.2438E-03     116.252E-03    -54.0344E-03     130.018E-03
            1912     11.9400E-03     30.6465E-03    -21.0255E+06    -26.4720E+06    -9.23726E+06     374.306E+03    -59.8671E-03     113.688E-03    -53.8205E-03     111.685E-03    -60.6983E-03     114.377E-03    -53.7978E-03     110.488E-03
            1913     11.0899E-03     30.5387E-03    -22.0006E+06    -58.2333E+06    -8.32054E+06     540.565E+03    -58.7739E-03     112.409E-03    -53.6349E-03     100.167E-03    -59.3061E-03     112.680E-03    -53.5601E-03     99.2138E-03
            1914     10.2391E-03     30.4401E-03    -23.3801E+06    -82.3521E+06    -8.85477E+06     651.530E+03    -58.0041E-03     111.445E-03    -53.4413E-03     91.1819E-03    -58.3509E-03     111.442E-03    -53.3323E-03     90.4097E-03
            1915     9.38788E-03     30.3503E-03    -24.6953E+06    -99.5547E+06    -8.42646E+06     643.571E+03    -57.3323E-03     110.573E-03    -53.2407E-03     82.8149E-03    -57.5541E-03     110.378E-03    -53.1027E-03     82.1892E-03
            1916     8.53652E-03     30.2684E-03    -26.2340E+06    -113.248E+06    -8.36782E+06     560.528E+03    -56.5643E-03     109.597E-03    -53.0329E-03     74.7311E-03    -56.6980E-03     109.260E-03    -52.8725E-03     74.2268E-03
            1917     7.68456E-03     30.1945E-03    -28.3776E+06    -124.588E+06    -9.10335E+06     536.257E+03    -55.7675E-03     108.594E-03    -52.8266E-03     67.0774E-03    -55.8405E-03     108.150E-03    -52.6503E-03     66.6740E-03
            1918     6.83217E-03     30.1282E-03    -31.0240E+06    -136.063E+06    -10.6246E+06     505.832E+03    -54.9956E-03     107.627E-03    -52.6313E-03     59.5886E-03    -55.0244E-03     107.093E-03    -52.4422E-03     59.2682E-03
            1919     5.97926E-03     30.0697E-03    -33.7082E+06    -139.777E+06    -14.4356E+06     415.302E+03    -54.2658E-03     106.697E-03    -52.4313E-03     52.2136E-03    -54.2692E-03     106.127E-03    -52.2520E-03     51.9612E-03
            1920     5.12598E-03     30.0185E-03    -36.5170E+06    -142.726E+06    -19.4655E+06     357.262E+03    -53.5976E-03     105.843E-03    -52.2457E-03     44.8327E-03    -53.5835E-03     105.249E-03    -52.0831E-03     44.6369E-03
            1921     4.27224E-03     29.9753E-03    -39.3296E+06    -150.927E+06    -25.8819E+06     533.326E+03    -53.0346E-03     105.118E-03    -52.0835E-03     37.3945E-03    -52.9992E-03     104.482E-03    -51.9371E-03     37.2478E-03
            1922     3.41823E-03     29.9397E-03    -42.0982E+06    -154.941E+06    -32.3686E+06     631.284E+03    -52.5524E-03     104.491E-03    -51.9386E-03     30.0159E-03    -52.5058E-03     103.839E-03    -51.8147E-03     29.9100E-03
            1923     2.56391E-03     29.9119E-03    -44.7603E+06    -158.614E+06    -38.1710E+06     571.233E+03    -52.1686E-03     103.990E-03    -51.8217E-03     22.6478E-03    -52.1148E-03     103.325E-03    -51.7176E-03     22.5747E-03
            1924     1.70942E-03     29.8919E-03    -46.7627E+06    -161.999E+06    -43.6488E+06     507.593E+03    -51.8917E-03     103.623E-03    -51.7309E-03     15.2978E-03    -51.8308E-03     102.947E-03    -51.6464E-03     15.2525E-03
            1925     854.715E-06     29.8795E-03    -47.7738E+06    -163.742E+06    -46.6565E+06     301.861E+03    -51.7413E-03     103.395E-03    -51.6540E-03     8.32228E-03    -51.6761E-03     102.715E-03    -51.5806E-03     8.29881E-03
            1926     16.1911E-03     30.8941E-03    -6.76285E+06     159.846E+06     109.931E+06    -30.0259E+03    -73.1572E-03     128.225E-03    -55.0676E-03     293.590E-03    -91.8091E-03     147.101E-03    -54.7399E-03     297.341E-03
            1927     15.3414E-03     30.4235E-03    -12.4511E+06     145.874E+06     92.2433E+06     53.2412E+03    -81.4344E-03     136.228E-03    -54.7937E-03     393.386E-03    -103.165E-03     158.165E-03    -54.5259E-03     391.704E-03
            1928     14.4904E-03     30.0729E-03    -16.0967E+06     107.237E+06     46.9403E+06     996.444E+03    -72.5225E-03     126.957E-03    -54.4346E-03     277.641E-03    -80.7258E-03     135.348E-03    -54.3321E-03     274.586E-03
            1929     13.6411E-03     29.8557E-03    -18.5767E+06     71.5593E+06     2.61267E+06     1.24936E+06    -64.4929E-03     118.527E-03    -54.0340E-03     178.609E-03    -67.3498E-03     121.564E-03    -54.0978E-03     176.542E-03
            1930     12.7926E-03     29.7079E-03    -19.7014E+06     23.2661E+06    -13.9416E+06     668.869E+03    -61.1080E-03     114.873E-03    -53.7648E-03     130.458E-03    -62.4926E-03     116.310E-03    -53.8397E-03     128.933E-03
            1931     11.9427E-03     29.5874E-03    -20.6852E+06    -27.1661E+06    -9.81291E+06     710.307E+03    -59.6906E-03     113.293E-03    -53.6027E-03     110.539E-03    -60.5059E-03     113.967E-03    -53.5824E-03     109.359E-03
            1932     11.0925E-03     29.4807E-03    -21.9701E+06    -58.1322E+06    -8.62427E+06     908.263E+03    -58.8677E-03     112.268E-03    -53.3999E-03     99.1961E-03    -59.3948E-03     112.535E-03    -53.3269E-03     98.2500E-03
            1933     10.2417E-03     29.3830E-03    -23.3378E+06    -82.0882E+06    -9.05064E+06     735.871E+03    -58.1396E-03     111.313E-03    -53.1736E-03     90.1976E-03    -58.4816E-03     111.307E-03    -53.0660E-03     89.4301E-03
            1934     9.39082E-03     29.2935E-03    -24.7188E+06    -99.2571E+06    -8.61834E+06     699.123E+03    -57.3479E-03     110.286E-03    -52.9378E-03     81.5940E-03    -57.5656E-03     110.088E-03    -52.8011E-03     80.9740E-03
            1935     8.53934E-03     29.2128E-03    -26.5474E+06    -113.034E+06    -8.62240E+06     561.311E+03    -56.4864E-03     109.185E-03    -52.6982E-03     73.4967E-03    -56.6182E-03     108.846E-03    -52.5389E-03     72.9975E-03
            1936     7.68739E-03     29.1397E-03    -28.4845E+06    -124.654E+06    -9.24879E+06     691.267E+03    -55.6010E-03     108.065E-03    -52.4641E-03     65.9178E-03    -55.6715E-03     107.619E-03    -52.2883E-03     65.5217E-03
            1937     6.83478E-03     29.0744E-03    -30.7930E+06    -135.737E+06    -10.4456E+06     721.673E+03    -54.7708E-03     107.015E-03    -52.2440E-03     58.5279E-03    -54.7971E-03     106.480E-03    -52.0548E-03     58.2153E-03
            1938     5.98176E-03     29.0164E-03    -33.5457E+06    -139.470E+06    -14.6504E+06     437.726E+03    -53.9825E-03     106.001E-03    -52.0189E-03     51.2220E-03    -53.9837E-03     105.431E-03    -51.8413E-03     50.9745E-03
            1939     5.12816E-03     28.9662E-03    -36.3843E+06    -142.929E+06    -20.3098E+06     563.961E+03    -53.2619E-03     105.072E-03    -51.8102E-03     43.9541E-03    -53.2445E-03     104.477E-03    -51.6518E-03     43.7649E-03
            1940     4.27418E-03     28.9235E-03    -39.3958E+06    -151.013E+06    -26.4344E+06     875.896E+03    -52.6608E-03     104.292E-03    -51.6310E-03     36.6332E-03    -52.6241E-03     103.656E-03    -51.4871E-03     36.4942E-03
            1941     3.41983E-03     28.8885E-03    -42.2664E+06    -154.607E+06    -32.2258E+06     940.612E+03    -52.1404E-03     103.612E-03    -51.4715E-03     29.3752E-03    -52.0949E-03     102.961E-03    -51.3471E-03     29.2758E-03
            1942     2.56517E-03     28.8611E-03    -44.7412E+06    -158.075E+06    -37.7996E+06     737.769E+03    -51.7177E-03     103.058E-03    -51.3402E-03     22.1647E-03    -51.6648E-03     102.395E-03    -51.2351E-03     22.0956E-03
            1943     1.71024E-03     28.8414E-03    -46.5874E+06    -161.393E+06    -43.3518E+06     293.065E+03    -51.4122E-03     102.650E-03    -51.2379E-03     14.9688E-03    -51.3516E-03     101.977E-03    -51.1531E-03     14.9219E-03
            1944     855.180E-06     28.8292E-03    -47.6986E+06    -163.363E+06    -46.8550E+06    -29.5159E+03    -51.2388E-03     102.398E-03    -51.1588E-03     8.14116E-03    -51.1734E-03     101.719E-03    -51.0870E-03     8.11413E-03
            1945     16.1909E-03     29.8347E-03    -5.29101E+06     159.652E+06     110.192E+06     793.248E+03    -73.6182E-03     128.705E-03    -55.0866E-03     293.047E-03    -92.1319E-03     147.447E-03    -54.7595E-03     296.542E-03
            1946     15.3393E-03     29.3615E-03    -11.7566E+06     146.670E+06     92.4997E+06     509.603E+03    -82.8200E-03     137.598E-03    -54.7781E-03     394.159E-03    -104.538E-03     159.527E-03    -54.5113E-03     392.162E-03
            1947     14.4918E-03     29.0115E-03    -16.9813E+06     107.225E+06     47.4580E+06     240.028E+03    -73.7673E-03     128.115E-03    -54.3479E-03     276.317E-03    -81.9713E-03     136.502E-03    -54.2414E-03     273.160E-03
            1948     13.6445E-03     28.7937E-03    -18.8169E+06     71.0123E+06     3.04851E+06     609.543E+03    -65.1891E-03     119.060E-03    -53.8714E-03     177.063E-03    -68.0296E-03     122.077E-03    -53.9318E-03     174.961E-03
            1949     12.7953E-03     28.6487E-03    -19.6092E+06     23.3589E+06    -14.4511E+06     1.47147E+06    -61.1298E-03     114.685E-03    -53.5552E-03     129.241E-03    -62.4980E-03     116.109E-03    -53.6329E-03     127.736E-03
            1950     11.9452E-03     28.5289E-03    -21.1379E+06    -26.9258E+06    -10.4188E+06     1.47684E+06    -59.7044E-03     113.078E-03    -53.3735E-03     109.858E-03    -60.5113E-03     113.744E-03    -53.3559E-03     108.696E-03
            1951     11.0949E-03     28.4226E-03    -22.3176E+06    -57.7114E+06    -9.08401E+06     1.04781E+06    -59.0841E-03     112.225E-03    -53.1408E-03     98.0030E-03    -59.6077E-03     112.491E-03    -53.0702E-03     97.0588E-03
            1952     10.2449E-03     28.3256E-03    -23.3630E+06    -81.7277E+06    -9.33591E+06     907.878E+03    -58.3010E-03     111.174E-03    -52.8727E-03     88.7967E-03    -58.6381E-03     111.165E-03    -52.7670E-03     88.0340E-03
            1953     9.39403E-03     28.2374E-03    -25.0012E+06    -99.1418E+06     -8.9829E+06     895.643E+03    -57.3299E-03     109.928E-03    -52.5983E-03     80.3224E-03    -57.5440E-03     109.728E-03    -52.4632E-03     79.7106E-03
            1954     8.54256E-03     28.1574E-03    -26.8345E+06    -112.581E+06    -8.78026E+06     845.933E+03    -56.3466E-03     108.675E-03    -52.3283E-03     72.2159E-03    -56.4763E-03     108.335E-03    -52.1700E-03     71.7270E-03
            1955     7.69041E-03     28.0856E-03    -29.2369E+06    -124.899E+06    -9.52389E+06     784.498E+03    -55.4130E-03     107.480E-03    -52.0672E-03     64.6986E-03    -55.4836E-03     107.031E-03    -51.8914E-03     64.3097E-03
            1956     6.83774E-03     28.0210E-03    -31.9292E+06    -135.362E+06    -12.4172E+06     861.939E+03    -54.5240E-03     106.335E-03    -51.8106E-03     57.3646E-03    -54.5515E-03     105.804E-03    -51.6301E-03     57.0592E-03
            1957     5.98444E-03     27.9641E-03    -34.5793E+06    -138.912E+06    -17.0828E+06     545.345E+03    -53.6643E-03     105.222E-03    -51.5575E-03     50.1473E-03    -53.6663E-03     104.657E-03    -51.3914E-03     49.9061E-03
            1958     5.13061E-03     27.9146E-03    -37.1988E+06    -143.466E+06    -21.3250E+06     604.850E+03    -52.9043E-03     104.238E-03    -51.3339E-03     42.9989E-03    -52.8876E-03     103.642E-03    -51.1785E-03     42.8145E-03
            1959     4.27631E-03     27.8726E-03    -39.6967E+06    -150.938E+06    -26.7461E+06     1.11416E+06    -52.2481E-03     103.383E-03    -51.1348E-03     35.7997E-03    -52.2118E-03     102.747E-03    -50.9921E-03     35.6673E-03
            1960     3.42159E-03     27.8382E-03    -42.2434E+06    -154.051E+06    -31.9032E+06     992.231E+03    -51.6766E-03     102.636E-03    -50.9596E-03     28.6885E-03    -51.6317E-03     101.987E-03    -50.8345E-03     28.5926E-03
            1961     2.56652E-03     27.8113E-03    -44.6075E+06    -157.281E+06    -37.2268E+06     528.647E+03    -51.2213E-03     102.036E-03    -50.8151E-03     21.6331E-03    -51.1695E-03     101.376E-03    -50.7085E-03     21.5634E-03
            1962     1.71117E-03     27.7920E-03    -46.5213E+06    -160.881E+06    -43.2220E+06     227.314E+03    -50.8885E-03     101.589E-03    -50.7004E-03     14.5979E-03    -50.8284E-03     100.918E-03    -50.6157E-03     14.5517E-03
            1963     855.633E-06     27.7800E-03    -47.9977E+06    -163.249E+06    -47.0281E+06     162.443E+03    -50.7019E-03     101.311E-03    -50.6091E-03     7.95284E-03    -50.6380E-03     100.634E-03    -50.5379E-03     7.92916E-03
            1964     16.1843E-03     28.7664E-03    -5.62059E+06     159.626E+06     110.179E+06     691.692E+03    -74.0972E-03     129.257E-03    -55.1600E-03     291.926E-03    -92.4383E-03     147.825E-03    -54.8324E-03     295.258E-03
            1965     15.3412E-03     28.2983E-03    -11.7408E+06     147.595E+06     93.6574E+06     619.308E+03    -85.0503E-03     139.804E-03    -54.7534E-03     389.789E-03    -106.483E-03     161.447E-03    -54.4821E-03     387.420E-03
            1966     14.4944E-03     27.9484E-03    -16.5660E+06     106.993E+06     46.1662E+06     269.974E+03    -74.4191E-03     128.619E-03    -54.1995E-03     274.377E-03    -82.5841E-03     136.971E-03    -54.0998E-03     271.154E-03
            1967     13.6463E-03     27.7322E-03    -19.6629E+06     69.1377E+06     219.183E+03     1.07911E+06    -65.1596E-03     118.840E-03    -53.6800E-03     175.439E-03    -67.9666E-03     121.822E-03    -53.7506E-03     173.348E-03
            1968     12.7976E-03     27.5894E-03    -21.0048E+06     23.1943E+06    -15.1631E+06     1.83457E+06    -61.2976E-03     114.646E-03    -53.3488E-03     127.790E-03    -62.6560E-03     116.057E-03    -53.4277E-03     126.291E-03
            1969     11.9480E-03     27.4704E-03    -21.2078E+06    -25.7169E+06    -10.2443E+06     1.49384E+06    -60.1535E-03     113.278E-03    -53.1249E-03     108.718E-03    -60.9566E-03     113.945E-03    -53.1080E-03     107.551E-03
            1970     11.0988E-03     27.3642E-03    -22.0121E+06    -57.1473E+06    -8.93501E+06     1.18824E+06    -59.2614E-03     112.106E-03    -52.8445E-03     96.5934E-03    -59.7768E-03     112.366E-03    -52.7744E-03     95.6544E-03
            1971     10.2483E-03     27.2689E-03    -23.4290E+06    -81.5242E+06    -9.62514E+06     1.20874E+06    -58.2952E-03     110.834E-03    -52.5384E-03     87.4250E-03    -58.6263E-03     110.820E-03    -52.4343E-03     86.6725E-03
            1972     9.39748E-03     27.1813E-03    -24.9440E+06    -99.0087E+06    -9.22769E+06     1.14703E+06    -57.2748E-03     109.506E-03    -52.2314E-03     78.9636E-03    -57.4833E-03     109.302E-03    -52.0978E-03     78.3621E-03
            1973     8.54595E-03     27.1030E-03    -26.8664E+06    -112.310E+06    -8.83688E+06     1.26963E+06    -56.2160E-03     108.146E-03    -51.9299E-03     70.8775E-03    -56.3419E-03     107.803E-03    -51.7722E-03     70.4013E-03
            1974     7.69374E-03     27.0318E-03    -29.2574E+06    -124.695E+06    -9.33231E+06     1.31973E+06    -55.2246E-03     106.863E-03    -51.6385E-03     63.4126E-03    -55.2927E-03     106.412E-03    -51.4619E-03     63.0369E-03
            1975     6.84090E-03     26.9685E-03    -31.8608E+06    -134.967E+06    -12.0393E+06     1.08167E+06    -54.2599E-03     105.612E-03    -51.3519E-03     56.1026E-03    -54.2857E-03     105.080E-03    -51.1702E-03     55.8059E-03
            1976     5.98737E-03     26.9125E-03    -34.6744E+06    -138.391E+06    -16.7678E+06     935.687E+03    -53.3398E-03     104.410E-03    -51.0698E-03     48.9948E-03    -53.3417E-03     103.846E-03    -50.9027E-03     48.7639E-03
            1977     5.13327E-03     26.8639E-03    -37.7154E+06    -143.550E+06    -21.7664E+06     766.190E+03    -52.5093E-03     103.327E-03    -50.8177E-03     41.9598E-03    -52.4931E-03     102.730E-03    -50.6637E-03     41.7821E-03
            1978     4.27863E-03     26.8227E-03    -40.3059E+06    -150.854E+06    -26.9617E+06     621.819E+03    -51.7867E-03     102.385E-03    -50.5981E-03     34.9344E-03    -51.7523E-03     101.750E-03    -50.4557E-03     34.7997E-03
            1979     3.42351E-03     26.7890E-03    -42.2852E+06    -153.358E+06    -31.5387E+06     513.920E+03    -51.1743E-03     101.581E-03    -50.4065E-03     27.9783E-03    -51.1306E-03     100.934E-03    -50.2805E-03     27.8795E-03
            1980     2.56798E-03     26.7626E-03    -44.4557E+06    -156.843E+06    -37.3748E+06     412.495E+03    -50.6828E-03     100.928E-03    -50.2454E-03     21.0656E-03    -50.6303E-03     100.269E-03    -50.1404E-03     20.9967E-03
            1981     1.71218E-03     26.7437E-03    -46.5482E+06    -160.591E+06    -43.4588E+06     407.000E+03    -50.3237E-03     100.444E-03    -50.1204E-03     14.2079E-03    -50.2637E-03     99.7747E-03    -50.0373E-03     14.1655E-03
            1982     856.132E-06     26.7321E-03    -47.8743E+06    -162.811E+06    -47.0253E+06     331.348E+03    -50.1215E-03     100.144E-03    -50.0223E-03     7.74093E-03    -50.0575E-03     99.4684E-03    -49.9519E-03     7.72020E-03
            1983     16.1874E-03     27.6960E-03    -5.31944E+06     159.703E+06     110.425E+06     502.167E+03    -75.2831E-03     130.369E-03    -55.0856E-03     288.819E-03    -93.4820E-03     148.796E-03    -54.7573E-03     292.041E-03
            1984     15.3433E-03     27.2333E-03    -11.1443E+06     146.968E+06     92.9304E+06     405.738E+03    -84.7340E-03     139.347E-03    -54.6135E-03     386.299E-03    -105.950E-03     160.776E-03    -54.3458E-03     384.025E-03
            1985     14.4970E-03     26.8859E-03    -16.5994E+06     105.873E+06     45.7736E+06     1.58789E+06    -74.6645E-03     128.699E-03    -54.0341E-03     272.600E-03    -82.7136E-03     136.932E-03    -53.9347E-03     269.366E-03
            1986     13.6494E-03     26.6713E-03    -19.7035E+06     69.6883E+06     1.72965E+06     1.97690E+06    -65.2379E-03     118.730E-03    -53.4925E-03     173.540E-03    -68.0014E-03     121.666E-03    -53.5563E-03     171.472E-03
            1987     12.8003E-03     26.5300E-03    -20.4322E+06     24.2157E+06    -14.2947E+06     1.31199E+06    -61.7184E-03     114.837E-03    -53.1187E-03     126.210E-03    -63.0590E-03     116.233E-03    -53.1957E-03     124.701E-03
            1988     11.9518E-03     26.4107E-03    -20.7807E+06    -25.4259E+06    -10.5553E+06     1.38353E+06    -60.4538E-03     113.296E-03    -52.8422E-03     107.319E-03    -61.2449E-03     113.954E-03    -52.8279E-03     106.152E-03
            1989     11.1021E-03     26.3069E-03    -21.8100E+06    -57.0254E+06    -9.13603E+06     1.66505E+06    -59.3129E-03     111.836E-03    -52.5235E-03     95.3988E-03    -59.8181E-03     112.088E-03    -52.4549E-03     94.4743E-03
            1990     10.2519E-03     26.2119E-03    -23.2925E+06    -81.2554E+06    -9.80178E+06     1.58416E+06    -58.3249E-03     110.508E-03    -52.1828E-03     86.1196E-03    -58.6491E-03     110.489E-03    -52.0802E-03     85.3787E-03
            1991     9.40118E-03     26.1261E-03    -24.8785E+06    -98.7381E+06    -9.53279E+06     1.54056E+06    -57.2082E-03     109.048E-03    -51.8397E-03     77.4306E-03    -57.4103E-03     108.839E-03    -51.7081E-03     76.8423E-03
            1992     8.54956E-03     26.0486E-03    -26.6455E+06    -112.347E+06    -9.12299E+06     1.57544E+06    -56.0946E-03     107.598E-03    -51.5034E-03     69.4739E-03    -56.2146E-03     107.251E-03    -51.3475E-03     69.0091E-03
            1993     7.69732E-03     25.9789E-03    -28.5265E+06    -123.958E+06    -9.10260E+06     1.44745E+06    -55.0327E-03     106.211E-03    -51.1778E-03     61.9985E-03    -55.0951E-03     105.758E-03    -51.0022E-03     61.6314E-03
            1994     6.84425E-03     25.9167E-03    -30.8429E+06    -134.721E+06    -9.93042E+06     1.34814E+06    -53.9864E-03     104.854E-03    -50.8676E-03     54.7627E-03    -54.0079E-03     104.317E-03    -50.6772E-03     54.4758E-03
            1995     5.99056E-03     25.8619E-03    -33.8467E+06    -138.292E+06    -14.3760E+06     1.58467E+06    -52.9941E-03     103.550E-03    -50.5563E-03     47.7503E-03    -52.9936E-03     102.981E-03    -50.3786E-03     47.5334E-03
            1996     5.13613E-03     25.8142E-03    -37.0086E+06    -142.497E+06    -21.1458E+06     1.27841E+06    -52.0791E-03     102.346E-03    -50.2671E-03     40.8518E-03    -52.0605E-03     101.752E-03    -50.1125E-03     40.6858E-03
            1997     4.28107E-03     25.7740E-03    -39.8969E+06    -150.220E+06    -26.9410E+06     357.797E+03    -51.2990E-03     101.322E-03    -50.0232E-03     34.0013E-03    -51.2627E-03     100.689E-03    -49.8822E-03     33.8675E-03
            1998     3.42552E-03     25.7409E-03    -42.5514E+06    -153.294E+06    -32.1424E+06     12.7049E+03    -50.6357E-03     100.448E-03    -49.8118E-03     27.2034E-03    -50.5920E-03     99.8017E-03    -49.6886E-03     27.1015E-03
            1999     2.56956E-03     25.7152E-03    -44.8660E+06    -156.935E+06    -38.0882E+06     335.168E+03    -50.1041E-03     99.7406E-03    -49.6364E-03     20.4497E-03    -50.0523E-03     99.0828E-03    -49.5343E-03     20.3821E-03
            2000     1.71320E-03     25.6967E-03    -46.5901E+06    -160.188E+06    -43.5014E+06     461.870E+03    -49.7226E-03     99.2252E-03    -49.5026E-03     13.7919E-03    -49.6631E-03     98.5578E-03    -49.4203E-03     13.7517E-03
            2001     856.697E-06     25.6853E-03    -47.6762E+06    -162.149E+06    -46.8217E+06     310.291E+03    -49.5079E-03     98.8981E-03    -49.3902E-03     7.48560E-03    -49.4441E-03     98.2253E-03    -49.3201E-03     7.46530E-03
            2002     16.1958E-03     26.6391E-03    -4.97327E+06     159.530E+06     110.395E+06     59.4283E+03    -76.8821E-03     131.889E-03    -55.0072E-03     290.519E-03    -95.1248E-03     150.361E-03    -54.6793E-03     293.466E-03
            2003     15.3449E-03     26.1677E-03    -11.0275E+06     146.101E+06     92.9187E+06     1.33827E+06    -85.5066E-03     139.999E-03    -54.4922E-03     387.491E-03    -106.677E-03     161.379E-03    -54.2235E-03     385.034E-03
            2004     14.4993E-03     25.8224E-03    -16.5457E+06     105.740E+06     47.1992E+06     2.53466E+06    -75.0758E-03     128.960E-03    -53.8839E-03     270.377E-03    -82.9776E-03     137.041E-03    -53.7772E-03     267.147E-03
            2005     13.6518E-03     25.6108E-03    -18.9808E+06     70.9503E+06     3.46485E+06     1.70269E+06    -65.8256E-03     119.116E-03    -53.2901E-03     172.037E-03    -68.5601E-03     122.025E-03    -53.3482E-03     169.954E-03
            2006     12.8043E-03     25.4693E-03    -20.0139E+06     24.4330E+06    -14.5368E+06     1.47698E+06    -62.1232E-03     114.978E-03    -52.8552E-03     124.749E-03    -63.4470E-03     116.360E-03    -52.9342E-03     123.241E-03
            2007     11.9553E-03     25.3524E-03    -20.9512E+06    -25.3802E+06    -11.3467E+06     1.97074E+06    -60.4589E-03     112.998E-03    -52.5387E-03     105.822E-03    -61.2340E-03     113.641E-03    -52.5283E-03     104.675E-03
            2008     11.1057E-03     25.2493E-03    -22.2484E+06    -56.8820E+06    -9.84542E+06     1.93854E+06    -59.4162E-03     111.605E-03    -52.1884E-03     94.1701E-03    -59.9148E-03     111.851E-03    -52.1229E-03     93.2558E-03
            2009     10.2559E-03     25.1554E-03    -23.3395E+06    -80.9299E+06    -10.1284E+06     1.85348E+06    -58.3943E-03     110.203E-03    -51.8087E-03     84.5306E-03    -58.7113E-03     110.179E-03    -51.7082E-03     83.8003E-03
            2010     9.40505E-03     25.0713E-03    -24.6353E+06    -98.4416E+06    -9.84008E+06     1.91473E+06    -57.1572E-03     108.582E-03    -51.4251E-03     75.8698E-03    -57.3521E-03     108.369E-03    -51.2958E-03     75.2945E-03
            2011     8.55346E-03     24.9949E-03    -26.3499E+06    -111.945E+06    -9.57685E+06     1.77198E+06    -55.9883E-03     107.037E-03    -51.0490E-03     67.9565E-03    -56.1022E-03     106.688E-03    -50.8963E-03     67.5018E-03
            2012     7.70106E-03     24.9266E-03    -28.4498E+06    -123.433E+06    -9.61443E+06     1.53890E+06    -54.8237E-03     105.509E-03    -50.6852E-03     60.4551E-03    -54.8821E-03     105.056E-03    -50.5130E-03     60.0966E-03
            2013     6.84789E-03     24.8657E-03    -31.2025E+06    -134.704E+06    -10.4887E+06     1.68161E+06    -53.6906E-03     104.031E-03    -50.3409E-03     53.3133E-03    -53.7104E-03     103.493E-03    -50.1527E-03     53.0374E-03
            2014     5.99389E-03     24.8121E-03    -34.0546E+06    -138.099E+06    -14.4685E+06     1.76431E+06    -52.6038E-03     102.604E-03    -50.0003E-03     46.4101E-03    -52.6025E-03     102.034E-03    -49.8230E-03     46.2016E-03
            2015     5.13910E-03     24.7656E-03    -36.6185E+06    -141.285E+06    -20.2392E+06     1.43567E+06    -51.6345E-03     101.320E-03    -49.6855E-03     39.6581E-03    -51.6156E-03     100.728E-03    -49.5288E-03     39.4990E-03
            2016     4.28372E-03     24.7263E-03    -39.4979E+06    -149.075E+06    -26.2061E+06     844.127E+03    -50.7872E-03     100.202E-03    -49.4152E-03     32.9539E-03    -50.7506E-03     99.5724E-03    -49.2728E-03     32.8306E-03
            2017     3.42771E-03     24.6941E-03    -42.6288E+06    -153.186E+06    -32.7528E+06     316.276E+03    -50.0583E-03     99.2379E-03    -49.1796E-03     26.3498E-03    -50.0136E-03     98.5931E-03    -49.0595E-03     26.2552E-03
            2018     2.57119E-03     24.6690E-03    -45.1587E+06    -157.087E+06    -38.9911E+06     166.298E+03    -49.4959E-03     98.4841E-03    -48.9882E-03     19.7915E-03    -49.4437E-03     97.8269E-03    -48.8899E-03     19.7241E-03
            2019     1.71438E-03     24.6510E-03    -46.8321E+06    -159.887E+06    -43.6789E+06     217.140E+03    -49.0819E-03     97.9266E-03    -48.8447E-03     13.3385E-03    -49.0237E-03     97.2612E-03    -48.7634E-03     13.2968E-03
            2020     857.232E-06     24.6399E-03    -47.8843E+06    -161.708E+06    -46.8232E+06     53.9781E+03    -48.8444E-03     97.5703E-03    -48.7259E-03     7.22415E-03    -48.7823E-03     96.9000E-03    -48.6561E-03     7.20135E-03
            2021     16.1826E-03     25.5613E-03    -6.57249E+06     158.005E+06     108.426E+06    -429.796E+03    -77.2952E-03     132.300E-03    -55.0049E-03     289.227E-03    -95.2687E-03     150.497E-03    -54.6824E-03     291.939E-03
            2022     15.3467E-03     25.1009E-03    -13.1220E+06     143.932E+06     92.3482E+06     811.048E+03    -87.0611E-03     141.491E-03    -54.4296E-03     383.986E-03    -107.898E-03     162.524E-03    -54.1575E-03     381.238E-03
            2023     14.5013E-03     24.7592E-03    -16.5423E+06     106.160E+06     47.9963E+06     1.62690E+06    -75.6613E-03     129.395E-03    -53.7340E-03     267.763E-03    -83.4787E-03     137.392E-03    -53.6240E-03     264.496E-03
            2024     13.6550E-03     24.5487E-03    -18.9474E+06     70.6137E+06     1.69392E+06     1.88219E+06    -66.4287E-03     119.496E-03    -53.0677E-03     170.374E-03    -69.1375E-03     122.384E-03    -53.1341E-03     168.275E-03
            2025     12.8076E-03     24.4086E-03    -20.4327E+06     24.3806E+06    -15.6133E+06     2.52803E+06    -62.3645E-03     114.952E-03    -52.5872E-03     123.029E-03    -63.6701E-03     116.317E-03    -52.6710E-03     121.536E-03
            2026     11.9590E-03     24.2947E-03    -21.5511E+06    -24.2795E+06    -11.7059E+06     2.37070E+06    -60.6980E-03     112.929E-03    -52.2314E-03     104.590E-03    -61.4660E-03     113.569E-03    -52.2234E-03     103.453E-03
            2027     11.1096E-03     24.1912E-03    -22.3215E+06    -56.3847E+06    -10.3010E+06     1.84736E+06    -59.6155E-03     111.451E-03    -51.8355E-03     92.7692E-03    -60.1063E-03     111.692E-03    -51.7729E-03     91.8586E-03
            2028     10.2599E-03     24.0997E-03    -23.1003E+06    -80.7926E+06    -10.4650E+06     1.95562E+06    -58.3914E-03     109.805E-03    -51.4140E-03     82.7958E-03    -58.6983E-03     109.774E-03    -51.3157E-03     82.0762E-03
            2029     9.40905E-03     24.0166E-03    -24.3638E+06    -98.1356E+06    -10.1402E+06     2.12849E+06    -57.1526E-03     108.141E-03    -50.9888E-03     74.1952E-03    -57.3402E-03     107.924E-03    -50.8619E-03     73.6301E-03
            2030     8.55759E-03     23.9420E-03    -26.0171E+06    -111.308E+06    -9.84400E+06     2.11698E+06    -55.8734E-03     106.442E-03    -50.5690E-03     66.2302E-03    -55.9811E-03     106.091E-03    -50.4191E-03     65.7880E-03
            2031     7.70507E-03     23.8750E-03    -28.3037E+06    -123.115E+06    -9.98850E+06     2.08836E+06    -54.5947E-03     104.760E-03    -50.1657E-03     58.8189E-03    -54.6485E-03     104.306E-03    -49.9961E-03     58.4752E-03
            2032     6.85170E-03     23.8155E-03    -30.9029E+06    -134.485E+06    -10.5917E+06     2.06508E+06    -53.3701E-03     103.157E-03    -49.7868E-03     51.7381E-03    -53.3857E-03     102.616E-03    -49.5999E-03     51.4742E-03
            2033     5.99739E-03     23.7633E-03    -33.7905E+06    -137.456E+06    -14.2246E+06     1.84618E+06    -52.2046E-03     101.619E-03    -49.4144E-03     44.9733E-03    -52.2012E-03     101.049E-03    -49.2372E-03     44.7721E-03
            2034     5.14232E-03     23.7180E-03    -36.9743E+06    -140.514E+06    -19.6762E+06     1.54513E+06    -51.1555E-03     100.228E-03    -49.0722E-03     38.3695E-03    -51.1389E-03     99.6380E-03    -48.9132E-03     38.2172E-03
            2035     4.28647E-03     23.6798E-03    -40.0781E+06    -148.090E+06    -25.2332E+06     1.17772E+06    -50.2385E-03     99.0167E-03    -48.7782E-03     31.8399E-03    -50.2067E-03     98.3901E-03    -48.6315E-03     31.7253E-03
            2036     3.42997E-03     23.6485E-03    -42.8971E+06    -152.483E+06    -32.3551E+06     671.139E+03    -49.4598E-03     97.9776E-03    -48.5178E-03     25.4333E-03    -49.4175E-03     97.3355E-03    -48.3963E-03     25.3468E-03
            2037     2.57298E-03     23.6242E-03    -45.2972E+06    -156.860E+06    -39.4558E+06     253.751E+03    -48.8456E-03     97.1520E-03    -48.3063E-03     19.0984E-03    -48.7934E-03     96.4965E-03    -48.2105E-03     19.0349E-03
            2038     1.71554E-03     23.6067E-03    -47.1253E+06    -159.714E+06    -44.2019E+06         153.385    -48.4031E-03     96.5560E-03    -48.1529E-03     12.8721E-03    -48.3457E-03     95.8925E-03    -48.0740E-03     12.8293E-03
            2039     857.868E-06     23.5960E-03    -48.3206E+06    -161.603E+06    -47.3620E+06    -82.5806E+03    -48.1479E-03     96.1791E-03    -48.0311E-03     6.95553E-03    -48.0873E-03     95.5107E-03    -47.9636E-03     6.93191E-03
            2040     16.1963E-03     24.4986E-03    -5.77843E+06     157.999E+06     108.877E+06     810.674E+03    -78.6421E-03     133.561E-03    -54.9192E-03     286.784E-03    -96.3672E-03     151.511E-03    -54.5955E-03     289.273E-03
            2041     15.3471E-03     24.0310E-03    -12.9539E+06     143.087E+06     91.2868E+06     591.832E+03    -86.6215E-03     140.909E-03    -54.2874E-03     380.019E-03    -107.188E-03     161.673E-03    -54.0196E-03     377.323E-03
            2042     14.5039E-03     23.6960E-03    -17.5216E+06     104.628E+06     45.7264E+06     587.655E+03    -76.0125E-03     129.565E-03    -53.5529E-03     264.546E-03    -83.6948E-03     137.424E-03    -53.4506E-03     261.242E-03
            2043     13.6580E-03     23.4850E-03    -19.5659E+06     69.5032E+06     1.43321E+06     2.27408E+06    -66.7316E-03     119.579E-03    -52.8477E-03     168.261E-03    -69.3942E-03     122.415E-03    -52.9129E-03     166.165E-03
            2044     12.8108E-03     23.3498E-03    -20.1375E+06     25.3304E+06    -14.8302E+06     3.04300E+06    -62.6229E-03     114.950E-03    -52.3266E-03     121.010E-03    -63.9036E-03     116.292E-03    -52.4082E-03     119.529E-03
            2045     11.9623E-03     23.2350E-03    -20.5760E+06    -22.8497E+06    -11.2806E+06     2.27712E+06    -61.1406E-03     113.057E-03    -51.9167E-03     103.072E-03    -61.8967E-03     113.692E-03    -51.9101E-03     101.931E-03
            2046     11.1140E-03     23.1343E-03    -21.4453E+06    -55.8912E+06    -10.0857E+06     2.05692E+06    -59.8188E-03     111.286E-03    -51.4670E-03     90.9402E-03    -60.2954E-03     111.517E-03    -51.4053E-03     90.0386E-03
            2047     10.2640E-03     23.0438E-03    -22.7650E+06    -80.5721E+06    -10.6316E+06     2.17651E+06    -58.4544E-03     109.451E-03    -50.9970E-03     80.9977E-03    -58.7512E-03     109.412E-03    -50.9003E-03     80.2894E-03
            2048     9.41354E-03     22.9624E-03    -24.0936E+06    -97.9040E+06    -10.2697E+06     2.27153E+06    -57.1179E-03     107.645E-03    -50.5268E-03     72.2635E-03    -57.2971E-03     107.421E-03    -50.4013E-03     71.7093E-03
            2049     8.56185E-03     22.8895E-03    -25.7738E+06    -111.225E+06    -10.0750E+06     2.59612E+06    -55.7056E-03     105.770E-03    -50.0645E-03     64.3601E-03    -55.8064E-03     105.414E-03    -49.9162E-03     63.9331E-03
            2050     7.70929E-03     22.8242E-03    -28.0253E+06    -122.675E+06    -10.2650E+06     2.79336E+06    -54.3431E-03     103.965E-03    -49.6216E-03     57.0591E-03    -54.3915E-03     103.508E-03    -49.4544E-03     56.7332E-03
            2051     6.85564E-03     22.7663E-03    -30.8884E+06    -133.770E+06    -10.8871E+06     2.55544E+06    -53.0436E-03     102.249E-03    -49.2050E-03     50.0473E-03    -53.0566E-03     101.709E-03    -49.0207E-03     49.7973E-03
            2052     6.00113E-03     22.7155E-03    -33.9988E+06    -136.649E+06    -13.9407E+06     2.17799E+06    -51.7926E-03     100.592E-03    -48.7998E-03     43.4029E-03    -51.7894E-03     100.024E-03    -48.6221E-03     43.2127E-03
            2053     5.14562E-03     22.6716E-03    -36.9732E+06    -139.606E+06    -19.1322E+06     1.67143E+06    -50.6471E-03     99.0742E-03    -48.4271E-03     36.9609E-03    -50.6309E-03     98.4866E-03    -48.2667E-03     36.8162E-03
            2054     4.28934E-03     22.6346E-03    -39.8249E+06    -147.316E+06    -24.9936E+06     1.14861E+06    -49.6673E-03     97.7725E-03    -48.1052E-03     30.6183E-03    -49.6346E-03     97.1479E-03    -47.9588E-03     30.5081E-03
            2055     3.43239E-03     22.6043E-03    -42.7045E+06    -151.798E+06    -32.3516E+06     901.443E+03    -48.8356E-03     96.6565E-03    -47.8209E-03     24.4164E-03    -48.7926E-03     96.0168E-03    -47.7006E-03     24.3367E-03
            2056     2.57480E-03     22.5808E-03    -45.3261E+06    -156.235E+06    -39.5573E+06     606.542E+03    -48.1673E-03     95.7585E-03    -47.5912E-03     18.3175E-03    -48.1156E-03     95.1060E-03    -47.4967E-03     18.2615E-03
            2057     1.71677E-03     22.5638E-03    -47.3562E+06    -159.378E+06    -44.6437E+06     256.267E+03    -47.6850E-03     95.1118E-03    -47.4268E-03     12.3372E-03    -47.6284E-03     94.4507E-03    -47.3502E-03     12.2998E-03
            2058     858.464E-06     22.5534E-03    -48.8264E+06    -161.559E+06    -48.0454E+06     75.6226E+03    -47.4086E-03     94.7206E-03    -47.3120E-03     6.66482E-03    -47.3495E-03     94.0541E-03    -47.2472E-03     6.64429E-03
            2059     16.1912E-03     23.4287E-03    -6.09753E+06     157.753E+06     109.032E+06     1.06805E+06    -80.7387E-03     135.603E-03    -54.8645E-03     286.134E-03    -98.4609E-03     153.548E-03    -54.5393E-03     288.309E-03
            2060     15.3518E-03     22.9652E-03    -10.7564E+06     144.140E+06     92.6265E+06     1.30457E+06    -87.6383E-03     141.791E-03    -54.1529E-03     379.808E-03    -108.129E-03     162.487E-03    -53.8832E-03     376.915E-03
            2061     14.5068E-03     22.6305E-03    -15.7528E+06     104.494E+06     46.8263E+06     2.25647E+06    -76.4477E-03     129.816E-03    -53.3679E-03     262.033E-03    -83.9512E-03     137.498E-03    -53.2625E-03     258.725E-03
            2062     13.6613E-03     22.4234E-03    -19.4546E+06     69.0203E+06     2.81176E+06     2.25340E+06    -67.1146E-03     119.733E-03    -52.6184E-03     165.544E-03    -69.7144E-03     122.501E-03    -52.6762E-03     163.451E-03
            2063     12.8141E-03     22.2890E-03    -20.2533E+06     25.4932E+06    -14.6107E+06     1.98831E+06    -62.9866E-03     115.027E-03    -52.0400E-03     118.716E-03    -64.2419E-03     116.343E-03    -52.1207E-03     117.226E-03
            2064     11.9670E-03     22.1761E-03    -20.3308E+06    -22.6265E+06    -11.9701E+06     2.61451E+06    -61.4066E-03     112.981E-03    -51.5744E-03     101.148E-03    -62.1454E-03     113.602E-03    -51.5719E-03     100.018E-03
            2065     11.1179E-03     22.0771E-03    -21.5374E+06    -55.4057E+06    -10.3808E+06     2.70823E+06    -60.0163E-03     111.092E-03    -51.0761E-03     88.8648E-03    -60.4822E-03     111.315E-03    -51.0164E-03     87.9786E-03
            2066     10.2688E-03     21.9884E-03    -23.0069E+06    -80.0032E+06    -10.9565E+06     2.49854E+06    -58.5635E-03     109.117E-03    -50.5538E-03     78.9461E-03    -58.8522E-03     109.072E-03    -50.4593E-03     78.2511E-03
            2067     9.41803E-03     21.9088E-03    -24.3900E+06    -97.9674E+06    -10.7789E+06     2.52016E+06    -57.0285E-03     107.065E-03    -50.0360E-03     70.1795E-03    -57.2003E-03     106.833E-03    -49.9124E-03     69.6396E-03
            2068     8.56645E-03     21.8377E-03    -25.9169E+06    -111.374E+06    -10.4435E+06     2.76781E+06    -55.5273E-03     105.059E-03    -49.5318E-03     62.2973E-03    -55.6219E-03     104.697E-03    -49.3849E-03     61.8828E-03
            2069     7.71359E-03     21.7742E-03    -27.6654E+06    -122.496E+06    -10.4691E+06     3.28424E+06    -54.0827E-03     103.130E-03    -49.0471E-03     55.0380E-03    -54.1244E-03     102.669E-03    -48.8818E-03     54.7282E-03
            2070     6.85986E-03     21.7179E-03    -30.1599E+06    -132.688E+06    -10.5724E+06     3.37668E+06    -52.6943E-03     101.286E-03    -48.5914E-03     48.1162E-03    -52.7021E-03     100.746E-03    -48.4082E-03     47.8856E-03
            2071     6.00498E-03     21.6688E-03    -33.1653E+06    -135.172E+06    -13.4329E+06     2.44003E+06    -51.3564E-03     99.5053E-03    -48.1489E-03     41.6068E-03    -51.3493E-03     98.9397E-03    -47.9720E-03     41.4275E-03
            2072     5.14915E-03     21.6264E-03    -35.9940E+06    -138.698E+06    -19.2497E+06     1.61159E+06    -50.1296E-03     97.8690E-03    -47.7395E-03     35.3442E-03    -50.1078E-03     97.2829E-03    -47.5824E-03     35.2051E-03
            2073     4.29242E-03     21.5907E-03    -39.0724E+06    -146.817E+06    -25.6938E+06     1.60781E+06    -49.0663E-03     96.4525E-03    -47.3862E-03     29.2286E-03    -49.0283E-03     95.8291E-03    -47.2452E-03     29.1299E-03
            2074     3.43487E-03     21.5615E-03    -42.3844E+06    -151.130E+06    -32.6304E+06     1.53614E+06    -48.1721E-03     95.2524E-03    -47.0803E-03     23.2545E-03    -48.1273E-03     94.6152E-03    -46.9629E-03     23.1873E-03
            2075     2.57675E-03     21.5388E-03    -45.2215E+06    -155.310E+06    -39.3297E+06     1.21578E+06    -47.4606E-03     94.2922E-03    -46.8316E-03     17.4091E-03    -47.4097E-03     93.6434E-03    -46.7375E-03     17.3642E-03
            2076     1.71814E-03     21.5225E-03    -47.4469E+06    -158.687E+06    -44.7231E+06     832.978E+03    -46.9287E-03     93.5781E-03    -46.6494E-03     11.7102E-03    -46.8732E-03     92.9205E-03    -46.5741E-03     11.6824E-03
            2077     859.124E-06     21.5126E-03    -48.8663E+06    -160.960E+06    -48.3144E+06     413.296E+03    -46.6196E-03     93.1515E-03    -46.5319E-03     6.32726E-03    -46.5611E-03     92.4883E-03    -46.4692E-03     6.31230E-03
            2078     16.1925E-03     22.3540E-03    -4.83651E+06     157.157E+06     108.504E+06     877.777E+03    -81.2716E-03     136.166E-03    -54.8943E-03     284.494E-03    -98.7282E-03     153.849E-03    -54.5727E-03     286.444E-03
            2079     15.3508E-03     21.8952E-03    -10.3700E+06     143.091E+06     92.9274E+06     1.42342E+06    -89.8183E-03     143.915E-03    -54.0971E-03     376.266E-03    -109.924E-03     164.223E-03    -53.8249E-03     372.996E-03
            2080     14.5092E-03     21.5649E-03    -15.2887E+06     104.434E+06     50.0284E+06     2.93835E+06    -77.7602E-03     130.960E-03    -53.1994E-03     258.180E-03    -85.1262E-03     138.497E-03    -53.0786E-03     254.801E-03
            2081     13.6648E-03     21.3604E-03    -17.7113E+06     70.1633E+06     4.76560E+06     2.88238E+06    -67.5235E-03     119.881E-03    -52.3570E-03     162.008E-03    -70.0474E-03     122.577E-03    -52.4092E-03     159.932E-03
            2082     12.8190E-03     21.2286E-03    -19.8003E+06     25.1196E+06    -16.2390E+06     2.80618E+06    -63.2446E-03     114.958E-03    -51.7130E-03     116.710E-03    -64.4681E-03     116.247E-03    -51.8019E-03     115.241E-03
            2083     11.9707E-03     21.1175E-03    -21.4873E+06    -22.2523E+06    -13.4323E+06     3.24411E+06    -61.6831E-03     112.884E-03    -51.2004E-03     99.0185E-03    -62.4095E-03     113.494E-03    -51.2042E-03     97.9033E-03
            2084     11.1230E-03     21.0198E-03    -22.4834E+06    -54.6681E+06    -11.3844E+06     2.94128E+06    -60.1733E-03     110.824E-03    -50.6511E-03     86.6008E-03    -60.6298E-03     111.040E-03    -50.5962E-03     85.7276E-03
            2085     10.2734E-03     20.9333E-03    -23.5756E+06    -79.4944E+06    -11.7435E+06     2.91446E+06    -58.5961E-03     108.675E-03    -50.0789E-03     76.5309E-03    -58.8756E-03     108.623E-03    -49.9882E-03     75.8531E-03
            2086     9.42302E-03     20.8557E-03    -25.1432E+06    -97.7691E+06    -11.7089E+06     2.93478E+06    -56.9514E-03     106.464E-03    -49.5124E-03     67.8578E-03    -57.1170E-03     106.227E-03    -49.3927E-03     67.3352E-03
            2087     8.57123E-03     20.7867E-03    -27.0892E+06    -111.226E+06    -11.5695E+06     3.03156E+06    -55.3756E-03     104.335E-03    -48.9596E-03     59.9913E-03    -55.4676E-03     103.970E-03    -48.8169E-03     59.5919E-03
            2088     7.71848E-03     20.7250E-03    -29.2066E+06    -122.608E+06    -11.9066E+06     3.32697E+06    -53.8168E-03     102.243E-03    -48.4265E-03     52.7665E-03    -53.8585E-03     101.781E-03    -48.2659E-03     52.4682E-03
            2089     6.86435E-03     20.6707E-03    -30.9244E+06    -131.387E+06    -12.5575E+06     3.12601E+06    -52.3061E-03     100.227E-03    -47.9212E-03     45.9611E-03    -52.3125E-03     99.6939E-03    -47.7486E-03     45.7375E-03
            2090     6.00919E-03     20.6232E-03    -32.6073E+06    -133.469E+06    -15.4017E+06     2.35736E+06    -50.8832E-03     98.3200E-03    -47.4368E-03     39.5804E-03    -50.8699E-03     97.7619E-03    -47.2730E-03     39.4089E-03
            2091     5.15295E-03     20.5825E-03    -35.5169E+06    -138.545E+06    -20.6023E+06     2.36933E+06    -49.5778E-03     96.5738E-03    -46.9959E-03     33.5044E-03    -49.5498E-03     95.9876E-03    -46.8466E-03     33.3825E-03
            2092     4.29569E-03     20.5481E-03    -39.1294E+06    -146.135E+06    -26.0083E+06     2.61092E+06    -48.4281E-03     95.0426E-03    -46.6144E-03     27.6321E-03    -48.3896E-03     94.4218E-03    -46.4758E-03     27.5525E-03
            2093     3.43764E-03     20.5202E-03    -42.3319E+06    -150.084E+06    -32.3477E+06     2.23074E+06    -47.4590E-03     93.7413E-03    -46.2823E-03     21.9331E-03    -47.4151E-03     93.1080E-03    -46.1650E-03     21.8796E-03
            2094     2.57888E-03     20.4985E-03    -45.0060E+06    -154.212E+06    -38.9599E+06     1.81408E+06    -46.6873E-03     92.6984E-03    -46.0112E-03     16.3803E-03    -46.6369E-03     92.0538E-03    -45.9171E-03     16.3465E-03
            2095     1.71954E-03     20.4829E-03    -47.0829E+06    -157.405E+06    -44.2238E+06     1.33260E+06    -46.1184E-03     91.9295E-03    -45.8111E-03     11.0124E-03    -46.0635E-03     91.2769E-03    -45.7357E-03     10.9933E-03
            2096     859.897E-06     20.4734E-03    -48.5171E+06    -159.632E+06    -47.8259E+06     820.247E+03    -45.7917E-03     91.4555E-03    -45.6639E-03     5.98370E-03    -45.7340E-03     90.7978E-03    -45.6012E-03     5.97533E-03
            2097     16.1891E-03     21.2763E-03    -4.93694E+06     156.262E+06     107.669E+06     581.932E+03    -82.2642E-03     137.126E-03    -54.8617E-03     283.281E-03    -99.3496E-03     154.436E-03    -54.5428E-03     284.948E-03
            2098     15.3521E-03     20.8235E-03    -11.9551E+06     141.469E+06     91.8728E+06     1.51538E+06    -91.1507E-03     145.123E-03    -53.9724E-03     369.728E-03    -110.694E-03     164.860E-03    -53.7009E-03     366.220E-03
            2099     14.5130E-03     20.4953E-03    -16.1252E+06     103.100E+06     49.1164E+06     1.23432E+06    -78.3316E-03     131.297E-03    -52.9657E-03     251.317E-03    -85.4847E-03     138.617E-03    -52.8462E-03     247.877E-03
            2100     13.6698E-03     20.2996E-03    -17.9708E+06     69.2627E+06     4.30344E+06     3.36307E+06    -67.5546E-03     119.613E-03    -52.0584E-03     158.412E-03    -70.0045E-03     122.233E-03    -52.1112E-03     156.368E-03
            2101     12.8221E-03     20.1674E-03    -19.4188E+06     26.5167E+06    -15.3003E+06     5.23076E+06    -63.6169E-03     114.988E-03    -51.3709E-03     114.726E-03    -64.8148E-03     116.255E-03    -51.4577E-03     113.294E-03
            2102     11.9764E-03     20.0587E-03    -20.9747E+06    -20.5414E+06    -13.3507E+06     3.89485E+06    -61.9573E-03     112.756E-03    -50.7986E-03     96.5160E-03    -62.6648E-03     113.355E-03    -50.8051E-03     95.4152E-03
            2103     11.1277E-03     19.9630E-03    -22.2927E+06    -54.1794E+06    -11.9989E+06     3.28738E+06    -60.2906E-03     110.485E-03    -50.1947E-03     84.3347E-03    -60.7293E-03     110.688E-03    -50.1438E-03     83.4798E-03
            2104     10.2788E-03     19.8785E-03    -23.6021E+06    -79.1066E+06    -12.4122E+06     3.48003E+06    -58.6587E-03     108.229E-03    -49.5701E-03     73.9657E-03    -58.9251E-03     108.167E-03    -49.4833E-03     73.3081E-03
            2105     9.42817E-03     19.8034E-03    -25.1671E+06    -97.4051E+06    -12.4433E+06     3.57012E+06    -56.9545E-03     105.901E-03    -48.9463E-03     65.2119E-03    -57.1092E-03     105.657E-03    -48.8308E-03     64.7108E-03
            2106     8.57657E-03     19.7361E-03    -27.0066E+06    -110.913E+06    -12.5386E+06     3.87887E+06    -55.2352E-03     103.570E-03    -48.3349E-03     57.3162E-03    -55.3175E-03     103.199E-03    -48.1977E-03     56.9414E-03
            2107     7.72352E-03     19.6769E-03    -29.1915E+06    -121.831E+06    -13.4910E+06     3.67348E+06    -53.5477E-03     101.292E-03    -47.7442E-03     50.1368E-03    -53.5818E-03     100.829E-03    -47.5927E-03     49.8555E-03
            2108     6.86931E-03     19.6244E-03    -31.3273E+06    -129.587E+06    -15.5679E+06     2.62902E+06    -51.9067E-03     99.0874E-03    -47.1807E-03     43.4616E-03    -51.9087E-03     98.5634E-03    -47.0252E-03     43.2431E-03
            2109     6.01377E-03     19.5790E-03    -33.7621E+06    -133.280E+06    -18.7508E+06     2.45544E+06    -50.3543E-03     97.0079E-03    -46.6535E-03     37.2461E-03    -50.3389E-03     96.4539E-03    -46.5051E-03     37.0858E-03
            2110     5.15704E-03     19.5398E-03    -36.4111E+06    -138.574E+06    -21.5077E+06     3.16815E+06    -48.9604E-03     95.1454E-03    -46.1850E-03     31.3906E-03    -48.9333E-03     94.5595E-03    -46.0388E-03     31.2870E-03
            2111     4.29934E-03     19.5072E-03    -39.0607E+06    -144.942E+06    -25.6288E+06     3.14721E+06    -47.7246E-03     93.4951E-03    -45.7705E-03     25.8046E-03    -47.6865E-03     92.8782E-03    -45.6319E-03     25.7383E-03
            2112     3.44063E-03     19.4804E-03    -41.8333E+06    -148.805E+06    -32.1214E+06     2.75125E+06    -46.6655E-03     92.0734E-03    -45.4079E-03     20.4630E-03    -46.6204E-03     91.4446E-03    -45.2920E-03     20.4212E-03
            2113     2.58118E-03     19.4599E-03    -44.4191E+06    -152.774E+06    -38.5439E+06     2.26822E+06    -45.8340E-03     90.9509E-03    -45.1170E-03     15.2590E-03    -45.7829E-03     90.3115E-03    -45.0238E-03     15.2347E-03
            2114     1.72114E-03     19.4451E-03    -46.4342E+06    -155.768E+06    -43.4894E+06     1.67100E+06    -45.2326E-03     90.1355E-03    -44.9029E-03     10.2519E-03    -45.1778E-03     89.4889E-03    -44.8271E-03     10.2396E-03
            2115     860.659E-06     19.4360E-03    -47.6748E+06    -157.754E+06    -46.9112E+06     1.00413E+06    -44.8778E-03     89.6238E-03    -44.7460E-03     5.57434E-03    -44.8199E-03     88.9728E-03    -44.6827E-03     5.56962E-03
            2116     16.1955E-03     20.2065E-03    -5.75210E+06     154.789E+06     106.929E+06     423.922E+03    -85.4616E-03     140.169E-03    -54.7076E-03     279.387E-03    -102.190E-03     157.117E-03    -54.3891E-03     280.520E-03
            2117     15.3574E-03     19.7473E-03    -10.2814E+06     140.974E+06     91.7499E+06     1.31158E+06    -90.9930E-03     144.695E-03    -53.7019E-03     364.127E-03    -110.071E-03     163.971E-03    -53.4326E-03     360.551E-03
            2118     14.5184E-03     19.4298E-03    -14.8481E+06     102.469E+06     48.3126E+06     2.37116E+06    -77.3367E-03     130.012E-03    -52.6755E-03     246.083E-03    -84.2037E-03     137.050E-03    -52.5610E-03     242.746E-03
            2119     13.6724E-03     19.2370E-03    -19.7872E+06     67.3191E+06     3.82937E+06     3.86620E+06    -67.8619E-03     119.618E-03    -51.7562E-03     155.892E-03    -70.2566E-03     122.171E-03    -51.8060E-03     153.862E-03
            2120     12.8285E-03     19.1063E-03    -20.7465E+06     27.1012E+06    -14.8312E+06     4.62173E+06    -64.0859E-03     115.100E-03    -51.0139E-03     112.664E-03    -65.2620E-03     116.342E-03    -51.0973E-03     111.225E-03
            2121     11.9806E-03     19.0003E-03    -20.2462E+06    -18.7569E+06    -13.3255E+06     4.54398E+06    -62.2222E-03     112.599E-03    -50.3766E-03     94.4368E-03    -62.9048E-03     113.182E-03    -50.3866E-03     93.3579E-03
            2122     11.1333E-03     18.9063E-03    -21.3525E+06    -53.5410E+06    -12.2618E+06     4.29443E+06    -60.6453E-03     110.355E-03    -49.7100E-03     81.7537E-03    -61.0617E-03     110.542E-03    -49.6627E-03     80.9235E-03
            2123     10.2840E-03     18.8243E-03    -22.8838E+06    -78.8709E+06    -12.8408E+06     4.11593E+06    -58.8909E-03     107.904E-03    -49.0132E-03     70.9786E-03    -59.1381E-03     107.827E-03    -48.9298E-03     70.3434E-03
            2124     9.43413E-03     18.7512E-03    -24.1578E+06    -96.7447E+06    -12.6721E+06     4.25759E+06    -57.0451E-03     105.361E-03    -48.3156E-03     61.9411E-03    -57.1833E-03     105.107E-03    -48.2036E-03     61.4635E-03
            2125     8.58244E-03     18.6867E-03    -25.4134E+06    -110.539E+06    -12.8727E+06     4.26305E+06    -55.1179E-03     102.751E-03    -47.6329E-03     54.0570E-03    -55.1829E-03     102.371E-03    -47.5001E-03     53.7021E-03
            2126     7.72939E-03     18.6294E-03    -26.3707E+06    -120.200E+06    -13.6204E+06     3.88310E+06    -53.2547E-03     100.231E-03    -46.9765E-03     46.9549E-03    -53.2698E-03     99.7656E-03    -46.8321E-03     46.6903E-03
            2127     6.87487E-03     18.5794E-03    -28.4758E+06    -128.659E+06    -14.3024E+06     3.81203E+06    -51.4541E-03     97.8189E-03    -46.3648E-03     40.4282E-03    -51.4398E-03     97.2884E-03    -46.2085E-03     40.2372E-03
            2128     6.01894E-03     18.5360E-03    -32.0805E+06    -133.064E+06    -17.3981E+06     4.04822E+06    -49.7607E-03     95.5523E-03    -45.7916E-03     34.4924E-03    -49.7356E-03     94.9915E-03    -45.6391E-03     34.3630E-03
            2129     5.16176E-03     18.4989E-03    -35.5107E+06    -137.662E+06    -21.9444E+06     3.59900E+06    -48.2300E-03     93.5036E-03    -45.2736E-03     28.9784E-03    -48.1967E-03     92.9192E-03    -45.1322E-03     28.8890E-03
            2130     4.30334E-03     18.4678E-03    -38.3207E+06    -144.032E+06    -26.2319E+06     3.40945E+06    -46.8932E-03     91.7209E-03    -44.8277E-03     23.7786E-03    -46.8503E-03     91.1068E-03    -44.6945E-03     23.7225E-03
            2131     3.44396E-03     18.4426E-03    -41.1006E+06    -147.306E+06    -31.9705E+06     3.30777E+06    -45.7686E-03     90.2133E-03    -44.4448E-03     18.8341E-03    -45.7213E-03     89.5899E-03    -44.3314E-03     18.8048E-03
            2132     2.58369E-03     18.4231E-03    -43.6113E+06    -150.951E+06    -37.8910E+06     2.68751E+06    -44.8897E-03     89.0282E-03    -44.1385E-03     14.0444E-03    -44.8377E-03     88.3953E-03    -44.0458E-03     14.0293E-03
            2133     1.72282E-03     18.4092E-03    -45.5190E+06    -153.757E+06    -42.6686E+06     1.84181E+06    -44.2612E-03     88.1726E-03    -43.9114E-03     9.42144E-03    -44.2056E-03     87.5333E-03    -43.8358E-03     9.41369E-03
            2134     861.542E-06     18.4006E-03    -46.6035E+06    -155.619E+06    -45.9174E+06     996.221E+03    -43.8863E-03     87.6286E-03    -43.7422E-03     5.09926E-03    -43.8276E-03     86.9852E-03    -43.6786E-03     5.09569E-03
            2135     16.1987E-03     19.1286E-03    -5.40998E+06     154.729E+06     107.160E+06    -177.396E+03    -88.2702E-03     142.845E-03    -54.5751E-03     276.137E-03    -104.783E-03     159.578E-03    -54.2559E-03     276.815E-03
            2136     15.3642E-03     18.6758E-03    -10.3615E+06     139.111E+06     91.3954E+06     985.640E+03    -90.7550E-03     144.257E-03    -53.5018E-03     363.693E-03    -109.619E-03     163.313E-03    -53.2315E-03     360.063E-03
            2137     14.5198E-03     18.3658E-03    -16.4118E+06     100.478E+06     49.3942E+06     4.09623E+06    -77.6497E-03     130.124E-03    -52.4741E-03     244.390E-03    -84.2965E-03     136.926E-03    -52.3490E-03     241.103E-03
            2138     13.6780E-03     18.1716E-03    -19.1053E+06     67.7804E+06     5.99232E+06     4.66361E+06    -68.9161E-03     120.410E-03    -51.4939E-03     154.047E-03    -71.2480E-03     122.897E-03    -51.5345E-03     152.005E-03
            2139     12.8317E-03     18.0470E-03    -20.1614E+06     27.1692E+06    -16.2959E+06     4.06760E+06    -64.8864E-03     115.536E-03    -50.6496E-03     110.291E-03    -66.0208E-03     116.743E-03    -50.7413E-03     108.845E-03
            2140     11.9861E-03     17.9406E-03    -20.9384E+06    -18.3033E+06    -15.0638E+06     4.58329E+06    -63.0055E-03     112.929E-03    -49.9233E-03     91.7980E-03    -63.6627E-03     113.491E-03    -49.9418E-03     90.7268E-03
            2141     11.1388E-03     17.8501E-03    -21.4261E+06    -52.6300E+06    -13.2559E+06     4.86444E+06    -61.3146E-03     110.475E-03    -49.1599E-03     78.0972E-03    -61.7098E-03     110.646E-03    -49.1188E-03     77.2835E-03
            2142     10.2909E-03     17.7698E-03    -22.3518E+06    -78.0304E+06    -13.5418E+06     4.77930E+06    -59.2674E-03     107.632E-03    -48.3642E-03     66.9767E-03    -59.4940E-03     107.541E-03    -48.2863E-03     66.3653E-03
            2143     9.44087E-03     17.6999E-03    -23.6204E+06    -96.1414E+06    -13.3467E+06     4.70410E+06    -57.0996E-03     104.677E-03    -47.5779E-03     57.8842E-03    -57.2210E-03     104.413E-03    -47.4710E-03     57.4297E-03
            2144     8.58941E-03     17.6378E-03    -24.9070E+06    -109.388E+06    -13.5081E+06     4.33262E+06    -54.9755E-03     101.790E-03    -46.8147E-03     50.1356E-03    -55.0283E-03     101.406E-03    -46.6875E-03     49.7980E-03
            2145     7.73622E-03     17.5834E-03    -26.8574E+06    -119.572E+06    -14.6405E+06     4.28251E+06    -52.8586E-03     98.9462E-03    -46.0876E-03     43.2158E-03    -52.8680E-03     98.4783E-03    -45.9485E-03     42.9720E-03
            2146     6.88132E-03     17.5358E-03    -29.2176E+06    -128.659E+06    -15.2867E+06     5.01110E+06    -50.8633E-03     96.2817E-03    -45.4184E-03     36.9886E-03    -50.8459E-03     95.7482E-03    -45.2659E-03     36.8269E-03
            2147     6.02495E-03     17.4947E-03    -31.2945E+06    -131.817E+06    -17.5751E+06     5.16148E+06    -49.0213E-03     93.8178E-03    -44.7965E-03     31.3953E-03    -48.9901E-03     93.2586E-03    -44.6479E-03     31.2917E-03
            2148     5.16703E-03     17.4597E-03    -33.8679E+06    -136.215E+06    -22.4865E+06     4.89893E+06    -47.3481E-03     91.5862E-03    -44.2381E-03     26.2697E-03    -47.3054E-03     91.0049E-03    -44.1039E-03     26.2065E-03
            2149     4.30787E-03     17.4305E-03    -37.2907E+06    -142.736E+06    -26.7573E+06     4.47353E+06    -45.9142E-03     89.6824E-03    -43.7682E-03     21.5180E-03    -45.8658E-03     89.0725E-03    -43.6409E-03     21.4830E-03
            2150     3.44758E-03     17.4067E-03    -40.2825E+06    -145.521E+06    -31.6940E+06     3.80434E+06    -44.7401E-03     88.1114E-03    -43.3712E-03     17.0187E-03    -44.6908E-03     87.4943E-03    -43.2603E-03     17.0013E-03
            2151     2.58649E-03     17.3885E-03    -42.5165E+06    -148.787E+06    -37.2700E+06     3.04108E+06    -43.8282E-03     86.8810E-03    -43.0528E-03     12.6959E-03    -43.7743E-03     86.2560E-03    -42.9618E-03     12.6893E-03
            2152     1.72470E-03     17.3753E-03    -44.2572E+06    -151.408E+06    -41.8109E+06     2.09717E+06    -43.1783E-03     85.9962E-03    -42.8179E-03     8.51556E-03    -43.1209E-03     85.3653E-03    -42.7432E-03     8.51365E-03
            2153     862.478E-06     17.3674E-03    -45.4201E+06    -153.285E+06    -44.9760E+06     1.17480E+06    -42.8105E-03     85.4359E-03    -42.6254E-03     4.58047E-03    -42.7505E-03     84.8010E-03    -42.5622E-03     4.58053E-03
            2154     16.1992E-03     18.0482E-03    -6.11206E+06     154.562E+06     105.716E+06    -466.555E+03    -88.0833E-03     142.750E-03    -54.6672E-03     276.817E-03    -104.346E-03     159.234E-03    -54.3539E-03     277.255E-03
            2155     15.3581E-03     17.6025E-03    -13.6992E+06     135.146E+06      89.505E+06     826.333E+03    -93.2262E-03     146.773E-03    -53.5470E-03     360.923E-03    -111.641E-03     165.360E-03    -53.2756E-03     356.843E-03
            2156     14.5222E-03     17.2954E-03    -17.7867E+06     97.8344E+06     49.9688E+06     2.67342E+06    -80.0545E-03     132.432E-03    -52.3776E-03     240.328E-03    -86.4901E-03     139.007E-03    -52.2438E-03     236.891E-03
            2157     13.6794E-03     17.1081E-03    -18.3412E+06     67.8423E+06     7.00060E+06     4.23998E+06    -70.8483E-03     122.083E-03    -51.2352E-03     149.850E-03    -73.0988E-03     124.490E-03    -51.2719E-03     147.752E-03
            2158     12.8371E-03     16.9839E-03    -19.2101E+06     27.8871E+06    -16.0629E+06     5.35620E+06    -66.3661E-03     116.607E-03    -50.2406E-03     105.543E-03    -67.4505E-03     117.769E-03    -50.3335E-03     104.097E-03
            2159     11.9922E-03     16.8820E-03    -20.5903E+06    -17.7747E+06    -15.9967E+06     5.20473E+06    -64.1348E-03     113.509E-03    -49.3737E-03     87.4109E-03    -64.7581E-03     114.042E-03    -49.3981E-03     86.3484E-03
            2160     11.1464E-03     16.7923E-03    -21.5785E+06    -52.0448E+06    -14.3199E+06     5.05664E+06    -62.0324E-03     110.517E-03    -48.4844E-03     73.2519E-03    -62.4017E-03     110.667E-03    -48.4493E-03     72.4529E-03
            2161     10.2988E-03     16.7164E-03    -22.3541E+06    -77.1086E+06    -14.5975E+06     5.26282E+06    -59.5859E-03     107.161E-03    -47.5755E-03     61.9670E-03    -59.7916E-03     107.057E-03    -47.5042E-03     61.3808E-03
            2162     9.44917E-03     16.6490E-03    -23.4406E+06    -95.4262E+06    -14.1879E+06     5.18967E+06    -57.1087E-03     103.800E-03    -46.6910E-03     53.0932E-03    -57.2136E-03     103.524E-03    -46.5896E-03     52.6651E-03
            2163     8.59767E-03     16.5902E-03    -25.1660E+06    -108.204E+06    -14.2853E+06     5.16107E+06    -54.6739E-03     100.516E-03    -45.8420E-03     45.4427E-03    -54.7172E-03     100.127E-03    -45.7200E-03     45.1352E-03
            2164     7.74420E-03     16.5386E-03     -27.326E+06    -119.646E+06    -15.7682E+06     5.50525E+06    -52.3073E-03     97.3504E-03    -45.0431E-03     38.8509E-03    -52.3090E-03     96.8762E-03    -44.9089E-03     38.6405E-03
            2165     6.88888E-03     16.4939E-03    -29.2882E+06    -127.528E+06    -17.5960E+06     5.41246E+06    -50.1040E-03     94.4110E-03    -44.3070E-03     33.0742E-03    -50.0795E-03     93.8809E-03    -44.1676E-03     32.9331E-03
            2166     6.03175E-03     16.4553E-03    -31.0331E+06    -131.042E+06    -18.8248E+06     5.16958E+06    -48.0898E-03     91.7349E-03    -43.6451E-03     27.8972E-03    -48.0527E-03     91.1770E-03    -43.5042E-03     27.8066E-03
            2167     5.17310E-03     16.4227E-03    -33.1168E+06    -135.602E+06    -21.1726E+06     6.02701E+06    -46.3099E-03     89.3742E-03    -43.0643E-03     23.2089E-03    -46.2637E-03     88.7904E-03    -42.9255E-03     23.1703E-03
            2168     4.31301E-03     16.3953E-03    -35.7425E+06    -140.050E+06    -25.6239E+06     5.89427E+06    -44.7901E-03     87.3530E-03    -42.5629E-03     18.9455E-03    -44.7380E-03     86.7510E-03    -42.4361E-03     18.9366E-03
            2169     3.45179E-03     16.3732E-03    -38.5959E+06    -143.210E+06    -31.2330E+06     4.55654E+06    -43.5534E-03     85.6989E-03    -42.1455E-03     14.9588E-03    -43.4988E-03     85.0893E-03    -42.0380E-03     14.9570E-03
            2170     2.58962E-03     16.3561E-03    -40.9967E+06    -146.361E+06    -36.7038E+06     3.58685E+06    -42.6116E-03     84.4286E-03    -41.8171E-03     11.1411E-03    -42.5539E-03     83.8122E-03    -41.7289E-03     11.1457E-03
            2171     1.72679E-03     16.3439E-03    -42.8789E+06    -148.769E+06    -40.7278E+06     2.64008E+06    -41.9377E-03     83.5181E-03    -41.5804E-03     7.46866E-03    -41.8786E-03     82.8967E-03    -41.5062E-03     7.47646E-03
            2172     863.523E-06     16.3364E-03    -44.0779E+06    -150.422E+06    -43.4832E+06     1.46497E+06    -41.5781E-03     82.9616E-03    -41.3835E-03     3.99678E-03    -41.5177E-03     82.3369E-03    -41.3189E-03     4.00195E-03
            2173     16.1847E-03     16.9589E-03    -5.80757E+06     154.363E+06     104.974E+06     1.29722E+06    -88.1412E-03     142.984E-03    -54.8426E-03     278.106E-03    -103.943E-03     159.008E-03    -54.5332E-03     278.381E-03
            2174     15.3597E-03     16.5212E-03    -12.4882E+06     133.985E+06     88.7859E+06     1.09140E+06    -96.4464E-03     150.020E-03    -53.5734E-03     347.185E-03    -113.765E-03     167.513E-03    -53.3056E-03     342.561E-03
            2175     14.5225E-03     16.2259E-03    -16.3481E+06     95.8333E+06     49.7258E+06     1.11126E+06    -82.1747E-03     134.351E-03    -52.1764E-03     230.708E-03    -88.3200E-03     140.635E-03    -52.0430E-03     227.129E-03
            2176     13.6856E-03     16.0385E-03    -19.3311E+06     65.1204E+06     6.82611E+06     3.58941E+06    -72.6998E-03     123.557E-03    -50.8575E-03     142.304E-03    -74.8384E-03     125.839E-03    -50.8898E-03     140.155E-03
            2177     12.8443E-03     15.9225E-03    -20.3125E+06     28.2203E+06    -15.7102E+06     5.66845E+06    -67.9284E-03     117.626E-03    -49.6974E-03     99.8126E-03    -68.9647E-03     118.736E-03    -49.7874E-03     98.3574E-03
            2178     12.0008E-03     15.8208E-03    -20.1980E+06    -15.9358E+06    -16.2789E+06     5.99612E+06    -65.3965E-03     114.063E-03    -48.6665E-03     82.0342E-03    -65.9855E-03     114.571E-03    -48.6955E-03     80.9818E-03
            2179     11.1559E-03     15.7359E-03    -20.9837E+06    -51.4482E+06    -15.0576E+06     5.68382E+06    -62.6119E-03     110.249E-03    -47.6368E-03     67.3713E-03    -62.9474E-03     110.371E-03    -47.6070E-03     66.6004E-03
            2180     10.3085E-03     15.6628E-03    -21.8880E+06    -76.4783E+06    -15.2983E+06     5.74799E+06    -59.7836E-03     106.394E-03    -46.6105E-03     56.1730E-03    -59.9641E-03     106.270E-03    -46.5443E-03     55.6165E-03
            2181     9.45933E-03     15.5994E-03    -22.9962E+06    -94.6316E+06    -14.8724E+06     5.94469E+06    -56.9976E-03     102.618E-03    -45.6203E-03     47.4690E-03    -57.0840E-03     102.330E-03    -45.5241E-03     47.0735E-03
            2182     8.60764E-03     15.5439E-03    -24.3842E+06    -107.358E+06    -14.6668E+06     6.12438E+06    -54.2029E-03     98.8845E-03    -44.6816E-03     40.1139E-03    -54.2309E-03     98.4876E-03    -44.5639E-03     39.8409E-03
            2183     7.75374E-03     15.4958E-03    -25.4988E+06    -118.967E+06    -15.9351E+06     6.06984E+06    -51.5874E-03     95.3957E-03    -43.8083E-03     33.9075E-03    -51.5723E-03     94.9141E-03    -43.6785E-03     33.7238E-03
            2184     6.89773E-03     15.4540E-03    -26.7355E+06    -126.042E+06    -17.4455E+06     5.97313E+06    -49.1667E-03     92.1778E-03    -43.0111E-03     28.5665E-03    -49.1259E-03     91.6453E-03    -42.8768E-03     28.4492E-03
            2185     6.03980E-03     15.4183E-03    -29.0736E+06    -130.558E+06    -18.1978E+06     6.22220E+06    -46.9835E-03     89.2901E-03    -42.3066E-03     23.8759E-03    -46.9342E-03     88.7269E-03    -42.1661E-03     23.8125E-03
            2186     5.18012E-03     15.3880E-03    -31.9251E+06    -135.214E+06    -20.3064E+06     6.65044E+06    -45.0912E-03     86.7820E-03    -41.6908E-03     19.7053E-03    -45.0382E-03     86.1945E-03    -41.5500E-03     19.6854E-03
            2187     4.31904E-03     15.3628E-03    -34.2959E+06    -137.286E+06    -24.6910E+06     6.64485E+06    -43.4852E-03     84.6412E-03    -41.1560E-03     16.0035E-03    -43.4295E-03     84.0480E-03    -41.0307E-03     16.0126E-03
            2188     3.45665E-03     15.3423E-03    -36.7329E+06    -140.249E+06    -30.2532E+06     5.84785E+06    -42.1888E-03     82.9032E-03    -40.7143E-03     12.5876E-03    -42.1297E-03     82.3033E-03    -40.6090E-03     12.6086E-03
            2189     2.59333E-03     15.3265E-03    -39.2906E+06    -143.388E+06    -35.4888E+06     4.60111E+06    -41.1962E-03     81.5663E-03    -40.3701E-03     9.33485E-03    -41.1355E-03     80.9599E-03    -40.2827E-03     9.35697E-03
            2190     1.72930E-03     15.3151E-03    -41.1094E+06    -145.440E+06    -39.0847E+06     3.15138E+06    -40.4893E-03     80.6144E-03    -40.1250E-03     6.22785E-03    -40.4284E-03     80.0043E-03    -40.0500E-03     6.24509E-03
            2191     864.739E-06     15.3083E-03    -42.2017E+06    -146.997E+06    -41.7575E+06     1.72859E+06    -40.1074E-03     80.0438E-03    -39.9364E-03     3.34952E-03    -40.0451E-03     79.4309E-03    -39.8709E-03     3.35964E-03
            2192     16.1919E-03     15.8594E-03    -5.22654E+06     154.212E+06     105.579E+06     2.16748E+06    -90.4777E-03     145.189E-03    -54.7114E-03     273.306E-03    -105.651E-03     160.586E-03    -54.3995E-03     273.385E-03
            2193     15.3633E-03     15.4464E-03    -9.73634E+06     135.378E+06     89.9203E+06     1.55641E+06    -96.5177E-03     149.815E-03    -53.2970E-03     335.125E-03    -112.912E-03     166.394E-03    -53.0296E-03     330.624E-03
            2194     14.5313E-03     15.1488E-03    -15.3379E+06     94.6498E+06     49.7375E+06     2.15734E+06    -84.0527E-03     135.807E-03    -51.7544E-03     220.908E-03    -89.8750E-03     141.768E-03    -51.6207E-03     217.205E-03
            2195     13.6934E-03     14.9734E-03    -19.6417E+06     62.7646E+06     6.93316E+06     3.91293E+06    -73.7364E-03     124.018E-03    -50.2814E-03     134.457E-03    -75.7286E-03     126.144E-03    -50.3093E-03     132.322E-03
            2196     12.8523E-03     14.8565E-03    -20.9763E+06     27.6681E+06    -17.0435E+06     5.12241E+06    -69.3040E-03     118.272E-03    -48.9678E-03     93.7301E-03    -70.2805E-03     119.322E-03    -49.0627E-03     92.2641E-03
            2197     12.0117E-03     14.7606E-03    -20.8752E+06    -15.2124E+06    -18.2870E+06     5.85816E+06    -66.4933E-03     114.267E-03    -47.7740E-03     75.3608E-03    -67.0432E-03     114.743E-03    -47.8131E-03     74.3140E-03
            2198     11.1673E-03     14.6792E-03    -20.8331E+06    -50.4636E+06    -16.2111E+06     6.22483E+06    -63.1317E-03     109.732E-03    -46.6003E-03     60.9427E-03    -63.4341E-03     109.829E-03    -46.5779E-03     60.2030E-03
            2199     10.3208E-03     14.6106E-03    -21.5315E+06    -75.6356E+06    -16.0762E+06     6.40443E+06    -59.9010E-03     105.349E-03    -45.4484E-03     49.8815E-03    -60.0569E-03     105.207E-03    -45.3878E-03     49.3594E-03
            2200     9.47131E-03     14.5508E-03    -22.4058E+06    -93.9785E+06    -15.8622E+06     6.50564E+06    -56.7060E-03     101.052E-03    -44.3459E-03     41.3259E-03    -56.7720E-03     100.751E-03    -44.2565E-03     40.9639E-03
            2201     8.61942E-03     14.4997E-03    -23.2096E+06    -106.449E+06    -15.3950E+06     6.56155E+06    -53.6394E-03     96.9497E-03    -43.3103E-03     34.2928E-03    -53.6498E-03     96.5447E-03    -43.1992E-03     34.0490E-03
            2202     7.76498E-03     14.4550E-03    -24.6882E+06    -117.913E+06    -15.9977E+06     6.67198E+06    -50.7482E-03     93.1031E-03    -42.3550E-03     28.4016E-03    -50.7219E-03     92.6172E-03    -42.2282E-03     28.2460E-03
            2203     6.90822E-03     14.4168E-03    -26.8102E+06    -125.250E+06    -17.8996E+06     6.98341E+06    -48.0694E-03     89.5553E-03    -41.4859E-03     23.4884E-03    -48.0235E-03     89.0216E-03    -41.3550E-03     23.4014E-03
            2204     6.04929E-03     14.3839E-03    -28.7829E+06    -129.729E+06    -19.2860E+06     7.33133E+06    -45.6970E-03     86.4172E-03    -40.7202E-03     19.3541E-03    -45.6419E-03     85.8553E-03    -40.5868E-03     19.3192E-03
            2205     5.18857E-03     14.3563E-03    -30.7474E+06    -133.971E+06    -21.4915E+06     7.50419E+06    -43.6609E-03     83.7177E-03    -40.0568E-03     15.7753E-03    -43.5996E-03     83.1339E-03    -39.9254E-03     15.7777E-03
            2206     4.32615E-03     14.3332E-03    -33.2024E+06    -135.108E+06    -24.7904E+06     7.36800E+06    -41.9572E-03     81.4470E-03    -39.4898E-03     12.7047E-03    -41.8975E-03     80.8615E-03    -39.3697E-03     12.7317E-03
            2207     3.46250E-03     14.3145E-03    -35.5269E+06    -137.059E+06    -28.8169E+06     6.76474E+06    -40.5854E-03     79.6091E-03    -39.0237E-03     9.93130E-03    -40.5260E-03     79.0204E-03    -38.9175E-03     9.97051E-03
            2208     2.59779E-03     14.3000E-03    -37.2960E+06    -139.506E+06    -33.4257E+06     5.39336E+06    -39.5257E-03     78.1830E-03    -38.6572E-03     7.34569E-03    -39.4633E-03     77.5896E-03    -38.5680E-03     7.38255E-03
            2209     1.73228E-03     14.2897E-03    -38.7742E+06    -141.537E+06    -37.1304E+06     3.68269E+06    -38.7822E-03     77.1774E-03    -38.3952E-03     4.90996E-03    -38.7179E-03     76.5804E-03    -38.3194E-03     4.93702E-03
            2210     866.309E-06     14.2833E-03    -39.7019E+06    -142.908E+06    -39.5811E+06     2.08731E+06    -38.3600E-03     76.5725E-03    -38.2125E-03     2.64224E-03    -38.2942E-03     75.9731E-03    -38.1456E-03     2.65858E-03
            2211     16.2070E-03     14.7983E-03    -5.13113E+06     152.981E+06     105.136E+06     1.23979E+06    -95.6960E-03     150.124E-03    -54.4281E-03     270.195E-03    -110.564E-03     165.214E-03    -54.1168E-03     269.350E-03
            2212     15.3677E-03     14.3568E-03    -10.1387E+06     135.137E+06     89.8048E+06     2.35671E+06    -97.8931E-03     150.743E-03    -52.8494E-03     333.226E-03    -114.048E-03     167.081E-03    -52.5816E-03     328.436E-03
            2213     14.5396E-03     14.0757E-03    -15.4560E+06     94.5160E+06     47.3864E+06     3.85414E+06    -85.2429E-03     136.423E-03    -51.1800E-03     211.582E-03    -90.6280E-03     141.952E-03    -51.0577E-03     207.875E-03
            2214     13.7034E-03     13.9049E-03    -19.1332E+06     61.8793E+06     3.45548E+06     4.61615E+06    -75.5386E-03     125.080E-03    -49.5410E-03     128.686E-03    -77.4076E-03     127.091E-03    -49.5857E-03     126.541E-03
            2215     12.8659E-03     13.7917E-03    -20.7481E+06     26.8952E+06    -19.2950E+06     5.39888E+06    -70.8622E-03     118.920E-03    -48.0576E-03     87.3703E-03    -71.7711E-03     119.907E-03    -48.1630E-03     85.9043E-03
            2216     12.0243E-03     13.6995E-03    -20.6926E+06    -14.2974E+06    -20.0156E+06     6.01330E+06    -67.1801E-03     113.885E-03    -46.7045E-03     68.5672E-03    -67.6813E-03     114.320E-03    -46.7539E-03     67.5499E-03
            2217     11.1811E-03     13.6235E-03    -21.0499E+06    -49.6550E+06    -17.6674E+06     6.46450E+06    -63.6359E-03     109.026E-03    -45.3903E-03     54.2990E-03    -63.9077E-03     109.099E-03    -45.3761E-03     53.5876E-03
            2218     10.3345E-03     13.5590E-03    -21.5570E+06    -74.9942E+06    -17.2189E+06     6.80603E+06    -59.9785E-03     104.080E-03    -44.1020E-03     43.2860E-03    -60.1115E-03     103.921E-03    -44.0481E-03     42.7964E-03
            2219     9.48539E-03     13.5045E-03    -22.1222E+06    -92.7136E+06    -16.5034E+06     6.83598E+06    -56.4209E-03     99.2966E-03    -42.8756E-03     34.8824E-03    -56.4702E-03     98.9865E-03    -42.7916E-03     34.5511E-03
            2220     8.63306E-03     13.4571E-03    -23.2242E+06    -105.856E+06    -15.9659E+06     7.01038E+06    -53.0242E-03     94.7524E-03    -41.7282E-03     28.0608E-03    -53.0232E-03     94.3398E-03    -41.6209E-03     27.8459E-03
            2221     7.77819E-03     13.4169E-03    -24.8114E+06    -117.442E+06    -15.7856E+06     7.92165E+06    -49.8002E-03     90.4776E-03    -40.6774E-03     22.5339E-03    -49.7676E-03     89.9860E-03    -40.5501E-03     22.4146E-03
            2222     6.92054E-03     13.3823E-03    -26.8814E+06    -123.908E+06    -17.2861E+06     8.18563E+06    -46.8346E-03     86.5599E-03    -39.7253E-03     18.2011E-03    -46.7866E-03     86.0268E-03    -39.5931E-03     18.1463E-03
            2223     6.06058E-03     13.3528E-03    -28.8258E+06    -128.508E+06    -20.0210E+06     7.86172E+06    -44.2158E-03     83.1020E-03    -38.8862E-03     14.7320E-03    -44.1581E-03     82.5438E-03    -38.7582E-03     14.7175E-03
            2224     5.19843E-03     13.3279E-03    -30.5361E+06    -132.673E+06    -22.6611E+06     8.13105E+06    -42.0034E-03     80.1726E-03    -38.1693E-03     11.8743E-03    -41.9390E-03     79.5945E-03    -38.0459E-03     11.8953E-03
            2225     4.33466E-03     13.3072E-03    -32.1821E+06    -132.576E+06    -24.4334E+06     8.02393E+06    -40.1756E-03     77.7444E-03    -37.5688E-03     9.51249E-03    -40.1137E-03     77.1683E-03    -37.4521E-03     9.55592E-03
            2226     3.46939E-03     13.2903E-03    -33.8063E+06    -133.590E+06    -27.3190E+06     6.91482E+06    -38.7084E-03     75.7876E-03    -37.0793E-03     7.44007E-03    -38.6469E-03     75.2109E-03    -36.9731E-03     7.48696E-03
            2227     2.60301E-03     13.2774E-03    -35.2246E+06    -135.521E+06    -31.3192E+06     5.58625E+06    -37.5974E-03     74.2946E-03    -36.6972E-03     5.52757E-03    -37.5331E-03     73.7147E-03    -36.6062E-03     5.57087E-03
            2228     1.73579E-03     13.2680E-03    -36.3907E+06    -137.152E+06    -34.3717E+06     4.03523E+06    -36.8248E-03     73.2506E-03    -36.4258E-03     3.72278E-03    -36.7588E-03     72.6678E-03    -36.3460E-03     3.75689E-03
            2229     868.012E-06     13.2623E-03    -37.1310E+06    -138.361E+06    -36.6508E+06     2.20159E+06    -36.3924E-03     72.6210E-03    -36.2287E-03     1.99412E-03    -36.3245E-03     72.0363E-03    -36.1574E-03     2.01322E-03
            2230     16.1959E-03     13.7075E-03    -5.77220E+06     151.193E+06     103.776E+06     545.090E+03    -100.666E-03     154.972E-03    -54.3058E-03     263.294E-03    -115.063E-03     169.585E-03    -53.9978E-03     261.306E-03
            2231     15.3803E-03     13.2715E-03    -11.3868E+06     133.279E+06     88.6127E+06     2.09862E+06    -102.050E-03     154.531E-03    -52.4810E-03     329.790E-03    -117.777E-03     170.435E-03    -52.2147E-03     324.178E-03
            2232     14.5476E-03     13.0030E-03    -15.8901E+06     93.2575E+06     45.0755E+06     4.29724E+06    -87.3276E-03     137.922E-03    -50.5947E-03     205.692E-03    -92.3713E-03     143.111E-03    -50.4815E-03     201.955E-03
            2233     13.7141E-03     12.8318E-03    -19.1378E+06     60.7795E+06     320.675E+03     5.88159E+06    -78.6854E-03     127.419E-03    -48.7339E-03     122.728E-03    -80.4591E-03     129.341E-03    -48.7927E-03     120.521E-03
            2234     12.8784E-03     12.7264E-03    -19.9010E+06     27.9626E+06    -20.1482E+06     6.58335E+06    -72.4643E-03     119.499E-03    -47.0351E-03     80.2378E-03    -73.2990E-03     120.422E-03    -47.1475E-03     78.7951E-03
            2235     12.0390E-03     12.6395E-03    -20.3364E+06    -12.9388E+06    -21.1111E+06     6.64409E+06    -68.0745E-03     113.581E-03    -45.5069E-03     62.4141E-03    -68.5325E-03     113.983E-03    -45.5642E-03     61.4303E-03
            2236     11.1960E-03     12.5677E-03    -21.1170E+06    -48.9417E+06    -18.7842E+06     6.90651E+06    -64.1869E-03     108.222E-03    -44.0353E-03     47.3205E-03    -64.4290E-03     108.271E-03    -44.0276E-03     46.6397E-03
            2237     10.3504E-03     12.5094E-03    -21.7744E+06    -74.0005E+06    -17.8222E+06     7.12941E+06    -60.0593E-03     102.658E-03    -42.5990E-03     36.3261E-03    -60.1729E-03     102.484E-03    -42.5492E-03     35.8669E-03
            2238     9.50095E-03     12.4593E-03    -22.7898E+06    -91.7104E+06    -16.8893E+06     7.36049E+06    -56.0910E-03     97.3296E-03    -41.2386E-03     28.3399E-03    -56.1302E-03     97.0118E-03    -41.1570E-03     28.0396E-03
            2239     8.64871E-03     12.4173E-03    -24.3450E+06    -105.567E+06    -15.9218E+06     8.04108E+06    -52.2516E-03     92.2288E-03    -39.9772E-03     21.9708E-03    -52.2469E-03     91.8095E-03    -39.8684E-03     21.7912E-03
            2240     7.79289E-03     12.3815E-03    -26.2391E+06    -116.986E+06    -15.9406E+06     8.67616E+06    -48.6457E-03     87.4754E-03    -38.8297E-03     17.1734E-03    -48.6142E-03     86.9819E-03    -38.7017E-03     17.0825E-03
            2241     6.93433E-03     12.3511E-03    -27.6875E+06    -122.070E+06    -17.0310E+06     8.74202E+06    -45.4014E-03     83.2019E-03    -37.8005E-03     13.5795E-03    -45.3564E-03     82.6748E-03    -37.6685E-03     13.5467E-03
            2242     6.07296E-03     12.3253E-03    -29.4326E+06    -126.874E+06    -20.0678E+06     8.59479E+06    -42.5492E-03     79.4501E-03    -36.9009E-03     10.8773E-03    -42.4944E-03     78.8986E-03    -36.7746E-03     10.8836E-03
            2243     5.20940E-03     12.3034E-03    -30.9944E+06    -130.814E+06    -22.5348E+06     8.08329E+06    -40.1512E-03     76.2939E-03    -36.1426E-03     8.80788E-03    -40.0906E-03     75.7241E-03    -36.0207E-03     8.83697E-03
            2244     4.34382E-03     12.2851E-03    -31.6287E+06    -129.872E+06    -23.4134E+06     7.24198E+06    -38.1980E-03     73.7167E-03    -35.5187E-03     7.13133E-03    -38.1380E-03     73.1510E-03    -35.4016E-03     7.17101E-03
            2245     3.47678E-03     12.2703E-03    -32.1631E+06    -130.345E+06    -26.0313E+06     6.56664E+06    -36.6714E-03     71.6868E-03    -35.0155E-03     5.63500E-03    -36.6078E-03     71.1216E-03    -34.9100E-03     5.68172E-03
            2246     2.60854E-03     12.2588E-03    -33.1758E+06    -131.607E+06    -29.0423E+06     5.40581E+06    -35.5378E-03     70.1687E-03    -34.6309E-03     4.25431E-03    -35.4720E-03     69.6019E-03    -34.5372E-03     4.29816E-03
            2247     1.73950E-03     12.2505E-03    -34.0391E+06    -132.737E+06    -31.4265E+06     3.69137E+06    -34.7570E-03     69.1155E-03    -34.3585E-03     2.90292E-03    -34.6899E-03     68.5471E-03    -34.2738E-03     2.93431E-03
            2248     869.907E-06     12.2454E-03    -34.4796E+06    -133.934E+06    -33.8724E+06     2.01416E+06    -34.3342E-03     68.4801E-03    -34.1459E-03     1.57841E-03    -34.2635E-03     67.9096E-03    -34.0711E-03     1.59597E-03
            2249     16.2062E-03     12.6061E-03    -4.51866E+06     149.954E+06     103.125E+06     1.34178E+06    -103.591E-03     157.854E-03    -54.2629E-03     259.543E-03    -117.360E-03     171.841E-03    -53.9582E-03     256.916E-03
            2250     15.3785E-03     12.1859E-03    -10.9724E+06     131.717E+06     88.1895E+06     2.57466E+06    -106.284E-03     158.486E-03    -52.2026E-03     320.367E-03    -121.169E-03     173.546E-03    -51.9367E-03     314.205E-03
            2251     14.5538E-03     11.9215E-03    -16.0036E+06     91.5808E+06     46.4544E+06     4.51544E+06    -91.9881E-03     141.999E-03    -50.0109E-03     197.314E-03    -96.7689E-03     146.915E-03    -49.8882E-03     193.322E-03
            2252     13.7273E-03     11.7565E-03    -18.5434E+06     60.2875E+06     3.16718E+06     6.44594E+06    -81.5148E-03     129.373E-03    -47.8581E-03     112.572E-03    -83.1518E-03     131.151E-03    -47.9028E-03     110.326E-03
            2253     12.8931E-03     11.6613E-03    -19.1816E+06     28.5962E+06    -19.6713E+06     7.38886E+06    -73.8754E-03     119.799E-03    -45.9241E-03     71.7396E-03    -74.6327E-03     120.648E-03    -46.0361E-03     70.3280E-03
            2254     12.0542E-03     11.5785E-03    -20.1491E+06    -11.8483E+06    -22.2527E+06     7.81749E+06    -69.2129E-03     113.416E-03    -44.2032E-03     55.3126E-03    -69.6316E-03     113.787E-03    -44.2681E-03     54.3601E-03
            2255     11.2131E-03     11.5132E-03    -21.3123E+06    -47.5701E+06    -19.0857E+06     7.88379E+06    -64.5632E-03     107.131E-03    -42.5676E-03     39.9605E-03    -64.7793E-03     107.159E-03    -42.5631E-03     39.3194E-03
            2256     10.3672E-03     11.4608E-03    -22.7646E+06    -72.6481E+06    -17.8341E+06     7.85083E+06    -59.8737E-03     100.869E-03    -40.9949E-03     29.7473E-03    -59.9762E-03     100.685E-03    -40.9457E-03     29.3236E-03
            2257     9.51808E-03     11.4165E-03    -24.1287E+06    -91.1509E+06    -16.7796E+06     8.16985E+06    -55.3797E-03     94.9048E-03    -39.5251E-03     22.5747E-03    -55.4150E-03     94.5801E-03    -39.4419E-03     22.3092E-03
            2258     8.66468E-03     11.3800E-03    -25.4908E+06    -105.334E+06    -15.1653E+06     8.81786E+06    -51.1107E-03     89.2945E-03    -38.1838E-03     17.1027E-03    -51.1060E-03     88.8697E-03    -38.0699E-03     16.9538E-03
            2259     7.80804E-03     11.3494E-03    -26.5748E+06    -115.289E+06    -14.6089E+06     8.70349E+06    -47.2260E-03     84.2017E-03    -36.9757E-03     13.2381E-03    -47.1964E-03     83.7110E-03    -36.8430E-03     13.1635E-03
            2260     6.94795E-03     11.3234E-03    -27.6406E+06    -120.967E+06    -15.4435E+06     8.48590E+06    -43.7650E-03     79.6707E-03    -35.9057E-03     10.4740E-03    -43.7213E-03     79.1443E-03    -35.7675E-03     10.4500E-03
            2261     6.08520E-03     11.3015E-03    -28.7882E+06    -125.232E+06    -17.3911E+06     8.79894E+06    -40.7847E-03     75.7659E-03    -34.9813E-03     8.49427E-03    -40.7317E-03     75.2166E-03    -34.8449E-03     8.51173E-03
            2262     5.21988E-03     11.2829E-03    -30.0643E+06    -127.256E+06    -19.9947E+06     7.62826E+06    -38.2762E-03     72.4777E-03    -34.2016E-03     7.07837E-03    -38.2191E-03     71.9201E-03    -34.0734E-03     7.10772E-03
            2263     4.35265E-03     11.2673E-03    -31.2008E+06    -127.463E+06    -22.2089E+06     5.92568E+06    -36.2528E-03     69.8196E-03    -33.5668E-03     5.90870E-03    -36.1956E-03     69.2634E-03    -33.4478E-03     5.93564E-03
            2264     3.48381E-03     11.2545E-03    -31.6971E+06    -127.838E+06    -24.6777E+06     5.17864E+06    -34.7043E-03     67.7697E-03    -33.0655E-03     4.80048E-03    -34.6439E-03     67.2143E-03    -32.9575E-03     4.83213E-03
            2265     2.61384E-03     11.2445E-03    -31.6309E+06    -127.981E+06    -26.5384E+06     4.25200E+06    -33.5728E-03     66.2614E-03    -32.6887E-03     3.72659E-03    -33.5081E-03     65.7069E-03    -32.5899E-03     3.75742E-03
            2266     1.74299E-03     11.2372E-03    -31.8713E+06    -129.039E+06    -29.2669E+06     2.94537E+06    -32.8061E-03     65.2263E-03    -32.4202E-03     2.58739E-03    -32.7365E-03     64.6702E-03    -32.3333E-03     2.61027E-03
            2267     871.623E-06     11.2327E-03    -32.1810E+06    -130.098E+06    -31.5641E+06     1.64103E+06    -32.3897E-03     64.6119E-03    -32.2222E-03     1.44551E-03    -32.3164E-03     64.0540E-03    -32.1447E-03     1.45880E-03
            2268     16.1966E-03     11.4987E-03    -5.15250E+06     147.711E+06     101.519E+06     1.72629E+06    -107.853E-03     162.052E-03    -54.1998E-03     256.189E-03    -121.005E-03     175.416E-03    -53.8989E-03     252.823E-03
            2269     15.3859E-03     11.0941E-03    -10.9245E+06     130.010E+06     87.5343E+06     3.16354E+06    -111.941E-03     163.750E-03    -51.8096E-03     306.574E-03    -125.846E-03     177.825E-03    -51.5446E-03     299.690E-03
            2270     14.5680E-03     10.8331E-03    -14.6420E+06     91.2893E+06     49.2048E+06     4.67629E+06    -96.3791E-03     145.628E-03    -49.2490E-03     182.915E-03    -100.792E-03     150.173E-03    -49.1141E-03     178.668E-03
            2271     13.7417E-03     10.6823E-03    -17.3138E+06     59.5263E+06     6.40426E+06     6.79996E+06    -82.9051E-03     129.732E-03    -46.8269E-03     99.7594E-03    -84.3514E-03     131.312E-03    -46.8561E-03     97.5682E-03
            2272     12.9081E-03     10.5946E-03    -19.5951E+06     28.6985E+06    -19.9748E+06     8.80266E+06    -74.9962E-03     119.693E-03    -44.6967E-03     63.1919E-03    -75.6875E-03     120.476E-03    -44.8098E-03     61.8265E-03
            2273     12.0722E-03     10.5177E-03    -21.4264E+06    -9.82207E+06    -23.5907E+06     9.40346E+06    -69.7284E-03     112.539E-03    -42.8105E-03     47.5488E-03    -70.1134E-03     112.883E-03    -42.8832E-03     46.6488E-03
            2274     11.2302E-03     10.4602E-03    -22.8271E+06    -46.0787E+06    -19.3600E+06     9.17339E+06    -64.1265E-03     105.190E-03    -41.0636E-03     33.4164E-03    -64.3261E-03     105.202E-03    -41.0605E-03     32.8312E-03
            2275     10.3845E-03     10.4139E-03    -24.4262E+06    -71.0086E+06    -17.0307E+06     9.02258E+06    -58.9444E-03     98.3676E-03    -39.4232E-03     24.5815E-03    -59.0442E-03     98.1788E-03    -39.3700E-03     24.2050E-03
            2276     9.53396E-03     10.3766E-03    -26.0103E+06    -90.0698E+06    -15.5942E+06     8.69238E+06    -54.0407E-03     91.9554E-03    -37.9148E-03     18.5882E-03    -54.0804E-03     91.6288E-03    -37.8244E-03     18.3554E-03
            2277     8.67956E-03     10.3458E-03    -26.5499E+06    -104.080E+06    -13.7148E+06     8.11559E+06    -49.5474E-03     86.1046E-03    -36.5572E-03     14.2791E-03    -49.5476E-03     85.6812E-03    -36.4364E-03     14.1406E-03
            2278     7.82126E-03     10.3205E-03    -26.5795E+06    -113.411E+06    -12.2965E+06     7.57253E+06    -45.5518E-03     80.9034E-03    -35.3516E-03     11.3232E-03    -45.5262E-03     80.4168E-03    -35.2101E-03     11.2476E-03
            2279     6.95980E-03     10.2993E-03    -27.0851E+06    -120.404E+06    -12.3804E+06     7.70893E+06    -42.0652E-03     76.3618E-03    -34.2966E-03     9.33095E-03    -42.0231E-03     75.8323E-03    -34.1447E-03     9.30609E-03
            2280     6.09535E-03     10.2814E-03    -27.9753E+06    -123.614E+06    -13.8190E+06     7.84247E+06    -39.0973E-03     72.4841E-03    -33.3868E-03     7.91838E-03    -39.0475E-03     71.9364E-03    -33.2361E-03     7.92952E-03
            2281     5.22864E-03     10.2661E-03    -28.8608E+06    -123.458E+06    -16.3685E+06     6.79868E+06    -36.6258E-03     69.2430E-03    -32.6172E-03     6.89227E-03    -36.5735E-03     68.6975E-03    -32.4782E-03     6.91476E-03
            2282     4.35985E-03     10.2532E-03    -29.9372E+06    -124.545E+06    -20.0591E+06     4.97055E+06    -34.6327E-03     66.6204E-03    -31.9877E-03     5.98998E-03    -34.5765E-03     66.0740E-03    -31.8640E-03     6.00707E-03
            2283     3.48955E-03     10.2424E-03    -30.6325E+06    -125.451E+06    -23.2436E+06     3.23882E+06    -33.1045E-03     64.5984E-03    -31.4939E-03     5.02821E-03    -33.0443E-03     64.0514E-03    -31.3838E-03     5.03648E-03
            2284     2.61805E-03     10.2338E-03    -30.8084E+06    -125.706E+06    -25.2039E+06     2.24542E+06    -31.9918E-03     63.1172E-03    -31.1254E-03     3.96756E-03    -31.9283E-03     62.5710E-03    -31.0245E-03     3.97353E-03
            2285     1.74581E-03     10.2276E-03    -30.7637E+06    -126.586E+06    -27.9039E+06     1.73983E+06    -31.2377E-03     62.1010E-03    -30.8633E-03     2.76178E-03    -31.1681E-03     61.5536E-03    -30.7747E-03     2.76967E-03
            2286     873.027E-06     10.2237E-03    -30.6694E+06    -127.292E+06    -29.9892E+06     1.06700E+06    -30.8282E-03     61.5052E-03    -30.6769E-03     1.55843E-03    -30.7537E-03     60.9569E-03    -30.5979E-03     1.56461E-03
            2287     16.2072E-03     10.3931E-03    -5.73679E+06     146.175E+06     101.589E+06     1.47257E+06    -115.151E-03     169.133E-03    -53.9817E-03     249.138E-03    -127.581E-03     181.767E-03    -53.6774E-03     244.635E-03
            2288     15.3951E-03     9.99106E-03    -9.91598E+06     128.330E+06     88.1291E+06     3.40623E+06    -117.853E-03     169.024E-03    -51.1705E-03     291.892E-03    -130.682E-03     182.020E-03    -50.9016E-03     284.209E-03
            2289     14.5826E-03     9.74176E-03    -15.1792E+06     88.7110E+06     48.3194E+06     5.71629E+06    -98.8289E-03     147.094E-03    -48.2652E-03     166.399E-03    -102.768E-03     151.158E-03    -48.1302E-03     162.135E-03
            2290     13.7583E-03     9.61017E-03    -18.4068E+06     56.6218E+06     6.96713E+06     8.28125E+06    -83.4966E-03     129.148E-03    -45.6515E-03     86.8380E-03    -84.7522E-03     130.521E-03    -45.6721E-03     84.7766E-03
            2291     12.9264E-03     9.52579E-03    -20.9605E+06     29.2777E+06    -19.3861E+06     10.8369E+06    -74.9299E-03     118.328E-03    -43.3985E-03     55.2157E-03    -75.5592E-03     119.045E-03    -43.5075E-03     53.9479E-03
            2292     12.0891E-03     9.45962E-03    -23.5457E+06    -7.47058E+06    -24.3348E+06     11.4646E+06    -68.7211E-03     110.162E-03    -41.4408E-03     40.9018E-03    -69.0782E-03     110.481E-03    -41.5175E-03     40.0949E-03
            2293     11.2467E-03     9.40878E-03    -25.7801E+06    -43.8985E+06    -18.9616E+06     10.7914E+06    -62.5765E-03     102.266E-03    -39.6899E-03     28.9311E-03    -62.7734E-03     102.272E-03    -39.6837E-03     28.4207E-03
            2294     10.3990E-03     9.37046E-03    -27.2022E+06    -68.4281E+06    -15.5947E+06     9.36656E+06    -57.0570E-03     95.1387E-03    -38.0817E-03     21.5869E-03    -57.1655E-03     94.9537E-03    -38.0210E-03     21.2555E-03
            2295     9.54694E-03     9.33947E-03    -27.3038E+06    -87.7826E+06    -13.1570E+06     7.74015E+06    -52.0716E-03     88.7022E-03    -36.6306E-03     16.8955E-03    -52.1197E-03     88.3804E-03    -36.5295E-03     16.6781E-03
            2296     8.69065E-03     9.31503E-03    -27.2853E+06    -102.045E+06    -11.2844E+06     6.50408E+06    -47.6168E-03     82.9581E-03    -35.3412E-03     13.7184E-03    -47.6253E-03     82.5405E-03    -35.2101E-03     13.5777E-03
            2297     7.83075E-03     9.29489E-03    -27.9721E+06    -112.347E+06    -10.1814E+06     6.05445E+06    -43.7525E-03     77.9636E-03    -34.2112E-03     11.6508E-03    -43.7381E-03     77.4809E-03    -34.0586E-03     11.5676E-03
            2298     6.96763E-03     9.27832E-03    -28.7590E+06    -119.668E+06    -10.3159E+06     6.05648E+06    -40.4770E-03     73.7052E-03    -33.2282E-03     10.2521E-03    -40.4476E-03     73.1790E-03    -33.0645E-03     10.2131E-03
            2299     6.10196E-03     9.26418E-03    -28.9748E+06    -121.797E+06    -11.1338E+06     5.57567E+06    -37.7228E-03     70.1023E-03    -32.3794E-03     9.21403E-03    -37.6850E-03     69.5617E-03    -32.2165E-03     9.20020E-03
            2300     5.23394E-03     9.25212E-03    -28.9352E+06    -120.729E+06    -12.7169E+06     4.57577E+06    -35.4443E-03     67.1021E-03    -31.6577E-03     8.29459E-03    -35.4020E-03     66.5654E-03    -31.5043E-03     8.29079E-03
            2301     4.36420E-03     9.24172E-03    -28.9459E+06    -121.525E+06    -16.6066E+06     3.14424E+06    -33.6020E-03     64.6563E-03    -31.0542E-03     7.33771E-03    -33.5506E-03     64.1188E-03    -30.9191E-03     7.33255E-03
            2302     3.49297E-03     9.23294E-03    -29.4109E+06    -123.206E+06    -21.1953E+06     1.66763E+06    -32.1578E-03     62.7257E-03    -30.5679E-03     6.22733E-03    -32.0979E-03     62.1855E-03    -30.4526E-03     6.21618E-03
            2303     2.62068E-03     9.22581E-03    -30.1903E+06    -124.473E+06    -24.5954E+06     604.850E+03    -31.0751E-03     61.2727E-03    -30.1976E-03     4.91262E-03    -31.0112E-03     60.7311E-03    -30.0963E-03     4.89797E-03
            2304     1.74755E-03     9.22054E-03    -30.6273E+06    -125.688E+06    -27.7389E+06     162.202E+03    -30.3269E-03     60.2558E-03    -29.9289E-03     3.41140E-03    -30.2581E-03     59.7125E-03    -29.8409E-03     3.39925E-03
            2305     873.905E-06     9.21723E-03    -30.4896E+06    -126.076E+06    -29.4897E+06     133.551E+03    -29.8987E-03     59.6278E-03    -29.7291E-03     1.89403E-03    -29.8257E-03     59.0847E-03    -29.6495E-03     1.88834E-03
            2306     16.2081E-03     9.27372E-03    -5.14393E+06     144.617E+06     101.675E+06     758.189E+03    -123.714E-03     177.312E-03    -53.5985E-03     245.351E-03    -135.431E-03     189.231E-03    -53.2923E-03     239.587E-03
            2307     15.4114E-03     8.88230E-03    -9.96033E+06     125.032E+06     88.3530E+06     3.54601E+06    -122.693E-03     173.074E-03    -50.3807E-03     276.495E-03    -134.329E-03     184.867E-03    -50.1057E-03     268.256E-03
            2308     14.5997E-03     8.65244E-03    -15.7514E+06     85.2198E+06     49.3530E+06     7.71420E+06    -99.6697E-03     146.889E-03    -47.2194E-03     149.779E-03    -103.072E-03     150.399E-03    -47.0734E-03     145.740E-03
            2309     13.7762E-03     8.53478E-03    -19.8135E+06     52.9521E+06     8.67752E+06     10.8240E+06    -83.1000E-03     127.595E-03    -44.4950E-03     76.2387E-03    -84.1936E-03     128.784E-03    -44.4996E-03     74.3637E-03
            2310     12.9433E-03     8.46213E-03    -22.9203E+06     28.4572E+06    -17.6980E+06     13.8942E+06    -73.2740E-03     115.492E-03    -42.2185E-03     50.0919E-03    -73.8470E-03     116.138E-03    -42.3151E-03     48.9893E-03
            2311     12.1038E-03     8.40297E-03    -26.7759E+06    -4.28038E+06    -23.0988E+06     14.7802E+06    -66.3094E-03     106.622E-03    -40.3130E-03     37.5136E-03    -66.6561E-03     106.927E-03    -40.3835E-03     36.8428E-03
            2312     11.2590E-03     8.36164E-03    -29.0097E+06    -38.8133E+06    -16.0596E+06     11.4909E+06    -60.0263E-03     98.6968E-03    -38.6705E-03     26.9649E-03    -60.2347E-03     98.7118E-03    -38.6524E-03     26.5278E-03
            2313     10.4090E-03     8.32991E-03    -28.8228E+06    -64.4311E+06    -11.8326E+06     7.52442E+06    -54.4204E-03     91.6174E-03    -37.1970E-03     21.2374E-03    -54.5409E-03     91.4418E-03    -37.1209E-03     20.9276E-03
            2314     9.55457E-03     8.30598E-03    -28.0062E+06    -85.2712E+06    -9.11816E+06     5.35653E+06    -49.6219E-03     85.5213E-03    -35.8994E-03     17.6760E-03    -49.6802E-03     85.2045E-03    -35.7807E-03     17.4572E-03
            2315     8.69617E-03     8.28702E-03    -28.0864E+06    -100.772E+06    -6.93721E+06     4.73093E+06    -45.4939E-03     80.2633E-03    -34.7694E-03     15.4908E-03    -45.5140E-03     79.8465E-03    -34.6173E-03     15.3456E-03
            2316     7.83447E-03     8.27201E-03    -28.7866E+06    -111.399E+06    -6.80701E+06     4.51694E+06    -42.0638E-03     75.8466E-03    -33.7827E-03     14.0756E-03    -42.0603E-03     75.3654E-03    -33.6135E-03     13.9832E-03
            2317     6.97005E-03     8.25938E-03    -29.4249E+06    -118.129E+06    -7.72320E+06     3.58383E+06    -39.2289E-03     72.1530E-03    -32.9242E-03     13.0315E-03    -39.2096E-03     71.6326E-03    -32.7488E-03     12.9664E-03
            2318     6.10332E-03     8.24879E-03    -29.5677E+06    -119.833E+06    -7.76808E+06     2.11634E+06    -36.8861E-03     69.0693E-03    -32.1831E-03     12.0725E-03    -36.8598E-03     68.5352E-03    -32.0053E-03     12.0171E-03
            2319     5.23481E-03     8.23947E-03    -29.2290E+06    -119.001E+06    -9.64817E+06     797.124E+03    -34.9420E-03     66.4784E-03    -31.5364E-03     11.0064E-03    -34.9087E-03     65.9470E-03    -31.3697E-03     10.9553E-03
            2320     4.36470E-03     8.23146E-03    -29.0698E+06    -120.164E+06    -14.0383E+06     219.503E+03    -33.3397E-03     64.3198E-03    -30.9801E-03     9.74520E-03    -33.2949E-03     63.7861E-03    -30.8339E-03     9.70310E-03
            2321     3.49334E-03     8.22452E-03    -29.4526E+06    -121.874E+06    -18.7387E+06    -204.750E+03    -32.0358E-03     62.5553E-03    -30.5196E-03     8.27353E-03    -31.9818E-03     62.0185E-03    -30.3938E-03     8.23889E-03
            2322     2.62092E-03     8.21885E-03    -30.1592E+06    -123.891E+06    -23.4492E+06    -780.119E+03    -31.0227E-03     61.1755E-03    -30.1528E-03     6.51628E-03    -30.9613E-03     60.6352E-03    -30.0466E-03     6.48435E-03
            2323     1.74775E-03     8.21461E-03    -30.8682E+06    -125.884E+06    -27.8141E+06    -1.05577E+06    -30.2888E-03     60.1662E-03    -29.8774E-03     4.53206E-03    -30.2209E-03     59.6225E-03    -29.7892E-03     4.50466E-03
            2324     874.080E-06     8.21188E-03    -31.2903E+06    -126.843E+06    -30.2768E+06    -853.141E+03    -29.8309E-03     59.5156E-03    -29.6847E-03     2.50879E-03    -29.7597E-03     58.9709E-03    -29.6068E-03     2.49065E-03
            2325     16.2201E-03     8.14258E-03    -4.72313E+06     142.603E+06     100.890E+06     1.14054E+06    -131.857E-03     185.018E-03    -53.1612E-03     239.054E-03    -142.677E-03     196.037E-03    -52.8567E-03     232.319E-03
            2326     15.4231E-03     7.76878E-03    -11.0498E+06     120.173E+06     86.7538E+06     3.91028E+06    -125.245E-03     174.844E-03    -49.5987E-03     259.187E-03    -135.610E-03     185.350E-03    -49.3232E-03     250.916E-03
            2327     14.6144E-03     7.56229E-03    -17.0173E+06     81.1381E+06     52.7457E+06     8.79331E+06    -99.0474E-03     145.357E-03    -46.3093E-03     133.999E-03    -101.956E-03     148.345E-03    -46.1386E-03     130.290E-03
            2328     13.7895E-03     7.46181E-03    -21.5636E+06     49.5026E+06     13.6645E+06     14.3284E+06    -80.7000E-03     124.302E-03    -43.6016E-03     67.8896E-03    -81.6532E-03     125.317E-03    -43.5738E-03     66.2789E-03
            2329     12.9543E-03     7.40127E-03    -26.9033E+06     26.3464E+06    -13.3068E+06     18.3446E+06    -70.4419E-03     111.872E-03    -41.4299E-03     47.6394E-03    -70.9823E-03     112.450E-03    -41.4956E-03     46.7411E-03
            2330     12.1123E-03     7.35058E-03    -29.9364E+06     2.61905E+06    -15.4384E+06     16.6861E+06    -63.1821E-03     102.863E-03    -39.6805E-03     36.7873E-03    -63.5404E-03     103.170E-03    -39.7180E-03     36.2395E-03
            2331     11.2647E-03     7.31767E-03    -30.0247E+06    -29.8124E+06    -8.36228E+06     9.67453E+06    -56.6686E-03     94.8982E-03    -38.2296E-03     27.5386E-03    -56.8927E-03     94.9350E-03    -38.1846E-03     27.1493E-03
            2332     10.4120E-03     7.29328E-03    -29.2866E+06    -60.3714E+06    -5.03419E+06     4.23592E+06    -51.3203E-03     88.3074E-03    -36.9871E-03     23.5655E-03    -51.4539E-03     88.1379E-03    -36.8823E-03     23.2597E-03
            2333     9.55486E-03     7.27524E-03    -28.7255E+06    -83.7188E+06    -2.53415E+06     2.40396E+06    -47.0002E-03     82.9299E-03    -35.9297E-03     20.9869E-03    -47.0722E-03     82.6106E-03    -35.7793E-03     20.7598E-03
            2334     8.69440E-03     7.26155E-03    -28.4120E+06    -100.285E+06    -327.791E+03     1.86439E+06    -43.5298E-03     78.5578E-03    -35.0280E-03     19.5180E-03    -43.5619E-03     78.1344E-03    -34.8431E-03     19.3533E-03
            2335     7.83122E-03     7.25046E-03    -28.0471E+06    -110.564E+06    -234.988E+03     1.49123E+06    -40.7838E-03     75.0258E-03    -34.2420E-03     18.3868E-03    -40.7880E-03     74.5389E-03    -34.0422E-03     18.2649E-03
            2336     6.96589E-03     7.24140E-03    -27.8971E+06    -116.104E+06    -2.08575E+06     448.350E+03    -38.5792E-03     72.1267E-03    -33.5475E-03     17.3287E-03    -38.5643E-03     71.6068E-03    -33.3491E-03     17.2280E-03
            2337     6.09889E-03     7.23344E-03    -28.0941E+06    -117.576E+06    -4.36917E+06    -1.61747E+06    -36.7665E-03     69.6996E-03    -32.9331E-03     16.1330E-03    -36.7416E-03     69.1704E-03    -32.7438E-03     16.0319E-03
            2338     5.23039E-03     7.22659E-03    -28.5715E+06    -118.699E+06    -8.59666E+06    -2.88902E+06    -35.2400E-03     67.6245E-03    -32.3846E-03     14.6565E-03    -35.2058E-03     67.0925E-03    -32.2140E-03     14.5591E-03
            2339     4.36070E-03     7.22052E-03    -29.1932E+06    -120.508E+06    -13.3689E+06    -2.87822E+06    -33.9341E-03     65.8399E-03    -31.9057E-03     12.9145E-03    -33.8908E-03     65.3038E-03    -31.7555E-03     12.8334E-03
            2340     3.48994E-03     7.21533E-03    -29.7984E+06    -122.062E+06    -17.4893E+06    -2.74372E+06    -32.8308E-03     64.3329E-03    -31.5021E-03     10.8977E-03    -32.7803E-03     63.7939E-03    -31.3694E-03     10.8313E-03
            2341     2.61830E-03     7.21096E-03    -30.5769E+06    -124.522E+06    -22.6925E+06    -2.51558E+06    -31.9433E-03     63.1133E-03    -31.1700E-03     8.56290E-03    -31.8842E-03     62.5693E-03    -31.0586E-03     8.50955E-03
            2342     1.74598E-03     7.20772E-03    -31.4397E+06    -127.228E+06    -27.9501E+06    -1.96918E+06    -31.2774E-03     62.1956E-03    -30.9182E-03     5.93431E-03    -31.2103E-03     61.6461E-03    -30.8279E-03     5.89591E-03
            2343     873.054E-06     7.20574E-03    -32.1432E+06    -128.911E+06    -31.2731E+06    -1.19166E+06    -30.8511E-03     61.6165E-03    -30.7654E-03     3.29358E-03    -30.7798E-03     61.0641E-03    -30.6882E-03     3.27152E-03
            2344     16.2276E-03     7.00853E-03    -5.37466E+06     140.013E+06     99.3054E+06     1.70712E+06    -139.887E-03     192.680E-03    -52.7926E-03     228.409E-03    -149.613E-03     202.601E-03    -52.4913E-03     220.984E-03
            2345     15.4345E-03     6.65187E-03    -12.1590E+06     116.111E+06     85.6451E+06     6.35066E+06    -124.690E-03     173.667E-03    -48.9773E-03     240.587E-03    -133.698E-03     182.804E-03    -48.6998E-03     232.805E-03
            2346     14.6253E-03     6.47214E-03    -20.1423E+06     74.8223E+06     53.6428E+06     11.7501E+06    -95.5373E-03     141.271E-03    -45.7335E-03     118.937E-03    -97.9393E-03     143.717E-03    -45.5445E-03     115.765E-03
            2347     13.7973E-03     6.39504E-03    -26.8237E+06     43.7111E+06     21.3837E+06     17.6086E+06    -77.0911E-03     120.311E-03    -43.2196E-03     62.7953E-03    -77.9384E-03     121.158E-03    -43.1371E-03     61.4804E-03
            2348     12.9578E-03     6.34264E-03    -29.3783E+06     28.1012E+06     2.46127E+06     19.5015E+06    -67.0201E-03     108.291E-03    -41.2712E-03     47.8181E-03    -67.5514E-03     108.812E-03    -41.2570E-03     47.0841E-03
            2349     12.1135E-03     6.30207E-03    -28.7958E+06     12.8520E+06    -5.58931E+03     14.5624E+06    -59.2462E-03     98.9914E-03    -39.7452E-03     37.9073E-03    -59.6094E-03     99.2992E-03    -39.7221E-03     37.4388E-03
            2350     11.2620E-03     6.27771E-03    -28.3813E+06    -19.7695E+06     3.36328E+06     6.93581E+06    -52.7317E-03     91.3054E-03    -38.5738E-03     31.3654E-03    -52.9670E-03     91.3609E-03    -38.4872E-03     31.0162E-03
            2351     10.4059E-03     6.25954E-03    -28.8689E+06    -56.4713E+06     4.35194E+06     1.10349E+06    -48.1900E-03     85.8341E-03    -37.6441E-03     28.7562E-03    -48.3361E-03     85.6653E-03    -37.4986E-03     28.4560E-03
            2352     9.54636E-03     6.24677E-03    -28.9157E+06    -82.8461E+06     5.69979E+06    -1.40071E+06    -44.7215E-03     81.6031E-03    -36.8815E-03     26.8089E-03    -44.8060E-03     81.2747E-03    -36.6910E-03     26.5609E-03
            2353     8.68418E-03     6.23690E-03    -28.3972E+06    -99.8441E+06     6.67439E+06    -2.43708E+06    -42.1610E-03     78.4010E-03    -36.2400E-03     25.5736E-03    -42.2036E-03     77.9693E-03    -36.0207E-03     25.3695E-03
            2354     7.82015E-03     6.22897E-03    -27.7094E+06    -110.266E+06     5.83673E+06    -3.21138E+06    -40.2620E-03     75.9392E-03    -35.6772E-03     24.2450E-03    -40.2741E-03     75.4447E-03    -35.4479E-03     24.0715E-03
            2355     6.95471E-03     6.22235E-03    -26.7384E+06    -114.666E+06     3.12880E+06    -4.21867E+06    -38.7672E-03     73.9318E-03    -35.1645E-03     22.7288E-03    -38.7565E-03     73.4099E-03    -34.9439E-03     22.5731E-03
            2356     6.08806E-03     6.21652E-03    -26.3124E+06    -116.608E+06    -2.49197E+06    -5.15946E+06    -37.5226E-03     72.2097E-03    -34.6870E-03     20.9158E-03    -37.4933E-03     71.6800E-03    -34.4923E-03     20.7721E-03
            2357     5.22048E-03     6.21148E-03    -27.1029E+06    -119.492E+06    -8.71088E+06    -5.44879E+06    -36.4366E-03     70.6915E-03    -34.2549E-03     18.7390E-03    -36.3941E-03     70.1535E-03    -34.0859E-03     18.6108E-03
            2358     4.35196E-03     6.20705E-03    -28.2345E+06    -121.694E+06    -13.6027E+06    -5.46611E+06    -35.4603E-03     69.3347E-03    -33.8744E-03     16.3002E-03    -35.4102E-03     68.7915E-03    -33.7250E-03     16.1874E-03
            2359     3.48266E-03     6.20322E-03    -29.3205E+06    -123.855E+06    -18.1394E+06    -5.01358E+06    -34.5971E-03     68.1444E-03    -33.5473E-03     13.5903E-03    -34.5408E-03     67.5964E-03    -33.4159E-03     13.4961E-03
            2360     2.61265E-03     6.20003E-03    -30.6547E+06    -126.780E+06    -23.4445E+06    -3.93767E+06    -33.8807E-03     67.1586E-03    -33.2779E-03     10.5788E-03    -33.8178E-03     66.6043E-03    -33.1669E-03     10.5083E-03
            2361     1.74205E-03     6.19767E-03    -31.9847E+06    -129.820E+06    -28.6520E+06    -2.64868E+06    -33.3561E-03     66.4298E-03    -33.0736E-03     7.27635E-03    -33.2872E-03     65.8689E-03    -32.9823E-03     7.23010E-03
            2362     871.188E-06     6.19621E-03    -32.8892E+06    -131.655E+06    -31.7802E+06    -1.36649E+06    -33.0209E-03     65.9640E-03    -32.9431E-03     3.99439E-03    -32.9488E-03     65.3995E-03    -32.8634E-03     3.97053E-03
            2363     16.2322E-03     5.85659E-03    -7.11887E+06     136.072E+06     95.0147E+06     2.92017E+06    -145.397E-03     198.211E-03    -52.8135E-03     220.345E-03    -154.075E-03     207.078E-03    -52.5254E-03     212.479E-03
            2364     15.4430E-03     5.54010E-03    -14.6544E+06     109.097E+06     81.1044E+06     9.40380E+06    -123.722E-03     172.573E-03    -48.8512E-03     223.328E-03    -131.332E-03     180.293E-03    -48.5826E-03     216.090E-03
            2365     14.6249E-03     5.38695E-03    -21.3659E+06     67.9366E+06     55.4743E+06     15.9532E+06    -90.8965E-03     136.650E-03    -45.7538E-03     107.029E-03    -92.7859E-03     138.549E-03    -45.5440E-03     104.493E-03
            2366     13.7926E-03     5.33121E-03    -26.8369E+06     42.5154E+06     35.8010E+06     18.4795E+06    -72.7231E-03     116.275E-03    -43.5523E-03     60.6340E-03    -73.4696E-03     116.976E-03    -43.3960E-03     59.5969E-03
            2367     12.9524E-03     5.28597E-03    -27.4091E+06     33.5632E+06     22.6665E+06     15.7676E+06    -62.5444E-03     104.467E-03    -41.9231E-03     51.1417E-03    -63.0582E-03     104.939E-03    -41.8187E-03     50.5194E-03
            2368     12.1034E-03     5.25884E-03    -26.0009E+06     22.0478E+06     15.5708E+06     10.3169E+06    -54.6573E-03     95.3794E-03    -40.7221E-03     43.1996E-03    -55.0151E-03     95.6793E-03    -40.6385E-03     42.7906E-03
            2369     11.2477E-03     5.24066E-03    -25.9821E+06    -11.0755E+06     15.5645E+06     3.80924E+06    -49.2203E-03     89.1256E-03    -39.9053E-03     39.1153E-03    -49.4634E-03     89.1927E-03    -39.7738E-03     38.7941E-03
            2370     10.3890E-03     5.22763E-03    -26.3693E+06    -52.3626E+06     15.1221E+06    -1.95191E+06    -45.8267E-03     85.1420E-03    -39.3152E-03     36.5292E-03    -45.9762E-03     84.9685E-03    -39.1255E-03     36.2321E-03
            2371     9.52774E-03     5.21863E-03    -27.1222E+06    -81.4909E+06     14.7879E+06    -5.41865E+06    -43.4790E-03     82.3279E-03    -38.8489E-03     34.5252E-03    -43.5668E-03     81.9874E-03    -38.6175E-03     34.2513E-03
            2372     8.66492E-03     5.21136E-03    -27.4536E+06    -99.6660E+06     14.2227E+06    -7.36388E+06    -41.9587E-03     80.4143E-03    -38.4556E-03     32.7135E-03    -42.0063E-03     79.9693E-03    -38.2002E-03     32.4618E-03
            2373     7.80106E-03     5.20539E-03    -26.9998E+06    -109.968E+06     9.94491E+06    -8.73610E+06    -40.8834E-03     78.9669E-03    -38.0834E-03     30.5241E-03    -40.8973E-03     78.4653E-03    -37.8351E-03     30.2898E-03
            2374     6.93647E-03     5.20033E-03    -26.3015E+06    -115.042E+06     3.23954E+06    -9.55807E+06    -40.0365E-03     77.7591E-03    -37.7225E-03     28.0879E-03    -40.0225E-03     77.2334E-03    -37.5014E-03     27.8705E-03
            2375     6.07125E-03     5.19595E-03    -25.8079E+06    -118.382E+06    -3.60469E+06    -8.95544E+06    -39.2951E-03     76.6756E-03    -37.3805E-03     25.3418E-03    -39.2585E-03     76.1370E-03    -37.1895E-03     25.1542E-03
            2376     5.20538E-03     5.19216E-03    -25.6534E+06    -121.280E+06    -9.56009E+06    -7.95678E+06    -38.6023E-03     75.6651E-03    -37.0628E-03     22.3059E-03    -38.5484E-03     75.1166E-03    -36.8976E-03     22.1489E-03
            2377     4.33898E-03     5.18895E-03    -26.3616E+06    -123.897E+06    -14.7314E+06    -7.08618E+06    -37.9365E-03     74.7104E-03    -36.7739E-03     19.0688E-03    -37.8721E-03     74.1545E-03    -36.6297E-03     18.9376E-03
            2378     3.47197E-03     5.18619E-03    -28.0773E+06    -126.944E+06    -19.9034E+06    -5.83490E+06    -37.3111E-03     73.8307E-03    -36.5196E-03     15.6421E-03    -37.2415E-03     73.2676E-03    -36.3943E-03     15.5390E-03
            2379     2.60445E-03     5.18394E-03    -30.0752E+06    -130.159E+06    -24.9648E+06    -4.23787E+06    -36.7736E-03     73.0822E-03    -36.3085E-03     11.9959E-03    -36.7008E-03     72.5120E-03    -36.2010E-03     11.9227E-03
            2380     1.73657E-03     5.18221E-03    -31.6859E+06    -132.960E+06    -29.4056E+06    -2.73681E+06    -36.3656E-03     72.5136E-03    -36.1481E-03     8.18712E-03    -36.2896E-03     71.9375E-03    -36.0564E-03     8.14034E-03
            2381     868.335E-06     5.18115E-03    -32.7229E+06    -134.741E+06    -32.1984E+06    -1.43013E+06    -36.1033E-03     72.1516E-03    -36.0483E-03     4.48001E-03    -36.0255E-03     71.5718E-03    -35.9664E-03     4.45565E-03
            2382     16.2163E-03     4.68888E-03    -5.82617E+06     130.531E+06     89.5503E+06     7.25420E+06    -147.044E-03     200.508E-03    -53.4640E-03     215.217E-03    -154.513E-03     208.165E-03    -53.1970E-03     207.401E-03
            2383     15.4282E-03     4.41942E-03    -15.0241E+06     99.6670E+06     74.7730E+06     12.8283E+06    -123.000E-03     172.463E-03    -49.4623E-03     194.800E-03    -128.818E-03     178.377E-03    -49.2112E-03     188.301E-03
            2384     14.6158E-03     4.30924E-03    -19.4092E+06     63.4902E+06     58.5960E+06     16.9469E+06    -85.6773E-03     132.221E-03    -46.5432E-03     92.1212E-03    -87.0498E-03     133.586E-03    -46.3141E-03     90.1794E-03
            2385     13.7796E-03     4.26837E-03    -21.1253E+06     47.3949E+06     48.1350E+06     16.0109E+06    -65.9019E-03     110.661E-03    -44.7588E-03     62.9364E-03    -66.5361E-03     111.251E-03    -44.5562E-03     62.1541E-03
            2386     12.9318E-03     4.23596E-03    -22.6270E+06     40.1683E+06     35.7158E+06     11.2322E+06    -56.9763E-03     100.579E-03    -43.6030E-03     59.1391E-03    -57.4493E-03     101.013E-03    -43.4499E-03     58.6244E-03
            2387     12.0776E-03     4.21783E-03    -23.2717E+06     29.5262E+06     26.5711E+06     5.59733E+06    -51.2158E-03     94.0278E-03    -42.8120E-03     52.1655E-03    -51.5594E-03     94.3172E-03    -42.6882E-03     51.7954E-03
            2388     11.2205E-03     4.20428E-03    -23.1626E+06    -4.43984E+06     24.2809E+06    -524.658E+03    -47.4386E-03     89.7632E-03    -42.3246E-03     48.5141E-03    -47.6765E-03     89.8330E-03    -42.1632E-03     48.1945E-03
            2389     10.3606E-03     4.19520E-03    -23.7066E+06    -49.2570E+06     22.1668E+06    -5.36771E+06    -45.3267E-03     87.3359E-03    -42.0092E-03     45.0344E-03    -45.4681E-03     87.1538E-03    -41.7925E-03     44.7331E-03
            2390     9.49928E-03     4.18817E-03    -24.6852E+06    -79.2757E+06     20.3632E+06    -9.09256E+06    -44.1809E-03     85.9369E-03    -41.7560E-03     41.7679E-03    -44.2616E-03     85.5889E-03    -41.5034E-03     41.4729E-03
            2391     8.63749E-03     4.18226E-03    -25.1186E+06    -99.1350E+06     16.1494E+06    -12.3566E+06    -43.4751E-03     84.9883E-03    -41.5133E-03     38.3934E-03    -43.5099E-03     84.5345E-03    -41.2523E-03     38.0958E-03
            2392     7.77531E-03     4.17737E-03    -24.7857E+06    -110.419E+06     8.43336E+06    -14.0471E+06    -42.9378E-03     84.1956E-03    -41.2578E-03     34.9174E-03    -42.9344E-03     83.6870E-03    -41.0196E-03     34.6283E-03
            2393     6.91277E-03     4.17324E-03    -24.4279E+06    -117.640E+06    -146.970E+03    -13.8896E+06    -42.4963E-03     83.4972E-03    -41.0009E-03     31.3686E-03    -42.4619E-03     82.9580E-03    -40.7956E-03     31.1053E-03
            2394     6.04989E-03     4.16971E-03    -24.2106E+06    -122.106E+06    -7.86934E+06    -12.4584E+06    -42.0626E-03     82.8120E-03    -40.7494E-03     27.7299E-03    -42.0049E-03     82.2567E-03    -40.5766E-03     27.5042E-03
            2395     5.18669E-03     4.16681E-03    -24.2701E+06    -125.209E+06    -13.2271E+06    -10.2435E+06    -41.6203E-03     82.1350E-03    -40.5147E-03     23.9923E-03    -41.5474E-03     81.5688E-03    -40.3640E-03     23.8107E-03
            2396     4.32307E-03     4.16440E-03    -25.1914E+06    -127.874E+06    -17.3123E+06    -7.57930E+06    -41.1662E-03     81.4641E-03    -40.2978E-03     20.1743E-03    -41.0860E-03     80.8895E-03    -40.1624E-03     20.0397E-03
            2397     3.45909E-03     4.16250E-03    -27.0089E+06    -130.690E+06    -21.4165E+06    -5.27975E+06    -40.7200E-03     80.8203E-03    -40.1002E-03     16.3339E-03    -40.6373E-03     80.2386E-03    -39.9786E-03     16.2395E-03
            2398     2.59476E-03     4.16089E-03    -29.0322E+06    -133.579E+06    -25.7039E+06    -3.60252E+06    -40.3144E-03     80.2424E-03    -39.9280E-03     12.4076E-03    -40.2303E-03     79.6544E-03    -39.8208E-03     12.3433E-03
            2399     1.73004E-03     4.15978E-03    -30.5999E+06    -136.056E+06    -29.4776E+06    -2.15062E+06    -39.9778E-03     79.7709E-03    -39.7931E-03     8.40281E-03    -39.8919E-03     79.1776E-03    -39.6988E-03     8.36387E-03
            2400     865.081E-06     4.15907E-03    -31.5163E+06    -137.386E+06    -31.5158E+06    -987.729E+03    -39.7361E-03     79.4676E-03    -39.7314E-03     4.56550E-03    -39.6495E-03     78.8717E-03    -39.6441E-03     4.54697E-03
            2401     16.1963E-03     3.50962E-03    -5.07104E+06     122.837E+06     84.3043E+06     10.5045E+06    -149.704E-03     204.241E-03    -54.5363E-03     199.068E-03    -155.475E-03     210.192E-03    -54.2855E-03     191.609E-03
            2402     15.4156E-03     3.29723E-03    -10.1575E+06     93.0795E+06     74.4773E+06     14.6783E+06    -113.705E-03     164.400E-03    -50.6946E-03     150.729E-03    -117.280E-03     168.072E-03    -50.4424E-03     145.843E-03
            2403     14.5936E-03     3.23657E-03    -13.2838E+06     63.7017E+06     63.9880E+06     15.4765E+06    -73.4819E-03     121.852E-03    -48.3702E-03     84.9292E-03    -74.4051E-03     122.776E-03    -48.1233E-03     83.6819E-03
            2404     13.7466E-03     3.21547E-03    -15.1238E+06     53.3345E+06     56.0105E+06     12.1516E+06    -59.8178E-03     107.036E-03    -47.2183E-03     77.0236E-03    -60.3622E-03     107.555E-03    -46.9936E-03     76.4369E-03
            2405     12.8926E-03     3.18783E-03    -15.2046E+06     47.6448E+06     43.9439E+06     6.82972E+06    -54.8450E-03     101.314E-03    -46.4685E-03     69.0238E-03    -55.2472E-03     101.703E-03    -46.2958E-03     68.5905E-03
            2406     12.0388E-03     3.17529E-03    -16.2562E+06     35.6226E+06     29.3202E+06     1.71946E+06    -50.7886E-03     96.7145E-03    -45.9260E-03     59.9734E-03    -51.0737E-03     96.9831E-03    -45.8075E-03     59.6446E-03
            2407     11.1812E-03     3.16567E-03    -17.9258E+06    -697.661E+03     20.2014E+06    -3.22360E+06    -48.8348E-03     94.4316E-03    -45.5969E-03     54.4038E-03    -49.0233E-03     94.4944E-03    -45.4688E-03     54.1081E-03
            2408     10.3227E-03     3.15825E-03    -19.7514E+06    -46.3854E+06     15.4244E+06    -8.06268E+06    -47.7510E-03     93.1284E-03    -45.3774E-03     48.8393E-03    -47.8510E-03     92.9477E-03    -45.2043E-03     48.5458E-03
            2409     9.46436E-03     3.15192E-03    -20.3600E+06    -76.4068E+06     11.5975E+06    -12.8955E+06    -47.1765E-03     92.3489E-03    -45.1724E-03     43.7060E-03    -47.2158E-03     92.0098E-03    -44.9741E-03     43.3927E-03
            2410     8.60566E-03     3.14701E-03    -20.0728E+06    -98.2652E+06     5.82109E+06    -16.7017E+06    -46.6929E-03     91.6522E-03    -44.9592E-03     38.9585E-03    -46.6808E-03     91.2020E-03    -44.7586E-03     38.6283E-03
            2411     7.74645E-03     3.14281E-03     -19.824E+06    -112.992E+06    -934.633E+03    -17.7270E+06    -46.2535E-03     90.9959E-03    -44.7423E-03     34.5943E-03    -46.2025E-03     90.4749E-03    -44.5544E-03     34.2756E-03
            2412     6.88699E-03     3.13928E-03    -20.1685E+06    -122.189E+06    -7.66926E+06    -16.1285E+06    -45.8414E-03     90.3694E-03    -44.5280E-03     30.4103E-03    -45.7643E-03     89.8081E-03    -44.3599E-03     30.1314E-03
            2413     6.02718E-03     3.13648E-03    -21.4443E+06    -127.342E+06    -14.8602E+06    -13.3881E+06    -45.4329E-03     89.7493E-03    -44.3164E-03     26.4396E-03    -45.3411E-03     89.1714E-03    -44.1750E-03     26.2116E-03
            2414     5.16701E-03     3.13416E-03    -23.2877E+06    -130.887E+06    -19.0856E+06    -10.2134E+06    -45.0358E-03     89.1649E-03    -44.1291E-03     22.5971E-03    -44.9396E-03     88.5758E-03    -44.0010E-03     22.4225E-03
            2415     4.30657E-03     3.13246E-03    -25.0570E+06    -132.984E+06    -21.0708E+06    -7.10481E+06    -44.6593E-03     88.6222E-03    -43.9629E-03     18.8343E-03    -44.5645E-03     88.0264E-03    -43.8391E-03     18.7101E-03
            2416     3.44577E-03     3.13112E-03    -26.4862E+06    -134.639E+06    -22.9790E+06    -4.54016E+06    -44.3084E-03     88.1188E-03    -43.8103E-03     15.1484E-03    -44.2145E-03     87.5184E-03    -43.6916E-03     15.0660E-03
            2417     2.58465E-03     3.13013E-03    -27.9177E+06    -136.621E+06    -25.6901E+06    -2.65299E+06    -43.9857E-03     87.6597E-03    -43.6740E-03     11.4435E-03    -43.8914E-03     87.0546E-03    -43.5639E-03     11.3926E-03
            2418     1.72330E-03     3.12948E-03    -29.1968E+06    -138.494E+06    -28.3849E+06    -1.43395E+06    -43.7242E-03     87.2868E-03    -43.5626E-03     7.73747E-03    -43.6292E-03     86.6777E-03    -43.4614E-03     7.70832E-03
            2419     861.742E-06     3.12909E-03    -29.7803E+06    -139.258E+06    -29.5885E+06    -731.758E+03    -43.5187E-03     87.0230E-03    -43.5044E-03     4.19742E-03    -43.4233E-03     86.4125E-03    -43.4072E-03     4.18240E-03
            2420     16.1865E-03     2.31882E-03    -5.46532E+06     113.906E+06     82.9332E+06     10.4366E+06    -147.331E-03     203.867E-03    -56.5357E-03     186.018E-03    -151.496E-03     208.201E-03    -56.2783E-03     179.460E-03
            2421     15.3912E-03     2.19759E-03    -2.33218E+06     87.7559E+06     79.1268E+06     13.9077E+06    -94.8698E-03     148.143E-03    -53.2734E-03     132.600E-03    -96.7399E-03     150.105E-03    -53.0016E-03     129.835E-03
            2422     14.5392E-03     2.18955E-03    -4.86804E+06     68.7169E+06     72.5363E+06     12.3013E+06    -66.3515E-03     118.073E-03    -51.7212E-03     97.2168E-03    -66.9820E-03     118.717E-03    -51.4511E-03     96.4768E-03
            2423     13.6860E-03     2.14925E-03    -6.94609E+06     61.3736E+06     63.6431E+06     6.82338E+06    -62.1367E-03     113.011E-03    -50.8747E-03     85.6873E-03    -62.5624E-03     113.443E-03    -50.6354E-03     85.2184E-03
            2424     12.8443E-03     2.13841E-03    -7.80824E+06     52.4322E+06     42.5538E+06     2.30779E+06    -58.7478E-03     108.855E-03    -50.1074E-03     68.3292E-03    -59.0378E-03     109.179E-03    -49.9593E-03     67.9792E-03
            2425     11.9900E-03     2.12666E-03    -8.42262E+06     37.8366E+06     17.0052E+06     346.889E+03    -55.3759E-03     104.840E-03    -49.4642E-03     57.5893E-03    -55.5628E-03     105.080E-03    -49.4219E-03     57.3369E-03
            2426     11.1381E-03     2.11933E-03    -10.1188E+06     2.76075E+06     1.08629E+06    -2.75743E+06    -53.6982E-03     102.715E-03    -49.0167E-03     48.8166E-03    -53.7945E-03     102.780E-03    -49.0006E-03     48.5953E-03
            2427     10.2851E-03     2.11307E-03    -11.4328E+06    -41.7461E+06    -7.11982E+06    -8.93114E+06    -52.5049E-03     101.185E-03    -48.6799E-03     42.3237E-03    -52.5172E-03     101.028E-03    -48.6384E-03     42.0689E-03
            2428     9.43085E-03     2.10796E-03    -12.0090E+06    -73.4816E+06    -14.1845E+06    -14.4810E+06    -51.5041E-03     99.8770E-03    -48.3730E-03     36.7577E-03    -51.4545E-03     99.5640E-03    -48.3199E-03     36.4633E-03
            2429     8.57576E-03     2.10401E-03    -12.9625E+06    -98.5111E+06    -17.1960E+06    -17.3611E+06    -50.6694E-03     98.7825E-03    -48.1131E-03     32.0159E-03    -50.5784E-03     98.3447E-03    -48.0375E-03     31.7076E-03
            2430     7.72019E-03     2.10069E-03    -14.8997E+06    -117.300E+06    -19.3738E+06    -17.1941E+06    -49.9329E-03     97.8137E-03    -47.8808E-03     27.9308E-03    -49.8176E-03     97.2844E-03    -47.7859E-03     27.6426E-03
            2431     6.86388E-03     2.09807E-03    -17.4332E+06    -128.239E+06    -21.3842E+06    -14.5620E+06    -49.2555E-03     96.9246E-03    -47.6690E-03     24.2222E-03    -49.1316E-03     96.3447E-03    -47.5647E-03     23.9818E-03
            2432     6.00703E-03     2.09598E-03    -20.0987E+06    -133.641E+06    -22.9031E+06    -10.9317E+06    -48.6649E-03     96.1472E-03    -47.4823E-03     20.8456E-03    -48.5425E-03     95.5447E-03    -47.3739E-03     20.6628E-03
            2433     5.14972E-03     2.09439E-03    -22.6138E+06    -136.205E+06    -24.7086E+06    -7.78761E+06    -48.1694E-03     95.4881E-03    -47.3187E-03     17.6975E-03    -48.0519E-03     94.8778E-03    -47.2119E-03     17.5644E-03
            2434     4.29196E-03     2.09321E-03    -24.6242E+06    -137.412E+06    -24.9413E+06    -5.58642E+06    -47.7713E-03     94.9575E-03    -47.1862E-03     14.7005E-03    -47.6610E-03     94.3436E-03    -47.0759E-03     14.6031E-03
            2435     3.43398E-03     2.09238E-03    -26.1245E+06    -138.363E+06    -25.2768E+06    -3.66951E+06    -47.4550E-03     94.5296E-03    -47.0746E-03     11.7994E-03    -47.3497E-03     93.9129E-03    -46.9624E-03     11.7331E-03
            2436     2.57574E-03     2.09186E-03    -27.1002E+06    -139.301E+06    -26.1459E+06    -2.00716E+06    -47.2016E-03     94.1828E-03    -46.9813E-03     8.90361E-03    -47.0981E-03     93.5637E-03    -46.8707E-03     8.86404E-03
            2437     1.71727E-03     2.09155E-03    -27.6643E+06    -140.070E+06    -27.2151E+06    -1.05237E+06    -47.0107E-03     93.9203E-03    -46.9095E-03     6.03088E-03    -46.9071E-03     93.2994E-03    -46.8024E-03     6.00840E-03
            2438     858.669E-06     2.09140E-03    -28.0601E+06    -140.686E+06    -28.1616E+06    -588.282E+03    -46.8781E-03     93.7544E-03    -46.8763E-03     3.28296E-03    -46.7739E-03     93.1323E-03    -46.7725E-03     3.27064E-03
            2439     16.1243E-03     1.15043E-03     540.194E+03     107.645E+06     89.0133E+06     7.51070E+06    -141.482E-03     202.438E-03    -60.9566E-03     179.620E-03    -143.970E-03     205.076E-03    -60.6684E-03     175.116E-03
            2440     15.2933E-03     1.13310E-03    -212.682E+03     84.9450E+06     83.1142E+06     8.36032E+06    -98.6495E-03     156.442E-03    -57.7920E-03     121.499E-03    -99.5013E-03     157.346E-03    -57.4993E-03     120.330E-03
            2441     14.4643E-03     1.10620E-03     172.941E+03     75.1511E+06     78.4588E+06     6.37540E+06    -82.1012E-03     137.953E-03    -55.8518E-03     84.6984E-03    -82.4950E-03     138.379E-03    -55.5688E-03     84.2713E-03
            2442     13.6384E-03     1.08358E-03    -5.28145E+03     67.0368E+06     61.5699E+06     3.09770E+06    -72.9622E-03     127.368E-03    -54.4055E-03     61.4444E-03    -73.2293E-03     127.692E-03    -54.1949E-03     61.1633E-03
            2443     12.7908E-03     1.07288E-03    -1.29613E+06     54.1123E+06     30.1800E+06     759.270E+03    -65.9357E-03     119.183E-03    -53.2468E-03     43.5643E-03    -66.1019E-03     119.448E-03    -53.1725E-03     43.3793E-03
            2444     11.9524E-03     1.06770E-03    -1.60792E+06     37.2350E+06    -919.237E+03      -15.96E+03    -62.1809E-03     114.507E-03    -52.3259E-03     35.3926E-03    -62.2650E-03     114.719E-03    -52.3821E-03     35.2470E-03
            2445     11.1057E-03     1.06303E-03    -997.851E+03     6.22578E+06    -21.1089E+06    -1.67396E+06    -59.2850E-03     110.905E-03    -51.6195E-03     29.4981E-03    -59.2819E-03     110.981E-03    -51.7326E-03     29.3747E-03
            2446     10.2569E-03     1.05932E-03    -1.25017E+06    -36.0894E+06    -33.6853E+06    -6.11346E+06    -57.1376E-03     108.216E-03    -51.0785E-03     24.8391E-03    -57.0515E-03     108.095E-03    -51.1928E-03     24.6846E-03
            2447     9.40660E-03     1.05644E-03    -3.49450E+06    -71.6764E+06    -41.7986E+06    -10.0736E+06    -55.3651E-03     106.005E-03    -50.6400E-03     21.1234E-03    -55.2239E-03     105.718E-03    -50.7400E-03     20.9357E-03
            2448     8.55485E-03     1.05401E-03    -7.32493E+06    -99.9559E+06    -43.2194E+06    -11.1148E+06    -53.9307E-03     104.232E-03    -50.3012E-03     18.0916E-03    -53.7637E-03     103.809E-03    -50.3618E-03     17.9029E-03
            2449     7.70180E-03     1.05221E-03    -11.9426E+06    -121.083E+06    -41.0956E+06    -10.6065E+06    -52.7510E-03     102.785E-03    -50.0345E-03     15.5949E-03    -52.5783E-03     102.259E-03    -50.0471E-03     15.4223E-03
            2450     6.84786E-03     1.05073E-03    -16.0976E+06    -133.915E+06    -36.1756E+06    -8.85695E+06    -51.7733E-03     101.599E-03    -49.8256E-03     13.4518E-03    -51.6091E-03     101.007E-03    -49.7890E-03     13.3091E-03
            2451     5.99313E-03     1.04965E-03    -19.4185E+06    -138.999E+06    -31.0231E+06    -6.21704E+06    -50.9820E-03     100.639E-03    -49.6571E-03     11.5200E-03    -50.8339E-03     100.018E-03    -49.5825E-03     11.4172E-03
            2452     5.13775E-03     1.04880E-03    -21.9495E+06    -139.738E+06    -28.8617E+06    -4.22915E+06    -50.3694E-03     99.8817E-03    -49.5124E-03     9.75427E-03    -50.2356E-03     99.2574E-03    -49.4222E-03     9.68169E-03
            2453     4.28200E-03     1.04822E-03    -23.8791E+06    -140.261E+06    -27.7044E+06    -3.00341E+06    -49.9175E-03     99.3196E-03    -49.4020E-03     8.08879E-03    -49.7941E-03     98.6935E-03    -49.3025E-03     8.03587E-03
            2454     3.42583E-03     1.04781E-03    -25.3582E+06    -140.856E+06    -27.3618E+06    -2.07310E+06    -49.6021E-03     98.9238E-03    -49.3217E-03     6.48447E-03    -49.4855E-03     98.2962E-03    -49.2175E-03     6.44686E-03
            2455     2.56949E-03     1.04758E-03    -26.2292E+06    -141.194E+06    -27.2108E+06    -1.37041E+06    -49.3992E-03     98.6669E-03    -49.2677E-03     4.89628E-03    -49.2865E-03     98.0385E-03    -49.1610E-03     4.87062E-03
            2456     1.71305E-03     1.04750E-03    -26.6636E+06    -141.310E+06    -27.0528E+06    -700.291E+03    -49.2805E-03     98.5167E-03    -49.2362E-03     3.31274E-03    -49.1699E-03     97.8880E-03    -49.1279E-03     3.29842E-03
            2457     856.511E-06     1.04750E-03    -27.0174E+06    -141.598E+06    -27.3042E+06    -185.501E+03    -49.2335E-03     98.4503E-03    -49.2168E-03     1.78336E-03    -49.1236E-03     97.8211E-03    -49.1089E-03     1.77816E-03


